LAMMPS (10 Feb 2015)
# ---- initialize simulations
clear
units metal
dimension 3
boundary p p p
atom_style charge
atom_modify map array
# ---- create atoms
read_data /Users/eugeneragasa/pyflamestk_git/pypospack/tests/tests_integration/workflow/WorkflowLammpsThermalExpansion/MgO_NaCl_unit.npt.T300/lammps.structure
  triclinic box = (0 0 0) to (4.2565 4.2565 4.2565) with tilt (0 0 0)
  1 by 1 by 1 MPI processor grid
  reading atoms ...
  8 atoms
# ---- define interatomic potential
include potential.mod
mass 1 24.305
mass 2 15.999

group Mg type 1
4 atoms in group Mg
group O type 2
4 atoms in group O

set group Mg charge 1.7
  4 settings made for charge
set group O charge -1.7
  4 settings made for charge

variable R_cut equal 10.0

pair_style buck/coul/long ${R_cut}
pair_style buck/coul/long 10
pair_coeff 1 1 0.0 0.5 0.0 ${R_cut}
pair_coeff 1 1 0.0 0.5 0.0 10
pair_coeff 1 2 929.69 0.29909 0.0 ${R_cut}
pair_coeff 1 2 929.69 0.29909 0.0 10
pair_coeff 2 2 4870 0.2679 77 ${R_cut}
pair_coeff 2 2 4870 0.2679 77 10

kspace_style pppm 1.0e-5

neighbor 1.0 bin
neigh_modify every 1 delay 0 check yes
# ---- define settings
compute eng all pe/atom
compute eatoms all reduce sum c_eng
# ---- run minimization
reset_timestep 0
fix 1 all box/relax iso 0.0 vmax 0.001
thermo 10
thermo_style custom step pe lx ly lz xy xz yz press pxx pyy pzz pxy pxz pyz c_eatoms
min_style cg
minimize 1e-25 1e-25 5000 10000
PPPM initialization ...
  G vector (1/distance) = 0.353152
  grid = 8 8 8
  stencil order = 5
  estimated absolute RMS force accuracy = 4.10333e-05
  estimated relative force accuracy = 2.84961e-06
  using double precision FFTs
  3d grid and FFT values/proc = 3375 512
Neighbor list info ...
  1 neighbor list requests
  update every 1 steps, delay 0 steps, check yes
  master list distance cutoff = 11
Memory usage per processor = 4.06549 Mbytes
Step PotEng Lx Ly Lz Xy Xz Yz Press Pxx Pyy Pzz Pxy Pxz Pyz eatoms 
       0   -119.82944       4.2565       4.2565       4.2565            0            0            0   -43102.631   -43102.631   -43102.631   -43102.631 -1.1410716e-10 2.0651384e-11 1.0044018e-10   -119.82944 
       9    -119.8549     4.222448     4.222448     4.222448            0            0            0   -490.28356   -490.28356   -490.28356   -490.28356 -3.7927136e-11 -7.2182599e-11 3.2130495e-11    -119.8549 
Loop time of 0.156443 on 1 procs for 9 steps with 8 atoms

Minimization stats:
  Stopping criterion = linesearch alpha is zero
  Energy initial, next-to-last, final = 
        -119.829437963     -119.854898204     -119.854898204
  Force two-norm initial, final = 6.22404 0.0696885
  Force max component initial, final = 6.22404 0.069669
  Final line search alpha, max atom move = 1.75215e-06 1.2207e-07
  Iterations, force evaluations = 9 35

Pair  time (%) = 0.0199585 (12.7577)
Kspce time (%) = 0.00579143 (3.70194)
Neigh time (%) = 0 (0)
Comm  time (%) = 0.000874519 (0.559001)
Outpt time (%) = 0 (0)
Other time (%) = 0.129819 (82.9814)

Nlocal:    8 ave 8 max 8 min
Histogram: 1 0 0 0 0 0 0 0 0 0
Nghost:    2189 ave 2189 max 2189 min
Histogram: 1 0 0 0 0 0 0 0 0 0
Neighs:    2344 ave 2344 max 2344 min
Histogram: 1 0 0 0 0 0 0 0 0 0

Total # of neighbors = 2344
Ave neighs/atom = 293
Neighbor list builds = 0
Dangerous builds = 0
unfix 1
# ---- define output variables ----
variable natoms equal "count(all)"
variable tot_energy equal "c_eatoms"
variable length_x equal "lx"
variable length_y equal "ly"
variable length_z equal "lz"
variable tilt_xy equal "xy"
variable tilt_xz equal "xz"
variable tilt_yz equal "yz"
variable tot_press equal "press"
variable press_xx equal "pxx"
variable press_yy equal "pyy"
variable press_zz equal "pzz"
variable press_xy equal "pxy"
variable press_xz equal "pxz"
variable press_yz equal "pyz"

# ---- output ----
print "pypospack:output_section:begin"
pypospack:output_section:begin
print "tot_energy = ${tot_energy}"
tot_energy = -119.854898204259
print "num_atoms = ${natoms}"
num_atoms = 8
print "xx = ${length_x}"
xx = 4.222448
print "yy = ${length_y}"
yy = 4.222448
print "zz = ${length_z}"
zz = 4.222448
print "xy = ${tilt_xy}"
xy = 0
print "xz = ${tilt_xz}"
xz = 0
print "yz = ${tilt_yz}"
yz = 0
print "tot_press = ${tot_press}"
tot_press = -490.283556338482
print "pxx = ${press_xx}"
pxx = -490.283556338668
print "pyy = ${press_yy}"
pyy = -490.283556338614
print "pzz = ${press_zz}"
pzz = -490.283556338163
print "pxy = ${press_xy}"
pxy = -3.79271362347293e-11
print "pxz = ${press_xz}"
pxz = -7.2182599384956e-11
print "pyz = ${press_yz}"
pyz = 3.21304951944417e-11
print "pypospack:output_section:done"
pypospack:output_section:done
print "pypospack:lammps_sim:done"
pypospack:lammps_sim:done
#------------------------------------------------------------------------------
# RUN THERMOSTAT
# running using an NPT Nose-Hoover style thermostat
#------------------------------------------------------------------------------
variable tempdamp equal 0.1
variable pressdamp equal 1.0
# set initial velocities
velocity all create 300 2146442 mom yes dist gaussian loop all
# fix for Nose-Hoover style thermostat
fix 20 all npt temp 300 300 0.1 aniso 0.0 0.0 1.0 drag 1.0 couple xyz
variable boxx equal lx
variable boxy equal ly
variable boxz equal lz
variable boxp equal press
variable boxt equal temp
# calculate averages every 10000 steps
reset_timestep 0
fix 21 all ave/time 10 10 100 v_boxx v_boxy v_boxz v_boxp v_boxt file lattice.out
thermo_style custom step temp pe ke etotal press lx ly lz press pxx pyy pzz pxy pxz pyz vol
thermo_modify flush yes
thermo 100
run 100000
PPPM initialization ...
  G vector (1/distance) = 0.353501
  grid = 8 8 8
  stencil order = 5
  estimated absolute RMS force accuracy = 4.03791e-05
  estimated relative force accuracy = 2.80417e-06
  using double precision FFTs
  3d grid and FFT values/proc = 3375 512
Memory usage per processor = 3.06549 Mbytes
Step Temp PotEng KinEng TotEng Press Lx Ly Lz Press Pxx Pyy Pzz Pxy Pxz Pyz Volume 
       0          300    -119.8549    0.2714463   -119.58345     3361.465     4.222448     4.222448     4.222448     3361.465    3841.3961    2366.9615    3876.0373   -2076.4178   -993.09533    1753.8916    75.282309 
     100    99.989286    -119.6342  0.090472407   -119.54373   -7775.8242    4.2379488    4.2379488    4.2379488   -7775.8242   -9338.9946     -5054.55   -8933.9279    -254.1144     -321.402   -1316.5021     76.11445 
     200    268.16865   -119.71771   0.24264463   -119.47507    -710.0519    4.2282352    4.2282352    4.2282352    -710.0519   -2096.9503   -4.7451664    -28.46022   -752.23987    3031.0718   -139.92866    75.592275 
     300    161.87794   -119.55411   0.14647056   -119.40764     1725.139    4.2377623    4.2377623    4.2377623     1725.139      10875.8   -4292.3596   -1408.0233   -2543.9426    1563.5961   -1924.6928    76.104404 
     400    419.82252   -119.73707   0.37986424   -119.35721   -3162.2945     4.234778     4.234778     4.234778   -3162.2945   -1216.8612   -8605.7219    335.69954    3200.5839   -1084.9503   -1255.2481    75.943736 
     500    257.70589   -119.55903    0.2331777   -119.32585    9508.3447    4.2338661    4.2338661    4.2338661    9508.3447    10977.097    5569.5771     11978.36    989.59797    592.67363    498.24707    75.894684 
     600    269.55438   -119.55608   0.24389847   -119.31219   -3854.1545    4.2405438    4.2405438    4.2405438   -3854.1545    5645.4577   -14444.587   -2763.3341   -800.36563     4244.026    -1794.476    76.254356 
     700    251.50761   -119.53525   0.22756937   -119.30768    8040.2955    4.2326795    4.2326795    4.2326795    8040.2955   -2391.9857    9922.1629    16590.709    4300.2789    6381.8863   -2665.5685     75.83089 
     800    246.03305   -119.53048   0.22261587   -119.30786   -5054.6576    4.2414805    4.2414805    4.2414805   -5054.6576   -8581.5195   -6031.6718    -550.7814   -1697.4943    5163.1266    1199.1592    76.304901 
     900    398.35425   -119.66874    0.3604393    -119.3083   -1012.7987    4.2359689    4.2359689    4.2359689   -1012.7987   -3475.6431   -7236.3636    7673.6107    3018.6566   -3425.6728   -655.54751    76.007822 
    1000    220.57822   -119.50948   0.19958381   -119.30989   -1905.9393     4.240443     4.240443     4.240443   -1905.9393   -9688.4425   -729.11613    4699.7407    1320.3682    7144.3005   -2660.1113    76.248917 
    1100     245.9706   -119.53379   0.22255937   -119.31123   -1842.8855    4.2352171    4.2352171    4.2352171   -1842.8855   -4034.2303    -2438.317    943.89059   -3592.2944     5297.042    1344.2461    75.967361 
    1200    255.53755   -119.54131   0.23121574   -119.31009    1274.9619    4.2394283    4.2394283    4.2394283    1274.9619    3123.4305   -12325.818    13027.273    230.02993   -2043.6172   -4273.4817    76.194193 
    1300    388.15245   -119.65957   0.35120849   -119.30836    1577.4042    4.2365951    4.2365951    4.2365951    1577.4042   -3076.3047    -2833.937    10642.454   -2985.4869    -880.2571    1792.1391    76.041533 
    1400    324.08482   -119.60311   0.29323876   -119.30987    4363.1911    4.2352192    4.2352192    4.2352192    4363.1911    8653.1823   -8660.1835    13096.574   -3086.6308   -4519.8883   -812.75255    75.967473 
    1500    173.95411   -119.46832   0.15739733   -119.31092    1846.4196    4.2402661    4.2402661    4.2402661    1846.4196     3393.475   -6400.5852     8546.369   -4943.9078    2689.9866    1344.5055    76.239375 
    1600    345.09752    -119.6226   0.31225149   -119.31034     375.2764    4.2345434    4.2345434    4.2345434     375.2764   -2890.3218   -4064.6218    8080.7728   -2429.9148   -343.40426   -148.93948    75.931111 
    1700    319.73184   -119.59876   0.28930009   -119.30946   -2252.4774    4.2402027    4.2402027    4.2402027   -2252.4774    621.10205    -271.5193   -7107.0149   -2100.6499    187.30705    4302.4349    76.235954 
    1800    380.53914   -119.65403   0.34431981   -119.30971   -6611.0886    4.2376398    4.2376398    4.2376398   -6611.0886   -2298.3824   -11358.996   -6175.8874    3285.4357   -2117.4598    601.09565    76.097805 
    1900     170.8908    -119.4656   0.15462559   -119.31098   -471.60437    4.2366442    4.2366442    4.2366442   -471.60437    1738.8187    10409.698   -13563.329   -2315.8876    10698.722    3069.5255    76.044181 
    2000    335.54417   -119.61456   0.30360742   -119.31095   -3532.4645    4.2376568    4.2376568    4.2376568   -3532.4645    7481.5511   -8023.8958   -10055.049    2951.5308    3987.4927   -1759.2788    76.098718 
    2100    241.50576   -119.53035   0.21851949   -119.31183    5476.0997    4.2377567    4.2377567    4.2377567    5476.0997    18543.182   -4885.7145    2770.8317    595.22423    4294.0779    878.61127    76.104099 
    2200    388.70978   -119.66292   0.35171278   -119.31121    -411.0816    4.2359656    4.2359656    4.2359656    -411.0816    8736.3238    -8290.968   -1678.6006   -917.41935   -2304.4683    497.59688    76.007643 
    2300    235.70162   -119.52548   0.21326778   -119.31221    7605.4108    4.2356653    4.2356653    4.2356653    7605.4108    20845.169    -356.3708    2327.4343   -2343.5265    5701.5723    437.70215    75.991483 
    2400    287.27522   -119.57283   0.25993266   -119.31289   -6067.3619    4.2396635    4.2396635    4.2396635   -6067.3619   -2638.4616    -14776.79   -786.83403   -4570.2528     3216.906   -1090.5963    76.206878 
    2500    201.74397   -119.49564   0.18254219    -119.3131    5243.1238    4.2329018    4.2329018    4.2329018    5243.1238    7890.6719    12909.197    -5070.498    -4764.158    4014.9666     2129.766    75.842837 
    2600    408.83018      -119.68   0.36991814   -119.31008    -8223.504     4.239584     4.239584     4.239584    -8223.504   -884.37616   -13100.785   -10685.351    279.44801    3984.3844    2554.6551    76.202589 
    2700    310.79112   -119.59148   0.28121034   -119.31027    3773.9787    4.2371889    4.2371889    4.2371889    3773.9787    3430.7187    3951.6726    3939.5448   -3872.9805    2309.1259    1530.5152    76.073515 
    2800    314.69839   -119.59499   0.28474572   -119.31024   -4774.2157    4.2369051    4.2369051    4.2369051   -4774.2157   -1641.4266   -2261.4284   -10419.792   -3530.9027    7849.5339    1919.2183    76.058229 
    2900    206.69373   -119.49811   0.18702083   -119.31109    3024.5166     4.238541     4.238541     4.238541    3024.5166    5121.2655   -4625.9892    8578.2734   -272.56401    3862.8542   -598.87062    76.146364 
    3000    426.61989    -119.6943   0.38601465   -119.30829   -3986.7412    4.2373356    4.2373356    4.2373356   -3986.7412   -4130.6408   -8274.4262    444.84338   -3748.5702   -54.496285    3102.4583    76.081414 
    3100    346.61722   -119.62233   0.31362655   -119.30871   -822.25153    4.2375456    4.2375456    4.2375456   -822.25153   -3840.6201   -166.04952     1539.915     288.9045   -1122.0911   -757.30527    76.092729 
    3200    346.33231    -119.6228   0.31336875   -119.30943   -5801.5457    4.2373979    4.2373979    4.2373979   -5801.5457    -3149.484   -15135.178    880.02476   -1597.8766    3523.9371    519.39316    76.084771 
    3300     210.5682   -119.50178   0.19052654   -119.31126   -554.41968    4.2386258    4.2386258    4.2386258   -554.41968   -2467.7592    2332.8049   -1528.3047   -2735.9491   -2086.3801   -3014.7241    76.150936 
    3400    389.85389   -119.66231   0.35274799   -119.30956   -5628.5159     4.237754     4.237754     4.237754   -5628.5159    5201.5397   -11175.192   -10911.896   -192.13608     1207.396   -900.40473    76.103954 
    3500    266.66587   -119.55063   0.24128488   -119.30935     4253.076    4.2374842    4.2374842    4.2374842     4253.076    6073.9634    4582.2901    2102.9746    2560.3576   -3046.2478   -1342.1103    76.089423 
    3600    376.50472    -119.6497   0.34066939   -119.30903   -4362.0025     4.237749     4.237749     4.237749   -4362.0025    8205.9871   -8953.6509   -12338.344    -3940.204   -299.07648   -2690.9252    76.103683 
    3700    155.83614    -119.4525   0.14100382    -119.3115    9298.6606    4.2365029    4.2365029    4.2365029    9298.6606    11159.898    13040.903    3695.1816    1571.1119    4987.2233   -2996.7486     76.03657 
    3800    335.57646   -119.61437   0.30363664   -119.31073   -2758.3162      4.23712      4.23712      4.23712   -2758.3162    6226.1567    -12165.37   -2335.7351   -2120.7276    258.22062   -2343.1625    76.069802 
    3900      172.305   -119.46733   0.15590519   -119.31143    9317.9058     4.236542     4.236542     4.236542    9317.9058    10344.848    6591.3129    11017.557   -1732.6805   -2631.8902   -566.74379    76.038677 
    4000    426.44625   -119.69601   0.38585753   -119.31015   -5784.6899    4.2381039    4.2381039    4.2381039   -5784.6899    6163.4357   -10737.506       -12780    2369.0306    1011.2412   -2430.6532     76.12281 
    4100    183.83038   -119.47802   0.16633359   -119.31168    6304.0746    4.2373563    4.2373563    4.2373563    6304.0746    3820.4304    462.56558    14629.228   -5328.0415    1529.7611   -1247.0256    76.082532 
    4200    347.68617   -119.62547   0.31459375   -119.31087   -8785.4968    4.2385432    4.2385432    4.2385432   -8785.4968    2296.9347   -10741.041   -17912.384    994.07017     1299.132   -3019.6152    76.146479 
    4300    189.60793   -119.48244   0.17156124   -119.31088    2526.2408    4.2362764    4.2362764    4.2362764    2526.2408    1295.8769    10019.316     -3736.47    2603.8848    1101.9508   -826.33251    76.024376 
    4400    489.08679   -119.75193   0.44253601   -119.30939   -8699.7785    4.2380813    4.2380813    4.2380813   -8699.7785   -9675.4012   -8920.5985   -7503.3358    278.69233   -4182.3889    455.53873    76.121587 
    4500    268.66244   -119.55326   0.24309143   -119.31017    468.32582    4.2379123    4.2379123    4.2379123    468.32582   -8089.6771    15115.501    -5620.846    1468.9127    2923.5652   -3705.1971    76.112485 
    4600    328.08369   -119.60711   0.29685702   -119.31025   -4057.2011     4.236011     4.236011     4.236011   -4057.2011   -6610.7983    2611.5447   -8172.3497   -317.02602    1670.8133    202.20605    76.010087 
    4700    218.06604   -119.50799   0.19731073   -119.31068    4296.6263    4.2388201    4.2388201    4.2388201    4296.6263    305.42599     4101.296    8483.1567   -3754.6584   -3260.1628   -2483.3936    76.161408 
    4800    390.17489   -119.66157   0.35303844   -119.30853    268.66929    4.2372863    4.2372863    4.2372863    268.66929    884.68469    4679.0628   -4757.7396    2041.9365    606.18171    894.09125     76.07876 
    4900    274.50755   -119.55702    0.2483802   -119.30864    7061.6051     4.236668     4.236668     4.236668    7061.6051    7254.7075    4871.8438    9058.2639    -4272.387   -324.70352   -3688.1065    76.045462 
    5000    246.16683   -119.53226   0.22273692   -119.30953    1337.3668     4.238328     4.238328     4.238328    1337.3668    11625.033   -1237.7423   -6375.1899   -4795.9828    1791.2344   -230.96513    76.134886 
    5100    248.62073   -119.53556   0.22495726    -119.3106    316.64109    4.2378976    4.2378976    4.2378976    316.64109    5457.4723    1783.3893   -6290.9383    1185.8146    2680.7037   -3564.6343    76.111693 
    5200    288.80966   -119.57117   0.26132105   -119.30985    -950.0441     4.235876     4.235876     4.235876    -950.0441    867.32764    745.61258   -4463.0725   -2934.7321   -856.61973    3044.4566    76.002823 
    5300    339.12402    -119.6156   0.30684654   -119.30875   -7473.1444    4.2401653    4.2401653    4.2401653   -7473.1444   -2589.6907   -4962.3566   -14867.386    2925.8548   -130.91959   -730.85814     76.23394 
    5400    261.04307   -119.54611   0.23619726   -119.30991   -1267.6189     4.237512     4.237512     4.237512   -1267.6189   -5227.3418    10259.787   -8835.3018   -2422.8493    7236.7921     88.21861    76.090919 
    5500     371.3555   -119.64702   0.33601026     -119.311   -5097.5933    4.2353358    4.2353358    4.2353358   -5097.5933    -6616.652   -2435.8693   -6240.2585   -1316.1966   -2654.9847   -201.12295    75.973745 
    5600    244.43903   -119.53213   0.22117357   -119.31096    879.06135    4.2395363    4.2395363    4.2395363    879.06135   -4166.9744    7536.9829   -732.82446    897.61324    570.60612     4778.896     76.20002 
    5700    422.90764   -119.69213   0.38265572   -119.30947   -2568.7717     4.235932     4.235932     4.235932   -2568.7717   -2155.9502    -6223.235    672.87004    1353.3472   -986.18989     842.8246    76.005835 
    5800    285.78774   -119.57004   0.25858675   -119.31145    6145.5542    4.2338517    4.2338517    4.2338517    6145.5542   -2055.3512    8750.5452    11741.469    479.16466    770.78385     998.5739    75.893911 
    5900    346.97729   -119.62533   0.31395234   -119.31138   -1493.5244    4.2398496    4.2398496    4.2398496   -1493.5244    6100.9517   -10546.907   -34.617406    797.08913    2589.7303   -577.32347    76.216911 
    6000     207.2325   -119.49844   0.18750832   -119.31093    4655.8694    4.2359125    4.2359125    4.2359125    4655.8694   -24.166214    16253.755   -2261.9809   -2027.7889    174.05878    362.43049    76.004786 
    6100    331.51434    -119.6107   0.29996114   -119.31074   -2622.6453    4.2369479    4.2369479    4.2369479   -2622.6453    4584.9272   -4359.7237   -8093.1396    2928.0392   -763.97659    1648.4582    76.060536 
    6200     284.3955   -119.56764   0.25732703   -119.31032    -395.5906    4.2408923    4.2408923    4.2408923    -395.5906   -3181.4632    11471.372   -9476.6804   -3791.2511    1205.4906    1563.7273    76.273158 
    6300    269.22388   -119.55318   0.24359943   -119.30958   -3770.9113    4.2368089    4.2368089    4.2368089   -3770.9113    4814.0285     1729.562   -17856.324   -3454.2023     3202.965   -1915.7964    76.053046 
    6400    234.33398   -119.52182   0.21203031   -119.30979   -1103.5505    4.2372341    4.2372341    4.2372341   -1103.5505   -475.33298    5251.2039   -8086.5224   -219.21972   -3954.8181    2701.7681    76.075946 
    6500    302.34638   -119.58325   0.27356935   -119.30968   -1275.6339    4.2395147    4.2395147    4.2395147   -1275.6339    2387.9349    2264.8739   -8479.7105   -3139.9573    1923.4859    778.76173    76.198851 
    6600    323.14743   -119.60255   0.29239059   -119.31016    514.36122    4.2350704    4.2350704    4.2350704    514.36122    1653.8551    1147.7148   -1258.4862     6187.439   -3141.0095   -547.80359    75.959467 
    6700    274.69037    -119.5585   0.24854562   -119.30995     5691.883    4.2358881    4.2358881    4.2358881     5691.883    8484.4412    6564.6781    2026.5298    2436.2349    4949.4181   -1206.0821    76.003471 
    6800    338.50285   -119.61605   0.30628449   -119.30977   -652.50705    4.2395307    4.2395307    4.2395307   -652.50705    2613.7225    5393.8634    -9965.107   -425.47846   -604.78792   -2476.8661    76.199714 
    6900    322.18624   -119.60097   0.29152088   -119.30945    4100.1414    4.2342927    4.2342927    4.2342927    4100.1414   -2673.0948    10896.837    4076.6823    4949.8798    711.64206    391.03691    75.917627 
    7000    328.47504   -119.60583   0.29721111   -119.30862   -4042.1403    4.2396111    4.2396111    4.2396111   -4042.1403   -3809.5388    2260.2606   -10577.143    3612.3887   -282.57665   -423.98117    76.204049 
    7100    290.39216   -119.57215   0.26275293    -119.3094   -4939.3417    4.2391827    4.2391827    4.2391827   -4939.3417   -7558.9596   -199.60744   -7059.4581    101.52051    1601.8509   -5282.5406    76.180953 
    7200    348.12038   -119.62462   0.31498664   -119.30963   -5084.8705    4.2362626    4.2362626    4.2362626   -5084.8705   -6367.4145    493.00603    -9380.203    4923.6215    2861.3673    -1914.824    76.023633 
    7300    299.96452   -119.58191   0.27141421    -119.3105   -4422.4936    4.2388519    4.2388519    4.2388519   -4422.4936   -484.19982   -1638.0687   -11145.212   -3277.8845   -2109.3848   -249.88697    76.163121 
    7400    262.83068   -119.54736   0.23781472   -119.30955   -3725.3818    4.2401278    4.2401278    4.2401278   -3725.3818    9238.4083   -7844.6018   -12569.952       1960.4    382.54009   -1602.4949    76.231918 
    7500    290.47844   -119.57283     0.262831      -119.31    5382.7058    4.2333012    4.2333012    4.2333012    5382.7058    9667.3333    4479.1938    2001.5904    6154.1381   -2608.6393    434.65551    75.864312 
    7600    310.33629   -119.59033    0.2807988   -119.30953    345.21759     4.239269     4.239269     4.239269    345.21759    15931.991   -6323.6764   -8572.6617   -1781.4082    3786.3191   -1429.6917    76.185607 
    7700    269.60691   -119.55331     0.243946   -119.30937    4553.8766    4.2385353    4.2385353    4.2385353    4553.8766     5477.191    11929.776   -3745.3369    2650.9374   -4003.2521    2463.7603    76.146058 
    7800    292.07607   -119.57381   0.26427657   -119.30953    3026.3448    4.2320591    4.2320591    4.2320591    3026.3448    6159.9704    7139.2804   -4220.2164    1230.6215   -1087.0443    3138.0139    75.797549 
    7900    252.69533   -119.53873   0.22864404   -119.31008    1837.8766      4.24124      4.24124      4.24124    1837.8766   -1262.5712     5238.242    1537.9591   -445.67161   -1582.0906   -785.67574    76.291918 
    8000    339.14398   -119.61563    0.3068646   -119.30877   -1988.5327    4.2383385    4.2383385    4.2383385   -1988.5327   -494.19546   -1192.3898   -4279.0128    3863.1785    132.68378   -1184.8965    76.135447 
    8100    226.63636   -119.51408   0.20506534   -119.30902    1298.4244    4.2351986    4.2351986    4.2351986    1298.4244   -1434.4174     4880.049    449.64147   -1639.4125    2754.3972    938.06867    75.966364 
    8200     406.9503   -119.67766   0.36821718   -119.30944   -7137.0523    4.2417242    4.2417242    4.2417242   -7137.0523   -503.24196   -10199.333   -10708.582   -1510.7904   -1825.6542   -3909.7471    76.318053 
    8300    178.20537   -119.47267   0.16124396   -119.31143    1635.4962    4.2381485    4.2381485    4.2381485    1635.4962    7496.9008   -2081.2506   -509.16176    3331.5737   -258.06515    573.91576    76.125208 
    8400    393.46795   -119.66607   0.35601807   -119.31006   -3597.5049    4.2327781    4.2327781    4.2327781   -3597.5049   -1465.4813   -9492.8552    165.82185   -2423.9176    441.87733   -3794.5162     75.83619 
    8500    243.71509   -119.53092   0.22051854   -119.31041    5795.5799    4.2403139    4.2403139    4.2403139    5795.5799    7861.7539    8810.7752     714.2105   -2294.0783     3815.443    1040.2691    76.241952 
    8600    442.36443   -119.71026   0.40026064      -119.31    -7098.163     4.236421     4.236421     4.236421    -7098.163   -10377.944   -6747.1559   -4169.3889   -1107.8605     -2100.07    3187.4946    76.032159 
    8700    179.11248   -119.47324   0.16206474   -119.31118    8703.3566     4.233469     4.233469     4.233469    8703.3566    458.87251    19006.745    6644.4525   -5038.9923    2335.2912    1239.8908    75.873331 
    8800    379.00463   -119.65354   0.34293135   -119.31061   -10528.502     4.241865     4.241865     4.241865   -10528.502   -8869.4007   -13166.672   -9549.4328    2189.7096    -2567.292   -360.14881    76.325654 
    8900    281.48128   -119.56477   0.25469018   -119.31008    3728.5079    4.2353581    4.2353581    4.2353581    3728.5079    537.75234    8372.7039    2275.0675   -1767.9896    7203.8932    3504.9472    75.974948 
    9000    363.87036   -119.63826   0.32923755   -119.30902   -4871.4336    4.2359903    4.2359903    4.2359903   -4871.4336   -2236.9133   -5246.7896   -7130.5978   -2524.2604    2111.4074   -775.17745    76.008976 
    9100    236.80284   -119.52421   0.21426419   -119.30995   -4163.7366    4.2425946    4.2425946    4.2425946   -4163.7366    10840.408   -8004.6122   -15327.006     923.6209   -1672.4575      3480.05    76.365043 
    9200    312.42204   -119.59242   0.28268603   -119.30974    1717.9577    4.2349786    4.2349786    4.2349786    1717.9577    8709.6105    -5835.302    2279.5644    94.795336    1090.3822   -857.94841    75.954526 
    9300    301.23699   -119.58304   0.27256556   -119.31047   -1526.9572    4.2375189    4.2375189    4.2375189   -1526.9572    4903.8543   -5156.9199    -4327.806   -1440.4677     278.9142    -929.8562     76.09129 
    9400    274.47376   -119.55705   0.24834963    -119.3087    1919.0088    4.2413976    4.2413976    4.2413976    1919.0088    8274.4377   -8522.9605    6005.5492    1712.1144    4158.8416    777.63528    76.300423 
    9500    359.30589   -119.63357   0.32510752   -119.30847    322.22812    4.2342535    4.2342535    4.2342535    322.22812    -4382.619    7483.6533   -2134.3499   -2188.8651   -1135.3179    -2271.114     75.91552 
    9600     220.8554   -119.50976   0.19983461   -119.30992     3710.882    4.2362642    4.2362642    4.2362642     3710.882   -4583.0509    294.38596    15421.311    1650.9306    1031.1923   -2331.9572    76.023719 
    9700    333.32121   -119.61079   0.30159603    -119.3092   -4346.7485    4.2417122    4.2417122    4.2417122   -4346.7485   -10347.099   -1804.3983   -888.74792     2689.071    -2516.284   -942.95311    76.317404 
    9800    271.69354   -119.55561   0.24583402   -119.30977    1159.4346      4.23309      4.23309      4.23309    1159.4346   -7080.2077    5377.4018    5181.1097   -2777.4561    8778.1375     -403.671    75.852954 
    9900    388.27626   -119.66113   0.35132052   -119.30981   -3225.9252    4.2369682    4.2369682    4.2369682   -3225.9252   -10102.733    2747.9423   -2322.9847    2126.2406   -2123.1477     1433.277    76.061628 
   10000    234.89023   -119.52321   0.21253362   -119.31067    -2318.911    4.2410792    4.2410792    4.2410792    -2318.911    722.17767   -10315.799    2636.8883   -60.480246     2035.959    633.26652    76.283246 
   10100    247.61658    -119.5351   0.22404869   -119.31105    2071.4855    4.2339585    4.2339585    4.2339585    2071.4855    5526.5485   -5417.7415    6105.6495     2414.982    -3875.741   -1133.4351    75.899654 
   10200    346.12686   -119.62399   0.31318286   -119.31081    1981.3846    4.2363133    4.2363133    4.2363133    1981.3846    1182.9792   -8050.6863    12811.861    2000.9957    2933.3809      1467.38    76.026362 
   10300     262.9773   -119.54808   0.23794739   -119.31013    2885.1796      4.24057      4.24057      4.24057    2885.1796    13581.861    -7959.213    3032.8906   -177.98867    3182.1872    1537.7039    76.255769 
   10400    335.64333   -119.61292   0.30369714   -119.30922    1031.7431     4.234288     4.234288     4.234288    1031.7431   -3169.8366   -6091.4002    12356.466    241.99576   -2409.7998    879.27123    75.917374 
   10500    165.34289   -119.46064   0.14960572   -119.31104    4520.4031    4.2373699    4.2373699    4.2373699    4520.4031    2876.3695     7541.237    3143.6028    5838.5687   -1254.8268   -1200.8045    76.083266 
   10600    379.49544   -119.65479   0.34337545   -119.31142   -9335.1879    4.2397024    4.2397024    4.2397024   -9335.1879   -12039.715   -14164.242   -1801.6068    50.899209    186.05893   -866.49127    76.208972 
   10700    176.16046   -119.47083   0.15939369   -119.31144    3679.5471     4.234591     4.234591     4.234591    3679.5471    -3210.847    15007.172   -757.68328    4741.1249    6817.9838   -730.02806    75.933671 
   10800    409.46946   -119.68009   0.37049657    -119.3096   -10268.248    4.2385088    4.2385088    4.2385088   -10268.248   -15385.561   -5009.0241   -10410.159    2450.0924    430.80049    1309.1902    76.144628 
   10900    233.17055   -119.52238   0.21097761    -119.3114    6863.6533    4.2379782    4.2379782    4.2379782    6863.6533    8602.1166    5070.0725    6918.7707    3130.7097   -1774.0052     33.07177    76.116037 
   11000    374.42035   -119.64876    0.3387834   -119.30998   -3640.9402    4.2359849    4.2359849    4.2359849   -3640.9402   -2581.1916   -5542.6739    -2798.955    6263.4072   -1911.0363   -2631.9908    76.008682 
   11100    234.41375   -119.52206   0.21210249   -119.30996    8286.6302    4.2365599    4.2365599    4.2365599    8286.6302    8585.7724    2146.9804    14127.138    1125.5475    2996.9814    756.06912    76.039641 
   11200    405.63032   -119.67532   0.36702284    -119.3083   -4338.1099    4.2403941    4.2403941    4.2403941   -4338.1099     11789.15   -9805.3597    -14998.12   -552.48571   -1692.6299   -243.75356    76.246283 
   11300    326.02655   -119.60417   0.29499567   -119.30917    2539.5192     4.234299     4.234299     4.234299    2539.5192   -1415.1591    1782.4179    7251.2986    2385.5616   -1727.8093   -2030.2064    75.917964 
   11400    306.95789   -119.58678   0.27774195   -119.30903   -5532.8157     4.239782     4.239782     4.239782   -5532.8157   -676.21273   -5463.7012   -10458.533   -1941.0871   -2094.3507    839.72815    76.213269 
   11500    275.68737   -119.55907   0.24944773   -119.30962   -5115.1967    4.2404732    4.2404732    4.2404732   -5115.1967   -8597.7084   -1944.2998   -4803.5819   -1498.1059     295.9115   -1713.5593     76.25055 
   11600    316.25524   -119.59509   0.28615439   -119.30893   -3372.4689    4.2339521    4.2339521    4.2339521   -3372.4689   -6893.1707    2588.5295   -5812.7654   -111.79402    11085.723   -260.58069    75.899307 
   11700    257.99985   -119.54348   0.23344369   -119.31004   -1177.7525    4.2396419    4.2396419    4.2396419   -1177.7525   -8152.0453    4924.4913   -305.70347   -4906.2729     1157.095    3620.6413    76.205714 
   11800    287.65444    -119.5694   0.26027579   -119.30912   -554.32296    4.2382582    4.2382582    4.2382582   -554.32296    9037.6043   -7701.1078   -2999.4654     2316.923    1864.3713   -3467.7134    76.131122 
   11900    211.35914   -119.50157   0.19124219   -119.31033    9919.9797    4.2339897    4.2339897    4.2339897    9919.9797     6778.377    9577.6162    13403.946   -1213.7303    4663.5093    1239.2061    75.901333 
   12000    330.33216   -119.60948   0.29889148   -119.31059    2789.7577    4.2364968    4.2364968    4.2364968    2789.7577    12383.857    -5827.041    1812.4568   -1215.3703    2457.0768    2250.8757     76.03624 
   12100    233.21068   -119.52052   0.21101392   -119.30951    4814.4167    4.2408152    4.2408152    4.2408152    4814.4167    10975.328    -3670.154    7138.0758    748.52589    2701.0294    -1532.404    76.268997 
   12200    380.67284   -119.65286   0.34444079   -119.30842   -1939.6727    4.2339185    4.2339185    4.2339185   -1939.6727     1471.847   -6648.6461    -642.2191   -1453.7544   -4519.9623    1814.4632    75.897501 
   12300    271.86862   -119.55579   0.24599244   -119.30979   -1601.4531    4.2395637    4.2395637    4.2395637   -1601.4531   -1694.6246   -6867.4069    3757.6722   -232.89531   -2776.5093   -2801.6915    76.201496 
   12400    341.31673   -119.61798   0.30883055   -119.30915   -10896.714    4.2413671    4.2413671    4.2413671   -10896.714   -9423.7076   -18446.285   -4820.1483    2300.3947    1367.6795    -4112.772    76.298778 
   12500    279.68208   -119.56174   0.25306222   -119.30868   -3035.0128    4.2349993    4.2349993    4.2349993   -3035.0128   -6693.1497    8189.2988   -10601.188   -4190.4775    3747.1647    3272.4633    75.955638 
   12600    397.17774   -119.66842   0.35937477   -119.30905    -7257.542    4.2389992    4.2389992    4.2389992    -7257.542   -4060.9955   -13307.639    -4403.992    1175.7639    242.54079   -2665.5175    76.171062 
   12700    285.90809   -119.56865   0.25869565   -119.30995    676.40411    4.2384134    4.2384134    4.2384134    676.40411    1882.5775    4431.0788   -4284.4439   -1673.7841    456.50777   -1847.9687    76.139487 
   12800    311.46214   -119.59135   0.28181749   -119.30953    1443.5818    4.2350346    4.2350346    4.2350346    1443.5818    1686.4357     570.4591    2073.8507   -3546.7762    5557.6565    2842.9476    75.957542 
   12900    256.10826   -119.54209   0.23173214   -119.31036    7668.8869    4.2360362    4.2360362    4.2360362    7668.8869    13705.608    7020.9206    2280.1326   -2754.4175    6094.8832   -605.80749    76.011443 
   13000    356.75023   -119.63219   0.32279511   -119.30939    407.06037    4.2386971    4.2386971    4.2386971    407.06037     2941.578   -4038.7993    2318.4025   -3051.3388    5522.2571    3869.0506    76.154778 
   13100    252.49495   -119.53827   0.22846273    -119.3098    5489.8159    4.2347891    4.2347891    4.2347891    5489.8159    7021.1847    3425.5462    6022.7167   -4426.7302    -1052.307    1485.9055    75.944329 
   13200    337.95551   -119.61585   0.30578925   -119.31006   -7522.3483    4.2394199    4.2394199    4.2394199   -7522.3483   -5432.6183   -12733.652   -4400.7752     2193.697      2322.56   -3695.7425    76.193742 
   13300    226.23803   -119.51626   0.20470493   -119.31155   -1021.6598    4.2375661    4.2375661    4.2375661   -1021.6598   -2978.2209   -5688.0853    5601.3268   -1721.7837    4736.4578    2403.2541     76.09383 
   13400     316.7568    -119.5976   0.28660821   -119.31099   -7336.3987    4.2368235    4.2368235    4.2368235   -7336.3987   -9823.6715   -6930.9705   -5254.5542   -834.40962    6537.6194   -1374.5824    76.053834 
   13500    239.83992   -119.52712    0.2170122   -119.31011    228.29702    4.2395586    4.2395586    4.2395586    228.29702    9082.5698   -4035.5195   -4362.1593     2299.552   -1006.6044   -3833.0582    76.201221 
   13600    362.32849   -119.63752   0.32784243   -119.30967    780.85568    4.2359476    4.2359476    4.2359476    780.85568    426.80992   -5168.8576    7084.6147   -201.68542    -574.6609    509.59784    76.006674 
   13700    252.31943   -119.53899   0.22830392   -119.31069    5942.1372    4.2355727    4.2355727    4.2355727    5942.1372    9806.5761    5519.5543    2500.2811    1179.9788    2248.8955   -5724.1652    75.986495 
   13800    268.05033   -119.55261   0.24253758   -119.31007    3903.1329    4.2384752    4.2384752    4.2384752    3903.1329    4754.0844   -3353.2933    10308.608    38.955856    2920.4042    1082.5744    76.142817 
   13900    314.87476   -119.59441    0.2849053    -119.3095     2312.253    4.2352165    4.2352165    4.2352165     2312.253    479.06641    1275.7779    5181.9148   -4179.3082    788.67386    1619.8748    75.967327 
   14000    371.43791   -119.64494   0.33608483   -119.30885    1346.7066    4.2357011    4.2357011    4.2357011    1346.7066   -2797.8787   -1802.6379    8640.6364   -701.54783   -2715.9741   -5151.2565    75.993405 
   14100    325.46504   -119.60367    0.2944876   -119.30918   -6801.7381    4.2417506    4.2417506    4.2417506   -6801.7381   -8950.7987    -10836.26   -618.15536    901.35396    1401.6268     2112.796    76.319479 
   14200     254.0849   -119.53961   0.22990135    -119.3097   -4659.8306    4.2370874    4.2370874    4.2370874   -4659.8306   -6600.7478   -5337.3611   -2041.3829   -1967.5461    3157.3394   -409.87309    76.068048 
   14300    362.34889    -119.6377   0.32786089   -119.30984   -7095.7111    4.2374339    4.2374339    4.2374339   -7095.7111   -11216.125   -3167.7177   -6903.2903    55.229929    3798.7546   -1441.6395    76.086712 
   14400    302.56593   -119.58264   0.27376801   -119.30888   -6491.9238    4.2419039    4.2419039    4.2419039   -6491.9238    3489.9083   -18885.959   -4079.7209   -781.18382   -2910.0213    3186.6403    76.327751 
   14500    363.20202   -119.63735   0.32863282   -119.30872   -824.71927    4.2352962    4.2352962    4.2352962   -824.71927   -2946.8983     1335.113   -862.37251     242.5656    1400.0492   -3024.2176    75.971615 
   14600     230.0288   -119.51866   0.20813489   -119.31052    4105.7873    4.2363745    4.2363745    4.2363745    4105.7873    10682.712   -6229.3744    7864.0242     2546.472    3105.2747   -1607.0888    76.029659 
   14700    281.48091   -119.56506   0.25468984   -119.31037     3049.806    4.2383524    4.2383524    4.2383524     3049.806    775.63827   -3134.1626    11507.942   -439.21204    2198.8835    2208.4599    76.136201 
   14800    275.04215   -119.55831   0.24886391   -119.30945    7079.7332    4.2347396    4.2347396    4.2347396    7079.7332     4080.576   -2786.2505    19944.874    376.18663    -2636.886   -2964.3994     75.94167 
   14900    321.81714   -119.60043   0.29118692   -119.30924    1976.0585    4.2368612    4.2368612    4.2368612    1976.0585   -2029.8469    1588.1166    6369.9057    1546.9483   -1276.3639    -2220.742    76.055864 
   15000    299.33622   -119.58122    0.2708457   -119.31037    318.58817    4.2385223    4.2385223    4.2385223    318.58817     -2259.91   -4888.1191    8103.7936    1097.4345    2256.7535   -487.79038    76.145357 
   15100    175.38826   -119.47046   0.15869498   -119.31176   -1290.6586     4.236182     4.236182     4.236182   -1290.6586   -2974.8418     2513.839   -3410.9731    2829.5955     6183.042   -3632.0386    76.019295 
   15200    338.95027   -119.61743   0.30668933   -119.31074   -4887.0868    4.2390666    4.2390666    4.2390666   -4887.0868   -4538.9281   -5318.7298   -4803.6025   -2669.2899    836.67361    2303.8527    76.174693 
   15300    332.32409     -119.611   0.30069382    -119.3103   -671.00622    4.2385579    4.2385579    4.2385579   -671.00622     532.8494   -10591.294    8045.4256    888.54032    1122.1823   -1538.1827    76.147275 
   15400    356.28583   -119.63273    0.3223749   -119.31035   -2598.1094    4.2352574    4.2352574    4.2352574   -2598.1094   -1370.3138   -6300.7007   -123.31375   -2241.2282    5336.6562   -665.64254    75.969527 
   15500    228.09558   -119.51639   0.20638568   -119.31001    1570.7131    4.2399647    4.2399647    4.2399647    1570.7131   -3884.0629   -5591.8121    14188.014    711.86056    6896.8408   -347.08968     76.22312 
   15600    355.79531   -119.63072   0.32193108   -119.30879   -2920.1131    4.2357581    4.2357581    4.2357581   -2920.1131    364.07714   -7272.0028   -1852.4137   -4326.0674    4122.8743    3352.5689    75.996475 
   15700    309.51782   -119.58913   0.28005822   -119.30907    4052.9134    4.2355281    4.2355281    4.2355281    4052.9134    1412.0163    2590.4169    8156.3071    1254.2507   -540.92384   -1391.7583    75.984097 
   15800    378.33514   -119.65132   0.34232559   -119.30899   -5455.7412    4.2400555    4.2400555    4.2400555   -5455.7412   -5017.0423   -1435.3975   -9914.7837   -1748.5219    1494.5027   -1009.1258    76.228017 
   15900    254.70975   -119.54044   0.23046673   -119.30997    772.92097     4.235961     4.235961     4.235961    772.92097    4267.9368    9.7886969   -1958.9626    922.30101     7280.297   -1206.0479    76.007394 
   16000    301.30131   -119.58299   0.27262376   -119.31036   -2289.1341     4.237135     4.237135     4.237135   -2289.1341   -4023.0077    5057.4562   -7901.8508    2480.2585    3140.6162    336.67563    76.070609 
   16100    235.92493   -119.52458   0.21346983   -119.31111   -1322.6454    4.2408862    4.2408862    4.2408862   -1322.6454    6063.4427   -8429.0382   -1602.3408   -1765.0859    308.54021    2930.0095    76.272831 
   16200    371.24744   -119.64507   0.33591249   -119.30915    532.28899    4.2358589    4.2358589    4.2358589    532.28899    8257.5933   -6323.8565   -336.86976    5481.6087   -1961.7389   -2247.7652    76.001903 
   16300    280.07985   -119.56338   0.25342213   -119.30996    1892.1486    4.2374811    4.2374811    4.2374811    1892.1486    3889.3652   -2599.2026    4386.2831   -1215.7889    3159.7484    1591.8238    76.089251 
   16400    252.91496   -119.53958   0.22884277   -119.31074   -2884.8656    4.2390167    4.2390167    4.2390167   -2884.8656    1562.1014   -12996.849    2780.1509    2811.5749    3158.4322    4095.4282    76.172006 
   16500     252.9284   -119.53872   0.22885493   -119.30986    3514.3176    4.2353992    4.2353992    4.2353992    3514.3176    1644.2384   -1898.7719    10797.486   -2144.6215   -87.091848    5388.5071    75.977157 
   16600    379.75376   -119.65219   0.34360918   -119.30858   -2428.2187    4.2373207    4.2373207    4.2373207   -2428.2187   -3111.7305   -7994.8964    3821.9708   -111.82982   -1931.4468    2851.1638    76.080614 
   16700    320.95705   -119.59944   0.29040868   -119.30903    1790.6145    4.2378761    4.2378761    4.2378761    1790.6145   -7490.0424    2845.7019    10016.184   -598.45523    2799.2545    3576.5444    76.110532 
   16800    281.76482   -119.56522   0.25494673   -119.31027   -1381.2065    4.2355228    4.2355228    4.2355228   -1381.2065    788.35092   -4557.8765   -374.09392     751.2721    2422.4486    1082.7478    75.983812 
   16900    253.93666   -119.54073   0.22976723   -119.31097    1283.2673    4.2382457    4.2382457    4.2382457    1283.2673    -10292.81    7857.2449    6285.3667   -1483.5378    1079.4672    5174.2237    76.130451 
   17000    354.68361    -119.6316   0.32092519   -119.31067   -2981.8183    4.2390401    4.2390401    4.2390401   -2981.8183    -1835.279   -9886.4872    2776.3114     710.2579   -4017.1497    562.75193    76.173264 
   17100    283.32931    -119.5671   0.25636231   -119.31073    2072.4484    4.2339273    4.2339273    4.2339273    2072.4484     4636.717   -188.97279     1769.601    2433.1387   -2998.5981   -1385.3539    75.897973 
   17200    334.00737   -119.61312   0.30221689    -119.3109   -4916.9031    4.2415042    4.2415042    4.2415042   -4916.9031   -8600.6875   -9679.7515    3529.7298   -1560.9994    1863.8414   -231.69948    76.306179 
   17300    239.74916   -119.52735   0.21693008   -119.31042    704.95117    4.2366337    4.2366337    4.2366337    704.95117    8024.6157   -1711.6959   -4198.0663    6551.0943   -1708.5879    2162.2188    76.043615 
   17400    270.54989   -119.55463   0.24479922   -119.30983   -1547.6516    4.2351718    4.2351718    4.2351718   -1547.6516    5293.3107   -9832.8739   -103.39166   -3287.7563   -4756.9613    1951.9806    75.964923 
   17500    330.86918   -119.60813   0.29937739   -119.30876   -216.36992    4.2396717    4.2396717    4.2396717   -216.36992    3787.0107    980.80865   -5416.9292    3350.9924   -2760.7668   -244.11624     76.20732 
   17600    329.17796   -119.60661   0.29784714   -119.30876    672.70802    4.2369716    4.2369716    4.2369716    672.70802    5710.8989   -5231.8468     1539.072    163.97876   -781.25128    -2635.988    76.061812 
   17700    294.30375   -119.57627   0.26629222   -119.30998    3094.7645    4.2349809    4.2349809    4.2349809    3094.7645    9143.9921    2170.2119   -2029.9106   -1458.5884    5083.6099    2552.2855     75.95465 
   17800    206.23636   -119.49761   0.18660699   -119.31101    2499.0582    4.2397221    4.2397221    4.2397221    2499.0582   -2737.5398    680.25079    9554.4636   -1531.7636    1439.6579    2269.1956    76.210035 
   17900    371.11679   -119.64487   0.33579427   -119.30907   -1409.2535    4.2378483    4.2378483    4.2378483   -1409.2535    3116.4535   -4535.7218   -2808.4922   -1500.7022  -0.44302679   -427.31944    76.109036 
   18000    347.94562   -119.62406   0.31482851   -119.30924    500.33112    4.2360615    4.2360615    4.2360615    500.33112   -1716.0006   -194.57831    3411.5723   -5094.9148    4264.2099    925.07078    76.012808 
   18100    286.48461   -119.57027   0.25921729   -119.31105   -7854.8587    4.2407362    4.2407362    4.2407362   -7854.8587   -9218.0773   -3541.0267   -10805.472    512.11663    5380.7771    1350.0095    76.264735 
   18200     278.4511   -119.56241   0.25194841   -119.31046   -3124.7947    4.2365353    4.2365353    4.2365353   -3124.7947   -285.50507   -7735.4032   -1353.4757   -1421.6612    2605.2306    2612.3738    76.038318 
   18300    326.94436   -119.60501   0.29582613   -119.30919    -2413.746    4.2364775    4.2364775    4.2364775    -2413.746   -784.47032   -2602.3443   -3854.4234   -1542.1217     389.1272    4103.1938    76.035201 
   18400    395.15796   -119.66599   0.35754722   -119.30844    -3342.516    4.2391389    4.2391389    4.2391389    -3342.516   -2428.0727   -10798.006    3198.5306    4667.7762   -2984.2588   -3554.0134    76.178593 
   18500    281.12615   -119.56401   0.25436885   -119.30964    1449.7804     4.237157     4.237157     4.237157    1449.7804     3599.459    1990.4163    -1240.534   -4504.9506    2264.0287   -665.12249    76.071795 
   18600    294.11577   -119.57688   0.26612213   -119.31075    1118.6822    4.2354203    4.2354203    4.2354203    1118.6822    235.94305   -6146.5246    9266.6283    2901.6645   -942.40651    3784.4229    75.978294 
   18700    279.62066   -119.56257   0.25300665   -119.30956    947.60076    4.2405874    4.2405874    4.2405874    947.60076    947.81369    3591.4116    -1696.423   -2145.1199   -984.80128   -2225.4209    76.256708 
   18800    301.75096   -119.58127   0.27303061   -119.30824    1857.6359    4.2366821    4.2366821    4.2366821    1857.6359    8794.6186   -768.29866   -2453.4121   -1528.8711   -3349.6836   -1011.5408    76.046223 
   18900    347.47626   -119.62342   0.31440382   -119.30902   -1267.9437    4.2366918    4.2366918    4.2366918   -1267.9437    6726.8384   -5026.6189   -5504.0506    1435.9523   -2363.0871   -389.45252    76.046744 
   19000    215.50624   -119.50536   0.19499458   -119.31037    1287.3957    4.2416847    4.2416847    4.2416847    1287.3957     9999.929     787.8911   -6925.6329   -3350.4178    4004.5533    1888.1181    76.315923 
   19100    270.95778   -119.55507    0.2451683    -119.3099   -1813.4604    4.2354538    4.2354538    4.2354538   -1813.4604    14219.599   -6379.7166   -13280.263     941.9597   -1186.1818    5195.0552    75.980096 
   19200    252.87534   -119.53825   0.22880692   -119.30944    3761.7153    4.2370404    4.2370404    4.2370404    3761.7153    14071.601   -8473.3912    5686.9359   -1550.6737     656.7619     1406.573    76.065516 
   19300    387.95566   -119.66027   0.35103043   -119.30924   -3318.2767    4.2400377    4.2400377    4.2400377   -3318.2767    4607.9002   -3180.0433   -11382.687    919.80547    2449.7565    416.64956    76.227059 
   19400    229.43789   -119.51832   0.20760022   -119.31072    1514.2483     4.235573     4.235573     4.235573    1514.2483    7246.4323   -6060.4319    3356.7444   -658.36921    3522.4194    9788.6887    75.986514 
   19500    238.46395   -119.52651   0.21576719   -119.31074    2228.4829    4.2347937    4.2347937    4.2347937    2228.4829    2735.9774    2903.9406    1045.5308    4386.9135    3564.2224    5811.3446    75.944576 
   19600    342.48589   -119.61938   0.30988843   -119.30949   -2761.9997    4.2405798    4.2405798    4.2405798   -2761.9997   -7285.9518   -3321.6003    2321.5531    183.11848    1770.3507    1717.8996      76.2563 
   19700    350.89111   -119.62686   0.31749365   -119.30937    3110.7308    4.2355663    4.2355663    4.2355663    3110.7308    1808.7295    8368.7105   -845.24753    3512.1876   -3018.1874    1919.2602     75.98615 
   19800    345.64551   -119.62269   0.31274732   -119.30994   -3750.7467    4.2364738    4.2364738    4.2364738   -3750.7467   -5158.6352   -2317.6531   -3775.9519   -528.13218    3980.5141   -365.02564    76.035002 
   19900    206.26803   -119.49744   0.18663565    -119.3108     1074.552    4.2403482    4.2403482    4.2403482     1074.552   -1114.0239    5225.4527   -887.77281    2209.4533    1939.1594    2762.5312    76.243806 
   20000    420.62469   -119.69013   0.38059006   -119.30954   -5912.0845     4.236602     4.236602     4.236602   -5912.0845   -5712.4293   -8042.7809   -3981.0434    7.1187159     1510.454   -771.36932    76.041905 
   20100    287.79767   -119.56997   0.26040538   -119.30956   -858.78672    4.2376462    4.2376462    4.2376462   -858.78672   -1272.3818   -1871.4984    567.52008    3320.2664   -1651.0014   -5339.6897    76.098149 
   20200     364.1253   -119.63909   0.32946822   -119.30962   -5668.9446    4.2396951    4.2396951    4.2396951   -5668.9446   -3668.8598   -10373.296   -2964.6781   -648.03109    555.35041   -3.9183049    76.208579 
   20300    230.61715   -119.51879   0.20866724   -119.31013    456.84309     4.236889     4.236889     4.236889    456.84309    896.99463    1785.1538   -1311.6192   -2412.9283     3836.552    2767.8577    76.057363 
   20400    304.42141   -119.58483   0.27544689   -119.30938   -492.69383    4.2368806    4.2368806    4.2368806   -492.69383    3038.3214   -7971.1338     3454.731    1663.6239    1035.4067   -850.87702     76.05691 
   20500    319.75272   -119.59781   0.28931898   -119.30849   -49.376619    4.2391338    4.2391338    4.2391338   -49.376619    7092.5784    3073.9475   -10314.656    -1886.374   -639.99649    1510.5274    76.178317 
   20600    286.48306   -119.56841   0.25921589   -119.30919    4423.1455    4.2349588    4.2349588    4.2349588    4423.1455    10727.027    825.51479    1716.8949    3264.1849   -277.46241    464.74099     75.95346 
   20700    271.00123   -119.55587   0.24520761   -119.31066    2669.0966    4.2381482    4.2381482    4.2381482    2669.0966    14807.906    3778.2982   -10578.914   -1426.5968    3337.0952    5322.9693    76.125197 
   20800     176.3246   -119.47077    0.1595422   -119.31123    4054.5062    4.2387814    4.2387814    4.2387814    4054.5062    10737.733    5304.7796   -3878.9939    1676.4439    2681.1486    3106.4566    76.159321 
   20900    354.01617   -119.63025   0.32032127   -119.30993    1384.6126    4.2357538    4.2357538    4.2357538    1384.6126     11704.07   -4694.1875   -2856.0451    1082.5529   -361.98935   -2670.4934    75.996246 
   21000    290.05746   -119.57194   0.26245009   -119.30949    1376.0852    4.2395542    4.2395542    4.2395542    1376.0852    7630.6949     -3947.71     445.2707    329.69518   -2480.2079    1699.2973    76.200981 
   21100     292.6065   -119.57531   0.26475651   -119.31056    -4614.228    4.2385878    4.2385878    4.2385878    -4614.228    1244.6939   -7539.3363   -7548.0416    181.92334    5116.9394    3219.7604    76.148887 
   21200    217.52258   -119.50726     0.196819   -119.31044   -241.86334      4.23549      4.23549      4.23549   -241.86334   -867.82752   -6850.2328    6992.4703    275.78517    1108.2177    31.549979    75.982047 
   21300    374.38078   -119.64817    0.3387476   -119.30942   -5040.0828    4.2376029    4.2376029    4.2376029   -5040.0828   -8515.6376   -1951.4876   -4653.1233   -2754.6664    2699.4166   -1220.4117    76.095816 
   21400    364.72417   -119.63918   0.33001009   -119.30917   -1814.5933    4.2382932    4.2382932    4.2382932   -1814.5933   -446.51127   -3957.4451   -1039.8235    3069.3087   -3419.3537   -3494.1809    76.133009 
   21500    291.85765   -119.57396   0.26407894   -119.30988   -847.86456    4.2351621    4.2351621    4.2351621   -847.86456   -5074.8289      9997.11   -7465.8748   -1332.0971   -308.88056    893.57946    75.964399 
   21600    313.93331   -119.59458   0.28405345   -119.31053   -1573.8672    4.2374004    4.2374004    4.2374004   -1573.8672    6139.2346   -3510.8296   -7350.0065   -406.04559    3478.4621    3236.9747    76.084908 
   21700    309.45726   -119.58985   0.28000343   -119.30985   -440.92232    4.2399067    4.2399067    4.2399067   -440.92232    -10009.12    11355.568   -2669.2149    2790.4033   -411.94269    -2561.312    76.219995 
   21800    375.96109   -119.64893    0.3401775   -119.30875   -2525.6318    4.2366778    4.2366778    4.2366778   -2525.6318    2284.6151   -4861.2082   -5000.3022    -2272.203   -304.04801    465.49691    76.045991 
   21900    282.56197   -119.56539   0.25566801   -119.30972    509.76692    4.2379642    4.2379642    4.2379642    509.76692    -194.6477    470.11024    1253.8382    3359.1032   -64.331323    3357.0237     76.11528 
   22000    276.52761   -119.56141   0.25020799    -119.3112   -3054.2641    4.2405284    4.2405284    4.2405284   -3054.2641   -2535.4835   -6672.3975    45.088738   -2455.0319    1745.9907    2359.5169    76.253528 
   22100    208.27185   -119.49891   0.18844875   -119.31046    2734.5899    4.2357826    4.2357826    4.2357826    2734.5899    7690.1816   -1300.7393    1814.3276   -3298.3147     5667.554    5255.7939    75.997793 
   22200    292.61368   -119.57417   0.26476301    -119.3094    802.26737    4.2372843    4.2372843    4.2372843    802.26737    9118.1542   -9969.5339    3258.1818   -383.87474    1749.0733   -1981.6898    76.078654 
   22300    312.78705   -119.59227    0.2830163   -119.30926    3516.5025    4.2383182    4.2383182    4.2383182    3516.5025    12756.424    2937.8396   -5144.7563   -1354.4875   -660.25432    2085.5771    76.134358 
   22400    270.66555   -119.55441   0.24490387    -119.3095    1402.7764    4.2363023    4.2363023    4.2363023    1402.7764    10876.704   -3422.0078    -3246.367   -3788.5571    4906.5635    6322.9796     76.02577 
   22500    216.45643    -119.5058   0.19585432   -119.30995    4306.9808    4.2364658    4.2364658    4.2364658    4306.9808     12519.69    10269.334   -9868.0825    105.04299    2754.5216   -412.27463    76.034572 
   22600    352.85124   -119.62822   0.31926722   -119.30896   -4271.6735    4.2395145    4.2395145    4.2395145   -4271.6735   -10150.565    -1994.642   -669.81312   -2070.5033    3322.4173    89.743184    76.198843 
   22700    382.27739   -119.65411   0.34589261   -119.30822   -2613.6076    4.2383749    4.2383749    4.2383749   -2613.6076   -2582.6124    2144.3269   -7402.5374    1400.5214   -2108.2027   -464.28204    76.137412 
   22800    354.36402   -119.62951   0.32063601   -119.30888    -7046.757    4.2377889    4.2377889    4.2377889    -7046.757   -11156.884   -5229.4366   -4753.9501    3774.2263   -1154.3361   -223.50128    76.105834 
   22900     225.4408   -119.51393   0.20398357   -119.30994   -4809.2118    4.2407354    4.2407354    4.2407354   -4809.2118   -10224.742   -5944.5179    1741.6248   -3788.9724    3677.6622    995.65039    76.264693 
   23000    369.37738   -119.64333   0.33422041   -119.30911   -3599.1601    4.2375056    4.2375056    4.2375056   -3599.1601   -3022.1301   -3841.3378   -3934.0122    2861.0186    960.87083   -1339.5979    76.090571 
   23100    316.79523   -119.59582   0.28664298   -119.30918    2202.8294    4.2361841    4.2361841    4.2361841    2202.8294    4158.9502   -3639.2988    6088.8367   -4579.7388   -2047.2355   -5067.5903    76.019405 
   23200    347.41887   -119.62332   0.31435189   -119.30897    985.40679    4.2384253    4.2384253    4.2384253    985.40679    6683.7048   -2635.5006   -1091.9838   -1051.2603   -492.06877    3310.0924    76.140127 
   23300    191.48027   -119.48419   0.17325537   -119.31094    6514.6774    4.2355176    4.2355176    4.2355176    6514.6774    17651.129    6542.3885   -4649.4857   -2206.4345    3140.5947   -1367.7898    75.983529 
   23400     276.6843   -119.56186   0.25034977   -119.31151     2975.278    4.2354752    4.2354752    4.2354752     2975.278    9280.3108    399.12624   -753.60294    -4980.755    5509.4662    4014.8826    75.981247 
   23500    256.45079   -119.54274   0.23204206    -119.3107    1521.1406    4.2400392    4.2400392    4.2400392    1521.1406    2219.1918    6697.9159   -4353.6858   -432.73382     668.5521   -3150.2164    76.227136 
   23600    329.91785   -119.60818    0.2985166   -119.30966   -2222.5844    4.2360649    4.2360649    4.2360649   -2222.5844    9917.0931   -11073.293    -5511.553   -931.12237   -720.29341     2305.016    76.012989 
   23700    294.23148   -119.57646   0.26622682   -119.31023   -1063.2983    4.2382183    4.2382183    4.2382183   -1063.2983   -2288.8557   -33.311785   -867.72753   -2910.6671    1122.6349    2042.9476    76.128971 
   23800    245.72707   -119.53314   0.22233901   -119.31081    -4638.831    4.2416138    4.2416138    4.2416138    -4638.831   -2492.0327   -3883.4247   -7541.0357    1160.6611    5830.8615    1180.0031    76.312096 
   23900    328.59496   -119.60675   0.29731963   -119.30943   -1784.1162    4.2349728    4.2349728    4.2349728   -1784.1162    2173.3732   -3747.2873   -3778.4345   -1337.0515    2046.9082   -3295.4996    75.954214 
   24000    380.41284   -119.65327   0.34420553   -119.30906   -316.90858    4.2388185    4.2388185    4.2388185   -316.90858   -3908.2309    597.39269    2360.1125    -1829.615   -1809.3089    1174.3036    76.161319 
   24100     366.3732   -119.64045   0.33150217   -119.30895   -2836.6286    4.2389362    4.2389362    4.2389362   -2836.6286   -5007.9883    1503.7117   -5005.6094    2683.9937   -522.58426   -1746.6702    76.167667 
   24200     244.6878   -119.53002   0.22139866   -119.30862       3352.9     4.234322     4.234322     4.234322       3352.9    2477.2434    7741.9161   -160.45955    -2376.099    5518.9849   -221.22751    75.919206 
   24300    299.48624    -119.5799   0.27098144   -119.30892   -1039.3611    4.2384039    4.2384039    4.2384039   -1039.3611   -5913.4794    1731.1537    1064.2424    -489.4451    1138.6618   -382.75929    76.138975 
   24400    367.15136   -119.64065   0.33220626   -119.30844   -2876.0482    4.2398834    4.2398834    4.2398834   -2876.0482   -9.8324286   -740.97274   -7877.3395    193.89674    2410.9259   -4937.6507    76.218734 
   24500    269.54319   -119.55255   0.24388835   -119.30867    2110.0882    4.2344705    4.2344705    4.2344705    2110.0882    9967.8288   -1254.0323   -2383.5319   -2796.9898   -2038.8385    6715.3766    75.927192 
   24600    233.89387    -119.5216   0.21163209   -119.30997   -1730.3481    4.2389204    4.2389204    4.2389204   -1730.3481    5383.1853   -7500.2364    -3073.993   -589.06111    5737.8338    1284.3242    76.166814 
   24700    243.89998    -119.5307   0.22068583   -119.31001    373.68301    4.2418795    4.2418795    4.2418795    373.68301    10823.288   -7067.6435   -2634.5954   -258.85936    5443.2909    531.82021    76.326435 
   24800    330.84308   -119.60929   0.29935377   -119.30994    1650.2622    4.2332793    4.2332793    4.2332793    1650.2622    8423.0273    872.35741   -4344.5981   -2413.5115    911.43806    3193.6772    75.863131 
   24900    276.13034   -119.55975   0.24984853    -119.3099   -18.303416    4.2394616    4.2394616    4.2394616   -18.303416    7589.5186   -11512.069    3867.6401    1298.9989    -1598.857     756.6736    76.195991 
   25000    276.79803   -119.55972   0.25045267   -119.30927   -84.044834    4.2402994    4.2402994    4.2402994   -84.044834   -76.980199    9771.4432   -9946.5975    762.38504    2554.4866    4642.9571    76.241172 
   25100     323.4867   -119.60227   0.29269756   -119.30958    3495.9253    4.2318014    4.2318014    4.2318014    3495.9253    3931.3771    3208.8668     3347.532   -2548.0752    1499.9785   -939.30469    75.783703 
   25200    316.18674   -119.59528    0.2860924   -119.30918   -59.393313    4.2404121    4.2404121    4.2404121   -59.393313   -3687.6808     11951.84   -8442.3392    444.89037   -129.67167    2668.5127    76.247251 
   25300    366.52171   -119.64091   0.33163655   -119.30927   -2729.9958    4.2381238    4.2381238    4.2381238   -2729.9958    2133.0048   -4559.7401   -5763.2522   -2571.3906   -4619.0918    1881.0038    76.123878 
   25400    293.56197   -119.57564   0.26562104   -119.31002     93.59996     4.234828     4.234828     4.234828     93.59996   -1320.3586    2557.4957    -956.3372    448.07432    673.06152    6189.3964    75.946425 
   25500    285.38163   -119.56896    0.2582193   -119.31074   -6697.5522    4.2420749    4.2420749    4.2420749   -6697.5522   -1656.5304   -7886.3487   -10549.777   -1465.4432    4506.7245     125.7833    76.336984 
   25600    260.84701    -119.5456   0.23601986   -119.30958   -4191.5315    4.2378567    4.2378567    4.2378567   -4191.5315   -4035.0706   -3410.6204   -5128.9036   -1410.1422    3044.4648     3406.988    76.109486 
   25700    347.30946   -119.62325    0.3142529     -119.309   -2755.8637    4.2371049    4.2371049    4.2371049   -2755.8637    1513.1166   -6857.1291   -2923.5786    1175.8405    2248.6225    54.405059    76.068992 
   25800    280.74523   -119.56383   0.25402419   -119.30981     202.6853    4.2396091    4.2396091    4.2396091     202.6853   -3159.0022     7006.374   -3239.3159   -65.740284     1964.226    4800.3778    76.203942 
   25900    233.78327   -119.52084   0.21153202   -119.30931    1909.4971    4.2367525    4.2367525    4.2367525    1909.4971   -1950.2951    7827.8703   -149.08378   -1629.5054    9346.8557    1487.0842    76.050013 
   26000    278.32434   -119.56113   0.25183371   -119.30929    9121.9352    4.2334674    4.2334674    4.2334674    9121.9352    2687.0244    22370.226    2308.5554    2017.9047     6342.319   -3086.8078    75.873244 
   26100    387.68025   -119.65926   0.35078124   -119.30848   -1343.7283     4.240459     4.240459     4.240459   -1343.7283   -1024.8684    3860.5932   -6866.9098   -1622.3413   -1456.6131    5593.3725    76.249783 
   26200    323.97502   -119.60187   0.29313941   -119.30873    3910.9282    4.2353602    4.2353602    4.2353602    3910.9282    375.14401    17651.893   -6294.2528    1964.6289   -662.79923    -1309.558    75.975061 
   26300    269.54178   -119.55349   0.24388707    -119.3096   -4846.9123    4.2364019    4.2364019    4.2364019   -4846.9123   -656.22868   -4075.5221    -9808.986    237.62385    2895.3109    4490.6825    76.031132 
   26400    320.23322   -119.59948   0.28975374   -119.30973   -7692.7387    4.2426895    4.2426895    4.2426895   -7692.7387   -11988.986   -598.13181   -10491.098    -239.5263     2244.978    -520.0709    76.370167 
   26500    333.54409   -119.61055   0.30179771   -119.30875   -3428.3745    4.2360871    4.2360871    4.2360871   -3428.3745   -4361.8051   -800.99511   -5122.3233   -20.095729    1600.8197    647.54863    76.014187 
   26600    313.49605   -119.59391   0.28365782   -119.31025   -4324.1041    4.2371052    4.2371052    4.2371052   -4324.1041   -1858.1705   -11692.081    577.93872   -436.20034   -1589.2677     4768.506    76.069007 
   26700    203.00282   -119.49489   0.18368122    -119.3112    6778.6816      4.24008      4.24008      4.24008    6778.6816   -5383.9508    20698.425    5021.5703   -599.50947    4362.0988     3071.813    76.229341 
   26800    314.20478   -119.59573   0.28429909   -119.31143    3138.5345    4.2341533    4.2341533    4.2341533    3138.5345   -5960.3676    8935.8479    6440.1234    354.72206    8687.2009   -147.46378    75.910128 
   26900    230.08231   -119.51985   0.20818331   -119.31167    12569.843    4.2339775    4.2339775    4.2339775    12569.843    1082.4273    29620.931    7006.1699   -1071.9444    2123.9825    4206.0283    75.900675 
   27000    357.76704   -119.63436   0.32371514   -119.31064   -4716.0136    4.2418277    4.2418277    4.2418277   -4716.0136   -8548.1527   -2866.2401   -2733.6481    2519.9303   -1360.0058    1598.6649    76.323639 
   27100    272.60932   -119.55756   0.24666265    -119.3109      1502.44    4.2343511    4.2343511    4.2343511      1502.44   -4396.2887    11960.604   -3056.9951   -2092.9094    2589.3592     6249.321     75.92077 
   27200    336.79368   -119.61472     0.304738   -119.30999   -9598.0672    4.2389961    4.2389961    4.2389961   -9598.0672    -7434.012   -7555.9221   -13804.268    2228.6851     1253.872    3754.3107    76.170891 
   27300    303.42825   -119.58324   0.27454826   -119.30869   -10585.582    4.2429612    4.2429612    4.2429612   -10585.582   -14299.755   -7306.3188   -10150.672   -448.12584    759.16929   -3343.1854    76.384844 
   27400    390.22077   -119.66109   0.35307995   -119.30801   -3472.9478     4.235614     4.235614     4.235614   -3472.9478    750.50963   -2866.9868   -8302.3661   -1367.0313   -3027.9409    7378.7848     75.98872 
   27500    293.55423   -119.57589   0.26561404   -119.31028   -2197.5988    4.2388505    4.2388505    4.2388505   -2197.5988   -2120.4139    3032.1199   -7504.5023    3951.3678    857.68777   -523.60827    76.163043 
   27600    209.05278   -119.49855   0.18915535   -119.30939    5861.9029    4.2399403    4.2399403    4.2399403    5861.9029    2660.5944    11410.023    3515.0912     -1388.59    6827.0787    2507.5612    76.221807 
   27700    314.93743   -119.59376     0.284962    -119.3088    7210.6489     4.233394     4.233394     4.233394    7210.6489    395.05228    12733.589    8503.3058    1435.5185    3876.6174   -396.12403    75.869299 
   27800    308.28807   -119.58809   0.27894552   -119.30915    7266.8875    4.2374029    4.2374029    4.2374029    7266.8875     2103.957    15345.575    4351.1309    1799.1346    706.86234   -499.74686    76.085039 
   27900    334.01103   -119.61121    0.3022202   -119.30899   -2304.3125    4.2406012    4.2406012    4.2406012   -2304.3125    -9389.045    1775.1236    700.98377   -1302.2447     1587.923    5094.2084     76.25745 
   28000     200.7721   -119.49248   0.18166282   -119.31082   -1238.3751    4.2344104    4.2344104    4.2344104   -1238.3751   -584.67233   -21.633415   -3108.8195    3612.0401    4692.7072    1189.9164    75.923961 
   28100    383.01159   -119.65638   0.34655693   -119.30983   -9267.2392    4.2402491    4.2402491    4.2402491   -9267.2392   -8816.7571   -7700.8753   -11284.085   -484.73332    2029.4926    4510.5513    76.238458 
   28200    317.17808   -119.59622   0.28698939   -119.30923   -5624.7377    4.2411468    4.2411468    4.2411468   -5624.7377   -4277.6047   -4498.8751   -8097.7332    2010.0786   -2703.3008    -2674.095    76.286888 
   28300    380.42592    -119.6529   0.34421736   -119.30869   -5130.8465    4.2345625    4.2345625    4.2345625   -5130.8465    5589.5847   -10307.272   -10674.852    3114.8583   -2865.9977    2834.6677    75.932141 
   28400    186.01694   -119.47882   0.16831204   -119.31051    4819.7312    4.2399818    4.2399818    4.2399818    4819.7312    8034.4455     9597.126    -3172.378    1183.8766     4707.464   -1149.1367    76.224042 
   28500    350.93063   -119.62732   0.31752941   -119.30979   -1925.7644    4.2377333    4.2377333    4.2377333   -1925.7644    498.66005    3250.4645   -9526.4177    495.14901    4898.7056    -1109.799     76.10284 
   28600    208.68447   -119.49838   0.18882209   -119.30956    13738.104    4.2338429    4.2338429    4.2338429    13738.104    15621.546    16234.385    9358.3814    1639.9964    3516.6107   -4456.6815    75.893438 
   28700    390.14431   -119.66233   0.35301077   -119.30932   -3197.0787    4.2394242    4.2394242    4.2394242   -3197.0787    5317.1424   -1930.8832   -12977.495   -3813.7078    288.25733    656.43151    76.193973 
   28800    167.72871    -119.4626   0.15176446   -119.31084    8433.6183    4.2371382    4.2371382    4.2371382    8433.6183    4331.5521    15146.741    5822.5613    2996.1044    8119.4837   -1681.7086    76.070781 
   28900    305.80421   -119.58747   0.27669807   -119.31077    -5650.957    4.2365978    4.2365978    4.2365978    -5650.957     1034.406   -2121.1463   -15866.131   -3412.1119    8983.2387   -391.11274    76.041679 
   29000    256.63627   -119.54336   0.23220989   -119.31115   -2371.0188    4.2403856    4.2403856    4.2403856   -2371.0188    3667.3036   -4587.5159   -6192.8441    648.43946    1648.7451    1886.7236    76.245822 
   29100    427.72147   -119.69705   0.38701137   -119.31004   -7844.8867    4.2387909    4.2387909    4.2387909   -7844.8867   -5211.6364   -8586.9271   -9736.0966    1081.3155    -1424.768    -3667.471    76.159834 
   29200    278.21075   -119.56219   0.25173093   -119.31046   -2470.6077    4.2354879    4.2354879    4.2354879   -2470.6077    3016.7859   -2257.4192   -8171.1897     647.6582    1524.2076    6634.8564    75.981935 
   29300    297.56212   -119.57921   0.26924046   -119.30997   -5155.5941    4.2407392    4.2407392    4.2407392   -5155.5941   -6842.7593   -587.04934   -8036.9737    1746.6759     4159.234   -1921.4169    76.264899 
   29400    322.82761   -119.60104   0.29210121   -119.30894    386.51749    4.2370639    4.2370639    4.2370639    386.51749   -7295.7378    8717.3922   -262.10186    1453.2487    1286.0195    2078.6293    76.066784 
   29500    442.60494   -119.70867   0.40047825   -119.30819   -379.31022    4.2348023    4.2348023    4.2348023   -379.31022    2514.0313    128.18155   -3780.1435    75.291656    -3270.856     1371.137    75.945043 
   29600      269.437   -119.55339   0.24379226   -119.30959    4326.4638    4.2395626    4.2395626    4.2395626    4326.4638   -1339.2088    13609.228    709.37238    4579.2566   -1475.2518   -1229.4474    76.201438 
   29700    261.20433   -119.54679   0.23634317   -119.31045   -114.23105    4.2369787    4.2369787    4.2369787   -114.23105    4021.8695   -4330.5509   -34.011799   -652.10384    6003.6234    3062.0508    76.062195 
   29800    246.36188   -119.53264   0.22291341   -119.30972    3901.9922    4.2368272    4.2368272    4.2368272    3901.9922    15019.862    3724.4458   -7038.3314    863.55942    3115.6465   -3451.9263    76.054034 
   29900    344.89567   -119.62123   0.31206885   -119.30916   -3131.4069    4.2399679    4.2399679    4.2399679   -3131.4069    8670.9284   -6861.4362   -11203.713    17.551096    386.09284   -617.73813     76.22329 
   30000    215.06132   -119.50392     0.194592   -119.30933   -1626.0808     4.239541     4.239541     4.239541   -1626.0808    15425.121   -15265.461   -5037.9029   -1115.3038   -315.24661   -1022.1954    76.200274 
   30100    263.34381   -119.54799   0.23827901   -119.30971   -1109.4727    4.2370024    4.2370024    4.2370024   -1109.4727    10640.049   -835.39267   -13133.074   -1331.7554    5693.8864    2529.2241     76.06347 
   30200    232.31473   -119.52016   0.21020325   -119.30996   -802.62501    4.2386296    4.2386296    4.2386296   -802.62501    6122.4359   -2304.9691   -6225.3419    1173.5183    6753.3807   -2698.7341     76.15114 
   30300    329.95284   -119.60661   0.29854827   -119.30806   -1547.6843    4.2391815    4.2391815    4.2391815   -1547.6843    1033.8723    4192.3407   -9869.2658   -2217.3804   -717.32864   -580.70536    76.180888 
   30400    334.30246   -119.61078   0.30248389    -119.3083     5704.231     4.234156     4.234156     4.234156     5704.231    13648.828     1788.204    1675.6611    1420.1923   -241.39565   -573.25848    75.910276 
   30500    323.41661   -119.60204   0.29263415   -119.30941    630.18599    4.2391554    4.2391554    4.2391554    630.18599   -6364.6239    13708.063   -5452.8813    1771.9402    1444.3899   -1630.2153    76.179481 
   30600    300.55015   -119.58119   0.27194409   -119.30924    4128.1475    4.2381685    4.2381685    4.2381685    4128.1475    4639.4035   -48.986045    7794.0251    1502.9008    5768.2509    966.65269    76.126289 
   30700    350.64784   -119.62582   0.31727354   -119.30854   -3478.5097    4.2359687    4.2359687    4.2359687   -3478.5097   -1793.9036   -532.91751   -8108.7082    1909.1768     1168.419   -5896.8185    76.007811 
   30800    380.51257   -119.65313   0.34429577   -119.30883   -4335.1312    4.2398984    4.2398984    4.2398984   -4335.1312   -8089.7264   -4029.9573   -885.70975    57.289402    695.12569     4056.447    76.219545 
   30900    312.94672   -119.59258   0.28316077   -119.30942   -8510.3089    4.2395785    4.2395785    4.2395785   -8510.3089   -5217.2773   -9309.3993    -11004.25   -1993.1924   -952.76034   -1125.4832    76.202295 
   31000    217.63512   -119.50749   0.19692083   -119.31057   -6176.6494    4.2361558    4.2361558    4.2361558   -6176.6494   -1774.5621   -4278.9603   -12476.426   -274.44743    9659.0628    3646.6148    76.017883 
   31100    343.53556   -119.62076   0.31083819   -119.30992   -2653.0086     4.239061     4.239061     4.239061   -2653.0086   -355.51885    2836.9814   -10440.488   -4006.9853    2287.5797    193.33875    76.174392 
   31200    294.84989   -119.57588   0.26678637   -119.30909    46.411962    4.2383925    4.2383925    4.2383925    46.411962    15195.091   -6744.5952   -8311.2601   -2236.1664    1224.5109   -2603.3132    76.138361 
   31300    265.96606   -119.55045   0.24065168   -119.30979    8185.1181    4.2336601    4.2336601    4.2336601    8185.1181    16823.631     11607.38   -3875.6559   -312.93777   -303.77363    4779.0107    75.883606 
   31400    197.08578   -119.48894   0.17832736   -119.31062     7106.829    4.2396313    4.2396313    4.2396313     7106.829    11516.908    3459.6881     6343.891   -2589.0491    4083.6701   -710.87284    76.205138 
   31500    334.55413   -119.61304   0.30271161   -119.31033    4680.4399    4.2364562    4.2364562    4.2364562    4680.4399    14015.636    221.65476   -195.97069    1064.5039    3621.4733    512.54984    76.034055 
   31600    315.66573   -119.59486   0.28562098   -119.30924    6206.1918     4.234432     4.234432     4.234432    6206.1918    7916.1923     5058.025    5644.3581   -520.46423    1547.6689    881.10904    75.925119 
   31700    265.77009   -119.55034   0.24047436   -119.30986   -4558.0473    4.2407048    4.2407048    4.2407048   -4558.0473   -4549.1361   -4738.7609   -4386.2451   -361.54602   -1209.0233    486.38801    76.263045 
   31800    300.91251   -119.58225   0.27227196   -119.30998    -5387.507    4.2386398    4.2386398    4.2386398    -5387.507   -1650.3557   -12133.455   -2378.7103    1763.0713    65.901711   -466.93692    76.151686 
   31900    288.74611   -119.57214   0.26126355   -119.31088   -4472.3828    4.2353979    4.2353979    4.2353979   -4472.3828   -5425.5485    4940.8784   -12932.478    169.77542    6561.6704    4363.4735    75.977087 
   32000    397.26599   -119.66841   0.35945461   -119.30895   -13128.246    4.2420474    4.2420474    4.2420474   -13128.246   -9994.0169   -17006.767   -12383.953   -1904.8599   -1988.6983   -3380.0462    76.335498 
   32100    288.28402   -119.56937   0.26084544   -119.30852   -299.42109    4.2373696    4.2373696    4.2373696   -299.42109   -926.94512    2853.0034   -2824.3215    157.78312   -267.43917    2428.2728    76.083248 
   32200     365.3701   -119.64044   0.33059454   -119.30984   -3196.2624    4.2338748    4.2338748    4.2338748   -3196.2624   -9662.2405   -1175.9015    1249.3547   -1299.2056    -1419.071    3615.7792    75.895151 
   32300    171.62973   -119.46517   0.15529418   -119.30988    7733.0677    4.2422463    4.2422463    4.2422463    7733.0677   -4504.3247    9144.7841    18558.744    249.19574     3166.312    392.71668    76.346239 
   32400    369.18673   -119.64271   0.33404791   -119.30867    4646.1168    4.2344171    4.2344171    4.2344171    4646.1168    1953.0608   -7480.7423    19466.032    -1066.407    1868.3054    4849.6431    75.924319 
   32500    250.67118   -119.53609   0.22681255   -119.30928    11546.659    4.2353101    4.2353101    4.2353101    11546.659    6284.5766    11336.692    17018.707   -3902.1394    3039.4772    305.39555    75.972365 
   32600    306.60708   -119.58708   0.27742453   -119.30965   -464.98865    4.2429688    4.2429688    4.2429688   -464.98865   -7158.3429   -4876.3214    10639.698   -82.876765    2417.2659    2069.3409    76.385251 
   32700    162.79699   -119.45832   0.14730214   -119.31102    187.39199    4.2352871    4.2352871    4.2352871    187.39199    799.83036   -1106.6627     869.0083   -2731.6342    4120.7995    3069.0416    75.971124 
   32800    371.37822   -119.64573   0.33603082    -119.3097   -9115.8843    4.2381488    4.2381488    4.2381488   -9115.8843   -13412.917   -2723.4267    -11211.31    660.93216    4504.2894   -1180.9174    76.125226 
   32900    333.14715   -119.61035   0.30143854   -119.30891   -7386.2371    4.2426023    4.2426023    4.2426023   -7386.2371   -12423.479   -7076.2311   -2659.0011   -514.21446   -2906.4738   -3627.3473    76.365459 
   33000    356.08044   -119.62988   0.32218907   -119.30769   -8852.8169    4.2353411    4.2353411    4.2353411   -8852.8169   -7054.3477    -8839.029   -10665.074    383.58415    3700.5521   -360.76232    75.974032 
   33100    234.13413   -119.52144   0.21184948   -119.30959    5813.8823    4.2362647    4.2362647    4.2362647    5813.8823   -6178.5859     10318.92    13301.313    2555.5617   -1872.6453   -1043.9098    76.023747 
   33200    360.54161   -119.63484   0.32622563   -119.30862    -5481.935    4.2423167    4.2423167    4.2423167    -5481.935   -7998.6879   -10089.602    1642.4847    934.63318    210.99728   -1194.3315    76.350037 
   33300    269.33655   -119.55244   0.24370137   -119.30874    14739.766    4.2313751    4.2313751    4.2313751    14739.766    17240.646    9372.0655    17606.586    287.59549   -3822.9207   -2743.7917    75.760803 
   33400    338.97694   -119.61538   0.30671346   -119.30867    1576.5565    4.2374057    4.2374057    4.2374057    1576.5565    9081.6362   -3897.3867   -454.58004   -84.072214   -955.22337   -2082.9293    76.085192 
   33500    192.95702   -119.48474   0.17459156   -119.31014    5865.2228     4.242156     4.242156     4.242156    5865.2228    7275.6454    2580.1584    7739.8647   -124.58131    1123.3565    1377.2199    76.341364 
   33600     312.7898   -119.59281   0.28301878    -119.3098   -429.90307    4.2327233    4.2327233    4.2327233   -429.90307    10713.744   -1249.3526   -10754.101   -982.63067    4190.3466    2640.4311    75.833242 
   33700    203.51474   -119.49519   0.18414441   -119.31105    -3219.854    4.2402086    4.2402086    4.2402086    -3219.854    2355.9844    1182.2401   -13197.786     417.0841    2224.3209    -2503.203    76.236275 
   33800    412.82703   -119.68248   0.37353457   -119.30894   -11226.954    4.2421806    4.2421806    4.2421806   -11226.954   -6077.7905   -17229.138   -10373.935   -2028.0539     1771.021   -180.35283    76.342688 
   33900    251.43398   -119.53685   0.22750275   -119.30935   -426.20677    4.2338537    4.2338537    4.2338537   -426.20677   -3400.8174    5883.5913   -3761.3943    2392.6679    8114.1362   -678.04857    75.894016 
   34000    372.09385   -119.64644   0.33667833   -119.30976   -5771.9021    4.2386999    4.2386999    4.2386999   -5771.9021   -6010.8327   -11224.152   -80.721602    808.34954    3873.9052   -2121.6114    76.154928 
   34100    248.46118   -119.53451   0.22481289    -119.3097    4308.4946    4.2410383    4.2410383    4.2410383    4308.4946   -7430.3263    1539.6466    18816.163     1046.966    4496.8814   -1915.8221    76.281035 
   34200    441.98392   -119.70822   0.39991634    -119.3083    1036.9697    4.2304504    4.2304504    4.2304504    1036.9697    7655.2155   -6133.1754    1588.8689    692.60891   -2741.4994   -7546.7456    75.711147 
   34300      290.866   -119.57204   0.26318167   -119.30886    4405.2655    4.2396204    4.2396204    4.2396204    4405.2655   -3794.9024    7041.1894    9969.5095     145.0541    2517.6579   -2690.3749    76.204552 
   34400    327.25697   -119.60546   0.29610898   -119.30935   -6790.9799     4.240907     4.240907     4.240907   -6790.9799   -3545.7226   -10532.231   -6294.9862   -958.96195    1151.1858    986.45141     76.27395 
   34500    248.23978   -119.53435   0.22461257   -119.30974    823.25375    4.2325807    4.2325807    4.2325807    823.25375    4164.1968    2364.5714   -4059.0069    976.59313     5163.297   -4835.8655     75.82558 
   34600    336.02541   -119.61349   0.30404286   -119.30945   -8018.0801    4.2430313    4.2430313    4.2430313   -8018.0801   -1294.7779   -11193.141   -11566.321   -741.48078   -661.76849   -2337.8638    76.388625 
   34700    252.40813   -119.53723   0.22838418   -119.30885   -2013.9581    4.2396772    4.2396772    4.2396772   -2013.9581    7221.2577   -7240.3292   -6022.8027    -2142.086    759.60674    425.08305    76.207613 
   34800    294.43107   -119.57484   0.26640742   -119.30843    1586.4289    4.2337199    4.2337199    4.2337199    1586.4289    11860.977   -7155.1359    53.445575    3754.2899    4422.9694    -1415.341    75.886824 
   34900    225.45027     -119.515   0.20399214   -119.31101     6150.292     4.240154     4.240154     4.240154     6150.292    12991.293    2091.6375    3367.9456   -909.18316    3963.4141   -312.15733    76.233328 
   35000    264.85526   -119.54976   0.23964661   -119.31011    2330.4128    4.2391964    4.2391964    4.2391964    2330.4128    14118.634   -12071.923    4944.5267    3490.4803    2644.0922     -3442.38    76.181694 
   35100    263.18231   -119.54786   0.23813289   -119.30972    11636.172    4.2304583    4.2304583    4.2304583    11636.172    26286.291    6682.7106    1939.5142    1634.2292   -190.48658   -7759.8162    75.711572 
   35200    359.43094   -119.63456   0.32522067   -119.30934   -3591.1505    4.2417283    4.2417283    4.2417283   -3591.1505   -1200.4125   -9376.6063   -196.43272    585.10234    3135.8629    2794.9176    76.318273 
   35300    266.40157   -119.55027   0.24104574   -119.30922   -619.50218    4.2380113    4.2380113    4.2380113   -619.50218    1799.0151    143.81676   -3801.3384    2294.3631    3067.9094   -5116.6055    76.117819 
   35400    283.43408   -119.56544   0.25645711   -119.30898   -3910.0048    4.2329229    4.2329229    4.2329229   -3910.0048    5526.6577   -4722.9646   -12533.708    1913.9678    3241.1476   -7833.4759    75.843974 
   35500    325.53461   -119.60438   0.29455055   -119.30983   -9021.0441    4.2444882    4.2444882    4.2444882   -9021.0441   -6166.9062   -8573.5977   -12322.628    775.95982   -1174.7531    1276.0113    76.467344 
   35600    417.64063   -119.68622   0.37789002   -119.30833   -3976.2582    4.2370324    4.2370324    4.2370324   -3976.2582   -5415.4354    -4907.067   -1606.2722    2082.8065    668.31577   -4115.2916    76.065088 
   35700    310.19609   -119.58956   0.28067194   -119.30888   -3042.0777    4.2358566    4.2358566    4.2358566   -3042.0777    783.34496   -3077.4759    -6832.102    415.52693    377.11586    1717.0335    76.001779 
   35800    269.53442   -119.55338    0.2438804    -119.3095   -2274.7763    4.2426871    4.2426871    4.2426871   -2274.7763   -6883.7031   -9773.5707    9832.9447   -1769.4548    2316.9379   -3444.1423    76.370041 
   35900    338.50861   -119.61455   0.30628971   -119.30826    1842.7816    4.2367622    4.2367622    4.2367622    1842.7816    704.61513    -256.8408    5080.5706     2559.842    592.49793   -3445.7349    76.050534 
   36000     374.4068   -119.64778   0.33877114     -119.309    2098.7652    4.2337058    4.2337058    4.2337058    2098.7652    9325.6517     -5935.74    2906.3839   -1659.9787   -360.44457   -570.20911    75.886062 
   36100    263.67891   -119.54783   0.23858222   -119.30924    990.68239     4.242325     4.242325     4.242325    990.68239    2997.1614   -1060.9059    1035.7917    1006.8936    2167.4448   -61.709052    76.350489 
   36200    260.14965   -119.54501   0.23538887   -119.30962     269.7113    4.2349087    4.2349087    4.2349087     269.7113    13839.232   -4256.4287   -8773.6692    892.32447    4660.9622   -6669.6226    75.950764 
   36300    218.35773   -119.50782   0.19757466   -119.31025    4338.9349    4.2345443    4.2345443    4.2345443    4338.9349    26702.774   -5966.8454   -7719.1235    1543.4352    3891.4134   -5867.9531    75.931159 
   36400    334.99475   -119.61202   0.30311029   -119.30891   -5941.9107     4.243936     4.243936     4.243936   -5941.9107    7264.4464   -11037.752   -14052.427    1545.7198    927.49107    825.01495      76.4375 
   36500     234.7842   -119.52181   0.21243768   -119.30938    3293.4799    4.2341659    4.2341659    4.2341659    3293.4799    23010.857   -10980.563   -2149.8543    4226.0959   -1352.9816   -6216.3236    75.910809 
   36600    304.67407   -119.58597    0.2756755    -119.3103   -2241.9423    4.2380334    4.2380334    4.2380334   -2241.9423    8643.9874   -9639.5728   -5730.2415   -826.26353    1697.3501    893.58693     76.11901 
   36700    214.78596   -119.50513   0.19434285   -119.31079    1295.8279    4.2412598    4.2412598    4.2412598    1295.8279    3021.2686   -3626.7691    4492.9843    2617.7036    3543.6403   -6328.7204     76.29299 
   36800    351.55161     -119.627   0.31809128   -119.30891   -476.45203     4.235328     4.235328     4.235328   -476.45203    530.71915   -4124.4198    2164.3446    202.72576    2356.9926    2782.3585    75.973326 
   36900    361.30063   -119.63649   0.32691241   -119.30958    4217.8298    4.2358362    4.2358362    4.2358362    4217.8298    5105.8752    3852.3611     3695.253   -1133.6167    99.252454    3145.7553    76.000682 
   37000    348.44172   -119.62483   0.31527739   -119.30956   -1802.2125    4.2406419    4.2406419    4.2406419   -1802.2125   -8519.1765    1626.4471    1486.0919    976.61316    1418.2611   -5311.7989     76.25965 
   37100    276.20834   -119.55973   0.24991911   -119.30982    782.82631    4.2346226    4.2346226    4.2346226    782.82631    5867.2325    2120.8262   -5639.5798    393.96987    3020.3663   -894.80829    75.935373 
   37200    314.08609   -119.59326    0.2841917   -119.30907   -2102.0617    4.2359873    4.2359873    4.2359873   -2102.0617    1263.2566   -374.66638   -7194.7753   -1368.2816    1814.1031   -4194.0445     76.00881 
   37300     409.0609   -119.67838    0.3701269   -119.30825     -10195.9    4.2429662    4.2429662    4.2429662     -10195.9   -9838.3231   -10094.276   -10655.101     1906.872    161.30842    588.79224    76.385111 
   37400    306.24762    -119.5859   0.27709928    -119.3088   -1271.0857    4.2347126    4.2347126    4.2347126   -1271.0857    8179.3053   -3446.2797   -8546.2826   -2663.5753   -3413.1985   -4050.4953    75.940213 
   37500    232.45714   -119.51996    0.2103321   -119.30963   -6712.5957    4.2391615    4.2391615    4.2391615   -6712.5957    4695.5504   -15957.241   -8876.0965   -2177.1515    305.31879   -5506.1469     76.17981 
   37600    280.40632   -119.56333   0.25371753   -119.30961   -1003.9328    4.2414658    4.2414658    4.2414658   -1003.9328    -609.4599   -7074.1539    4671.8156    336.74968    1368.5395   -1906.2917    76.304106 
   37700     300.2617   -119.58041   0.27168309   -119.30872    4059.6037    4.2355198    4.2355198    4.2355198    4059.6037    18294.279   -237.22818   -5878.2393    -3566.425     1941.806    2811.1177    75.983652 
   37800     293.4025   -119.57508   0.26547674   -119.30961    4168.9398    4.2368551    4.2368551    4.2368551    4168.9398    14620.273   -5516.1778     3402.724    568.03915   -306.69652   -931.80915    76.055535 
   37900    193.34584    -119.4843   0.17494338   -119.30935    8643.0595    4.2411324    4.2411324    4.2411324    8643.0595    13748.262    10496.264    1684.6526    1286.3401    2023.9454   -4798.8553    76.286113 
   38000    344.19346   -119.62024   0.31143347    -119.3088    2287.7621    4.2346099    4.2346099    4.2346099    2287.7621    8616.6632    3175.1311    -4928.508    997.82169    4313.2586    3632.7014     75.93469 
   38100    276.83916   -119.55939   0.25048989    -119.3089    5588.3726     4.235522     4.235522     4.235522    5588.3726    7039.2124    10055.062   -329.15638    1581.9704    4988.8521   -3694.9708    75.983769 
   38200    349.70066   -119.62421   0.31641651   -119.30779    -9389.364    4.2436471    4.2436471    4.2436471    -9389.364   -15232.996   -1239.5442   -11695.552    3165.8989   -1280.8402    3811.4655    76.421893 
   38300    301.87957   -119.58167   0.27314698   -119.30852    -2154.145    4.2330024    4.2330024    4.2330024    -2154.145    5164.4553   -2754.9692   -8871.9211    -260.5678   -736.41103   -6908.0923    75.848245 
   38400    347.54529   -119.62348   0.31446628   -119.30901   -8373.3438    4.2397965    4.2397965    4.2397965   -8373.3438    -10648.61   -7357.4488    -7113.973    2172.2611    353.18419    -4621.872     76.21405 
   38500    315.00969   -119.59403   0.28502738     -119.309   -6740.0956    4.2416544    4.2416544    4.2416544   -6740.0956   -8080.1405    -7858.075   -4282.0712   -1997.3846    696.09834     3886.205    76.314287 
   38600    346.02807   -119.62151   0.31309347   -119.30841   -1343.7156    4.2344437    4.2344437    4.2344437   -1343.7156     9832.272   -9491.2497    -4372.169   -1220.6888   -1476.1468     -7084.57    75.925751 
   38700     283.7531   -119.56742   0.25674577   -119.31067    894.53388    4.2393914    4.2393914    4.2393914    894.53388   -382.96013    5568.0636   -2501.5018    224.68179   -2229.0256   -4906.4001    76.192206 
   38800    251.19171   -119.53704   0.22728354   -119.30976    1474.9464    4.2392235    4.2392235    4.2392235    1474.9464    5651.2701   -1831.9898    605.55895   -2582.8733   -3285.9662   -1924.8515    76.183151 
   38900    279.09319   -119.56136   0.25252938   -119.30883    7346.4875    4.2336758    4.2336758    4.2336758    7346.4875    8697.3105    16088.098   -2745.9462   -1427.4252    3178.2319   -3377.0138    75.884448 
   39000    314.43331    -119.5936   0.28450587    -119.3091    3511.0381    4.2372815    4.2372815    4.2372815    3511.0381    11304.597    2143.0081   -2914.4906   -310.35713    1278.5497    -385.4114    76.078499 
   39100    247.14313   -119.53296    0.2236203   -119.30934    2081.0294    4.2400278    4.2400278    4.2400278    2081.0294    4248.9888    9765.5913   -7771.4921   -1434.3899   -2966.1079   -3891.7433    76.226523 
   39200    215.15315    -119.5046   0.19467509   -119.30992    4022.5613    4.2325105    4.2325105    4.2325105    4022.5613    22753.628    -3311.439   -7374.5049    -624.9132   -1498.8329    -7872.312    75.821807 
   39300    305.75391   -119.58684   0.27665257   -119.31019   -4237.6397    4.2413356    4.2413356    4.2413356   -4237.6397   -2500.0794   -5229.5867    -4983.253    1675.0874    465.76924    773.56486    76.297081 
   39400    367.15703   -119.64072    0.3322114   -119.30851   -3435.5089    4.2398251    4.2398251    4.2398251   -3435.5089    1253.4228   -9111.2935   -2448.6559   -1443.5154    2429.4891   -1669.4476    76.215592 
   39500    314.99531   -119.59364   0.28501438   -119.30863    -4876.755    4.2348195    4.2348195    4.2348195    -4876.755    2689.9262   -7192.6262   -10127.565    3001.2561   -219.37952   -5802.3506    75.945969 
   39600     314.7207   -119.59447    0.2847659   -119.30971   -5054.1254    4.2408915    4.2408915    4.2408915   -5054.1254   -11020.105    -6881.431    2739.1602   -328.37385   -2242.1923    231.98561    76.273113 
   39700    317.75654    -119.5963    0.2875128   -119.30879   -929.53611    4.2398749    4.2398749    4.2398749   -929.53611   -11290.354    12896.361   -4394.6154    1377.7801   -3141.9361   -1652.0852    76.218278 
   39800    401.31203   -119.67208   0.36311555   -119.30897    -654.5933     4.232701     4.232701     4.232701    -654.5933    -76.40192    951.18591   -2838.5639   -832.33178    917.50674    2956.8899    75.832044 
   39900    241.23265   -119.52774   0.21827238   -119.30947    6799.5026    4.2397567    4.2397567    4.2397567    6799.5026     202.3872    22630.649   -2434.5285   -3021.4129   -1487.0278   -1048.2073    76.211901 
   40000     362.5816   -119.63717   0.32807145    -119.3091   -5084.6253    4.2394928    4.2394928    4.2394928   -5084.6253    3066.6149   -4392.8213   -13927.669   -1854.5365   -2199.5304   -1556.1775     76.19767 
   40100    145.71274   -119.44161   0.13184395   -119.30977    10971.042    4.2324763    4.2324763    4.2324763    10971.042    16704.369    21660.867   -5452.1089   -4311.8445   -1508.6064    1950.0606    75.819969 
   40200    355.32185   -119.63174   0.32150267   -119.31023   -11911.875    4.2434231    4.2434231    4.2434231   -11911.875   -4160.0624   -12469.369   -19106.195   -2365.5052   -1641.3247   -1356.0448    76.409791 
   40300    200.40797   -119.49143   0.18133334   -119.31009    1753.9859    4.2376371    4.2376371    4.2376371    1753.9859    13996.879   -5169.1494   -3565.7719   -3917.2904    878.58612    392.19569    76.097657 
   40400    353.52058   -119.62873   0.31987285   -119.30886   -5107.9051    4.2354283    4.2354283    4.2354283   -5107.9051    4816.9219   -3112.3023   -17028.335    264.75119   -2684.3034   -4001.0239    75.978724 
   40500    170.17985   -119.46511    0.1539823   -119.31113    1982.0853    4.2403444    4.2403444    4.2403444    1982.0853    211.13636    5688.7802    46.339374   -3792.4931   -2639.4147    -2133.615    76.243601 
   40600    345.18295   -119.62254   0.31232879   -119.31021    1644.5592    4.2381209    4.2381209    4.2381209    1644.5592   -3512.6058    5062.4807    3383.8029    2438.8062   -1729.3095   -214.87192    76.123723 
   40700    367.39978   -119.64161   0.33243104   -119.30918    6774.6654    4.2329459    4.2329459    4.2329459    6774.6654    9715.4901    9621.4927    987.01337   -3724.3266    759.74031   -3609.4103    75.845211 
   40800    336.40481   -119.61365   0.30438614   -119.30927     526.6963    4.2402054    4.2402054    4.2402054     526.6963   -8046.7654    10322.844   -695.98942   -210.96862    -2402.279   -4379.3597    76.236103 
   40900    284.87472   -119.56644   0.25776063   -119.30868    169.74159    4.2377722    4.2377722    4.2377722    169.74159   -3242.9935    51.179831    3701.0384    -1464.736   -2100.3401   -1108.3993    76.104934 
   41000    320.20631   -119.59846    0.2897294   -119.30874    -3893.073    4.2337093    4.2337093    4.2337093    -3893.073   -5546.1008    2935.6158    -9068.734   -922.46903   -5144.2133   -3166.4582    75.886252 
   41100    404.29274   -119.67433   0.36581257   -119.30852   -10114.053    4.2428971    4.2428971    4.2428971   -10114.053    -14611.02   -5820.4853   -9910.6536    1399.3023    -1738.803    1562.7848     76.38138 
   41200    262.99222   -119.54723   0.23796089   -119.30926   -5699.6388    4.2371923    4.2371923    4.2371923   -5699.6388    3227.0855   -8568.3206   -11757.681   -1073.0553   -418.45327   -2406.4627    76.073697 
   41300    276.10653   -119.56045   0.24982699   -119.31062   -4732.1008    4.2353574    4.2353574    4.2353574   -4732.1008    1007.7488   -1062.5724   -14141.479   -1265.9646   -5735.4226   -3225.7173    75.974912 
   41400    254.34327   -119.54065   0.23013513   -119.31052     2823.434    4.2412563    4.2412563    4.2412563     2823.434    3415.3671    10127.009   -5072.0741   -830.63153   -1323.5154    4376.8469    76.292802 
   41500    306.88744   -119.58704    0.2776782   -119.30937    2393.6248    4.2364219    4.2364219    4.2364219    2393.6248    6165.4332   -5258.4035    6273.8446    168.55578   -527.82238   -1758.0219    76.032212 
   41600    255.82013   -119.54121   0.23147143   -119.30974    12795.094     4.234285     4.234285     4.234285    12795.094    17085.085    21785.105   -484.90666   -2170.1916    3982.6383    1285.8819    75.917213 
   41700    288.77548   -119.57179   0.26129012    -119.3105    3417.1693    4.2402886    4.2402886    4.2402886    3417.1693    297.34814    337.06523    9617.0946   -1295.1518   -1599.6093    37.341831    76.240592 
   41800    251.96142   -119.53749   0.22797999   -119.30951    5728.9646     4.235955     4.235955     4.235955    5728.9646    728.46494    11882.541    4575.8882   -4472.9829    1098.0581   -973.64197    76.007076 
   41900    347.19416   -119.62238   0.31414857   -119.30823   -2163.3094    4.2350246    4.2350246    4.2350246   -2163.3094   -6667.0079    2890.8249   -2713.7453    162.13066   -4150.4737    2911.5332    75.957001 
   42000    318.20282   -119.59689   0.28791659   -119.30897   -8406.4584    4.2418572    4.2418572    4.2418572   -8406.4584    -13987.73   -5283.9566   -5947.6882   -204.72014    1537.4918   -2255.0313    76.325234 
   42100    383.37134   -119.65592   0.34688245   -119.30904   -9403.6253      4.23677      4.23677      4.23677   -9403.6253   -10743.938   -7728.4175   -9738.5199   -324.37004    -873.4527   -4716.7585    76.050951 
   42200    192.14788   -119.48379   0.17385944   -119.30993   -5079.7974    4.2370847    4.2370847    4.2370847   -5079.7974   -11072.912    9227.9465   -13394.427   -243.10777   -5659.9254    3361.3145    76.067902 
   42300    389.54549   -119.66163   0.35246895   -119.30916   -8837.6656    4.2411786    4.2411786    4.2411786   -8837.6656   -8338.8513   -11434.759   -6739.3864     3109.139   -1278.5928   -2549.4413    76.288605 
   42400    268.60297   -119.55249   0.24303761   -119.30945    7304.2336    4.2363792    4.2363792    4.2363792    7304.2336    4116.7299    8879.4936    8916.4772    1238.1862   -2481.6696    3476.2906    76.029913 
   42500    351.46329   -119.62798   0.31801137   -119.30996     276.9064    4.2362256    4.2362256    4.2362256     276.9064     11199.26   -1988.2003   -8380.3401       3338.2    619.30851    2475.2883     76.02164 
   42600    141.81136   -119.43917    0.1283139   -119.31085    13875.524    4.2388373    4.2388373    4.2388373    13875.524    5969.1431    11638.584    24018.843   -278.57405   -3002.3473    1174.4618    76.162331 
   42700    381.24006    -119.6545   0.34495402   -119.30955    731.04892    4.2352575    4.2352575    4.2352575    731.04892    7170.8205   -6984.5344    2006.8606    -281.0335   -523.16715    5625.8884    75.969532 
   42800    252.58579   -119.53813   0.22854493   -119.30958    7286.0147    4.2364583    4.2364583    4.2364583    7286.0147     1720.652    18761.315    1376.0771    1953.5244    -1816.352    4264.0862    76.034167 
   42900     352.3865   -119.62768   0.31884671   -119.30883   -9638.4451    4.2395463    4.2395463    4.2395463   -9638.4451   -3638.8227   -19127.248    -6149.265    316.05527    3550.6748   -2725.5019    76.200559 
   43000    256.78726   -119.54243   0.23234651   -119.31009   -5659.1444    4.2370246    4.2370246    4.2370246   -5659.1444   -10115.546     3727.917   -10589.805     890.7106    331.27688    3006.4097    76.064666 
   43100    378.68049   -119.65197   0.34263806   -119.30933   -11027.747     4.239237     4.239237     4.239237   -11027.747   -14528.078   -3926.9598   -14628.202    264.79717    665.61996   -3234.2591    76.183879 
   43200    293.71318   -119.57513   0.26575786   -119.30937   -6111.1921    4.2393813    4.2393813    4.2393813   -6111.1921   -12966.355   -8165.1331    2797.9119    1663.7489    1390.9966     -426.165     76.19166 
   43300    370.55593   -119.64403    0.3352868   -119.30874   -253.95314     4.237098     4.237098     4.237098   -253.95314   -4517.8834    1764.2854    1991.7386    -667.2838   -1853.7633   -1010.0527    76.068616 
   43400    249.92736   -119.53643   0.22613953   -119.31029    7326.5721    4.2379348    4.2379348    4.2379348    7326.5721    4169.6768    12879.035    4931.0049    709.26227   -1250.0355   -3596.7547    76.113695 
   43500    266.31617   -119.55107   0.24096846    -119.3101    7037.4259    4.2369707    4.2369707    4.2369707    7037.4259    -202.0345    883.76567    20430.546   -2364.1229   -5565.5653    -19.27665    76.061764 
   43600    218.77863    -119.5079   0.19795551   -119.30995    11511.922    4.2365425    4.2365425    4.2365425    11511.922      9405.28    17578.096    7552.3903    1735.3746   -2607.4479    2040.2286    76.038706 
   43700    352.46143   -119.62795   0.31891451   -119.30904    -1047.985    4.2370811    4.2370811    4.2370811    -1047.985   -2134.5417   -632.35679   -377.05651   -1178.4406   -4151.2199   -1342.5013    76.067706 
   43800    234.62774   -119.52121   0.21229611   -119.30891    1225.5519    4.2383921    4.2383921    4.2383921    1225.5519    1963.3747    2168.1595    -454.8786    2517.5045   -2932.2148    2389.8665     76.13834 
   43900    310.60663   -119.58963    0.2810434   -119.30859   -12031.218    4.2391943    4.2391943    4.2391943   -12031.218   -16811.367   -2915.9069    -16366.38    -1744.874   -1073.2478   -565.46318    76.181577 
   44000    336.42604   -119.61274   0.30440535   -119.30833    -6393.817    4.2378238    4.2378238    4.2378238    -6393.817   -10013.096    1823.3756    -10991.73    635.54369   -2386.6731   -73.723514    76.107713 
   44100    401.60967   -119.67174   0.36338487   -119.30835   -8326.0281    4.2403752    4.2403752    4.2403752   -8326.0281    -15005.55   -6467.4211   -3505.1132    2409.3192    3257.9881    1614.3511    76.245264 
   44200    286.35463   -119.56835   0.25909968   -119.30925   -3095.6856    4.2379717    4.2379717    4.2379717   -3095.6856    -3272.761    6749.1572   -12763.453   -584.74544   -2831.8713   -4768.1574    76.115687 
   44300    285.67123   -119.56815   0.25848134   -119.30967    5332.8369    4.2359676    4.2359676    4.2359676    5332.8369    4633.1599    6630.8905    4734.4604    3534.6625    521.90133   -3047.3163    76.007753 
   44400    316.41433   -119.59638   0.28629834   -119.31008    1654.9439     4.239169     4.239169     4.239169    1654.9439    89.126186   -18.888788    4894.5943   -1598.3036   -2456.8128   -1101.3756    76.180216 
   44500    230.62854   -119.51801   0.20867755   -119.30933    9555.7488    4.2354203    4.2354203    4.2354203    9555.7488    11060.046    15528.176    2079.0242    4048.9923     3053.808   -5622.2754    75.978295 
   44600    299.57332   -119.58059   0.27106024   -119.30953    2333.4314    4.2362342    4.2362342    4.2362342    2333.4314    11272.028   -1554.4417   -2717.2918    -30.83299   -3445.4019   -2664.5834    76.022106 
   44700    209.04044    -119.4996   0.18914418   -119.31046    5053.1666    4.2390234    4.2390234    4.2390234    5053.1666    11168.938    4871.1071   -880.54548    2651.1824   -1428.8377     -3035.94    76.172367 
   44800     374.9384   -119.64844   0.33925215   -119.30919   -5073.6318    4.2380293    4.2380293    4.2380293   -5073.6318   -6011.8779    3613.1241   -12822.141   -2020.4731   -3590.4668   -2254.1797    76.118791 
   44900    236.58711   -119.52302   0.21406899   -119.30895   -1693.6989    4.2373345    4.2373345    4.2373345   -1693.6989    3148.3716    1459.4201   -9688.8884    3120.8877    131.33832    2380.2123    76.081359 
   45000    452.77564   -119.71797   0.40968091   -119.30828   -12876.326    4.2414617    4.2414617    4.2414617   -12876.326   -14805.868    -7807.089   -16016.021   -1588.1324    3020.1148   -3622.8095    76.303885 
   45100    223.66439   -119.51167   0.20237624   -119.30929   -1013.9164    4.2380712    4.2380712    4.2380712   -1013.9164    -3700.326    14732.399   -14073.822    3896.2067   -3835.8753    4.0850464    76.121045 
   45200    373.65866   -119.64682   0.33809421   -119.30873   -7825.4924    4.2362708    4.2362708    4.2362708   -7825.4924   -7637.5054   -7025.7691   -8813.2027    1430.6321    97.384319    83.976297    76.024074 
   45300     252.8468    -119.5383    0.2287811   -119.30952    5002.6269    4.2401983    4.2401983    4.2401983    5002.6269    218.58474    13360.838    1428.4581     3827.287    829.02667   -794.91496    76.235719 
   45400    409.66173   -119.67982   0.37067054   -119.30914   -1554.9526    4.2351077    4.2351077    4.2351077   -1554.9526   -243.85332   -4386.6661   -34.338284    5658.0542    1076.6072   -838.91133    75.961475 
   45500     146.6842   -119.44291   0.13272295   -119.31018    10742.905    4.2357196    4.2357196    4.2357196    10742.905    21310.459      10040.5    877.75652    2301.1797   -2236.4898   -6138.8777    75.994404 
   45600    313.83949   -119.59367   0.28396856    -119.3097    -1877.013      4.23985      4.23985      4.23985    -1877.013   -3246.2888   -3378.4528    993.70261    4042.9162   -4209.2538   -1532.9877    76.216936 
   45700    277.69812   -119.56133    0.2512671   -119.31007    4604.1418    4.2365948    4.2365948    4.2365948    4604.1418    4641.9005    12166.501   -2995.9759    2304.0881   -2380.8087    1002.5266    76.041517 
   45800    409.49146   -119.67883   0.37051648   -119.30831   -3954.6699    4.2362747    4.2362747    4.2362747   -3954.6699   -1240.4415   -2573.0407   -8050.5275     197.0511   -246.88799    -2413.009    76.024282 
   45900    218.45157   -119.50724   0.19765957   -119.30958   -5655.3774     4.242563     4.242563     4.242563   -5655.3774   -7602.3488     6638.785   -16002.568    1168.7321    630.48959   -1689.2616     76.36334 
   46000    325.12463    -119.6036    0.2941796   -119.30942    -6048.248    4.2359566    4.2359566    4.2359566    -6048.248   -8825.7133    3239.6774   -12558.708     -647.885   -6294.6535    595.78925    76.007162 
   46100    335.43333   -119.61304   0.30350712   -119.30953   -2717.3386    4.2368854    4.2368854    4.2368854   -2717.3386   -5102.2258    2837.7954   -5887.5855   -1842.4877    751.48001   -2112.8506    76.057166 
   46200    357.01696   -119.63139   0.32303645   -119.30835   -6339.2183    4.2424619    4.2424619    4.2424619   -6339.2183   -12849.898   -3731.7818   -2435.9747      1681.16   -1005.9354    1532.0562    76.357879 
   46300    250.80719   -119.53675   0.22693561   -119.30981    9722.8084    4.2326459    4.2326459    4.2326459    9722.8084    941.40197    16174.704    12052.319   -2187.3666   -478.48286   -6443.6574    75.829085 
   46400    298.78075   -119.58103    0.2703431   -119.31069    2769.9013     4.238043     4.238043     4.238043    2769.9013   -1442.3497    2873.6797     6878.374   -902.63131    -4479.862   -3941.3586    76.119524 
   46500    186.88988   -119.47927   0.16910189   -119.31016    11862.601    4.2393816    4.2393816    4.2393816    11862.601   -1466.4968    15816.496    21237.805    694.32662   -5638.2111   -202.24699    76.191677 
   46600    363.20803   -119.63777   0.32863826   -119.30913   -1690.7344    4.2348225    4.2348225    4.2348225   -1690.7344   -5204.5258    -5441.427    5573.7495    -4131.834   -1939.5752   -2295.9822    75.946128 
   46700    219.04017   -119.50871   0.19819215   -119.31051    3320.7993    4.2387088    4.2387088    4.2387088    3320.7993   -3839.2616    2986.3434    10815.316    5966.9713   -4068.5747   -387.45321    76.155409 
   46800    336.71961   -119.61495   0.30467098   -119.31028   -10379.509    4.2417799    4.2417799    4.2417799   -10379.509   -12635.254   -10584.169   -7919.1032   -2538.1321   -280.72137   -1040.6006    76.321058 
   46900    209.93953   -119.49949    0.1899577   -119.30953   -3600.6565    4.2345267    4.2345267    4.2345267   -3600.6565    -10258.89    4060.9706   -4604.0499    1509.8749    -7709.628    -971.8688    75.930215 
   47000    399.56324   -119.66994   0.36153322    -119.3084   -6684.6666    4.2398218    4.2398218    4.2398218   -6684.6666   -15124.959   -1323.7678   -3605.2734    3536.3266    2222.2822    2250.2052    76.215413 
   47100    370.58963   -119.64441   0.33531729   -119.30909   -4481.7965    4.2392881    4.2392881    4.2392881   -4481.7965   -11497.983    1512.2562    -3459.663   -1346.9791    1809.2329   -3461.1283    76.186635 
   47200    276.24104   -119.55927    0.2499487   -119.30932    5590.5783    4.2325749    4.2325749    4.2325749    5590.5783    7629.0208    12798.488   -3655.7738    3786.5799    933.95316   -3761.0427    75.825269 
   47300    312.32191   -119.59145   0.28259543   -119.30885    140.75702    4.2392247    4.2392247    4.2392247    140.75702   -3192.9731    6933.6269   -3318.3828    396.61669   -1073.3528    1427.4546    76.183219 
   47400    283.54816   -119.56559   0.25656033   -119.30903    5192.8685    4.2378559    4.2378559    4.2378559    5192.8685    14476.168    2443.8061   -1341.3682    1709.6933   -1296.7035    964.92644    76.109445 
   47500    387.57654   -119.65938    0.3506874   -119.30869    855.03619    4.2353347    4.2353347    4.2353347    855.03619     2358.977    1467.6439   -1261.5123    1994.1021   -799.09406    1255.5267    75.973686 
   47600    155.29938   -119.45093   0.14051814   -119.31041     2214.591     4.239686     4.239686     4.239686     2214.591    7594.1973   -3892.9012    2942.4768    3427.0189   -1335.4535   -905.00716    76.208089 
   47700    324.43806   -119.60334   0.29355837   -119.30978   -6955.5279    4.2399391    4.2399391    4.2399391   -6955.5279    -5098.718   -12274.867   -3492.9988   -3673.3829   -4220.5211   -413.73796    76.221739 
   47800    231.94725   -119.51969   0.20987075   -119.30981    2320.2942    4.2354767    4.2354767    4.2354767    2320.2942   -4270.8043    6048.2843    5183.4026    4769.0576   -6711.8771    796.67301    75.981331 
   47900    381.95408    -119.6544   0.34560008    -119.3088   -11021.735    4.2410625    4.2410625    4.2410625   -11021.735   -12086.492   -15358.216   -5620.4986   -2494.3366    298.13938   -605.66576    76.282344 
   48000    244.69932   -119.53055   0.22140909   -119.30914    4313.4197    4.2373181    4.2373181    4.2373181    4313.4197    2303.8559    10436.708    199.69556    2497.8673   -84.968933   -6559.8259    76.080476 
   48100    371.71601   -119.64592   0.33633646   -119.30958   -2168.7173    4.2354794    4.2354794    4.2354794   -2168.7173    1670.8107    3481.9135   -11658.876    947.00088   -1159.5673   -3159.9636    75.981475 
   48200    297.61047    -119.5786   0.26928421   -119.30931    5890.8365    4.2380021    4.2380021    4.2380021    5890.8365    2225.6715    19118.764   -3671.9259    3051.8675    1874.1317   -2188.9482    76.117324 
   48300    378.85722   -119.65038   0.34279797   -119.30758   -955.51268    4.2373595    4.2373595    4.2373595   -955.51268     8386.669   -2639.4629   -8613.7442    5306.6363   -519.40771    1827.8227    76.082703 
   48400    282.12903   -119.56515   0.25527628   -119.30987    696.19018     4.236487     4.236487     4.236487    696.19018   -295.00385    4527.2876   -2143.7132    4805.3677    4147.2335   -1851.9076    76.035713 
   48500    289.96658   -119.57295   0.26236785   -119.31058   -4476.0756    4.2397242    4.2397242    4.2397242   -4476.0756    1075.3406   -12743.274   -1760.2933    3086.0945   -3077.3309   -2372.3502    76.210152 
   48600    206.33653   -119.49702   0.18669763   -119.31032   -2506.5302    4.2381406    4.2381406    4.2381406   -2506.5302    2227.4428   -9056.0859   -690.94744   -129.94825   -2949.1919    3079.9067    76.124787 
   48700    353.96712   -119.62851   0.32027689   -119.30823   -4309.0174    4.2378134    4.2378134    4.2378134   -4309.0174    621.27347   -10653.474   -2894.8518    2838.1663   -3047.7859    561.01401    76.107158 
   48800    255.33032   -119.54093   0.23102824    -119.3099    3024.1941    4.2389863    4.2389863    4.2389863    3024.1941    4584.9605    285.21669    4202.4052   -107.80588   -1038.2165   -95.608011    76.170364 
   48900    283.17815   -119.56664   0.25622554   -119.31041   -1236.4368    4.2363264    4.2363264    4.2363264   -1236.4368    14109.982   -6585.0733    -11234.22    705.13594   -5664.4429   -4428.6617    76.027069 
   49000    186.81355   -119.47983   0.16903282    -119.3108     9459.352    4.2358395    4.2358395    4.2358395     9459.352    6740.9118    25162.063   -3524.9191   -3513.5865   -1846.6169   -3766.1525    76.000857 
   49100    447.19191   -119.71389   0.40462864   -119.30926   -2398.0819    4.2367164    4.2367164    4.2367164   -2398.0819    4716.1377   -3551.2474    -8359.136    897.19701   -1217.4446   -302.69159    76.048066 
   49200    309.69535   -119.59047   0.28021886   -119.31025    5463.7142    4.2373758    4.2373758    4.2373758    5463.7142   -138.02974    14139.158    2390.0142   -701.50525    2436.1543   -1226.0259    76.083581 
   49300    366.98957   -119.64211   0.33205988   -119.31005   -6538.5753    4.2357149    4.2357149    4.2357149   -6538.5753   -5777.7432   -4787.2353   -9050.7475    977.18233    1301.5296   -4807.0219    75.994151 
   49400    209.69952   -119.50021   0.18974053   -119.31047   -2347.2117    4.2399326    4.2399326    4.2399326   -2347.2117   -9370.7329   -4782.5205    7111.6182    316.59611   -2109.8467   -3543.7065    76.221388 
   49500    389.80848   -119.66203   0.35270691   -119.30932   -9274.8956     4.238894     4.238894     4.238894   -9274.8956   -11094.237   -10548.613   -6181.8363   -905.50743    1322.4464   -1954.9607    76.165391 
   49600    245.17379   -119.53089   0.22183839   -119.30905   -1887.4161    4.2376749    4.2376749    4.2376749   -1887.4161   -9012.2335    1280.0547    2069.9305    4765.9202     -4006.19    1021.4023    76.099692 
   49700     325.8745   -119.60427    0.2948581   -119.30941   -3117.9877    4.2397534    4.2397534    4.2397534   -3117.9877   -9392.5604   -6735.2744    6773.8718    645.38676    1147.9111     3636.624    76.211725 
   49800     194.4783   -119.48628   0.17596805   -119.31031    4499.9639    4.2368912    4.2368912    4.2368912    4499.9639    2878.5715     13043.62   -2422.2995   -423.62386   -6428.8199   -1878.2602    76.057478 
   49900     260.7502   -119.54572   0.23593226   -119.30979    4618.5749    4.2349539    4.2349539    4.2349539    4618.5749   -1579.7789    14211.692    1223.8118    322.77693   -4483.7884    2361.7462    75.953196 
   50000      312.005   -119.59085   0.28230868   -119.30855    5313.6621    4.2386211    4.2386211    4.2386211    5313.6621   -2851.5028    12320.723    6471.7659    1060.0661    874.96674     1154.498    76.150679 
   50100    331.30179   -119.60871   0.29976882   -119.30894    3603.7397     4.237021     4.237021     4.237021    3603.7397   -1681.0412    1526.1623    10966.098   -657.10746   -1005.4227     913.9366    76.064469 
   50200    327.16973   -119.60559   0.29603004   -119.30956    2344.9374     4.235491     4.235491     4.235491    2344.9374   -8013.4258    10225.359    4822.8789   -914.50282    2406.1663    -892.3568    75.982102 
   50300    233.68488    -119.5211   0.21144299   -119.30965   -3440.8202     4.240644     4.240644     4.240644   -3440.8202   -6520.3404   -12492.114    8689.9938   -3593.7919    -1337.473   -55.716712    76.259761 
   50400    376.41283   -119.64929   0.34058624   -119.30871   -7135.4533    4.2374412    4.2374412    4.2374412   -7135.4533   -7227.5849   -6074.9435   -8103.8314    1771.8848    772.52739    -5210.155    76.087105 
   50500    301.49185   -119.58214   0.27279616   -119.30934   -5641.0468    4.2379954    4.2379954    4.2379954   -5641.0468   -10839.047   -6909.6606    825.56702    2837.9871    591.26073    4497.1708    76.116961 
   50600    324.39714   -119.60386   0.29352135   -119.31034   -6660.5266    4.2376609    4.2376609    4.2376609   -6660.5266    1783.6497   -12805.189   -8960.0404   -482.08951   -1316.9774    -2231.373    76.098938 
   50700    228.01071   -119.51634   0.20630888   -119.31003    1960.5207    4.2383671    4.2383671    4.2383671    1960.5207    2900.2878    9172.6435   -6191.3691    544.29822   -3800.3658    2483.8239    76.136989 
   50800    349.05006   -119.62613   0.31582783    -119.3103    2667.3738    4.2353653    4.2353653    4.2353653    2667.3738    4595.5931     7794.076   -4387.5476    2035.6012   -2496.2151   -364.61322    75.975337 
   50900    287.31058   -119.57029   0.25996465   -119.31033    7193.0854    4.2370017    4.2370017    4.2370017    7193.0854    6578.7579    1965.5283     13034.97    4458.0853   -255.60981    3872.5544    76.063429 
   51000    309.88019   -119.59039   0.28038611      -119.31    2882.2959    4.2370605    4.2370605    4.2370605    2882.2959    8049.6609    6141.3671   -5544.1403    4587.5221   -331.28455    2767.8892    76.066599 
   51100    294.88185   -119.57693    0.2668153   -119.31012     1326.951    4.2355347    4.2355347    4.2355347     1326.951   -5031.4126   -1663.6332    10675.899   -179.06593   -214.40491    4579.7229     75.98445 
   51200    314.85695   -119.59492   0.28488918   -119.31003   -5153.7769    4.2393835    4.2393835    4.2393835   -5153.7769   -3465.1471   -7988.2579   -4007.9258    1025.5084    -2273.123   -1616.0828     76.19178 
   51300    321.00334   -119.60027   0.29045057   -119.30982   -8584.9363    4.2377524    4.2377524    4.2377524   -8584.9363   -10187.199   -7761.2456   -7806.3638      2630.65    2382.1382    1101.3125    76.103871 
   51400    309.72517   -119.58987   0.28024584   -119.30962   -7699.0618    4.2391229    4.2391229    4.2391229   -7699.0618   -13133.984   -6092.6644   -3870.5364    1210.2541   -1924.5119    2544.5956     76.17773 
   51500    312.57023   -119.59261   0.28282011   -119.30979    -2060.107    4.2378693    4.2378693    4.2378693    -2060.107   -1921.8486   -412.62155   -3845.8509   -2912.2651   -596.00263   -3117.1108    76.110168 
   51600    266.47614    -119.5496   0.24111321   -119.30849   -746.60413    4.2385978    4.2385978    4.2385978   -746.60413    4536.0981     5041.075   -11816.986   -3976.0583   -3989.5952    2316.6107    76.149422 
   51700    269.95193     -119.553   0.24425818   -119.30874    10043.731    4.2352418    4.2352418    4.2352418    10043.731    9025.8897     19812.97    1292.3321   -1546.6781   -1220.7583   -5116.3458    75.968691 
   51800    292.09246    -119.5734   0.26429139   -119.30911    5153.5343    4.2379642    4.2379642    4.2379642    5153.5343    14512.633   -1731.2744    2679.2443    1503.4906   -2075.4806    4048.7876    76.115278 
   51900    269.33053   -119.55382   0.24369593   -119.31013    8451.7803    4.2355212    4.2355212    4.2355212    8451.7803    14235.611    17266.255   -6146.5248   -2501.3948   -1506.0844   -1302.4332    75.983725 
   52000    261.54609   -119.54691   0.23665239   -119.31026    1379.1811    4.2361889    4.2361889    4.2361889    1379.1811    11059.172   -9516.5312    2594.9026   -1180.2292   -4109.5648    2157.5293    76.019665 
   52100    289.84142   -119.57304    0.2622546   -119.31078   -4393.5647    4.2394364    4.2394364    4.2394364   -4393.5647    2312.8058   -4072.6387   -11420.861    330.91359   -105.59664   -2122.5564    76.194631 
   52200    339.63054   -119.61733   0.30730485   -119.31003   -3934.6185    4.2362001    4.2362001    4.2362001   -3934.6185    4493.7302   -9593.9909   -6703.5947    5284.8238   -1889.7235   -140.01923     76.02027 
   52300    234.86472   -119.52338   0.21251053   -119.31087   -5021.1828    4.2386547    4.2386547    4.2386547   -5021.1828    -315.9866   -5999.5437    -8748.018     2690.291   -502.98401    2441.9948     76.15249 
   52400    372.20993   -119.64739   0.33678336    -119.3106   -3617.5137    4.2372064    4.2372064    4.2372064   -3617.5137   -2022.6274   -5442.1507    -3387.763   -2527.0008    -1185.549     -786.269    76.074456 
   52500    274.23071    -119.5587   0.24812971   -119.31057    2643.0866    4.2381436    4.2381436    4.2381436    2643.0866   -682.43066    18114.439   -9502.7489   -4123.0588   -2005.6109    1584.8029    76.124946 
   52600    440.58325   -119.70867   0.39864898   -119.31002   -3135.0084    4.2349606    4.2349606    4.2349606   -3135.0084    -859.7729   -5006.9547   -3538.2978    74.065353     3621.637    -2984.102    75.953558 
   52700    201.76913   -119.49325   0.18256495   -119.31068    4660.3159    4.2398375    4.2398375    4.2398375    4660.3159    4834.4096    7083.1888    2063.3494   -848.82423    1071.0893    4544.0774     76.21626 
   52800    426.92691   -119.69563   0.38629244   -119.30934   -7263.6304    4.2366086    4.2366086    4.2366086   -7263.6304   -2924.9084   -8769.7019   -10096.281   -2286.0123    2096.6077   -2283.4636     76.04226 
   52900    270.35378   -119.55365   0.24462178   -119.30903     4930.203    4.2354518    4.2354518    4.2354518     4930.203    12177.002    1822.9897     790.6172   -5116.4582    132.28774    3857.2471    75.979991 
   53000    347.65399    -119.6241   0.31456463   -119.30954   -8554.2539    4.2415948    4.2415948    4.2415948   -8554.2539   -3264.7236   -16423.787   -5974.2509    825.56903    2083.2142   -1798.9466    76.311071 
   53100    285.52898   -119.56947   0.25835263   -119.31112   -412.93836    4.2348697    4.2348697    4.2348697   -412.93836    5875.8198   -790.89225   -6323.7426    2509.0508   -1501.3424    2679.2207    75.948666 
   53200    248.08655   -119.53641   0.22447392   -119.31194   -193.31179     4.236501     4.236501     4.236501   -193.31179    12836.625   -11914.989   -1501.5716    1598.1473    -50.49585    4887.7252    76.036467 
   53300     263.5769   -119.54945   0.23848992   -119.31096   -2827.8064    4.2407018    4.2407018    4.2407018   -2827.8064    9259.8552   -6780.3867   -10962.888   -4345.8254   -3855.6365   -1708.2843    76.262878 
   53400    250.81557   -119.53722    0.2269432   -119.31028    6305.7141    4.2355077    4.2355077    4.2355077    6305.7141    22486.482    849.41963   -4418.7597   -1404.5778   -3570.0338    2499.5994    75.982998 
   53500    324.92224   -119.60468   0.29399647   -119.31068    3173.3941    4.2358714    4.2358714    4.2358714    3173.3941    19941.319   -1850.9799   -8570.1571   -2031.2684    -2498.302   -1950.0745    76.002576 
   53600    253.23393    -119.5398   0.22913138   -119.31066    1388.5752    4.2401304    4.2401304    4.2401304    1388.5752    10572.754    -5935.035   -471.99362   -1636.2506   -2174.6173    3685.1343    76.232057 
   53700    197.02355   -119.48853   0.17827105   -119.31026    6212.0864    4.2337131    4.2337131    4.2337131    6212.0864    12463.114    3790.3228    2382.8218    -9009.693   -1948.9925   -212.98893    75.886454 
   53800     328.3146   -119.60784   0.29706595   -119.31077   -323.08585    4.2354346    4.2354346    4.2354346   -323.08585    8540.1502   -6592.7473   -2916.6604   -6923.1302    949.58301    1072.5795    75.979064 
   53900    301.21696   -119.58275   0.27254744    -119.3102    2698.8219    4.2410992    4.2410992    4.2410992    2698.8219    8918.9408    -1385.483    563.00783   -1703.9068    744.91874    845.37071    76.284322 
   54000     319.2432   -119.59971   0.28885795   -119.31085   -13.130499     4.234336     4.234336     4.234336   -13.130499    10210.006   -2133.9063   -8115.4912    738.22897    2009.2949    1756.9738    75.919954 
   54100    256.15052   -119.54324   0.23177038   -119.31147    -148.2717    4.2375767    4.2375767    4.2375767    -148.2717    11611.624   -10429.722   -1626.7169   -1630.5089    3470.2692     2879.064    76.094405 
   54200    322.01557   -119.60253   0.29136645   -119.31116   -2412.2149     4.240264     4.240264     4.240264   -2412.2149   -538.37801    2823.7411   -9522.0079   -609.60718     63.65994   -1819.1103    76.239266 
   54300    357.76143    -119.6335   0.32371006   -119.30979   -5908.0366    4.2350161    4.2350161    4.2350161   -5908.0366    2906.8763   -9426.6852   -11204.301   -720.23727    4195.7181    2371.0341    75.956545 
   54400    315.85632   -119.59694   0.28579343   -119.31115   -266.00776    4.2362409    4.2362409    4.2362409   -266.00776     1130.343     7616.674   -9545.0403    2065.5608   -559.54036   -3484.0894    76.022463 
   54500    407.81255   -119.67969   0.36899736   -119.31069   -10970.753    4.2411371    4.2411371    4.2411371   -10970.753   -10418.137    -9908.654   -12585.467      552.733    1972.4455    3387.8302    76.286369 
   54600    248.76723   -119.53474   0.22508981   -119.30965    1854.9267     4.233511     4.233511     4.233511    1854.9267      -755.79    7453.4689   -1132.8987   -6291.1611   -1822.6546   -4081.1133    75.875591 
   54700     359.7916   -119.63543     0.325547   -119.30988    -6495.834    4.2387982    4.2387982    4.2387982    -6495.834    414.65484   -9763.8839   -10138.273   -1799.0127    1195.7969    217.79835    76.160226 
   54800    262.91125   -119.54901   0.23788762   -119.31112    2252.4278    4.2395995    4.2395995    4.2395995    2252.4278   -2856.6597    7332.1326    2281.8103   -2118.6071   -2922.5424   -1631.7959    76.203424 
   54900    425.38456   -119.69503   0.38489689   -119.31014    768.18255    4.2330472    4.2330472    4.2330472    768.18255     8886.889   -2195.8602   -4386.4811   -1714.6772    2568.7738    817.92261    75.850654 
   55000    148.74758   -119.44682   0.13458994   -119.31223    5621.0032    4.2391255    4.2391255    4.2391255    5621.0032    5452.8846    8453.9566    2956.1685   -3493.7998   -1098.0601   -679.82364    76.177867 
   55100    280.83818   -119.56634   0.25410829   -119.31223   -667.96018    4.2383576    4.2383576    4.2383576   -667.96018    8520.8008   -6654.0442   -3870.6371   -3482.7844    115.22254   -1288.7132    76.136479 
   55200    229.85194   -119.51993   0.20797486   -119.31195    8011.0166    4.2337007    4.2337007    4.2337007    8011.0166    12506.169    11164.641    362.23932   -2414.8866    1189.4502   -2238.1425     75.88579 
   55300    375.21865   -119.64912   0.33950572   -119.30961   -3540.7164    4.2394717    4.2394717    4.2394717   -3540.7164    7641.1298   -4255.6769   -14007.602    1670.3173    264.94606    273.27547    76.196537 
   55400    207.11754   -119.49712    0.1874043   -119.30972    2607.1077    4.2371785    4.2371785    4.2371785    2607.1077   -2449.0202    9371.6136    898.72977   -5746.2727    1144.1543   -938.72084    76.072956 
   55500    268.20864   -119.55323   0.24268081   -119.31055   -2318.1032    4.2342558    4.2342558    4.2342558   -2318.1032   -38.259636   -4729.5224   -2186.5276   -3177.0088   -756.03048    -1776.669    75.915643 
   55600    323.93494   -119.60331   0.29310314    -119.3102   -2791.1264    4.2401002    4.2401002    4.2401002   -2791.1264    -4739.054    4192.8402   -7827.1654    276.53626    1634.3981   -1554.3766    76.230428 
   55700    343.00948   -119.62005   0.31036219   -119.30969   -302.62307    4.2367834    4.2367834    4.2367834   -302.62307   -2077.2843   -2795.6588    3965.0738     1299.954   -1572.8527    -819.6728    76.051675 
   55800    391.18583   -119.66335   0.35395316    -119.3094   -4972.0375    4.2367784    4.2367784    4.2367784   -4972.0375   -7046.0707   -895.24412   -6974.7977     1873.204    2405.5112    201.75308    76.051403 
   55900    266.96678   -119.55149   0.24155715   -119.30993     767.6607     4.240466     4.240466     4.240466     767.6607    121.99596    911.63068    1269.3554    -1441.972   -4509.9743    63.487155    76.250159 
   56000    344.36117   -119.62118   0.31158523    -119.3096   -6319.4802    4.2384393    4.2384393    4.2384393   -6319.4802   -4607.0946   -13481.231   -870.11519    117.77453    1775.9943   -270.72519    76.140881 
   56100    260.85577   -119.54509   0.23602778   -119.30906    1238.8733    4.2363294    4.2363294    4.2363294    1238.8733   -2303.6589    6365.8233   -345.54456    562.44399   -3071.7704     2448.081    76.027229 
   56200    389.45268   -119.66123   0.35238497   -119.30885   -3098.4692     4.238765     4.238765     4.238765   -3098.4692    1976.5709   -3126.0259   -8145.9526    1061.7535   -1779.1351    4095.2129    76.158434 
   56300    258.48936   -119.54335    0.2338866   -119.30946   -64.282345    4.2368413    4.2368413    4.2368413   -64.282345   -1051.2142   -1710.9298     2569.297   -6758.1609    406.93797    4612.7626    76.054791 
   56400    203.73755   -119.49524   0.18434601    -119.3109     3633.218    4.2342318    4.2342318    4.2342318     3633.218    7873.7033    1468.2586    1557.6921   -392.97917   -3580.2072    1641.1707     75.91435 
   56500    237.79979   -119.52637   0.21516625    -119.3112    29.463444    4.2396921    4.2396921    4.2396921    29.463444    11852.476   -4342.9367   -7421.1486     854.1251    879.32798    4956.1412    76.208418 
   56600     325.4276   -119.60465   0.29445373   -119.31019    5739.8298    4.2357988    4.2357988    4.2357988    5739.8298    14560.385     5.794604    2653.3095    471.01898    -961.2002    4154.2315    75.998667 
   56700    307.73844    -119.5883   0.27844821   -119.30986    2597.9988    4.2376162    4.2376162    4.2376162    2597.9988    7319.2752    5679.5906   -5204.8694   -1909.8038     580.1921    1955.1297    76.096533 
   56800    243.77846   -119.53086   0.22057587   -119.31029   -383.69449    4.2395453    4.2395453    4.2395453   -383.69449    12441.529    -10647.14   -2945.4723   -3072.3082   -2198.5202   -1964.3936    76.200504 
   56900    296.07285   -119.57895   0.26789294   -119.31105   -1389.3662    4.2359798    4.2359798    4.2359798   -1389.3662   -602.59388   -3696.7299    131.22534   -2239.1293    2551.5363   -4029.6226    76.008409 
   57000    346.92501   -119.62399   0.31390504   -119.31008    -6908.005    4.2376607    4.2376607    4.2376607    -6908.005   -8861.7944   -8529.6815   -3332.5392    1095.8308    -6394.052   -1793.9745    76.098929 
   57100    359.13845   -119.63456   0.32495601    -119.3096   -6193.7857    4.2382037    4.2382037    4.2382037   -6193.7857   -8884.4993   -2136.4732   -7560.3845    4.5952648    2509.5243   -559.67921    76.128184 
   57200    351.39514   -119.62858    0.3179497   -119.31063   -4819.3696    4.2367241    4.2367241    4.2367241   -4819.3696   -4078.6422   -10422.397    42.930315   -3119.7365   -4163.1185   -3827.3292     76.04848 
   57300    315.84249   -119.59678   0.28578092   -119.31099    1499.9932    4.2355508    4.2355508    4.2355508    1499.9932   -2712.9249    5488.7142    1724.1904    2281.9199   -1041.2433   -3351.1346    75.985316 
   57400    298.04599   -119.57979   0.26967827   -119.31011    160.84332      4.24011      4.24011      4.24011    160.84332    16313.842   -9972.1519   -5859.1601    676.70743   -2350.7855   -750.77384    76.230958 
   57500    323.03669   -119.60165   0.29229038   -119.30936    4212.9538    4.2343134    4.2343134    4.2343134    4212.9538   -1169.2186    8757.5833    5050.4968     3532.631    266.89556    107.88829    75.918739 
   57600    345.03131   -119.62132   0.31219158   -119.30912    -165.3146    4.2388817    4.2388817    4.2388817    -165.3146    7295.9277    4456.2589    -12248.13   -3188.2181    164.59829    908.24508    76.164727 
   57700    292.09683   -119.57462   0.26429535   -119.31033   -4076.4526    4.2390125    4.2390125    4.2390125   -4076.4526   -1662.1387   -7125.3151    -3441.904   -3254.9654    2589.8123   -2960.2838    76.171775 
   57800       203.74   -119.49558   0.18434824   -119.31124   -2346.7553    4.2358005    4.2358005    4.2358005   -2346.7553    798.99557   -4936.6373   -2902.6242   -852.75025    4254.4673   -1027.1533    75.998755 
   57900    331.23609   -119.61006   0.29970938   -119.31035    -3031.014    4.2387342    4.2387342    4.2387342    -3031.014    3388.2373   -3803.9984   -8677.2809    787.71663     -1243.06    1908.7415    76.156774 
   58000    247.45355    -119.5339   0.22390117      -119.31    4421.4774    4.2369871    4.2369871    4.2369871    4421.4774    25280.078   -7438.2313   -4577.4145   -1598.1108    4296.2882   -896.78651    76.062645 
   58100     318.9067    -119.5988   0.28855348   -119.31025    3783.8597    4.2356043    4.2356043    4.2356043    3783.8597    16108.986      1091.25   -5848.6573    337.57802   -1947.8093   -2855.3526    75.988198 
   58200    255.04518   -119.54102   0.23077023   -119.31025    4850.3884    4.2371624    4.2371624    4.2371624    4850.3884    17254.443   -1076.2758   -1627.0021   -2087.4502    5289.9408   -2450.3726    76.072086 
   58300    370.80726   -119.64519   0.33551421   -119.30968   -3199.9726    4.2383254    4.2383254    4.2383254   -3199.9726    3633.3565   -4769.2138   -8464.0606    5263.1537   -3831.5257   -568.68457    76.134744 
   58400    248.82379   -119.53547     0.225141   -119.31032   -153.19238    4.2342069    4.2342069    4.2342069   -153.19238   -6916.2321    6814.4604   -357.80542    6382.4354    3777.5088   -801.24514    75.913014 
   58500    251.95518   -119.53827   0.22797434    -119.3103   -3827.3982    4.2395098    4.2395098    4.2395098   -3827.3982   -10075.636    -654.5251   -752.03345   -38.695884   -2168.6164   -1883.4372    76.198587 
   58600    331.54458   -119.61016    0.2999885   -119.31017   -655.10318    4.2381555    4.2381555    4.2381555   -655.10318    13211.472   -8456.6734   -6720.1077    3778.4829    282.45962   -3917.1923    76.125586 
   58700    265.92521   -119.55141   0.24061472    -119.3108    5497.7253    4.2351197    4.2351197    4.2351197    5497.7253   -287.80321    2696.0486     14084.93    1482.1538    662.13929    2925.0698    75.962118 
   58800    338.28578   -119.61611   0.30608808   -119.31002   -2614.7131    4.2399175    4.2399175    4.2399175   -2614.7131    10255.032   -11406.568   -6692.6038    799.00941   -1565.5676    1788.1106    76.220572 
   58900    201.33962   -119.49291   0.18217632   -119.31074    5843.7673    4.2360164    4.2360164    4.2360164    5843.7673    7113.9547    6022.0465    4395.3008    1440.8937    2082.8996    1935.1257    76.010381 
   59000    372.68621   -119.64733   0.33721432   -119.31012   -6085.0978    4.2366935    4.2366935    4.2366935   -6085.0978   -6303.8003    -6550.505   -5400.9881   -2114.9179   -5688.7367    150.14723    76.046836 
   59100    223.95728   -119.51325   0.20264126   -119.31061    3068.7038    4.2377418    4.2377418    4.2377418    3068.7038   -3746.0702    8118.5913    4833.5901   -3109.5205    6401.5085     3081.847    76.103299 
   59200    412.39595   -119.68317   0.37314452   -119.31002   -6489.7382    4.2367158    4.2367158    4.2367158   -6489.7382   -11203.152   -7281.1059   -984.95648    402.74115   -4549.4916    3763.4181    76.048033 
   59300     253.8705   -119.54077   0.22970736   -119.31106    4639.5115    4.2359138    4.2359138    4.2359138    4639.5115   -9477.4456    13648.564    9747.4162   -3184.8801    3723.1156    2468.9562    76.004854 
   59400    326.74254   -119.60597   0.29564352   -119.31033   -4729.1658    4.2397395    4.2397395    4.2397395   -4729.1658   -253.12238   -15220.684    1286.3087   -780.51375   -2278.7435   -3786.3623    76.210978 
   59500    237.53868   -119.52509   0.21492999   -119.31016    2635.0089    4.2364359    4.2364359    4.2364359    2635.0089    11048.071   -4646.2353    1503.1913   -1648.9257    3300.7499   -3114.4286    76.032964 
   59600     381.2119   -119.65397   0.34492854   -119.30904   -1152.3318    4.2368955    4.2368955    4.2368955   -1152.3318   -1394.0657    -6744.158    4681.2284   -1655.4716   -730.89872   -2192.0716     76.05771 
   59700    300.59035   -119.58178   0.27198047    -119.3098   -1510.0561     4.239443     4.239443     4.239443   -1510.0561      10667.3   -8743.4905   -6453.9774    567.09393     3515.129   -491.64975    76.194986 
   59800    245.95523   -119.53329   0.22254546   -119.31075   -408.96016    4.2358313    4.2358313    4.2358313   -408.96016   -562.46709   -2059.2987    1394.8853    1439.8863   -3274.6655   -3314.7237    76.000413 
   59900    294.12125   -119.57684   0.26612709   -119.31071   -1993.2881    4.2367867    4.2367867    4.2367867   -1993.2881   -5948.9684    2817.9972    -2848.893   -4171.4977    904.91218   -3613.7207     76.05185 
   60000     348.3057   -119.62524   0.31515432   -119.31009   -3435.4414    4.2394007    4.2394007    4.2394007   -3435.4414   -9958.6187   -6202.5058    5854.8004    1820.3595    3464.9521    2180.3383    76.192705 
   60100    381.05431   -119.65397   0.34478595   -119.30919   -1051.4625     4.235814     4.235814     4.235814   -1051.4625   -5145.6297    3697.5602    -1706.318   -3604.2834   -1696.9051    3896.2553    75.999484 
   60200    274.47488   -119.55826   0.24835064   -119.30991   -1774.9844    4.2376405    4.2376405    4.2376405   -1774.9844   -16811.744    3415.1213    8071.6694    505.78683    3338.7353    1789.0354    76.097843 
   60300     353.5948   -119.62986   0.31994001   -119.30992    -1701.552    4.2379965    4.2379965    4.2379965    -1701.552    1214.2552   -773.63024   -5545.2808   -1771.7189    -3171.277    544.06694    76.117019 
   60400    306.48009   -119.58701   0.27730962    -119.3097   -1636.0114    4.2379131    4.2379131    4.2379131   -1636.0114   -5921.4345    -4783.515    5796.9152   -2931.6659   -644.51309    1011.8039    76.112527 
   60500    389.98729   -119.66264   0.35286869   -119.30977   -4073.4256     4.235413     4.235413     4.235413   -4073.4256   -4150.7659   -7405.4162   -664.09461   -313.39994    523.22831    2130.8924    75.977901 
   60600    260.62233   -119.54694   0.23581656   -119.31112   -1838.0975    4.2407884    4.2407884    4.2407884   -1838.0975   -3427.2318   -8014.5794    5927.5186    755.75187     5.657683    2551.6979    76.267554 
   60700    314.99118   -119.59659   0.28501064   -119.31158   -2393.0185    4.2339253    4.2339253    4.2339253   -2393.0185   -1165.1654   -5634.7332   -379.15681   -1462.4776   -3729.4922   -5494.0273    75.897867 
   60800    211.38655   -119.50184   0.19126699   -119.31057    1692.0446    4.2381467    4.2381467    4.2381467    1692.0446     -5003.63   -10061.607     20141.37    -1163.388    1597.2889   -4754.8579    76.125115 
   60900    359.05621   -119.63537   0.32488161   -119.31049   -347.47807    4.2385116    4.2385116    4.2385116   -347.47807   -7839.0374   -947.50482    7744.1081    2317.3621    938.56312   -2272.5389    76.144776 
   61000    254.19104   -119.54043   0.22999739   -119.31043    4228.2213    4.2358134    4.2358134    4.2358134    4228.2213   -1604.7074   -2581.2977    16870.669   -1526.1614    4520.1932   -1459.3664    75.999451 
   61100      293.708   -119.57641   0.26575317   -119.31066    1717.0654    4.2374828    4.2374828    4.2374828    1717.0654   -5041.3953    3916.7256    6275.8661    4146.3782    2788.9497   -3447.2797    76.089344 
   61200    233.22643   -119.52166   0.21102817   -119.31064    687.87008     4.236994     4.236994     4.236994    687.87008   -5655.5464    2325.0975    5394.0592    -3282.893   -4200.8922   -2855.6261    76.063016 
   61300    335.40127   -119.61357   0.30347812   -119.31009   -989.20613    4.2366599    4.2366599    4.2366599   -989.20613   -2192.0142   -3586.2819    2810.6777    1428.7803    751.84074   -1572.9965    76.045025 
   61400    300.20894   -119.58201   0.27163536   -119.31037    1648.8015    4.2362409    4.2362409    4.2362409    1648.8015    -7165.012   -6945.3751    19056.792   -224.29865    1896.4219    4025.6896    76.022465 
   61500    271.66007   -119.55682   0.24580374   -119.31102   -607.10729    4.2389349    4.2389349    4.2389349   -607.10729    1922.0108   -12542.519    8799.1868    -2393.867    180.04928    3863.1396    76.167596 
   61600    292.59622   -119.57555   0.26474721    -119.3108    1584.7364    4.2367951    4.2367951    4.2367951    1584.7364   -9614.6702   -5066.5384    19435.418     27.42853   -1617.8761   -705.67299    76.052306 
   61700     250.6168   -119.53804   0.22676335   -119.31127   -584.10318    4.2378884    4.2378884    4.2378884   -584.10318   -5690.0293   -16401.107    20338.827   -3671.6401   -1078.6152   -620.65971    76.111196 
   61800    316.95068   -119.59712   0.28678363   -119.31033   -2467.5915    4.2375614    4.2375614    4.2375614   -2467.5915   -7631.0211   -6275.9586    6504.2052    1813.3577   -743.65542    2022.8548    76.093579 
   61900    250.31493   -119.53684   0.22649021   -119.31035    861.46934    4.2373923    4.2373923    4.2373923    861.46934    -4280.698   -426.43456    7291.5406   -2181.0679     3219.182   -725.68999    76.084468 
   62000    280.83469   -119.56446   0.25410513   -119.31036    -519.7924    4.2367529    4.2367529    4.2367529    -519.7924   -4422.7535   -3757.0431    6620.4193    4074.0814    -3669.695   -708.78714     76.05003 
   62100      262.874   -119.54872   0.23785392   -119.31086    3272.2543    4.2384651    4.2384651    4.2384651    3272.2543    1284.6269    3995.2858    4536.8502   -2694.1373   -4671.8424   -3521.9548    76.142274 
   62200    322.43334   -119.60199   0.29174446   -119.31024    3096.4376    4.2367425    4.2367425    4.2367425    3096.4376     3990.533    -7965.862    13264.642    2507.6131   -678.91621   -723.38447    76.049473 
   62300    338.14921   -119.61617   0.30596451   -119.31021   -456.02184     4.237494     4.237494     4.237494   -456.02184   -10367.062   -2422.5978    11421.594   -2115.5038    443.02467    2366.2638    76.089946 
   62400    286.47783   -119.56909   0.25921116   -119.30988    1187.2302    4.2365279    4.2365279    4.2365279    1187.2302    7307.1738   -2656.5717   -1088.9114   -2143.5353    2017.4915    1182.9319    76.037919 
   62500    322.72411   -119.60174   0.29200756   -119.30974   -6413.7993    4.2379152    4.2379152    4.2379152   -6413.7993   -14589.059   -9755.9194    5103.5808   -496.77301    2558.7209   -82.781844    76.112639 
   62600    350.65018   -119.62724   0.31727565   -119.30996   -2751.6558    4.2360627    4.2360627    4.2360627   -2751.6558   -665.20041   -7191.7677   -397.99915   -5605.4933   -2470.1517    2761.5089    76.012874 
   62700    330.48808   -119.60948   0.29903256   -119.31044   -7443.7086    4.2393922    4.2393922    4.2393922   -7443.7086   -14713.434   -7681.6319    63.940096    695.33221     2923.537    2741.7075    76.192248 
   62800    329.87711   -119.60936   0.29847975   -119.31088   -3910.8876     4.235378     4.235378     4.235378   -3910.8876    602.20562   -11364.505   -970.36366   -2194.4663    1869.8872    3597.0465    75.976019 
   62900    294.91382   -119.57768   0.26684422   -119.31084    -897.9649     4.237921     4.237921     4.237921    -897.9649   -10276.651    1115.4266    6467.3298    1220.1263   -1912.8786   -1478.3124    76.112955 
   63000    368.20579   -119.64421   0.33316034   -119.31105   -2798.9044    4.2369418    4.2369418    4.2369418   -2798.9044   -5592.9447   -610.87987   -2192.8886   -2436.8172     460.0626   -2815.1668    76.060204 
   63100    317.07164   -119.59711   0.28689308   -119.31021    838.40132     4.237485     4.237485     4.237485    838.40132    -1592.399   -8077.4946    12185.098    3627.0049    1188.3797    -1908.978    76.089462 
   63200    368.53929   -119.64457   0.33346209   -119.31111   -1463.8461    4.2361233    4.2361233    4.2361233   -1463.8461   -1984.0259    1438.9036    -3846.416   -440.61735    1189.0131    1030.8303    76.016134 
   63300    242.66483   -119.53047   0.21956824    -119.3109   -439.34431    4.2383547    4.2383547    4.2383547   -439.34431   -1868.8318   -4899.5122    5450.3111    819.04582    5463.8035    380.65306    76.136324 
   63400    353.28383   -119.62958   0.31965863   -119.30992   -2102.5553    4.2357735    4.2357735    4.2357735   -2102.5553    -1155.512   -5435.6155    283.46155    956.41249   -1236.3412  -0.35292232    75.997306 
   63500    307.60382    -119.5881    0.2783264   -119.30978   -2168.6465    4.2370588    4.2370588    4.2370588   -2168.6465   -5687.5462   -10684.672    9866.2787   -4583.9619    -2508.628    2312.0455    76.066507 
   63600    370.35823   -119.64538   0.33510791   -119.31027   -3690.6361    4.2384836    4.2384836    4.2384836   -3690.6361    1011.5698   -9887.5708   -2195.9074    3146.3045    655.17135    2764.2044    76.143272 
   63700     202.9934   -119.49433   0.18367269   -119.31066   -131.67142    4.2380105    4.2380105    4.2380105   -131.67142   -8938.5246   -8243.1756    16786.686   -4497.2225    -3989.244    2397.3048    76.117773 
   63800    301.92777   -119.58338   0.27319059   -119.31019   -3106.3603    4.2377362    4.2377362    4.2377362   -3106.3603   -541.09194   -9994.6324    1216.6433    -1473.199   -1588.5184   -1555.7121    76.102998 
   63900     346.1768   -119.62221   0.31322805   -119.30898   -1307.8401    4.2398945    4.2398945    4.2398945   -1307.8401    -13339.04   -5009.5081    14425.027   -40.858475   -2614.9044   -3151.3283    76.219336 
   64000    339.66071    -119.6168   0.30733215   -119.30947   -2057.1915    4.2375001    4.2375001    4.2375001   -2057.1915    1831.9819    -13057.05    5053.4935    1892.9866   -1890.8122   -1080.1087    76.090279 
   64100    230.95954   -119.51947   0.20897705   -119.31049    572.35042    4.2378402    4.2378402    4.2378402    572.35042   -11629.694   -166.04599    13512.791   -376.76261    2596.8415   -987.97023    76.108601 
   64200    274.48957   -119.55867   0.24836393    -119.3103    3394.6421    4.2375395    4.2375395    4.2375395    3394.6421     6875.962   -5412.5175    8720.4817    1937.2769    3328.9607   -3136.0808    76.092401 
   64300    339.27675   -119.61615   0.30698473   -119.30916    2950.2906    4.2355491    4.2355491    4.2355491    2950.2906   -7704.1829   -4516.5291    21071.584    1630.4338   -3136.1812    395.44562    75.985227 
   64400    313.97824   -119.59419   0.28409411    -119.3101    4037.9316    4.2364805    4.2364805    4.2364805    4037.9316    4074.1495   -2785.0841    10824.729   -313.90557    2362.1653    1544.1015    76.035366 
   64500    200.39779   -119.49331   0.18132413   -119.31198    2896.0706    4.2360385    4.2360385    4.2360385    2896.0706   -4612.3071   -8466.2342    21766.753    5350.4555    -1261.483    6595.3834    76.011567 
   64600    254.55646   -119.54331   0.23032803   -119.31298   -300.51326    4.2369201    4.2369201    4.2369201   -300.51326    1763.2581   -9480.1881    6815.3901   -4182.7291    1599.1587    4295.6601    76.059035 
   64700    277.12214   -119.56149   0.25074594   -119.31075     976.1729    4.2373586    4.2373586    4.2373586     976.1729    -4829.711    -6455.362    14213.592    1115.9425    2241.1821    1670.2036    76.082654 
   64800    316.92954   -119.59649   0.28676451   -119.30972   -3668.9914    4.2392171    4.2392171    4.2392171   -3668.9914    -4108.029   -17525.544    10626.598    2131.4442    505.25278    784.03674    76.182809 
   64900    257.79482   -119.54308   0.23325817   -119.30982    2157.8587    4.2366541    4.2366541    4.2366541    2157.8587    7058.7249   -11555.909     10970.76    -2655.231    471.45151    2079.6913    76.044715 
   65000    260.28317   -119.54732   0.23550968   -119.31181   -2501.1973    4.2392482    4.2392482    4.2392482   -2501.1973   -9384.6415   -4716.4268    6597.4764   -152.13659    6254.1054   -1674.2197    76.184483 
   65100    228.89347   -119.51855   0.20710762   -119.31145    2667.7001    4.2354278    4.2354278    4.2354278    2667.7001    4381.8048    -9861.012    13482.308    364.53672   -4611.9546   -4495.3925    75.978701 
   65200    355.54473   -119.63188   0.32170435   -119.31018     1190.662     4.236676     4.236676     4.236676     1190.662   -2125.1346   -3719.1759    9416.2966   -1647.4405     357.9405   -4675.1756     76.04589 
   65300    300.72532   -119.58292   0.27210259   -119.31081    4038.1377    4.2371443    4.2371443    4.2371443    4038.1377    2679.6822   -3803.6658    13238.397    1429.0134   -465.92666   -1029.4188    76.071113 
   65400    260.11898   -119.54745   0.23536112   -119.31208    1827.7675     4.237056     4.237056     4.237056    1827.7675   -516.26305   -7570.7788    13570.344    1559.9764    1113.2155    869.97633    76.066354 
   65500    289.14104   -119.57297   0.26162089   -119.31135    1156.7551    4.2362792    4.2362792    4.2362792    1156.7551    4768.7424   -5243.6161    3945.1391   -2540.2679    1609.6497    2336.9292    76.024526 
   65600    345.53125   -119.62185   0.31264394   -119.30921   -2508.7004    4.2387471    4.2387471    4.2387471   -2508.7004   -4131.7306   -12388.491    8994.1204    5303.8369   -1710.4729   -97.449866    76.157471 
   65700    409.19666    -119.6798   0.37024973   -119.30955   -5717.8996    4.2372417    4.2372417    4.2372417   -5717.8996   -7572.8509    -8219.992   -1360.8559   -2370.3091   -2498.2223    4849.7469    76.076357 
   65800    233.35423   -119.52148   0.21114382   -119.31034   -5224.8691    4.2400122    4.2400122    4.2400122   -5224.8691   -5368.5092   -13893.774    3587.6763    -1743.858    1733.0787     3927.087    76.225682 
   65900    378.28409   -119.65222   0.34227939   -119.30994   -7133.5667    4.2367989    4.2367989    4.2367989   -7133.5667   -10420.295   -5301.7992   -5678.6054    1828.3812    -222.4051    2170.3355    76.052509 
   66000    319.01562   -119.59812   0.28865203   -119.30947   -2556.6717    4.2391175    4.2391175    4.2391175   -2556.6717   -3717.1312   -9254.6099     5301.726   -4123.0513   -4329.1897   -658.13558     76.17744 
   66100    379.44694   -119.65262   0.34333157   -119.30929    -3311.266    4.2372895    4.2372895    4.2372895    -3311.266   -2669.7456   -1829.8581   -5434.1943    2050.5754   -698.43105   -2605.3525    76.078935 
   66200    281.48221   -119.56476   0.25469102   -119.31006   -678.37564    4.2382486    4.2382486    4.2382486   -678.37564    -4692.055   -1397.9891    4054.9172   -2031.4537   -6230.4409   -1899.7216    76.130605 
   66300    325.95685    -119.6053   0.29493261   -119.31037    2190.4223    4.2353797    4.2353797    4.2353797    2190.4223     13684.25   -4212.8733   -2900.1095    1331.5658    3058.6754   -1529.3087     75.97611 
   66400    293.04726   -119.57472   0.26515532   -119.30957    478.40165    4.2393244    4.2393244    4.2393244    478.40165    5762.2425   -5506.1267    1179.0893    -623.0348   -2736.4919   -4787.6434    76.188591 
   66500    332.79373   -119.61004   0.30111876   -119.30892    1924.0217    4.2358772    4.2358772    4.2358772    1924.0217    6932.8994   -7047.8265    5886.9922    1545.8181    418.77724   -1292.2812    76.002886 
   66600    332.03261   -119.61054   0.30043008   -119.31011   -1898.0757    4.2366746    4.2366746    4.2366746   -1898.0757   -3757.9143   -11796.989    9860.6762    -3779.962   -1571.6828    61.926072    76.045818 
   66700    276.36098   -119.56226   0.25005722    -119.3122   -1790.5067    4.2371619    4.2371619    4.2371619   -1790.5067    897.40818   -8460.6111    2191.6827    1073.4747    3214.3822    2695.4568    76.072058 
   66800    217.24673     -119.509    0.1965694   -119.31243   -2094.9907    4.2365124    4.2365124    4.2365124   -2094.9907   -13568.665   -5008.0419    12291.735      705.375    -2904.639     970.8563    76.037083 
   66900    264.98444   -119.55189   0.23976349   -119.31213    123.02152    4.2362617    4.2362617    4.2362617    123.02152    8645.3031   -15841.379      7565.14   -2826.7452    4381.9036     456.6208    76.023584 
   67000    336.89305   -119.61562   0.30482791   -119.31079   -215.99991    4.2385479    4.2385479    4.2385479   -215.99991    -10156.95   -4282.7643    13791.714    2974.0736   -2011.0617    715.59617    76.146737 
   67100    233.33495   -119.52215   0.21112637   -119.31102    4818.4033    4.2376763    4.2376763    4.2376763    4818.4033    9601.9869   -7136.0586    11989.282   -4482.3916    6906.4229    122.60574    76.099769 
   67200    237.34991   -119.52591   0.21475919   -119.31115    4298.9377    4.2357896    4.2357896    4.2357896    4298.9377    7932.6881   -8615.5371    13579.662    1929.3432    5844.4463    35.710904    75.998169 
   67300    260.69166    -119.5469    0.2358793   -119.31102    5049.9635    4.2390584    4.2390584    4.2390584    5049.9635    8748.4933   -5222.8421    11624.239    -1938.062    4560.8625   -3797.2666    76.174253 
   67400    297.53515   -119.57869   0.26921605   -119.30947    5641.0181    4.2354859    4.2354859    4.2354859    5641.0181    874.34949   -6530.4596    22579.164   -480.29366    936.91552    -2248.448    75.981824 
   67500    294.64853   -119.57641   0.26660418    -119.3098    1047.0115    4.2378832    4.2378832    4.2378832    1047.0115    1477.5098   -9057.4787    10721.004   -2929.7788    1891.6566   -917.51695    76.110916 
   67600    216.78753     -119.507   0.19615391   -119.31085    3120.4453    4.2375948    4.2375948    4.2375948    3120.4453   -4725.2885   -7572.5322    21659.157   -1932.8308   -124.04786   -405.56117    76.095379 
   67700    335.21131   -119.61447   0.30330624   -119.31116    -6073.645    4.2376533    4.2376533    4.2376533    -6073.645   -12014.187   -9411.4149    3204.6665   -123.49838    1716.8744    1169.2174     76.09853 
   67800    258.26629   -119.54447   0.23368477   -119.31078   -82.019063    4.2366542    4.2366542    4.2366542   -82.019063    -1645.409   -12995.923    14395.274    -4368.576   -556.51546    959.17633    76.044718 
   67900    379.84303   -119.65282   0.34368995   -119.30913   -8021.5892    4.2397297    4.2397297    4.2397297   -8021.5892   -9277.1405   -15418.295    630.66821    974.64716   -5230.3076    1332.5573    76.210446 
   68000     306.0086   -119.58669   0.27688301   -119.30981    235.15876    4.2362501    4.2362501    4.2362501    235.15876   -487.82466    -4982.875     6176.176   -3851.6423    2316.7195    2711.7854    76.022958 
   68100    319.03163   -119.59966   0.28866652     -119.311   -2806.8207    4.2383432    4.2383432    4.2383432   -2806.8207    4978.9817   -11595.242   -1804.2022    1908.7576   -1873.5311   -2826.2265    76.135702 
   68200    267.42713   -119.55362   0.24197368   -119.31165    1066.8429     4.236302     4.236302     4.236302    1066.8429   -1930.5705   -5359.8221    10490.921   -751.86645    1.1496693   -3192.0859    76.025753 
   68300    378.54234   -119.65262   0.34251307   -119.31011   -1248.8814    4.2370874    4.2370874    4.2370874   -1248.8814    731.04378   -6876.7786    2399.0906   -2575.4648   -3423.1398   -3731.6402    76.068047 
   68400    351.66463   -119.63031   0.31819355   -119.31212   -556.05348     4.236026     4.236026     4.236026   -556.05348   -3357.9881   -3980.8496    5670.6773   -61.431871   -3314.3295   -373.69766    76.010895 
   68500    272.09508   -119.55864   0.24619735   -119.31244   -3963.1438     4.237661     4.237661     4.237661   -3963.1438   -6677.2322   -5098.7412   -113.45812   -2265.4959     895.3162   -453.53418    76.098943 
   68600    303.43583   -119.58634   0.27455511   -119.31178   -1907.4187    4.2364257    4.2364257    4.2364257   -1907.4187   -1606.7922   -5651.1426    1535.6786    107.35866    3129.4887   -1357.9216    76.032414 
   68700    358.20048   -119.63443   0.32410732   -119.31032   -2249.4858    4.2368704    4.2368704    4.2368704   -2249.4858    3486.5448    -14827.93    4592.9279   -4142.8396    252.90145    892.88693    76.056361 
   68800    392.11266   -119.66444   0.35479178   -119.30964   -3052.6596    4.2377389    4.2377389    4.2377389   -3052.6596   -524.57978    -6213.394    -2420.005   -718.73311    3141.3512    2894.2393     76.10314 
   68900    251.02978   -119.53767   0.22713702   -119.31053    686.48572    4.2356782    4.2356782    4.2356782    686.48572    9747.2906    -11917.84    4230.0061   -4339.0482    3032.7805    3546.0546    75.992177 
   69000    318.83742   -119.59981    0.2884908   -119.31132    -3779.257    4.2373169    4.2373169    4.2373169    -3779.257    664.63838   -11137.273   -865.13669    147.08261     2365.802    802.58126    76.080407 
   69100    317.66347   -119.59825   0.28742859   -119.31082   -1154.8967    4.2376098    4.2376098    4.2376098   -1154.8967    864.82697   -11306.701    6977.1834   -1034.1973    996.26504   -1805.7005    76.096188 
   69200    314.51493   -119.59518   0.28457972    -119.3106   -4543.4614    4.2382896    4.2382896    4.2382896   -4543.4614    -486.8001   -15854.004    2710.4194   -3886.4048    -288.8763   -930.67776    76.132812 
   69300    333.52121   -119.61158     0.301777    -119.3098   -2792.7332    4.2375844    4.2375844    4.2375844   -2792.7332   -3486.0097   -11857.953     6965.763    4332.3981    726.26251   -1536.9618    76.094819 
   69400    248.45622   -119.53606   0.22480841   -119.31125    1816.9464    4.2386857    4.2386857    4.2386857    1816.9464     3159.541   -3509.8581    5801.1564   -3967.9713    4354.1664   -1302.0755     76.15416 
   69500    298.67336   -119.58001   0.27024594   -119.30976   -591.24484    4.2375678    4.2375678    4.2375678   -591.24484   -4328.5776   -7285.3584    9840.2015    3659.5353    2517.8675   -3157.0625    76.093926 
   69600    268.90113   -119.55258    0.2433074   -119.30927    6458.9814    4.2367905    4.2367905    4.2367905    6458.9814    15152.199   -10949.658    15174.404   -1607.2255    2344.6849   -2846.3028    76.052056 
   69700    353.66896   -119.62959   0.32000711   -119.30958    2580.9674    4.2366537    4.2366537    4.2366537    2580.9674   -8695.6199   -674.27963    17112.802   -444.03361    201.56425    1562.3733     76.04469 
   69800    230.71258   -119.51959   0.20875359   -119.31084    4269.7302    4.2380491    4.2380491    4.2380491    4269.7302    11842.736   -10381.211    11347.666    1356.0737    2238.1442   -346.51593    76.119856 
   69900    222.21574   -119.51233   0.20106547   -119.31126    2759.1454    4.2339408    4.2339408    4.2339408    2759.1454   -7959.9741   -7042.9628    23280.373    -20.52485   -1710.2519   -1622.9108    75.898704 
   70000    282.95243   -119.56747    0.2560213   -119.31145    -4550.844    4.2393013    4.2393013    4.2393013    -4550.844   -5872.3218   -18106.139    10325.929    1677.1625    -290.5106   -271.77962    76.187345 
   70100    341.09439   -119.61969   0.30862937   -119.31106   -1922.2945    4.2369668    4.2369668    4.2369668   -1922.2945   -13117.383   -9710.6862    17061.185   -772.47305   -1656.2835    226.72407    76.061554 
   70200    267.52324   -119.55452   0.24206065   -119.31246   -3918.0094    4.2372906    4.2372906    4.2372906   -3918.0094   -8311.8242   -13905.562    10463.357    863.98552    1221.6504    3104.1956    76.078991 
   70300    209.41106   -119.50167   0.18947953   -119.31219    3960.9605    4.2370755    4.2370755    4.2370755    3960.9605   -2555.8496     554.0175    13884.714   -2250.6666     749.7976   -928.79242    76.067409 
   70400    329.54687    -119.6091   0.29818093   -119.31092    1602.3611    4.2376821    4.2376821    4.2376821    1602.3611    5406.1983   -4607.2549      4008.14    2085.6754    1690.4448   -2340.0312    76.100079 
   70500    257.77455   -119.54361   0.23323983   -119.31037    8698.7209    4.2337122    4.2337122    4.2337122    8698.7209    10509.367   -6512.8619    22099.658   -4981.7915   -3176.9523    -1776.881     75.88641 
   70600    343.58849   -119.62184   0.31088609   -119.31095    2126.3862    4.2369691    4.2369691    4.2369691    2126.3862    2704.1851   -189.91119    3864.8845   -659.18426    -2076.784    1892.1976    76.061674 
   70700    205.76519   -119.49861   0.18618067   -119.31243    4913.0592    4.2367096    4.2367096    4.2367096    4913.0592    3093.7276   -6754.8083    18400.258   -1151.6514   -864.38857    3175.5843    76.047704 
   70800    364.31082   -119.64198   0.32963608   -119.31234   -4876.1615     4.235722     4.235722     4.235722   -4876.1615   -5211.8805   -8290.6238   -1125.9802   -2631.3241   -1141.3691    237.58598    75.994533 
   70900    224.03599   -119.51394   0.20271247   -119.31123   -3320.2947    4.2385601    4.2385601    4.2385601   -3320.2947   -8292.9869    -10878.35     9210.453    2022.4764    2824.8275   -591.30929    76.147392 
   71000    381.01362   -119.65393   0.34474913   -119.30918   -9542.4942    4.2390429    4.2390429    4.2390429   -9542.4942    -5790.569   -16954.004   -5882.9099   -5544.9772   -4955.3332    1427.9414    76.173414 
   71100    274.18351   -119.55822     0.248087   -119.31014     991.0809    4.2363948    4.2363948    4.2363948     991.0809    3952.0281   -6964.0315    5985.2461     2249.438    1494.1272    2102.7621    76.030748 
   71200    301.35787   -119.58331   0.27267494   -119.31064   -2526.7251    4.2393929    4.2393929    4.2393929   -2526.7251    5052.9505   -6590.8872   -6042.2384   -591.43104   -636.21706   -1035.4733    76.192288 
   71300    299.86289   -119.58151   0.27132225   -119.31019    3940.6243    4.2371957    4.2371957    4.2371957    3940.6243    7627.6911   -2783.7698    6977.9514    1441.7292    3313.0737    -3767.846     76.07388 
   71400    377.24651    -119.6504   0.34134057   -119.30906    1945.7882    4.2363792    4.2363792    4.2363792    1945.7882    11458.304   -11069.056     5448.116    269.32789    -1972.775   -1788.9165    76.029909 
   71500    349.82166   -119.62645   0.31652599   -119.30992   -943.72475    4.2386186    4.2386186    4.2386186   -943.72475    276.85957    1050.7294   -4158.7632    1420.5289    3076.7078    805.33626    76.150548 
   71600    263.33471   -119.54818   0.23827078   -119.30991   -2398.2327    4.2373819    4.2373819    4.2373819   -2398.2327    5085.0127   -11270.381   -1009.3296    471.47903   -2241.8064    246.05213    76.083911 
   71700    361.23181   -119.63684   0.32685014   -119.30999   -6446.4972    4.2362412    4.2362412    4.2362412   -6446.4972   -6419.4067   -4925.8638   -7994.2211   -757.11971    7110.2033   -910.49915    76.022483 
   71800    344.65623   -119.62143    0.3118522   -119.30957   -5494.7834    4.2393145    4.2393145    4.2393145   -5494.7834   -4332.6531   -12352.975    201.27773   -40.030405    1549.8676   -1458.3091     76.18806 
   71900    312.53953   -119.59237   0.28279234   -119.30958    -6063.751    4.2381874    4.2381874    4.2381874    -6063.751   -8338.6095   -13340.562    3487.9185   -4233.7222     556.6797    4594.6426    76.127305 
   72000     261.1278   -119.54694   0.23627392   -119.31067    1467.0951    4.2358137    4.2358137    4.2358137    1467.0951    1307.8336   -9659.7412    12753.193     3567.428    444.30101    3913.9027    75.999466 
   72100    290.86476   -119.57464   0.26318055   -119.31146    1702.5623    4.2393069    4.2393069    4.2393069    1702.5623    8131.6517   -6028.3681    3004.4035   -3985.4503    1896.5157     62.64241     76.18765 
   72200    284.73488   -119.56778    0.2576341   -119.31014    4971.5577    4.2349548    4.2349548    4.2349548    4971.5577   -2309.1746   -2921.7513    20145.599    2450.0005   -2020.2082   -1325.5487    75.953248 
   72300    278.45857   -119.56241   0.25195517   -119.31045    2983.4473     4.236075     4.236075     4.236075    2983.4473    15112.936   -13500.341    7337.7469   -1179.1386    1793.4433    1441.1976    76.013532 
   72400    325.14223   -119.60619   0.29419553     -119.312    58.162762    4.2365198    4.2365198    4.2365198    58.162762   -3884.8948    -660.6713    4720.0544    2416.9873   -5027.9306    2688.7205    76.037482 
   72500    207.81077   -119.50079   0.18803155   -119.31276      196.314     4.237913     4.237913     4.237913      196.314    4837.6004   -8012.2367    3763.5783   -144.45108     2570.032    638.63891    76.112521 
   72600    329.18015   -119.60979   0.29784912   -119.31194   -3189.3842    4.2351275    4.2351275    4.2351275   -3189.3842   -5053.9834   -8461.3041    3947.1348   -1667.1823    3229.0585   -2034.2058    75.962537 
   72700    272.79182   -119.55768   0.24682778   -119.31086    2397.7036    4.2398096    4.2398096    4.2398096    2397.7036    11224.217   -10655.439    6624.3325    3874.7842    422.32516   -853.75172    76.214754 
   72800    385.08418   -119.65913   0.34843226    -119.3107   -4351.8641     4.238182     4.238182     4.238182   -4351.8641   -2901.1913   -12839.663    2685.2621   -1898.1811   -1097.6579    3541.2036    76.127016 
   72900     202.3193    -119.4936   0.18306276   -119.31054    4040.9655    4.2347443    4.2347443    4.2347443    4040.9655    19964.222   -11813.007    3971.6813    3100.0917   -294.58473    4380.9867     75.94192 
   73000    370.51371   -119.64534   0.33524859   -119.31009    -6758.969    4.2388253    4.2388253    4.2388253    -6758.969   -4655.3168   -10419.295   -5202.2957    2068.1457   -2987.1025    -365.1507    76.161687 
   73100    336.72398   -119.61408   0.30467493   -119.30941    -3107.916    4.2373261    4.2373261    4.2373261    -3107.916    7181.5736    -13151.77    -3353.552    1883.2992    2603.1628    181.33329    76.080902 
   73200    340.30754   -119.61751   0.30791741   -119.30959   -4489.7344    4.2362782    4.2362782    4.2362782   -4489.7344    5450.2008    -11360.94   -7558.4635     4525.889    -2973.543    5432.2121    76.024472 
   73300    293.84322   -119.57588   0.26587552   -119.31001    -3821.891    4.2384651    4.2384651    4.2384651    -3821.891    9313.6047   -14553.515   -6225.7629    1118.9918   -1286.8736     2661.766     76.14227 
   73400    311.22804   -119.59154   0.28160568   -119.30993   -294.81415    4.2393466    4.2393466    4.2393466   -294.81415    5822.0083   -2696.5024   -4009.9483    314.81112    1597.9642    1367.3311    76.189788 
   73500     338.1439     -119.615   0.30595971   -119.30904    3696.9332      4.23562      4.23562      4.23562    3696.9332    14863.753   -4023.5792    250.62528    624.24544    812.68312   -914.28575    75.989041 
   73600    211.00818   -119.50077   0.19092463   -119.30984    2080.4571    4.2406378    4.2406378    4.2406378    2080.4571    4294.2231   -6176.4438    8123.5921   -587.50331    2220.0805    2769.8269     76.25943 
   73700    320.74762   -119.59924   0.29021919   -119.30902    1708.0519    4.2374446    4.2374446    4.2374446    1708.0519   -2977.9743   -2077.5194    10179.649    -4439.616   -618.61102    2777.5808    76.087289 
   73800    265.93499   -119.55011   0.24062357   -119.30948    2249.0853     4.235877     4.235877     4.235877    2249.0853    4028.7807   -10348.447    13066.923     4018.483   -972.44436    673.96635    76.002873 
   73900    285.94371   -119.56848   0.25872787   -119.30975   -1955.9736    4.2380543    4.2380543    4.2380543   -1955.9736   -12446.936   -1529.5984    8108.6134   -5702.1788   -989.94189   -3135.2535    76.120133 
   74000    221.19781   -119.51067   0.20014443   -119.31052    2190.6667    4.2364726    4.2364726    4.2364726    2190.6667    9741.9079   -11063.337    7893.4289    3526.9648    2071.3789     1767.679    76.034939 
   74100    321.55072   -119.60158   0.29094585   -119.31063    -207.6467    4.2352258    4.2352258    4.2352258    -207.6467    2451.2604   -7850.8497    4776.6492    -841.4851   -110.62735    2103.9171    75.967826 
   74200     307.4834   -119.58918   0.27821745   -119.31096    3376.8488    4.2380611    4.2380611    4.2380611    3376.8488     18365.03   -10428.679    2194.1946    1105.7614    1239.9137    1233.9058      76.1205 
   74300    249.16804   -119.53624   0.22545248   -119.31079   -293.08123    4.2389863    4.2389863    4.2389863   -293.08123    2704.0726    1134.9248   -4718.2411    2923.4147   -1036.4893   -2952.6885    76.170364 
   74400    333.47986   -119.61203   0.30173959   -119.31029   -303.99373    4.2357303    4.2357303    4.2357303   -303.99373    9610.3058   -6798.6947   -3723.5923   -276.30297    3220.8988    217.35252    75.994978 
   74500    297.86854   -119.57909   0.26951772   -119.30957   -2966.3559    4.2399262    4.2399262    4.2399262   -2966.3559   -4549.3201    2510.4139   -6860.1613    2361.8016   -3940.0489    1405.1445    76.221046 
   74600    380.40481   -119.65208   0.34419827   -119.30788   -9085.2016    4.2385286    4.2385286    4.2385286   -9085.2016   -6042.9421    -13101.74   -8110.9224   -3161.7027   -2640.5093    1569.1226    76.145694 
   74700    265.11199   -119.54957    0.2398789   -119.30969    507.65516    4.2362908    4.2362908    4.2362908    507.65516   -4205.1067    228.69213    5499.3801     2966.117   -3818.3619   -1493.5975     76.02515 
   74800    409.13223   -119.68009   0.37019144    -119.3099   -7066.4568    4.2380081    4.2380081    4.2380081   -7066.4568    -6676.027   -5052.9063    -9470.437   -6222.1918    -680.0038   -1348.8575    76.117646 
   74900    244.41474   -119.53119   0.22115159   -119.31004     3612.356    4.2371657    4.2371657    4.2371657     3612.356     7214.141   -3752.0281    7374.9552    2441.9823   -445.62502    603.12285    76.072267 
   75000    357.08815    -119.6325   0.32310086    -119.3094   -1036.5484    4.2354104    4.2354104    4.2354104   -1036.5484   -4060.5911   -4883.6374    5834.5832   -5331.8092    1006.8642    2099.6852    75.977762 
   75100    248.74385   -119.53561   0.22506867   -119.31054    3228.7177    4.2388356    4.2388356    4.2388356    3228.7177    7313.9254   -6406.9534    8779.1811    1705.3963    33.861281   -1728.8891    76.162244 
   75200    285.10068   -119.56838   0.25796508   -119.31041    1680.8596    4.2377162    4.2377162    4.2377162    1680.8596   -1176.9515     3123.741    3095.7893    107.82526    6331.1502   -3486.8439    76.101919 
   75300    205.33652   -119.49605    0.1857928   -119.31026    2417.0354    4.2367582    4.2367582    4.2367582    2417.0354   -5760.9334   -4499.2417    17511.281   -1553.1283    1731.5761   -394.93697     76.05032 
   75400    308.08376   -119.58822   0.27876066   -119.30946   -1924.7004    4.2399664    4.2399664    4.2399664   -1924.7004   -9550.5613   -1789.2819     5565.742    5767.7418    756.15285      343.718    76.223213 
   75500    286.52072   -119.56902   0.25924997   -119.30977    1539.8074     4.237616     4.237616     4.237616    1539.8074   -6606.9784   -197.44613    11423.847   -2673.6043   -157.19993   -1035.3647    76.096522 
   75600    267.87844   -119.55232   0.24238204   -119.30994   -1617.0679    4.2357874    4.2357874    4.2357874   -1617.0679   -12587.645   -2030.5136    9766.9549    4091.0895    321.24449   -1224.2339    75.998054 
   75700    230.19293   -119.51901    0.2082834   -119.31073    3644.9023    4.2383721    4.2383721    4.2383721    3644.9023    4440.2614    6204.3155    290.12994   -375.97617    2703.9059   -2297.0915    76.137261 
   75800     405.7459   -119.67724   0.36712742   -119.31011   -2931.0982    4.2366511    4.2366511    4.2366511   -2931.0982   -819.51412   -8044.2855    70.505145    567.01512     737.0588    1253.9484     76.04455 
   75900    311.59076   -119.59185   0.28193387   -119.30992    5148.6637    4.2344166    4.2344166    4.2344166    5148.6637    3709.7931    4947.2124    6788.9856   -1205.3146   -2702.2967    1898.8176    75.924292 
   76000    326.82663   -119.60604    0.2957196   -119.31032   -5822.1612    4.2401671    4.2401671    4.2401671   -5822.1612   -929.49439   -6842.7392   -9694.2501   -132.04554   -218.91662   -207.78605    76.234035 
   76100    261.18367   -119.54769   0.23632448   -119.31137   -50.342209    4.2356372    4.2356372    4.2356372   -50.342209   -8453.8116    11252.781   -2949.9961    -2040.145    403.98455    398.31473    75.989968 
   76200    423.99168   -119.69315   0.38363658   -119.30952   -6307.5842    4.2370943    4.2370943    4.2370943   -6307.5842   -11772.344   -2449.2417   -4701.1674    1785.6638   -4878.6413    1741.2952    76.068418 
   76300    292.91733   -119.57481   0.26503776   -119.30977   -4682.4853    4.2402804    4.2402804    4.2402804   -4682.4853    -15767.56    7713.6903   -5993.5863    397.76497   -434.71099    3132.2159     76.24015 
   76400    289.13379   -119.57253   0.26161433   -119.31092   -3481.4368    4.2371247    4.2371247    4.2371247   -3481.4368   -12972.818    3093.9903   -565.48231    1003.6392   -4440.5519    3458.8698    76.070058 
   76500    258.20179   -119.54518    0.2336264   -119.31155    1992.0543    4.2354206    4.2354206    4.2354206    1992.0543    -3470.609    8623.7192    823.05281    8887.8972    3561.5531    -943.4396    75.978313 
   76600    294.64895   -119.57632   0.26660456   -119.30971   -205.69263     4.240068     4.240068     4.240068   -205.69263   -2474.0409    3092.0466   -1235.0836   -835.66419     1875.595   -817.12174     76.22869 
   76700    290.34963   -119.57161   0.26271444    -119.3089    6713.7802    4.2344041    4.2344041    4.2344041    6713.7802    4707.6018    6467.4616    8966.2772    9704.2858     2012.474   -868.25591    75.923621 
   76800    258.80364   -119.54483   0.23417097   -119.31066    7361.9343    4.2359343    4.2359343    4.2359343    7361.9343    7505.2465    7597.2654    6983.2911    715.44577    -418.6121   -1035.3576     76.00596 
   76900    247.31139   -119.53491   0.22377254   -119.31114    2431.1156    4.2400216    4.2400216    4.2400216    2431.1156    5486.7476    7021.8835   -5215.2843    2695.8251    5216.0793   -2510.3163    76.226192 
   77000    257.29748   -119.54339   0.23280817   -119.31058    2651.7662    4.2338843    4.2338843    4.2338843    2651.7662   -9662.5221    9571.3766    8046.4442    2296.0473   -1053.3684   -1916.9121    75.895662 
   77100    399.63123   -119.67131   0.36159473   -119.30972   -7707.2318    4.2397732    4.2397732    4.2397732   -7707.2318   -12607.266    118.78791   -10633.217   -3691.7491     1804.796   -1990.8235    76.212794 
   77200    334.99313   -119.61268   0.30310882   -119.30957   -6518.6177    4.2400764    4.2400764    4.2400764   -6518.6177   -14497.276    4106.5827   -9165.1594    1222.9975   -3505.4433    2370.8272    76.229147 
   77300    299.73392   -119.58118   0.27120555   -119.30997   -7687.7279    4.2354958    4.2354958    4.2354958   -7687.7279    -14011.08    4102.3636   -13154.468   -3928.2671   -217.90103    2269.3621    75.982359 
   77400    289.00066   -119.57156   0.26149387   -119.31006   -3556.8985    4.2394179    4.2394179    4.2394179   -3556.8985    -9205.223    4999.2628   -6464.7352    2073.6842    2393.6358    4366.0946    76.193632 
   77500     423.1346   -119.69109   0.38286108   -119.30823   -2487.9718    4.2381526    4.2381526    4.2381526   -2487.9718    299.04332     88.69823    -7851.657   -972.01155   -664.78597    2098.0136    76.125435 
   77600    281.07386   -119.56344   0.25432154   -119.30912    5407.8801    4.2355873    4.2355873    4.2355873    5407.8801   -3309.9665    6511.4888    13022.118    3187.4323    964.05938    2911.5914    75.987283 
   77700    214.38322   -119.50519   0.19397844   -119.31121    4464.5238    4.2382383    4.2382383    4.2382383    4464.5238    13280.579    759.73513   -646.74291    1957.6925    2530.1708    312.48436     76.13005 
   77800    259.50891   -119.54608   0.23480912   -119.31127    3123.6934    4.2382241    4.2382241    4.2382241    3123.6934   -5396.3787    7860.4342    6907.0247    4484.7143    2266.7096    48.798857    76.129286 
   77900    322.70842   -119.60144   0.29199336   -119.30945    2969.0651    4.2350301    4.2350301    4.2350301    2969.0651    2626.4831    1049.8018    5230.9104    711.00408   -206.91243   -903.41416      75.9573 
   78000    332.74366   -119.60976   0.30107346   -119.30869   -5941.5104     4.240792     4.240792     4.240792   -5941.5104   -13818.016   -3086.3465   -920.16873    3453.4964    1156.5233   -4980.4616    76.267745 
   78100    252.77394   -119.53902   0.22871517    -119.3103   -2351.9562    4.2371828    4.2371828    4.2371828   -2351.9562   -9041.9942     9253.169   -7267.0433   -341.99892   -2584.7054   -677.60944    76.073186 
   78200    314.32396   -119.59479   0.28440693   -119.31038   -4674.5487     4.236225     4.236225     4.236225   -4674.5487   -8988.6075   -309.91912   -4725.1194   -2958.1609    2951.6313   -3052.2927    76.021609 
   78300    316.77631   -119.59623   0.28662586    -119.3096   -1743.1881    4.2404455    4.2404455    4.2404455   -1743.1881   -4969.0378      11232.6   -11493.126    1521.6017   -1230.4766   -1865.9494    76.249055 
   78400    412.79914   -119.68207   0.37350934   -119.30856    -717.9587    4.2347556    4.2347556    4.2347556    -717.9587   -6531.8462    8531.0346   -4153.0644   -6716.6234   -201.72612   -2934.9608    75.942529 
   78500    244.21635   -119.53159   0.22097208   -119.31062    4902.3894    4.2382465    4.2382465    4.2382465    4902.3894    3761.0072    16404.656   -5458.4953    2124.9573    999.80729    477.99208    76.130492 
   78600    258.57618   -119.54508   0.23396516   -119.31111   -701.50478    4.2385525    4.2385525    4.2385525   -701.50478   -559.10078    7396.9731   -8942.3866   -3767.6905    1827.7398      1714.33     76.14698 
   78700    269.83143   -119.55479   0.24414915   -119.31064    1650.3553    4.2363109    4.2363109    4.2363109    1650.3553   -4990.8262    6304.0796    3637.8126    2450.6429   -1988.5442    4200.2643    76.026232 
   78800    342.65623   -119.62038   0.31004256   -119.31034    147.27626     4.236497     4.236497     4.236497    147.27626   -2376.8542    4605.0217   -1786.3388    3244.5042    3041.2851    62.631167    76.036254 
   78900    237.00988   -119.52491   0.21445152   -119.31045   -1462.9753    4.2389046    4.2389046    4.2389046   -1462.9753   -8871.8793    3584.4084    898.54509   -829.88156   -1425.5494    1871.1727    76.165962 
   79000    192.87107   -119.48587    0.1745138   -119.31136    3585.2665    4.2357905    4.2357905    4.2357905    3585.2665   -4034.7255    22572.042   -7781.5168    3396.2244    926.81533    4571.4725    75.998219 
   79100    370.79871   -119.64745   0.33550647   -119.31194   -2200.4449    4.2367389    4.2367389    4.2367389   -2200.4449   -9033.5971    5211.1346    -2778.872   -498.07112    499.16325    1168.2652    76.049279 
   79200    337.25412   -119.61603   0.30515462   -119.31087   -350.58774    4.2390623    4.2390623    4.2390623   -350.58774   -4279.0267    18423.686   -15196.422    1536.7389   -3031.7711     311.1982    76.174461 
   79300    345.07997   -119.62267   0.31223561   -119.31044   -2264.4674    4.2345493    4.2345493    4.2345493   -2264.4674   -1433.7187    78.398211   -5438.0818   -517.27617     689.0492   -2855.8234    75.931432 
   79400    214.73137   -119.50532   0.19429346   -119.31102    -2260.069     4.239871     4.239871     4.239871    -2260.069   -30.602686    11673.332   -18422.937   -1452.5458    852.92134   -3683.2809    76.218065 
   79500    340.79697   -119.61918   0.30836026   -119.31082   -3123.6939      4.23811      4.23811      4.23811   -3123.6939   -2161.0176     627.4329   -7837.4971    91.584751   -1724.1238    -1745.054    76.123134 
   79600    293.16598   -119.57495   0.26526274   -119.30969    483.83349    4.2367703    4.2367703    4.2367703    483.83349    3330.0285    4702.8793   -6581.4073    195.45602    1578.0992    44.417959     76.05097 
   79700    285.73565   -119.56853   0.25853962   -119.30999    2447.3353    4.2386171    4.2386171    4.2386171    2447.3353    2813.8043      2908.84    1619.3617   -2824.2221    1523.0033   -2617.1301    76.150464 
   79800    209.35548   -119.50015   0.18942924   -119.31072    4502.1998    4.2364311    4.2364311    4.2364311    4502.1998    3612.8009      14246.6   -4352.8014    4503.4905    1797.9154    2762.2223    76.032704 
   79900    256.46475    -119.5418   0.23205469   -119.30974    3590.2511    4.2376064    4.2376064    4.2376064    3590.2511    6595.1381    8486.0508   -4310.4357   -2627.9809    2880.9566    3295.0206    76.096001 
   80000    352.83035   -119.62781   0.31924832   -119.30856    2704.2455     4.236584     4.236584     4.236584    2704.2455   -1995.9923    12580.434   -2471.7056     3657.165   -1992.7462    2371.5372    76.040939 
   80100    362.28878   -119.63703    0.3278065   -119.30922   -2561.3861    4.2394574    4.2394574    4.2394574   -2561.3861      -6883.4    12551.592   -13352.351    261.47969    594.95217    251.34579    76.195763 
   80200     332.9142   -119.61095   0.30122777   -119.30972   -3864.6211    4.2373486    4.2373486    4.2373486   -3864.6211     2306.482   -2034.9323   -11865.413   -531.94902    104.92537   -1132.7182    76.082118 
   80300    243.61977   -119.52957   0.22043229   -119.30913   -5722.4605    4.2384688    4.2384688    4.2384688   -5722.4605   -5389.1623    5620.2104    -17398.43   -612.69366   -939.12004   -1046.0516    76.142474 
   80400    408.13861   -119.67781   0.36929239   -119.30852   -8982.7898    4.2402222    4.2402222    4.2402222   -8982.7898   -8319.9281   -7162.0167   -11466.425   -3181.7652    -1765.931    3159.1689     76.23701 
   80500    246.62106   -119.53325   0.22314792   -119.31011    3870.2321    4.2366422    4.2366422    4.2366422    3870.2321    9610.1491    8507.5256   -6506.9783   -4969.1284    3072.5104   -1320.4907    76.044071 
   80600    311.71282   -119.59246   0.28204431   -119.31041   -2109.2727    4.2370274    4.2370274    4.2370274   -2109.2727   -259.66578   -4426.6035   -1641.5488   -2475.9988    2655.8583   -1220.3085    76.064814 
   80700    108.82258   -119.40951  0.098464957   -119.31105    12154.998    4.2377303    4.2377303    4.2377303    12154.998    18865.066    22362.912   -4762.9827   -3393.4151    2937.6342     2484.516    76.102678 
   80800    431.57461   -119.70077   0.39049778   -119.31027   -1910.9272    4.2368145    4.2368145    4.2368145   -1910.9272    4233.9143   -3317.2378    -6649.458   -1953.3383   -1575.7282   -802.53376    76.053352 
   80900    272.35856   -119.55602   0.24643574   -119.30959    5691.4235    4.2375842    4.2375842    4.2375842    5691.4235    6166.5863    17958.639   -7050.9547   -1120.1309    715.94975     1273.083    76.094808 
   81000    377.37962   -119.65089   0.34146101   -119.30943   -9774.4032    4.2403086    4.2403086    4.2403086   -9774.4032   -4170.3317   -8992.7848   -16160.093   -345.74143    436.58374   -4272.8789    76.241669 
   81100    261.31482     -119.545   0.23644314   -119.30856   -2342.2672    4.2369864    4.2369864    4.2369864   -2342.2672   -4315.2539    7896.2261   -10607.774    3265.4819   -1402.9646    -2054.617    76.062608 
   81200    381.46939    -119.6539   0.34516152   -119.30874   -6897.4386    4.2389719    4.2389719    4.2389719   -6897.4386   -13824.371   -107.05611    -6760.889   -1424.3615   -890.14337   -89.952764     76.16959 
   81300    299.97415   -119.58032   0.27142291    -119.3089   -4365.2044    4.2398452    4.2398452    4.2398452   -4365.2044   -9261.9334    2080.2923   -5913.9723    2990.8502   -2192.9633   -1276.2046    76.216677 
   81400    281.56577   -119.56444   0.25476663   -119.30968    4074.3173    4.2341289    4.2341289    4.2341289    4074.3173   -1683.2892    7508.5711    6397.6698   -1883.0576    5726.7703    550.46912    75.908819 
   81500    234.98029   -119.52331   0.21261511   -119.31069    3567.0296    4.2384561    4.2384561    4.2384561    3567.0296   -1756.2339     12062.89    394.43267   -1585.7132    4172.8578   -206.45772    76.141787 
   81600     295.1054   -119.57711   0.26701757   -119.31009    3644.4658    4.2376565    4.2376565    4.2376565    3644.4658    8023.7409    6147.3453   -3237.6888   -1878.7329   -681.72726    4901.5464    76.098703 
   81700    285.51388   -119.56678   0.25833896   -119.30844     4067.082    4.2350584    4.2350584    4.2350584     4067.082    4694.2551     5082.077    2424.9138   -6213.5732    279.62082    3445.3948     75.95882 
   81800       402.96   -119.67345   0.36460667   -119.30884   -5850.6724    4.2397617    4.2397617    4.2397617   -5850.6724   -5797.0159   -2122.0099   -9632.9915   -737.27047    2590.0339    3248.6916    76.212172 
   81900     221.1271   -119.51031   0.20008045   -119.31023    465.96091    4.2393085    4.2393085    4.2393085    465.96091    3055.7854    6219.6443   -7877.5469   -3447.8432   -374.58871    412.92262    76.187736 
   82000    381.56675   -119.65472   0.34524961   -119.30947   -7285.6363    4.2348608    4.2348608    4.2348608   -7285.6363   -9000.6951   -5505.8003   -7350.4134    980.03201    -139.7859   -904.98859    75.948187 
   82100    256.94792   -119.54169   0.23249188    -119.3092    1336.3621    4.2399771    4.2399771    4.2399771    1336.3621   -16904.046    23344.894   -2431.7626   -134.57459   -3524.4084   -1700.9989    76.223789 
   82200    432.15682   -119.70128   0.39102457   -119.31026    -6423.203    4.2379892    4.2379892    4.2379892    -6423.203   -12721.683   -1851.5518    -4696.374    1829.9211   -858.36758   -2546.2368    76.116626 
   82300    129.76742   -119.42995   0.11741629   -119.31254    7845.9403    4.2338987    4.2338987    4.2338987    7845.9403    -6467.108    19694.013    10310.916   -135.02411    7053.3754   -2902.1245    75.896436 
   82400    322.02749   -119.60287   0.29137724   -119.31149   -4460.4639    4.2392191    4.2392191    4.2392191   -4460.4639   -14061.849   -2439.5476     3120.005     2666.047   -1539.7482   -2198.9139    76.182918 
   82500    234.48576   -119.52265   0.21216765   -119.31049     7152.936    4.2370092    4.2370092    4.2370092     7152.936    2886.1825    12280.993    6291.6324   -1213.2493    658.13189   -4989.1789    76.063837 
   82600    362.26461   -119.63799   0.32778463    -119.3102   -2719.3799    4.2365518    4.2365518    4.2365518   -2719.3799   -8199.3029   -4416.7444    4457.9077    3680.8767    3496.1835   -1986.4745    76.039206 
   82700    205.54975   -119.49656   0.18598573   -119.31058    1659.3857    4.2399669    4.2399669    4.2399669    1659.3857    3553.3052    1957.8123   -532.96036   -5259.1041    2480.7833   -2073.8689    76.223241 
   82800    344.59912   -119.62028   0.31180053   -119.30848   -3190.4191    4.2377024    4.2377024    4.2377024   -3190.4191    199.37937    1018.1314   -10788.768     306.5781    1558.5638   -1976.2732    76.101177 
   82900    328.53258   -119.60573   0.29726318   -119.30847    -988.2076    4.2365571    4.2365571    4.2365571    -988.2076    -1156.367    5572.0206   -7380.2764   -2359.4981   -1718.1506    3998.4463    76.039488 
   83000    362.09857   -119.63648   0.32763439   -119.30884   -3368.5279    4.2396004    4.2396004    4.2396004   -3368.5279   -10053.627    9901.4141   -9953.3706   -3478.0815    -3883.078    192.23679    76.203476 
   83100    321.73315   -119.60109   0.29111091   -119.30998   -1910.3841    4.2361452    4.2361452    4.2361452   -1910.3841   -2524.6129    4684.3704   -7890.9097   -257.36047    3303.1532    1950.6484    76.017314 
   83200    245.99346   -119.53259   0.22258005   -119.31001    1933.8342    4.2362325    4.2362325    4.2362325    1933.8342   -8721.9059    9645.8103     4877.598   -6335.1967    2925.1737    2178.8008    76.022014 
   83300    312.59893   -119.59308   0.28284608   -119.31024   -1942.1358    4.2390368    4.2390368    4.2390368   -1942.1358   -6041.0118   -2659.1819    2873.7863    471.59688    -1777.485   -459.12981    76.173087 
   83400    247.32594    -119.5332    0.2237857   -119.30941    2506.4648    4.2366125    4.2366125    4.2366125    2506.4648   -1492.0309   -3417.3298    12428.755   -2483.8952    3432.6232   -623.71207    76.042472 
   83500    329.08252   -119.60746   0.29776078    -119.3097    97.072368    4.2374422    4.2374422    4.2374422    97.072368   -6323.1425   -4382.0049    10996.364     204.6684    2474.4975    1590.5063    76.087158 
   83600    173.48639   -119.46864   0.15697413   -119.31166    3082.6655    4.2387834    4.2387834    4.2387834    3082.6655    3148.0291    3603.1137    2496.8538   -3202.1312    3760.1751   -2414.3294     76.15943 
   83700     319.5894   -119.59937    0.2891712    -119.3102    805.07177    4.2352155    4.2352155    4.2352155    805.07177    11706.417   -7670.1696   -1621.0317   -1440.4718    176.34854    3399.6508    75.967275 
   83800    330.25875   -119.60828   0.29882506   -119.30945    854.32587    4.2377889    4.2377889    4.2377889    854.32587   -5528.0335    10890.689    -2799.678   -484.50318   -2784.3455    -1101.388    76.105838 
   83900    400.51972   -119.67164   0.36239866   -119.30924   -5471.7056    4.2388506    4.2388506    4.2388506   -5471.7056   -464.68823   -5236.0679   -10714.361   -35.256208    976.79611   -965.70417     76.16305 
   84000    269.22585   -119.55378   0.24360121   -119.31018   -1381.7516    4.2365422    4.2365422    4.2365422   -1381.7516   -252.90684     5798.783   -9691.1309   -432.17266    3024.3346    1833.3465    76.038687 
   84100    325.70013   -119.60387   0.29470032   -119.30917   -7232.9083    4.2385431    4.2385431    4.2385431   -7232.9083   -8054.5776   -9342.7161   -4301.4311   -410.81572   -1286.4839   -223.17047    76.146475 
   84200    343.33229   -119.61894   0.31065427   -119.30829   -1771.8362     4.239586     4.239586     4.239586   -1771.8362    -3321.449    6784.1975    -8778.257    1315.8714    2003.6311   -1204.2221    76.202697 
   84300     325.1742   -119.60313   0.29422445    -119.3089   -1013.0869    4.2368036    4.2368036    4.2368036   -1013.0869   -676.13547   -5522.1233     3158.998     366.5906   -174.91499    993.62871    76.052765 
   84400    233.86651   -119.52163   0.21160733   -119.31002    2567.8665    4.2376795    4.2376795    4.2376795    2567.8665   -2097.6493     9879.671   -78.422077     4206.322    4380.9952    462.97804    76.099942 
   84500    224.01026   -119.51356   0.20268919   -119.31087     5758.507    4.2380367    4.2380367    4.2380367     5758.507    8236.9703    4368.4332    4670.1175   -1727.5079    3569.8588    4912.0139    76.119185 
   84600    280.83462   -119.56462   0.25410507   -119.31052    2781.5871    4.2360198    4.2360198    4.2360198    2781.5871    3482.3548   -291.84741    5154.2538    5217.8884   -2064.0966    4471.2094    76.010565 
   84700    281.65113   -119.56455   0.25484386    -119.3097    4364.0629    4.2373339    4.2373339    4.2373339    4364.0629    1767.3078    8124.0662    3200.8146    2955.0135    482.64323    2396.8935    76.081325 
   84800    320.43433     -119.599   0.28993572   -119.30906   -2883.6575    4.2385269    4.2385269    4.2385269   -2883.6575   -6622.4795    2104.7592   -4133.2521    836.00477    2986.8668    2210.7358    76.145605 
   84900    285.82705   -119.56777   0.25862232   -119.30915   -2566.3305    4.2375493    4.2375493    4.2375493   -2566.3305   -2874.5628    3650.0103    -8474.439    3381.6855   -1773.4606    4181.8514    76.092927 
   85000     335.0615   -119.61171   0.30317069   -119.30854    -6612.769    4.2385099    4.2385099    4.2385099    -6612.769   -4437.9574   -4842.1889   -10558.161   -1868.5113    674.82712   -57.877573    76.144686 
   85100    319.75605   -119.59746   0.28932199   -119.30814   -5159.4361    4.2386796    4.2386796    4.2386796   -5159.4361    -4905.291    196.24266    -10769.26    4251.6874   -2264.9965   -2275.2019    76.153836 
   85200     388.3869   -119.65993   0.35142063   -119.30851   -2363.5003    4.2373303    4.2373303    4.2373303   -2363.5003    3693.7412   -8613.3733   -2170.8687    177.76415   -1176.7023   -3056.3607    76.081131 
   85300     252.5796   -119.53862   0.22853933   -119.31008     3061.016    4.2366252    4.2366252    4.2366252     3061.016    2700.4714    10429.463   -3946.8861    407.56919     4595.987   -1068.7069    76.043158 
   85400    291.93591   -119.57423   0.26414975   -119.31008    1462.1515    4.2384086    4.2384086    4.2384086    1462.1515    5040.0866   -12498.019    11844.387    746.20463    168.70142    -14.94723     76.13923 
   85500    263.63825   -119.54941   0.23854543   -119.31087    7498.0033    4.2354123    4.2354123    4.2354123    7498.0033    8602.5881    4604.3258    9287.0959    1733.5028    1328.4677    900.62654    75.977865 
   85600    300.56664   -119.58217   0.27195901   -119.31021    618.36057    4.2379524    4.2379524    4.2379524    618.36057   -2608.8361   -5338.7501    9802.6679    1947.3164    5109.7419    1361.9523    76.114646 
   85700    230.52025   -119.51773   0.20857957   -119.30915    2308.3076    4.2381988    4.2381988    4.2381988    2308.3076     195.7644   -1545.6062    8274.7646    2148.1748    2172.9976    421.76668    76.127922 
   85800    263.46593   -119.54727   0.23838951   -119.30888   -2697.8855    4.2366978    4.2366978    4.2366978   -2697.8855    1520.8667   -10832.336     1217.813   -2090.4012    4394.5261    10546.623    76.047065 
   85900    343.97979   -119.62011   0.31124014   -119.30887    -5332.865    4.2392619    4.2392619    4.2392619    -5332.865   -6917.3962   -6542.5708   -2538.6281    723.21357    1007.3638   -812.37179    76.185223 
   86000    266.28456   -119.55043   0.24093987   -119.30949   -1804.7811    4.2382826    4.2382826    4.2382826   -1804.7811    -1552.254   -2942.4067   -919.68265    1562.2285   -2341.6977    1236.9564    76.132438 
   86100    376.17456    -119.6496   0.34037065   -119.30923   -4845.4673    4.2367748    4.2367748    4.2367748   -4845.4673   -92.135267   -12210.877   -2233.3896   -3001.6252    3754.4991   -1679.7002    76.051214 
   86200    314.88896   -119.59423   0.28491815   -119.30931    3732.0346    4.2387707    4.2387707    4.2387707    3732.0346     3820.199    11556.726   -4180.8216   -975.42035   -130.62882    3801.1852    76.158743 
   86300    384.13926   -119.65587   0.34757727   -119.30829   -4753.6813    4.2393375    4.2393375    4.2393375   -4753.6813   -4321.5677   -8522.8039   -1416.6721   -3309.4621   -2788.8929    206.56038    76.189301 
   86400     289.2385   -119.57042   0.26170907   -119.30871     3187.192     4.234631     4.234631     4.234631     3187.192    15650.347   -1014.3899   -5074.3815   -3433.8048    1675.1123    2450.8956    75.935825 
   86500    339.44806   -119.61632   0.30713974   -119.30918   -3546.5764    4.2400826    4.2400826    4.2400826   -3546.5764   -7189.2499    3625.0305   -7075.5097    294.44396   -230.30297   -321.83817    76.229478 
   86600    339.87481   -119.61646   0.30752587   -119.30894   -3061.2133    4.2368574    4.2368574    4.2368574   -3061.2133    1507.8709   -8419.2132   -2272.2974   -5733.6698    3374.2218    1073.2216    76.055661 
   86700    259.90316   -119.54515   0.23516584   -119.30998   -643.39933    4.2347841    4.2347841    4.2347841   -643.39933    6712.2591   -4738.7283   -3903.7287   -643.07353    3803.7832    9903.7398    75.944064 
   86800    287.36785   -119.57036   0.26001647   -119.31035   -3697.8499    4.2394707    4.2394707    4.2394707   -3697.8499   -6111.3779   -14778.755    9796.5835    64.481074   -1886.0823   -1934.4471    76.196482 
   86900    265.93166    -119.5507   0.24062055   -119.31008    2408.0845    4.2374199    4.2374199    4.2374199    2408.0845   -981.59797   -4956.4682     13162.32   -1132.1658    4466.9501    2377.8083    76.085955 
   87000     214.1681   -119.50501    0.1937838   -119.31123      5601.07    4.2360085    4.2360085    4.2360085      5601.07    13541.135   -9362.3583    12624.433    412.42116    4949.2602   -1638.3691    76.009953 
   87100    284.02163   -119.56802   0.25698874   -119.31103    1702.7302     4.238025     4.238025     4.238025    1702.7302   -8817.3698    2311.1528    11614.408   -240.91914    2767.0539    4348.3751    76.118556 
   87200    249.32376   -119.53587   0.22559338   -119.31028    6225.7801    4.2379669    4.2379669    4.2379669    6225.7801    10844.547   -1455.5419     9288.335   -1882.2177    1946.7563   -115.51012    76.115427 
   87300    376.32802   -119.64986    0.3405095   -119.30935   -2671.2142    4.2352697    4.2352697    4.2352697   -2671.2142   -4353.6574   -5786.8046    2126.8194    3668.0049   -238.72369   -222.74807    75.970188 
   87400    187.79604   -119.48013   0.16992181   -119.31021    3037.0979    4.2385342    4.2385342    4.2385342    3037.0979     703.4554    12254.409   -3846.5711    1268.5232    1960.3059   -2054.7322    76.145998 
   87500    419.96809   -119.68906   0.37999596   -119.30906   -8719.2067    4.2392786    4.2392786    4.2392786   -8719.2067   -10807.648   -9577.4896   -5772.4824   -536.50177    1452.9185    1513.7315    76.186121 
   87600    281.95226   -119.56419   0.25511633   -119.30907    1809.6329    4.2348655    4.2348655    4.2348655    1809.6329    14627.187    340.64575   -9538.9337    4723.6469   -3769.1663    2666.9916    75.948441 
   87700    411.58629   -119.68095   0.37241193   -119.30853   -7219.1339    4.2401575    4.2401575    4.2401575   -7219.1339   -11336.181   -4571.8827    -5749.338   -2063.1842   -1868.8472   -1971.3344    76.233519 
   87800     224.4984   -119.51245   0.20313087   -119.30932    1836.3359    4.2388726    4.2388726    4.2388726    1836.3359    20181.174   -7064.8231   -7607.3434    4886.3305    989.57955   -1228.1351    76.164238 
   87900    380.82867   -119.65334   0.34458179   -119.30875    -2747.859    4.2347619    4.2347619    4.2347619    -2747.859    2138.4455   -6655.2763   -3726.7463   -1080.3095    1611.5005   -2110.7931    75.942869 
   88000    223.88366    -119.5123   0.20257464   -119.30972    3660.3616    4.2393706    4.2393706    4.2393706    3660.3616     3474.561    8740.3534   -1233.8296   -11.577977    5423.5731    4564.0056    76.191083 
   88100    335.73666   -119.61409   0.30378158    -119.3103   -6457.7077    4.2391716    4.2391716    4.2391716   -6457.7077   -3159.5848   -14927.782   -1285.7559    1352.7573   -1347.1716   -2836.9848    76.180354 
   88200    202.32789   -119.49378   0.18307053   -119.31071    7801.4653    4.2322806    4.2322806    4.2322806    7801.4653    6022.9815    5133.3613    12248.053    485.33348    2807.5174   -829.88267    75.809453 
   88300    331.06029   -119.60933   0.29955031   -119.30978   -5524.7709    4.2412292    4.2412292    4.2412292   -5524.7709   -13615.412   -295.75429   -2663.1467   -2592.9852    4498.8222   -133.08016     76.29134 
   88400    221.60198    -119.5105   0.20051013   -119.30999    5480.4478    4.2369431    4.2369431    4.2369431    5480.4478    14997.142   -4957.4263    6401.6278   -2460.8846   -448.04881    2909.9865    76.060276 
   88500    346.67465   -119.62265   0.31367851   -119.30897   -1606.2613    4.2352715    4.2352715    4.2352715   -1606.2613    893.64396    -7768.845    2056.4171   -3718.4884    9.6295029    3440.7098    75.970285 
   88600    333.94117   -119.61113   0.30215699   -119.30897   -1711.7881    4.2410664    4.2410664    4.2410664   -1711.7881    3216.9186   -3827.3483   -4524.9347     1351.209   -845.98506   -1221.4239    76.282551 
   88700    314.57549   -119.59281   0.28463451   -119.30818   -1466.1712    4.2380712    4.2380712    4.2380712   -1466.1712    7701.3367   -1686.1783   -10413.672   -238.25573   -1364.1708   -1481.0875    76.121048 
   88800    336.40993   -119.61234   0.30439077   -119.30795   -3161.2272    4.2355795    4.2355795    4.2355795   -3161.2272   -331.11726   -3777.5204   -5375.0439   -3621.9722    1910.0378    1663.6635    75.986865 
   88900    302.33156    -119.5818   0.27355595   -119.30825   -367.80958    4.2404035    4.2404035    4.2404035   -367.80958   -4232.5404    11123.289   -7994.1771     2314.966    487.75559    1996.8722    76.246789 
   89000    364.30409   -119.63828      0.32963   -119.30865   -4566.6587    4.2381788    4.2381788    4.2381788   -4566.6587   -2764.5034   -8055.0152   -2880.4575   -541.72124   -2623.4321   -2574.0774    76.126841 
   89100    198.87495   -119.49011   0.17994623   -119.31016    5448.9574    4.2324552    4.2324552    4.2324552    5448.9574    1617.4492    9576.1432      5153.28    3353.9679    6567.6559    43.484694    75.818836 
   89200    335.59035   -119.61403    0.3036492   -119.31038   -5057.5742    4.2418766    4.2418766    4.2418766   -5057.5742   -10327.965   -3349.6225   -1495.1347   -143.45917    1413.6165   -2395.9198    76.326279 
   89300    213.76102    -119.5038   0.19341546   -119.31038     3705.001     4.236023     4.236023     4.236023     3705.001    13998.483   -8060.1891    5176.7095   -2701.5062    2392.3154    3306.5801    76.010734 
   89400    323.20979   -119.60282   0.29244701   -119.31038     -1181.81    4.2344286    4.2344286    4.2344286     -1181.81   -2164.6571    -8736.927    7356.1543   -2425.2661    1707.2735     45.83256    75.924938 
   89500    248.34076   -119.53632   0.22470394   -119.31162    1535.1276    4.2414991    4.2414991    4.2414991    1535.1276    12105.182   -6521.0269   -978.77241   -484.76602   -198.92854   -3835.9225    76.305901 
   89600    375.15223   -119.64855   0.33944562    -119.3091   -1847.9411    4.2358817    4.2358817    4.2358817   -1847.9411    1939.2336   -5063.9596   -2419.0973   -3128.5076    4087.3338   -906.61688    76.003127 
   89700    293.05073   -119.57507   0.26515846   -119.30991     3653.317    4.2347994    4.2347994    4.2347994     3653.317    7696.7965    4848.9273   -1585.7728   -1184.0447    1419.1332    337.99261    75.944884 
   89800    310.07928   -119.59021   0.28056625   -119.30964    -4961.397    4.2421196    4.2421196    4.2421196    -4961.397   -11338.883    9242.4629   -12787.771   -914.73069   -1199.9677    997.09915    76.339398 
   89900      336.098   -119.61311   0.30410854     -119.309    42.620198    4.2356244    4.2356244    4.2356244    42.620198    5255.1389   -3088.3964   -2038.8819    35.344337      618.892    1732.6415    75.989279 
   90000     338.1925   -119.61485   0.30600368   -119.30885   -738.47208    4.2345391    4.2345391    4.2345391   -738.47208   -10228.447    14361.644   -6348.6136    3385.0326    1539.2302   -807.98836     75.93088 
   90100    280.18951   -119.56307   0.25352136   -119.30955    -3630.749    4.2429793    4.2429793    4.2429793    -3630.749    1681.8958   -8609.2385   -3964.9043   -2949.7613    632.23434    2911.2297    76.385818 
   90200    260.36137   -119.54546   0.23558044   -119.30988     1690.445    4.2336587    4.2336587    4.2336587     1690.445   -2296.3358   -7563.1223    14930.793    2899.2375    2111.7379    3185.8581    75.883529 
   90300    249.94518   -119.53685   0.22615566   -119.31069    1659.4233    4.2355029    4.2355029    4.2355029    1659.4233    2592.0839   -10156.266    12542.452   -912.52865   -3444.3969    338.71011    75.982742 
   90400    280.77873   -119.56412    0.2540545   -119.31007   -202.95716    4.2425372    4.2425372    4.2425372   -202.95716   -562.82161   -3595.5773    3549.5274    2256.7312    3852.4231   -279.92249    76.361946 
   90500    266.89483   -119.55124   0.24149205   -119.30975    4104.1604    4.2336636    4.2336636    4.2336636    4104.1604    1594.6787   -5812.5838    16530.386   -2599.8207    272.26226   -1712.3624    75.883796 
   90600    291.82721    -119.5735   0.26405139   -119.30945    606.18703    4.2369523    4.2369523    4.2369523    606.18703   -8029.3389    5728.5414    4119.3587    168.19057    1155.9054   -70.654429    76.060769 
   90700     287.7677    -119.5693   0.26037826   -119.30892   -1121.9866    4.2425812    4.2425812    4.2425812   -1121.9866   -713.61123    2547.3179   -5199.6665   -1651.3132   -455.01237    1186.6314     76.36432 
   90800     353.7583   -119.62832   0.32008795   -119.30823   -3797.4225     4.233936     4.233936     4.233936   -3797.4225   -3148.9153    -3533.228   -4710.1241    2282.9965    2387.2571   -959.87438    75.898445 
   90900       360.22   -119.63449   0.32593463   -119.30856   -2346.8613     4.237321     4.237321     4.237321   -2346.8613   -1829.3835    5678.2127   -10889.413   -1330.1143    2121.6368   -172.31559     76.08063 
   91000    359.19742   -119.63357   0.32500937   -119.30856   -9698.3071    4.2425539    4.2425539    4.2425539   -9698.3071    -7482.229   -9065.3777   -12547.315   -2746.9454    1418.9952   -1641.5466    76.362848 
   91100    259.71521   -119.54398   0.23499578   -119.30898    803.04105    4.2329632    4.2329632    4.2329632    803.04105    6305.2933   -2974.7925   -921.37765    2855.4236   -184.32327    5267.3919     75.84614 
   91200    357.97025   -119.63361     0.323899   -119.30972   -2591.0873    4.2380338    4.2380338    4.2380338   -2591.0873   -1043.3174   -4155.9568   -2573.9877   -2941.2442    379.49772    1851.7739     76.11903 
   91300    244.06875   -119.53068   0.22083854   -119.30984    1396.7671    4.2421208    4.2421208    4.2421208    1396.7671    1658.5312    1144.7989    1386.9712    2657.6168    3638.2441     2450.552    76.339463 
   91400    342.01846    -119.6189   0.30946549   -119.30944     2879.509    4.2321663    4.2321663    4.2321663     2879.509    -5915.649    2227.4186    12326.757    -2398.856    289.14589    553.18892    75.803309 
   91500    170.66798   -119.46574   0.15442398   -119.31132    5863.9389     4.238466     4.238466     4.238466    5863.9389   -2939.5457    11638.943    8892.4196   -444.46195    4734.6065    4390.5948    76.142322 
   91600     323.2392   -119.60268   0.29247362   -119.31021   -3835.9324    4.2419843    4.2419843    4.2419843   -3835.9324   -12425.911   -10042.812    10960.926    3595.9578    451.15739    2542.1369    76.332095 
   91700    259.57296   -119.54412   0.23486707   -119.30925    5616.9027    4.2312713    4.2312713    4.2312713    5616.9027     1675.697    5154.8378    10020.173    1304.9952    5498.5275    1987.8544    75.755231 
   91800    363.83758   -119.63858   0.32920789   -119.30937   -7961.6052    4.2414031    4.2414031    4.2414031   -7961.6052   -10193.995   -11674.406   -2016.4146   -1648.2616    815.24889    228.69199    76.300722 
   91900    254.37697   -119.53912   0.23016562   -119.30896    686.91072    4.2401099    4.2401099    4.2401099    686.91072    7343.9048    -8326.193    3043.0204    1318.1488     -1260.12    450.94126    76.230953 
   92000    301.20063   -119.58114   0.27253266   -119.30861   -274.02492     4.232462     4.232462     4.232462   -274.02492    5535.9456   -2603.6055   -3754.4149   -1035.4335   -2730.1785    8046.2887    75.819202 
   92100     346.5379   -119.62227   0.31355477   -119.30872   -951.80122    4.2402806    4.2402806    4.2402806   -951.80122    9805.2633   -6350.9345   -6309.7324     307.4863   -1332.1676   -2093.5799    76.240159 
   92200    322.45386   -119.60035   0.29176303   -119.30859   -398.77547    4.2389855    4.2389855    4.2389855   -398.77547    659.13577     -1109.82   -745.64216   -2614.2402   -2423.6961     3312.888    76.170323 
   92300    256.17243   -119.54192   0.23179019   -119.31013      1635.09    4.2323222    4.2323222    4.2323222      1635.09    1838.4856     1068.716    1998.0685   -7655.6869    1825.5628   -770.79543    75.811687 
   92400      280.219   -119.56414   0.25354804   -119.31059   -1635.5092    4.2407896    4.2407896    4.2407896   -1635.5092   -5819.1724    1211.2036   -298.55881   -1041.8329    950.85791    3559.8092    76.267617 
   92500    321.61115   -119.60025   0.29100053   -119.30925   -3611.1678    4.2390314    4.2390314    4.2390314   -3611.1678   -6281.8211   -5387.5623    835.88021    1117.8534    2054.9793     830.6463    76.172797 
   92600    344.09459   -119.61955   0.31134401   -119.30821   -938.83058    4.2335335    4.2335335    4.2335335   -938.83058   -5921.3709    2370.2382    734.64095   -5130.7714    7244.3173   -273.17029    75.876798 
   92700    256.26596   -119.54195   0.23187483   -119.31007   -383.90412    4.2411597    4.2411597    4.2411597   -383.90412    621.55363   -2622.1909    848.92489   -686.94331    2628.8745    1761.5226    76.287586 
   92800    304.61944    -119.5851   0.27562607   -119.30947   -1210.1193    4.2376754    4.2376754    4.2376754   -1210.1193   -3073.7453   -3003.3793    2446.7667   -3267.1124    4774.5283    3145.5896     76.09972 
   92900    316.52631   -119.59567   0.28639965   -119.30927    5325.7215    4.2325495    4.2325495    4.2325495    5325.7215    8382.4917    4933.3056    2661.3673     2025.567    130.58071    6172.3621    75.823905 
   93000    340.37397   -119.61711   0.30797752   -119.30913   -3504.6033    4.2413191    4.2413191    4.2413191   -3504.6033   -1558.4929   -8819.2907   -136.02615    457.03702    1860.7733   -1295.5806    76.296188 
   93100    296.52722   -119.57781   0.26830406   -119.30951     960.4471    4.2369739    4.2369739    4.2369739     960.4471   -3727.2399    1678.3316    4930.2496   -4425.8407   -298.66338    3734.2467    76.061934 
   93200    299.20606   -119.58035   0.27072793   -119.30962   -1478.3233    4.2348375    4.2348375    4.2348375   -1478.3233   -249.24678   -2919.5153   -1266.2079   -1299.7657    489.39908    663.45936    75.946934 
   93300    283.94452   -119.56635   0.25691897   -119.30943   -6186.6837     4.242861     4.242861     4.242861   -6186.6837   -14084.556   -2838.0699    -1637.425    1049.9907   -5603.0708    2351.2328     76.37943 
   93400    354.70147   -119.62947   0.32094135   -119.30853   -1515.6483    4.2353368    4.2353368    4.2353368   -1515.6483    169.46913   -839.38035   -3877.0338   -107.00576    859.22324   -1284.0142    75.973802 
   93500    286.29902   -119.56828   0.25904937   -119.30924    -367.5508    4.2355294    4.2355294    4.2355294    -367.5508   -4962.5948     9696.505   -5836.5626   -1298.5292    1532.3689    -704.3081    75.984164 
   93600    232.77525   -119.52122   0.21061994    -119.3106     3426.034    4.2407539    4.2407539    4.2407539     3426.034    12567.495   -257.93762   -2031.4551   -5831.3751   -766.84199    1186.3226    76.265691 
   93700    284.06504   -119.56849   0.25702802   -119.31146    1958.6003     4.234622     4.234622     4.234622    1958.6003   -3842.1712    11556.867   -1838.8947   -1076.6313   -1029.9939    669.60688     75.93534 
   93800    283.26278   -119.56691   0.25630212   -119.31061    6367.2689    4.2333712    4.2333712    4.2333712    6367.2689    14993.389    6015.9426   -1907.5248     1352.806   -1193.7145    5568.1039    75.868075 
   93900    345.29452   -119.62133   0.31242974    -119.3089    -6742.642    4.2433585    4.2433585    4.2433585    -6742.642   -17988.517    2971.1319   -5210.5413   -3316.0981    2564.7325   -2966.2781    76.406302 
   94000    205.38335   -119.49578   0.18583517   -119.30995    353.42835    4.2351783    4.2351783    4.2351783    353.42835   -9457.5874    4557.7242    5960.1482   -2312.9561   -1184.5272    5716.3081    75.965271 
   94100    382.60995    -119.6554   0.34619352   -119.30921   -6379.9577    4.2369023    4.2369023    4.2369023   -6379.9577   -9388.8213   -1686.2872   -8064.7645   -2357.5983    3369.3685     2237.849    76.058077 
   94200    258.54299   -119.54293   0.23393513   -119.30899   -3764.3451    4.2431696    4.2431696    4.2431696   -3764.3451   -10865.342   -576.93201    149.23834     3510.836   -3606.5069    986.80804    76.396098 
   94300    401.17904   -119.67032   0.36299523   -119.30733    -2577.449    4.2343628    4.2343628    4.2343628    -2577.449     95.59136   -6353.3131   -1474.6252    1941.3303    2789.6812   -1461.9286    75.921396 
   94400     249.6442   -119.53498   0.22588332    -119.3091    3763.6062    4.2377227    4.2377227    4.2377227    3763.6062    12910.724    506.50036    -2126.406   -303.47926   -2157.6623    539.58409    76.102268 
   94500    317.00049    -119.5962    0.2868287   -119.30937    -277.4501    4.2403823    4.2403823    4.2403823    -277.4501    7025.1635   -2274.9546   -5582.5592   -1528.9703    396.95502    2172.3087    76.245646 
   94600     248.9723   -119.53471   0.22527537   -119.30944    5605.9323    4.2352135    4.2352135    4.2352135    5605.9323    14707.491    3104.2508   -993.94455    3954.5679   -2594.6767    1666.5548    75.967168 
   94700    333.48057   -119.61138   0.30174023   -119.30964    1316.4356    4.2350661    4.2350661    4.2350661    1316.4356    8757.4561   -704.20635   -4103.9429   -1468.4849   -276.32904    1624.2434    75.959236 
   94800    295.76239   -119.57729   0.26761203   -119.30968   -2712.5396    4.2422369    4.2422369    4.2422369   -2712.5396   -4435.5603   -1353.9927   -2348.0658    1581.8278    1452.9923    428.98061     76.34573 
   94900    210.45287   -119.49946   0.19042218   -119.30904     124.4719    4.2342199    4.2342199    4.2342199     124.4719   -775.36492   -2900.0488    4048.8294   -6118.0147   -1586.5781    7522.6323    75.913714 
   95000    310.78285    -119.5909   0.28120285    -119.3097   -3707.9767    4.2375017    4.2375017    4.2375017   -3707.9767   -3531.6468    -3822.003   -3770.2802   -2468.5506    1495.0915    1955.5643    76.090361 
   95100     310.8025   -119.59015   0.28122064   -119.30893   -1130.9568    4.2424286    4.2424286    4.2424286   -1130.9568   -9386.9292    3522.9655    2471.0932    2615.4592    426.28986     2460.342    76.356079 
   95200    374.16016   -119.64637   0.33854797   -119.30782   -3486.8343    4.2344867    4.2344867    4.2344867   -3486.8343   -5681.7339   -6486.2512    1707.4821   -3372.2894     2212.544   -140.51356     75.92806 
   95300    248.31195   -119.53356   0.22467787   -119.30888     2303.806    4.2375611    4.2375611    4.2375611     2303.806     919.9198     236.5296    5754.9686   -3347.7733    32.152673    168.98079    76.093564 
   95400    330.16294   -119.60813   0.29873837   -119.30939   -1750.9536    4.2406559    4.2406559    4.2406559   -1750.9536   -8257.9888    3069.9594   -64.831422   -848.57854    691.70203    1131.8224    76.260407 
   95500     319.2039   -119.59803    0.2888224    -119.3092    1427.5357    4.2339136    4.2339136    4.2339136    1427.5357    4187.3797   -1802.1812    1897.4086   -1255.2837   -3406.0389   -3261.7527     75.89724 
   95600    313.53367   -119.59381   0.28369185   -119.31012    1144.5327     4.235396     4.235396     4.235396    1144.5327   -3561.5747    803.26881     6191.904    2229.3312   -549.88659   -3649.5805    75.976988 
   95700    319.35273   -119.59968   0.28895706   -119.31072   -6754.9843    4.2414277    4.2414277    4.2414277   -6754.9843   -6810.4523   -13250.623   -203.87777   -2499.6357   -2404.8254   -3147.0319    76.302048 
   95800     202.6106   -119.49472   0.18332632   -119.31139    4974.8395    4.2339324    4.2339324    4.2339324    4974.8395    4602.6415   -1786.3338    12108.211   -4786.8323   -3504.5521   -104.11508    75.898248 
   95900    309.28205   -119.59099    0.2798449   -119.31114   -2302.5114    4.2373984    4.2373984    4.2373984   -2302.5114    7058.8154   -10822.846   -3143.5037    1411.7993   -2863.4157   -677.04527      76.0848 
   96000    243.61184   -119.53014   0.22042511   -119.30972    3565.3707     4.241385     4.241385     4.241385    3565.3707   -6953.7313    4253.3562    13396.487   -2113.4623   -792.79719   -1295.7177    76.299748 
   96100    364.69394   -119.63891   0.32998274   -119.30893     2347.143    4.2341425    4.2341425    4.2341425     2347.143    10876.375    -541.0863     -3293.86   -1836.9004   -182.09532    1246.5183    75.909551 
   96200    221.43295   -119.50976   0.20035719   -119.30941    885.99652    4.2381404    4.2381404    4.2381404    885.99652   -10237.088    5232.3765    7662.7013   -119.07693    1405.5512    3384.2911    76.124774 
   96300    312.25132   -119.59137   0.28253156   -119.30884   -202.92742    4.2402092    4.2402092    4.2402092   -202.92742   -2564.3295    7552.9537   -5597.4064   -421.51129   -450.00927    3749.7406    76.236307 
   96400    394.17432   -119.66558   0.35665721   -119.30892   -4804.0943    4.2343183    4.2343183    4.2343183   -4804.0943   -11412.489   -386.35729   -2613.4362    4458.3059   -2261.2589    720.40908    75.919006 
   96500    322.60652   -119.60109   0.29190116   -119.30919   -2721.6193    4.2379844    4.2379844    4.2379844   -2721.6193   -5054.3074   -3625.0044    514.45389    1643.2558     1439.187    1804.0035    76.116371 
   96600    373.39926   -119.64656   0.33785949    -119.3087   -11232.043    4.2406858    4.2406858    4.2406858   -11232.043   -11905.705   -14566.721   -7223.7037   -2555.2647    -1699.325    1101.1494    76.262015 
   96700    216.92421   -119.50561   0.19627759   -119.30933    441.50626    4.2350423    4.2350423    4.2350423    441.50626    6454.8594   -6527.2672    1396.9266    2075.0765   -3067.6259    4415.2834    75.957955 
   96800     375.8494   -119.64916   0.34007644   -119.30908   -3062.2117     4.237702     4.237702     4.237702   -3062.2117    7065.9941   -8895.0696   -7357.5596   -3984.3916   -1537.4129    -4220.137    76.101156 
   96900    212.06739   -119.50165   0.19188303   -119.30976    4199.0282    4.2404777    4.2404777    4.2404777    4199.0282    7120.6046   -3624.7107    9101.1907   -829.21097   -3027.3754   -2330.2333    76.250791 
   97000    333.59178   -119.61142   0.30184085   -119.30958    5512.7254    4.2330718    4.2330718    4.2330718    5512.7254    20799.752   -1676.9954     -2584.58   -3505.8521    471.10786   -1924.7494    75.851975 
   97100    170.09246   -119.46507   0.15390323   -119.31117     8452.749    4.2379101    4.2379101    4.2379101     8452.749    10277.032    5812.6152    9268.5992   -3317.3331   -4105.2952    2011.9246    76.112364 
   97200    262.06223   -119.54822   0.23711942   -119.31111    2328.5331    4.2398098    4.2398098    4.2398098    2328.5331    13036.216    3311.3767   -9361.9932   -1918.9663   -1897.3855   -924.13018    76.214769 
   97300    315.35406   -119.59519   0.28533898   -119.30985    5009.0797    4.2326026    4.2326026    4.2326026    5009.0797    5933.4443    5636.4306    3457.3642   -487.22559   -5678.9905    2214.3855    75.826759 
   97400    334.19518   -119.61152   0.30238682   -119.30913   -3975.7617    4.2399919    4.2399919    4.2399919   -3975.7617    954.83204   -3652.5965   -9229.5206   -831.58228   -1602.8049    1515.3136    76.224586 
   97500    306.47325   -119.58589   0.27730344   -119.30859   -6713.2005    4.2395382    4.2395382    4.2395382   -6713.2005   -5094.9049    -8440.329   -6604.3678    1570.6047   -262.06191    6399.9296     76.20012 
   97600    278.85892    -119.5609   0.25231741   -119.30858   -4355.9285    4.2343203    4.2343203    4.2343203   -4355.9285   -778.83414   -3958.0242   -8330.9272    1528.8438   -6155.8913    6476.9281    75.919111 
   97700    414.73487   -119.68329   0.37526083   -119.30803   -9729.2683     4.240718     4.240718     4.240718   -9729.2683   -10976.959   -11246.329   -6964.5169    4207.2602    1695.8831    1114.0701    76.263752 
   97800    319.34888     -119.597   0.28895357   -119.30804   -2759.1164    4.2390578    4.2390578    4.2390578   -2759.1164    1522.8059   -5789.5722   -4010.5829   -420.25823   -71.630171    3791.1866    76.174221 
   97900    335.74895   -119.61227   0.30379271   -119.30847   -1486.7022    4.2332721    4.2332721    4.2332721   -1486.7022    850.38566   -4868.7105   -441.78174     609.6466     2336.384   -189.04126    75.862743 
   98000     252.6823   -119.53879   0.22863225   -119.31015    3675.4213    4.2402635    4.2402635    4.2402635    3675.4213    7601.5381   -736.02577    4160.7516    264.83916   -918.50498    1472.6715    76.239236 
   98100    327.73031   -119.60651   0.29653727   -119.30997     1428.018    4.2368804    4.2368804    4.2368804     1428.018    2212.1113    7151.9504   -5080.0076   -1162.1826    128.65675   -3311.3206      76.0569 
   98200    275.95416   -119.55978   0.24968912   -119.31009    6254.5113    4.2338436    4.2338436    4.2338436    6254.5113    7768.9941    3331.3665    7663.1732   -1731.1809   -1987.3309   -4863.4716    75.893473 
   98300    315.87322   -119.59539   0.28580873   -119.30958   -408.21136    4.2400237    4.2400237    4.2400237   -408.21136    2271.2492      -3775.8     279.9167   -3522.1897   -914.09657   -3169.8554    76.226303 
   98400    249.21217   -119.53514   0.22549241   -119.30965    631.17232    4.2377898    4.2377898    4.2377898    631.17232    5558.5724     -3452.67   -212.38534   -4441.8288   -2834.7899   -2550.9831    76.105885 
   98500    317.09517   -119.59637   0.28691437   -119.30946   -2798.6907    4.2350471    4.2350471    4.2350471   -2798.6907    6229.8295    -6872.337   -7753.5646    1624.8377   -6298.2557    2789.0159    75.958214 
   98600    306.80352    -119.5866   0.27760227     -119.309   -5363.7381    4.2408949    4.2408949    4.2408949   -5363.7381    1050.6841   -16367.876   -774.02208   -534.56511   -15.241365   -3318.2171    76.273299 
   98700    351.32384    -119.6266   0.31788519   -119.30871   -3508.1023    4.2370764    4.2370764    4.2370764   -3508.1023    3198.7798    -10440.22   -3282.8669   -2913.4183   -2503.6617    3586.9916    76.067457 
   98800    259.73708   -119.54453   0.23501557   -119.30952    1202.2923    4.2341573    4.2341573    4.2341573    1202.2923    3236.5562   -1901.9088    2272.2294    4409.2622    723.00152   -1166.5972    75.910343 
   98900    252.32129   -119.53798   0.22830561   -119.30967    884.11914    4.2416134    4.2416134    4.2416134    884.11914    8301.9786   -6024.6281    375.00691    1845.8068   -3856.0256     2903.517    76.312074 
   99000    360.36888   -119.63547   0.32606933    -119.3094    3203.0519    4.2344313    4.2344313    4.2344313    3203.0519      286.177    11890.475   -2567.4964    5265.7563    1852.3633   -976.85402    75.925081 
   99100    239.12454   -119.52639   0.21636491   -119.31002    6078.5352    4.2359363    4.2359363    4.2359363    6078.5352    3782.3865    9846.4305    4606.7887    583.39345    -320.5958   -2090.3976    76.006065 
   99200    334.88126    -119.6123    0.3030076   -119.30929   -5279.2155    4.2407563    4.2407563    4.2407563   -5279.2155   -9779.6434   -4349.0658   -1708.9374   -3829.9624    1596.5515   -2592.5814    76.265822 
   99300    203.51332   -119.49378   0.18414313   -119.30963    767.51018    4.2353875    4.2353875    4.2353875    767.51018   -1103.2977    1352.5268    2053.3014   -1228.5505   -4889.4572   -1014.8266    75.976529 
   99400    425.83722   -119.69374   0.38530646   -119.30843   -9170.6693    4.2377932    4.2377932    4.2377932   -9170.6693   -13771.458   -7086.5363   -6654.0135   -2437.8153   -3675.2457   -716.17153    76.106068 
   99500    251.72599   -119.53669   0.22776697   -119.30892   -2261.1283    4.2403801    4.2403801    4.2403801   -2261.1283     3516.543   -15328.504    5028.5759   -5915.4846   -1866.1249   -5350.5942    76.245524 
   99600    378.41719   -119.65084   0.34239982   -119.30844   -4210.1403    4.2359858    4.2359858    4.2359858   -4210.1403    1572.1322    -11001.23   -3201.3232    -4203.329   -1825.6397    1000.8502    76.008732 
   99700    289.21245   -119.57131    0.2616855   -119.30962    4606.6075    4.2368086    4.2368086    4.2368086    4606.6075    8417.9902   -3493.3103    8895.1426   -4140.1532   -4639.3658   -3019.1635    76.053034 
   99800    287.65814   -119.56983   0.26027913   -119.30955    1817.4955    4.2394936    4.2394936    4.2394936    1817.4955    13602.429   -5681.2621     -2468.68    1241.0381   -3905.1849    3429.4424    76.197718 
   99900    292.73014   -119.57419   0.26486838   -119.30932    6613.9421    4.2341054    4.2341054    4.2341054    6613.9421    11998.829    9525.5871   -1682.5894    1585.1315   -2933.8715    1644.2803    75.907555 
  100000     259.1643   -119.54454   0.23449731   -119.31004    2973.5251    4.2376169    4.2376169    4.2376169    2973.5251    5016.2574    2522.8327    1381.4853   -1075.2372    667.51939    639.26683     76.09657 
Loop time of 222.587 on 1 procs for 100000 steps with 8 atoms

Pair  time (%) = 75.8169 (34.0618)
Kspce time (%) = 55.9515 (25.137)
Neigh time (%) = 0 (0)
Comm  time (%) = 10.028 (4.5052)
Outpt time (%) = 0.293311 (0.131774)
Other time (%) = 80.4969 (36.1643)

Nlocal:    8 ave 8 max 8 min
Histogram: 1 0 0 0 0 0 0 0 0 0
Nghost:    2189 ave 2189 max 2189 min
Histogram: 1 0 0 0 0 0 0 0 0 0
Neighs:    2472 ave 2472 max 2472 min
Histogram: 1 0 0 0 0 0 0 0 0 0

Total # of neighbors = 2472
Ave neighs/atom = 309
Neighbor list builds = 0
Dangerous builds = 0
unfix 20
unfix 21
print "seeds:2146442"
seeds:2146442
