LAMMPS (10 Feb 2015)
# ---- initialize simulations
clear
units metal
dimension 3
boundary p p p
atom_style charge
atom_modify map array
# ---- create atoms
read_data /Users/eugeneragasa/pyflamestk_git/pypospack/tests/tests_integration/workflow/WorkflowLammpsThermalExpansion/MgO_NaCl_unit.npt.T1500/lammps.structure
  triclinic box = (0 0 0) to (4.2565 4.2565 4.2565) with tilt (0 0 0)
  1 by 1 by 1 MPI processor grid
  reading atoms ...
  8 atoms
# ---- define interatomic potential
include potential.mod
mass 1 24.305
mass 2 15.999

group Mg type 1
4 atoms in group Mg
group O type 2
4 atoms in group O

set group Mg charge 2.0
  4 settings made for charge
set group O charge -2.0
  4 settings made for charge

variable R_cut equal 10.0

pair_style buck/coul/long ${R_cut}
pair_style buck/coul/long 10
pair_coeff 1 1 0.0 0.5 0.0 ${R_cut}
pair_coeff 1 1 0.0 0.5 0.0 10
pair_coeff 1 2 1279.69 0.29969 0.0 ${R_cut}
pair_coeff 1 2 1279.69 0.29969 0.0 10
pair_coeff 2 2 9547.96 0.21916 32.0 ${R_cut}
pair_coeff 2 2 9547.96 0.21916 32.0 10

kspace_style pppm 1.0e-5

neighbor 1.0 bin
neigh_modify every 1 delay 0 check yes
# ---- define settings
compute eng all pe/atom
compute eatoms all reduce sum c_eng
# ---- run minimization
reset_timestep 0
fix 1 all box/relax iso 0.0 vmax 0.001
thermo 10
thermo_style custom step pe lx ly lz xy xz yz press pxx pyy pzz pxy pxz pyz c_eatoms
min_style cg
minimize 1e-25 1e-25 5000 10000
PPPM initialization ...
  G vector (1/distance) = 0.354854
  grid = 8 8 8
  stencil order = 5
  estimated absolute RMS force accuracy = 5.34408e-05
  estimated relative force accuracy = 3.71126e-06
  using double precision FFTs
  3d grid and FFT values/proc = 3375 512
Neighbor list info ...
  1 neighbor list requests
  update every 1 steps, delay 0 steps, check yes
  master list distance cutoff = 11
Memory usage per processor = 4.06549 Mbytes
Step PotEng Lx Ly Lz Xy Xz Yz Press Pxx Pyy Pzz Pxy Pxz Pyz eatoms 
       0    -164.6599       4.2565       4.2565       4.2565            0            0            0   -75586.685   -75586.685   -75586.685   -75586.685 9.4798587e-11 1.6226154e-10 -3.4446142e-11    -164.6599 
      10   -164.72135     4.213935     4.213935     4.213935            0            0            0   -8637.4527   -8637.4527   -8637.4527   -8637.4527 -1.5549588e-10 2.0227431e-10 -1.1495762e-10   -164.72135 
      15   -164.72214      4.20883      4.20883      4.20883            0            0            0    5.5876567    5.5876567    5.5876567    5.5876567 2.0554645e-10 4.244052e-10 1.3955449e-10   -164.72214 
Loop time of 0.024379 on 1 procs for 15 steps with 8 atoms

Minimization stats:
  Stopping criterion = linesearch alpha is zero
  Energy initial, next-to-last, final = 
        -164.659901251     -164.722138416     -164.722138416
  Force two-norm initial, final = 10.9148 0.000791362
  Force max component initial, final = 10.9148 0.000788889
  Final line search alpha, max atom move = 0.015625 1.23264e-05
  Iterations, force evaluations = 15 55

Pair  time (%) = 0.00689673 (28.2896)
Kspce time (%) = 0.00402594 (16.5139)
Neigh time (%) = 0 (0)
Comm  time (%) = 0.000884533 (3.62826)
Outpt time (%) = 2.09808e-05 (0.086061)
Other time (%) = 0.0125508 (51.4821)

Nlocal:    8 ave 8 max 8 min
Histogram: 1 0 0 0 0 0 0 0 0 0
Nghost:    2189 ave 2189 max 2189 min
Histogram: 1 0 0 0 0 0 0 0 0 0
Neighs:    2344 ave 2344 max 2344 min
Histogram: 1 0 0 0 0 0 0 0 0 0

Total # of neighbors = 2344
Ave neighs/atom = 293
Neighbor list builds = 0
Dangerous builds = 0
unfix 1
# ---- define output variables ----
variable natoms equal "count(all)"
variable tot_energy equal "c_eatoms"
variable length_x equal "lx"
variable length_y equal "ly"
variable length_z equal "lz"
variable tilt_xy equal "xy"
variable tilt_xz equal "xz"
variable tilt_yz equal "yz"
variable tot_press equal "press"
variable press_xx equal "pxx"
variable press_yy equal "pyy"
variable press_zz equal "pzz"
variable press_xy equal "pxy"
variable press_xz equal "pxz"
variable press_yz equal "pyz"

# ---- output ----
print "pypospack:output_section:begin"
pypospack:output_section:begin
print "tot_energy = ${tot_energy}"
tot_energy = -164.722138415744
print "num_atoms = ${natoms}"
num_atoms = 8
print "xx = ${length_x}"
xx = 4.20883001371435
print "yy = ${length_y}"
yy = 4.20883001371435
print "zz = ${length_z}"
zz = 4.20883001371435
print "xy = ${tilt_xy}"
xy = 0
print "xz = ${tilt_xz}"
xz = 0
print "yz = ${tilt_yz}"
yz = 0
print "tot_press = ${tot_press}"
tot_press = 5.58765665687492
print "pxx = ${press_xx}"
pxx = 5.58765665651822
print "pyy = ${press_yy}"
pyy = 5.58765665647238
print "pzz = ${press_zz}"
pzz = 5.58765665763416
print "pxy = ${press_xy}"
pxy = 2.0554645346851e-10
print "pxz = ${press_xz}"
pxz = 4.24405202668874e-10
print "pyz = ${press_yz}"
pyz = 1.39554488680613e-10
print "pypospack:output_section:done"
pypospack:output_section:done
print "pypospack:lammps_sim:done"
pypospack:lammps_sim:done
#------------------------------------------------------------------------------
# RUN THERMOSTAT
# running using an NPT Nose-Hoover style thermostat
#------------------------------------------------------------------------------
variable tempdamp equal 0.1
variable pressdamp equal 1.0
# set initial velocities
velocity all create 1500 9427419 mom yes dist gaussian loop all
# fix for Nose-Hoover style thermostat
fix 20 all npt temp 1500 1500 0.1 aniso 0.0 0.0 1.0 drag 1.0 couple xyz
variable boxx equal lx
variable boxy equal ly
variable boxz equal lz
variable boxp equal press
variable boxt equal temp
# calculate averages every 10000 steps
reset_timestep 0
fix 21 all ave/time 10 10 100 v_boxx v_boxy v_boxz v_boxp v_boxt file lattice.out
thermo_style custom step temp pe ke etotal press lx ly lz press pxx pyy pzz pxy pxz pyz vol
thermo_modify flush yes
thermo 100
run 100000
PPPM initialization ...
  G vector (1/distance) = 0.355405
  grid = 8 8 8
  stencil order = 5
  estimated absolute RMS force accuracy = 5.20839e-05
  estimated relative force accuracy = 3.61703e-06
  using double precision FFTs
  3d grid and FFT values/proc = 3375 512
Memory usage per processor = 3.06549 Mbytes
Step Temp PotEng KinEng TotEng Press Lx Ly Lz Press Pxx Pyy Pzz Pxy Pxz Pyz Volume 
       0         1500   -164.72213    1.3572315    -163.3649    19450.634      4.20883      4.20883      4.20883    19450.634    6353.9573    10275.329    41722.614   -948.45026    1799.8683    4277.5438    74.556267 
     100    1289.2596    -164.3378    1.1665492   -163.17125   -4103.1998    4.2353037    4.2353037    4.2353037   -4103.1998   -17885.647   -3585.5859    9161.6335     2067.937   -10634.283    3139.3666    75.972022 
     200    1234.1292   -163.92153     1.116666   -162.80487   -26576.043     4.254365     4.254365     4.254365   -26576.043    -28560.05   -29095.593   -22072.486    2259.5504    8441.0379   -9561.3005    77.002397 
     300    972.69404   -163.36311   0.88011401     -162.483    12106.537    4.2447024    4.2447024    4.2447024    12106.537   -13699.164   -30071.962    80090.737    1611.0748    4034.5674    15887.854    76.478918 
     400    836.93063   -162.98821   0.75727242   -162.23094    39464.354    4.2374978    4.2374978    4.2374978    39464.354    -16740.86    39669.367    95464.554    272.88204   -13753.516    13543.492    76.090153 
     500    1259.2484   -163.22752    1.1393944   -162.08813   -14007.631    4.2625385    4.2625385    4.2625385   -14007.631   -69149.334   -28140.908     55267.35    5199.3708    7490.1275   -21807.657    77.447063 
     600    1281.4759   -163.15575    1.1595063   -161.99624   -55329.387      4.27157      4.27157      4.27157   -55329.387   -102444.64   -15748.269   -47795.251    727.83946    21897.961    7840.0768     77.94039 
     700    1464.4416   -163.28071    1.3250575   -161.95565   -9953.7147    4.2414247    4.2414247    4.2414247   -9953.7147   -21353.556    17880.271    -26387.86    779.43878   -4411.3881    13491.518     76.30189 
     800    1128.0961   -163.00678     1.020725   -161.98605    13106.681    4.2452098    4.2452098    4.2452098    13106.681   -31720.062    61490.966    9549.1404    -882.2313    17456.139   -3912.2216    76.506349 
     900    1301.3294   -163.17056    1.1774702   -161.99309   -36215.007     4.270888     4.270888     4.270888   -36215.007   -68150.588   -28713.662   -11780.771   -4556.3026    11315.894    -9754.017    77.903067 
    1000    1254.6141   -163.11021    1.1352012     -161.975   -11931.057    4.2717548    4.2717548    4.2717548   -11931.057   -12429.839    -52224.91    28861.577   -10343.472   -2034.8877    4672.2135    77.950509 
    1100    1628.7718   -163.45616     1.473747   -161.98241    7214.2303    4.2424561    4.2424561    4.2424561    7214.2303   -181.92261   -1089.7885    22914.402    776.33648    15109.189    7710.0823    76.357563 
    1200    1701.7127   -163.53048    1.5397454   -161.99073    54362.393    4.2374821    4.2374821    4.2374821    54362.393   -12398.631    87764.785    87721.024    4408.2497     3062.251   -27342.937    76.089305 
    1300    1450.5709   -163.30058    1.3125071   -161.98807   -62239.193    4.2886145    4.2886145    4.2886145   -62239.193   -61206.315   -82009.723    -43501.54    3573.9705   -8946.9197   -20255.045    78.877116 
    1400    1751.8656    -163.5677    1.5851248   -161.98257   -7983.2076    4.2507596    4.2507596    4.2507596   -7983.2076   -24801.939   -49432.356    50284.673    10652.258    5754.5679   -13177.234    76.806793 
    1500    1746.1071   -163.50412    1.5799144    -161.9242    98263.644    4.2145256    4.2145256    4.2145256    98263.644    50850.462    115648.99    128291.48    6387.8439    -189.8509   -17876.251    74.859355 
    1600    1563.6812   -163.39065    1.4148516    -161.9758   -33926.094    4.2810392    4.2810392    4.2810392   -33926.094   -38601.406   -38842.149   -24334.728   -7086.2127     122.0667   -21894.831    78.459875 
    1700    1930.8139   -163.69689     1.747041   -161.94985   -49184.341     4.274274     4.274274     4.274274   -49184.341   -46633.624   -39721.392   -61198.008   -1898.4502    4658.3917    -13242.27    78.088501 
    1800    1737.1115   -163.48611     1.571775   -161.91433    45773.609    4.2210082    4.2210082    4.2210082    45773.609    40773.428    61474.992    35072.406   -12929.246    1137.9762   -27899.493    75.205325 
    1900    1619.0528   -163.43772     1.464953   -161.97277    10048.636    4.2442471    4.2442471    4.2442471    10048.636     5593.361    33981.064    -9428.518   -1553.0499    10923.089   -14988.067    76.454313 
    2000    1648.3155   -163.45458    1.4914305   -161.96315   -17497.114    4.2743798    4.2743798    4.2743798   -17497.114    -56948.53    9068.2687   -4611.0804    3171.4549   -544.82674   -7386.8658    78.094297 
    2100    1697.5126   -163.49655    1.5359451    -161.9606   -13434.454    4.2599938    4.2599938    4.2599938   -13434.454   -40645.173    17350.044   -17008.232   -6869.9963    7210.9935   -148.80995     77.30844 
    2200    1447.5324   -163.27876    1.3097578   -161.96901    5187.3368    4.2429178    4.2429178    4.2429178    5187.3368   -12536.419    3800.9748    24297.454     -945.334    9577.2371    -17483.82    76.382496 
    2300    1584.6689   -163.42245    1.4338417   -161.98861    1920.9255    4.2522912    4.2522912    4.2522912    1920.9255   -39172.735    20413.205    24522.307    2854.9401      303.344    2406.2009    76.889847 
    2400    1496.6629   -163.33393     1.354212   -161.97972   -48918.756    4.2636276    4.2636276    4.2636276   -48918.756    -64307.27   -11294.246    -71154.75    -4510.019   -12705.492   -7930.9927    77.506441 
    2500    1833.9082   -163.62524    1.6593587   -161.96588    9026.0575    4.2403935    4.2403935    4.2403935    9026.0575   -30876.669    2597.4476    55357.394     2876.931   -13581.354    114.55059    76.246247 
    2600    1917.2391   -163.71534    1.7347582   -161.98058   -926.94255     4.242881     4.242881     4.242881   -926.94255   -29180.818    16576.244    9823.7467     -7285.56   -10752.273     21896.71    76.380511 
    2700    1874.4049   -163.67327     1.696001   -161.97727   -6357.1039    4.2606313    4.2606313    4.2606313   -6357.1039   -47855.298   -12028.666    40812.652    9516.8782   -6929.6434    4347.4366    77.343149 
    2800    2070.5805   -163.84964    1.8735048   -161.97614    2383.6718    4.2503831    4.2503831    4.2503831    2383.6718    -43464.05    2008.7381    48606.327   -799.93376    -7389.841     13338.38    76.786388 
    2900    2366.1676   -164.11192    2.1409582   -161.97096    8910.9378    4.2401428    4.2401428    4.2401428    8910.9378    -37410.14    3443.1497    60699.804   -8022.7055   -12522.648    13905.229    76.232727 
    3000    2200.1337   -163.97787    1.9907272   -161.98714   -14308.913    4.2623489    4.2623489    4.2623489   -14308.913   -64803.948    33594.937   -11717.727   -4406.3181   -10187.234    13578.741    77.436726 
    3100     1374.517   -163.21991    1.2436919   -161.97622    8673.0428    4.2733239    4.2733239    4.2733239    8673.0428   -70555.421     33440.42     63134.13   -1154.4885   -6976.9845    20790.527     78.03644 
    3200    1354.9725   -163.18954    1.2260076   -161.96354     5579.124    4.2456317    4.2456317    4.2456317     5579.124   -61825.387    62990.159      15572.6   -16780.494    -6122.737    3814.9908    76.529161 
    3300    1420.7204    -163.2751    1.2854976    -161.9896    38659.918    4.2458042    4.2458042    4.2458042    38659.918   -49037.594    96597.886    68419.462    4358.1489    7201.2204    29084.014    76.538491 
    3400    1143.3494   -163.02195    1.0345266   -161.98742   -50894.138    4.2717174    4.2717174    4.2717174   -50894.138   -96895.621   -22613.229   -33173.564    15891.319   -3442.6372     4847.333    77.948461 
    3500    1300.3397   -163.14612    1.1765747   -161.96955    32047.207    4.2509841    4.2509841    4.2509841    32047.207   -47822.169    27803.693     116160.1     2564.816   -9232.6992    9529.1888    76.818965 
    3600    1530.9624   -163.35704    1.3852469   -161.97179   -19438.472    4.2447954    4.2447954    4.2447954   -19438.472   -44353.028    38248.587   -52210.974    2363.9843    -11301.16      19019.8    76.483948 
    3700    2016.4118   -163.80283    1.8244918   -161.97834    5780.6243    4.2449926    4.2449926    4.2449926    5780.6243   -39918.395    5841.0805    51419.188   -6341.0086   -10766.487   -94.311453    76.494607 
    3800    2158.6937   -163.94628    1.9532314   -161.99305   -16955.949    4.2586438    4.2586438    4.2586438   -16955.949   -61631.433   -10317.271    21080.856   -8849.5689    1241.0133    11007.566    77.234964 
    3900    2092.4406    -163.8898    1.8932842   -161.99652   -4414.2428    4.2552785    4.2552785    4.2552785   -4414.2428   -55144.154      8052.64    33848.785    2706.2175    1134.9414   -8477.3843    77.052007 
    4000    2265.4762   -164.01653    2.0498505   -161.96668    9148.8493    4.2288124    4.2288124    4.2288124    9148.8493   -14121.075    18001.125    23566.498    5245.7155    10733.084    1272.2615    75.623236 
    4100    1787.4627   -163.61094    1.6173338   -161.99361    -6138.913    4.2631487    4.2631487    4.2631487    -6138.913   -20600.353   -22867.351    25050.965    827.12492    20091.906   -14128.887    77.480326 
    4200    1945.8356   -163.72293    1.7606329    -161.9623   -33217.516    4.2609567    4.2609567    4.2609567   -33217.516   -70371.967   -22581.222   -6699.3606   -2374.1598    21352.396    11096.067    77.360874 
    4300    1718.7537   -163.50193    1.5551645   -161.94676    56148.668     4.231971     4.231971     4.231971    56148.668   -15143.052    65562.162    118026.89    2563.1472    8534.2925    693.50237    75.792819 
    4400    1887.2155   -163.68124    1.7075923   -161.97365   -20740.627    4.2585301    4.2585301    4.2585301   -20740.627   -55012.715    16375.538   -23584.704   -2997.7898    6206.3941    13407.205     77.22878 
    4500     1650.417   -163.45873     1.493332    -161.9654   -34247.833    4.2561733    4.2561733    4.2561733   -34247.833   -35296.584    -4414.046    -63032.87   -2284.9572    12438.606    3325.7334    77.100624 
    4600    1074.5978   -162.95003   0.97231866   -161.97771    34885.259    4.2527003    4.2527003    4.2527003    34885.259    -51976.96    93105.055    63527.682    950.71766    10358.195    10458.313    76.912042 
    4700    1112.2171   -162.98889    1.0063574   -161.98254   -14673.683    4.2531474    4.2531474    4.2531474   -14673.683    -80059.24    90897.343   -54859.152    12922.231    22890.751    487.18263    76.936302 
    4800    1726.7776   -163.53952    1.5624247   -161.97709    17536.918     4.239146     4.239146     4.239146    17536.918   -41830.922    40140.227    54301.449   -7895.2419    14919.074    10418.461    76.178975 
    4900    1464.3048   -163.32048    1.3249338   -161.99554   -32014.796     4.273465     4.273465     4.273465   -32014.796   -87810.161    12208.692    -20442.92     -6860.76    20474.006   -12582.256    78.044166 
    5000    860.46223   -162.74907   0.77856431   -161.97051   -40244.746    4.2632441    4.2632441    4.2632441   -40244.746   -91209.604    61382.963   -90907.596   -8364.1411    19766.158    11461.392    77.485529 
    5100    1056.0678   -162.89111   0.95555235   -161.93556    69869.231    4.2238885    4.2238885    4.2238885    69869.231   -25741.365    109951.09    125397.96   -5442.7982    13918.191    8307.6433    75.359384 
    5200    1399.5736   -163.25099    1.2663636   -161.98462   -48833.729     4.257479     4.257479     4.257479   -48833.729   -85159.669    1151.1288   -62492.646    2088.5783   -1770.5194   -31060.957    77.171608 
    5300    1005.6082    -162.8874   0.90989543   -161.97751   -21429.113     4.266612     4.266612     4.266612   -21429.113   -82045.042    17429.844    327.85835    4476.9272    9508.1279   -19452.462    77.669308 
    5400    734.32571   -162.64386   0.66443333   -161.97942    22173.788    4.2399977    4.2399977    4.2399977    22173.788   -30150.266    87961.612    8710.0165    2983.1595    14266.331   -44270.661      76.2249 
    5500    992.27187   -162.88731   0.89782844   -161.98948    15767.381    4.2409779    4.2409779    4.2409779    15767.381   -14807.043    20960.338    41148.847   -3474.2529    5792.9755   -22184.288    76.277775 
    5600    926.37612   -162.83611   0.83820458   -161.99791   -7407.4016    4.2686706    4.2686706    4.2686706   -7407.4016   -42895.625    41297.788   -20624.368   -6342.8164    8558.6225   -28169.588    77.781789 
    5700    1622.9263   -163.46266    1.4684579    -161.9942   -33937.991    4.2517862    4.2517862    4.2517862   -33937.991   -32612.706   -33246.839   -35954.429   -1618.9361    11253.629   -34920.634    76.862458 
    5800    1667.8292   -163.48124    1.5090869   -161.97216    29701.376    4.2184541    4.2184541    4.2184541    29701.376    26234.847    14360.584    48508.696   -2679.7626    4827.0796   -25489.145    75.068887 
    5900    1321.8911   -163.20257    1.1960748    -162.0065    5138.6311    4.2547277    4.2547277    4.2547277    5138.6311   -16292.736    31861.817   -153.18844    2710.8112    2918.2328    5743.0533    77.022092 
    6000    1389.0132   -163.23188    1.2568084   -161.97507   -34514.969    4.2702943    4.2702943    4.2702943   -34514.969   -40544.918   -40749.877   -22250.113    6759.9197    6035.2409    17318.885    77.870581 
    6100    1656.5533   -163.45891    1.4988843   -161.96003    6169.0325    4.2360922    4.2360922    4.2360922    6169.0325   -655.99613    6609.8516    12553.242    736.03475    6867.0464    9776.4056    76.014459 
    6200    2064.9063   -163.83809    1.8683706   -161.96972    9059.4297    4.2315634    4.2315634    4.2315634    9059.4297   -6360.7828    26302.206    7236.8655    670.58631    547.02083    22743.051    75.770919 
    6300    1819.5111   -163.64359    1.6463319   -161.99725     13206.16    4.2549955    4.2549955    4.2549955     13206.16   -46914.583     79968.66    6564.4023   -2771.0892    949.36799    2717.5736    77.036635 
    6400     1834.829   -163.64057    1.6601918   -161.98038   -38153.658    4.2711734    4.2711734    4.2711734   -38153.658   -72812.521    23514.158    -65162.61   -8616.6414   -7672.8063   -14393.289    77.918684 
    6500     2431.319   -164.18139    2.1999086   -161.98148   -6276.9077      4.23396      4.23396      4.23396   -6276.9077   -28638.486    30554.142   -20746.379    4988.7313   -3548.0637    18307.871    75.899733 
    6600    2068.9468   -163.84353    1.8720265    -161.9715    64388.929    4.2112196    4.2112196    4.2112196    64388.929    24036.618    113609.34    55520.824    6411.2814   -10346.392    14529.493    74.683329 
    6700    1915.5032   -163.74405    1.7331876   -162.01086   -49349.687    4.2674301    4.2674301    4.2674301   -49349.687   -86132.308   -22049.569   -39867.185   -1365.0341   -8858.2284    29491.194       77.714 
    6800    1755.2575   -163.56445    1.5881939   -161.97625   -29417.918       4.2701       4.2701       4.2701   -29417.918   -76834.189    19600.621   -31020.184    13249.504    1579.7604    31761.504    77.859952 
    6900    1397.7363   -163.21023    1.2647012   -161.94553     71060.06    4.2075821    4.2075821    4.2075821     71060.06     74162.14    80115.111    58902.929    9059.9402   -11214.991     16570.77    74.489968 
    7000    1432.8425   -163.27971     1.296466   -161.98324    30550.124    4.2246381    4.2246381    4.2246381    30550.124    17388.664    63825.587    10436.122    5133.4307   -17460.578    22182.498    75.399514 
    7100    1621.2248   -163.42706    1.4669182   -161.96014   -46747.016    4.2725031    4.2725031    4.2725031   -46747.016   -48271.082   -27200.549   -64769.415    5696.3055   -20034.099    7007.8778    77.991482 
    7200    1695.4278   -163.49032    1.5340587   -161.95626     9171.225    4.2451906    4.2451906    4.2451906     9171.225    19953.682   -14823.263    22383.257     5112.032   -26920.847   -6698.1016    76.505312 
    7300    1614.6604   -163.41309    1.4609786   -161.95211    12940.039    4.2242043    4.2242043    4.2242043    12940.039    -9956.538    26180.129    22596.526    -1879.963   -30951.974   -6465.3347    75.376289 
    7400    1395.1044   -163.23759    1.2623198   -161.97527    -23175.91    4.2451925    4.2451925    4.2451925    -23175.91   -26807.753   -1116.4063   -41603.569   -4780.3344   -35502.085   -12831.492    76.505415 
    7500    1292.6012    -163.1448    1.1695727   -161.97523     -10979.3    4.2565347    4.2565347    4.2565347     -10979.3   -22099.481     7271.357   -18109.776   -6736.8226   -20977.638   -16481.611    77.120271 
    7600    1212.1839   -163.06847    1.0968094   -161.97166   -10092.539    4.2451923    4.2451923    4.2451923   -10092.539   -32573.117    13263.356   -10967.857    -15192.02    4907.7471    -8091.782    76.505404 
    7700    1248.3175   -163.09736    1.1295039   -161.96786    22869.875    4.2397156    4.2397156    4.2397156    22869.875    34997.464    18155.307    15456.855   -761.31448   -1475.6792   -19744.871    76.209688 
    7800    1279.1732   -163.12966    1.1574228   -161.97223   -18690.692    4.2498689    4.2498689    4.2498689   -18690.692    823.09601   -24598.979   -32296.194   -6120.4352    11947.776    -23685.25     76.75852 
    7900    1057.8747   -162.92769   0.95718726   -161.97051   -10230.289    4.2475193    4.2475193    4.2475193   -10230.289   -32182.524    63591.996    -62100.34   -18530.275    26540.527   -20625.017    76.631282 
    8000    1051.1072   -162.92614   0.95106392   -161.97508    7964.8149    4.2465184    4.2465184    4.2465184    7964.8149    22868.957    15394.166   -14368.678    11086.574    29244.199   -21887.175     76.57712 
    8100    1128.4548   -163.00013    1.0210496   -161.97908   -31785.509    4.2435871    4.2435871    4.2435871   -31785.509   -7797.6221   -27955.679   -59603.225    1577.4471    23488.979   -31260.968    76.418651 
    8200    858.37465   -162.76151   0.77667543   -161.98484    18481.496     4.246124     4.246124     4.246124    18481.496    -17216.01    72241.766    418.73214     10633.21    37370.943   -36478.792    76.555787 
    8300    926.26448   -162.81717   0.83810357   -161.97907   -10261.517    4.2579745    4.2579745    4.2579745   -10261.517   -1575.3784   -13496.401   -15712.772    8206.7113    16343.902   -38429.588    77.198555 
    8400      837.804   -162.73048   0.75806267   -161.97241   -21109.413    4.2375413    4.2375413    4.2375413   -21109.413    26836.962   -11488.265   -78676.936    3234.0387    17138.283   -55583.156    76.092496 
    8500    712.18473   -162.62731   0.64439971   -161.98291    26463.528    4.2356071    4.2356071    4.2356071    26463.528    3094.0657    53541.139    22755.378    15532.293    33676.895   -49808.481    75.988349 
    8600    1029.9393    -162.9173   0.93191068   -161.98539   -48323.501    4.2600311    4.2600311    4.2600311   -48323.501   -48919.997   -11072.098   -84978.408    7489.2012    10510.567   -66057.994     77.31047 
    8700    1201.5121   -163.06719    1.0871534   -161.98004    33364.845    4.2386564    4.2386564    4.2386564    33364.845    40888.542    10782.572    48423.422   -2428.4297    9504.7655   -46615.355    76.152581 
    8800    1575.5193   -163.40646     1.425563    -161.9809   -13172.049    4.2372049    4.2372049    4.2372049   -13172.049    11758.407   -20483.292   -30791.262   -14697.494    9337.6564   -52440.821    76.074376 
    8900    1393.0529   -163.24179    1.2604635   -161.98132   -15305.261    4.2540995    4.2540995    4.2540995   -15305.261    25148.004   -17572.425    -53491.36   -9824.0484    4619.7254   -53158.421    76.987983 
    9000    912.12566   -162.78964   0.82531047   -161.96433    26793.557    4.2532249    4.2532249    4.2532249    26793.557    41962.064    3779.1182     34639.49   -2846.0055   -886.58251    -30461.57    76.940505 
    9100    1116.2023   -162.96232    1.0099633   -161.95236    -36240.51    4.2555782    4.2555782    4.2555782    -36240.51   -19280.009   -7709.8096   -81731.712    -5172.453    -9954.726   -52898.651     77.06829 
    9200    1251.4229   -163.08747    1.1323137   -161.95516    1867.5759    4.2426192    4.2426192    4.2426192    1867.5759     30439.91   -16110.064   -8727.1178   -13465.244   -13711.624     -42268.7    76.366373 
    9300    1269.9669   -163.10632    1.1490927   -161.95723    20678.236    4.2415723    4.2415723    4.2415723    20678.236     39506.22    32826.885   -10298.397   -2915.4913   -16416.265   -38550.579    76.309853 
    9400    1229.6781   -163.07804    1.1126386    -161.9654   -41715.882    4.2651218    4.2651218    4.2651218   -41715.882   -35274.643   -12680.949   -77192.055   -7188.5315   -15335.347   -31665.545    77.587954 
    9500    1020.0977   -162.88582   0.92300583   -161.96281    15592.397    4.2469478    4.2469478    4.2469478    15592.397    50544.012    17385.765   -21152.585    9701.5979   -8443.0753   -44704.459     76.60035 
    9600    1309.5896   -163.13629    1.1849442   -161.95134    2305.4449    4.2258184    4.2258184    4.2258184    2305.4449    11808.506     23279.91   -28172.081    2835.3561   -33158.953   -29817.406    75.462723 
    9700    1302.4978   -163.15186    1.1785273   -161.97333   -377.48985    4.2401158    4.2401158    4.2401158   -377.48985   -12335.335    23277.741   -12074.875   -9503.1454   -24053.443   -3420.2187    76.231268 
    9800    1531.1718   -163.36704    1.3854364    -161.9816   -15825.855    4.2594381    4.2594381    4.2594381   -15825.855    9435.9875    2489.4556   -59403.007    14511.458   -10170.401   -10106.072    77.278186 
    9900    1501.7331   -163.33506    1.3587996   -161.97626   -21711.906    4.2502641    4.2502641    4.2502641   -21711.906    11214.836   -28482.082   -47868.472   -14801.514   -26441.726   -11650.992    76.779937 
   10000    1487.2816   -163.30496    1.3457236   -161.95923    22524.362     4.231162     4.231162     4.231162    22524.362    19567.066    71054.166   -23048.146    5882.4368   -11542.067   -3186.9333    75.749358 
   10100    1485.6228   -163.31892    1.3442227    -161.9747   -37797.736    4.2493705    4.2493705    4.2493705   -37797.736   -30562.357   -11432.641   -71398.211   -12885.591   -23784.083    1175.4958    76.731519 
   10200    1312.6144    -163.1565    1.1876811   -161.96882    14781.899    4.2486311    4.2486311    4.2486311    14781.899   -6640.7127    26667.825    24318.586    2587.9499   -664.07704    -8442.024    76.691472 
   10300    1469.4892   -163.29182    1.3296247    -161.9622    5883.5773    4.2442656    4.2442656    4.2442656    5883.5773   -35288.675    51439.431    1499.9764   -1652.4639    2897.7047    10077.526     76.45531 
   10400    1640.3066   -163.44517    1.4841839   -161.96099    -39278.85    4.2537117    4.2537117    4.2537117    -39278.85   -56783.437   -11321.822   -49731.291   -26315.544   -5161.4951    2741.9796    76.966928 
   10500    1758.9448   -163.54824    1.5915302   -161.95671     38695.21    4.2321965    4.2321965    4.2321965     38695.21    17730.811     36735.58    61619.238    8197.1792    18691.368    1553.6257    75.804933 
   10600     1712.082   -163.52077    1.5491278   -161.97164   -14340.175    4.2431679    4.2431679    4.2431679   -14340.175   -38310.425    13345.101   -18055.201   -13455.073    23046.542    13682.112    76.396006 
   10700    1461.4058   -163.29001    1.3223107    -161.9677   -27418.144    4.2572992    4.2572992    4.2572992   -27418.144   -64552.934    3076.4938   -20777.991    -5685.998    45951.689    9684.2485     77.16183 
   10800    1347.0215   -163.17444    1.2188134   -161.95563    9571.0873    4.2433419    4.2433419    4.2433419    9571.0873   -7430.5691    24596.823    11547.008   -11342.937    37710.644   -5491.6344    76.405402 
   10900    1305.8731   -163.14027    1.1815814   -161.95868   -33699.595    4.2479146    4.2479146    4.2479146   -33699.595    -47545.91    4435.3459   -57988.221      7988.23    45781.926     14451.62    76.652677 
   11000    1374.8622   -163.20103    1.2440042   -161.95703    24661.855    4.2413504    4.2413504    4.2413504    24661.855   -14429.206    52510.775    35903.997   -1149.0441    44737.418   -5320.1486    76.297878 
   11100    1334.5729   -163.17512    1.2075496   -161.96757   -4663.6578    4.2476123    4.2476123    4.2476123   -4663.6578    1399.9431    7317.6124   -22708.529   -2575.7095    53681.627    5554.4367    76.636316 
   11200    1025.3328   -162.89848   0.92774265   -161.97074   -31504.663    4.2515149    4.2515149    4.2515149   -31504.663   -86974.284    22979.559   -30519.265     13328.87    51247.814   -975.11938    76.847743 
   11300    1007.0711    -162.8667   0.91121911   -161.95548    53921.132    4.2297134    4.2297134    4.2297134    53921.132   -7273.8794    76740.335    92296.939    5642.1276    42802.367    6722.9642    75.671586 
   11400    1053.7785   -162.93068   0.95348093    -161.9772   -10776.741     4.253504     4.253504     4.253504   -10776.741   -29788.732    14577.866   -17119.359    5705.3053    43605.204    10984.016    76.955655 
   11500    1170.2782   -163.01997    1.0588923   -161.96108   -14998.287    4.2553129    4.2553129    4.2553129   -14998.287   -79385.499    52682.118   -18291.479    6177.1321    61930.199    8291.6466    77.053875 
   11600    1216.1217   -163.04787    1.1003725    -161.9475    13353.161    4.2316736    4.2316736    4.2316736    13353.161    1072.7082    32769.073    6217.7032    47.342522    51147.882   -11512.369    75.776837 
   11700    1119.1486   -162.97719    1.0126292   -161.96457   -29519.881    4.2421422    4.2421422    4.2421422   -29519.881   -82391.297   -1708.4562   -4459.8908   -21021.545     57389.82    14267.324    76.340615 
   11800    1122.8839   -162.98685    1.0160089   -161.97085    430.67408    4.2405014    4.2405014    4.2405014    430.67408    -65658.46    36422.771    30527.711   -17856.526    48988.604    144.93292    76.252067 
   11900    1121.8785   -162.99366    1.0150993   -161.97856   -15460.906    4.2496022    4.2496022    4.2496022   -15460.906   -29268.373    19509.556   -36623.902   -16257.715    35288.791   -7964.1808    76.744071 
   12000    1228.5513   -163.08648     1.111619   -161.97486   -11415.623    4.2477625    4.2477625    4.2477625   -11415.623   -59659.779   -33487.501     58900.41     -32068.1    53772.923      1731.48    76.644442 
   12100    1087.5365   -162.95582   0.98402586    -161.9718    4025.8515    4.2292794    4.2292794    4.2292794    4025.8515   -15167.113    21937.383    5307.2841   -29109.717     39708.93    -6800.719    75.648291 
   12200    957.86202   -162.85035   0.86669369   -161.98365    16719.665     4.237928     4.237928     4.237928    16719.665   -69547.056    71838.655    47867.396   -17948.508    49444.956    3832.8707    76.113328 
   12300    1037.5456   -162.92137   0.93879309   -161.98258   -10802.731     4.262793     4.262793     4.262793   -10802.731   -41878.599   -15325.515     24795.92   -9826.3883    34224.559   -10182.758    77.460933 
   12400    1326.3967   -163.16533    1.2001516   -161.96518   -21051.273    4.2569264    4.2569264    4.2569264   -21051.273   -41188.515   -6088.7126   -15876.591   -17533.542    46046.702    10683.923    77.141561 
   12500    1333.7395   -163.16102    1.2067955   -161.95422    20711.494    4.2265235    4.2265235    4.2265235    20711.494   -12923.646    46181.703    28876.424    14280.831    46144.362    2362.0182    75.500507 
   12600    1410.2637   -163.24741    1.2760362   -161.97137    16607.356    4.2334656    4.2334656    4.2334656    16607.356   -3616.0254    32841.241    20596.852    7081.6576    37939.284   -4246.2379    75.873148 
   12700    1331.1348   -163.17715    1.2044388   -161.97271    -9352.096    4.2601989    4.2601989    4.2601989    -9352.096   -37107.116   -14104.368    23155.196    27530.562    27585.528    -7385.646    77.319605 
   12800    1313.7907   -163.14394    1.1887454   -161.95519   -358.03835    4.2533783    4.2533783    4.2533783   -358.03835    29532.901    1891.7577   -32498.774    31797.798    22628.519   -6045.8424     76.94883 
   12900    1354.2737   -163.17626    1.2253753   -161.95088    2799.6022    4.2519708    4.2519708    4.2519708    2799.6022   -42386.556    62528.699   -11743.337    11770.902    29020.357   -11431.957    76.872467 
   13000    1625.1742   -163.42105    1.4704917   -161.95056   -7689.0873    4.2452179    4.2452179    4.2452179   -7689.0873   -30384.156    17502.305    -10185.41     11139.94    5858.6811   -15654.343    76.506786 
   13100    1367.8632   -163.19346    1.2376713   -161.95579   -8686.7356     4.234354     4.234354     4.234354   -8686.7356   -36499.947    7389.2114    3050.5291   -4181.7658    8369.0278   -10846.121    75.920924 
   13200    1167.5076    -163.0329    1.0563854   -161.97651   -6835.7599    4.2497795    4.2497795    4.2497795   -6835.7599   -50780.764   -1074.9485    31348.432    409.94196    8638.4939   -20258.605    76.753678 
   13300    1633.3933   -163.45879    1.4779285   -161.98087   -8311.7808    4.2423185    4.2423185    4.2423185   -8311.7808   -23974.701   -10960.365    9999.7234   -5657.3687   -2977.2662   -10179.551    76.350136 
   13400    2326.2429    -164.0824    2.1048334   -161.97757    25376.339    4.2245885    4.2245885    4.2245885    25376.339    13787.433    20919.642    41421.942   -13586.381   -9319.0295    2451.9264    75.396855 
   13500    2274.6806   -164.05402    2.0581788   -161.99585    5266.4124    4.2423358    4.2423358    4.2423358    5266.4124    10860.003   -28334.021    33273.256   -10483.748   -16212.398    23997.695     76.35107 
   13600    1879.0121   -163.69036    1.7001696   -161.99019    8284.9788    4.2456107    4.2456107    4.2456107    8284.9788   -715.62201   -27569.597    53140.156   -2513.6663   -5617.6676    20232.475    76.528026 
   13700    1684.1121   -163.51363      1.52382   -161.98981   -7909.8847    4.2419928    4.2419928    4.2419928   -7909.8847   -17586.181   -12709.126    6565.6531   -4088.2024   -31191.949    13246.997    76.332553 
   13800    1423.3702   -163.27691    1.2878953   -161.98901   -17583.057    4.2430499    4.2430499    4.2430499   -17583.057   -28655.406   -22246.514   -1847.2514   -5477.4408   -3752.6735     32935.88    76.389632 
   13900    1388.3941   -163.24097    1.2562482   -161.98472    24769.331    4.2233644    4.2233644    4.2233644    24769.331    21452.356    10988.078    41867.559    12593.796   -7084.1952    19766.124    75.331336 
   14000    1516.8405   -163.37713    1.3724692   -162.00466    10795.779    4.2474153    4.2474153    4.2474153    10795.779    27177.139   -7930.2395    13140.437    8583.0543   -10712.246    8934.1414     76.62565 
   14100    1498.0319   -163.32949    1.3554507   -161.97404   -36168.626    4.2623461    4.2623461    4.2623461   -36168.626   -58597.404   -19848.266   -30060.209    24800.434    7014.4585   -574.67178    77.436575 
   14200    1574.2637   -163.37846    1.4244269   -161.95404    11951.703    4.2280925    4.2280925    4.2280925    11951.703   -16725.693   -7100.7223    59681.525    47485.871   -921.18805    1747.7706    75.584622 
   14300    1138.7634   -163.00591    1.0303771   -161.97553    2222.0513    4.2379616    4.2379616    4.2379616    2222.0513   -9218.6459   -33312.199    49196.999    53828.003    17183.438    546.20699    76.115142 
   14400    1006.4374    -162.8904   0.91064569   -161.97975   -9231.8251      4.25414      4.25414      4.25414   -9231.8251    -10877.69   -12733.707   -4084.0782    35320.461    8220.8778   -365.19551    76.990177 
   14500    882.22017   -162.78284   0.79825135   -161.98459   -11898.272    4.2502628    4.2502628    4.2502628   -11898.272    45564.719   -77806.901   -3452.6358    50369.985    8918.0003   -11764.657    76.779866 
   14600    536.58976   -162.48596   0.48551769   -162.00044   -17522.628    4.2261008    4.2261008    4.2261008   -17522.628   -27692.291   -86636.372    61760.778    59287.651    3195.5532   -16947.602    75.477855 
   14700    831.75021   -162.75217   0.75258507   -161.99958    62208.393    4.2162855    4.2162855    4.2162855    62208.393    115393.07   -401.82313    71633.936    39917.563     8310.626   -18908.423    74.953177 
   14800    1167.0967   -163.06436    1.0560136   -162.00834   -38104.876    4.2616937    4.2616937    4.2616937   -38104.876   -40869.717   -60605.629   -12839.282    49056.309   -4626.9695   -16469.405    77.401021 
   14900    1363.3174   -163.22064    1.2335582   -161.98708   -5037.7254    4.2500828    4.2500828    4.2500828   -5037.7254    10602.724   -39019.312    13303.412    54016.177    1199.7655   -11304.893    76.770111 
   15000    1480.2084    -163.2943    1.3393236   -161.95497    36742.426    4.2214997    4.2214997    4.2214997    36742.426   -4010.7208    56786.569    57451.429    34718.889   -15340.927   -2230.1827    75.231599 
   15100     1256.539   -163.10769    1.1369429   -161.97075   -35111.672    4.2505899    4.2505899    4.2505899   -35111.672   -42544.759     -27532.6   -35257.656    27096.605   -15404.439    10074.977    76.797594 
   15200    1344.6955   -163.17642    1.2167087   -161.95971   -1078.6204    4.2558246    4.2558246    4.2558246   -1078.6204   -43028.596    34280.435    5512.2993    20596.573   -14345.844    11944.657    77.081678 
   15300    1547.6655   -163.35523    1.4003603   -161.95487   -10390.914    4.2493274    4.2493274    4.2493274   -10390.914   -35515.667   -22196.141    26539.066    19748.748   -19474.533    18233.066    76.729187 
   15400    1564.7446   -163.37521    1.4158138    -161.9594    5082.9893    4.2356786    4.2356786    4.2356786    5082.9893    12296.857    942.51798    2009.5924    17899.511   -14606.758    19315.381    75.992198 
   15500    1809.9725   -163.60354    1.6377012   -161.96584    40762.104    4.2222751    4.2222751    4.2222751    40762.104     48985.38    22437.154    50863.779    831.47317   -15317.781    29861.267    75.273064 
   15600    1681.7562   -163.51569    1.5216883     -161.994   -16261.359    4.2532156    4.2532156    4.2532156   -16261.359   -15275.303   -13804.123   -19704.652    -3533.467     890.8548     28225.02    76.940003 
   15700     1528.907   -163.36356    1.3833871   -161.98018   -25277.878    4.2554105    4.2554105    4.2554105   -25277.878   -11354.063   -35956.897   -28522.672   -931.10727   -7681.9042     35878.24    77.059178 
   15800    1666.7394    -163.4736    1.5081009    -161.9655    25691.692    4.2211048    4.2211048    4.2211048    25691.692    63189.187    -2783.013    16668.901   -4976.6694    4680.3211    19931.856    75.210489 
   15900    1486.3637   -163.32479    1.3448932    -161.9799     25964.65     4.231254     4.231254     4.231254     25964.65    49723.513    24468.846    3701.5898   -15877.475    9218.6598    -5190.424    75.754301 
   16000    1574.3771   -163.39641    1.4245295   -161.97188   -21762.821    4.2576376    4.2576376    4.2576376   -21762.821    2125.7893    -18272.96   -49141.291   -3181.1379    9028.8807     3763.656    77.180232 
   16100    1838.4993   -163.61612    1.6635128   -161.95261   -17599.514     4.256084     4.256084     4.256084   -17599.514    -11116.19   -9773.7222    -31908.63    3242.2668    11867.375   -14300.457    77.095775 
   16200    1866.9215   -163.63467    1.6892298   -161.94544    16737.651    4.2312971    4.2312971    4.2312971    16737.651   -516.62414    11902.961    38826.616    7005.7018    18298.682   -17209.111    75.756617 
   16300    1812.2778   -163.59656    1.6397871   -161.95677     28800.18    4.2248439    4.2248439    4.2248439     28800.18    50538.024    24475.592    11386.924    416.77758    18473.737   -5571.4031    75.410532 
   16400    1850.0883    -163.6451    1.6739987    -161.9711   -2024.8763    4.2528031    4.2528031    4.2528031   -2024.8763    11098.037    12602.072   -29774.738    8503.1557    12061.066    -21275.11    76.917619 
   16500    1923.0281   -163.69521    1.7399962   -161.95521   -27967.961    4.2580094    4.2580094    4.2580094   -27967.961   -46154.003   -48784.759    11034.879     12704.98     11661.76   -1926.5873    77.200454 
   16600    1748.8214   -163.53463    1.5823704   -161.95226    12234.864    4.2254498    4.2254498    4.2254498    12234.864    -2181.358    29458.672    9427.2785    13732.249     11701.46   -1894.0194     75.44298 
   16700    1492.3675   -163.31012    1.3503255   -161.95979    31718.602    4.2172772    4.2172772    4.2172772    31718.602     22275.13    48670.114    24210.562    6178.2269    10552.553   -25716.692    75.006078 
   16800    1630.4132   -163.45187    1.4752321   -161.97664   -11876.393    4.2471788    4.2471788    4.2471788   -11876.393   -41986.561   -46806.704    53164.086    9290.8378    9626.1405   -1440.8056    76.612854 
   16900     1805.872   -163.58737    1.6339909   -161.95337   -29043.238    4.2602018    4.2602018    4.2602018   -29043.238    -55065.67   -27685.533   -4378.5109   -1841.9664    6605.5396     7702.182    77.319764 
   17000    1633.8939    -163.4273    1.4783816   -161.94892    14302.729    4.2331855    4.2331855    4.2331855    14302.729    682.46461    52439.071   -10213.349    3747.4756    12435.044   -5421.4536    75.858091 
   17100    1525.4865   -163.33147    1.3802923   -161.95118    18813.847    4.2119048    4.2119048    4.2119048    18813.847    18148.655   -5923.9953    44216.883   -1081.7182    11265.793    11643.311    74.719788 
   17200    1710.3029   -163.52587     1.547518   -161.97835    11345.429    4.2363255    4.2363255    4.2363255    11345.429   -7854.9216    40180.842    1710.3672    4712.1304    10731.636    9975.7331    76.027018 
   17300    1898.8796   -163.67767    1.7181462   -161.95952   -43840.533    4.2598904    4.2598904    4.2598904   -43840.533   -44939.856   -34462.606   -52119.138   -3774.4006    7744.0758   -3329.5425    77.302807 
   17400    1944.8617   -163.71547    1.7597517   -161.95572   -2071.8487    4.2355456    4.2355456    4.2355456   -2071.8487     3380.786   -13291.684    3695.3519     17081.73     16245.14    41.666867    75.985036 
   17500    1894.3101   -163.66543    1.7140116   -161.95142    35715.929    4.2203326    4.2203326    4.2203326    35715.929    29825.586    58863.422    18458.779    4269.9066     23514.34   -1550.6101    75.169218 
   17600     1756.188   -163.55878    1.5890358   -161.96975   -3571.5954    4.2342944    4.2342944    4.2342944   -3571.5954    5966.2571    14904.638   -31585.681    3995.0734    20359.823   -7367.0783    75.917717 
   17700     1769.006   -163.56953    1.6006338    -161.9689   -31369.757    4.2497289    4.2497289    4.2497289   -31369.757   -16938.334   -17391.079   -59779.859    1147.1324    26734.274   -2343.7953    76.750934 
   17800     1770.523   -163.56662    1.6020064   -161.96461    7529.0484    4.2421453    4.2421453    4.2421453    7529.0484    3079.2357    40671.735   -21163.826    8255.0281     23330.59   -1785.4843    76.340783 
   17900    2024.1346   -163.79018    1.8314796   -161.95871     12726.54    4.2247403    4.2247403    4.2247403     12726.54    5457.2392    30354.385    2367.9968   -670.63097    16985.365   -9070.0039    75.404983 
   18000     2199.946   -163.95606    1.9905573    -161.9655   -1623.9075    4.2365097    4.2365097    4.2365097   -1623.9075   -1963.0454   -1402.5906   -1506.0865    2096.9677    12840.091   -4098.3482    76.036935 
   18100    2150.7905   -163.90668    1.9460804    -161.9606   -4627.4272    4.2487865    4.2487865    4.2487865   -4627.4272   -8413.9123    16209.289   -21677.659   -10204.518     6097.821   -15414.762    76.699888 
   18200    2347.3915   -164.08104    2.1239692   -161.95707   -1424.4927     4.238763     4.238763     4.238763   -1424.4927   -26124.292    17557.488    4293.3261    4084.4606    8199.2958    4934.2569    76.158327 
   18300    2392.4551   -164.12338    2.1647437   -161.95863   -5568.5805     4.239942     4.239942     4.239942   -5568.5805   -3921.7164     800.9973   -13585.022   -13869.154    12009.454   -17297.776    76.221897 
   18400    2040.6487    -163.8057    1.8464218   -161.95928   -2245.6522    4.2339663    4.2339663    4.2339663   -2245.6522   -7705.6382   -875.69578    1844.3774   -11746.357    6422.9898    154.41465    75.900072 
   18500    1956.9004   -163.73792    1.7706446   -161.96728    10819.364    4.2333677    4.2333677    4.2333677    10819.364   -994.01179    18122.551    15329.554   -11889.911     10749.19   -2892.3038    75.867886 
   18600      1947.87   -163.73158    1.7624738    -161.9691   -22693.497     4.247139     4.247139     4.247139   -22693.497    8433.8077   -39452.999   -37061.299    -10624.86    1573.8679    -3123.244    76.610697 
   18700    2089.2461    -163.8577    1.8903938   -161.96731    9970.3159    4.2322411    4.2322411    4.2322411    9970.3159    17519.173    3194.9286     9196.846   -448.13607   -6763.7311    7140.8676    75.807331 
   18800    2239.3906   -163.99614    2.0262476   -161.96989    16001.903    4.2343344    4.2343344    4.2343344    16001.903    32958.867    22836.771   -7789.9289   -6319.6594   -5275.9633   -2984.6051    75.919871 
   18900    2149.3764   -163.90478    1.9448009   -161.95998   -19903.588    4.2509916    4.2509916    4.2509916   -19903.588    15793.962   -28919.883   -46584.844    9886.1483   -9838.9034    3621.8074    76.819372 
   19000    1789.9147   -163.57432    1.6195524   -161.95477    6876.6841    4.2432034    4.2432034    4.2432034    6876.6841    15945.532   -1213.9184    5898.4383   -1942.4565   -3120.1469   -2708.2818    76.397922 
   19100    1726.9004   -163.51697    1.5625358   -161.95443    14754.539    4.2356472    4.2356472    4.2356472    14754.539    15974.915   -2117.8185    30406.522     4177.562    8351.7384     9467.384    75.990508 
   19200     1987.727   -163.75713    1.7985372   -161.95859   -9226.1673    4.2381347    4.2381347    4.2381347   -9226.1673   -2961.4731   -4232.1266   -20484.902   -4330.6102   -5733.7788   -6194.8461    76.124468 
   19300    2180.7647   -163.93404    1.9732017   -161.96084    7701.4053    4.2386841    4.2386841    4.2386841    7701.4053    21083.293    15192.149   -13171.226    11720.601    1611.4327    9244.4123    76.154076 
   19400    2159.2557     -163.909    1.9537399   -161.95526   -8185.4676    4.2438507    4.2438507    4.2438507   -8185.4676   -19316.645   -7940.9889    2701.2315    1181.7846   -5308.9962    8525.1035    76.432892 
   19500     2117.006   -163.86729    1.9155115   -161.95178   -13607.132    4.2426572    4.2426572    4.2426572   -13607.132   -19396.884    2330.7865     -23755.3    8822.9038   -18813.477    4451.1071    76.368423 
   19600    2006.5362   -163.76709    1.8155561   -161.95153    15513.358    4.2337712    4.2337712    4.2337712    15513.358    19840.625    35557.268   -8857.8198    15272.696   -12977.437    19092.174    75.889581 
   19700    2033.9157   -163.80019    1.8403296   -161.95986    10092.495    4.2371463    4.2371463    4.2371463    10092.495   -23778.005    31035.578    23019.911    5199.9373   -22352.384    8311.4214     76.07122 
   19800     2319.225   -164.05474    2.0984835   -161.95625   -18572.619    4.2502098    4.2502098    4.2502098   -18572.619   -39449.788    4194.9452   -20463.013     13478.66   -8694.8725    24064.136    76.776995 
   19900    2473.3656   -164.17893    2.2379532   -161.94098   -7674.2108    4.2435355    4.2435355    4.2435355   -7674.2108   -7330.5423    5799.4879   -21491.578    11563.636   -14060.398    6588.6639    76.415864 
   20000    2392.4267   -164.10355    2.1647179   -161.93883     3384.008    4.2357757    4.2357757    4.2357757     3384.008    1515.6507    3992.7724    4643.6009     18865.09   -744.08593    20099.489    75.997424 
   20100    2197.0072   -163.93062    1.9878983   -161.94272   -1134.7283    4.2418698    4.2418698    4.2418698   -1134.7283     -13488.5    15180.772   -5096.4569    16876.518   -21081.925    13268.089     76.32591 
   20200    2381.1417   -164.10351    2.1545071   -161.94901    5486.6532    4.2365095    4.2365095    4.2365095    5486.6532     957.6473     7656.341    7845.9714    30230.545    -936.1698    12393.769    76.036929 
   20300     2472.891   -164.19144    2.2375237   -161.95392   -9241.4941    4.2415682    4.2415682    4.2415682   -9241.4941   -21620.665   -3811.0185   -2292.7986    22997.793   -6103.4914    15519.644    76.309635 
   20400    2404.7225   -164.13418    2.1758434   -161.95834    11110.205    4.2319511    4.2319511    4.2319511    11110.205    12921.313    23402.691   -2993.3883    18194.307    1755.6621    10950.034    75.791749 
   20500    2096.2295   -163.86369    1.8967125   -161.96698    4521.7293    4.2319386    4.2319386    4.2319386    4521.7293    768.08823    8946.5092    3850.5907    14463.441   -289.31363    8484.4379    75.791075 
   20600    1601.2754   -163.41805    1.4488676   -161.96919   -19368.714    4.2415225    4.2415225    4.2415225   -19368.714    -3146.092   -31856.386   -23103.664   -1982.3294    9959.6168    13055.336    76.307164 
   20700    1572.2542   -163.38797    1.4226086   -161.96536    30623.939     4.233107     4.233107     4.233107    30623.939    47993.012    34146.601    9732.2045    2743.5586    6222.5743    3415.4281    75.853871 
   20800    1844.8797   -163.63716    1.6692859   -161.96788   -9020.3741    4.2371122    4.2371122    4.2371122   -9020.3741   -614.23952   -10631.375   -15815.507   -16161.017     7798.142   -2406.5766    76.069381 
   20900    1958.5009   -163.74045    1.7720927   -161.96835   -20324.747    4.2372566    4.2372566    4.2372566   -20324.747   -24525.106    -8350.351   -28098.785   -20772.259    19131.398   -1021.8127    76.077162 
   21000    1907.2308   -163.69065    1.7257025   -161.96495    24888.205    4.2306658    4.2306658    4.2306658    24888.205    19306.695     35089.95    20267.969   -16879.026    959.35542   -1929.0395    75.722714 
   21100    1857.3545   -163.64815    1.6805734   -161.96758   -27464.719    4.2419369    4.2419369    4.2419369   -27464.719   -26686.607   -34906.068   -20801.483   -34207.156    17410.963   -17619.391    76.329536 
   21200     1920.146   -163.70279    1.7373885    -161.9654    -3771.263    4.2367369    4.2367369    4.2367369    -3771.263    6468.4994   -8799.9796   -8982.3087   -18573.225   -6299.1239   -9222.3569    76.049172 
   21300    2274.1818   -164.02189    2.0577275   -161.96416    27407.645    4.2276813    4.2276813    4.2276813    27407.645    23228.099    34263.184    24731.653   -26619.822    6792.7975   -22710.994     75.56257 
   21400    2484.7576   -164.21794    2.2482609   -161.96968   -7484.1598      4.23948      4.23948      4.23948   -7484.1598   -7716.1455   -10410.124   -4326.2095   -11409.252   -6434.7626   -14098.223    76.196984 
   21500    2452.1063   -164.18984    2.2187173   -161.97112    1463.3301    4.2370255    4.2370255    4.2370255    1463.3301   -18291.055    19679.162     3001.883   -8322.4063   -3479.5096   -16967.007    76.064712 
   21600    2264.7181    -164.0191    2.0491645   -161.96994     7153.813    4.2299819    4.2299819    4.2299819     7153.813   -13796.874    15002.159    20256.155    21.184719    1779.0063   -17233.685    75.685997 
   21700    2073.6708   -163.85311    1.8763009   -161.97681   -5788.3838    4.2401769    4.2401769    4.2401769   -5788.3838   -27255.303   -16584.911    26475.063    20410.559   -8649.1124   -13623.461    76.234565 
   21800     2106.449   -163.88191    1.9059593   -161.97595    1439.9487    4.2379694    4.2379694    4.2379694    1439.9487   -8137.4915    2829.4679    9627.8696    10371.846    25915.421   -15915.209     76.11556 
   21900    2024.8633   -163.80637    1.8321389   -161.97423    6070.0731    4.2329421    4.2329421    4.2329421    6070.0731    3700.6268   -3607.1147    18116.707    35976.322   -869.11256   -10570.081    75.845003 
   22000    1715.8534   -163.52474    1.5525402    -161.9722   -11882.425    4.2415538    4.2415538    4.2415538   -11882.425     -35503.5   -26870.567    26726.791    23817.791    32980.171   -18862.319    76.308853 
   22100    1547.1256   -163.36583    1.3998718   -161.96596   -12053.191    4.2380908    4.2380908    4.2380908   -12053.191   -21257.471   -27490.261    12588.157    30416.708    15628.313   -5646.4107      76.1221 
   22200    1713.5518   -163.51875    1.5504576   -161.96829   -1453.7427    4.2308669    4.2308669    4.2308669   -1453.7427   -12417.754   -15585.448    23641.974     26403.56    10780.722   -14723.634     75.73351 
   22300    2079.1678   -163.85168    1.8812747   -161.97041   -7047.2552    4.2350334    4.2350334    4.2350334   -7047.2552   -9888.5783   -26509.131    15255.943    28995.092    19153.345   -71.597629    75.957473 
   22400    2046.1587   -163.82731    1.8514074    -161.9759   -1068.9641    4.2344064    4.2344064    4.2344064   -1068.9641    12039.697   -27515.507    12268.918    23838.951   -9195.7334   -9419.3751    75.923741 
   22500    1865.8195   -163.66735    1.6882327   -161.97911    5109.2631    4.2350461    4.2350461    4.2350461    5109.2631    45479.699   -27122.759   -3029.1508     16107.15    11552.084    7921.9701    75.958159 
   22600    1631.0605   -163.45695    1.4758178   -161.98114   -4281.9754    4.2375467    4.2375467    4.2375467   -4281.9754    16781.136    -43212.44    13585.377    14924.282   -21727.296     1729.549    76.092789 
   22700    1388.2115   -163.23532     1.256083   -161.97923   -793.16083    4.2321938    4.2321938    4.2321938   -793.16083    6733.8472   -23406.705    14293.375    963.96821   -1234.7631    7265.1474    75.804787 
   22800    1260.3408   -163.12369    1.1403828   -161.98331    7637.7867    4.2358179    4.2358179    4.2358179    7637.7867    56731.968   -12749.883   -21068.724    6412.9078   -9533.1781    17564.388    75.999694 
   22900    1431.8082   -163.27462    1.2955301   -161.97909   -18969.959    4.2432284    4.2432284    4.2432284   -18969.959   -20914.112    -20937.49   -15058.274    -13118.98   -10645.165    18360.381    76.399273 
   23000    1495.0218   -163.32866    1.3527271   -161.97593    251.23814    4.2350484    4.2350484    4.2350484    251.23814   -15144.807    16752.421   -853.89905    -26752.25   -6311.9763    28034.065     75.95828 
   23100    1248.4946   -163.10653    1.1296641   -161.97687    7689.3852    4.2323065    4.2323065    4.2323065    7689.3852    25117.499   -26647.836    24598.492   -17013.491   -1104.4079    23321.043    75.810842 
   23200    949.71757    -162.8418   0.85932442   -161.98248   -11907.509    4.2392934    4.2392934    4.2392934   -11907.509   -34871.178   -6528.2342    5676.8854   -34710.766      6563.02    51007.182    76.186919 
   23300    846.16868   -162.75549   0.76563121   -161.98986    4372.0695    4.2346337    4.2346337    4.2346337    4372.0695   -34249.518    -31893.41    79259.137   -31994.972   -410.66969    41771.768    75.935971 
   23400    839.61946   -162.74957   0.75970533   -161.98986    819.91249    4.2332979    4.2332979    4.2332979    819.91249    3435.0185   -3768.2027    2792.9217   -25201.388    11866.645    52543.588     75.86413 
   23500     809.4489   -162.72255   0.73240638   -161.99014   -12900.706     4.238185     4.238185     4.238185   -12900.706    -25091.27   -25338.541    11727.692   -27519.132    12917.327    57433.172    76.127179 
   23600    852.96974    -162.7576   0.77178495   -161.98582   -8790.5547    4.2390552    4.2390552    4.2390552   -8790.5547   -13767.345   -45392.752    32788.432   -27897.441    10372.601    49792.256    76.174078 
   23700    821.76365   -162.72398   0.74354902   -161.98043    2792.0968    4.2363286    4.2363286    4.2363286    2792.0968    60697.553   -59824.351    7503.0885     -28363.5    9461.5647    42162.136    76.027185 
   23800    838.46453   -162.73659   0.75866033   -161.97792     15429.06    4.2410426    4.2410426    4.2410426     15429.06    33996.708   -31774.825    44065.297   -23341.083    5716.8698    60496.507    76.281269 
   23900    1017.2763   -162.89111   0.92045297   -161.97065   -17442.726    4.2474225    4.2474225    4.2474225   -17442.726    40859.744   -79695.154   -13492.769   -34079.803    13092.855    41923.274    76.626042 
   24000    971.81368   -162.83724   0.87931744   -161.95793    5733.7016    4.2388192    4.2388192    4.2388192    5733.7016    84572.342   -67379.964    8.7273743   -23735.018    5555.0437    31315.077    76.161357 
   24100    851.39837   -162.72996   0.77036313   -161.95959   -1130.8342    4.2407036    4.2407036    4.2407036   -1130.8342    36116.407   -62911.726    23402.816   -7625.2869   -3783.3493    36826.273    76.262975 
   24200    922.82903     -162.799    0.8349951   -161.96401   -32629.396    4.2415443    4.2415443    4.2415443   -32629.396    35706.639   -105193.92   -28400.903   -1569.1473     1665.342    37092.848    76.308345 
   24300     982.1621   -162.85823   0.88868091   -161.96955    23132.381    4.2319525    4.2319525    4.2319525    23132.381    85666.019    -39890.31    23621.434    4793.3196    3215.7314    33301.967    75.791825 
   24400    951.62385   -162.83925   0.86104926    -161.9782   -3817.6357    4.2422928    4.2422928    4.2422928   -3817.6357    12619.581   -9172.9209   -14899.567    2422.3293   -991.16147    43397.725    76.348749 
   24500    965.98099   -162.85064    0.8740399    -161.9766   -15566.692    4.2404239    4.2404239    4.2404239   -15566.692    49142.778   -45133.578   -50709.276     29689.81    -5274.129    49321.459    76.247891 
   24600    696.69683   -162.60834   0.63038593   -161.97795    2970.9942    4.2340934    4.2340934    4.2340934    2970.9942    29402.215   -41196.497    20707.265    31762.876      873.095    38265.467     75.90691 
   24700    753.16275   -162.65685   0.68147749   -161.97537   -19654.317    4.2387619    4.2387619    4.2387619   -19654.317    10298.096   -27114.552   -42146.495    22629.355    -16343.59    43848.123     76.15827 
   24800    1083.8957   -162.95382   0.98073165   -161.97309   -6931.2336    4.2371774    4.2371774    4.2371774   -6931.2336    72387.354    -36914.13   -56266.925    23740.855   -16864.847    42063.053    76.072895 
   24900    1342.3612   -163.19084    1.2145967   -161.97624   -5670.4927    4.2346595    4.2346595    4.2346595   -5670.4927    1044.1268   -7619.1851    -10436.42    23891.525   -366.57111    45246.236    75.937359 
   25000    1438.0468   -163.27868     1.301175   -161.97751    12986.798    4.2306222    4.2306222    4.2306222    12986.798    37076.406    43986.962   -42102.974    17182.444   -24038.952    28237.818    75.720371 
   25100    1395.5494   -163.24076    1.2627224   -161.97804   -23376.241    4.2404479    4.2404479    4.2404479   -23376.241    4137.3959   -13796.843   -60469.275    5442.6977   -8060.7235    35241.268    76.249185 
   25200    1394.5897   -163.23299    1.2618541   -161.97114    1567.6983    4.2415836    4.2415836    4.2415836    1567.6983    18006.972   -10822.774   -2481.1031    4214.5857   -13981.122    21057.267    76.310466 
   25300    1544.7745    -163.3642    1.3977444   -161.96646    6446.2547     4.232681     4.232681     4.232681    6446.2547    21917.272    6732.0583   -9310.5664    2364.0245   -6640.0925    12620.766    75.830971 
   25400    1806.0655   -163.60197     1.634166    -161.9678   -4021.2074    4.2331062    4.2331062    4.2331062   -4021.2074    11163.241   -30685.031    7458.1678   -7803.2189    1127.3698    8049.8096    75.853825 
   25500    1820.7148   -163.62049     1.647421   -161.97307    8003.8537    4.2379241    4.2379241    4.2379241    8003.8537   -2905.5528    11840.418    15076.696   -11914.252   -7089.2881   -20249.468    76.113122 
   25600    1688.5562   -163.50212    1.5278412   -161.97427   -19041.322    4.2400432    4.2400432    4.2400432   -19041.322   -20749.715   -34446.972   -1927.2801    -23286.65    12475.587   -15536.305    76.227354 
   25700    1537.2931   -163.36897    1.3909751   -161.97799    3845.4259    4.2315243    4.2315243    4.2315243    3845.4259       6306.1   -33174.815    38404.993   -32310.984   -3334.3251    -25312.89     75.76882 
   25800    1416.7444   -163.26517    1.2819001   -161.98327    6652.5831    4.2280858    4.2280858    4.2280858    6652.5831    1687.9427   -3548.2226    21818.029   -32154.384   -460.69555   -32166.879    75.584259 
   25900      1445.17   -163.29542    1.3076201    -161.9878    3843.6345    4.2400342    4.2400342    4.2400342    3843.6345    22758.938   -36418.955    25190.921   -45767.712   -8004.2675   -19341.329    76.226869 
   26000    1406.3279   -163.25763    1.2724751   -161.98516   -15010.106      4.24096      4.24096      4.24096   -15010.106   -38910.713   -19933.765    13814.162   -49372.921   -18242.215   -6933.4664    76.276811 
   26100    1164.4285   -163.03591    1.0535993   -161.98231    8923.2048    4.2291952    4.2291952    4.2291952    8923.2048   -6922.3318   -7582.0484    41273.995    -57567.37   -11604.226   -5350.0479    75.643777 
   26200    950.54962    -162.8494   0.86007727   -161.98932   -423.77461    4.2342727    4.2342727    4.2342727   -423.77461    502.75162   -23098.876    21324.801   -58135.488   -22434.373    11850.764     75.91655 
   26300    833.32269   -162.73981   0.75400789   -161.98581   -24526.035    4.2354798    4.2354798    4.2354798   -24526.035    -19972.26   -55185.377    1579.5329   -68395.362   -13073.002      22946.7    75.981497 
   26400    799.72031   -162.70913   0.72360374   -161.98553    17143.318    4.2381639    4.2381639    4.2381639    17143.318    29354.719   -27151.342    49226.576   -54911.025    -9736.334    19508.533     76.12604 
   26500    1062.0613   -162.93807    0.9609754   -161.97709   -34965.242    4.2491507    4.2491507    4.2491507   -34965.242   -39195.342   -37962.276   -27738.106    -57759.59    2877.2783    26760.749    76.719612 
   26600    1164.8878    -163.0309     1.054015   -161.97689    16639.477    4.2231389    4.2231389    4.2231389    16639.477    41845.931   -31229.179    39301.678   -67659.218     6598.867    28154.805    75.319271 
   26700    1207.3302   -163.07624    1.0924177   -161.98382    27073.667    4.2261818    4.2261818    4.2261818    27073.667    8193.3481    12590.316    60437.337   -53464.669    16546.018    20270.186    75.482194 
   26800    1239.7642   -163.09471    1.1217647   -161.97294   -44998.484    4.2525157    4.2525157    4.2525157   -44998.484   -32271.338    -62549.09   -40175.024    -60042.11     32889.22    23028.441    76.902025 
   26900    1072.9684   -162.93914   0.97084433    -161.9683    20208.146     4.230679     4.230679     4.230679    20208.146    44801.862    1917.1461    13905.431   -40293.319    33552.517    21286.005    75.723423 
   27000    1059.3229   -162.92828   0.95849761   -161.96979   -4286.7818    4.2294802    4.2294802    4.2294802   -4286.7818   -21459.211   -12253.532    20852.397   -42636.779     46407.74    12443.134    75.659068 
   27100    1161.8829   -163.02597    1.0512961   -161.97468   -1062.3034    4.2420648    4.2420648    4.2420648   -1062.3034    6478.5001   -26092.732    16427.322   -35831.422    40146.986    8712.0975     76.33644 
   27200    1360.7385   -163.20405    1.2312248   -161.97283    10834.907    4.2398414    4.2398414    4.2398414    10834.907   -23184.188    21766.145    33922.764   -31339.231    39559.251   -800.82083    76.216473 
   27300    1433.8115   -163.26716    1.2973428   -161.96982   -22411.822    4.2420336    4.2420336    4.2420336   -22411.822   -35247.964   -7289.0891   -24698.411   -49173.681    36026.428    1748.5073    76.334753 
   27400    1506.2955   -163.33439    1.3629278   -161.97146    7452.1881    4.2284775    4.2284775    4.2284775    7452.1881    14518.516    9469.0866   -1631.0381   -40357.112    24970.232    -207.9376    75.605268 
   27500    1435.8626   -163.27539    1.2991987   -161.97619    14712.308    4.2266791    4.2266791    4.2266791    14712.308   -4206.3624    37390.597     10952.69   -39576.548    15826.593   -8014.9668    75.508846 
   27600    1512.7923   -163.34398    1.3688062   -161.97517   -18689.789    4.2469657    4.2469657    4.2469657   -18689.789   -10164.536   -1949.9073   -43954.922   -26342.266    17183.744   -6628.5418     76.60132 
   27700    1961.6827   -163.74124    1.7749717   -161.96627   -14397.341    4.2421152    4.2421152    4.2421152   -14397.341   -29041.159   -6200.6867   -7950.1777    -18447.89    11284.228   -8316.3609    76.339159 
   27800    2211.7979   -163.96138    2.0012813    -161.9601    23241.408    4.2245494    4.2245494    4.2245494    23241.408    15294.545    12126.433    42303.245   -11831.224     2560.278   -6818.7176    75.394763 
   27900    2075.4777   -163.84558    1.8779358   -161.96764   -10978.759    4.2409644    4.2409644    4.2409644   -10978.759   -28392.699   -1459.8132   -3083.7652   -2484.8344    2990.8159   -13774.498    76.277049 
   28000    1833.6099   -163.61597    1.6590887   -161.95689   -2540.5969    4.2505257    4.2505257    4.2505257   -2540.5969   -24717.904    764.24439    16331.869    3220.5616   -446.68342   -7676.1981    76.794113 
   28100    1810.0136   -163.58866    1.6377384   -161.95092   -5055.4956    4.2369515    4.2369515    4.2369515   -5055.4956   -16908.357    15779.421   -14037.551   -2494.3097   -24367.554   -7178.2657    76.060725 
   28200    1938.3411   -163.70492    1.7538518   -161.95107    1090.4885     4.231668     4.231668     4.231668    1090.4885   -6303.8129    1146.3764    8428.9021    4242.6372   -6257.2392    11777.542    75.776537 
   28300    1997.0074   -163.76857    1.8069342   -161.96163    16130.218    4.2319023    4.2319023    4.2319023    16130.218    29670.078   -1746.0483    20466.623    18316.725   -18214.831    4687.0443    75.789128 
   28400    1915.5219   -163.70177    1.7332045   -161.96857   -7381.1522    4.2433523    4.2433523    4.2433523   -7381.1522   -13033.493   -10833.919    1723.9554    28175.441   -339.17203    15745.131    76.405966 
   28500    1746.6466   -163.54964    1.5804025   -161.96924   -2059.8079    4.2383647    4.2383647    4.2383647   -2059.8079   -12543.997   -16200.319    22564.892    51399.698   -15329.701     3049.143    76.136861 
   28600    1605.4774    -163.4201    1.4526697   -161.96743    20220.776    4.2242289    4.2242289    4.2242289    20220.776    32693.555    10823.037    17145.736    59326.302    61.600254    7819.9987    75.377606 
   28700    1382.4944   -163.22599      1.25091   -161.97508   -16981.819    4.2349292    4.2349292    4.2349292   -16981.819   -38632.043   -8967.4625   -3345.9521    74860.607   -842.93141    13997.089    75.951869 
   28800    1156.5996   -163.02259    1.0465156   -161.97607   -13659.173    4.2387245    4.2387245    4.2387245   -13659.173   -22783.788   -25040.831    6847.1005    70970.473   -4927.9189   -2445.2769    76.156252 
   28900    1044.3016   -162.92008   0.94490601   -161.97517    3702.0458    4.2324662    4.2324662    4.2324662    3702.0458   -31687.455    12739.455    30054.137    70074.932    11288.554   -1937.3214    75.819429 
   29000     940.9166   -162.82857   0.85136111    -161.9772   -20880.649    4.2354245    4.2354245    4.2354245   -20880.649    -76559.84   -30296.805    44214.697    87289.195    4095.8531    6270.1255    75.978521 
   29100    891.80992     -162.789   0.80692836   -161.98207    17810.478    4.2287651    4.2287651    4.2287651    17810.478   -32483.777    37116.652    48798.559    78428.734    14860.097   -7795.7221    75.620697 
   29200    875.17202   -162.77826   0.79187403   -161.98639    -12118.21    4.2360274    4.2360274    4.2360274    -12118.21   -56297.385    1304.7479    18638.007    81112.936    9329.7673    4551.3292     76.01097 
   29300     705.6123   -162.62257   0.63845283   -161.98411   -7966.7506    4.2404477    4.2404477    4.2404477   -7966.7506    -31919.22   -3994.7099    12013.678    74626.291    16046.909   -7947.4379    76.249172 
   29400    690.81762   -162.60452    0.6250663   -161.97945   -7281.5845    4.2339733    4.2339733    4.2339733   -7281.5845   -22642.581   -13809.871    14607.698    77854.791    13714.862   -4604.2967    75.900451 
   29500     665.7294   -162.58015   0.60236595   -161.97778   -3396.2204    4.2329082    4.2329082    4.2329082   -3396.2204   -38982.482   -19056.094    47849.915    80488.797    10693.022     3351.031    75.843183 
   29600    698.24131   -162.61019   0.63178341   -161.97841    7489.5966      4.24026      4.24026      4.24026    7489.5966   -7330.6659   -27464.157    57263.613    74353.994    2885.1318   -12771.556     76.23905 
   29700    881.46089   -162.76765   0.79756434   -161.97009   -6484.3048    4.2471737    4.2471737    4.2471737   -6484.3048   -53098.105   -19954.977    53600.167    84560.219     725.9528   -3520.5203    76.612578 
   29800    1090.3639   -162.94421   0.98658416   -161.95763    13698.112    4.2367061    4.2367061    4.2367061    13698.112     1982.119   -29813.963    68926.179     84875.79     10149.39   -6560.2528    76.047512 
   29900    1130.0127    -162.9826    1.0224592   -161.96014   -1402.9934     4.236764     4.236764     4.236764   -1402.9934   -4336.7752   -63117.558    63245.353    90827.597   -12320.956    6041.0982    76.050633 
   30000    1031.6408   -162.89781   0.93345027   -161.96436   -8022.5547    4.2375888    4.2375888    4.2375888   -8022.5547   -9400.2156    -50328.78    35661.332    92520.189   -2127.0823    2888.0962    76.095056 
   30100    728.56048   -162.62794   0.65921684   -161.96872    3920.3281    4.2400784    4.2400784    4.2400784    3920.3281    -4583.594   -29678.176    46022.754    84198.038   -15156.736    11244.937    76.229253 
   30200    657.24803   -162.56237   0.59469183   -161.96767   -23648.024    4.2440343    4.2440343    4.2440343   -23648.024     -60093.2    -61156.89    50306.019    86403.044   -4076.3681    1865.7234    76.442813 
   30300    835.02876   -162.71944   0.75555157   -161.96388    17305.636    4.2347792    4.2347792    4.2347792    17305.636   -7114.9663   -7765.1361    66797.011     66688.83   -8714.0155    3377.9694    75.943796 
   30400    1135.2461   -162.99246    1.0271945   -161.96526   -7219.7011    4.2438735    4.2438735    4.2438735   -7219.7011   -23622.946   -18361.999    20325.842    63854.791   -5811.4388   -12102.241    76.434125 
   30500    1249.5551   -163.09148    1.1306237   -161.96085   -11593.801    4.2437329    4.2437329    4.2437329   -11593.801   -29844.071   -18207.474    13270.142    62667.599   -7593.1398    5788.3274    76.426529 
   30600    1232.1215    -163.0711    1.1148494   -161.95625    5131.3735    4.2305318    4.2305318    4.2305318    5131.3735    -29458.69    19847.774    25005.036    56472.319   -8322.2366    -4373.154    75.715516 
   30700    1296.4076   -163.13452    1.1730169    -161.9615   -4229.5003    4.2358846    4.2358846    4.2358846   -4229.5003   -39230.136    6767.1639    19774.471    43037.914    2893.2104   -17551.507    76.003285 
   30800    1514.5168   -163.32856    1.3703666    -161.9582   -16665.028     4.247007     4.247007     4.247007   -16665.028   -57177.334   -11610.576    18792.826    24627.852    6249.6917    1129.7802    76.603554 
   30900    1966.1549   -163.72625    1.7790183   -161.94723   -10904.352    4.2488942    4.2488942    4.2488942   -10904.352   -11195.576   -13029.615   -8487.8662    14224.098    13130.109   -16519.327    76.705719 
   31000    2156.0254   -163.89258    1.9508171   -161.94177    5875.7263    4.2374797    4.2374797    4.2374797    5875.7263    15865.338    6293.2524   -4531.4119   -105.49714   -8131.7682    6848.9085    76.089177 
   31100    2052.5178   -163.80055    1.8571612   -161.94339     18521.52    4.2274298    4.2274298    4.2274298     18521.52     20450.97    7150.9492    27962.639   -1192.5132    4265.4785   -6227.0155    75.549087 
   31200    1981.5104   -163.74956    1.7929122   -161.95665   -10547.903    4.2462697    4.2462697    4.2462697   -10547.903   -29788.001    14286.136   -16141.845   -12696.027   -11766.692    14157.889    76.563668 
   31300    1990.9397   -163.75109    1.8014441   -161.94964   -16852.604    4.2420339    4.2420339    4.2420339   -16852.604   -6501.7117   -22102.902   -21953.198   -18512.706     17122.58    8107.7036    76.334772 
   31400     2335.501   -164.05619    2.1132104   -161.94298    15715.541    4.2340825    4.2340825    4.2340825    15715.541    41044.731    17383.885   -11281.992   -16655.425   -4529.4735    3501.2545    75.906321 
   31500    2510.1611   -164.21138    2.2712465   -161.94013   -16743.455    4.2491144    4.2491144    4.2491144   -16743.455    17507.947   -14102.244   -53636.069   -26035.208   -3202.7067    6148.0438    76.717644 
   31600    2273.8504   -163.98542    2.0574277     -161.928   -9981.6361    4.2428341    4.2428341    4.2428341   -9981.6361    4121.7075   -8110.8772   -25955.739   -25781.028    -2234.073    18690.709    76.377978 
   31700     2006.118   -163.74162    1.8151777   -161.92644   -7234.2323    4.2429897    4.2429897    4.2429897   -7234.2323   -23041.053   -4964.8349    6303.1908   -20068.266    -8016.918    12356.994    76.386379 
   31800    2052.7385   -163.78955    1.8573609   -161.93219    -4527.065    4.2424033    4.2424033    4.2424033    -4527.065   -23859.024   -6494.1881    16772.017   -19028.648    6038.1934    5964.3887    76.354713 
   31900    2050.1267   -163.79412    1.8549977   -161.93912    26016.169     4.228734     4.228734     4.228734    26016.169    13300.141    27228.204    37520.162   -16635.426   -13966.831    7003.4738    75.619031 
   32000    2007.7562    -163.7731      1.81666   -161.95644   -6916.3549    4.2430488    4.2430488    4.2430488   -6916.3549   -31346.078   -5003.6641    15600.678    1274.8174    5203.2268   -3559.1912    76.389575 
   32100    1620.8021   -163.41706    1.4665358   -161.95053   -25031.523    4.2495292    4.2495292    4.2495292   -25031.523   -74745.433   -10154.709    9805.5717    18283.595   -1786.2155    12227.133    76.740117 
   32200    1323.9481   -163.13742    1.1979361   -161.93948    15591.621    4.2353114    4.2353114    4.2353114    15591.621   -23098.186    34778.041    35095.009    39419.972    1575.4966   -3560.5813    75.972434 
   32300      1412.81   -163.22376    1.2783402   -161.94542   -29582.033    4.2416996    4.2416996    4.2416996   -29582.033   -66850.588   -35123.107    13227.597    65225.498   -3882.4315    4611.4473    76.316727 
   32400    1273.8399   -163.10568    1.1525971   -161.95308   -33.626039    4.2342896    4.2342896    4.2342896   -33.626039   -13942.039   -17420.359     31261.52     65345.84    21472.746    -7628.545    75.917458 
   32500     1053.388   -162.91798   0.95312763   -161.96486     30292.12    4.2320168    4.2320168    4.2320168     30292.12    5249.3267    420.66408    85206.368    72753.809    12352.544    2993.7963    75.795277 
   32600    698.81009   -162.59813   0.63229805   -161.96583   -34403.261      4.25026      4.25026      4.25026   -34403.261   -78810.432   -74247.536    49848.186    89580.509    15552.993     139.0893    76.779713 
   32700     354.8148   -162.27791   0.32104388   -161.95686    27528.598    4.2370742    4.2370742    4.2370742    27528.598    17776.756   -18727.905    83536.945    88284.855    2971.7628    4344.9221    76.067337 
   32800    450.53865   -162.36265   0.40765684     -161.955   -4700.9009    4.2385841    4.2385841    4.2385841   -4700.9009   -56648.671   -39971.278    82517.246    102971.85    11784.968   -203.74167    76.148683 
   32900    702.51697   -162.58934   0.63565212   -161.95369   -17974.543    4.2382201    4.2382201    4.2382201   -17974.543   -26605.548   -76049.317    48731.234    114465.63   -8304.3989    17173.362    76.129071 
   33000    876.44907   -162.75303   0.79302954      -161.96    15397.911    4.2333605    4.2333605    4.2333605    15397.911    9558.5917   -8696.1309    45331.272    104757.38    3139.5873   -880.74435    75.867497 
   33100    951.38016   -162.82459   0.86082877   -161.96376    -33121.02     4.243068     4.243068     4.243068    -33121.02   -68249.711    -73631.07    42517.722    110545.34   -4119.5961    2953.7922     76.39061 
   33200    844.30074   -162.72406   0.76394106   -161.96012    12121.852    4.2342412    4.2342412    4.2342412    12121.852   -16346.546   -25432.396    78144.498    89951.078   -2114.1353    8328.2553    75.914859 
   33300    901.60775   -162.77801   0.81579364   -161.96221   -10973.722    4.2436011    4.2436011    4.2436011   -10973.722   -61936.535   -43928.388    72943.758    82770.949    967.16343    5113.4321    76.419406 
   33400    934.48143   -162.80079   0.84553844   -161.95525   -8091.4524    4.2454137    4.2454137    4.2454137   -8091.4524   -38559.075    -38621.76    52906.478    78118.359   -5242.5837   -2787.8584     76.51737 
   33500    1170.2181   -163.01138    1.0588379   -161.95254    25107.413    4.2312126    4.2312126    4.2312126    25107.413    984.02317    20126.182    54212.032    60689.673     5331.073   -5119.0725    75.752076 
   33600    1359.1257   -163.19019    1.2297655   -161.96042   -3854.2248    4.2383848    4.2383848    4.2383848   -3854.2248   -49656.132    3117.0761    34976.381    59042.879    207.93758    16061.835    76.137945 
   33700    1312.3276   -163.14876    1.1874216   -161.96133   -15231.398    4.2417061    4.2417061    4.2417061   -15231.398   -45719.414   -10757.416    10782.635    39566.237    15795.627   -9848.1009    76.317076 
   33800    1538.0564   -163.34797    1.3916658    -161.9563   -1205.0006    4.2373723    4.2373723    4.2373723   -1205.0006   -43610.859    34685.083    5310.7742    20916.447    267.93665    3712.0473     76.08339 
   33900    1790.4587   -163.57188    1.6200447   -161.95184   -15868.548    4.2443479    4.2443479    4.2443479   -15868.548     -26826.4   -21362.759    583.51673    5814.4088    11095.671   -5683.5136     76.45976 
   34000    2122.5352   -163.85998    1.9205145   -161.93947   -7541.8895    4.2407406    4.2407406    4.2407406   -7541.8895   -17565.365   -7489.2315    2428.9274   -6202.4724   -5678.1401    5368.7384    76.264975 
   34100    2278.1712   -163.99518    2.0613372   -161.93385    10737.535    4.2365902    4.2365902    4.2365902    10737.535    5739.4901     14549.57    11923.546   -17666.351    7588.8839   -3793.7857     76.04127 
   34200    2265.8874   -163.98792    2.0502225    -161.9377    9555.4799     4.240795     4.240795     4.240795    9555.4799    9564.4219   -21.772905    19123.791   -24097.313    -11683.71    245.45097     76.26791 
   34300    2362.9716   -164.07728    2.1380664   -161.93922    5593.0304    4.2403155    4.2403155    4.2403155    5593.0304    5599.1365   -45.183129    11225.138    -30222.14    376.80792   -8284.9568    76.242039 
   34400    2519.2708   -164.21832    2.2794892   -161.93883   -2583.8843    4.2434779    4.2434779    4.2434779   -2583.8843     16068.28   -23172.208   -647.72554   -28602.729   -6934.5148   -1806.4483    76.412751 
   34500    2468.9383   -164.16917    2.2339473   -161.93523   -2744.7952     4.239875     4.239875     4.239875   -2744.7952    19407.088   -12709.535   -14931.939   -26376.747   -3936.7607    794.28811    76.218284 
   34600    2221.7616   -163.94592    2.0102966   -161.93562   -6868.8474    4.2431294    4.2431294    4.2431294   -6868.8474   -3504.9844   -16353.948   -747.60973   -18652.602   -10477.662    6753.4665    76.393928 
   34700    1812.4624   -163.57903    1.6399541   -161.93907    1003.4524    4.2431422    4.2431422    4.2431422    1003.4524   -24840.656    23392.859    4458.1543   -9712.6046   -733.02585   -5706.6263    76.394619 
   34800    1496.5465    -163.2945    1.3541067   -161.94039     20645.99    4.2319963    4.2319963    4.2319963     20645.99    10275.211   -2116.9069    53779.666   -3107.2933    12805.664   -1913.9597    75.794175 
   34900    1225.3418   -163.05894     1.108715   -161.95022   -2104.5855    4.2464094    4.2464094    4.2464094   -2104.5855   -45430.393   -16785.978    55902.614    32322.666    2730.9114   -2781.9359    76.571226 
   35000    1285.0246   -163.10544    1.1627173   -161.94273   -12991.579    4.2519608    4.2519608    4.2519608   -12991.579   -48233.048   -21200.794    30459.106    44690.448    11562.675    4543.0665    76.871923 
   35100    1108.7819   -162.93984    1.0032492   -161.93659    6521.9764    4.2357135    4.2357135    4.2357135    6521.9764   -24655.228    6379.2888    37841.868    61505.034     10835.22    5535.0782    75.994073 
   35200    788.93165   -162.65973   0.71384194   -161.94589   -16269.911     4.238222     4.238222     4.238222   -16269.911    -82778.62    -4476.907    38445.794    83332.898    13227.808   -4311.7752    76.129172 
   35300    578.51931   -162.47999   0.52345643   -161.95654   -12220.628    4.2404076    4.2404076    4.2404076   -12220.628   -13226.918    -45600.61    22165.645    82207.004     12249.91    5756.2108     76.24701 
   35400    600.73904   -162.51021    0.5435613   -161.96665    7754.6838    4.2346056    4.2346056    4.2346056    7754.6838   -40480.035    28972.547     34771.54    81589.559    16816.897   -11788.461    75.934457 
   35500    753.36271   -162.65296   0.68165841    -161.9713   -5564.4075    4.2410364    4.2410364    4.2410364   -5564.4075   -26016.354   -57400.082    66723.214    93675.716    2000.8166    642.14873    76.280936 
   35600    947.00791   -162.82446   0.85687266   -161.96759   -14412.268    4.2419038    4.2419038    4.2419038   -14412.268   -67950.694   -25454.556    50168.445    91113.794   -8124.4753    -10514.63    76.327747 
   35700     904.7619   -162.77807   0.81864758   -161.95942    20584.962     4.236069     4.236069     4.236069    20584.962   -13860.368    22098.179    53517.074    83143.234   -9489.0043    2578.7757    76.013211 
   35800    830.32997   -162.70943       0.7513   -161.95813   -18396.966    4.2421276    4.2421276    4.2421276   -18396.966   -55198.428   -39129.671      39137.2    92048.307   -4959.0953   -9582.6299    76.339826 
   35900    826.60377   -162.70922   0.74792846   -161.96129   -11656.752     4.233981     4.233981     4.233981   -11656.752   -67532.144   -21539.238    54101.125    87603.873   -20447.727    118.39682    75.900863 
   36000    873.49909   -162.75648   0.79036033   -161.96612    28655.136    4.2332243    4.2332243    4.2332243    28655.136    18354.839   -3030.8746    70641.444    71519.138   -13975.707   -50.513515    75.860177 
   36100    967.87272   -162.83925   0.87575158    -161.9635   -26542.811    4.2502004    4.2502004    4.2502004   -26542.811   -79733.058    -28256.41    28361.035    85647.136   -13575.566    12733.139    76.776485 
   36200    962.21748   -162.82935    0.8706346   -161.95872   -6116.4978    4.2365346    4.2365346    4.2365346   -6116.4978   -56283.411   -30507.451    68441.369    86573.857   -2867.7418    4121.3656    76.038277 
   36300    1046.1438   -162.90211   0.94657294   -161.95553    21337.813    4.2280938    4.2280938    4.2280938    21337.813    2237.5266   -11307.827    73083.741    88776.058    3056.4957   -379.75849    75.584689 
   36400     1024.385   -162.89068   0.92688509    -161.9638   -23921.994    4.2409883    4.2409883    4.2409883   -23921.994   -45451.761   -62272.895    35958.674    83991.657    2371.6026    430.49315    76.278336 
   36500    1097.7531   -162.95811   0.99327008   -161.96484    4800.6034    4.2392271    4.2392271    4.2392271    4800.6034    33510.051   -68870.478    49762.237    78119.091     19755.71   -12906.589    76.183346 
   36600    1082.2846   -162.94592   0.97927381   -161.96665     1201.944    4.2359784    4.2359784    4.2359784     1201.944   -43649.033   -2935.9172    50190.782    73591.762    1982.5157    221.99721    76.008332 
   36700    1080.4964   -162.94404   0.97765586   -161.96639     874.4294    4.2363561    4.2363561    4.2363561     874.4294   -21440.907   -44266.228    68330.423    66214.638    6858.9736   -7180.3839    76.028668 
   36800    1130.0431   -162.98599    1.0224867    -161.9635    4681.7906    4.2403377    4.2403377    4.2403377    4681.7906   -49362.577   -25432.593    88840.542    58838.555   -8537.3594   -8888.8011    76.243237 
   36900    1353.0457   -163.18738    1.2242641   -161.96312   -9700.6627    4.2400046    4.2400046    4.2400046   -9700.6627   -62803.487   -79.974252    33781.474     49991.26   -254.43436   -17147.161    76.225273 
   37000     1462.733   -163.28832    1.3235116    -161.9648    7021.8249      4.23646      4.23646      4.23646    7021.8249    8647.3452   -24340.477    36758.607    49359.369   -14609.995   -407.93746    76.034263 
   37100    1383.2195   -163.22397     1.251566    -161.9724   -971.33643    4.2324717    4.2324717    4.2324717   -971.33643   -41152.343    3707.8331      34530.5    50147.194   -10445.513    967.32382    75.819723 
   37200    1268.9217   -163.12637    1.1481471   -161.97822   -1528.6504    4.2332527    4.2332527    4.2332527   -1528.6504   -8262.3933   -12393.035    16069.477    55883.155   -16361.929    4699.7849    75.861702 
   37300    1101.0542   -162.97197   0.99625698   -161.97571   -12961.034    4.2482789    4.2482789    4.2482789   -12961.034   -58240.257   -7788.8832    27146.037    49717.475   -6029.0051     4320.802    76.672398 
   37400     1301.942   -163.14186    1.1780245   -161.96383   -8461.2773    4.2369264    4.2369264    4.2369264   -8461.2773    3064.5219   -52032.073    23583.719    47035.635   -8344.0545    25277.654    76.059379 
   37500    1562.2078   -163.37318    1.4135184   -161.95966    15373.464    4.2249992    4.2249992    4.2249992    15373.464    23487.684   -5216.4716     27849.18    46187.564   -11173.861    12310.361    75.418848 
   37600    1576.3258   -163.39422    1.4262927   -161.96793    -21101.46    4.2439167    4.2439167    4.2439167    -21101.46   -37717.171   -36375.983    10788.772    47269.773    2241.4545    24714.068     76.43646 
   37700    1395.0455   -163.22371    1.2622665   -161.96144   -7057.5296    4.2416015    4.2416015    4.2416015   -7057.5296   -4227.4532   -17014.278    69.142645    40261.917   -885.21522    25152.485    76.311431 
   37800    1334.5533   -163.17019    1.2075318   -161.96266    11781.721    4.2366529    4.2366529    4.2366529    11781.721   -28176.477    39750.679    23770.961    41693.848    4627.6323    2867.7787     76.04465 
   37900    1474.8788   -163.29993    1.3345013   -161.96542   -1475.8121    4.2294514    4.2294514    4.2294514   -1475.8121   -35694.457   -14117.879      45384.9    42084.297   -685.16104    23234.578    75.657524 
   38000    1553.7945   -163.38295    1.4059059   -161.97704    16329.243    4.2304028    4.2304028    4.2304028    16329.243   -35173.195    52524.407    31636.518    31414.949    6736.9848   -5343.2446    75.708592 
   38100    1414.1068   -163.25878    1.2795135   -161.97926   -26549.567    4.2441497    4.2441497    4.2441497   -26549.567   -57226.795   -25847.838    3425.9322    22105.715    1562.8608    9361.8023     76.44905 
   38200    1275.3986   -163.12424    1.1540075   -161.97023    7994.3846    4.2316964    4.2316964    4.2316964    7994.3846   -47529.831    41469.318    30043.666    26203.661    7347.5114   -769.33152    75.778065 
   38300    1222.4949   -163.07702    1.1061391   -161.97088   -9399.5958    4.2310883    4.2310883    4.2310883   -9399.5958   -42867.225    -17456.18    32124.618    24400.329    -1889.144   -3738.2311    75.745398 
   38400    1434.2437   -163.26877    1.2977338   -161.97104   -18036.136    4.2371803    4.2371803    4.2371803   -18036.136   -34177.776   -33352.676    13422.045    29203.565   -674.45012   -4088.5292    76.073049 
   38500    1538.6963   -163.36616    1.3922447   -161.97392    11048.691    4.2325276    4.2325276    4.2325276    11048.691   -6056.8855   -17744.281     56947.24    41855.064   -9363.4208    -9064.547    75.822728 
   38600    1396.9309   -163.24403    1.2639724   -161.98006    -10943.28    4.2356798    4.2356798    4.2356798    -10943.28    7164.4542   -66065.747    26071.452    37804.062   -9414.9896   -7081.7156    75.992262 
   38700    1237.6307   -163.09877    1.1198343   -161.97893    -8696.147    4.2352535    4.2352535    4.2352535    -8696.147   -14374.386   -15030.225    3316.1699    38882.428    1172.5645   -7763.2985    75.969318 
   38800    1035.8391    -162.9176   0.93724899   -161.98035    6909.0817    4.2337932    4.2337932    4.2337932    6909.0817    9763.0613   -29257.138    40221.322    37144.565    3870.4368    688.71872    75.890766 
   38900    1018.3482   -162.90056   0.92142287   -161.97913   -12240.822    4.2392813    4.2392813    4.2392813   -12240.822   -25733.625   -37708.682    26719.842    49011.133    10790.145   -590.84166    76.186271 
   39000    1116.9213   -162.98474    1.0106139   -161.97412    1569.4514    4.2368928    4.2368928    4.2368928    1569.4514    4496.9464   -23265.034    23476.442     47102.69    8540.2742    17346.539    76.057565 
   39100    1234.6546   -163.08497    1.1171414   -161.96783    8429.5804      4.23644      4.23644      4.23644    8429.5804    556.45453    2827.0518    21905.235     32959.71    24935.065    4844.5406    76.033183 
   39200     1357.279   -163.18976    1.2280945   -161.96167   -12519.995    4.2439918    4.2439918    4.2439918   -12519.995   -51278.924    7444.2509    6274.6886    37045.068    18706.997    7437.3651    76.440515 
   39300     1404.391   -163.22868    1.2707225   -161.95796   -11481.603    4.2379736    4.2379736    4.2379736   -11481.603   -26521.461   -17916.342    9992.9941    30912.413    19599.725    4781.5114    76.115784 
   39400    1377.6146   -163.20366    1.2464947   -161.95717    9726.9648    4.2345533    4.2345533    4.2345533    9726.9648   -18292.614    33893.647    13579.861    24198.264    14763.719    4149.5328    75.931645 
   39500    1340.6315    -163.1742    1.2130316   -161.96117    1526.9188    4.2361111    4.2361111    4.2361111    1526.9188    8856.7707   -29237.498    24961.483    31229.116    7221.2108    588.87975    76.015478 
   39600    1639.7884   -163.44699     1.483715   -161.96328   -339.84999    4.2352192    4.2352192    4.2352192   -339.84999   -15054.022    -16833.64    30868.112    19807.026   -2202.5861   -2970.8523    75.967474 
   39700    1910.8125   -163.68968    1.7289433   -161.96074   -9204.7991    4.2468811    4.2468811    4.2468811   -9204.7991   -19894.512   -6330.4971   -1389.3885    9268.5555    435.61823    3805.9543    76.596745 
   39800    2027.4046   -163.78723    1.8344383   -161.95279   -2048.8602    4.2416595    4.2416595    4.2416595   -2048.8602   -21152.219    16113.108   -1107.4696    7652.0966    3386.4247   -15670.017    76.314559 
   39900     1998.886   -163.75595    1.8086341   -161.94732    11181.517    4.2275706    4.2275706    4.2275706    11181.517    16495.169    10157.799    6891.5834    1156.4353   -9491.7995    3948.5578    75.556633 
   40000    1931.4394   -163.70289     1.747607   -161.95528    2243.2454    4.2408546    4.2408546    4.2408546    2243.2454    823.02387    15977.061   -10070.349   -4887.5265   -69.867076   -1236.5144    76.271122 
   40100    2135.1625   -163.87869    1.9319399   -161.94675   -25791.538    4.2490429    4.2490429    4.2490429   -25791.538   -7462.5938   -38956.603   -30955.417   -16067.073   -15385.762    21995.954    76.713775 
   40200    2301.6744   -164.02469    2.0826033   -161.94209   -1716.5001    4.2366184    4.2366184    4.2366184   -1716.5001    26260.117   -20145.896   -11263.721   -23716.786    6857.4421    392.28081    76.042793 
   40300    2149.1114   -163.89335    1.9445611   -161.94878    10799.195    4.2300565    4.2300565    4.2300565    10799.195    18159.984    12509.969    1727.6321   -25356.037   -7396.3999    6341.3041    75.690002 
   40400    1991.3072   -163.76087    1.8017766   -161.95909    11301.188    4.2276202    4.2276202    4.2276202    11301.188    38115.412    3437.9408   -7649.7895   -23998.121    10760.021    3973.4278    75.559293 
   40500    1791.7265   -163.59247    1.6211918   -161.97128   -2984.6384    4.2387778    4.2387778    4.2387778   -2984.6384    12943.658   -13071.385   -8826.1886   -29758.261    5663.4196     15263.41    76.159124 
   40600      1946.08   -163.72772    1.7608541   -161.96686   -3229.4774    4.2400308    4.2400308    4.2400308   -3229.4774    13171.251   -2130.9079   -20728.775   -31704.025    4228.9587    11553.808    76.226684 
   40700    2183.2732   -163.93805    1.9754715   -161.96258    5718.1108    4.2311455    4.2311455    4.2311455    5718.1108     11943.55    12664.977   -7454.1945   -30112.492    9454.0028   -2394.0661     75.74847 
   40800    2182.9359    -163.9397    1.9751663   -161.96453    172.26838    4.2297091    4.2297091    4.2297091    172.26838   -17063.031    13115.078    4464.7583   -38756.646   -649.37279    7810.7384    75.671355 
   40900    1939.9741   -163.72328    1.7553294   -161.96795    7039.6005    4.2330463    4.2330463    4.2330463    7039.6005    4308.2195    19568.359   -2757.7769   -26240.124   -3132.2991   -2227.7341    75.850608 
   41000    1681.4539   -163.48752    1.5214149   -161.96611   -24099.276    4.2438773    4.2438773    4.2438773   -24099.276   -27949.574   -30039.848   -14308.406   -20890.173   -9295.2077    8761.3624    76.434332 
   41100    1579.9805   -163.39343    1.4295995   -161.96383    3307.8789    4.2329589    4.2329589    4.2329589    3307.8789    6430.4789    641.81684    2851.3411   -19174.713   -16127.647   -3209.6804    75.845907 
   41200    1549.6165   -163.36628    1.4021256   -161.96416     14929.24    4.2266792    4.2266792    4.2266792     14929.24    22170.015     31994.93   -9377.2254     7635.359   -32173.499    1709.0798    75.508849 
   41300    1773.8863   -163.57116    1.6050496   -161.96611   -12237.586    4.2424661    4.2424661    4.2424661   -12237.586   -8665.6687   -8441.3173   -19605.772   -11988.907   -26371.307   -2086.5763    76.358106 
   41400      2026.18   -163.79936    1.8333303   -161.96603    12726.859    4.2373763    4.2373763    4.2373763    12726.859    24329.063    8620.0659    5231.4487    11026.993   -27276.073   -6775.6375    76.083606 
   41500    2039.8615   -163.80758    1.8457095   -161.96187   -19131.671    4.2369055    4.2369055    4.2369055   -19131.671   -8473.3703   -16546.808   -32374.836    -3389.503   -28796.899    -13980.61     76.05825 
   41600    1923.8699   -163.70025    1.7407579   -161.95949   -11691.974    4.2374002    4.2374002    4.2374002   -11691.974    5909.5153    -40056.53   -928.90569    4930.3181   -20526.994   -14375.378    76.084896 
   41700    1653.1555   -163.45837    1.4958098   -161.96256    9787.7836    4.2297183    4.2297183    4.2297183    9787.7836    28701.843   -9312.6582     9974.166    28053.076     1165.367   -12998.444    75.671846 
   41800    1572.4795   -163.39043    1.4228125   -161.96762   -12712.254    4.2375949    4.2375949    4.2375949   -12712.254   -2378.5529    -19812.96   -15945.251    26927.855   -602.52103   -20624.854    76.095384 
   41900     1691.136   -163.50017    1.5301754   -161.96999    6729.9563    4.2340372    4.2340372    4.2340372    6729.9563   -1116.7257   -3073.0438    24379.638     52527.36    13096.652   -12615.444    75.903886 
   42000    1750.3591   -163.55623    1.5837617   -161.97247    7855.8469    4.2302232    4.2302232    4.2302232    7855.8469    623.06522   -11861.199    34805.674    44084.824    6940.0517   -13870.363     75.69895 
   42100    1569.2105    -163.3924    1.4198546   -161.97255   -6362.4941    4.2393856    4.2393856    4.2393856   -6362.4941   -12839.477   -38110.758    31862.753    47577.014    13291.465    -11286.31    76.191895 
   42200     1455.725   -163.28425    1.3171706   -161.96708   -12605.978    4.2390947    4.2390947    4.2390947   -12605.978   -1752.8498   -58210.348    22145.262    39034.677    6779.3031    2637.5287    76.176209 
   42300    1564.2128   -163.37977    1.4153326   -161.96444   -5328.7082    4.2337697    4.2337697    4.2337697   -5328.7082     546.8772   -33989.659    17456.657     30602.15    3494.8383   -660.21268    75.889499 
   42400    1805.2131     -163.602    1.6333948   -161.96861     4673.285    4.2318449    4.2318449    4.2318449     4673.285   -31910.413    7085.1989    38845.069    36033.348     2819.482    11351.139     75.78604 
   42500    1823.6977   -163.62229      1.65012   -161.97217   -4103.9043    4.2353959    4.2353959    4.2353959   -4103.9043   -21897.763   -4486.0374    14072.088     21656.42   -2124.4976    6341.3826    75.976979 
   42600    1630.9289   -163.44677    1.4756988   -161.97107   -2687.0162    4.2409424    4.2409424    4.2409424   -2687.0162   -23545.385   -17895.532    33379.868    29396.648   -2851.8394    10496.986    76.275861 
   42700     1458.713   -163.28528    1.3198742   -161.96541    3812.1038    4.2403379    4.2403379    4.2403379    3812.1038    1604.3159   -19014.737    28846.733    26428.815   -3484.1652    14237.202    76.243249 
   42800    1710.2716   -163.50607    1.5474897   -161.95858    3297.7132    4.2394472    4.2394472    4.2394472    3297.7132   -5528.1933    1167.8241    14253.509    25273.295   -4420.3951    5417.1279    76.195213 
   42900    1814.1864   -163.59625     1.641514   -161.95473   -23251.878    4.2487323    4.2487323    4.2487323   -23251.878   -47460.507   -23224.632    929.50431    25353.932   -9029.8004    14478.025    76.696953 
   43000    1664.5505   -163.45733    1.5061202   -161.95121   -15350.774    4.2435752    4.2435752    4.2435752   -15350.774   -51234.126   -10412.742    15594.547    38124.645     176.8145    7903.8276    76.418009 
   43100    1625.5439   -163.41783    1.4708263     -161.947    10920.637    4.2259584    4.2259584    4.2259584    10920.637   -27295.852    16963.909    43093.854    35441.927   -7566.3706    13309.755    75.470225 
   43200    1700.5016   -163.49818    1.5386496   -161.95953   -4940.3296    4.2341612    4.2341612    4.2341612   -4940.3296    -25410.43    -13558.81    24148.251    35600.163   -9589.8686    14282.019    75.910553 
   43300    1849.8906   -163.64027    1.6738199   -161.96645   -1404.4368    4.2419955    4.2419955    4.2419955   -1404.4368   -35520.859   -1551.0288    32858.577    29141.999   -5670.5494    9625.4253      76.3327 
   43400    1775.5767    -163.5759    1.6065791   -161.96932    4950.4605    4.2328419    4.2328419    4.2328419    4950.4605   -25097.328   -6011.1316    45959.841    30146.619    -11986.63    6901.1829    75.839617 
   43500    1465.5398   -163.30026    1.3260512   -161.97421   -8229.0466    4.2296602    4.2296602    4.2296602   -8229.0466   -47800.299    22030.634    1082.5257    27210.207   -9498.1561   -3113.1643    75.668726 
   43600    1276.9521   -163.13266    1.1554131   -161.97724    7920.3926    4.2290399    4.2290399    4.2290399    7920.3926   -30711.133    24719.852    29752.458    17339.853   -11715.762   -1790.9094    75.635442 
   43700    1241.2609    -163.1028     1.123119   -161.97968   -8309.8394    4.2377154    4.2377154    4.2377154   -8309.8394   -31896.549   -5544.2675    12511.298     7309.819   -2386.8207   -8073.2587    76.101875 
   43800    1433.4093   -163.27123    1.2969789   -161.97425    -3923.261    4.2423151    4.2423151    4.2423151    -3923.261   -27737.837    20430.955   -4462.9015   -11728.718   -1343.6262   -9878.1724    76.349951 
   43900    1725.5299   -163.52888    1.5612957   -161.96758    6027.2834    4.2287891    4.2287891    4.2287891    6027.2834    10104.573   -12280.554    20257.831   -25832.716   -3775.5269   -5245.8205    75.621986 
   44000    1680.0035   -163.49381    1.5201025   -161.97371    2870.0313    4.2288277    4.2288277    4.2288277    2870.0313   -22305.072    21467.732    9447.4329   -43307.276     1495.646   -16312.425    75.624058 
   44100    1394.0518   -163.23988    1.2613674   -161.97852   -8166.5487    4.2334292    4.2334292    4.2334292   -8166.5487   -37482.569   -3342.0632    16324.986   -59709.574    28.930013   -6058.6425     75.87119 
   44200    1170.2578   -163.03982    1.0588739   -161.98094    2597.6789    4.2351423    4.2351423    4.2351423    2597.6789   -40633.188    29127.859    19298.366   -63365.908    1086.7525   -14240.985    75.963332 
   44300    1135.4287   -163.01059    1.0273598   -161.98323   -19320.666    4.2339432    4.2339432    4.2339432   -19320.666   -59931.252   -26015.203    27984.457   -74596.821    4155.2673   -5986.7436    75.898831 
   44400    1157.5801   -163.03173    1.0474028   -161.98432    7453.8023    4.2228575    4.2228575    4.2228575    7453.8023   -35550.703   -1876.5367    59788.647   -69251.299     184.7435   -8040.5457    75.304212 
   44500    1151.1944    -163.0328    1.0416249   -161.99117   -11128.072    4.2367761    4.2367761    4.2367761   -11128.072   -69433.214   -3923.0275    39972.025   -64009.054      2899.81   -5294.8724    76.051284 
   44600     1023.398   -162.91322   0.92599205   -161.98723   -20119.974    4.2349185    4.2349185    4.2349185   -20119.974   -83359.305   -10545.301    33544.686   -67402.727   -837.06484    3297.9368    75.951291 
   44700    874.34271   -162.77755   0.79112366   -161.98643    11770.098    4.2264437    4.2264437    4.2264437    11770.098   -50755.607    20792.619    65273.283   -75214.056   -5821.2958    1674.2595     75.49623 
   44800    870.31069   -162.77515   0.78747541   -161.98767   -20580.476    4.2331793    4.2331793    4.2331793   -20580.476    -64076.55   -37381.715    39716.838   -89820.159   -3736.2099    11770.656    75.857756 
   44900    801.18346   -162.71432   0.72492763    -161.9894    10742.562    4.2307203    4.2307203    4.2307203    10742.562   -14693.575    -1729.908    48651.167    -92291.89   -10981.521      11845.3    75.725638 
   45000    701.94367   -162.62979   0.63513338   -161.99466   -14580.746    4.2381636    4.2381636    4.2381636   -14580.746    3520.6708   -83878.382    36615.473    -93086.18   -1012.0849    16103.952    76.126023 
   45100    620.47408   -162.55449   0.56141799   -161.99307   -1330.8983    4.2278216    4.2278216    4.2278216   -1330.8983   -26153.251   -25550.991    47711.547   -91032.664    4041.8602     9214.617    75.570093 
   45200    748.18158    -162.6709   0.67697042   -161.99393    9176.5612     4.229733     4.229733     4.229733    9176.5612    2910.8537   -40950.284    65569.113   -84469.882   -1074.8848    10381.708    75.672637 
   45300    880.02854   -162.77905   0.79626832   -161.98278   -34682.348    4.2458495    4.2458495    4.2458495   -34682.348   -78623.757   -59715.573    34292.286   -88285.038     10761.04     7678.908    76.540937 
   45400    870.34308   -162.75797   0.78750471   -161.97047    24244.443    4.2362796    4.2362796    4.2362796    24244.443   -6715.1915    5267.5049    74181.014   -74033.094    10955.649     2370.771    76.024551 
   45500    800.63662   -162.69013   0.72443284   -161.96569   -3177.4814     4.239803     4.239803     4.239803   -3177.4814   -31691.763   -54700.754    76860.073   -77529.271    21260.362    7542.7012    76.214402 
   45600    859.86575   -162.74106    0.7780246   -161.96304   -7608.6874    4.2381916    4.2381916    4.2381916   -7608.6874   -58087.996   -12185.897    47447.831   -76361.506    17778.067   -1005.3643    76.127535 
   45700    955.77443    -162.8272   0.86480479    -161.9624    15326.539    4.2342518    4.2342518    4.2342518    15326.539    -15706.71    18494.645    43191.683    -65658.09    13985.014    7614.8129     75.91543 
   45800    1110.0334   -162.96811    1.0043815   -161.96373   -24918.252    4.2427283    4.2427283    4.2427283   -24918.252    -79679.48   -27540.901    32465.625    -69132.03    6899.1914   -8083.4161    76.372263 
   45900    1041.0469   -162.90768   0.94196108   -161.96571   -5378.8233    4.2376692    4.2376692    4.2376692   -5378.8233    -55586.96   -7354.2904    46804.781   -75806.332    4232.4206   -7981.0827    76.099385 
   46000    985.22339   -162.86573   0.89145083   -161.97428    3821.6985    4.2311061    4.2311061    4.2311061    3821.6985   -8921.1487   -28977.317    49363.561   -79328.636   -4922.9534   -17065.068    75.746359 
   46100    931.22084    -162.8231   0.84258818   -161.98051    674.93576    4.2292203    4.2292203    4.2292203    674.93576   -29262.822   -22224.983    53512.612   -83805.999   -531.53214   -9638.1522    75.645122 
   46200     997.4557   -162.88803   0.90251888   -161.98551   -2702.6742    4.2400218    4.2400218    4.2400218   -2702.6742   -21535.934   -44998.043    58425.954   -73081.932    -8705.895   -6965.5428    76.226197 
   46300    966.26215   -162.84706    0.8742943   -161.97277   -18701.142    4.2492264    4.2492264    4.2492264   -18701.142   -48078.378    -26753.39    18728.343   -73985.148   -7345.9542   -1059.9718    76.723711 
   46400    734.61436   -162.62809   0.66469451   -161.96339    6734.5553    4.2387649    4.2387649    4.2387649    6734.5553    2389.0759    -15921.26    33735.849   -76583.009    -5659.595    6960.5803    76.158429 
   46500     581.8237   -162.48438   0.52644631   -161.95793   -463.17214     4.234153     4.234153     4.234153   -463.17214   -25854.558   -28505.306    52970.347    -83855.59   -10726.423    3458.3249    75.910113 
   46600    896.67692   -162.77022   0.81133212   -161.95889   -24814.784     4.241889     4.241889     4.241889   -24814.784   -28959.514   -59296.461    13811.624   -64797.742    3090.1585     22118.39     76.32695 
   46700    1352.7976   -163.17742    1.2240397   -161.95338   -6049.3117    4.2504184    4.2504184    4.2504184   -6049.3117   -5263.7487   -4041.1815    -8843.005    -34546.64   -471.79116    18017.788      76.7883 
   46800    1777.5209   -163.54636    1.6083383   -161.93803   -12499.521    4.2509866    4.2509866    4.2509866   -12499.521   -25327.656   -19445.731    7274.8246   -23545.845    7828.8157    22817.893    76.819096 
   46900    1720.0454   -163.48476    1.5563332   -161.92842    10573.897    4.2286796    4.2286796    4.2286796    10573.897    5355.3443   -21916.772    48283.117   -14280.164   -1945.6121    16971.406     75.61611 
   47000    1658.8127   -163.43615    1.5009286   -161.93522    28287.767    4.2325594    4.2325594    4.2325594    28287.767    42586.858   -4271.7923    46548.237    3713.8402   -4720.0391    10995.324    75.824437 
   47100    2011.3974   -163.75256    1.8199546   -161.93261   -12392.552    4.2563303    4.2563303    4.2563303   -12392.552    9001.6981   -29524.425   -16654.929    16077.511   -8473.5874    2544.5352     77.10916 
   47200    2621.0081   -164.29813    2.3715432   -161.92658      -4130.7    4.2394596    4.2394596    4.2394596      -4130.7    5481.8627     2064.901   -19938.864    27734.111    2116.5884    5526.2557    76.195882 
   47300    2739.6182     -164.407    2.4788641   -161.92813     16777.42    4.2295763    4.2295763    4.2295763     16777.42    29184.651    23845.962   -2698.3537    31461.397    4990.6139   -1076.3607    75.664227 
   47400    2555.1347   -164.25116    2.3119396   -161.93922   -3765.3206    4.2362965    4.2362965    4.2362965   -3765.3206   -2589.4338    7045.6926   -15752.221    29709.021    3521.3612    1651.3155    76.025461 
   47500    2260.7114    -163.9883    2.0455392   -161.94276   -5694.4307    4.2413965    4.2413965    4.2413965   -5694.4307   -11710.614    15878.631   -21251.309     22869.34   -5762.0837   -5509.3074    76.300365 
   47600    2182.8638   -163.91286     1.975101   -161.93776   -23536.778    4.2504483    4.2504483    4.2504483   -23536.778   -17806.604   -14960.795   -37842.935    13430.549   -758.02264   -497.85381     76.78992 
   47700    2347.8465   -164.06258    2.1243809    -161.9382   -3427.9699    4.2384603    4.2384603    4.2384603   -3427.9699   -132.03422     10831.87   -20983.746    6495.5081   -9031.9516   -3675.5652    76.142016 
   47800    2266.9436   -163.98701    2.0511782   -161.93583    23158.142    4.2201389    4.2201389    4.2201389    23158.142    14942.159    52352.244    2180.0216    6226.1346   -456.63714     13373.97    75.158872 
   47900    1803.4111   -163.58839    1.6317642   -161.95663   -11305.843    4.2392664    4.2392664    4.2392664   -11305.843    7850.0662   -24211.656   -17555.938   -1407.8634    2420.9309    10542.726    76.185465 
   48000     1314.121   -163.14076    1.1890443   -161.95172   -9008.4956    4.2510103    4.2510103    4.2510103   -9008.4956    2662.5277   -25967.645   -3720.3693   -2712.6842    9229.9238    18006.952    76.820386 
   48100    1356.9602   -163.17348    1.2278061   -161.94568     795.8545     4.232591     4.232591     4.232591     795.8545    18901.727   -39312.729    22798.565   -2776.7282    6060.9774    18538.828    75.826132 
   48200    1461.4316   -163.27408    1.3223341   -161.95174    -2058.736    4.2287837    4.2287837    4.2287837    -2058.736    14881.915   -25813.908    4755.7855   -14118.011    2663.6316    23211.756    75.621695 
   48300    1532.0089   -163.34652    1.3861939   -161.96033    20279.874    4.2339857    4.2339857    4.2339857    20279.874    29839.395    13123.391    17876.837   -10589.727    1130.7866    19222.738    75.901114 
   48400    1380.7375   -163.21591    1.2493203   -161.96659   -22367.535     4.245596     4.245596     4.245596   -22367.535    8679.0562   -58033.892   -17747.769   -19083.088    7154.2821    10711.605    76.527229 
   48500    1101.7607    -162.9557   0.99689621    -161.9588   -17709.739    4.2419021    4.2419021    4.2419021   -17709.739   -7336.3351   -43232.638   -2560.2445   -35200.553    9984.0989      6177.59    76.327657 
   48600    1040.7248   -162.89484   0.94166963   -161.95317    19115.459    4.2274902    4.2274902    4.2274902    19115.459    51755.339   -21896.131    27487.168   -30825.402     3924.472   -2824.6406    75.552326 
   48700    1190.5095   -163.03748     1.077198   -161.96029   -16029.188    4.2403127    4.2403127    4.2403127   -16029.188    -15259.56   -24862.434   -7965.5705   -42622.568    3651.9736    3134.0704    76.241888 
   48800    1076.6985   -162.93268    0.9742194   -161.95846   -8386.3103    4.2444984    4.2444984    4.2444984   -8386.3103    4639.3985    6749.8693   -36548.199   -38951.103   -8611.2464   -6852.7779    76.467892 
   48900     922.9499   -162.78945   0.83510447   -161.95434   -9280.5856    4.2398127    4.2398127    4.2398127   -9280.5856    21839.836    -36421.07   -13260.523   -42854.055    4500.7236    6756.0348    76.214925 
   49000     887.5462   -162.75716   0.80307045   -161.95408   -3749.2793    4.2354601    4.2354601    4.2354601   -3749.2793    -23323.95    -7370.597    19446.709   -40196.383    626.99893   -1596.5996    75.980435 
   49100    938.02933   -162.81021   0.84874865   -161.96146   -1510.2714    4.2329515    4.2329515    4.2329515   -1510.2714    18445.781   -41945.302    18968.707   -25623.167    4809.6351   -9785.3867    75.845509 
   49200    1097.7467    -162.9588   0.99326428   -161.96553    -3953.848    4.2379428    4.2379428    4.2379428    -3953.848   -13925.471   -37859.224    39923.151   -22814.595    2139.0538    2229.2469    76.114129 
   49300    974.28756   -162.84613   0.88155586   -161.96458   -5639.4506     4.240416     4.240416     4.240416   -5639.4506   -12272.942   -48885.652    44240.242   -16145.251   -8186.2624   -9576.3023    76.247464 
   49400    865.25622   -162.74463   0.78290201   -161.96173   -7579.3022    4.2360103    4.2360103    4.2360103   -7579.3022    28843.051   -49815.907   -1765.0507    -9299.149   -3368.1547   -4797.1664    76.010051 
   49500    790.60057   -162.68183   0.71535201   -161.96648    -15645.12    4.2297479    4.2297479    4.2297479    -15645.12    -25645.16   -41229.038    19938.839    781.93974   -10477.674   -11853.029    75.673436 
   49600    750.73572   -162.65316   0.67928146   -161.97388    15338.436    4.2292769    4.2292769    4.2292769    15338.436    22617.652   -18870.198    42267.854   -6284.2772   -13693.355   -9484.2388    75.648157 
   49700    952.09663   -162.83678   0.86147704    -161.9753   -28899.084     4.241412     4.241412     4.241412   -28899.084   -43666.689   -37579.311   -5451.2536    927.27046   -978.14307   -7036.7801      76.3012 
   49800    1170.4788   -163.03397    1.0590738    -161.9749    1845.7164    4.2309677    4.2309677    4.2309677    1845.7164   -38068.368   -9063.2309    52668.748    6484.4571   -5032.5373    -788.8468    75.738925 
   49900    1240.0771   -163.09767    1.1220478   -161.97562    10746.168     4.227345     4.227345     4.227345    10746.168    -13499.58    23975.353    21762.731    7641.4918    7453.2548    9924.2928     75.54454 
   50000    995.62843   -162.87647   0.90086552   -161.97561   -28215.144    4.2401595    4.2401595    4.2401595   -28215.144   -61110.025    17240.023   -40775.429    13965.636    13906.123    3334.6733    76.233628 
   50100    725.72767   -162.62894   0.65665364   -161.97229    25793.054    4.2318921    4.2318921    4.2318921    25793.054    6502.9419    37994.281    32881.938    14675.968    20847.562    13461.975    75.788576 
   50200    685.14499   -162.59277   0.61993358   -161.97283   -9829.3334    4.2397059    4.2397059    4.2397059   -9829.3334   -44365.855    38980.751   -24102.897     14605.99    30967.092    16601.404    76.209162 
   50300    746.72355   -162.64146   0.67565116   -161.96581   -23718.937    4.2415032    4.2415032    4.2415032   -23718.937   -76591.845    31013.199   -25578.165    9025.5483    32577.151    17064.504    76.306122 
   50400    878.20383   -162.75608   0.79461728   -161.96147    28572.745    4.2288936    4.2288936    4.2288936    28572.745   -13636.967    59920.897    39434.305    952.58922    30617.206    11679.758    75.627592 
   50500    1105.7661   -162.96817    1.0005204   -161.96765   -29301.577    4.2400392    4.2400392    4.2400392   -29301.577   -58778.732    26791.193   -55917.192   -3336.5376    50228.192    8948.5349    76.227138 
   50600    1046.6105   -162.91601   0.94699518   -161.96901    1643.0247    4.2356353    4.2356353    4.2356353    1643.0247   -29663.186    56187.361   -21595.101   -3213.2909    38692.853    6500.2471    75.989863 
   50700    884.05578   -162.77358   0.79991225   -161.97367    4029.3096     4.234384     4.234384     4.234384    4029.3096    1097.9366     47953.19   -36963.198   -3627.8766    36592.765    8280.8249     75.92254 
   50800    808.23898   -162.70709   0.73131162   -161.97578   -30683.002    4.2345989    4.2345989    4.2345989   -30683.002   -42476.689    10555.365   -60127.681   -6305.0739    51283.873   -9754.6695      75.9341 
   50900    650.89866   -162.56772   0.58894678   -161.97878    23349.546    4.2272274    4.2272274    4.2272274    23349.546    -8465.541    74583.563    3930.6165   -9070.5628     41717.11   -13176.188    75.538233 
   51000    683.82583   -162.60034   0.61873998    -161.9816   -37191.551     4.243029     4.243029     4.243029   -37191.551   -21244.611   -23527.762    -66802.28   -1162.6288    29741.755   -20474.614    76.388503 
   51100    821.41543   -162.72195   0.74323394   -161.97872   -2401.3527    4.2324597    4.2324597    4.2324597   -2401.3527   -9666.8123    38118.241   -35655.487    3411.4049    25016.548   -32268.352    75.819076 
   51200    872.25835    -162.7655   0.78923769   -161.97626    10500.746    4.2296153    4.2296153    4.2296153    10500.746   -11.335517    62340.433   -30826.861    2435.3339    26038.769   -36789.655    75.666316 
   51300     1028.955   -162.90503   0.93102007   -161.97401   -23230.911    4.2416877    4.2416877    4.2416877   -23230.911   -6680.9035   -9978.8647   -53032.964    2744.3484    13208.097   -32157.835    76.316081 
   51400    1065.6196   -162.93014   0.96419498   -161.96594    16938.595    4.2367969    4.2367969    4.2367969    16938.595    23434.753    24997.323    2383.7097    834.27309    5598.1378   -32843.647    76.052404 
   51500    907.54867   -162.78182    0.8211691   -161.96065   -3808.9557    4.2473467    4.2473467    4.2473467   -3808.9557    5113.1191    9093.6183   -25633.605    5907.5176   -3935.0866   -37193.099    76.621937 
   51600    900.79095   -162.76765   0.81505458    -161.9526   -16101.088    4.2415137    4.2415137    4.2415137   -16101.088    9897.1315   -21045.256    -37155.14    404.26645   -11909.539   -40373.827    76.306692 
   51700     1084.516   -162.93486   0.98129287   -161.95357     21047.59    4.2220997    4.2220997    4.2220997     21047.59    49841.034    53677.203   -40375.466    6621.9722   -18710.953   -40338.829     75.26368 
   51800    1054.3048   -162.92678   0.95395714   -161.97283   -8444.3219    4.2318795    4.2318795    4.2318795   -8444.3219    15566.735    8065.3966   -48965.097    -409.4657   -30891.955   -43105.497    75.787899 
   51900    912.26251   -162.80815   0.82543429   -161.98272   -9469.0162     4.235553     4.235553     4.235553   -9469.0162    26347.289    -10746.93   -44007.407   -8860.3081   -26235.269   -47791.058    75.985437 
   52000    792.80781   -162.70502   0.71734917   -161.98767    -3873.916    4.2325774    4.2325774    4.2325774    -3873.916    33256.858    3286.7808   -48165.387   -9601.7161   -32788.535   -53820.783    75.825401 
   52100    748.18853   -162.66564   0.67697671   -161.98867   -17223.134    4.2333994    4.2333994    4.2333994   -17223.134    25331.349   -34091.396   -42909.356   -13166.761    -26006.22   -50821.852    75.869586 
   52200    874.66043   -162.77702   0.79141113   -161.98561    13838.219    4.2247905    4.2247905    4.2247905    13838.219    52648.594    19489.424   -30623.361   -3795.9046   -5417.1132   -48820.667    75.407671 
   52300    947.60011   -162.84632    0.8574085   -161.98892   -1900.8746    4.2356192    4.2356192    4.2356192   -1900.8746    41161.789       -33269   -13595.412   -6389.8554   -3368.5732   -56178.722    75.988999 
   52400    806.63915   -162.71185   0.72986405   -161.98198   -8034.3484    4.2447156    4.2447156    4.2447156   -8034.3484    31340.153   -42324.558   -13118.641    5160.3534    4492.6953   -44907.329    76.479633 
   52500    583.00912   -162.49764    0.5275189   -161.97012    13351.545     4.232998     4.232998     4.232998    13351.545    42782.426   -37011.725    34283.935   -11609.347    6591.8737   -52337.393    75.848012 
   52600    592.96835   -162.50486   0.53653022   -161.96833   -17264.497    4.2339529    4.2339529    4.2339529   -17264.497    44049.391   -76219.638   -19623.245    4830.2329    12768.458   -48775.124     75.89935 
   52700    684.53366   -162.58272   0.61938044   -161.96334   -11705.741    4.2422261    4.2422261    4.2422261   -11705.741    35850.333    -27662.22   -43305.337    -6622.978    13440.618   -47488.949    76.345147 
   52800     779.8257   -162.66681   0.70560268   -161.96121    -10675.75    4.2441343    4.2441343    4.2441343    -10675.75    21180.644   -7526.7213   -45681.172   -5895.3403    8267.1437    -40183.96    76.448215 
   52900    785.89702   -162.67206   0.71109614   -161.96096    -2002.503    4.2332752    4.2332752    4.2332752    -2002.503    37329.421   -15611.993   -27724.936   -8418.7867    4953.1814   -41091.071    75.862913 
   53000    820.02428   -162.70506   0.74197521   -161.96309    19522.207    4.2314616    4.2314616    4.2314616    19522.207    43593.727    3018.1184    11954.777   -8527.3936   -112.48404   -20321.627    75.765451 
   53100     851.4126   -162.73416   0.77037602   -161.96378   -26083.792    4.2468041    4.2468041    4.2468041   -26083.792     18105.47   -37876.171   -58480.675     5554.543    10638.672   -12843.737    76.592577 
   53200    902.17986   -162.77957    0.8163113   -161.96326   -4652.7544    4.2345026    4.2345026    4.2345026   -4652.7544    53496.341   -17420.997   -50033.607    943.12114    9041.1206   -13834.464    75.928916 
   53300    881.33517   -162.76047   0.79745059   -161.96301    14729.721    4.2247203    4.2247203    4.2247203    14729.721    41963.643    32671.068   -30445.549    69.511985   -1004.6461    6646.5593    75.403915 
   53400     853.9363   -162.74561   0.77265951   -161.97295    -20071.13      4.23642      4.23642      4.23642    -20071.13    21004.744   -21631.762    -59586.37    8233.8603   -2085.0842    19594.607    76.032108 
   53500    876.77428   -162.76813   0.79332379    -161.9748    6180.1667    4.2398143    4.2398143    4.2398143    6180.1667    26672.871    733.69703   -8866.0684    1234.8509   -11501.964    27503.776     76.21501 
   53600    806.50538   -162.70325   0.72974302   -161.97351   -15210.712    4.2354798    4.2354798    4.2354798   -15210.712     16316.99   -31720.257   -30228.868    220.31249   -15826.149    49359.458    75.981497 
   53700    619.14684   -162.53467   0.56021707   -161.97445   -165.59205    4.2269054    4.2269054    4.2269054   -165.59205     31945.35   -27658.616     -4783.51   -7032.9482   -3321.5911    50988.529    75.520973 
   53800    579.53656   -162.50211   0.52437686   -161.97773   -2627.4894    4.2389907    4.2389907    4.2389907   -2627.4894    11192.432     26848.26   -45923.161   -10119.711   -15012.848    48642.336    76.170603 
   53900    731.05882    -162.6246   0.66147738   -161.96312   -20280.906    4.2531134    4.2531134    4.2531134   -20280.906    10718.255   -32419.802   -39141.172   -9241.2539   -8641.8151     35439.17    76.934457 
   54000    1019.3181   -162.86747   0.92230041   -161.94517   -3430.0472    4.2417943    4.2417943    4.2417943   -3430.0472    29893.983   -32135.047   -8049.0778   -2501.3283   -16649.008    31048.284    76.321834 
   54100    1236.0013   -163.05895    1.1183599   -161.94059    9523.2857    4.2322365    4.2322365    4.2322365    9523.2857    36616.498   -1769.9734   -6276.6672   -11161.565   -6120.2267    29498.735    75.807081 
   54200     1335.163   -163.15919    1.2080835   -161.95111    -6857.865    4.2330841    4.2330841    4.2330841    -6857.865   -1695.2493   -18843.873   -34.472957    17997.278   -11078.976    30400.338    75.852637 
   54300    1396.2161   -163.22479    1.2633256   -161.96147    2237.3691    4.2384636    4.2384636    4.2384636    2237.3691    9368.1718    29072.115   -31728.179    1817.0349   -5277.0218    35734.768    76.142189 
   54400    1500.0071   -163.32065    1.3572379   -161.96341   -18547.391    4.2413485    4.2413485    4.2413485   -18547.391    3520.2114   -5502.1922   -53660.193    10316.471   -2456.3633    32744.588    76.297774 
   54500    1511.9188   -163.33128    1.3680159   -161.96326   -309.43204    4.2302745    4.2302745    4.2302745   -309.43204    9641.0376    17798.312   -28367.646   -1797.6954   -364.70717    39337.863    75.701701 
   54600    1338.8074   -163.18003    1.2113811   -161.96865    3037.2609    4.2334767    4.2334767    4.2334767    3037.2609    10135.385    19045.589   -20069.191   -10476.333    14012.975    37784.503    75.873743 
   54700    1296.2453   -163.13961      1.17287   -161.96674   -5279.2522    4.2377344    4.2377344    4.2377344   -5279.2522    10546.453   -17797.268   -8586.9421    696.67529    13446.004    38286.096    76.102898 
   54800    1382.9816   -163.21735    1.2513508     -161.966    2887.3862    4.2358599    4.2358599    4.2358599    2887.3862    18935.247    29802.101   -40075.189   -12116.225    11071.039    35369.471    76.001953 
   54900    1418.1715   -163.25256    1.2831913   -161.96937   -17114.165    4.2356017    4.2356017    4.2356017   -17114.165     13110.31   -3540.1695   -60912.634    1838.2518    9992.3965    39684.692    75.988055 
   55000    1427.6677   -163.26114    1.2917837   -161.96936    14123.065    4.2248765    4.2248765    4.2248765    14123.065    27471.883    31020.488   -16123.175   -4465.6437     7925.982    34768.294    75.412275 
   55100    1559.8125    -163.3844    1.4113511   -161.97305    1893.3967    4.2366304    4.2366304    4.2366304    1893.3967    7095.6317    25346.276   -26761.717   -10.630225    11159.332    29243.559    76.043435 
   55200    1593.6383   -163.40913    1.4419574   -161.96717   -29094.991    4.2394327    4.2394327    4.2394327   -29094.991   -11573.659   -40357.089   -35354.223    4732.8843    10808.325    16628.842    76.194433 
   55300    1486.6275   -163.30704    1.3451318   -161.96191    18959.796    4.2282384    4.2282384    4.2282384    18959.796    11384.175    43583.143    1912.0688    1649.7835    14881.354    15996.957    75.592448 
   55400    1553.3902   -163.36653    1.4055401   -161.96099   -5653.5838    4.2369081    4.2369081    4.2369081   -5653.5838    5849.9299    1259.8383    -24070.52   -1284.3971    7531.6241    3994.7003    76.058392 
   55500    1810.0464   -163.59743     1.637768   -161.95966   -3255.4433    4.2348056    4.2348056    4.2348056   -3255.4433    12471.053    10897.177   -33134.559    4356.2155    12688.357   -2181.9143    75.945217 
   55600    2017.7442   -163.78361    1.8256973   -161.95791    10595.372     4.236555     4.236555     4.236555    10595.372    8248.7761    22291.238    1246.1017    5921.0384    17215.407    -5805.729    76.039378 
   55700    2132.1882   -163.88184    1.9292487   -161.95259   -8107.5527    4.2393893    4.2393893    4.2393893   -8107.5527   -17201.473   -11515.266    4394.0812    921.93666    138.80685   -2799.9058     76.19209 
   55800    1987.1625   -163.75404    1.7980264   -161.95601    5610.3665    4.2321846    4.2321846    4.2321846    5610.3665    25460.362   -20684.444    12055.181     463.0261    5735.5642    3961.1578    75.804296 
   55900    1915.8185   -163.68926    1.7334728   -161.95579    10210.615    4.2315253    4.2315253    4.2315253    10210.615    27478.071    1909.5176     1244.257    4914.4389   -1430.2958    2680.1711    75.768871 
   56000    2132.1228   -163.88618    1.9291895   -161.95699   -8361.8468    4.2407821    4.2407821    4.2407821   -8361.8468      3500.36   -2168.6434   -26417.257    2678.1596   -8571.5151    2051.9738    76.267213 
   56100    2316.3031   -164.05192    2.0958397   -161.95608   -9235.9214    4.2395009    4.2395009    4.2395009   -9235.9214    13295.261   -21251.277   -19751.748    1167.7044   -4284.2871   -3576.5768    76.198108 
   56200    2453.4435   -164.17043    2.2199272    -161.9505    13987.302    4.2229374    4.2229374    4.2229374    13987.302    17483.518     3495.514    20982.875    267.21091   -16429.752   -4453.0743    75.308488 
   56300    2388.4297   -164.11911    2.1611014     -161.958   -4163.2027    4.2386791    4.2386791    4.2386791   -4163.2027    3868.7353   -23072.289    6713.9452    3254.7774   -9100.1389   -2327.3277    76.153804 
   56400    2248.3013     -163.983    2.0343102   -161.94869   -3564.5965    4.2395698    4.2395698    4.2395698   -3564.5965    11424.821   -25413.501    3294.8908     814.3452   -11380.946   -8335.6249    76.201827 
   56500    2279.6554   -164.00496    2.0626801   -161.94228    12440.354    4.2329733    4.2329733    4.2329733    12440.354    28226.693    5162.4068    3931.9636   -9293.6672   -5822.4523     691.4609    75.846681 
   56600    2445.6455   -164.15183    2.2128714   -161.93896   -13490.068    4.2429618    4.2429618    4.2429618   -13490.068    431.99772   -8514.1876   -32388.013    2576.0678   -5744.0379   -7976.0237    76.384874 
   56700    2535.2392   -164.23103    2.2939377   -161.93709    17110.269    4.2265236    4.2265236    4.2265236    17110.269    26482.277    22931.052    1917.4782    643.77395   -8446.7125   -10312.775     75.50051 
   56800    2448.7978   -164.16111    2.2157237   -161.94538   -3130.5613    4.2350147    4.2350147    4.2350147   -3130.5613     5525.253   -17925.167    3008.2301   -2129.0475   -652.71219   -7414.1533     75.95647 
   56900    2274.6732   -164.00296    2.0581721   -161.94479   -11126.452    4.2413837    4.2413837    4.2413837   -11126.452    10496.697   -31372.015   -12504.038   -1984.1707   -6677.2892   -10686.313    76.299674 
   57000    2034.2665   -163.78326    1.8406471   -161.94261    5121.5248    4.2311476    4.2311476    4.2311476    5121.5248    13924.526     16439.18   -14999.132   -329.46501   -1362.2517    381.02264    75.748587 
   57100    1817.5182   -163.58989    1.6445286   -161.94536   -15390.673    4.2388496    4.2388496    4.2388496   -15390.673   -798.89287   -9441.0799   -35932.046    2934.5094   -9898.6264   -13432.117    76.162998 
   57200    1696.7192   -163.48521    1.5352272   -161.94999    12493.421    4.2300571    4.2300571    4.2300571    12493.421    30345.021    30953.551   -23818.308    437.89797   -20641.825    3554.6487     75.69003 
   57300    1649.8237   -163.44925    1.4927952   -161.95646    10992.471    4.2325641    4.2325641    4.2325641    10992.471    23827.865     37891.19   -28741.643    2511.0368   -16473.925   -11400.111    75.824686 
   57400    1512.6466   -163.32817    1.3686744   -161.95949   -17448.787    4.2415564    4.2415564    4.2415564   -17448.787   -25107.273    1681.3759   -28920.465    -319.7455   -31319.166    6971.8711    76.308997 
   57500    1123.2925   -162.97487    1.0163787   -161.95849    7771.5484     4.229419     4.229419     4.229419    7771.5484    11294.502    26548.662   -14528.519    -1478.636   -29947.237   -8198.6347    75.655783 
   57600    802.54446   -162.68582   0.72615909   -161.95966   -9543.9697    4.2334874    4.2334874    4.2334874   -9543.9697   -4384.1191    19922.065   -44169.855    -5416.732   -22713.363    7882.1754    75.874322 
   57700    848.29737   -162.72612   0.76755729   -161.95856   -10141.264    4.2388808    4.2388808    4.2388808   -10141.264   -29545.391    15507.998   -16386.399    758.83205   -27082.924   -6379.7988     76.16468 
   57800    936.54158   -162.80569    0.8474025   -161.95829    13126.207    4.2354192    4.2354192    4.2354192    13126.207    972.68263    50536.384   -12130.446    1066.4813    -31419.99    635.58319    75.978238 
   57900    969.83533   -162.83523   0.87752739    -161.9577   -14915.681    4.2364897    4.2364897    4.2364897   -14915.681   -55302.832    10766.501   -210.71331   -9494.4023   -23183.297   -934.72849    76.035858 
   58000    842.23083   -162.72115   0.76206815   -161.95908    136.20974    4.2284703    4.2284703    4.2284703    136.20974   -54980.228    4116.0883    51272.768   -387.81987   -20464.997    1659.2362    75.604883 
   58100    534.44394   -162.45054   0.48357611   -161.96696   -959.93637     4.234555     4.234555     4.234555   -959.93637   -1482.3987    8292.3481   -9689.7585   -6083.9941   -19455.374    56.821945    75.931736 
   58200    417.80909   -162.34153   0.37804245   -161.96349   -23136.716    4.2419483    4.2419483    4.2419483   -23136.716   -59080.859   -23542.506    13213.215   -17519.484    1610.2616   -5514.3858    76.330151 
   58300    657.63946   -162.55439     0.595046   -161.95934   -1699.6541    4.2298022    4.2298022    4.2298022   -1699.6541   -18127.196   -17342.844    30371.078   -2629.0795   -4094.6284    433.60629    75.676352 
   58400    760.15504   -162.65394   0.68780426   -161.96614   -2276.0782    4.2317816    4.2317816    4.2317816   -2276.0782   -11510.534   -16937.355    21619.654    3582.9868    9738.5474   -5225.1326    75.782641 
   58500    693.32387   -162.59669   0.62733401   -161.96935   -6718.1498    4.2365563    4.2365563    4.2365563   -6718.1498   -63929.696   -27543.896    71319.142   -12633.564    13931.637    5189.3226    76.039447 
   58600    611.41977   -162.52276   0.55322545   -161.96954   -932.39374    4.2371158    4.2371158    4.2371158   -932.39374    23887.781   -57301.456    30616.494   -173.24586    14723.669    5619.7337    76.069577 
   58700    529.63437   -162.44936   0.47922431   -161.97014   -21086.153    4.2348933    4.2348933    4.2348933   -21086.153   -49612.223   -61941.489    48295.255     8719.201    19350.749    2128.4292    75.949939 
   58800    577.84717   -162.49098   0.52284826   -161.96813    14580.131    4.2287154    4.2287154    4.2287154    14580.131    25567.171   -32612.146    50785.369     -16567.6    13685.418    2517.8236    75.618033 
   58900    831.26179   -162.72102   0.75214314   -161.96888   -26631.031    4.2368392    4.2368392    4.2368392   -26631.031   -35550.433   -41322.757   -3019.9028   -20704.608    11261.384   -6996.8619    76.054681 
   59000    1076.1661   -162.93875   0.97373772   -161.96501    6117.8074    4.2324669    4.2324669    4.2324669    6117.8074   -29303.548   -13607.375    61264.345    1058.4194    9545.7578    822.16515    75.819465 
   59100    1246.5456   -163.09211    1.1279007   -161.96421    1193.8374    4.2384865    4.2384865    4.2384865    1193.8374    2216.4599    -34215.41    35580.462   -13859.713   -5135.6131   -6187.2565    76.143426 
   59200     1294.225   -163.13166     1.171042   -161.96062    -24123.44     4.237451     4.237451     4.237451    -24123.44   -49897.581   -36235.708    13762.969   -3127.6378   -6018.2943    760.16628    76.087632 
   59300    1253.8625   -163.09344    1.1345211   -161.95892     23424.22    4.2259217    4.2259217    4.2259217     23424.22     18065.21    2938.7607    49268.689   -2742.7199   -11318.163    -4379.627    75.468259 
   59400     1378.923   -163.21109    1.2476785   -161.96342    -14405.17    4.2351674    4.2351674    4.2351674    -14405.17   -13767.983   -3063.8542   -26383.673   -7759.2479   -19548.048   -1833.3517    75.964684 
   59500    1556.5271   -163.36897    1.4083784   -161.96059   -9653.9921    4.2389652    4.2389652    4.2389652   -9653.9921   -38289.932    22049.485    -12721.53   -12794.562   -19687.931    1575.2575    76.169227 
   59600    1599.8287   -163.40815    1.4475587   -161.96059    10431.427      4.23412      4.23412      4.23412    10431.427   -12635.076    21024.072    22905.286   -11407.245   -14381.364   -8838.2105    75.908341 
   59700    1800.3536   -163.59027    1.6289978   -161.96128    3540.0972    4.2292141    4.2292141    4.2292141    3540.0972   -26951.633    32666.357    4905.5676   -4923.8426   -26702.489    3385.7423    75.644789 
   59800    1826.9938   -163.61755    1.6531024   -161.96445    5585.3444    4.2337733    4.2337733    4.2337733    5585.3444   -19673.316    24317.368    12111.982    2267.6395   -20039.168   -6204.1039    75.889692 
   59900    1764.0338   -163.55733    1.5961348   -161.96119    1518.6085    4.2350854    4.2350854    4.2350854    1518.6085    3400.7146     13362.71   -12207.599    5122.5003   -13799.622    186.19591    75.960273 
   60000    1929.3617   -163.70421     1.745727   -161.95849    525.45506    4.2357677    4.2357677    4.2357677    525.45506   -14762.785    34486.795   -18147.645   -3938.6496   -18929.927    913.27299    75.996992 
   60100    2101.8104   -163.85967    1.9017622   -161.95791   -5223.7904    4.2376188    4.2376188    4.2376188   -5223.7904    -30710.25    28107.306   -13068.427    4126.2357   -17228.324    3873.7622     76.09667 
   60200    2298.2816   -164.03347    2.0795335   -161.95393    12332.305    4.2268805    4.2268805    4.2268805    12332.305   -7291.5808    21319.626     22968.87   -4109.3153   -14485.473    -1724.755    75.519639 
   60300    2316.5334   -164.05222    2.0960481   -161.95617   -5810.6787    4.2364914    4.2364914    4.2364914   -5810.6787   -20838.087   -2145.5979    5551.6485    5240.3472   -10050.677    4223.9253    76.035955 
   60400    2073.5416    -163.8253     1.876184   -161.94911    -12111.31    4.2404322    4.2404322    4.2404322    -12111.31   -5585.8612   -13172.765   -17575.303    5868.4389    -16275.37   -5704.9032    76.248337 
   60500    2058.9431   -163.80666     1.862975   -161.94369    16269.477     4.229044     4.229044     4.229044    16269.477    15871.342    17122.866    15814.224   -5457.4622   -11000.799    3017.2716    75.635662 
   60600    2309.5825   -164.03889    2.0897588   -161.94913   -4187.5249    4.2354774    4.2354774    4.2354774   -4187.5249   -2309.4027   -1468.4638   -8784.7081    7560.2885   -3011.8721   -8990.0719     75.98137 
   60700    2452.8751   -164.17129    2.2194129   -161.95188    12960.831    4.2303761    4.2303761    4.2303761    12960.831    17083.198    6213.4893    15585.806   -2035.1967   -7201.0957    626.43636    75.707159 
   60800     2457.314   -164.17764    2.2234293   -161.95421    2403.7014     4.234106     4.234106     4.234106    2403.7014   -16220.222   -6143.6701    29574.996    10243.112    4587.3883    -5325.776    75.907583 
   60900    2342.3364   -164.06693    2.1193952   -161.94754   -21399.412    4.2429233    4.2429233    4.2429233   -21399.412   -14024.803   -49332.673   -840.76102   -2845.3143   -935.06759    -5977.427    76.382793 
   61000    2133.9751    -163.8737    1.9308656   -161.94283    8920.1251    4.2266517    4.2266517    4.2266517    8920.1251    48423.076   -28261.895    6599.1949   -2117.5601      4432.94    599.00843    75.507375 
   61100    2102.4517   -163.85128    1.9023425   -161.94894   -1371.9597     4.230573     4.230573     4.230573   -1371.9597    16568.668   -20735.183    50.635641   -2017.5719    4076.2107   -9498.8591    75.717727 
   61200    2294.4269   -164.02654    2.0760457   -161.95049    5234.4556    4.2378322    4.2378322    4.2378322    5234.4556    45193.877   -24052.527    -5437.984   -3733.2468    4470.0735    6049.8258    76.108166 
   61300    2480.3568   -164.19498     2.244279    -161.9507   -7203.3274    4.2384302    4.2384302    4.2384302   -7203.3274    7887.3639   -20637.675   -8859.6712   -11323.214    13182.237   -7956.5016     76.14039 
   61400    2367.9171   -164.09609    2.1425412   -161.95355    6132.5047     4.231931     4.231931     4.231931    6132.5047    32102.212   -17950.498    4245.8002    4922.0796    6525.4744    468.07619    75.790666 
   61500    2069.2729   -163.82426    1.8723216   -161.95194    15018.904    4.2230707    4.2230707    4.2230707    15018.904    53676.518   -19979.574    11359.767   -1132.8161    16496.927    1513.3887    75.315623 
   61600    1664.7501   -163.46455    1.5063009   -161.95825   -10117.381    4.2412888    4.2412888    4.2412888   -10117.381    11870.474   -9759.9148   -32462.702    3188.0105    12780.242    5658.0348    76.294553 
   61700    1479.6505   -163.29076    1.3388189   -161.95194   -2779.8706    4.2402098    4.2402098    4.2402098   -2779.8706    15072.984     11819.83   -35232.426    -2593.565    13847.582    11933.142    76.236337 
   61800     1597.102   -163.39252    1.4450915   -161.94743   -18403.042    4.2317601    4.2317601    4.2317601   -18403.042   -5701.4387    2661.1024    -52168.79    2804.8239      23889.7    5692.8723    75.781485 
   61900    1557.4491   -163.36321    1.4092127     -161.954    14732.913    4.2293008    4.2293008    4.2293008    14732.913     5714.238    45151.033   -6666.5314    755.44155    6340.9921    14230.167    75.649441 
   62000     1244.041    -163.0869    1.1256344   -161.96127    712.54161    4.2348968    4.2348968    4.2348968    712.54161    21387.898    -1770.311   -17479.962    4967.5157    14471.953    13518.441    75.950124 
   62100    920.18908   -162.79192   0.83260642   -161.95932   -34262.456    4.2432884    4.2432884    4.2432884   -34262.456   -13604.986   -20865.838   -68316.544     14293.05     3012.329    20851.713    76.402517 
   62200    722.68518   -162.61271   0.65390074   -161.95881    8020.9316    4.2293082    4.2293082    4.2293082    8020.9316    537.06715     51329.97   -27804.242    7992.5119   -6557.4937    16026.509    75.649838 
   62300    799.21091   -162.68707   0.72314283   -161.96393   -7065.4605    4.2261744    4.2261744    4.2261744   -7065.4605    14822.779    17278.329   -53297.489    14344.431    -13157.26    24844.335    75.481801 
   62400    966.82225   -162.84749   0.87480109   -161.97269   -4079.2961    4.2341327    4.2341327    4.2341327   -4079.2961   -20025.738    58263.803   -50475.953    1860.5888   -17172.119     16189.02    75.909021 
   62500    950.01923    -162.8322   0.85959737   -161.97261   -9078.3496    4.2399751    4.2399751    4.2399751   -9078.3496   -48176.018    38825.684   -17884.714     6007.791   -18249.671    8701.5394    76.223683 
   62600    770.70802   -162.66783   0.69735281   -161.97048   -14371.156    4.2345479    4.2345479    4.2345479   -14371.156   -15297.182    17507.353   -45323.641   -612.03919    -17354.17    16938.276    75.931356 
   62700    441.59181   -162.36609   0.39956155   -161.96653    10781.098    4.2245233    4.2245233    4.2245233    10781.098    17740.248    50278.858   -35675.813   -10470.231   -11291.359    7797.8429    75.393364 
   62800    394.66097   -162.32581   0.35709754   -161.96872   -21608.763    4.2368497    4.2368497    4.2368497   -21608.763    -28834.73    20631.872   -56623.431    235.18053   -26128.593     710.7257    76.055243 
   62900    649.93705   -162.55555    0.5880767   -161.96748   -10548.739     4.236681     4.236681     4.236681   -10548.739    -28655.76    48104.799   -51095.256   -13437.672   -18480.462    2017.1476    76.046164 
   63000    838.84975   -162.72606   0.75900888   -161.96705     3815.544    4.2321343    4.2321343    4.2321343     3815.544    -20382.15    52644.458   -20815.677   -6402.5974   -22251.099   -6868.6127    75.801592 
   63100    783.36587   -162.67471    0.7088059   -161.96591    -22275.73    4.2352139    4.2352139    4.2352139    -22275.73   -56728.673    10701.352   -20799.868   -7215.8056   -22517.971   -3836.1778    75.967188 
   63200    608.53438   -162.51495   0.55061469   -161.96433    9140.3035    4.2278405    4.2278405    4.2278405    9140.3035   -10164.431     48994.39   -11409.048    -12748.74   -14138.956    -6236.377    75.571107 
   63300    468.04893   -162.39192   0.42350051   -161.96842   -7043.2022    4.2381486    4.2381486    4.2381486   -7043.2022   -8278.0135    13028.648   -25880.241   -4613.3645   -12496.939   -10634.757    76.125217 
   63400     636.2037   -162.53905   0.57565048    -161.9634   -14958.751    4.2380573    4.2380573    4.2380573   -14958.751   -33881.946    5199.6373   -16193.945   -2475.7047    -11519.81   -8993.9274    76.120297 
   63500    947.26949   -162.81833   0.85710934   -161.96122    17671.421    4.2253923    4.2253923    4.2253923    17671.421    3274.3242    52013.045    -2273.105    3074.1159    2257.6985   -15746.751    75.439898 
   63600    1194.5189    -163.0478    1.0808258   -161.96697   -10533.062    4.2364006    4.2364006    4.2364006   -10533.062   -24986.224   -923.06731   -5689.8948    8380.8451   -1505.5486   -10837.303    76.031065 
   63700    1187.7527   -163.03576    1.0747036   -161.96106   -3246.3287    4.2370744    4.2370744    4.2370744   -3246.3287   -29987.664   -12396.562     32645.24    8470.8229    1135.0236   -10894.295    76.067347 
   63800    967.99201   -162.83626   0.87585951    -161.9604    4202.3619    4.2353136    4.2353136    4.2353136    4202.3619    40649.516   -16144.036   -11898.395    3314.6643    15660.231   -3776.8664    75.972553 
   63900    908.58285   -162.78587   0.82210486   -161.96376   -15457.257    4.2338607    4.2338607    4.2338607   -15457.257    1954.6837   -45653.828   -2672.6276    20577.578    6481.0194   -46.298723    75.894396 
   64000    1044.1722   -162.91019   0.94478899    -161.9654    12595.081    4.2262713    4.2262713    4.2262713    12595.081    21488.714   -29306.508    45603.035    4069.5835    15887.537    12014.086    75.486989 
   64100    1423.8344   -163.25628    1.2883153   -161.96797   -9933.7439    4.2397814    4.2397814    4.2397814   -9933.7439    13220.706   -35502.057    -7519.881    4939.7936    20980.107    7828.4078    76.213232 
   64200    1794.2667   -163.58604    1.6234902   -161.96255   -11567.682    4.2339492    4.2339492    4.2339492   -11567.682    -18470.47   -35248.003    19015.429     8701.185    11407.209    11416.004    75.899154 
   64300    1833.4379   -163.61654    1.6589331   -161.95761    16741.146    4.2268932    4.2268932    4.2268932    16741.146    8691.1948   -20838.551    62370.795    4722.4635    14409.636    4571.9518     75.52032 
   64400    1713.8703   -163.50623    1.5507459   -161.95549    -12581.87    4.2370704    4.2370704    4.2370704    -12581.87    5849.5699   -39757.796   -3837.3853    1826.9047    12292.946    5993.4494    76.067134 
   64500    1744.3497   -163.53166    1.5783243   -161.95334   -4281.8598    4.2306265    4.2306265    4.2306265   -4281.8598    5412.0382   -19090.226     832.6085    1977.6393    4921.9964    8876.0997    75.720604 
   64600     1935.869   -163.70677    1.7516149   -161.95515    3275.9766    4.2370532    4.2370532    4.2370532    3275.9766    14173.802   -10495.134    6149.2621   -2005.3191    5768.5239    4343.5875    76.066207 
   64700    2269.9961   -164.00558    2.0539401   -161.95164   -917.94386    4.2348808    4.2348808    4.2348808   -917.94386    -13800.16    -5016.509    16062.838   -7695.6064    904.31162    10503.977    75.949262 
   64800    2446.4991   -164.16333    2.2136438   -161.94969    13863.031    4.2265327    4.2265327    4.2265327    13863.031   -14633.138    13081.444    43140.787    2959.7048    1105.3472   -409.53969    75.501001 
   64900    2360.8543   -164.08796    2.1361506   -161.95181   -3792.3686     4.236836     4.236836     4.236836   -3792.3686   -17152.064   -10020.496    15795.455   -7013.4694   -9381.3863     8428.178     76.05451 
   65000     2199.891   -163.93996    1.9905076   -161.94945    -3176.206    4.2315168    4.2315168    4.2315168    -3176.206   -6832.2939   -2734.0564    37.732221    1176.9785    -10516.52    3624.0389    75.768417 
   65100    2144.8662   -163.89361      1.94072   -161.95289   -4515.1908    4.2341417    4.2341417    4.2341417   -4515.1908   -12242.486   -1200.6439   -102.44265   -5466.7971   -7111.4224    2991.0981    75.909503 
   65200    2366.6094    -164.0951    2.1413579   -161.95374     3795.999    4.2295663    4.2295663    4.2295663     3795.999    849.20972    5356.1233     5182.664   -7700.4488   -14757.001   -1277.2625    75.663688 
   65300    2630.0947   -164.33732     2.379765   -161.95755    21440.297    4.2268537    4.2268537    4.2268537    21440.297   -3943.9254    23740.785    44524.032    7092.9519   -7198.2189   -3866.2151    75.518203 
   65400    2681.5807   -164.38295    2.4263505    -161.9566   -13509.361    4.2397523    4.2397523    4.2397523   -13509.361   -42261.235    146.90998    1586.2436   -9021.0929   -9003.4678   -8253.8892    76.211663 
   65500      2418.98   -164.14009     2.188744   -161.95135   -512.03186     4.229322     4.229322     4.229322   -512.03186   -13444.124    12528.328   -620.29991     7295.229   -8452.2812   -12067.188    75.650579 
   65600    2130.7107   -163.87981    1.9279118    -161.9519    15216.084     4.228268     4.228268     4.228268    15216.084    4524.4777    23433.924    17689.852    -14.98847   -3791.2347   -15248.675    75.594034 
   65700    2215.0083   -163.95682    2.0041861   -161.95263   -3611.9855    4.2339757    4.2339757    4.2339757   -3611.9855   -9994.7319   -2275.3927    1434.1682   -3925.0889      -6904.8   -16805.138    75.900577 
   65800    2651.4742   -164.35249    2.3991095   -161.95338   -573.88655    4.2324127    4.2324127    4.2324127   -573.88655    -22498.53    -52.83099    20829.701    11648.474   -5895.2424   -14122.487    75.816551 
   65900    2871.0785   -164.55158    2.5978122   -161.95377    3528.1008    4.2342037    4.2342037    4.2342037    3528.1008   -28286.165    1082.9211    37787.547   -8921.7316   -2935.8513   -11768.338    75.912839 
   66000    2714.9963    -164.4105    2.4565857   -161.95392    11181.279     4.228663     4.228663     4.228663    11181.279   -19653.225     22461.67    30735.393    8414.9127   -8958.5664   -15958.277    75.615221 
   66100    2382.3181   -164.11099    2.1555715   -161.95541    2567.6856    4.2303756    4.2303756    4.2303756    2567.6856   -14041.455    17900.583    3843.9285   -3445.2922   -6896.4835   -7897.8018    75.707132 
   66200    2197.3939   -163.94361    1.9882482   -161.95536   -6226.4439    4.2351155    4.2351155    4.2351155   -6226.4439   -13120.986   -2042.7237   -3515.6218   -3408.1229   -3242.9619   -13024.677    75.961891 
   66300    2379.2596   -164.10699    2.1528041   -161.95419    3395.3856    4.2299444    4.2299444    4.2299444    3395.3856    -11520.65   -1615.5802    23322.387    7382.1184   -6243.0204   -8711.0235    75.683984 
   66400    2619.7258   -164.32472     2.370383   -161.95434   -5469.5429    4.2328614    4.2328614    4.2328614   -5469.5429   -24286.378   -7422.3845    15300.134    -12791.53   -1455.6614   -4582.4763    75.840668 
   66500    2635.4085   -164.33865     2.384573   -161.95408    2594.8951    4.2323824    4.2323824    4.2323824    2594.8951    -19617.04    19636.773    7764.9521    8171.9516    1502.4996   -6503.4257    75.814924 
   66600     2403.845   -164.12776    2.1750495   -161.95271    14625.684    4.2307292    4.2307292    4.2307292    14625.684   -2137.8075    37190.652    8824.2081   -5886.6868    569.42857    4384.8235    75.726117 
   66700    2226.7297    -163.9668    2.0147918   -161.95201   -10000.583    4.2378025    4.2378025    4.2378025   -10000.583   -17767.862    12601.535   -24835.421   -5941.0856    4253.1046   -1665.1316    76.106566 
   66800    2264.1112   -163.99845    2.0486154   -161.94984    1862.3697    4.2299352    4.2299352    4.2299352    1862.3697   -13606.557    10400.908    8792.7578    6273.6233   -1366.7361    5302.8082    75.683491 
   66900    2425.3636   -164.14663    2.1945199   -161.95211    11474.325    4.2297254    4.2297254    4.2297254    11474.325   -1251.7556    7448.3276    28226.403   -6642.2171   -993.27526    8643.0291    75.672229 
   67000    2490.1905   -164.20743    2.2531767   -161.95425   -7090.6749    4.2353214    4.2353214    4.2353214   -7090.6749   -27062.193    -5352.671    11142.839    11082.174    383.62863    12727.267    75.972973 
   67100    2455.5651   -164.17402    2.2218469   -161.95217    1983.1975    4.2317341    4.2317341    4.2317341    1983.1975   -27532.321    17559.388    15922.525   -279.72357   -651.80731    14519.801    75.780087 
   67200    2358.8686   -164.08789    2.1343539   -161.95354    248.34906    4.2340916    4.2340916    4.2340916    248.34906   -7765.4853    15898.138   -7387.6057     3568.305    4778.7497     11671.76    75.906812 
   67300    2360.2181   -164.09029     2.135575   -161.95471    12276.231    4.2271169    4.2271169    4.2271169    12276.231   -11749.569    13778.881    34799.381    3285.1926    3411.8652    10824.464    75.532311 
   67400     2391.868   -164.12306    2.1642124   -161.95885   -7269.3169    4.2329957    4.2329957    4.2329957   -7269.3169   -26358.489   -23179.885    27730.423     -3928.76    6238.7871    15554.955    75.847888 
   67500    2365.2377   -164.09758    2.1401168   -161.95746    3530.6802    4.2366353    4.2366353    4.2366353    3530.6802    4123.6972   -28222.472    34690.815    8044.4539    11689.708    9300.0922    76.043699 
   67600    2209.4681   -163.95193    1.9991732   -161.95275    9749.0787     4.225878     4.225878     4.225878    9749.0787    2464.6646   -8948.1044    35730.676    426.94837    16657.672     13700.96    75.465918 
   67700    2018.5738   -163.78215     1.826448    -161.9557   -18974.062    4.2377728    4.2377728    4.2377728   -18974.062   -25217.445   -20938.218   -10766.523    2929.8879    11140.192    5355.4195    76.104971 
   67800    1924.3216   -163.69726    1.7411666    -161.9561    15212.104    4.2295662    4.2295662    4.2295662    15212.104     30314.22     4370.188    10951.904    -5617.644    13435.951    7074.7478    75.663682 
   67900    1975.7144   -163.74656    1.7876679    -161.9589   -5816.9668    4.2290078    4.2290078    4.2290078   -5816.9668   -9212.9478   -18043.196    9805.2438   -468.51997    13424.247    74.791618    75.633717 
   68000    1994.0173   -163.76276    1.8042288   -161.95853   -16220.964    4.2394962    4.2394962    4.2394962   -16220.964   -5682.7035   -52323.491     9343.303   -6099.6708    9439.1567   -9128.0171    76.197856 
   68100    1889.6365   -163.66631    1.7097828   -161.95652    13235.468    4.2269722    4.2269722    4.2269722    13235.468    44096.115   -27746.532    23356.821   -6107.9812    15078.511   -12557.637    75.524557 
   68200    1667.3009   -163.46985    1.5086089   -161.96124   -13687.499    4.2345969    4.2345969    4.2345969   -13687.499    20.540373   -44275.808      3192.77    2160.7902    157.66081   -19228.524    75.933992 
   68300    1472.0783   -163.29348    1.3319674   -161.96152    3768.1894    4.2333872    4.2333872    4.2333872    3768.1894    62129.806   -20310.619   -30514.619   -7010.2522    3855.4869   -24725.851    75.868934 
   68400     1372.171   -163.20318    1.2415692   -161.96161   -6119.8273    4.2313375    4.2313375    4.2313375   -6119.8273    21838.971   -5122.7795   -35075.673   -1525.7461   -897.51176   -37373.213    75.758784 
   68500     1251.533   -163.09664    1.1324133   -161.96423    -15882.72    4.2372098    4.2372098    4.2372098    -15882.72    15750.231   -49099.109   -14299.281   -1082.7962   -921.84148   -31795.994     76.07464 
   68600    1237.6505   -163.08326    1.1198522    -161.9634    8858.2378    4.2273219    4.2273219    4.2273219    8858.2378    78452.009    -35578.57   -16298.726    3351.2381   -2742.5128   -48915.063    75.543302 
   68700    1270.3209    -163.1157    1.1494131   -161.96629   -20180.436    4.2333199    4.2333199    4.2333199   -20180.436    24595.884    -51693.38   -33443.812    1880.5404    -10697.02   -50240.091    75.865317 
   68800    1179.6331   -163.03462    1.0673568   -161.96727     5139.537    4.2333283    4.2333283    4.2333283     5139.537    54387.157   -22817.178   -16151.368     6976.504    -4229.492   -40125.431    75.865768 
   68900     1071.531   -162.93667   0.96954377   -161.96713    3014.5568    4.2310013    4.2310013    4.2310013    3014.5568    62875.757    21182.831   -75014.917    1340.3545   -9917.7479   -53089.557    75.740728 
   69000    923.39961   -162.80364   0.83551138   -161.96813   -28325.879    4.2367209    4.2367209    4.2367209   -28325.879    35867.024   -36085.761     -84758.9    9824.2248   -1933.5856   -55301.119    76.048307 
   69100     892.7221    -162.7742   0.80775372   -161.96644    27246.162    4.2254891    4.2254891    4.2254891    27246.162    68349.159    18227.053   -4837.7266   -4830.9826   -4627.4308   -47940.126    75.445088 
   69200    1026.3831    -162.9009   0.92869303    -161.9722   -18519.016    4.2360978    4.2360978    4.2360978   -18519.016    35385.287   -33751.526    -57190.81    6001.6213    278.45524   -58533.719    76.014759 
   69300    1012.6392   -162.88413   0.91625727   -161.96787   -19692.755    4.2383982    4.2383982    4.2383982   -19692.755    33683.043   -44205.357   -48555.949   -4794.6868    3791.6227   -71734.677    76.138667 
   69400    943.52107   -162.81543   0.85371769   -161.96171     26732.34     4.223138     4.223138     4.223138     26732.34    47646.814    55737.252   -23187.045    48.859154    2369.5505   -64908.759    75.319221 
   69500    732.02259   -162.62935   0.66234943     -161.967   -30374.977    4.2370739    4.2370739    4.2370739   -30374.977    12854.109   -19107.957   -84871.084   -5400.8246    6915.8859   -77198.016    76.067319 
   69600    621.46548    -162.5292   0.56231503   -161.96688    11201.008    4.2334656    4.2334656    4.2334656    11201.008    30973.315    8253.6681   -5623.9583   -3459.6613    7545.1592   -73098.302    75.873146 
   69700    715.19064   -162.61453   0.64711952   -161.96741   -683.57379    4.2317501    4.2317501    4.2317501   -683.57379     37188.98   -13081.842   -26157.859    3265.5998    10632.898   -73231.203    75.780949 
   69800    716.89281   -162.61633   0.64865968   -161.96767   -10168.017    4.2369503    4.2369503    4.2369503   -10168.017    23613.566   -28873.217     -25244.4    182.61284    14610.164   -69472.535    76.060666 
   69900    642.19555   -162.54569   0.58107203   -161.96461    14516.236    4.2315507    4.2315507    4.2315507    14516.236    55796.746    18306.128   -30554.167    9016.3135    9935.5315   -74856.446    75.770236 
   70000    589.36588   -162.49723   0.53327064   -161.96396   -16323.114    4.2381635    4.2381635    4.2381635   -16323.114    60619.678   -17346.284   -92242.736    2672.3913    6913.3791   -73650.997    76.126019 
   70100    555.67495   -162.46079   0.50278637   -161.95801     5590.541    4.2352427    4.2352427    4.2352427     5590.541    42520.308    1822.9026   -27571.588     7001.752    10780.115   -65572.988    75.968735 
   70200    592.98964   -162.49531   0.53654949   -161.95876    2906.8519    4.2352991    4.2352991    4.2352991    2906.8519    47261.462    8524.8649   -47065.771      4953.97     70.25656   -72684.337    75.971771 
   70300    586.90391   -162.49014     0.531043    -161.9591    -13980.76    4.2339743    4.2339743    4.2339743    -13980.76    63381.782   -61138.142    -44185.92    7331.1201    4865.3459   -81564.765    75.900502 
   70400    614.52471   -162.51682   0.55603487   -161.96078    19660.315    4.2280263    4.2280263    4.2280263    19660.315    41513.271    53924.803   -36457.128    628.65266   -2576.9722   -68922.546    75.581073 
   70500    580.11623   -162.48879   0.52490136   -161.96389   -31194.574     4.242551     4.242551     4.242551   -31194.574    20360.611   -11594.003   -102350.33    8883.5857   -686.05558    -69752.73    76.362691 
   70600    625.97169   -162.53112   0.56639234   -161.96473   -4386.5969    4.2290513    4.2290513    4.2290513   -4386.5969    61335.435   -5300.1059    -69195.12    2079.5173   -5097.2133   -80177.824    75.636053 
   70700    824.91711   -162.71183   0.74640234   -161.96542    13415.998    4.2237609    4.2237609    4.2237609    13415.998    43995.842    27861.607   -31609.455    398.28246     2020.115   -71125.442    75.352553 
   70800    903.20152   -162.78158   0.81723572   -161.96434   -31632.901    4.2412416    4.2412416    4.2412416   -31632.901    7907.0258   -73322.362   -29483.365   -708.96718   -1741.5582   -77375.347    76.292004 
   70900    930.57157   -162.80408   0.84200071   -161.96208     13207.15    4.2293798    4.2293798    4.2293798     13207.15    42898.223    12844.683   -16121.455   -7680.3534   -180.82405   -66930.304    75.653682 
   71000    899.94553   -162.77736   0.81428962   -161.96307   -5145.5892    4.2328534    4.2328534    4.2328534   -5145.5892    37499.214   -25153.612   -27782.369   -5654.7252    8136.2784   -69692.168    75.840238 
   71100    1023.5272   -162.88744    0.9261089   -161.96134   -21055.159    4.2350251    4.2350251    4.2350251   -21055.159    18984.517   -27754.298   -54395.695   -10050.068   -384.00691   -69903.517     75.95703 
   71200    1308.6547   -163.14434    1.1840982   -161.96025    18126.595    4.2264316    4.2264316    4.2264316    18126.595    44476.921   -2100.0647     12002.93   -6141.3013    4268.5008   -54522.837    75.495581 
   71300    1491.1307   -163.31202    1.3492064   -161.96281   -10243.139    4.2356924    4.2356924    4.2356924   -10243.139    31852.771   -63901.923    1319.7348   -6836.8704   -2148.1148   -53279.874    75.992939 
   71400    1566.4819   -163.37713    1.4173858   -161.95975   -5290.9247    4.2332741    4.2332741    4.2332741   -5290.9247    14445.766   -42234.142    11915.603    290.34001   -1669.6136   -36653.326    75.862854 
   71500    1582.8972   -163.39025    1.4322386   -161.95801    8702.4626    4.2313039    4.2313039    4.2313039    8702.4626    16693.405   -11381.929    20795.911   -3107.0346   -289.14213   -26222.926    75.756981 
   71600    1658.9981   -163.46111    1.5010963   -161.96001    -837.3315    4.2287208    4.2287208    4.2287208    -837.3315    29338.965   -2466.7104   -29384.249    3710.8375   -5996.7289   -27297.876    75.618323 
   71700    1760.7516   -163.55492    1.5931651   -161.96175    9758.5721    4.2293856    4.2293856    4.2293856    9758.5721    19363.357    12277.183   -2364.8247    5910.3378   -1190.4039   -17726.528     75.65399 
   71800    1952.6864    -163.7262    1.7668317   -161.95937   -13892.102    4.2397952    4.2397952    4.2397952   -13892.102   -8266.3594   -7873.5306   -25536.417    2046.5012   -11.971693   -16076.197    76.213978 
   71900     2085.768   -163.84595    1.8872467    -161.9587    11335.417    4.2263167    4.2263167    4.2263167    11335.417    11405.725    6590.5311    16009.996    326.27013    1743.2023   -9638.7881    75.489424 
   72000    2129.1782   -163.88748    1.9265252   -161.96095    17636.336    4.2259766    4.2259766    4.2259766    17636.336    14027.141    36972.069    1909.7977   -3577.7882    5080.4717   -4688.7426    75.471201 
   72100    2159.7234    -163.9125    1.9541632   -161.95834   -16109.285     4.238768     4.238768     4.238768   -16109.285   -5206.4022    12830.945   -55952.397   -2889.0638    2452.3491   -916.84385    76.158597 
   72200    2146.3134   -163.89829    1.9420295   -161.95626    6791.8159    4.2299977    4.2299977    4.2299977    6791.8159    2561.3384    45877.495   -28063.386   -4171.8095    228.97386    14409.503    75.686842 
   72300    2118.6762   -163.87477    1.9170228   -161.95775    2067.6663    4.2301846    4.2301846    4.2301846    2067.6663    607.66441    20887.348   -15292.013   -3793.2691    3144.7741     17416.73    75.696877 
   72400    2035.6634   -163.80039    1.8419111   -161.95848   -3797.8286    4.2330615    4.2330615    4.2330615   -3797.8286    8520.1545   -12206.663   -7706.9778   -8022.2874   -6380.0758    16677.591    75.851422 
   72500    2149.8262   -163.90208     1.945208   -161.95687    3682.4441    4.2302741    4.2302741    4.2302741    3682.4441    422.33669    263.11518    10361.881   -1085.9648    1356.0516    23046.303    75.701683 
   72600    2273.7346   -164.01622    2.0573228   -161.95889   -7253.4118    4.2383702    4.2383702    4.2383702   -7253.4118   -20384.823   -2502.0768    1126.6647   -2685.0353   -9931.4558    26337.036    76.137159 
   72700    2426.9642   -164.15297    2.1959682   -161.95701    9990.2059    4.2298589    4.2298589    4.2298589    9990.2059    20888.794    12016.893   -2935.0698    3752.9151    202.27094    25090.345    75.679391 
   72800    2373.9046   -164.10477    2.1479588   -161.95682      11624.5    4.2271368    4.2271368    4.2271368      11624.5    16564.607    7113.7426     11195.15    6611.3322   -5717.6842     28472.11    75.533378 
   72900    2043.3025   -163.80448     1.848823   -161.95566   -21514.368    4.2394032    4.2394032    4.2394032   -21514.368   -43121.212    -43277.66    21855.767    13499.735    -1769.336    28157.356    76.192841 
   73000    1947.8171   -163.71465    1.7624259   -161.95223    6826.0942    4.2274366    4.2274366    4.2274366    6826.0942   -2756.5316   -19383.997    42618.812    20117.511    4724.7535    29223.987    75.549452 
   73100    2048.0312   -163.80894    1.8531016   -161.95584    3812.8914    4.2293765    4.2293765    4.2293765    3812.8914   -10931.575   -5969.4146    28339.664    12389.527   -2732.8917    29700.692    75.653504 
   73200    2203.2196   -163.94874    1.9935194   -161.95522   -16439.279    4.2388209    4.2388209    4.2388209   -16439.279   -51092.391   -6075.5437    7850.0961    28084.539    8090.8477    30439.996    76.161448 
   73300    2299.0707   -164.03291    2.0802475   -161.95267    18549.019    4.2257509    4.2257509    4.2257509    18549.019    13432.569    18228.859     23985.63    13625.892   -7831.4151    30538.218    75.459108 
   73400    2146.9341   -163.89867    1.9425911   -161.95608    5011.9968    4.2316217    4.2316217    4.2316217    5011.9968    9045.2415   -3458.1364    9448.8852    17409.029    5351.8624    27103.441    75.774053 
   73500    2101.9184   -163.85595    1.9018599   -161.95409   -5470.6553    4.2370418    4.2370418    4.2370418   -5470.6553   -8556.0835    -20196.67    12340.788    1269.4499   -6503.3153    28174.012    76.065591 
   73600    2323.0461   -164.05405     2.101941   -161.95211    3132.5298    4.2294052    4.2294052    4.2294052    3132.5298   -8461.8046     4852.796    13006.598    3407.4971    4802.6942    26175.995    75.655044 
   73700    2433.7799   -164.15875    2.2021352   -161.95661   -994.58819    4.2328045    4.2328045    4.2328045   -994.58819   -20396.045    17894.135    -481.8546   -2955.5946   -1465.0205    27298.053    75.837611 
   73800    2382.5734   -164.11386    2.1558025   -161.95806    7045.0674    4.2283418    4.2283418    4.2283418    7045.0674   -10457.389     38534.32   -6941.7287   -8707.8461    514.53379    26237.008    75.597994 
   73900    2152.1419   -163.90712    1.9473032   -161.95981   -4922.4959     4.231614     4.231614     4.231614   -4922.4959   -5978.4181    22959.384   -31748.454    374.50102    6620.0551    18806.804    75.773638 
   74000    2046.5244   -163.81137    1.8517383   -161.95963     -12959.3    4.2357169    4.2357169    4.2357169     -12959.3   -6189.4206    975.32016     -33663.8   -8724.1077   -5178.3789    13562.253    75.994257 
   74100    2211.6419   -163.95919    2.0011401   -161.95805    9056.2331    4.2246589    4.2246589    4.2246589    9056.2331    8521.5289    10231.819    8415.3518    5305.2012    8443.2971    6380.0286    75.400624 
   74200      2363.44   -164.10093    2.1384902   -161.96244    7355.6927    4.2308446    4.2308446    4.2308446    7355.6927    4537.0606    23548.588   -6018.5704   -3299.8018   -11592.758    8549.7487    75.732314 
   74300    2260.8784    -164.0085    2.0456903    -161.9628   -7916.9448    4.2355251    4.2355251    4.2355251   -7916.9448   -26384.795   -7190.3867    9824.3471     14413.84    2702.0866    8350.6193    75.983935 
   74400    1835.1846   -163.62236    1.6605136   -161.96184    2722.1981    4.2270191    4.2270191    4.2270191    2722.1981   -1778.3063    8321.0338    1623.8668    14065.695   -8866.4313    7256.1209    75.527069 
   74500    1376.1101   -163.20736    1.2451334   -161.96223   -6391.4648     4.230769     4.230769     4.230769   -6391.4648    16581.471   -21028.876    -14726.99     13875.89   -715.23612    10323.364    75.728255 
   74600    1266.6868   -163.10639    1.1461248   -161.96026   -12699.344    4.2359681    4.2359681    4.2359681   -12699.344   -4230.3099   -42674.702     8806.979     18156.42    6293.3916     6514.945    76.007782 
   74700    1543.7168    -163.3563    1.3967874   -161.95951    -9732.136    4.2327892    4.2327892    4.2327892    -9732.136    8144.6626   -30872.718   -6468.3522    11488.661   -570.79869    3354.5483    75.836785 
   74800    1841.5471   -163.62674    1.6662705   -161.96047    2678.6958    4.2321415    4.2321415    4.2321415    2678.6958    24048.201   -33229.707    17217.594    19328.525    14891.499   -7876.5311    75.801978 
   74900    1823.1825   -163.61211    1.6496538   -161.96245   -2495.9682    4.2321589    4.2321589    4.2321589   -2495.9682   -7924.2038    -11151.85    11588.149     11257.55    12414.946   -14104.808    75.802914 
   75000    1406.8626   -163.23751    1.2729589   -161.96455   -6308.3256    4.2319581    4.2319581    4.2319581   -6308.3256    3291.7878   -14200.655   -8016.1097    13794.756    14853.911    -20564.07    75.792122 
   75100    1037.2972     -162.903   0.93856826   -161.96443   -4374.1551    4.2326255    4.2326255    4.2326255   -4374.1551    17120.464   -34029.872    3786.9431   -2340.8104    13294.675   -31215.044    75.827987 
   75200    1189.1738   -163.03904    1.0759895   -161.96305   -7473.8446    4.2346043    4.2346043    4.2346043   -7473.8446   -9936.0917    1407.0779    -13892.52    550.80341    14153.486   -34658.814    75.934391 
   75300    1557.4132   -163.37359    1.4091802   -161.96441   -704.71747    4.2321232    4.2321232    4.2321232   -704.71747   -10037.357   -21278.261    29201.465   -266.70662    12686.365   -31086.032    75.800996 
   75400     1639.523   -163.45095    1.4834748   -161.96747    3852.8479     4.232501     4.232501     4.232501    3852.8479    22843.975     8172.356   -19457.788   -5513.9108    5457.8045    -31493.46    75.821297 
   75500    1362.2964    -163.1995    1.2326345   -161.96687    -12026.27    4.2369846    4.2369846    4.2369846    -12026.27    26728.701   -19951.487   -42856.023    3756.0451    2433.3245   -41117.696    76.062512 
   75600    1135.5942   -162.99309    1.0275095   -161.96558    10464.699     4.231626     4.231626     4.231626    10464.699    64736.875   -8191.6122   -25151.167   -4273.4827    -4864.935   -40828.389    75.774284 
   75700    1243.5442   -163.08805    1.1251849   -161.96286   -4316.4002    4.2343982    4.2343982    4.2343982   -4316.4002    58766.663   -34498.844    -37217.02    5191.8485   -1926.8136   -54143.418      75.9233 
   75800    1319.0715   -163.15331    1.1935236   -161.95979   -11152.159    4.2381192    4.2381192    4.2381192   -11152.159    27080.183   -66028.104    5491.4452   -1183.7704    -8566.653   -61950.769    76.123634 
   75900    1243.3509   -163.08295    1.1250101   -161.95794    7262.5442    4.2310042    4.2310042    4.2310042    7262.5442    31357.733   -10981.894    1411.7931   -262.77338   -9964.2088   -64480.882    75.740883 
   76000    957.66361   -162.82626   0.86651416   -161.95974   -11610.135    4.2328068    4.2328068    4.2328068   -11610.135    23507.251   -45345.303   -12992.352    2348.6861   -7726.9128   -70257.535    75.837732 
   76100    851.67129   -162.73428   0.77061009   -161.96367   -21684.702    4.2341306    4.2341306    4.2341306   -21684.702    38352.048   -54598.686   -48807.469   -4075.5651   -6893.8004   -73966.217    75.908911 
   76200    983.35059   -162.85676   0.88975628     -161.967    6058.5759    4.2280849    4.2280849    4.2280849    6058.5759    60514.025   -20075.155   -22263.143    2870.3172   -507.21502   -76401.124    75.584212 
   76300    1242.9452   -163.09617    1.1246429   -161.97153   -3628.6098     4.233317     4.233317     4.233317   -3628.6098    49780.799   -60991.215    324.58667    -1118.645   -2162.2547   -87801.799    75.865161 
   76400    1243.8149   -163.09508    1.1254298   -161.96965   -5186.2181    4.2354673    4.2354673    4.2354673   -5186.2181    54028.919   -47370.034   -22217.539    1434.1942    915.44842   -94424.001    75.980825 
   76500    922.30697   -162.80024   0.83452273   -161.96572    8284.4134    4.2313396    4.2313396    4.2313396    8284.4134    67933.271   -11589.316   -31490.715     2700.826    2161.0638   -92603.944    75.758898 
   76600     442.0716   -162.36389   0.39999567    -161.9639   -6196.9292    4.2366533    4.2366533    4.2366533   -6196.9292    62833.444   -20172.159   -61252.073   -5113.4436    2876.4756   -95686.814    76.044672 
   76700    358.42524   -162.28624   0.32431069   -161.96193   -3385.7089    4.2379363    4.2379363    4.2379363   -3385.7089     63582.88    9738.4516   -83478.459    226.23913    2614.7419   -101406.27    76.113776 
   76800    761.34081   -162.65052   0.68887717   -161.96164   -2784.0542    4.2311987    4.2311987    4.2311987   -2784.0542    63646.682   -31432.266   -40566.579    1201.7304    -3051.648   -103378.47     75.75133 
   76900    915.63379   -162.79489    0.8284847   -161.96641    7618.7229     4.232795     4.232795     4.232795    7618.7229    60938.697    4917.7969   -43000.325    4802.2708   -2753.0913   -99007.881    75.837101 
   77000    974.46408   -162.84908   0.88171557   -161.96736    -20306.14    4.2334467    4.2334467    4.2334467    -20306.14    59043.606   -48323.417   -71638.608   -1281.5674    406.82159   -105845.16    75.872134 
   77100    691.13029   -162.59361   0.62534921   -161.96826    16067.609    4.2288776    4.2288776    4.2288776    16067.609    50033.417    31163.682   -32994.271   -1263.0292   -1316.4733   -93901.736    75.626733 
   77200    690.13689   -162.59553   0.62445036   -161.97108   -28790.494    4.2348276    4.2348276    4.2348276   -28790.494    29986.618   -33534.098   -82824.002   -540.56913   -213.63995   -101146.03      75.9464 
   77300    841.96734   -162.73548   0.76182974   -161.97365    2412.8645    4.2269491    4.2269491    4.2269491    2412.8645    31704.453   -22248.755   -2217.1038    -3167.784   -202.04658   -96851.038    75.523315 
   77400    997.90059   -162.88127   0.90292143   -161.97835    84.387905    4.2307332    4.2307332    4.2307332    84.387905    20886.741   -19055.003   -1578.5736   -1155.4769    5636.2714   -88653.696    75.726333 
   77500    1029.3599    -162.9061   0.93138648   -161.97471   -20190.485    4.2352235    4.2352235    4.2352235   -20190.485    27883.017    -67517.93    -20936.54   -8426.4342    3324.1539   -93894.204    75.967704 
   77600    743.81928   -162.64623   0.67302332    -161.9732    8641.2356    4.2297195    4.2297195    4.2297195    8641.2356    47454.439   -5260.3794   -16270.353   -4672.4066    7757.6594   -80282.954    75.671913 
   77700    737.37741   -162.64189   0.66719458    -161.9747   -17839.245    4.2286583    4.2286583    4.2286583   -17839.245    45531.695   -44541.788   -54507.642   -9094.2193    8978.8607    -91124.97    75.614968 
   77800    872.51734   -162.76686   0.78947202   -161.97739    6805.4684    4.2279773    4.2279773    4.2279773    6805.4684    41096.732   -24819.357    4139.0297   -4972.4215    2413.3225   -84892.159    75.578445 
   77900    1210.3803   -163.07292    1.0951776   -161.97774   -15705.041    4.2376475    4.2376475    4.2376475   -15705.041    19959.737   -57374.221   -9700.6382   -482.45937     4980.249   -83980.157    76.098215 
   78000    1146.6441    -163.0104    1.0375076   -161.97289   -5832.2586    4.2329458    4.2329458    4.2329458   -5832.2586    18236.161   -51894.861    16161.924   -3095.8758   -104.41616   -83251.429    75.845204 
   78100    836.13784    -162.7273   0.75655509   -161.97075    13434.805    4.2251522    4.2251522    4.2251522    13434.805    43067.574    18628.952   -21392.111    3888.1489   -2916.7092   -82962.426    75.427044 
   78200    745.91238   -162.64937   0.67491719   -161.97446   -15854.786    4.2323163    4.2323163    4.2323163   -15854.786    36856.216    -30360.88   -54059.694     1891.055   -8685.3707   -82948.528    75.811371 
   78300    909.83177   -162.79777   0.82323491   -161.97453    1164.5779    4.2332889    4.2332889    4.2332889    1164.5779    32956.067    25427.439   -54889.773   -1187.7152    -12635.65   -73330.353    75.863647 
   78400    1210.6191   -163.06789    1.0953936   -161.97249   -4408.2407    4.2368231    4.2368231    4.2368231   -4408.2407    14497.418   -16430.636   -11291.504    4569.4086   -14565.533   -75930.418    76.053812 
   78500    1257.0715    -163.1098    1.1374247   -161.97238   -11271.622    4.2302808    4.2302808    4.2302808   -11271.622    21614.112   -14572.565   -40856.413    1474.9769   -14885.137   -75431.433    75.702039 
   78600    1098.4822   -162.96442   0.99392976   -161.97049    16518.426    4.2199236    4.2199236    4.2199236    16518.426    36011.902    26865.543   -13322.167    449.48175   -17087.203   -60516.782    75.147366 
   78700    900.12048   -162.79041   0.81444792   -161.97596   -19893.447    4.2396731    4.2396731    4.2396731   -19893.447    13209.449     2999.307   -75889.098   -982.49802   -13183.054   -57975.349    76.207392 
   78800    1014.4512   -162.88947   0.91789677   -161.97157   -23502.381    4.2359669    4.2359669    4.2359669   -23502.381    30912.073   -21436.511   -79982.706   -6454.0314   -9231.1655   -60400.666    76.007717 
   78900    1364.7782   -163.19966      1.23488   -161.96478    26705.514    4.2196216    4.2196216    4.2196216    26705.514    43490.933    11225.533    25400.075   -6105.3377   -4742.0173   -51515.534    75.131234 
   79000    1516.0972   -163.34301    1.3717966   -161.97122   -14560.406    4.2337158    4.2337158    4.2337158   -14560.406    11589.775   -41984.617   -13286.377   -9744.4876    3170.5861   -55944.097    75.886604 
   79100     1314.705   -163.15691    1.1895727   -161.96734   -9329.7231    4.2336746    4.2336746    4.2336746   -9329.7231    23679.995   -48782.818   -2886.3468   -9786.5492    3771.2519   -48197.979    75.884385 
   79200    986.26071   -162.85741   0.89238942   -161.96502    6796.6445     4.233343     4.233343     4.233343    6796.6445    14353.108    15810.792   -9773.9662   -11415.092    5103.5704   -43845.387    75.866559 
   79300    1135.0747   -162.99069    1.0270394   -161.96365   -21585.938    4.2369673    4.2369673    4.2369673   -21585.938    20143.864    -38825.38   -46076.299   -12423.445     1941.435   -46718.771    76.061577 
   79400      1577.97   -163.39108    1.4277804    -161.9633     11659.85    4.2224047    4.2224047    4.2224047     11659.85    57355.191   -12229.833   -10145.808    2236.2517     5337.884   -40623.535    75.279993 
   79500    1866.7272    -163.6632     1.689054   -161.97414    7509.2633    4.2319349    4.2319349    4.2319349    7509.2633     18251.66   -5400.0958    9676.2255      1351.06   -4999.1238   -41544.878    75.790877 
   79600    1816.8187    -163.6132    1.6438958   -161.96931   -19713.135    4.2404864    4.2404864    4.2404864   -19713.135   -2789.5493    -46344.97   -10004.884    7136.2282    984.71535   -38168.861    76.251259 
   79700    1524.9232   -163.34233    1.3797826   -161.96255    11275.186    4.2254106    4.2254106    4.2254106    11275.186    21283.247    15718.741   -3176.4307    1983.6642   -12301.399   -28211.806    75.440883 
   79800    1275.3761   -163.12039    1.1539871    -161.9664   -7787.8814    4.2342991    4.2342991    4.2342991   -7787.8814   -4150.3601   -1859.4971   -17353.787    -209.7958   -12633.465   -16917.589     75.91797 
   79900    1318.8796   -163.15665      1.19335    -161.9633   -22422.633    4.2356353    4.2356353    4.2356353   -22422.633   -5453.9949   -6837.4654   -54976.439    970.36205   -9078.9777   -16507.502    75.989867 
   80000    1670.0213   -163.47268    1.5110704   -161.96161    19502.123    4.2263311    4.2263311    4.2263311    19502.123     9497.916    21797.507    27210.945   -5678.3361    -13532.47   -10541.244    75.490197 
   80100    2062.4975   -163.82886    1.8661911   -161.96267   -5394.5878    4.2384863    4.2384863    4.2384863   -5394.5878   -19719.502    2923.4504    612.28794   -2544.0539   -6466.2129   -1608.9583    76.143416 
   80200    2259.3056   -164.00035    2.0442672   -161.95609   -6445.4198    4.2328313    4.2328313    4.2328313   -6445.4198   -8491.7108   -2101.3025    -8743.246   -12555.188   -14912.368    3569.4036    75.839049 
   80300    2051.9738   -163.81148     1.856669   -161.95481    15273.899    4.2284672    4.2284672    4.2284672    15273.899    7964.8886      27834.9    10021.909   -6943.6391   -5796.3359     11914.66    75.604717 
   80400    1802.7731    -163.5837     1.631187   -161.95251   -8346.3311     4.235671     4.235671     4.235671   -8346.3311   -14496.787    23164.446   -33706.652   -11518.372   -4977.0375    11273.994    75.991789 
   80500    1881.4578   -163.64952    1.7023825   -161.94714   -2933.2576      4.23317      4.23317      4.23317   -2933.2576   -30265.427    14589.952    6875.7015    -4742.287      2320.73    19594.839    75.857256 
   80600    2186.9531   -163.92269    1.9788011   -161.94389   -9476.8035    4.2434445    4.2434445    4.2434445   -9476.8035   -42450.513   -2821.8673     16841.97   -3686.5181    6271.4079    25612.586    76.410948 
   80700    2458.4102   -164.15976    2.2244212   -161.93534   -9566.7263    4.2398704    4.2398704    4.2398704   -9566.7263    -38564.17   -9574.4049    19438.396    -11885.44     4979.556    31885.057    76.218035 
   80800    2361.8316   -164.06886    2.1370348   -161.93183     4242.688    4.2263693    4.2263693    4.2263693     4242.688   -3684.9134   -1665.1195    18078.097   -10370.613    9789.6935    27881.672    75.492242 
   80900    2039.9046   -163.78595    1.8457485    -161.9402   -3499.1075    4.2342591    4.2342591    4.2342591   -3499.1075   -12095.116    12813.575   -11215.782   -12710.512    1646.9818    27834.759    75.915821 
   81000    1990.5255   -163.74642    1.8010693   -161.94535   -7404.1339     4.236602     4.236602     4.236602   -7404.1339   -18813.962    177.24309   -3575.6829   -5333.5649    7860.5444     26266.05    76.041906 
   81100    2322.8252   -164.05344    2.1017411    -161.9517   -10697.154    4.2318381    4.2318381    4.2318381   -10697.154   -34639.875   -13111.734    15660.148   -2349.5612    2108.3481    24547.908    75.785679 
   81200    2656.4886   -164.36102    2.4036467   -161.95738    16254.124     4.224963     4.224963     4.224963    16254.124   -20448.596    18997.227    50213.741    6844.8354    4729.7847    27350.392    75.416912 
   81300    2685.9385   -164.39446    2.4302936   -161.96417      7609.21     4.228943     4.228943     4.228943      7609.21    -14600.02    13191.731    24235.919    16118.602    5051.9165    19701.527    75.630243 
   81400    2339.1273   -164.07568    2.1164915   -161.95919   -16119.798    4.2395256    4.2395256    4.2395256   -16119.798   -22081.166    8568.4238   -34846.652    9745.2214    74.773844    28876.749    76.199443 
   81500    2078.5045   -163.83054    1.8806745   -161.94987   -4832.3889    4.2326416    4.2326416    4.2326416   -4832.3889   -5140.3881    15870.058   -25226.836    14828.798    12833.942    27925.825    75.828855 
   81600    2160.5087   -163.90095    1.9548737   -161.94607   -6457.9579    4.2335069    4.2335069    4.2335069   -6457.9579    -2153.192   -5000.9604   -12219.721    14464.673    1770.4035        23489    75.875371 
   81700    2464.1012   -164.17492    2.2295705   -161.94535    264.00662    4.2360904    4.2360904    4.2360904    264.00662   -3403.8141   -18528.479    22724.313    12425.628    8547.4579    29113.267    76.014364 
   81800    2554.2648   -164.25504    2.3111524   -161.94389   -4645.8358    4.2369375    4.2369375    4.2369375   -4645.8358   -18052.839   -14278.045    18393.377    11729.167    5083.4663    13888.417    76.059976 
   81900    2173.7321   -163.91033    1.9668384   -161.94349   -12880.085    4.2367164    4.2367164    4.2367164   -12880.085   -8264.7444   -11546.805   -18828.705    5975.9505    3117.4898    16563.225    76.048067 
   82000    1803.6671   -163.57739    1.6319959   -161.94539    8842.5652    4.2261776    4.2261776    4.2261776    8842.5652    26475.413   -2991.9231    3044.2059    371.66216    8541.6329    8706.1624    75.481969 
   82100    1779.3621    -163.5639    1.6100042   -161.95389   -10748.276    4.2312573    4.2312573    4.2312573   -10748.276   -10408.572   -20530.227   -1306.0284    2548.2896    6291.8316    7818.1562    75.754475 
   82200    2153.5878   -163.90993    1.9486115   -161.96132    27.396038    4.2313452    4.2313452    4.2313452    27.396038   -5060.7182   -22669.972    27812.878    -1397.159    7007.3719    9075.3444    75.759198 
   82300    2513.1595   -164.23885    2.2739595   -161.96489    9469.0989    4.2255891    4.2255891    4.2255891    9469.0989    513.55548   -13362.802    41256.543   -4575.2354    11557.542    4727.7602    75.450444 
   82400    2511.7665   -164.23999    2.2726992   -161.96729   -6131.7135    4.2330832    4.2330832    4.2330832   -6131.7135    -18010.68   -3326.8554    2942.3945   -4313.0406   -216.69111    13401.387    75.852589 
   82500    2237.5413   -163.99142    2.0245744   -161.96684    14031.035    4.2254094    4.2254094    4.2254094    14031.035    16250.965    22853.679    2988.4609   -4930.1623    6436.5049    15964.057    75.440816 
   82600    1968.2875   -163.74822    1.7809479   -161.96727   -250.92462    4.2289051    4.2289051    4.2289051   -250.92462    19382.619    229.88541   -20365.278   -5125.3894   -5178.2742    15372.332    75.628207 
   82700    1972.8464   -163.74707    1.7850729     -161.962   -10492.394    4.2385564    4.2385564    4.2385564   -10492.394    1155.4432   -17899.963   -14732.662   -2120.3769    155.50317    16641.278    76.147195 
   82800    2337.5591   -164.06985    2.1150726   -161.95478    8252.5495    4.2299868    4.2299868    4.2299868    8252.5495    8016.8536   -389.96405    17130.759   -7027.6376   -5106.0834    9158.4116    75.686257 
   82900    2608.5662   -164.31357    2.3602855   -161.95328   -5590.8004    4.2344196    4.2344196    4.2344196   -5590.8004   -4122.5876   -16232.415    3582.6015   -3584.7419   -9312.5434      7703.41    75.924454 
   83000    2332.5499   -164.06075    2.1105402   -161.95021   -6194.5864    4.2361066    4.2361066    4.2361066   -6194.5864    3111.8186   -11760.757   -9934.8205    171.29583   -6591.3243   -891.30228    76.015237 
   83100     1858.359   -163.62875    1.6814823   -161.94727   -1820.4268    4.2295051    4.2295051    4.2295051   -1820.4268    21861.676   -9144.2828   -18178.674    5475.5299   -4941.8098    3060.1599    75.660402 
   83200    1678.5757   -163.47015    1.5188106   -161.95134   -4532.0112    4.2323956    4.2323956    4.2323956   -4532.0112    26896.118   -27488.353   -13003.799    6496.1444   -1678.6809    2605.9148    75.815632 
   83300     1911.032   -163.68553    1.7291419   -161.95639    7289.9235    4.2304394    4.2304394    4.2304394    7289.9235    23920.664   -30163.175    28112.281    1223.1199   -3932.3394   -3901.3582    75.710554 
   83400     2241.837   -163.98957    2.0284613   -161.96111   -469.48738    4.2315945    4.2315945    4.2315945   -469.48738    8631.2505   -23391.132    13351.419    3514.7846    6475.2939   -328.70871    75.772592 
   83500    2180.1045   -163.93397    1.9726044   -161.96136    8335.4629     4.232487     4.232487     4.232487    8335.4629    6930.3265   -247.01578    18323.078    -873.2691    4872.3925   -6885.7509    75.820546 
   83600    1906.0881   -163.68292    1.7246685   -161.95825   -7985.9977    4.2317142    4.2317142    4.2317142   -7985.9977    8858.0962   -17064.813   -15751.276    439.75936    5114.1588   -13606.118    75.779019 
   83700    1719.5432   -163.51379    1.5558788   -161.95792   -9394.8089    4.2316126    4.2316126    4.2316126   -9394.8089    15540.988   -22930.065    -20795.35   -1702.7537    5012.8421   -16906.023    75.773563 
   83800    1764.2026   -163.55393    1.5962876   -161.95765    16412.587    4.2262628    4.2262628    4.2262628    16412.587     22854.75    7111.5102    19271.502   -3628.5432   -2061.8697   -16887.182    75.486539 
   83900    1935.5098   -163.71386    1.7512899   -161.96257   -13463.731    4.2348833    4.2348833    4.2348833   -13463.731   -7085.8384   -31513.435   -1791.9183   -1861.9761    535.71661   -17768.638    75.949401 
   84000    1965.5048   -163.74318    1.7784301   -161.96475   -1275.9832    4.2308055    4.2308055    4.2308055   -1275.9832    -12792.71    12508.103   -3543.3423   -5367.1951   -9659.6481   -17206.789    75.730214 
   84100    1742.2336   -163.54005    1.5764096   -161.96364    14143.904    4.2228112    4.2228112    4.2228112    14143.904    11210.248    47948.702   -16727.239   -626.76822   -7961.3619   -9493.7572    75.301738 
   84200    1384.3531   -163.22017    1.2525918   -161.96758   -24533.201     4.235869     4.235869     4.235869   -24533.201    1970.9532   -16823.549   -58747.006    1395.8192    -5628.313   -16804.756    76.002447 
   84300    1299.2609   -163.14304    1.1755986   -161.96745    6498.0069    4.2293299    4.2293299    4.2293299    6498.0069     19641.56    39634.714   -39782.253   -322.08195   -9582.2038   -19953.525    75.651003 
   84400    1564.7716   -163.38536    1.4158382   -161.96952   -3525.7117      4.22569      4.22569      4.22569   -3525.7117     27741.25   -23967.564   -14350.821    9009.3967    706.72094   -27357.541    75.455848 
   84500    1760.7029   -163.56641     1.593121   -161.97329    -3356.395     4.232084     4.232084     4.232084    -3356.395    13369.289    1328.8473   -24767.321    193.64736    -2354.925   -40096.389    75.798889 
   84600    1653.1812   -163.46774    1.4958331   -161.97191    9301.9854    4.2301499    4.2301499    4.2301499    9301.9854    10865.141    7586.3356    9454.4799    5761.1536    3102.7398   -43593.587    75.695014 
   84700     1251.662   -163.10312    1.1325301   -161.97059   -12500.196    4.2361994    4.2361994    4.2361994   -12500.196    14770.064   -17482.598   -34788.054   -674.34294    1996.5227   -50400.213    76.020232 
   84800    937.27947   -162.81165   0.84807016   -161.96358   -1779.5133    4.2315974    4.2315974    4.2315974   -1779.5133    42541.702   -10965.842     -36914.4   -2016.1638    7021.7983   -55314.335    75.772745 
   84900    926.10031   -162.79832   0.83795502   -161.96036    2407.3441     4.231933     4.231933     4.231933    2407.3441    60946.667   -58118.883    4394.2486    122.10339    6469.9632   -61124.572    75.790773 
   85000    1161.9256   -163.00953    1.0513347   -161.95819   -13299.643    4.2400426    4.2400426    4.2400426   -13299.643    49046.488   -55446.549   -33498.868    2586.0504    844.75683   -68741.061     76.22732 
   85100     1278.979   -163.11306    1.1572471   -161.95581      4668.18    4.2318994    4.2318994    4.2318994      4668.18    46382.798   -48002.762    15624.504     6614.056   -3347.5965   -86249.847    75.788972 
   85200    1042.1114   -162.90413   0.94292428   -161.96121    -9527.978    4.2303975    4.2303975    4.2303975    -9527.978    40061.212   -43814.827   -24830.318    7808.9941   -5346.0692   -93851.554    75.708307 
   85300    651.96343   -162.55824   0.58991021   -161.96833   -7374.5515     4.229164     4.229164     4.229164   -7374.5515     37761.97   -19821.525   -40064.099    5982.1197   -5589.3003   -95595.233    75.642102 
   85400    391.19413   -162.32628   0.35396067   -161.97232    4451.3748    4.2305235    4.2305235    4.2305235    4451.3748    32292.365   -26858.694    7920.4538    6129.9937   -10003.612   -92992.664    75.715069 
   85500    419.61979   -162.35256   0.37968081   -161.97288    -29338.36     4.239808     4.239808     4.239808    -29338.36    34253.167   -62684.861   -59583.386     8611.242   -7465.7233   -100249.86     76.21467 
   85600    678.18476   -162.58308   0.61363583   -161.96945    13258.011    4.2275808    4.2275808    4.2275808    13258.011    78108.456   -39883.971    1549.5491    3672.8071    -5559.561   -93449.071     75.55718 
   85700    988.13885   -162.86366    0.8940888   -161.96958    8571.3642     4.230853     4.230853     4.230853    8571.3642    75188.372   -14182.642   -35291.637    1722.2585   -1416.9056   -91950.486    75.732762 
   85800    1093.9663   -162.95313   0.98984373   -161.96328   -20142.065    4.2399698    4.2399698    4.2399698   -20142.065     59700.18   -31512.652   -88613.722    -965.9926   -1043.9129   -93392.219    76.223397 
   85900    960.04949   -162.82661   0.86867295   -161.95794    16058.583    4.2258397    4.2258397    4.2258397    16058.583    66709.718    7246.4883   -25780.457   -1816.1237    6396.7984    -86457.86    75.463868 
   86000    794.15786    -162.6823   0.71857072   -161.96373   -6616.9136    4.2306455    4.2306455    4.2306455   -6616.9136    49536.754    -24739.03   -44648.464   -4532.8921    3713.1949   -87303.186    75.721624 
   86100    901.78584   -162.78219   0.81595478   -161.96624   -21908.105    4.2334488    4.2334488    4.2334488   -21908.105    30377.657   -53485.498   -42616.474   -1132.0619    5881.3271   -81860.613    75.872243 
   86200     1254.836   -163.10242     1.135402   -161.96702    16627.507    4.2273013    4.2273013    4.2273013    16627.507    37207.747    5353.8224    7320.9528   -2291.9199    4325.4834   -73506.429    75.542197 
   86300    1518.4996   -163.34222    1.3739703   -161.96825   -6802.2298    4.2365616    4.2365616    4.2365616   -6802.2298    46586.265   -15472.466   -51520.488    2464.0833   -1536.9199   -65998.457     76.03973 
   86400    1505.2243   -163.32279    1.3619586   -161.96083   -6163.1323    4.2325901    4.2325901    4.2325901   -6163.1323     45770.81   -15512.114   -48748.093    429.25378   -1308.9658   -61871.127    75.826087 
   86500    1207.8703   -163.05005    1.0929064   -161.95715    14355.648    4.2300511    4.2300511    4.2300511    14355.648    46412.629   -13300.007    9954.3238    3816.7943    -6428.833   -51730.985    75.689708 
   86600    1152.8599    -163.0016    1.0431318   -161.95847   -16359.401    4.2329255    4.2329255    4.2329255   -16359.401    24985.699   -52405.827   -21658.074    8192.6119   -5028.7416   -50952.404    75.844114 
   86700    1474.4975   -163.29488    1.3341563   -161.96072    3471.0437    4.2282566    4.2282566    4.2282566    3471.0437    12016.965   -21588.357    19984.523    4044.5251   -6604.3697   -51427.386    75.593424 
   86800    1868.3551   -163.65557     1.690527   -161.96505    1062.9037     4.233275     4.233275     4.233275    1062.9037   -7432.8631   -1413.2353     12034.81    11975.388   -4780.7239   -42767.372    75.862899 
   86900    1988.0426   -163.76284    1.7988227   -161.96402   -7362.9794    4.2304872    4.2304872    4.2304872   -7362.9794    5606.3611   -6726.5613   -20968.738     6435.912   -4540.3196   -49160.966    75.713123 
   87000    1778.6814    -163.5725    1.6093884   -161.96311    7746.3429    4.2291221    4.2291221    4.2291221    7746.3429    19341.985   -5759.7571    9656.8014    11804.216   -6382.6233    -34888.28    75.639851 
   87100     1617.403   -163.42633    1.4634602   -161.96287   -11167.132    4.2324384    4.2324384    4.2324384   -11167.132    10783.478   -38098.058   -6186.8166    11727.587   -1763.7464   -27184.367    75.817935 
   87200    1747.1044   -163.54557    1.5808168   -161.96475   -3020.5941    4.2294244    4.2294244    4.2294244   -3020.5941   -3447.5054   -6800.6251    1186.3482    11119.784   -5204.1299   -20738.929    75.656073 
   87300    1993.5487   -163.77109    1.8038048   -161.96729   -375.57117    4.2301904    4.2301904    4.2301904   -375.57117   -32631.331   -1700.1237    33204.742    16785.103   -563.98419   -1658.8966     75.69719 
   87400    2126.2522   -163.89219    1.9238776   -161.96831   -434.14397     4.228926     4.228926     4.228926   -434.14397   -31429.893    17021.729    13105.732     3823.918   -1474.8344   -2136.2809    75.629331 
   87500    1978.6061   -163.76013    1.7902843   -161.96985   -4309.3907    4.2309233    4.2309233    4.2309233   -4309.3907   -16318.781    12858.632   -9468.0237     10098.05   -2065.3847    14922.801    75.736537 
   87600    1823.0502   -163.61593    1.6495341   -161.96639   -8736.3728    4.2306377    4.2306377    4.2306377   -8736.3728    9066.2733   -26223.976    -9051.416   -6988.6171     4981.217    9462.0034    75.721205 
   87700    1720.1242   -163.52048    1.5564045   -161.96408    -123.6801    4.2313944    4.2313944    4.2313944    -123.6801    26932.449   -4588.3268   -22715.163   -8728.5681   -921.26559    10890.222    75.761841 
   87800    1904.9129   -163.68497    1.7236052   -161.96137    -8343.871    4.2324672    4.2324672    4.2324672    -8343.871    16591.402   -35719.938   -5903.0775   -8481.9586    5395.4424    17035.121    75.819481 
   87900    2253.4958   -163.99861    2.0390103    -161.9596   -81.011168    4.2322485    4.2322485    4.2322485   -81.011168   -115.41248   -19689.546    19561.925   -21355.861    1484.5254     4141.231     75.80773 
   88000    2376.5172   -164.10761    2.1503227   -161.95729    1946.2617    4.2341333    4.2341333    4.2341333    1946.2617   -10233.108    3570.0749    12501.818   -7760.3193   -1787.7028    15397.646    75.909055 
   88100    2237.6215    -163.9788     2.024647   -161.95415    2130.4033    4.2291655    4.2291655    4.2291655    2130.4033    10442.544   -1915.1897   -2136.1441   -16201.814   -557.77273    10238.861     75.64218 
   88200    2017.9408   -163.78105    1.8258752   -161.95517    -3372.482    4.2307959    4.2307959    4.2307959    -3372.482     18391.65   -14602.312   -13906.784   -8997.0498   -3691.9051    11345.969    75.729699 
   88300    1983.3065   -163.74992    1.7945374   -161.95539   -6687.2286    4.2327675    4.2327675    4.2327675   -6687.2286    15083.979    -19252.96   -15892.705   -11045.324    241.99916    12688.987    75.835618 
   88400    2290.9388    -164.0297    2.0728896   -161.95681    247.66317    4.2293357    4.2293357    4.2293357    247.66317    4406.1656   -7553.5097    3890.3337   -13141.071   -3885.8818    10129.301    75.651316 
   88500     2620.776   -164.33051    2.3713332   -161.95918   -630.37404    4.2337692    4.2337692    4.2337692   -630.37404   -13099.727     652.9594    10555.645   -5813.7268   -7016.9966    16702.341    75.889476 
   88600    2650.0065   -164.35473    2.3977816   -161.95695   -522.48841    4.2331429    4.2331429    4.2331429   -522.48841   -17767.004    7932.9754    8266.5635   -20590.888   -3147.6235    4777.8682    75.855797 
   88700    2362.9422   -164.09142    2.1380397   -161.95338   -2571.7624    4.2337474    4.2337474    4.2337474   -2571.7624   -5863.7165    108.88295   -1960.4536   -14361.944   -13205.024    10753.929    75.888301 
   88800    2054.7287   -163.80899    1.8591617   -161.94983   -7077.0171    4.2345417    4.2345417    4.2345417   -7077.0171   -2282.6445   -14670.454   -4277.9529   -19677.504   -4606.0223    7483.2456    75.931019 
   88900    2034.3736   -163.79025     1.840744    -161.9495   -7732.4913    4.2302349    4.2302349    4.2302349   -7732.4913   -126.02502   -36469.962    13398.513   -22056.735     -11143.2    3146.5545    75.699578 
   89000    2267.0472   -164.00581     2.051272   -161.95454    4914.7262    4.2300863    4.2300863    4.2300863    4914.7262   -6024.4794   -4275.6207    25044.279   -15779.837   -277.81556    10865.929      75.6916 
   89100    2425.1262   -164.15299    2.1943051   -161.95868    4652.7097     4.229158     4.229158     4.229158    4652.7097   -25316.963    21495.906    17779.187   -18204.264   -7953.0122    576.49267    75.641781 
   89200    2280.4781   -164.02402    2.0634245   -161.96059   -4754.8015     4.232374     4.232374     4.232374   -4754.8015   -26520.541    2109.4899    10146.647   -10398.114   -4392.6731    5327.2123     75.81447 
   89300    1945.2301    -163.7193    1.7600851   -161.95922    2369.8453    4.2314623    4.2314623    4.2314623    2369.8453   -3222.7928    11361.483    -1029.154   -5617.5385   -3600.4478    395.00398    75.765487 
   89400    1750.9612   -163.54199    1.5843065   -161.95769    -736.5364    4.2280203    4.2280203    4.2280203    -736.5364    12929.015   -9018.5985   -6120.0256   -4732.8036    -6784.529   -2215.4196    75.580747 
   89500    1885.3889   -163.66682    1.7059395   -161.96088   -2637.7975    4.2307667    4.2307667    4.2307667   -2637.7975    8743.2579   -13489.503   -3167.1474    2759.1661    2055.5234    1436.8094    75.728127 
   89600    2295.1486   -164.03807    2.0766987   -161.96137    8812.0692    4.2295811    4.2295811    4.2295811    8812.0692    2676.5095     28042.86   -4283.1619   -753.42344   -3359.8991   -8719.3977    75.664485 
   89700    2624.6893   -164.33807     2.374874    -161.9632   -95.081306     4.232135     4.232135     4.232135   -95.081306   -13663.256    14108.204   -730.19211    9852.5299    5805.8263    1072.6272    75.801631 
   89800    2592.0283   -164.30789    2.3453217   -161.96256    3723.4214    4.2307927    4.2307927    4.2307927    3723.4214    -5083.101    7885.2622    8368.1031     5588.464     2771.643   -7767.9583    75.729528 
   89900    2277.2305   -164.02006    2.0604861   -161.95957    612.83057    4.2301478    4.2301478    4.2301478    612.83057    10651.231   -15269.211    6456.4716    11700.938     8677.331   -573.93742    75.694901 
   90000    1927.9115   -163.70125    1.7444149   -161.95683   -6781.1179    4.2358425    4.2358425    4.2358425   -6781.1179    6010.7903   -19585.162   -6768.9826    13175.201    5403.2483    -4249.109    76.001018 
   90100    1879.3057   -163.65308    1.7004353   -161.95265   -4777.3688     4.232035     4.232035     4.232035   -4777.3688    2124.1715    11479.309   -27935.587    9993.6237    4253.4631   -1419.0982    75.796257 
   90200    2186.1958    -163.9316    1.9781159   -161.95349   -7391.3915    4.2323882    4.2323882    4.2323882   -7391.3915   -19102.657    14579.565   -17651.082    21526.714    6337.6312   -909.95845    75.815237 
   90300    2484.2753   -164.20324    2.2478245   -161.95542    5829.1978    4.2308986    4.2308986    4.2308986    5829.1978   -24183.312    35360.499    6310.4065    14084.091    3569.4902   -251.02347    75.735215 
   90400    2419.6332   -164.14782     2.189335   -161.95849    1631.1468    4.2295015    4.2295015    4.2295015    1631.1468   -10977.483    11881.315    3989.6081    21756.587    5205.8058    1425.2919    75.660209 
   90500    2049.8928    -163.8143    1.8547861   -161.95951    -7187.917    4.2332844    4.2332844    4.2332844    -7187.917   -9197.5873   -14578.761    2212.5976    14479.392   -1666.8685   -3957.1364    75.863408 
   90600    1909.2957   -163.68772    1.7275709   -161.96015    1138.9871    4.2260436    4.2260436    4.2260436    1138.9871    11754.802    2759.1215   -11096.962    18461.814   -8097.7706    1833.0359    75.474791 
   90700    2118.8846   -163.88297    1.9172114   -161.96576    3528.7306    4.2277689    4.2277689    4.2277689    3528.7306    7927.5462    23849.356    -21190.71    18032.815   -17319.683   -1693.3574    75.567267 
   90800    2425.2656   -164.16259    2.1944313   -161.96815   -13.250142    4.2315255    4.2315255    4.2315255   -13.250142   -14852.031    39341.487   -24529.206    14487.753   -25618.181    835.62673    75.768882 
   90900    2442.8298   -164.17554    2.2103237   -161.96522    5334.1403    4.2296057    4.2296057    4.2296057    5334.1403   -4483.0303    26486.812   -6001.3604    18637.053   -25713.268    590.79131    75.665802 
   91000    2046.3617   -163.81375    1.8515911   -161.96216   -1306.8953    4.2331253    4.2331253    4.2331253   -1306.8953    2456.0971   -2160.4985   -4216.2845    12905.648   -24549.449   -1261.1207    75.854855 
   91100     1608.428   -163.41377    1.4553394   -161.95843    2332.0153     4.229784     4.229784     4.229784    2332.0153    13094.235   -4008.7542   -2089.4352    13168.112   -26589.304    3280.8781    75.675375 
   91200     1602.685   -163.40878     1.450143   -161.95864    220.87142    4.2305596    4.2305596    4.2305596    220.87142    12164.084    1253.6832   -12755.153    14440.952   -19713.502    2727.6764    75.717008 
   91300    1868.4475   -163.64867    1.6906106   -161.95806   -9367.7429    4.2371498    4.2371498    4.2371498   -9367.7429    -4124.696    6042.4025   -30020.935    9373.7377   -19807.004   -1097.0266     76.07141 
   91400    2153.8319   -163.90661    1.9488324   -161.95778    7801.7438    4.2289548    4.2289548    4.2289548    7801.7438    2469.6463    25734.529   -4798.9444    13919.129   -18723.603    3272.8456    75.630874 
   91500    2188.4753    -163.9414    1.9801785   -161.96122    4968.6253     4.227419     4.227419     4.227419    4968.6253    5841.9104    7474.5808    1589.3847     2994.618   -11555.673   -8024.3113    75.548506 
   91600    2002.4004   -163.77614    1.8118139   -161.96432   -1887.8464    4.2331356    4.2331356    4.2331356   -1887.8464    15182.719   -22902.503    2056.2452    4722.9093   -4442.4023   -119.05767    75.855408 
   91700    1695.6412   -163.49915    1.5342518   -161.96489   -2700.6628    4.2313554    4.2313554    4.2313554   -2700.6628    15989.372   -31991.077    7899.7164   -998.19323    3627.2956   -6163.8945    75.759748 
   91800    1580.9262   -163.39587    1.4304553   -161.96541   -6547.8091    4.2308653    4.2308653    4.2308653   -6547.8091    31102.572   -23409.685   -27336.315   -4264.2016    11197.858   -5114.1763    75.733426 
   91900    1671.7357   -163.47841    1.5126215   -161.96579   -1377.6951    4.2287322    4.2287322    4.2287322   -1377.6951    41540.182   -5503.3876   -40169.879   -2634.7546    20240.841   -2969.2343    75.618933 
   92000    1997.4424   -163.77386    1.8073279   -161.96654    2955.5104    4.2302832    4.2302832    4.2302832    2955.5104    20462.752    48.698721    -11644.92   -11345.168    19890.762   -10142.772    75.702167 
   92100    2222.3111   -163.97921    2.0107938   -161.96841     315.0325     4.232732     4.232732     4.232732     315.0325    21218.559     -16381.3   -3892.1615   -5188.8347    18168.984   -3613.3009     75.83371 
   92200    2091.4297   -163.86095    1.8923696   -161.96858    1777.4849    4.2287743    4.2287743    4.2287743    1777.4849    18565.977   -28372.728    15139.205   -20780.014    21242.394   -11294.012    75.621192 
   92300    1691.8192   -163.49879    1.5307936     -161.968   -75.132126    4.2281731    4.2281731    4.2281731   -75.132126    24241.796   -52075.595    27608.403   -16863.158     14871.84    5297.9558    75.588941 
   92400    1336.9033   -163.17785    1.2096582   -161.96819   -10421.601    4.2309264    4.2309264    4.2309264   -10421.601    27241.798   -44490.216   -14016.387   -20665.768    7852.6077    4357.3526    75.736708 
   92500    1385.6234   -163.22055    1.2537411   -161.96681   -3574.2938    4.2310728    4.2310728    4.2310728   -3574.2938    15816.491   -19344.358   -7195.0143   -16794.954    8929.4897    5646.3743    75.744567 
   92600    1893.2153   -163.68021     1.713021   -161.96719   -3383.3394    4.2315277    4.2315277    4.2315277   -3383.3394   -4236.1021   -21042.301    15128.385   -5817.7273    4732.1921    11881.878    75.769001 
   92700    2246.5007   -164.00115    2.0326811   -161.96847    6398.2798    4.2287527    4.2287527    4.2287527    6398.2798   -9865.8032    1819.4691    27241.174   -3346.3359     -1077.36    8053.4668    75.620035 
   92800    1996.5474   -163.77519     1.806518   -161.96868    7682.1129    4.2292764    4.2292764    4.2292764    7682.1129   -18019.219   -10102.209    51167.767    22785.634    3479.4689    10256.716    75.648131 
   92900    1407.5187   -163.23951    1.2735525   -161.96595   -17597.462    4.2360779    4.2360779    4.2360779   -17597.462   -16894.092    -43477.26    7578.9646    30309.536   -5906.3646    6384.3971    76.013689 
   93000    1113.3809   -162.96989    1.0074105   -161.96248   -3734.4226    4.2316564    4.2316564    4.2316564   -3734.4226    -4004.821   -4825.5819   -2372.8648    41048.453   -2488.8487    6572.7853    75.775916 
   93100     1280.172    -163.1219    1.1583266   -161.96357   -4775.7081    4.2273676    4.2273676    4.2273676   -4775.7081   -23556.798   -11819.609    21049.283     50834.33    -6538.587    2602.2305    75.545753 
   93200    1653.8609   -163.46509    1.4964481   -161.96864    -1954.248    4.2291353    4.2291353    4.2291353    -1954.248   -29461.963    245.38184    23353.837     54318.31   -4705.7002   -888.78992    75.640562 
   93300    1876.6526    -163.6709    1.6980347   -161.97287    6834.3452    4.2308113    4.2308113    4.2308113    6834.3452   -35656.678    20619.494    35540.219    60482.965   -6210.4904   -154.45297    75.730524 
   93400    1648.8955    -163.4661    1.4919553   -161.97414   -5899.6032    4.2330312    4.2330312    4.2330312   -5899.6032   -36542.205   -27374.897    46218.292    58185.671   -6222.2047   -10856.655    75.849793 
   93500     1313.624   -163.15973    1.1885946   -161.97114    4925.4038    4.2269248    4.2269248    4.2269248    4925.4038   -14868.332   -3863.4144    33507.958    61461.983   -3001.3277   -6923.1593    75.522014 
   93600    1057.2295   -162.92703   0.95660348   -161.97042   -7019.1331    4.2295156    4.2295156    4.2295156   -7019.1331   -10475.648   -11152.816    571.06489    60583.042   -1800.9453   -9886.6668    75.660965 
   93700    1041.1532   -162.91303   0.94205733   -161.97097   -4275.8521    4.2330464    4.2330464    4.2330464   -4275.8521   -365.49172   -2643.1763   -9818.8883    54113.392    813.02216   -4450.4577    75.850609 
   93800    1359.4562   -163.19843    1.2300645   -161.96837    399.30867    4.2289741    4.2289741    4.2289741    399.30867   -5940.4311    8662.7722   -1524.4151     57450.25      1705.04   -3192.3618    75.631909 
   93900     1708.571   -163.51608    1.5459509   -161.97013    -9041.373    4.2329376    4.2329376    4.2329376    -9041.373   -23670.411   -25914.167     22460.46    53589.146    4966.8076   -10020.721    75.844761 
   94000    1750.4529   -163.55493    1.5838466   -161.97109    12673.946    4.2293712    4.2293712    4.2293712    12673.946    4055.7115   -17863.997    51830.123    52537.519     3981.855    3315.8362     75.65322 
   94100     1494.991   -163.32277    1.3526993   -161.97007     154.8688    4.2293982    4.2293982    4.2293982     154.8688   -11677.112   -33350.178    45491.896    57214.452    8408.0963   -5635.5371    75.654665 
   94200    1078.9161   -162.94521   0.97622597   -161.96898   -16878.311    4.2361457    4.2361457    4.2361457   -16878.311   -8156.9901   -53348.487    10870.545    57522.093    1903.8303    4316.3582    76.017342 
   94300    935.89364   -162.81212   0.84681623    -161.9653    3840.9045      4.22918      4.22918      4.22918    3840.9045    9843.2861    5612.3687   -3932.9413    55846.853   -468.60708    2850.7779    75.642961 
   94400    1083.2591   -162.94666   0.98015559   -161.96651   -7384.7193    4.2295494    4.2295494    4.2295494   -7384.7193   -14452.284   -11983.006    4281.1327    56899.617   -8704.4243    2798.7347    75.662781 
   94500    1259.9695   -163.10849    1.1400469   -161.96844   -8595.0732    4.2362596    4.2362596    4.2362596   -8595.0732   -17800.702   -29172.754    21188.237    64742.024       -16581    5706.8693    76.023471 
   94600    1224.0163   -163.07381    1.1075157   -161.96629    8807.7265    4.2318816    4.2318816    4.2318816    8807.7265   -9681.3553   -8181.7261    44286.261    57271.578   -13155.522     4068.821    75.788013 
   94700    944.81628   -162.82322   0.85488962   -161.96833   -10044.056    4.2304722    4.2304722    4.2304722   -10044.056   -8418.2564   -62961.886    41247.974    59538.809    -25732.48    8072.4016    75.712318 
   94800    738.77772     -162.639    0.6684616   -161.97054   -8312.1827    4.2300325    4.2300325    4.2300325   -8312.1827   -11364.091   -35538.101    21965.644     62993.89   -21556.489    6696.2916    75.688713 
   94900    806.68446   -162.70416   0.72990505   -161.97425    1014.2244    4.2289595    4.2289595    4.2289595    1014.2244   -1784.2386     12514.28   -7687.3681    52062.702   -26713.029    8479.1652     75.63113 
   95000    1012.9141   -162.89421   0.91650594    -161.9777   -13362.033    4.2324126    4.2324126    4.2324126   -13362.033   -22236.901   -9668.0881   -8181.1102    56927.551   -30506.217    5055.1215    75.816546 
   95100    1148.2316   -163.01664    1.0389441   -161.97769    3023.5801    4.2292058    4.2292058    4.2292058    3023.5801   -9860.0716   -5608.3343    24539.146    53662.449   -19773.584       9741.1    75.644343 
   95200    1032.3068   -162.91209   0.93405288   -161.97803   -4259.8886    4.2291428    4.2291428    4.2291428   -4259.8886   -13251.628   -30192.413    30664.375    43000.231   -24587.927    5269.4745    75.640964 
   95300    881.95253   -162.77338   0.79800918   -161.97537   -7366.5686    4.2311636    4.2311636    4.2311636   -7366.5686   -11553.527    -43246.14    32699.961    40960.405   -16448.126    6767.9425    75.749444 
   95400    1019.5912   -162.89633   0.92254752   -161.97379   -3304.9962    4.2317492    4.2317492    4.2317492   -3304.9962   -28532.449   -11237.167    29854.627    39652.365   -10960.674    5290.9973    75.780899 
   95500    1377.7245   -163.21866    1.2465941   -161.97206   -4371.2358    4.2328944    4.2328944    4.2328944   -4371.2358   -29946.683    2924.4889    13908.486    35270.776    -11439.27    991.21464    75.842441 
   95600    1570.4042      -163.39    1.4209347   -161.96907    9730.9033    4.2304379    4.2304379    4.2304379    9730.9033   -32184.076    43371.669    18005.117    33125.589   -4213.4384    4620.9506    75.710475 
   95700    1353.5752   -163.19368    1.2247433   -161.96893   -10261.139     4.234105     4.234105     4.234105   -10261.139   -24442.402   -37270.978    30929.964    40808.488    1501.0527    2015.1139    75.907532 
   95800    1046.4724    -162.9123   0.94687025   -161.96543    851.34429    4.2318774    4.2318774    4.2318774    851.34429   -13910.893   -36400.776    52865.702    44051.213     9944.325    4253.4485    75.787786 
   95900    883.86571   -162.76311   0.79974026   -161.96337    3306.7484    4.2296791    4.2296791    4.2296791    3306.7484   -22734.731   -12955.522    45610.498    41566.137     16100.86    2045.0146    75.669742 
   96000    1073.2087   -162.93718   0.97106181   -161.96611   -12502.809    4.2350996    4.2350996    4.2350996   -12502.809   -44251.922   -17296.641    24040.135    48283.003    16436.112   -2539.7749    75.961034 
   96100    1313.7048   -163.15487    1.1886677    -161.9662    5576.3666    4.2299107    4.2299107    4.2299107    5576.3666   -58296.294    38571.132    36454.262    55980.836    17052.883   -7554.8332    75.682175 
   96200    1351.5913   -163.19253    1.2229482   -161.96958   -2588.4077    4.2286656    4.2286656    4.2286656   -2588.4077    -23965.09   -280.36968    16480.237    47601.594     15848.49   -11633.799    75.615363 
   96300    1112.1451   -162.97868    1.0062922   -161.97239   -7652.3923    4.2313641    4.2313641    4.2313641   -7652.3923    -7352.243   -26729.206    11124.272    53751.679    12991.196   -19040.189    75.760215 
   96400    868.69893   -162.75929   0.78601705   -161.97327   -8.3993747    4.2287356    4.2287356    4.2287356   -8.3993747   -7368.7965   -32975.632     40319.23    51418.514    7799.4492   -15393.795    75.619114 
   96500     845.3478   -162.73941   0.76488846   -161.97452   -7242.7773    4.2320624    4.2320624    4.2320624   -7242.7773   -3478.6502   -36636.633    18386.951    49971.223       4817.2   -22003.963     75.79773 
   96600    1109.9154   -162.97808    1.0042748   -161.97381    1220.1257     4.230022     4.230022     4.230022    1220.1257   -15767.808        20455   -1026.8139    47235.223    3301.4698   -25110.349     75.68815 
   96700    1298.4865   -163.14972    1.1748979   -161.97482    1312.0585    4.2285186    4.2285186    4.2285186    1312.0585   -6546.5836   -4217.8927    14700.652    45350.385    2319.2945   -23663.564    75.607474 
   96800    1266.1454   -163.11908    1.1456349   -161.97344    2319.2218    4.2345376    4.2345376    4.2345376    2319.2218    2071.3103    -15774.62    20660.975    46395.717   -96.542461   -29406.293    75.930801 
   96900     1042.095   -162.91172   0.94290946   -161.96881   -7421.6602    4.2366913    4.2366913    4.2366913   -7421.6602    16454.109   -70233.591    31514.502    38247.088    2031.8562   -22705.854    76.046714 
   97000    956.22332   -162.83063   0.86521096   -161.96542    362.73478    4.2312293    4.2312293    4.2312293    362.73478     11247.74   -57833.928    47674.393    42014.993    6346.0638    -26215.69    75.752973 
   97100    1121.2014   -162.97901    1.0144866   -161.96452     2416.905    4.2282114    4.2282114    4.2282114     2416.905   -16404.797   -12780.811    36436.323    44795.202    1657.1972   -11577.263    75.590999 
   97200    1447.5071   -163.27818    1.3097349   -161.96845   -9586.6101    4.2326033    4.2326033    4.2326033   -9586.6101   -10481.858   -22482.686    4204.7142    43899.421    3972.6376   -11607.961    75.826795 
   97300     1583.851   -163.40318    1.4331016   -161.97007    7176.3548    4.2305388    4.2305388    4.2305388    7176.3548    9906.4941    4419.3808    7203.1895    44306.362   -2069.4783   -2481.1643    75.715891 
   97400    1450.2031   -163.28223    1.3121742   -161.97006    -10678.74    4.2324524    4.2324524    4.2324524    -10678.74   -2812.5466   -45825.112    16601.437    46818.512    1979.0585    10787.386    75.818686 
   97500    1368.3388   -163.20811    1.2381017   -161.97001   -3575.9463    4.2290766    4.2290766    4.2290766   -3575.9463   -3355.7685   -37153.596    29781.525    39363.358   -2604.6128    13396.798    75.637412 
   97600    1470.5993   -163.29997    1.3306291   -161.96934    11553.329    4.2269448    4.2269448    4.2269448    11553.329   -5022.5498    6572.2622    33110.275    35814.403   -4291.8497    15919.324    75.523087 
   97700    1665.0722   -163.47692    1.5065923   -161.97033   -12811.158    4.2361769    4.2361769    4.2361769   -12811.158   -35030.946   -4684.4978    1281.9689     33975.92   -971.85343    16355.573    76.019019 
   97800    1744.9328   -163.54765    1.5788519    -161.9688    5103.5532    4.2283969    4.2283969    4.2283969    5103.5532   -6378.9859    8880.2545    12809.391    32283.974   -8311.1693    13524.652    75.600946 
   97900    1576.7918   -163.39418    1.4267143   -161.96746    8332.6076    4.2263057    4.2263057    4.2263057    8332.6076    13654.013   -19106.002    30449.812    30112.525   -8819.0627    9268.3961    75.488835 
   98000    1380.0732   -163.21639    1.2487192   -161.96767   -12808.698    4.2356222    4.2356222    4.2356222   -12808.698     5913.471   -60109.876    15770.312    26154.738   -8958.7549   -26.787501    75.989161 
   98100    1445.4467   -163.27197    1.3078705    -161.9641   -2824.8043    4.2314054    4.2314054    4.2314054   -2824.8043    -355.0487    -43550.56    35431.196    34358.922   -8349.9847   -747.64086     75.76243 
   98200    1595.9332   -163.40851    1.4440339   -161.96447   -486.63745    4.2314024    4.2314024    4.2314024   -486.63745   -12551.236   -14421.051    25512.374    35306.625   -2718.2698    138.67712     75.76227 
   98300    1605.9094   -163.41993    1.4530606   -161.96687   -7466.4518    4.2327327    4.2327327    4.2327327   -7466.4518   -5840.3075    -8373.632   -8185.4159    35928.393   -8824.6564   -8517.9149    75.833748 
   98400    1395.1151   -163.22922    1.2623295   -161.96689     388.5216    4.2261857    4.2261857    4.2261857     388.5216    15812.061   -11474.876     -3171.62    43707.517    -1179.548   -9391.1665    75.482404 
   98500    1128.5737   -162.99156    1.0211572    -161.9704   -8042.6614    4.2308761    4.2308761    4.2308761   -8042.6614    19820.739   -44405.836    457.11251    41981.951    2711.4134   -13929.425    75.734003 
   98600    1193.2043   -163.04971    1.0796363   -161.97007   -7798.5958    4.2345313    4.2345313    4.2345313   -7798.5958    1376.8557   -26476.846     1704.203    36303.261    1319.2332   -12236.916     75.93046 
   98700    1531.2579   -163.35485    1.3855143   -161.96933   -578.08226     4.229967     4.229967     4.229967   -578.08226   -17330.166   -15710.569    31306.488    35811.294     11866.91    -15590.58    75.685198 
   98800    1631.3471   -163.44848    1.4760771   -161.97241   -218.65212    4.2293451    4.2293451    4.2293451   -218.65212   -45594.152    795.20972    44142.986    33500.701    746.18862   -11179.867    75.651821 
   98900    1380.7968   -163.22359     1.249374   -161.97421    5205.5071     4.231033     4.231033     4.231033    5205.5071    -32783.36    11152.244    37247.638    36013.873    8501.9499   -5700.0937    75.742432 
   99000    981.36412   -162.85916   0.88795887    -161.9712    105.95194    4.2344871    4.2344871    4.2344871    105.95194   -11793.277   -11064.565    23175.698    39633.127    600.59596   -698.21119    75.928086 
   99100    815.35353   -162.70245   0.73774901    -161.9647   -16507.056    4.2366727    4.2366727    4.2366727   -16507.056   -27152.252   -36803.658    14434.742    51078.038    1373.2018     2186.129    76.045714 
   99200    1125.8447   -162.97772    1.0186879   -161.95903   -2321.1268    4.2314791    4.2314791    4.2314791   -2321.1268   -19065.498   -12993.312    25095.429    62929.078    3520.9214    1997.5271    75.766391 
   99300    1491.4392   -163.31226    1.3494855   -161.96278    4714.6206     4.231414     4.231414     4.231414    4714.6206   -14712.495    3440.9804    25415.377    63322.249    -4004.206    7360.5617    75.762895 
   99400    1480.4087   -163.30598    1.3395049   -161.96648   -9878.4126    4.2345157    4.2345157    4.2345157   -9878.4126    -34202.42   -23457.939    28025.121    71372.008   -3037.7106    3599.8737    75.929621 
   99500    1207.0655   -163.06132    1.0921782   -161.96914    5768.0225    4.2291948    4.2291948    4.2291948    5768.0225   -8558.1872   -9631.2621    35493.517      72790.8   -6435.0416    5500.0602    75.643754 
   99600    809.75124   -162.70449   0.73267994   -161.97181   -10932.818     4.231111     4.231111     4.231111   -10932.818   -4172.7531   -43956.875    15331.174    71708.014   -2612.8652    3789.3625    75.746619 
   99700    644.83806   -162.55499   0.58346302   -161.97153   -6205.8199     4.231756     4.231756     4.231756   -6205.8199    7125.4553    -26844.25    1101.3347    76285.545   -1164.7669    1255.1729    75.781264 
   99800      808.264   -162.70419   0.73133425   -161.97286   -2386.3759    4.2297625    4.2297625    4.2297625   -2386.3759    -12498.66   -7133.6218    12473.154    77563.774   -745.54805    558.50546    75.674219 
   99900    1130.6469   -162.99751    1.0230331   -161.97448   -5062.9076    4.2321884    4.2321884    4.2321884   -5062.9076   -22089.147   -23046.623    29947.048    78295.462    3503.7419   -4580.0212    75.804497 
  100000    1323.2338   -163.17151    1.1972897   -161.97422    12462.038    4.2302169    4.2302169    4.2302169    12462.038   -24961.164    5224.6252    57122.651    74861.569   -344.33714    1001.6105    75.698613 
Loop time of 34.6282 on 1 procs for 100000 steps with 8 atoms

Pair  time (%) = 11.7478 (33.9254)
Kspce time (%) = 8.34411 (24.0963)
Neigh time (%) = 0 (0)
Comm  time (%) = 1.67382 (4.8337)
Outpt time (%) = 0.057893 (0.167185)
Other time (%) = 12.8046 (36.9774)

Nlocal:    8 ave 8 max 8 min
Histogram: 1 0 0 0 0 0 0 0 0 0
Nghost:    2189 ave 2189 max 2189 min
Histogram: 1 0 0 0 0 0 0 0 0 0
Neighs:    2472 ave 2472 max 2472 min
Histogram: 1 0 0 0 0 0 0 0 0 0

Total # of neighbors = 2472
Ave neighs/atom = 309
Neighbor list builds = 0
Dangerous builds = 0
unfix 20
unfix 21
print "seeds:9427419"
seeds:9427419
