LAMMPS (10 Feb 2015)
# ---- initialize simulations
clear
units metal
dimension 3
boundary p p p
atom_style charge
atom_modify map array
# ---- create atoms
read_data /Users/eugeneragasa/pyflamestk_git/pypospack/tests/tests_integration/workflow/WorkflowLammpsThermalExpansion/MgO_NaCl_unit.npt.T1100/lammps.structure
  triclinic box = (0 0 0) to (4.2565 4.2565 4.2565) with tilt (0 0 0)
  1 by 1 by 1 MPI processor grid
  reading atoms ...
  8 atoms
# ---- define interatomic potential
include potential.mod
mass 1 24.305
mass 2 15.999

group Mg type 1
4 atoms in group Mg
group O type 2
4 atoms in group O

set group Mg charge 1.7
  4 settings made for charge
set group O charge -1.7
  4 settings made for charge

variable R_cut equal 10.0

pair_style buck/coul/long ${R_cut}
pair_style buck/coul/long 10
pair_coeff 1 1 0.0 0.5 0.0 ${R_cut}
pair_coeff 1 1 0.0 0.5 0.0 10
pair_coeff 1 2 929.69 0.29909 0.0 ${R_cut}
pair_coeff 1 2 929.69 0.29909 0.0 10
pair_coeff 2 2 4870 0.2679 77 ${R_cut}
pair_coeff 2 2 4870 0.2679 77 10

kspace_style pppm 1.0e-5

neighbor 1.0 bin
neigh_modify every 1 delay 0 check yes
# ---- define settings
compute eng all pe/atom
compute eatoms all reduce sum c_eng
# ---- run minimization
reset_timestep 0
fix 1 all box/relax iso 0.0 vmax 0.001
thermo 10
thermo_style custom step pe lx ly lz xy xz yz press pxx pyy pzz pxy pxz pyz c_eatoms
min_style cg
minimize 1e-25 1e-25 5000 10000
PPPM initialization ...
  G vector (1/distance) = 0.353152
  grid = 8 8 8
  stencil order = 5
  estimated absolute RMS force accuracy = 4.10333e-05
  estimated relative force accuracy = 2.84961e-06
  using double precision FFTs
  3d grid and FFT values/proc = 3375 512
Neighbor list info ...
  1 neighbor list requests
  update every 1 steps, delay 0 steps, check yes
  master list distance cutoff = 11
Memory usage per processor = 4.06549 Mbytes
Step PotEng Lx Ly Lz Xy Xz Yz Press Pxx Pyy Pzz Pxy Pxz Pyz eatoms 
       0   -119.82944       4.2565       4.2565       4.2565            0            0            0   -43102.631   -43102.631   -43102.631   -43102.631 -1.1410716e-10 2.0651384e-11 1.0044018e-10   -119.82944 
       9    -119.8549     4.222448     4.222448     4.222448            0            0            0   -490.28356   -490.28356   -490.28356   -490.28356 -3.7927136e-11 -7.2182599e-11 3.2130495e-11    -119.8549 
Loop time of 0.144539 on 1 procs for 9 steps with 8 atoms

Minimization stats:
  Stopping criterion = linesearch alpha is zero
  Energy initial, next-to-last, final = 
        -119.829437963     -119.854898204     -119.854898204
  Force two-norm initial, final = 6.22404 0.0696885
  Force max component initial, final = 6.22404 0.069669
  Final line search alpha, max atom move = 1.75215e-06 1.2207e-07
  Iterations, force evaluations = 9 35

Pair  time (%) = 0.0515194 (35.644)
Kspce time (%) = 0.00472283 (3.26752)
Neigh time (%) = 0 (0)
Comm  time (%) = 0.00263214 (1.82106)
Outpt time (%) = 0 (0)
Other time (%) = 0.0856645 (59.2675)

Nlocal:    8 ave 8 max 8 min
Histogram: 1 0 0 0 0 0 0 0 0 0
Nghost:    2189 ave 2189 max 2189 min
Histogram: 1 0 0 0 0 0 0 0 0 0
Neighs:    2344 ave 2344 max 2344 min
Histogram: 1 0 0 0 0 0 0 0 0 0

Total # of neighbors = 2344
Ave neighs/atom = 293
Neighbor list builds = 0
Dangerous builds = 0
unfix 1
# ---- define output variables ----
variable natoms equal "count(all)"
variable tot_energy equal "c_eatoms"
variable length_x equal "lx"
variable length_y equal "ly"
variable length_z equal "lz"
variable tilt_xy equal "xy"
variable tilt_xz equal "xz"
variable tilt_yz equal "yz"
variable tot_press equal "press"
variable press_xx equal "pxx"
variable press_yy equal "pyy"
variable press_zz equal "pzz"
variable press_xy equal "pxy"
variable press_xz equal "pxz"
variable press_yz equal "pyz"

# ---- output ----
print "pypospack:output_section:begin"
pypospack:output_section:begin
print "tot_energy = ${tot_energy}"
tot_energy = -119.854898204259
print "num_atoms = ${natoms}"
num_atoms = 8
print "xx = ${length_x}"
xx = 4.222448
print "yy = ${length_y}"
yy = 4.222448
print "zz = ${length_z}"
zz = 4.222448
print "xy = ${tilt_xy}"
xy = 0
print "xz = ${tilt_xz}"
xz = 0
print "yz = ${tilt_yz}"
yz = 0
print "tot_press = ${tot_press}"
tot_press = -490.283556338482
print "pxx = ${press_xx}"
pxx = -490.283556338668
print "pyy = ${press_yy}"
pyy = -490.283556338614
print "pzz = ${press_zz}"
pzz = -490.283556338163
print "pxy = ${press_xy}"
pxy = -3.79271362347293e-11
print "pxz = ${press_xz}"
pxz = -7.2182599384956e-11
print "pyz = ${press_yz}"
pyz = 3.21304951944417e-11
print "pypospack:output_section:done"
pypospack:output_section:done
print "pypospack:lammps_sim:done"
pypospack:lammps_sim:done
#------------------------------------------------------------------------------
# RUN THERMOSTAT
# running using an NPT Nose-Hoover style thermostat
#------------------------------------------------------------------------------
variable tempdamp equal 0.1
variable pressdamp equal 1.0
# set initial velocities
velocity all create 1100 1694372 mom yes dist gaussian loop all
# fix for Nose-Hoover style thermostat
fix 20 all npt temp 1100 1100 0.1 aniso 0.0 0.0 1.0 drag 1.0 couple xyz
variable boxx equal lx
variable boxy equal ly
variable boxz equal lz
variable boxp equal press
variable boxt equal temp
# calculate averages every 10000 steps
reset_timestep 0
fix 21 all ave/time 10 10 100 v_boxx v_boxy v_boxz v_boxp v_boxt file lattice.out
thermo_style custom step temp pe ke etotal press lx ly lz press pxx pyy pzz pxy pxz pyz vol
thermo_modify flush yes
thermo 100
run 100000
PPPM initialization ...
  G vector (1/distance) = 0.353501
  grid = 8 8 8
  stencil order = 5
  estimated absolute RMS force accuracy = 4.03791e-05
  estimated relative force accuracy = 2.80417e-06
  using double precision FFTs
  3d grid and FFT values/proc = 3375 512
Memory usage per processor = 3.06549 Mbytes
Step Temp PotEng KinEng TotEng Press Lx Ly Lz Press Pxx Pyy Pzz Pxy Pxz Pyz Volume 
       0         1100    -119.8549   0.99530312   -118.85959    13631.663     4.222448     4.222448     4.222448    13631.663    11527.759    15081.805    14285.426    694.01713   -4237.4264   -7113.1907    75.282309 
     100    306.75609   -119.00329   0.27755936   -118.72573    19972.911    4.2528677    4.2528677    4.2528677    19972.911    9572.0412    18802.315    31544.377   -511.47777    8452.1464   -13216.417    76.921122 
     200    945.55371   -119.31199   0.85555687   -118.45643    -49439.88     4.279529     4.279529     4.279529    -49439.88   -42061.516   -50108.057   -56150.068    598.55168   -2654.3549   -6020.9425     78.37687 
     300    702.16929   -118.85851   0.63533753   -118.22318    21092.521    4.2582669    4.2582669    4.2582669    21092.521    17492.015    26213.492    19572.057   -6650.1092    7524.6956   -9370.5964     77.21446 
     400    1361.4997   -119.26917    1.2319136   -118.03725   -5747.6064    4.2604735    4.2604735    4.2604735   -5747.6064    240.80701   -2420.1866   -15063.439    713.49721    23.651368    7633.6771    77.334556 
     500    422.10331   -118.30966   0.38192794   -117.92773   -16464.908    4.2975273    4.2975273    4.2975273   -16464.908    -16864.24   -9838.7601   -22691.723   -14458.675    4881.2204    5804.6655    79.369918 
     600    1275.0632   -119.00061    1.1537039   -117.84691   -14580.121    4.2854359    4.2854359    4.2854359   -14580.121   -29095.419   -30126.831    15481.886   -7352.1365   -5227.9393    10742.719    78.701865 
     700    1247.4515   -118.94293    1.1287204   -117.81421    39989.451    4.2525589    4.2525589    4.2525589    39989.451    40971.375    21841.718     57155.26    4972.1186   -2534.8044    12162.003    76.904368 
     800    1039.3521    -118.7917   0.94042762   -117.85127    4808.9769    4.2838077    4.2838077    4.2838077    4808.9769   -18760.217    110.66879    33076.479   -2828.8608   -15218.483   -6420.8768    78.612192 
     900    841.45191   -118.60339   0.76136337   -117.84203   -22106.748    4.2965291    4.2965291    4.2965291   -22106.748   -26361.344   -39550.323   -408.57792    11248.419    9846.0964   -3995.4942    79.314624 
    1000    1096.3664   -118.82419   0.99201534   -117.83217    36381.137    4.2546539    4.2546539    4.2546539    36381.137    15757.213    34083.396    59302.802    5971.3621    2992.7442   -1018.9459    77.018084 
    1100    1374.8898   -119.10683    1.2440292    -117.8628   -14883.334    4.2750158    4.2750158    4.2750158   -14883.334   -25694.846   -6184.0709   -12771.085   -9389.1489    3834.6937    -5264.841    78.129165 
    1200    765.29478   -118.54223    0.6924548   -117.84977     -41468.8    4.3050764    4.3050764    4.3050764     -41468.8   -22910.862   -65815.901   -35679.638   -6627.7731    1270.9052    11866.778    79.788922 
    1300     1170.976   -118.89334    1.0595237   -117.83381    1871.3123    4.2749767    4.2749767    4.2749767    1871.3123   -1802.3689   -25796.746    33213.052   -1097.5225   -865.21793    1507.3079    78.127019 
    1400    1220.1234   -118.94219    1.1039933    -117.8382     14063.86    4.2617699    4.2617699    4.2617699     14063.86   -9445.7247     12625.25    39012.054    2609.1582   -9399.6616     11241.79    77.405172 
    1500    1064.9296   -118.81014   0.96357068   -117.84657     -2893.18    4.2819196    4.2819196    4.2819196     -2893.18    -27970.15   -9229.9092    28520.519   -2493.5089   -13982.564    2359.9013    78.508293 
    1600    1233.3902   -118.96421    1.1159974   -117.84821   -13807.335    4.2855537    4.2855537    4.2855537   -13807.335   -4883.9538   -18663.735   -17874.316   -6264.7761    585.32858   -6936.1416    78.708353 
    1700    1266.1536   -119.00305    1.1456424    -117.8574   -6084.7262    4.2687279    4.2687279    4.2687279   -6084.7262    12830.025   -30136.326   -947.87731   -11702.803    60.693965   -17893.574    77.784923 
    1800    1168.0172   -118.91191    1.0568465   -117.85506    23352.561    4.2612841    4.2612841    4.2612841    23352.561    26777.642   -23459.492    66739.534    503.98432    13579.401    1859.6246    77.378706 
    1900    1180.3722    -118.9332    1.0680256   -117.86518   -22734.027      4.28423      4.28423      4.28423   -22734.027   -36679.029   -31675.444    152.39347    5059.5594    11543.643   -1438.5455    78.635445 
    2000     1048.551   -118.81282   0.94875101   -117.86407   -8076.0755    4.2858352    4.2858352    4.2858352   -8076.0755   -21564.495   -26176.392     23512.66    3866.3038   -8012.4363    8328.8729    78.723861 
    2100    1188.7063   -118.92722    1.0755665   -117.85165   -5663.7159    4.2638116    4.2638116    4.2638116   -5663.7159    16279.894    -29172.89   -4098.1517    3622.2113   -12481.107    8543.4753    77.516476 
    2200    1342.8434   -119.07513     1.215033   -117.86009   -11792.711    4.2721394    4.2721394    4.2721394   -11792.711   -19963.632   -40456.365    25041.863    10944.573   -1784.9797   -907.86174    77.971565 
    2300    877.03029   -118.65673   0.79355544   -117.86317    -3527.596    4.2906193    4.2906193    4.2906193    -3527.596    28831.376   -24548.597   -14865.567    2066.0124   -643.41933    9056.3755    78.987787 
    2400    1242.7822   -118.97922    1.1244955   -117.85473   -15381.732    4.2760279    4.2760279    4.2760279   -15381.732   -20749.496   -5828.5782   -19567.123   -3185.8664    10728.418    7227.1272    78.184669 
    2500    871.72114   -118.64114   0.78875161   -117.85238     41872.55    4.2705389    4.2705389    4.2705389     41872.55    41420.822    14820.835    69375.994   -3293.6178    22557.911    781.66764    77.883966 
    2600    1440.1112   -119.15029    1.3030428   -117.84725   -31273.113    4.2867872    4.2867872    4.2867872   -31273.113   -38079.616   -56745.984    1006.2617    7933.1571   -4964.4397    336.44829    78.776334 
    2700    920.14472   -118.67495   0.83256628   -117.84238    3188.7904    4.2811679    4.2811679    4.2811679    3188.7904   -44938.413   -2289.0866    56793.871   -3629.3569    7221.0971   -8025.1792    78.466954 
    2800    1108.6317   -118.84641    1.0031133   -117.84329    19772.729    4.2699585    4.2699585    4.2699585    19772.729    826.39338    28865.201    29626.592   -4378.2586   -4489.4808   -6121.1662    77.852211 
    2900    708.56279   -118.49513    0.6411225     -117.854    3399.7108    4.2813613    4.2813613    4.2813613    3399.7108   -74.913999    1656.9405     8617.106   -13294.788     4300.119   -48.881002    78.477587 
    3000    1620.3031   -119.30589    1.4660843   -117.83981   -37517.145    4.2906304    4.2906304    4.2906304   -37517.145   -41032.178   -39861.508    -31657.75   -8075.3283    5620.0576   -2475.3458    78.988401 
    3100    1110.4453   -118.84279    1.0047543   -117.83803    13387.857    4.2734683    4.2734683    4.2734683    13387.857    6522.5532    2883.9162      30757.1   -2968.7094   -5020.7257    4647.8275    78.044351 
    3200    1118.3331   -118.85964    1.0118913   -117.84775   -15459.115    4.2696995    4.2696995    4.2696995   -15459.115   -19135.092   -12429.437   -14812.816    5320.8414   -2361.5027     9481.063    77.838049 
    3300    886.29489   -118.65402   0.80193824   -117.85208   -2782.5033    4.2765085    4.2765085    4.2765085   -2782.5033   -7730.4646    12361.921   -12978.967   -6669.7012    10272.986    15594.532     78.21103 
    3400    1100.3231   -118.84835   0.99559545   -117.85275    795.62726    4.2781538    4.2781538    4.2781538    795.62726   -15991.136   -3634.9636    22012.981   -1088.1688   -395.67192    2208.1158    78.301337 
    3500    1313.4172    -119.0443    1.1884075   -117.85589   -17368.843    4.2805826    4.2805826    4.2805826   -17368.843   -29061.176   -25310.539    2265.1858   -2103.7491   -2304.4134   -6121.0859    78.434771 
    3600     942.4341   -118.70498   0.85273418   -117.85225   -13542.137    4.2647653    4.2647653    4.2647653   -13542.137   -38328.599     -16614.4    14316.589   -6696.6396   -2573.1158    8444.6785    77.568504 
    3700    863.81019   -118.63964   0.78159361   -117.85805    19348.076    4.2700179    4.2700179    4.2700179    19348.076    8252.6915   -2400.7189    52192.256   -8820.2971   -4289.9787   -3840.6918    77.855463 
    3800    1407.4459   -119.11849    1.2734867     -117.845   -31555.347    4.2937065    4.2937065    4.2937065   -31555.347   -43896.133   -30083.831   -20686.076    13832.298   -7681.3756    9369.5443     79.15841 
    3900    1158.4746   -118.90146    1.0482121   -117.85324    14988.047    4.2712747    4.2712747    4.2712747    14988.047   -430.03341   -39901.802    85295.976   -8436.2882   -15314.214    2982.3461    77.924231 
    4000    762.41203   -118.54576   0.68984642   -117.85592    24722.544    4.2550557    4.2550557    4.2550557    24722.544     10433.66     34631.38    29102.591   -10065.236    1168.8879   -3239.3315    77.039909 
    4100    1271.6952   -119.02422    1.1506565   -117.87356   -13889.921    4.2785429    4.2785429    4.2785429   -13889.921   -25838.552    1306.7019   -17137.914    -9420.547   -6416.9733   -602.20164    78.322705 
    4200    963.81254   -118.74136   0.87207784   -117.86929   -7267.7533    4.2943797    4.2943797    4.2943797   -7267.7533   -12474.105   -16171.921    6842.7658   -2742.8955    5089.6631   -2887.7492    79.195652 
    4300    1478.0195    -119.1894    1.3373431   -117.85206    9452.8896    4.2646271    4.2646271    4.2646271    9452.8896   -18440.203   -13393.734    60192.606   -2350.8948    1481.7715   -743.39158    77.560961 
    4400    1287.8414   -119.01458    1.1652659   -117.84931    -8138.157    4.2703806    4.2703806    4.2703806    -8138.157   -3701.1235   -20466.817   -246.53043     5935.437    10807.905    1590.5508    77.875304 
    4500    808.96443    -118.5896   0.73196802   -117.85763   -35961.032    4.2993012    4.2993012    4.2993012   -35961.032   -47913.461   -14907.575    -45062.06    78.680756   -5576.1718    7244.0512    79.468243 
    4600    847.02082   -118.61538   0.76640224   -117.84898    1406.3339    4.2882133    4.2882133    4.2882133    1406.3339   -5378.9282      17660.9   -8062.9702   -691.08565   -13720.574   -4250.9582    78.854982 
    4700    1686.1736   -119.35749    1.5256853    -117.8318   -521.42657    4.2567603    4.2567603    4.2567603   -521.42657   -3538.8757    4119.3313   -2144.7353    28.293914   -5060.6222   -7382.3628     77.13253 
    4800    986.86122   -118.75339   0.89293277   -117.86045    14331.047    4.2768959    4.2768959    4.2768959    14331.047    1246.2864   -10082.173    51829.027   -3748.9999    10774.537    13734.651    78.232288 
    4900    1039.0846   -118.79196   0.94018556   -117.85178   -28517.677     4.293685     4.293685     4.293685   -28517.677   -7643.7826   -36615.255   -41293.992    6737.5658   -5873.5379    7463.0044    79.157224 
    5000    1131.1372    -118.8635    1.0234767   -117.84002   -9167.3675    4.2734701    4.2734701    4.2734701   -9167.3675   -30293.693    24283.703   -21492.111    2166.4977   -958.83731   -8989.3365    78.044446 
    5100    771.50625   -118.54972   0.69807507   -117.85164    45538.009    4.2653603    4.2653603    4.2653603    45538.009    34462.494    29177.641    72973.894   -6068.5277    -1625.338   -12595.892    77.600973 
    5200    1418.3427    -119.1431    1.2833463   -117.85975   -32696.614    4.2840972    4.2840972    4.2840972   -32696.614   -49906.329   -17514.317   -30669.197    427.83393    25999.958   -3567.0249    78.628128 
    5300    843.29774   -118.61417   0.76303352   -117.85114   -7438.7791     4.278513     4.278513     4.278513   -7438.7791   -15844.251   -29611.615    23139.528    6770.8925    9247.7359    12161.323    78.321061 
    5400    869.93436   -118.63463   0.78713489   -117.84749    17728.581    4.2610336    4.2610336    4.2610336    17728.581   -826.39104    3904.2667    50107.867   -4949.0955    2918.2024   -10045.895     77.36506 
    5500    1425.7778   -119.15637    1.2900737   -117.86629   -17386.599     4.279084     4.279084     4.279084   -17386.599   -14057.051   -26475.432   -11627.316     17376.66   -3338.4656   -15757.736    78.352426 
    5600    1173.0724   -118.91757    1.0614206   -117.85615   -1943.7094    4.2737692    4.2737692    4.2737692   -1943.7094   -27915.429    3596.0228    18488.278    5541.0852    7273.4437   -1971.6604    78.060835 
    5700    691.56262   -118.48189    0.6257404   -117.85615    22371.791    4.2722872    4.2722872    4.2722872    22371.791     3051.559    264.25804    63799.556     -10395.3    5941.1856    29439.673    77.979659 
    5800    1098.6161   -118.84783   0.99405091   -117.85378   -19161.184    4.2773257    4.2773257    4.2773257   -19161.184    8443.3481   -38276.519   -27650.382     8738.719    2875.9292    3457.9323    78.255875 
    5900    1280.1502   -119.01001    1.1583068   -117.85171   -7695.1705    4.2768862    4.2768862    4.2768862   -7695.1705   -9917.6067   -32581.767    19413.862   -1504.1545   -16951.879   -1616.8238    78.231757 
    6000    1122.7904   -118.86952    1.0159244   -117.85359    3832.7425    4.2795228    4.2795228    4.2795228    3832.7425    22207.686   -26507.553    15798.095    7377.8344    -2649.694     3683.443    78.376529 
    6100    1107.3939   -118.84931    1.0019933   -117.84732   -29603.087     4.274585     4.274585     4.274585   -29603.087   -31811.673   -21274.043   -35723.546    17070.553    4061.6607    3302.3873    78.105548 
    6200    423.98253   -118.24022    0.3836283    -117.8566    26327.975    4.2658626    4.2658626    4.2658626    26327.975    12095.044    6727.1625    60161.718    9958.7275    792.42214   -1318.0689    77.628393 
    6300    1545.4344   -119.26637    1.3983415   -117.86803    -19705.84    4.2778099    4.2778099    4.2778099    -19705.84   -34752.856   -30178.339    5813.6745   -7529.7307    10833.243    4881.0327    78.282456 
    6400    1403.6054   -119.13332    1.2700117   -117.86331   -12015.233    4.2772319    4.2772319    4.2772319   -12015.233   -1083.7578   -30114.266   -4847.6741    -1202.121   -7362.3502    3637.8442    78.250727 
    6500    688.21868   -118.47866   0.62271472   -117.85594    11958.409    4.2604459    4.2604459    4.2604459    11958.409   -18483.138    31438.283    22920.083   -3727.9512    -2389.906   -5714.6422    77.333053 
    6600    1034.1305   -118.80584   0.93570302   -117.87014   -291.18522    4.2768318    4.2768318    4.2768318   -291.18522   -4628.0878   -6344.3251    10098.857    16265.321     -15783.5   -735.74058     78.22877 
    6700    1251.2418   -118.98732    1.1321499   -117.85517    -5106.097    4.2760806    4.2760806    4.2760806    -5106.097   -27961.576   -6039.4672    18682.752    5976.8362   -398.34036    11633.012    78.187559 
    6800    1072.8084   -118.81684   0.97069955   -117.84614    33192.787     4.266381     4.266381     4.266381    33192.787    35867.635   -5934.1488    69644.874    4227.5203    16062.747    5635.5429    77.656698 
    6900    1150.7137   -118.89166    1.0411899   -117.85047   -14770.279    4.2822355    4.2822355    4.2822355   -14770.279   -6259.4387   -44162.559    6111.1596    8817.2108   -2322.3818    9313.2807    78.525668 
    7000    661.26464   -118.44731   0.59832614   -117.84898    16771.868    4.2740601    4.2740601    4.2740601    16771.868   -583.45522   -3580.1249    54479.185    -4342.765    1176.7981    -1022.934    78.076779 
    7100    1473.9035   -119.18025    1.3336189   -117.84663   -7873.2903    4.2746538    4.2746538    4.2746538   -7873.2903   -25926.166   -16803.805    19110.101    3230.3261    11730.476    5621.8118    78.109319 
    7200    1433.6414    -119.1437    1.2971888   -117.84651   -30017.943    4.2761446    4.2761446    4.2761446   -30017.943   -36551.011   -41414.447   -12088.371    6180.1685     13201.59    2440.3556    78.191071 
    7300    512.01025   -118.32132   0.46327763   -117.85804    14444.801    4.2744689    4.2744689    4.2744689    14444.801   -17397.384   -4503.9693    65235.757   -7299.9739     4660.132    14333.354    78.099181 
    7400    1022.9059   -118.79484   0.92554672   -117.86929    7411.7654    4.2698156    4.2698156    4.2698156    7411.7654   -26757.769    24772.788    24220.277    2517.6926      10075.1    2524.3348    77.844399 
    7500    1544.4075   -119.26792    1.3974124   -117.87051   -17734.385    4.2744516    4.2744516    4.2744516   -17734.385    -20360.72   -27380.968   -5461.4672   -1090.7306    6322.0949    536.72677    78.098232 
    7600    1178.2481   -118.93061    1.0661036   -117.86451   -8922.8594    4.2711919    4.2711919    4.2711919   -8922.8594   -19887.718   -17077.546    10196.686   -4423.5735   -9208.8282   -5158.8421    77.919696 
    7700    604.75887    -118.4148   0.54719853    -117.8676    21699.457    4.2792027    4.2792027    4.2792027    21699.457    22014.014    1415.5055    41668.852    5558.7385     5865.004    10725.961    78.358943 
    7800     1553.414   -119.26766    1.4055616    -117.8621   -10963.003    4.2678997    4.2678997    4.2678997   -10963.003   -35418.022   -4365.8757    6894.8891    -10845.83   -6040.0636    19428.974    77.739655 
    7900    960.88096   -118.73309   0.86942529   -117.86366    46385.718    4.2625038    4.2625038    4.2625038    46385.718    9184.6103    46634.344      83338.2   -347.60058    9071.8623    1120.7879    77.445172 
    8000    1069.8612   -118.83038   0.96803289   -117.86235   -24699.676     4.279734     4.279734     4.279734   -24699.676   -25444.482   -33099.647   -15554.899    4125.5598   -4022.9668    1861.8036    78.388134 
    8100    1097.2429   -118.85437   0.99280843   -117.86156   -15271.508    4.2709195    4.2709195    4.2709195   -15271.508   -11341.141   -17488.898   -16984.485   -1689.4823    6759.6932   -23158.375    77.904792 
    8200    1142.9946   -118.89992    1.0342056   -117.86572     12.32857    4.2699974    4.2699974    4.2699974     12.32857   -22250.038   -15989.704    38276.728   -6148.6387   -4344.2529     -5437.09    77.854338 
    8300    1231.1111   -118.97662    1.1139352   -117.86268   -5427.0293    4.2712157    4.2712157    4.2712157   -5427.0293    -4508.802   -45809.163    34036.877    857.30075    1900.7635   -1654.3207       77.921 
    8400    1106.4443   -118.86704     1.001134   -117.86591   -17077.252    4.2741388    4.2741388    4.2741388   -17077.252    -12327.88   -24647.826   -14256.052    1907.6133    5008.5106    7617.0934    78.081089 
    8500    774.84622   -118.56452   0.70109714   -117.86343    11036.273    4.2781613    4.2781613    4.2781613    11036.273   -15545.359     30928.65    17725.528    3007.7589   -5449.6568   -9140.0945    78.301752 
    8600    1341.0367   -119.06539    1.2133982   -117.85199    3014.0582    4.2781441    4.2781441    4.2781441    3014.0582    -15039.18    28189.774   -4108.4187     1031.347   -5971.4361   -11531.043    78.300807 
    8700    1098.7723    -118.8379   0.99419228   -117.84371    10710.383     4.269123     4.269123     4.269123    10710.383   -21345.506    36368.043     17108.61   -3512.5823    5660.8547   -4711.1508    77.806521 
    8800    755.35423   -118.53376   0.68346038    -117.8503    9081.6238    4.2785986    4.2785986    4.2785986    9081.6238    13367.083   -17941.302    31819.091    15174.321    6115.4354   -14930.653    78.325765 
    8900    1137.1458    -118.8708    1.0289134   -117.84189   -10228.424    4.2741352    4.2741352    4.2741352   -10228.424    -14488.48   -25873.769    9676.9759    4768.3314    5643.9673   -4081.4007    78.080893 
    9000    1282.1894   -118.99997    1.1601519   -117.83981    11595.699    4.2638941    4.2638941    4.2638941    11595.699    28025.926   -3868.8527    10630.024   -764.19586   -8192.5543    8870.7097    77.520975 
    9100    1568.1722   -119.27168    1.4189152   -117.85276   -31815.193    4.2831244    4.2831244    4.2831244   -31815.193   -53771.172   -39842.296   -1832.1119   -5937.6421   -1217.1568   -7808.5944    78.574579 
    9200    614.83884   -118.40724    0.5563191   -117.85092      6468.43    4.2726522    4.2726522    4.2726522      6468.43   -9518.3552    18857.687    10065.958   -9535.5349   -9917.0881    1468.2966    77.999646 
    9300    1086.2909   -118.83483   0.98289886   -117.85193   -13558.718    4.2651103    4.2651103    4.2651103   -13558.718   -8211.8864    954.66706   -33418.936   -2844.3179   -2839.1447    956.46093    77.587327 
    9400    742.03877   -118.53343   0.67141227   -117.86202    14255.419    4.2802166    4.2802166    4.2802166    14255.419    16342.622    19088.913    7334.7224    11823.649   -20363.902    5591.2796    78.414657 
    9500    1765.0594   -119.44235    1.5970628   -117.84529   -18057.285    4.2736747    4.2736747    4.2736747   -18057.285   -39236.058   -3097.7094   -11838.089   -7947.5349    5960.9962    4260.5832    78.055656 
    9600    819.89979   -118.58532   0.74186256   -117.84346    19667.273    4.2719448    4.2719448    4.2719448    19667.273    37117.718   -34645.931    56530.033   -4716.6779   -3119.7461    -3296.236    77.960911 
    9700    1244.0611   -118.96536    1.1256526   -117.83971   -31093.745    4.2841823    4.2841823    4.2841823   -31093.745    8372.0703   -53853.341   -47799.963   -1886.0206   -640.53317     -1110.54    78.632815 
    9800    747.22831   -118.51431   0.67610788    -117.8382    12274.178    4.2773579    4.2773579    4.2773579    12274.178    33258.635    6513.3376   -2949.4387    5338.9932    -2219.176   -4140.1325    78.257647 
    9900    1232.1759   -118.95279    1.1148987   -117.83789    13047.172    4.2759362    4.2759362    4.2759362    13047.172    38810.847    2472.8364    -2142.168    23569.787   -6099.1176   -130.54038    78.179639 
   10000    1175.0551   -118.90372    1.0632146   -117.84051   -8232.6729    4.2845835    4.2845835    4.2845835   -8232.6729    11308.111   -17121.434   -18884.695   -10772.066   -6764.6396   -10564.446    78.654906 
   10100    890.51755    -118.6387   0.80575899   -117.83294   -11375.861    4.2778356    4.2778356    4.2778356   -11375.861    6171.0832   -16228.744   -24069.922   -4334.3712   -10609.137   -1658.7366    78.283867 
   10200    1057.9852   -118.78571   0.95728723   -117.82842    10699.293    4.2671967    4.2671967    4.2671967    10699.293    17451.375    11597.619    3048.8856   -5496.9793   -11989.504    3107.4822    77.701249 
   10300    1253.7725   -118.96917    1.1344397   -117.83473    10911.294    4.2714295    4.2714295    4.2714295    10911.294    32536.879    14210.073    -14013.07   -10635.284   -4579.3044    -3685.092    77.932703 
   10400    1462.1516   -119.16511    1.3229855   -117.84212     -14667.4    4.2792173    4.2792173    4.2792173     -14667.4   -20090.942    2440.8279   -26352.085    6064.5689    3095.1805   -18383.671    78.359746 
   10500    1175.1173   -118.90969    1.0632708   -117.84642    3870.5764    4.2676312    4.2676312    4.2676312    3870.5764   -2096.6798    20660.552   -6952.1431   -1486.9195    18174.691   -13693.339    77.724982 
   10600    777.30924   -118.55136   0.70332574   -117.84803    10735.521    4.2651551    4.2651551    4.2651551    10735.521    2416.9861     36365.46   -6575.8832   -1704.9594   -10192.478    3171.2326    77.589776 
   10700    1044.7506   -118.79394   0.94531233   -117.84863     -21535.5    4.2868657    4.2868657    4.2868657     -21535.5   -38690.623    11723.417   -37639.293    5455.4405   -7263.1898   -2124.3433    78.780662 
   10800    1121.6018   -118.85402    1.0148489   -117.83917    2236.7614    4.2716266    4.2716266    4.2716266    2236.7614   -16953.537    13824.764    9839.0578    2361.7356    117.62421    3847.2849    77.943491 
   10900    1179.0195   -118.91048    1.0668016   -117.84368    7108.7861    4.2559887    4.2559887    4.2559887    7108.7861   -1311.9511   -8656.7053    31295.015    6493.8201   -8923.2938    19792.324    77.090593 
   11000    872.01703   -118.64644   0.78901934   -117.85742    9194.1785    4.2720628    4.2720628    4.2720628    9194.1785    5049.2092     20877.14    1656.1864    20368.001    4206.0864   -8492.3581    77.967369 
   11100      1233.85   -118.95971    1.1164134   -117.84329   -16430.023    4.2779445    4.2779445    4.2779445   -16430.023   -36692.179    3002.1153   -15600.007   -1899.2276   -10711.856    1153.0282    78.289844 
   11200    821.21938    -118.5846   0.74305655   -117.84155    10654.765     4.272856     4.272856     4.272856    10654.765    7108.7592    26835.132   -1979.5971    10630.939    4442.5057   -722.49914    78.010807 
   11300    1199.8797   -118.92718    1.0856763   -117.84151   -783.66717    4.2736751    4.2736751    4.2736751   -783.66717    -24504.04    21647.765    505.27298    2626.1036    3159.3129   -408.40304     78.05568 
   11400    873.90211   -118.63478   0.79072499   -117.84406     1007.812    4.2849331    4.2849331    4.2849331     1007.812   -14254.695    38274.755   -20996.624   -2013.6519   -1846.0501   -1012.0961    78.674165 
   11500    1334.9891   -119.04136    1.2079262   -117.83343   -16691.354    4.2767501    4.2767501    4.2767501   -16691.354     -20018.4   -4498.5864   -25557.076    4575.0238     1739.814   -5270.2136    78.224291 
   11600     949.4378   -118.69107   0.85907128   -117.83199    27490.427    4.2588371    4.2588371    4.2588371    27490.427    20501.243    29169.104    32800.936    3204.9642   -3942.0446    15441.233    77.245479 
   11700    1169.1988   -118.90692    1.0579157     -117.849   -15547.477    4.2798533    4.2798533    4.2798533   -15547.477   -10369.886   -32747.711   -3524.8346   -8649.3204    2960.4682    5871.6618    78.394691 
   11800    896.35975   -118.64923   0.81104513   -117.83819   -10968.158    4.2799869    4.2799869    4.2799869   -10968.158   -14477.956   -14436.983   -3989.5341    4456.3911   -286.57717    19140.755    78.402034 
   11900    1546.4776   -119.22591    1.3992854   -117.82663    23212.585    4.2510592    4.2510592    4.2510592    23212.585    4808.3727    38034.621     26794.76   -7949.7279   -286.81884    -6769.187    76.823036 
   12000    1145.5438    -118.8933    1.0365121   -117.85679   -13183.377    4.2782836    4.2782836    4.2782836   -13183.377   -27857.305   -19923.748    8230.9219   -1334.3429   -6486.6165    15752.003    78.308466 
   12100    784.02414   -118.55818   0.70940152   -117.84878   -14757.328    4.2802266    4.2802266    4.2802266   -14757.328   -2360.1825   -37461.074   -4450.7289   -5130.2146   -3646.0258    1149.0294    78.415205 
   12200    1199.4425   -118.91633    1.0852808   -117.83105    24900.499     4.258243     4.258243     4.258243    24900.499    2449.2551    38220.601    34031.641    4410.4642   -5855.0079    -12666.38    77.213161 
   12300    1371.9755   -119.09715    1.2413923   -117.85576   -17831.113    4.2844518    4.2844518    4.2844518   -17831.113   -40065.952    17326.755   -30754.143   -12071.512    944.29137   -10525.502    78.647655 
   12400    1159.4837   -118.88975    1.0491252   -117.84063   -18961.623    4.2803042    4.2803042    4.2803042   -18961.623   -26701.558   -15788.222    -14395.09    -10022.45    4054.0625    1146.2569    78.419468 
   12500    829.86565   -118.57779   0.75087988   -117.82691     37854.57    4.2504453    4.2504453    4.2504453     37854.57    63958.879    45439.793    4165.0366   -5422.9411   -3172.1479   -21775.621    76.789756 
   12600    1149.4134   -118.89872    1.0400134   -117.85871   -29159.828    4.2823452    4.2823452    4.2823452   -29159.828   -22830.796   -25396.359   -39252.329   -4354.0043   -4768.2298   -16762.788    78.531702 
   12700    1188.0789   -118.92468    1.0749988   -117.84968   -23764.391    4.2809517    4.2809517    4.2809517   -23764.391   -53838.906    30548.176   -48002.443   -10850.809   -23075.841   -5300.4111    78.455064 
   12800    1291.7159   -118.99705    1.1687717   -117.82828    2800.1344    4.2459329    4.2459329    4.2459329    2800.1344    5476.2166    6565.5862   -3641.3997    1258.8886    2295.0563    4172.5491    76.545451 
   12900    1161.7412   -118.91338    1.0511678   -117.86221   -20023.817    4.2722019    4.2722019    4.2722019   -20023.817    -21591.78   -37812.424   -667.24736   -7768.3965    5170.0678   -1673.7646    77.974985 
   13000      1078.76   -118.82397   0.97608475   -117.84788   -20168.276     4.294157     4.294157     4.294157   -20168.276   -51359.192   -2435.8648   -6709.7701    935.65931    2748.2732   -4963.9281    79.183327 
   13100    1109.6105    -118.8305    1.0039989    -117.8265    4003.3798    4.2681603    4.2681603    4.2681603    4003.3798    -10403.46    43426.238   -21012.639    6344.9818    1563.4999    8499.1093    77.753899 
   13200    1077.5126   -118.80081   0.97495601   -117.82585    33061.438    4.2558334    4.2558334    4.2558334    33061.438    38045.145   -347.48443    61486.655    9017.4921    5603.0314    6799.3217    77.082159 
   13300    1021.5125   -118.77434   0.92428602   -117.85005    4172.6949    4.2800683    4.2800683    4.2800683    4172.6949    3961.4886    20462.203   -11905.607    8203.8003   -3028.0596   -7801.4091    78.406506 
   13400    1282.9615   -119.00653    1.1608506   -117.84568   -27826.799    4.2823867    4.2823867    4.2823867   -27826.799    -27633.03   -27196.758   -28650.607   -1244.3947    85.203294   -331.37851    78.533986 
   13500    1113.8674   -118.83618    1.0078506   -117.82832      38947.4    4.2564897    4.2564897    4.2564897      38947.4    30951.339    45831.642    40059.219    8172.0537   -735.73259    9428.0889    77.117822 
   13600    966.35155   -118.72426   0.87437519   -117.84989   -19398.342    4.2809774    4.2809774    4.2809774   -19398.342   -23487.697   -6829.4086   -27877.921   -724.99691    4288.0456    14406.236    78.456475 
   13700    793.29594   -118.55829   0.71779083    -117.8405   -26923.765    4.2938295    4.2938295    4.2938295   -26923.765   -10411.526   -26304.695   -44055.075   -12474.621    7132.7627   -6078.3055    79.165215 
   13800    1229.8016   -118.93677    1.1127504   -117.82402    19018.003    4.2642461    4.2642461    4.2642461    19018.003    9218.0697    35827.499    12008.441   -4997.0811   -17827.173    9997.3108    77.540174 
   13900    1220.4976   -118.93959    1.1043319   -117.83526    1413.1995    4.2705136    4.2705136    4.2705136    1413.1995   -1243.7612    25589.709    -20106.35    -7254.434   -4288.2245   -6564.9164    77.882577 
   14000     923.4408   -118.66973   0.83554865   -117.83419    3624.3597    4.2880775    4.2880775    4.2880775    3624.3597   -15648.788   -7495.3319    34017.199   -4257.0297   -18179.758    -13272.69     78.84749 
   14100    1280.9036   -118.99524    1.1589885   -117.83625   -10021.804    4.2706316    4.2706316    4.2706316   -10021.804    6529.2579   -30744.818   -5849.8511    4033.9515    141.76679   -10758.744    77.889035 
   14200    882.99515   -118.64323   0.79895257   -117.84428    34297.065    4.2514494    4.2514494    4.2514494    34297.065    34115.951    32386.916    36388.328   -12777.434   -20255.188     7687.664     76.84419 
   14300    1408.2465     -119.141    1.2742111   -117.86679   -29329.406    4.2750782    4.2750782    4.2750782   -29329.406   -22025.274   -14708.914   -51254.029    1480.7217    12609.541    17088.814    78.132586 
   14400    706.73864    -118.4916   0.63947198   -117.85212   -53986.824    4.2914937    4.2914937    4.2914937   -53986.824   -35956.035   -54800.805   -71203.633   -6418.6325     5251.339   -576.77763    79.036086 
   14500    1116.0652   -118.84423    1.0098393   -117.83439    6587.6089    4.2516196    4.2516196    4.2516196    6587.6089   -1481.2956    20458.588     785.5345    13409.648   -11546.179    11983.237    76.853419 
   14600    1341.5967   -119.06694    1.2139049   -117.85304    6563.1006    4.2566286    4.2566286    4.2566286    6563.1006   -8838.2659    787.19274    27740.375    5151.0382   -7719.9874   -7125.3095    77.125372 
   14700    1243.7403   -118.96965    1.1253624   -117.84429    -27725.15    4.2947499    4.2947499    4.2947499    -27725.15   -29528.368    -36443.45   -17203.633    6872.7442    14353.811   -9020.0729    79.216131 
   14800    865.62747   -118.61726   0.78323793   -117.83402    2509.4028    4.2767251    4.2767251    4.2767251    2509.4028    15542.614   -13173.955     5159.549    3930.9178    2759.4749    7680.9034    78.222916 
   14900    1394.4572   -119.09596    1.2617341   -117.83422   -13412.257    4.2518642    4.2518642    4.2518642   -13412.257   -19026.277   -5715.0514   -15495.443    1307.5782   -17740.758   -4288.5701    76.866684 
   15000    1215.7245   -118.96913    1.1000131   -117.86911    6098.4049    4.2731023    4.2731023    4.2731023    6098.4049   -809.00156    -840.6407    19944.857    6393.3152   -1195.5043   -4621.8022    78.024297 
   15100    914.29578   -118.68546   0.82727404   -117.85819   -30592.793    4.2958373    4.2958373    4.2958373   -30592.793     -28306.4    -45398.45   -18073.528    2852.9034    11076.677    1091.8134    79.276319 
   15200    1012.3994   -118.76429   0.91604024   -117.84825    2288.5169    4.2552483    4.2552483    4.2552483    2288.5169    39522.158   -27895.665   -4760.9415    633.06255    4864.5139    13416.133    77.050368 
   15300    1143.2921   -118.88864    1.0344748   -117.85417    41064.323    4.2458057    4.2458057    4.2458057    41064.323     42446.85   -4083.8321    84829.952   -6036.9472   -2723.6687    611.05614    76.538568 
   15400      1130.16    -118.8757    1.0225926   -117.85311    -43675.72    4.2986709    4.2986709    4.2986709    -43675.72   -44719.681   -48062.823   -38244.657   -6191.5391   -3947.0698    -5927.033      79.4333 
   15500    1011.1868   -118.74884    0.9149431    -117.8339   -5281.7955    4.2744978    4.2744978    4.2744978   -5281.7955    10122.607   -39774.302    13806.309    3612.8577    3470.4284    4090.5246    78.100765 
   15600    903.18552   -118.64491   0.81722124   -117.82769    31292.899    4.2493474    4.2493474    4.2493474    31292.899    26880.977   -14876.968    81874.689   -4225.5069    12610.264   -205.58109    76.730269 
   15700    1130.4511   -118.88435    1.0228559   -117.86149   -4985.0786    4.2854479    4.2854479    4.2854479   -4985.0786   -42320.328   -50694.625    78059.717    5488.3733    2023.6421    845.83242    78.702523 
   15800    1017.4898    -118.7746   0.92064617   -117.85395   -12767.106    4.2949961    4.2949961    4.2949961   -12767.106   -35139.672   -49375.062    46213.417    94.308147   -15188.537   -3991.9382    79.229754 
   15900    1218.4975   -118.94226    1.1025222   -117.83974    2928.8704     4.259882     4.259882     4.259882    2928.8704    19318.938   -11923.937    1391.6105    5628.3629   -3987.6436    -2054.823    77.302353 
   16000    687.76497   -118.47009    0.6223042   -117.84778    51342.424    4.2581841    4.2581841    4.2581841    51342.424    66366.767    2745.8385    84914.665    4894.9327   -23019.462    2871.1227    77.209957 
   16100    1159.0675   -118.90246    1.0487487   -117.85371   -25518.066    4.2918515    4.2918515    4.2918515   -25518.066    4548.4302   -40847.521   -40255.108   -4442.8699   -10797.728    6730.1416    79.055857 
   16200    1163.1515    -118.9013     1.052444   -117.84886    13189.208     4.273256     4.273256     4.273256    13189.208    16026.947   -23246.352    46787.029   -810.61507   -7069.5363   -5655.8887    78.032718 
   16300     1080.245   -118.80978   0.97742835   -117.83235    16864.575    4.2511973    4.2511973    4.2511973    16864.575    2629.1574    6099.0106    41865.558   -935.66807    3851.6225    1325.2675    76.830524 
   16400    633.86834   -118.43628   0.57353739   -117.86274   -21648.614    4.2802796    4.2802796    4.2802796   -21648.614    9593.0652    -28375.46   -46163.447   -1554.7969    -1199.168    12718.836    78.418118 
   16500    1330.5897   -119.05421    1.2039455   -117.85027   -7585.1144    4.2803297    4.2803297    4.2803297   -7585.1144   -18633.869   -41782.355    37660.881    -5817.206    2595.4372    8714.6997    78.420875 
   16600    1674.0941   -119.35837    1.5147555   -117.84362    7114.8421    4.2546879    4.2546879    4.2546879    7114.8421    15713.893   -16086.795    21717.428    3311.2469     7267.298   -1596.3837    77.019931 
   16700    905.23173   -118.68012   0.81907269   -117.86105    15942.165    4.2647067    4.2647067    4.2647067    15942.165   -6326.1855    4886.2855    49266.394    683.67513    7690.7923    6021.6114    77.565307 
   16800    682.75709   -118.47263   0.61777296   -117.85485   -47107.338    4.2824792    4.2824792    4.2824792   -47107.338   -42533.922   -28228.014   -70560.079   -3146.1537    26486.953    19035.575    78.539077 
   16900    1276.0767   -119.00039     1.154621   -117.84577   -10167.835    4.2581736    4.2581736    4.2581736   -10167.835    -22502.45   -18235.222    10234.166    3777.9977    6909.9196     -4575.32    77.209384 
   17000    1158.1082   -118.90773    1.0478806   -117.85985    14829.395    4.2576775    4.2576775    4.2576775    14829.395    25975.277   -11455.372    29968.279   -3120.6927   -19585.322   -18631.407    77.182402 
   17100    1227.2587   -118.96665    1.1104495    -117.8562   -33668.954    4.2793492    4.2793492    4.2793492   -33668.954   -33291.277   -45494.585       -22221    215.04304    16090.301   -875.51288    78.366991 
   17200    606.29891   -118.39844     0.548592   -117.84984    31821.333    4.2704989    4.2704989    4.2704989    31821.333    28185.225    874.01286    66404.761   -2442.8719    8785.9516    -4849.837    77.881777 
   17300    1290.2442     -119.013      1.16744   -117.84556    2278.6436    4.2628731    4.2628731    4.2628731    2278.6436   -10422.239   -34689.327    51947.497   -7768.4567   -2069.4865   -7319.8991      77.4653 
   17400    949.21305   -118.71256   0.85886791   -117.85369    22339.676    4.2681949    4.2681949    4.2681949    22339.676    12192.446   -33457.435    88284.018    6460.9401   -5837.2425     -7561.33    77.755789 
   17500    925.07216   -118.69366   0.83702473   -117.85664    6639.9417    4.2655399    4.2655399    4.2655399    6639.9417    22033.302   -24738.734    22625.257     378.7527    4756.0034   -7204.5817    77.610777 
   17600    1020.1896   -118.77981   0.92308895   -117.85672   -17171.444    4.2775535    4.2775535    4.2775535   -17171.444    7543.3232   -42212.017   -16845.639    3051.1231    21394.221    8092.9349    78.268383 
   17700    1045.0668   -118.79666   0.94559836   -117.85106    10129.515    4.2689248    4.2689248    4.2689248    10129.515   -9436.9653   -35896.133    75721.644   -22.750913    5157.3592   -7851.4316    77.795685 
   17800     1292.198   -119.01729    1.1692079   -117.84808    20819.218    4.2483413    4.2483413    4.2483413    20819.218    14394.556   -12481.881    60544.979    1848.9231   -2295.0148   -11169.238    76.675782 
   17900    1242.9773   -118.99236     1.124672   -117.86769   -21749.179     4.278846     4.278846     4.278846   -21749.179   -28074.587   -39816.621    2643.6704    5556.4715   -3526.8048   -4491.2756    78.339353 
   18000    815.89187   -118.59803   0.73823611    -117.8598   -47092.786    4.2865591    4.2865591    4.2865591   -47092.786   -38245.006   -65309.134    -37724.22   -4623.3109    16139.144    10079.871    78.763764 
   18100    1421.5987   -119.13031    1.2862924   -117.84401    2181.4639    4.2478874    4.2478874    4.2478874    2181.4639    3251.5243   -21665.776    24958.644    -1903.202   -7033.0345   -456.38713    76.651203 
   18200    1242.5732   -118.99861    1.1243064   -117.87431   -8509.3371    4.2652647    4.2652647    4.2652647   -8509.3371    6731.6321   -16737.376   -15522.267    1497.1604   -15077.041   -5356.6148    77.595758 
   18300    1030.8486    -118.7814   0.93273347   -117.84867   -25391.176    4.2940754    4.2940754    4.2940754   -25391.176   -14205.372    -42986.24   -18981.915    3926.1356   -9375.9842    2521.4756    79.178813 
   18400    1270.5875   -118.98853    1.1496542   -117.83887    3146.7467    4.2585612    4.2585612    4.2585612    3146.7467    10833.871   -19986.574    18592.944   -3626.9704   -11283.874    2337.4155    77.230468 
   18500    1446.8546   -119.15877    1.3091445   -117.84962    11716.006    4.2548133    4.2548133    4.2548133    11716.006    31385.162   -28569.067    32331.922   -9954.7037    3968.7797   -8594.2579    77.026741 
   18600    1263.6449   -119.00421    1.1433724   -117.86084   -11466.154    4.2810562    4.2810562    4.2810562   -11466.154    -43017.81   -37715.122    46334.472    1625.4295   -14188.532   -6561.9609    78.460808 
   18700     1035.845   -118.78113   0.93725431   -117.84387   -22241.129    4.2806367    4.2806367    4.2806367   -22241.129    6567.2463   -29623.239   -43667.396   -4381.4126   -933.14193    8452.2276    78.437749 
   18800    913.06387   -118.66446   0.82615938   -117.83831    13744.281    4.2616223    4.2616223    4.2616223    13744.281    10581.169   -16868.531    47520.206   -6295.4921    3403.7104    1551.7803    77.397131 
   18900     1393.447   -119.10942    1.2608201    -117.8486   -16275.053    4.2622851    4.2622851    4.2622851   -16275.053   -12629.228   -59481.256    23285.326   -4971.3099   -5252.1231    -787.2135    77.433252 
   19000    1174.5283   -118.91502    1.0627379   -117.85228    6874.2398    4.2702283    4.2702283    4.2702283    6874.2398   -7699.1856   -14297.075     42618.98    2388.5002    3432.0105    439.05568    77.866974 
   19100    1014.6569   -118.76504   0.91808288   -117.84696   -26114.916    4.2787546    4.2787546    4.2787546   -26114.916   -30309.722   -38622.139   -9412.8868   -2512.2548   -10746.191    7624.5429     78.33433 
   19200      944.566   -118.70532   0.85466316   -117.85066    -29252.22    4.2742482    4.2742482    4.2742482    -29252.22    -39769.65   -47342.384   -644.62524   -1520.9432    722.39835    3536.4095    78.087087 
   19300    1454.7176   -119.15865     1.316259   -117.84239    26969.029    4.2480044    4.2480044    4.2480044    26969.029    29432.351   -10821.616    62296.351    4772.8511   -4936.5637    9438.0518    76.657537 
   19400    1424.8932   -119.16021    1.2892733   -117.87093   -2100.7451     4.271254     4.271254     4.271254   -2100.7451    1032.5529   -28931.334    21596.545   -6072.3262    4311.0606   -337.43396    77.923097 
   19500    661.21094    -118.4505   0.59827755   -117.85223   -7822.5474    4.2952975    4.2952975    4.2952975   -7822.5474    613.65244   -34132.293    10050.998    2283.8934    7978.9328   -1751.9992     79.24644 
   19600    926.39724   -118.66733   0.83822369    -117.8291    34217.513    4.2553359    4.2553359    4.2553359    34217.513    66165.112   -7217.8482    43705.275    1719.9923    23938.143    6228.3739    77.055125 
   19700    1173.5025   -118.90991    1.0618098    -117.8481    19483.939     4.264265     4.264265     4.264265    19483.939   -10657.554   -23904.619    93013.991    2964.5392    24050.955   -3671.4496    77.541207 
   19800    1256.4118   -118.98159    1.1368278   -117.84476   -21456.052    4.2839454    4.2839454    4.2839454   -21456.052    -21403.92   -48448.547    5484.3126   -10716.364    -6206.329    1160.2347    78.619772 
   19900    921.66385   -118.67107   0.83394082   -117.83713   -17430.443    4.2721863    4.2721863    4.2721863   -17430.443   -29003.925    10713.668   -34001.072   -89.987627   -2506.9005    9110.3573    77.974132 
   20000    901.57447   -118.66066   0.81576352   -117.84489   -8253.7156    4.2661477    4.2661477    4.2661477   -8253.7156   -16347.712   -24798.587    16385.153    8199.4582    137.90893     3546.747    77.643959 
   20100    1414.4774   -119.12281    1.2798489   -117.84296    8845.9906    4.2563032    4.2563032    4.2563032    8845.9906   -579.77082   -4990.2883    32108.031    703.78748   -13362.665    -4804.282    77.107689 
   20200    828.70948   -118.61592   0.74983375   -117.86608    29721.993    4.2844117    4.2844117    4.2844117    29721.993    24068.083   -5755.1656    70853.061   -1788.1278   -16562.898    -11663.99    78.645446 
   20300    965.05909   -118.71199   0.87320575   -117.83878   -7366.4145    4.2995051    4.2995051    4.2995051   -7366.4145    -5630.818   -20952.389    4483.9637   -10789.524   -13596.562    -1023.194    79.479553 
   20400    1265.4214   -118.95606    1.1449799   -117.81108    7153.3389    4.2593503    4.2593503    4.2593503    7153.3389   -845.60275   -8083.8142    30389.434    3891.1339    4362.2439    7295.7557    77.273409 
   20500     1384.652    -119.0798    1.2528623   -117.82694    10117.262    4.2642197    4.2642197    4.2642197    10117.262   -2618.6158    18653.134    14317.267   -1447.5239    13903.622   -1419.3092    77.538734 
   20600    1009.3045   -118.74547   0.91323988   -117.83223   -28189.188    4.3011019    4.3011019    4.3011019   -28189.188   -54383.778   -25528.053   -4655.7316    4117.6181    128.43176    5207.3204    79.568139 
   20700    983.30394   -118.71332   0.88971407    -117.8236   -10870.712    4.2790369    4.2790369    4.2790369   -10870.712   -49228.823    30807.671   -14190.985   -13199.693    9798.6675    3449.4704    78.349835 
   20800    1074.6531   -118.79121   0.97236868   -117.81884    38659.496    4.2475486    4.2475486    4.2475486    38659.496    14252.127    51525.966    50200.396     654.6139    13575.974   -1051.5927    76.632865 
   20900    1221.1833    -118.9545    1.1049523   -117.84955   -22303.393    4.2749644    4.2749644    4.2749644   -22303.393   -19750.942   -9206.7204   -37952.517    3020.2403   -13891.051   -7767.6722    78.126346 
   21000    617.57423   -118.40595   0.55879414   -117.84716    -2339.261    4.2846697    4.2846697    4.2846697    -2339.261   -37806.865    32087.192   -1298.1102    11047.448   -8864.9621   -9085.6496    78.659658 
   21100    1179.4871   -118.90067    1.0672247   -117.83345    19747.827    4.2565238    4.2565238    4.2565238    19747.827    5836.6211    49598.438    3808.4234   -2599.1298    5558.3205   -7151.8118    77.119674 
   21200    1323.8386   -119.04775     1.197837   -117.84991   -14746.573    4.2727459    4.2727459    4.2727459   -14746.573   -27140.716    9536.9216   -26635.926   -11270.058   -8469.9984   -6068.1807    78.004777 
   21300    1088.4795   -118.82285   0.98487913   -117.83797    -22686.14    4.2805651    4.2805651    4.2805651    -22686.14   -18645.795   -7112.5405   -42300.084   -7657.4955   -10184.564   -4053.0505     78.43381 
   21400    1139.5905   -118.85911    1.0311254   -117.82798   -5660.2552    4.2672869    4.2672869    4.2672869   -5660.2552   -32302.865   -16571.507    31893.606    2836.4299    15262.955    6866.0184    77.706177 
   21500    1018.7238   -118.76168   0.92176273   -117.83992   -14860.856    4.2780573    4.2780573    4.2780573   -14860.856   -54460.417    18386.971   -8509.1227    19420.717    8256.0565   -7256.9788    78.296037 
   21600    1537.0795   -119.22554    1.3907819   -117.83476   -13906.201    4.2672409    4.2672409    4.2672409   -13906.201   -19824.734   -5120.7961   -16773.075   -3179.2479    711.16922   -480.40459     77.70366 
   21700    1104.6287     -118.834   0.99949129   -117.83451    42385.028    4.2517413    4.2517413    4.2517413    42385.028    23676.204    50819.987    52658.892   -4098.5166   -2114.5759    385.86433    76.860018 
   21800    865.74444   -118.63409   0.78334376   -117.85075    -13952.93    4.2786392    4.2786392    4.2786392    -13952.93   -20233.076    6821.0908   -28446.804   -5360.0896    16576.609    8933.5852    78.327991 
   21900    1076.8625   -118.82173   0.97436786   -117.84736   -11294.089    4.2763239    4.2763239    4.2763239   -11294.089   -17118.795   -11962.109   -4801.3627    12180.983    8727.3797    -18171.79    78.200902 
   22000    1044.2903   -118.78384   0.94489583   -117.83894     17121.52    4.2606759    4.2606759    4.2606759     17121.52    28658.892    17276.355    5429.3143    5332.8003   -4568.1544   -4782.4781    77.345579 
   22100    1243.5388   -118.96574    1.1251801   -117.84056   -21344.715    4.2763592    4.2763592    4.2763592   -21344.715   -32541.624    5974.0655   -37466.587   -6707.9169   -5906.3919   -766.37723    78.202842 
   22200    912.92749   -118.66362   0.82603598   -117.83759    2020.4313    4.2736558    4.2736558    4.2736558    2020.4313   -12199.238    41412.776   -23152.244   -499.32278    7433.4388   -7181.5106    78.054624 
   22300    988.90024   -118.73452   0.89477772   -117.83974   -10923.076    4.2752083    4.2752083    4.2752083   -10923.076   -42724.103    11610.713   -1655.8392    16423.195    2678.5876    8345.6839    78.139716 
   22400    1014.5496   -118.75546    0.9179858   -117.83747   -10120.879    4.2793696    4.2793696    4.2793696   -10120.879   -30941.453    13613.614   -13034.799    504.47597   -12034.813    926.80519    78.368112 
   22500    1536.3337   -119.21405     1.390107   -117.82394    8826.9253    4.2610282    4.2610282    4.2610282    8826.9253    31180.817     109.6076   -4809.6488   -8209.2116    367.65479   -1653.0589    77.364767 
   22600    1123.1536   -118.85989    1.0162529   -117.84363   -4345.5236    4.2777513    4.2777513    4.2777513   -4345.5236   -18182.438   -2458.5483    7604.4151    86.131334   -8152.4025     4984.884    78.279242 
   22700    970.44584   -118.71777   0.87807979   -117.83969   -25479.665    4.2833237    4.2833237    4.2833237   -25479.665   -29131.089   -42729.417   -4578.4875    28488.063   -12714.911    5675.2448    78.585546 
   22800    1299.3197   -119.00046    1.1756517   -117.82481    19879.467     4.253715     4.253715     4.253715    19879.467    21500.345    29072.744    9065.3111    12855.842   -5938.1576   -8202.7254    76.967109 
   22900    1336.3133   -119.05498    1.2091243   -117.84585   -10630.772    4.2812801    4.2812801    4.2812801   -10630.772   -17494.209   -31317.983    16919.876    5302.6733   -4044.6268    3104.8961    78.473122 
   23000    1145.3342   -118.87516    1.0363224   -117.83884   -10894.796    4.2864569    4.2864569    4.2864569   -10894.796   -7375.3823   -16383.608   -8925.3977    5974.4339    7691.5905    9880.2094    78.758128 
   23100    1179.2521   -118.89359    1.0670121   -117.82658     18985.38    4.2557382    4.2557382    4.2557382     18985.38    4193.6863    17287.681    35474.773     4949.385   -4112.8898    9845.3169    77.076984 
   23200    745.66909   -118.52672   0.67469706   -117.85202   -8068.7611    4.2771249    4.2771249    4.2771249   -8068.7611   -58872.061    16513.369    18152.408   -550.47374   -5619.7825    18434.717    78.244855 
   23300    1202.8028    -118.9193    1.0883213   -117.83098   -26066.891    4.2841894    4.2841894    4.2841894   -26066.891   -68914.943    14490.008   -23775.739   -8088.8037     7668.939    970.85162    78.633207 
   23400    1319.0069   -119.01714    1.1934651   -117.82367    26925.434    4.2568153    4.2568153    4.2568153    26925.434    29891.697    51723.487    -838.8832    4709.0744    2178.4974    2292.9339    77.135522 
   23500    954.33668   -118.71252   0.86350388   -117.84901   -9856.9254    4.2689294    4.2689294    4.2689294   -9856.9254   -43757.145    1721.0371    12465.332    18155.139   -4524.8779   -8399.8929    77.795937 
   23600    1170.4675   -118.89917    1.0590636    -117.8401   -19489.083    4.2766527    4.2766527    4.2766527   -19489.083   -41401.718   -2565.7538   -14499.778    12420.161   -21182.159    -1230.834    78.218945 
   23700    752.97421   -118.51711   0.68130689   -117.83581      21832.2     4.273745     4.273745     4.273745      21832.2    6686.3686    37470.689    21339.543    8671.3832   -6103.2639    1075.0419    78.059507 
   23800    1170.5127   -118.89209    1.0591045   -117.83298   -18287.205    4.2760454    4.2760454    4.2760454   -18287.205   -43841.712    12887.644   -23907.548    6763.4498    1985.2337     943.0205    78.185625 
   23900    1110.3723   -118.84525    1.0046882   -117.84056    5397.2701     4.265078     4.265078     4.265078    5397.2701   -16209.193    61590.402   -29189.398    13637.803    -18554.44    4762.3362    77.585568 
   24000    1198.1082   -118.93022    1.0840735   -117.84615    12974.498    4.2662943    4.2662943    4.2662943    12974.498    16917.131    27191.496   -5185.1328    5735.0039   -14946.491   -3405.3729    77.651963 
   24100    1318.4311   -119.03308    1.1929442   -117.84014   -15479.451    4.2748259    4.2748259    4.2748259   -15479.451   -31236.001   -9124.5185    -6077.835   -5466.1795    1145.8336    6636.1377    78.118752 
   24200    1105.8663    -118.8363     1.000611   -117.83569   -11328.615    4.2691832    4.2691832    4.2691832   -11328.615    -33597.74   -7076.1459    6688.0408    -4733.729     1939.239   -1074.9362    77.809812 
   24300    1037.0229   -118.78443   0.93832011   -117.84611    7584.3553    4.2678399    4.2678399    4.2678399    7584.3553     36898.58    3755.4505   -17900.965   -11957.017   -4805.0964    4113.1382    77.736386 
   24400    1584.3069   -119.27968    1.4335141   -117.84616   -32456.163    4.2841355    4.2841355    4.2841355   -32456.163   -27144.254   -29638.483   -40585.753    5527.0657   -44.223606   -6861.1181    78.630241 
   24500    1123.2167   -118.84934    1.0163101   -117.83303   -5748.9666    4.2737428    4.2737428    4.2737428   -5748.9666   -32563.024    6420.2182    8895.9057    -19106.13    10696.112    14275.868    78.059391 
   24600     1100.077   -118.82185   0.99537276   -117.82648    9847.9897    4.2563231    4.2563231    4.2563231    9847.9897   -30680.835    30951.921    29272.883   -10542.548     -3762.57    7660.4467    77.108769 
   24700    924.63596   -118.68186   0.83663004   -117.84523   -12121.935    4.2783085    4.2783085    4.2783085   -12121.935   -51922.576    33622.767   -18065.995    5306.6674   -9772.2336    10799.695    78.309832 
   24800    926.69573   -118.67596   0.83849377   -117.83747    1160.2265    4.2750388    4.2750388    4.2750388    1160.2265    -27077.05     2519.076    28038.653    20104.291   -9570.5433    10681.299    78.130426 
   24900    1248.8813   -118.96458     1.130014   -117.83457   -1226.9957    4.2690115    4.2690115    4.2690115   -1226.9957    1920.9905   -22141.547     16539.57   -7324.0599   -5038.0143    6994.1618    77.800428 
   25000     1238.399   -118.95421    1.1205294   -117.83368    -33967.33    4.2818273    4.2818273    4.2818273    -33967.33   -32476.617   -41942.035   -27483.337    9390.7544   -12589.484    11051.825    78.503214 
   25100    1453.7767   -119.14266    1.3154077   -117.82726     6689.851    4.2626267    4.2626267    4.2626267     6689.851    18472.767   -6540.1245    8136.9102    19036.886   -5353.4891   -15591.852    77.451871 
   25200    936.57643   -118.69378   0.84743403   -117.84635    4969.4216     4.281195     4.281195     4.281195    4969.4216    48638.718   -27150.883   -6579.5699    5094.9565    -3717.701    9554.8157    78.468443 
   25300    981.99094   -118.71982   0.88852604   -117.83129   -22506.154    4.2866958    4.2866958    4.2866958   -22506.154   -17191.581   -46305.867   -4021.0145   -6762.4546   -5046.4332    12435.967    78.771296 
   25400    762.35849   -118.50615   0.68979798   -117.81635    64431.583    4.2455107    4.2455107    4.2455107    64431.583    49983.097    72943.635    70368.017     700.0347    5907.0405    6602.1331    76.522619 
   25500    1304.3031   -119.02347    1.1801608   -117.84331   -6152.5901    4.2744661    4.2744661    4.2744661   -6152.5901   -14101.097    -17097.11    12740.436    14110.917    484.30315    2146.0508     78.09903 
   25600    1325.6682   -119.01857    1.1994925   -117.81908   -25218.676    4.2960025    4.2960025    4.2960025   -25218.676   -27066.204    12637.522   -61227.345   -2266.8712   -8655.8664   -5938.7306    79.285463 
   25700    1213.4432   -118.90542    1.0979489   -117.80747    7920.8246    4.2639365    4.2639365    4.2639365    7920.8246    8420.8288    17122.267   -1780.6225    7278.5711     4043.929    7634.6725    77.523289 
   25800    739.85302   -118.49641   0.66943456   -117.82698   -7040.0772    4.2671243    4.2671243    4.2671243   -7040.0772   -3255.5633   -30209.911    12345.242    17801.692    4435.7298   -913.61692    77.697289 
   25900    1319.3431   -119.02097    1.1937694    -117.8272   -17098.877    4.2810322    4.2810322    4.2810322   -17098.877   -43062.352   -25742.191    17507.911   -526.31823   -1587.8081    1272.1429    78.459492 
   26000    1250.0045   -118.95816    1.1310304   -117.82713    8770.1618    4.2753841    4.2753841    4.2753841    8770.1618   -32416.609    19071.094    39656.001    5497.4126   -15920.036     11530.68    78.149359 
   26100    589.26139   -118.36857   0.53317608    -117.8354    4706.9526     4.272126     4.272126     4.272126    4706.9526   -6032.8948   -27125.248    47279.001    22496.156   -5877.5346    7176.0721    77.970833 
   26200    996.16557   -118.73136   0.90135154   -117.83001    5770.0617    4.2717273    4.2717273    4.2717273    5770.0617   -17681.634    1625.8202    33365.999    13867.168    5157.7577   -1991.1039    77.949004 
   26300     1454.462   -119.14055    1.3160277   -117.82453    2802.9565    4.2760558    4.2760558    4.2760558    2802.9565   -23940.008    38323.127   -5974.2493    54.406417    4739.9197   -9368.6471    78.186195 
   26400    1399.8949   -119.09371    1.2666543   -117.82705    -11621.67    4.2752313    4.2752313    4.2752313    -11621.67    15385.094    -21653.67   -28596.434    9430.4203   -669.54667   -1545.8494    78.140976 
   26500    714.30064   -118.47682   0.64631423   -117.83051    32481.418    4.2653145    4.2653145    4.2653145    32481.418    23447.217    67571.999    6425.0376    21891.319   -5051.1847    5434.6368    77.598471 
   26600     1038.969   -118.77182   0.94008102   -117.83173   -4094.6827    4.2734464    4.2734464    4.2734464   -4094.6827    -13147.59   -3665.2366     4528.778    3305.1382   -3938.9827    4725.7159    78.043151 
   26700    1122.4408   -118.84773     1.015608   -117.83213   -13485.497    4.2783855    4.2783855    4.2783855   -13485.497   -25758.796   -18912.759    4215.0634   -23684.084   -6756.5237    10165.055    78.314058 
   26800    1415.0869    -119.1095    1.2804004    -117.8291   -6993.5333    4.2619461    4.2619461    4.2619461   -6993.5333   -33285.041    8342.3412    3962.0995    -6282.221    7139.3486    4656.2982    77.414778 
   26900     957.8297   -118.71127   0.86666444    -117.8446   -13174.515    4.2692206    4.2692206    4.2692206   -13174.515   -21033.823    3684.3555   -22174.076    32394.954     2224.527    4720.3009    77.811861 
   27000    1047.0766   -118.78501   0.94741688   -117.83759   -32149.791    4.2815047    4.2815047    4.2815047   -32149.791   -44476.775   -53052.267    1079.6678   -16124.212    5805.8843   -3372.0096    78.485469 
   27100    761.89358   -118.52013   0.68937732   -117.83075    24995.457    4.2701697    4.2701697    4.2701697    24995.457   -15901.461    43940.087    46947.744   -8122.5082    10041.858   -15856.408    77.863767 
   27200    1419.9465   -119.11363    1.2847975   -117.82884    13188.554    4.2597901    4.2597901    4.2597901    13188.554   -6614.6209    9837.4492    36342.833     27001.31   -7959.5104   -6270.7116    77.297352 
   27300    937.29829   -118.68742   0.84808719   -117.83933    20305.945     4.274273     4.274273     4.274273    20305.945    10316.152    54431.323   -3829.6398    1937.8561    3628.1298   -5242.4495    78.088447 
   27400    897.77926   -118.64504   0.81232955   -117.83272   -17234.173    4.2859454    4.2859454    4.2859454   -17234.173   -2120.6408   -5256.6669   -44325.213    -17470.11   -6227.5871    5887.3277    78.729939 
   27500    1166.1408    -118.8802    1.0551487   -117.82505    -1729.562    4.2639732    4.2639732    4.2639732    -1729.562    3343.9889   -9537.8638     1005.189    258.29638     2777.212    13338.904     77.52529 
   27600    1476.3739   -119.16624    1.3358541   -117.83039    15282.304    4.2571733    4.2571733    4.2571733    15282.304    26920.134    18212.015     714.7637    6421.1182     -6473.84    7587.9387    77.154987 
   27700    961.53247   -118.71517   0.87001479   -117.84515   -1975.3174    4.2858058    4.2858058    4.2858058   -1975.3174    -22624.84    16708.871   -9.9821887   -3688.4235   -1921.8745    1969.3285    78.722246 
   27800    1041.0804   -118.76712   0.94199141   -117.82512   -8337.4193    4.2785336    4.2785336    4.2785336   -8337.4193   -146.50556   -49613.165    24747.413   -10944.203   -2178.2552   -2668.7748    78.322195 
   27900    1053.5552   -118.76859   0.95327888   -117.81531    36974.427     4.251428     4.251428     4.251428    36974.427     29324.98    23706.019    57892.283    2669.6373   -19987.498   -8671.5616    76.843033 
   28000    1251.4629   -118.97944      1.13235   -117.84709   -14331.873    4.2776208    4.2776208    4.2776208   -14331.873   -17302.878   -18698.452   -6994.2896    1544.5872   -7556.4963   -5276.5572    78.272075 
   28100    1350.1752   -119.05497    1.2216669    -117.8333   -15871.288    4.2815841    4.2815841    4.2815841   -15871.288    5602.0878   -21971.167   -31244.786   -11772.577    8337.1746   -14896.568    78.489838 
   28200    968.16294   -118.70217   0.87601417   -117.82616    26013.194    4.2630979    4.2630979    4.2630979    26013.194    29570.868     33674.24    14794.473    16.330148   -6936.9476    626.12237    77.477557 
   28300    914.54054   -118.66233    0.8274955   -117.83483   -2902.0114    4.2724687    4.2724687    4.2724687   -2902.0114    40767.196   -17683.767   -31789.463    7569.8861   -727.86723   -1046.1879    77.989595 
   28400    925.61286   -118.67435   0.83751397   -117.83684   -9932.5482    4.2716335    4.2716335    4.2716335   -9932.5482   -7619.2379    1354.7975   -23533.204    6028.1703   -6522.4037   -384.96446     77.94387 
   28500    1235.9043   -118.95595    1.1182722   -117.83768    822.85949    4.2563815    4.2563815    4.2563815    822.85949   -18198.438    14363.658     6303.358   -4623.8503     5945.567    5042.2385    77.111942 
   28600    1071.2943   -118.81596   0.96932959   -117.84663   -5717.2669    4.2698886    4.2698886    4.2698886   -5717.2669   -17365.676   -11529.998    11743.874   -15283.705    5305.4713    11531.252    77.848392 
   28700    935.58675   -118.68288   0.84653856   -117.83634   -23006.067    4.2802451    4.2802451    4.2802451   -23006.067    -41604.77    24996.777   -52410.207    14126.585   -15028.024    641.02801    78.416222 
   28800    980.15486   -118.72425   0.88686472   -117.83738    18265.183    4.2585167    4.2585167    4.2585167    18265.183     19218.71    31253.355    4323.4828    1392.2835    7607.0229   -2949.8546    77.228046 
   28900    1481.9318   -119.17913     1.340883   -117.83825    6162.9966    4.2637959    4.2637959    4.2637959    6162.9966   -21940.635    23405.918    17023.707   -7762.6525    4721.0784   -3675.2848     77.51562 
   29000    1063.0545   -118.80106   0.96187407   -117.83918   -3769.0511    4.2804598    4.2804598    4.2804598   -3769.0511   -811.43261    25992.851   -36488.572   -2959.7486   -20307.705   -8234.6787    78.428023 
   29100    956.81295   -118.70229   0.86574446   -117.83655   -13422.812    4.2711973    4.2711973    4.2711973   -13422.812    3810.6385   -18632.527   -25446.549   -4804.7846   -11704.815    4629.4092     77.91999 
   29200     1370.934   -119.06949    1.2404499   -117.82904    9611.6014    4.2569669    4.2569669    4.2569669    9611.6014   -9906.4333    21148.454    17592.784     8302.788    12803.166    6041.4861    77.143762 
   29300    1530.0203    -119.2287    1.3843945   -117.84431   -20876.384    4.2726383    4.2726383    4.2726383   -20876.384   -34561.064   -7209.5469   -20858.542    6929.1586   -3526.5391     4940.413    77.998883 
   29400    1049.9338   -118.79346   0.95000217   -117.84346   -32734.717    4.2872477    4.2872477    4.2872477   -32734.717   -41252.549   -18358.133   -38593.469    4177.5163   -15115.025   -10344.635    78.801727 
   29500    728.34216   -118.49269   0.65901929   -117.83367    15420.639    4.2640557    4.2640557    4.2640557    15420.639   -1454.1047   -8114.3414    55830.362   -6074.1076    12482.808   -9731.9708    77.529789 
   29600    1290.0742   -119.00821    1.1672863   -117.84092    4808.3455    4.2628993    4.2628993    4.2628993    4808.3455   -10331.807     8334.324    16422.519    21919.325    14543.672    5940.2893    77.466731 
   29700    984.39921   -118.73291   0.89070509   -117.84221   -7016.8142    4.2841888    4.2841888    4.2841888   -7016.8142   -35274.056    10311.349    3912.2636    5341.4961    5349.9095     3253.408    78.633176 
   29800    1328.3358   -119.03198    1.2019061   -117.83008   -29792.738       4.2741       4.2741       4.2741   -29792.738   -32152.215   -30932.975   -26293.024   -25924.826   -6900.7819    10699.672    78.078964 
   29900    1119.7432   -118.84002    1.0131671   -117.82685    15536.927    4.2634727    4.2634727    4.2634727    15536.927    57408.907   -13311.204    2513.0765   -8592.7026    3773.4277    7036.8655    77.497996 
   30000     921.3481   -118.67131   0.83365513   -117.83766   -11380.257    4.2891854    4.2891854    4.2891854   -11380.257    34343.413   -49042.736   -19441.447    9664.6812    857.86473    2364.8271     78.90862 
   30100    1084.0906     -118.805   0.98090799    -117.8241    7249.0405    4.2708396    4.2708396    4.2708396    7249.0405    52547.882   -27760.296   -3040.4638    13605.563    8652.4661    877.72872    77.900416 
   30200    1318.9162   -119.01516    1.1933831   -117.82178    31123.099    4.2534828    4.2534828    4.2534828    31123.099    45251.476    19505.488    28612.332   -281.53969   -22.071123   -3896.1659    76.954504 
   30300    1129.2146   -118.86558    1.0217371   -117.84385   -39061.616    4.2841021    4.2841021    4.2841021   -39061.616   -29370.091   -42107.739   -45707.018    19867.171    1936.4732   -1156.1342    78.628401 
   30400    592.34616   -118.37676   0.53596725    -117.8408   -1675.9872    4.2726284    4.2726284    4.2726284   -1675.9872    47356.242   -54966.635    2582.4316    18426.234   -7360.8424    820.26762    77.998341 
   30500    1014.0708    -118.7522   0.91755253   -117.83464    21849.195     4.262345     4.262345     4.262345    21849.195    30794.719   -4983.0369    39735.902   -453.21166   -4624.5179   -11703.957    77.436516 
   30600    1311.3071   -119.02102    1.1864982   -117.83452   -10970.195    4.2867756    4.2867756    4.2867756   -10970.195    3578.7367    -4224.634   -32264.688   -16082.488   -6897.7456   -9775.2556    78.775696 
   30700    1125.1655   -118.84189    1.0180734   -117.82382   -22313.331    4.2825509    4.2825509    4.2825509   -22313.331   -16624.001   -10200.872   -40115.119    10830.246    8038.1967    1135.3387    78.543018 
   30800    690.92885   -118.44738   0.62516694   -117.82221    30314.489    4.2569746    4.2569746    4.2569746    30314.489    13659.406    47242.146    30041.916    26390.657    16407.972   -1542.8048    77.144179 
   30900    1314.0302   -119.02904    1.1889622   -117.84008   -598.07632     4.265027     4.265027     4.265027   -598.07632   -16882.569   -18498.919    33587.259    554.70178    8998.8798    14805.303    77.582784 
   31000    880.08566   -118.63795      0.79632   -117.84163    2960.2668    4.2866814    4.2866814    4.2866814    2960.2668   -6433.1275   -34397.386    49711.314    10776.905    11200.964    -3388.201    78.770502 
   31100    1026.9722   -118.76192   0.92922603    -117.8327   -9661.8133     4.276537     4.276537     4.276537   -9661.8133   -39432.456   -41858.894     52305.91    17159.059    -1458.562   -9946.4172    78.212599 
   31200    980.37682   -118.71578   0.88706555   -117.82872    26462.609    4.2615718    4.2615718    4.2615718    26462.609    17382.869   -2020.0966    64025.054    3819.4932    1639.7103   -8756.3775    77.394383 
   31300    1223.6327   -118.94725    1.1071686   -117.84009   -22524.435    4.2829974    4.2829974    4.2829974   -22524.435   -30752.571   -31502.402   -5318.3322    2821.4715    6574.1735   -8066.5176     78.56759 
   31400    772.05277   -118.54078   0.69856957   -117.84221   -5920.5375    4.2661783    4.2661783    4.2661783   -5920.5375   -18823.832   -8558.9914    9621.2103    7394.7745   -11765.738   -8871.9714     77.64563 
   31500    1136.0342   -118.86135    1.0279076   -117.83344    34912.375    4.2475409    4.2475409    4.2475409    34912.375    13008.708     35878.48    55849.935    1123.3668   -7358.1914   -9435.2701    76.632448 
   31600    1482.6564   -119.18334    1.3415387    -117.8418   -21334.514    4.2866708    4.2866708    4.2866708   -21334.514   -26011.998   -1173.9401   -36817.603   -10804.001    330.51766   -6381.4041     78.76992 
   31700    1056.4609   -118.78416   0.95590799   -117.82826   -5509.4928    4.2811936    4.2811936    4.2811936   -5509.4928   -19563.693    -4277.993    7313.2078    2156.8482    14201.837    8863.7477    78.468364 
   31800    1035.4602   -118.75969   0.93690615   -117.82278    4147.5289    4.2649946    4.2649946    4.2649946    4147.5289    -4256.783   -3879.4468    20578.817    6009.7857   -10924.524    10009.916    77.581014 
   31900    1623.0817    -119.2952    1.4685984    -117.8266   -23214.615    4.2749609    4.2749609    4.2749609   -23214.615   -26785.465    -27327.38   -15531.002   -7613.0252    -3071.956   -1459.9758    78.126154 
   32000    1390.5667   -119.10223    1.2582139   -117.84402   -10892.886    4.2769949    4.2769949    4.2769949   -10892.886   -15712.992    -22641.87    5676.2041    2983.4122    -3947.475    616.43281     78.23772 
   32100    1183.9198   -118.92622    1.0712355   -117.85498   -3832.9301    4.2711707    4.2711707    4.2711707   -3832.9301   -15496.769    2130.6912    1867.2879    11347.305    813.04973    7526.9901    77.918536 
   32200    1255.8609   -118.98996    1.1363293   -117.85363    5959.8786    4.2734431    4.2734431    4.2734431    5959.8786   -20284.047   -19658.984    57822.666   -2836.0465     -9878.14    13715.133    78.042971 
   32300    1047.9245   -118.79936   0.94818407   -117.85117   -11693.158    4.2788721    4.2788721    4.2788721   -11693.158   -23412.631   -29705.843    18039.001    4219.1952   -90.901794   -12531.395    78.340786 
   32400     1105.096   -118.84019   0.99991407   -117.84027    7001.2934    4.2670869    4.2670869    4.2670869    7001.2934   -20790.275    3223.7151     38570.44    10799.812    1525.1595   -21968.214    77.695249 
   32500    1317.6175   -119.03872     1.192208   -117.84651    1196.5685    4.2786142    4.2786142    4.2786142    1196.5685   -36958.796    6021.0627    34527.439   -919.53072    9119.2369   -25303.827    78.326621 
   32600    1134.5287   -118.87226    1.0265454   -117.84572   -785.73111     4.288414     4.288414     4.288414   -785.73111   -30012.002   -19230.843    46885.651    540.82186    3223.2114    -7580.916    78.866053 
   32700    1053.5809   -118.78582   0.95330217   -117.83251   -15166.967     4.284866     4.284866     4.284866   -15166.967   -30812.054   -56977.731    42288.885    2539.6471   -6236.4236    3226.5028    78.670468 
   32800    1114.6764   -118.83399    1.0085827   -117.82541   -18127.179    4.2756973    4.2756973    4.2756973   -18127.179   -16158.199   -15045.003   -23178.335    4724.1094   -7387.9838   -699.33936    78.166532 
   32900     1324.476   -119.02743    1.1984137   -117.82902     2697.081    4.2711887    4.2711887    4.2711887     2697.081    11903.902    21161.318   -24973.977    14232.131      1357.23    5847.3819    77.919522 
   33000    1306.7531   -119.02563    1.1823777   -117.84325   -13254.543    4.2938172    4.2938172    4.2938172   -13254.543   -18753.986    23460.428   -44470.069    15813.321     3636.473    4399.5437    79.164533 
   33100    1030.5577   -118.77054    0.9324703   -117.83807   -2733.9848    4.2764374    4.2764374    4.2764374   -2733.9848   -23050.447    27863.318   -13014.825    8646.0233    13800.643   -22621.453    78.207134 
   33200    635.75787    -118.3988   0.57524708   -117.82355    52163.302    4.2426249    4.2426249    4.2426249    52163.302    48090.788    64901.226    43497.893    1748.8008    -11470.01   -38302.021    76.366677 
   33300    940.56236   -118.71427   0.85104059   -117.86323   -14121.975    4.2862692    4.2862692    4.2862692   -14121.975   -54680.331    48289.495   -35975.088    9402.4624   -1887.4305   -15134.259    78.747781 
   33400    1263.8042   -118.97363    1.1435166   -117.83012   -43264.453    4.2989749    4.2989749    4.2989749   -43264.453   -79060.715    10053.474   -60786.118   -1500.9473    5694.4997    12819.986    79.450153 
   33500    1313.1547   -118.98936    1.1881699   -117.80119    9106.8791    4.2511966    4.2511966    4.2511966    9106.8791    5860.9457    15231.797    6227.8949   -2082.6794    17837.472    5076.5443    76.830486 
   33600    1160.5631   -118.88281    1.0501018   -117.83271   -16639.688    4.2659128    4.2659128    4.2659128   -16639.688   -9785.8163   -71789.376    31656.127   -9339.0908    2508.6899   -6835.4666     77.63113 
   33700    919.71571   -118.66445    0.8321781   -117.83227   -24219.463    4.2944068    4.2944068    4.2944068   -24219.463   -41694.523   -32113.402    1149.5367   -5974.6539   -1888.3239   -12439.181    79.197149 
   33800    888.25351   -118.62595   0.80371044   -117.82224    26997.163    4.2788086    4.2788086    4.2788086    26997.163    6841.6263    15811.508    58338.354    -849.2271    1753.0509   -10285.427    78.337296 
   33900    1419.2002   -119.10455    1.2841222   -117.82042   -5043.7244    4.2758776    4.2758776    4.2758776   -5043.7244   -28428.075   -15161.673    28458.575   -3389.4137   -7120.6264   -15157.295    78.176423 
   34000     1066.819   -118.79073   0.96528021   -117.82545    2959.9025    4.2699712    4.2699712    4.2699712    2959.9025    10141.637   -41454.803    40192.873    2585.9139   -3149.3993     -6997.88    77.852906 
   34100    889.41327   -118.64178   0.80475981   -117.83702    2806.9962    4.2751135    4.2751135    4.2751135    2806.9962    40931.281   -24531.973     -7978.32    4101.0671    15150.034    6359.6736    78.134521 
   34200    1393.7709   -119.08702    1.2611132   -117.82591    -36495.33     4.296288     4.296288     4.296288    -36495.33   -44953.269   -6987.7458   -57544.975   -4911.6997    3411.9618    17166.977    79.301275 
   34300    1345.1302   -119.03367    1.2171021   -117.81657    7540.2667    4.2708548    4.2708548    4.2708548    7540.2667   -20567.334    63200.393   -20012.259    2813.7003   -3752.5457   -10050.107     77.90125 
   34400    736.92329   -118.50097   0.66678368   -117.83419     39469.28    4.2669809    4.2669809    4.2669809     39469.28    21590.099    56261.499    40556.241    3929.5644    15168.497   -19073.844    77.689456 
   34500    960.12452   -118.69595   0.86874084   -117.82721   -18205.358    4.2949559    4.2949559    4.2949559   -18205.358   -50562.811    11484.865   -15538.129   -1251.5645    11426.052   -6095.6893    79.227532 
   34600    1211.7233   -118.91054    1.0963927   -117.81415    15315.986     4.271394     4.271394     4.271394    15315.986    8000.2671    48806.695   -10859.004    -13677.42   -12824.058    985.58146    77.930758 
   34700    1084.6608   -118.80187    0.9814239   -117.82045    13855.118    4.2638047    4.2638047    4.2638047    13855.118    5361.4731    64948.162    -28744.28   -13018.719   -421.08953   -4145.3908    77.516102 
   34800    1186.7046    -118.9041    1.0737553   -117.83034   -27434.563    4.2816375    4.2816375    4.2816375   -27434.563   -36132.101   -719.13448   -45452.453   -13370.204    13455.802    -327.0361    78.492776 
   34900    1215.3292   -118.92571    1.0996554   -117.82605    150.97067    4.2664774    4.2664774    4.2664774    150.97067     10873.65   -31612.329    21191.591   -3308.5091    3308.2591     11706.68    77.661961 
   35000    1128.2114   -118.85401    1.0208294   -117.83318    15418.759    4.2622885    4.2622885    4.2622885    15418.759    7526.0202   -17035.877    55766.133     8694.185    4033.7415   -4204.0929    77.433433 
   35100    855.25988   -118.61888   0.77385711   -117.84502    7356.3689     4.277659     4.277659     4.277659    7356.3689   -25546.166   -10875.019    58490.292   -7227.8523   -4094.4703   -23591.231    78.274174 
   35200    839.84285   -118.60098   0.75990746   -117.84107    6773.5556    4.2744429    4.2744429    4.2744429    6773.5556    7627.2838   -37071.235    49764.618    -11134.44   -3179.4684    -16088.65    78.097759 
   35300    1138.7784   -118.86241    1.0303906   -117.83202    4511.9716    4.2677074    4.2677074    4.2677074    4511.9716    10124.913   -35505.764    38916.766    3502.2547    9437.6411    3433.4203    77.729148 
   35400    1389.1887   -119.08798    1.2569671   -117.83101   -10495.095    4.2721989    4.2721989    4.2721989   -10495.095   -22705.404   -19517.478    10737.597     3454.478   -978.07148    15568.094    77.974822 
   35500    1200.1286   -118.92517    1.0859015   -117.83927   -24049.616    4.2720792    4.2720792    4.2720792   -24049.616   -8980.6739   -26508.305   -36659.869   -9793.6059   -1979.4943    830.08412    77.968268 
   35600    968.50786   -118.71852   0.87632626   -117.84219    12019.827    4.2732093    4.2732093    4.2732093    12019.827    25007.109    34631.184   -23578.811   -10175.729     4281.896   -12693.845    78.030162 
   35700    1252.7091   -118.96059    1.1334775   -117.82711    2658.4253    4.2815028    4.2815028    4.2815028    2658.4253    12972.803    6557.7392   -11555.266    3134.3539   -9675.4371   -14691.761    78.485365 
   35800    1124.5545   -118.83711    1.0175206   -117.81959     17683.68    4.2667036    4.2667036    4.2667036     17683.68    23012.757    24632.872    5405.4102   -8429.6945    3825.6276    -4321.235    77.674315 
   35900    822.67187   -118.56994    0.7443708   -117.82557    8906.7857    4.2703208    4.2703208    4.2703208    8906.7857    66070.654   -24631.709   -14718.589   -17603.302    6178.1427   -15596.286     77.87203 
   36000    1349.8316   -119.04079     1.221356   -117.81944   -40883.205    4.2905949    4.2905949    4.2905949   -40883.205   -25359.805   -67446.618   -29843.191    1923.4018    7358.8537   -1596.8473     78.98644 
   36100    1269.8312   -118.95745    1.1489699   -117.80848     17777.78    4.2707746    4.2707746    4.2707746     17777.78    14869.146   -8326.4252    46790.619   -6811.0483     -8400.42    2035.3569    77.896859 
   36200    840.57249   -118.58002   0.76056765   -117.81945    28857.151    4.2678132    4.2678132    4.2678132    28857.151   -4522.1288    10626.998    80466.584   -20210.742    -12696.05   -24894.039    77.734932 
   36300    899.65966   -118.63888   0.81403097   -117.82485   -31041.227    4.2949742    4.2949742    4.2949742   -31041.227   -65977.238   -31660.157    4513.7131   -665.97909    3724.0167   -15525.587    79.228543 
   36400    1438.1804   -119.10823    1.3012958   -117.80693   -9387.6719    4.2702176    4.2702176    4.2702176   -9387.6719    8983.4282   -14037.736   -23108.708    11396.916   -1113.9767    10258.292    77.866384 
   36500    995.92368   -118.71782   0.90113268   -117.81668    39600.253    4.2577331    4.2577331    4.2577331    39600.253    64470.525    38680.876    15649.359    -15394.47   -14146.657   -1202.2963    77.185427 
   36600    713.22396   -118.47207   0.64534003   -117.82673   -9120.7211    4.2973809    4.2973809    4.2973809   -9120.7211    47405.568   -34364.555   -40403.176    -34930.36   -3161.2266   -10156.453    79.361808 
   36700    1373.7891   -119.04205    1.2430333   -117.79902   -15318.728    4.2815371    4.2815371    4.2815371   -15318.728    6984.3562   -18032.428    -34908.11    125.87679    21918.719    13902.568    78.487256 
   36800    1219.5079   -118.89605    1.1034364   -117.79261   -14779.425    4.2671707    4.2671707    4.2671707   -14779.425   -15831.471   -35681.244    7174.4411    2121.6927   -6911.5557      1315.05    77.699827 
   36900    713.82338   -118.45551    0.6458824   -117.80963    2174.4292    4.2725206    4.2725206    4.2725206    2174.4292   -10357.955   -27359.216    44240.458   -19835.846   -4305.8431   -5174.2014    77.992441 
   37000    1315.8615   -118.99944    1.1906191   -117.80882    2619.2779    4.2649924    4.2649924    4.2649924    2619.2779    -12061.21    12052.997    7866.0461   -5655.3581    10273.512   -7841.9928    77.580896 
   37100    1225.4815   -118.93399    1.1088414   -117.82515   -13465.096    4.2717614    4.2717614    4.2717614   -13465.096   -14390.288     8966.666   -34971.667     1920.047    12743.345   -708.51278    77.950867 
   37200    1133.3529   -118.85292    1.0254816   -117.82744   -28210.086    4.2706281    4.2706281    4.2706281   -28210.086   -22773.302   -31979.092   -29877.863    -24632.87     -10615.3    4273.1474    77.888844 
   37300    957.91482   -118.69532   0.86674146   -117.82858   -2350.8344    4.2672927    4.2672927    4.2672927   -2350.8344    1465.8327   -12184.702    3666.3658   -12776.969   -3806.4002    -12000.64    77.706489 
   37400    1151.7669   -118.86988    1.0421429   -117.82774    3655.4323    4.2726881    4.2726881    4.2726881    3655.4323    1682.9225   -15215.929    24499.303    22701.632    17614.278   -7776.9838    78.001612 
   37500    1065.5667   -118.79481   0.96414713   -117.83066    20495.452    4.2669984    4.2669984    4.2669984    20495.452    46044.075   -3129.0918    18571.373    2864.2343    11326.262   -4573.2334    77.690417 
   37600    1012.7481   -118.75228   0.91635578   -117.83592   -1716.8345    4.2702503    4.2702503    4.2702503   -1716.8345    16466.878   -20494.093   -1123.2888   -12663.869   -6988.1176    6173.9001    77.868174 
   37700    1108.8993   -118.83787    1.0033554   -117.83451   -13245.592    4.2723375    4.2723375    4.2723375   -13245.592    5920.9877   -46075.215    417.45206    15219.453   -554.90568   -942.03458     77.98241 
   37800     1220.823   -118.93968    1.1046263   -117.83506    414.82099    4.2583734    4.2583734    4.2583734    414.82099    18929.131   -20315.433    2630.7648    15428.501    7823.2008    5966.3409    77.220255 
   37900    1228.4145   -118.95315    1.1114953   -117.84166   -3802.6935    4.2652876    4.2652876    4.2652876   -3802.6935   -3004.3583    5946.0119   -14349.734   -10729.732   -921.00817    17392.164    77.597003 
   38000    1066.0589   -118.80019   0.96459245    -117.8356   -17691.329    4.2813453    4.2813453    4.2813453   -17691.329   -45831.624   -5005.5557   -2236.8071   -2605.7103   -11106.592    -10817.92    78.476707 
   38100    963.25291   -118.70184   0.87157148   -117.83027    1075.7169    4.2633811    4.2633811    4.2633811    1075.7169   -9256.1142     612.4716    11870.793    16799.886   -17164.159   -23462.793    77.492997 
   38200    1000.0382   -118.73599   0.90485557   -117.83113    17188.001    4.2523733    4.2523733    4.2523733    17188.001   -4754.4257    20574.762    35743.665    7007.0556   -768.85261   -11550.225      76.8943 
   38300    1272.4462   -118.99059     1.151336   -117.83925    273.70605    4.2684247    4.2684247    4.2684247    273.70605    -460.1082   -25916.215    27197.441   -19628.139    9666.6698    4477.3966     77.76835 
   38400    1237.9086   -118.95968    1.1200857    -117.8396   -14968.081    4.2724663    4.2724663    4.2724663   -14968.081   -8921.8727   -12327.291    -23655.08   -3113.1655   -20183.596    4809.9171    77.989464 
   38500    1115.4877    -118.8505    1.0093168   -117.84118   -8882.2047    4.2568716    4.2568716    4.2568716   -8882.2047   -19323.518    17527.655   -24850.751    11080.328   -30832.514    4625.5461    77.138582 
   38600    1140.5553   -118.87649    1.0319984   -117.84449   -6894.4657    4.2556886    4.2556886    4.2556886   -6894.4657   -14278.165    236.72435   -6641.9566    5167.1465    17098.551     11324.44    77.074289 
   38700    1040.1263   -118.78553   0.94112815    -117.8444   -21864.653    4.2814293    4.2814293    4.2814293   -21864.653   -48102.021    18681.239   -36173.176   -21013.156   -7990.7465    -332.5768    78.481327 
   38800    771.50941   -118.52472   0.69807793   -117.82664    4507.0844    4.2819062    4.2819062    4.2819062    4507.0844    -46212.99    78917.314   -19183.071   -1265.2721   -31243.409   -4030.6975    78.507554 
   38900     1304.387   -118.99434    1.1802368    -117.8141    16186.309    4.2598482    4.2598482    4.2598482    16186.309   -8855.5757    42711.772    14702.731    9985.7296    9442.9648   -670.05999    77.300512 
   39000    1288.0537   -118.98197     1.165458   -117.81651   -2417.2817     4.262712     4.262712     4.262712   -2417.2817   -20141.484    836.44335    12053.195    2736.7664    9772.1614    7237.9556    77.456519 
   39100    665.61309   -118.43176   0.60226071    -117.8295   -27034.688    4.2847106    4.2847106    4.2847106   -27034.688   -49906.832   -28049.642   -3147.5908   -5222.0398   -33703.292    92.866174    78.661911 
   39200    1263.9206    -118.9658    1.1436219   -117.82218   -14282.587    4.2677295    4.2677295    4.2677295   -14282.587   -14467.029   -5050.3614    -23330.37    7844.3443   -21461.873   -954.77673    77.730356 
   39300    1607.6877   -119.26916    1.4546696   -117.81449    27669.794    4.2432863    4.2432863    4.2432863    27669.794    29204.429    13445.952    40359.001    3084.8192    13194.621    6653.8511      76.4024 
   39400     974.8555   -118.72436   0.88206974   -117.84229   -12619.163    4.2654004    4.2654004    4.2654004   -12619.163   -20781.091   -17511.518    435.11771   -13112.475   -19533.254    1926.4294    77.603159 
   39500    583.94837   -118.37188   0.52836876   -117.84351   -70.551407    4.2694213    4.2694213    4.2694213   -70.551407    12160.286   -7792.4703   -4579.4695   -13923.189   -42081.172    1790.4814    77.822831 
   39600    1366.6228   -119.06885     1.236549    -117.8323   -423.18171     4.262934     4.262934     4.262934   -423.18171   -15157.784   -9303.1569    23191.396    7774.2166    1298.4205    2723.8999    77.468621 
   39700    1509.9894   -119.19864    1.3662701   -117.83237   -449.34357    4.2611449    4.2611449    4.2611449   -449.34357   -4877.8653    -1594.473    5124.3076    2288.8609    6838.5995   -336.17619    77.371123 
   39800    878.95784   -118.64079   0.79529953   -117.84549    4827.6709    4.2558613    4.2558613    4.2558613    4827.6709   -36099.273     21045.69    29536.595   -11667.269   -33695.716    2475.9822    77.083673 
   39900    785.28699   -118.56503   0.71054417   -117.85448    4561.5953    4.2621652    4.2621652    4.2621652    4561.5953   -20709.812    4347.1923    30047.405   -9801.2132    -21413.21    3231.2691    77.426716 
   40000    1470.8012   -119.16747    1.3308118   -117.83666   -15770.711    4.2708832    4.2708832    4.2708832   -15770.711    16494.125   -26295.345   -37510.911    784.58387    21087.476   -311.80202    77.902801 
   40100    1309.2613    -119.0201    1.1846472   -117.83545    5996.1732    4.2567262    4.2567262    4.2567262    5996.1732    24592.102    6867.6498   -13471.232    5100.4668   -13439.329   -2911.0054    77.130676 
   40200    719.43869   -118.49884   0.65096325   -117.84788     18255.76    4.2609702    4.2609702    4.2609702     18255.76     33697.41    8163.3643    12906.506   -4620.0425   -45048.808    2139.7046     77.36161 
   40300    1321.7774   -119.03426    1.1959719   -117.83829   -19664.539    4.2693724    4.2693724    4.2693724   -19664.539   -5565.0267    -36010.44   -17418.149   -10197.332   -968.96444    3885.2284     77.82016 
   40400    1366.5037   -119.06723    1.2364412   -117.83079   -1693.9049    4.2560155    4.2560155    4.2560155   -1693.9049    13344.898   -15807.757   -2618.8558    6775.2226     2143.685     3258.151    77.092053 
   40500     790.7951    -118.5586   0.71552803   -117.84307   -4526.0451    4.2580428    4.2580428    4.2580428   -4526.0451   -2103.2922     8659.444   -20134.287    105.88933     -54414.5   -84.841769     77.20227 
   40600    1068.3489   -118.81032   0.96666457   -117.84366   -16755.431    4.2667681    4.2667681    4.2667681   -16755.431   -10246.134   -10678.163   -29341.996   -9418.8759   -27710.783   -4114.6174    77.677838 
   40700    1709.0031   -119.37965    1.5463419    -117.8333   -9993.7885    4.2689134    4.2689134    4.2689134   -9993.7885    19324.726   -37929.137   -11376.954    814.24594    12245.984    5089.1645    77.795065 
   40800    1193.4035   -118.92004    1.0798165   -117.84022   -5426.5072    4.2591962    4.2591962    4.2591962   -5426.5072    30352.844   -12270.916    -34361.45     807.5102   -21891.613   -1770.8966    77.265025 
   40900    720.80914   -118.49823   0.65220326   -117.84603     11241.27    4.2505246    4.2505246    4.2505246     11241.27     26135.82    14230.259   -6642.2703    2267.7145   -48525.595   -3260.5466    76.794056 
   41000    1207.7802   -118.94416    1.0928249   -117.85133   -9370.0047    4.2759845    4.2759845    4.2759845   -9370.0047    -272.2119   -29038.349    1200.5472   -612.02912   -19802.507     6086.134    78.182284 
   41100    1535.5827   -119.22138    1.3894275   -117.83195   -18790.417    4.2790283    4.2790283    4.2790283   -18790.417   -29199.971   -46784.411    19613.133   -1363.0243    21750.045   -2232.5043    78.349365 
   41200    856.62178   -118.61129   0.77508939    -117.8362    11166.362    4.2454936    4.2454936    4.2454936    11166.362    -3534.446     11609.49    25424.043   -812.30285   -29232.781   -6656.6058    76.521696 
   41300    569.98416   -118.36667   0.51573364   -117.85094     8688.418    4.2462139    4.2462139    4.2462139     8688.418    16003.623    25945.695   -15884.064     823.1519   -55026.148    1231.5432    76.560647 
   41400    1430.3498   -119.13692    1.2942105   -117.84271   -27791.854    4.2755472    4.2755472    4.2755472   -27791.854   -7206.6986   -38462.891   -37705.973   -5819.7935    8938.5763   -97.199492    78.158304 
   41500     1290.877   -118.99937    1.1680127   -117.83135   -23679.785    4.2800747    4.2800747    4.2800747   -23679.785    2783.3028   -38942.908   -34879.748   -4303.8777   -5337.3644   -3071.9929    78.406858 
   41600    689.55311   -118.45905   0.62392215   -117.83512   -2090.7418    4.2496372    4.2496372    4.2496372   -2090.7418    11393.319    17926.359   -35591.903    3715.9519   -66464.414   -5951.9655    76.745968 
   41700    1140.6741   -118.86733    1.0321059   -117.83523    15413.411     4.241252     4.241252     4.241252    15413.411    52307.768    15643.126   -21710.661   -4336.4126    -28410.58   -5170.5134    76.292566 
   41800    1534.2286   -119.22883    1.3882022   -117.84063   -33331.519    4.2795862    4.2795862    4.2795862   -33331.519   -22918.493   -40684.444    -36391.62   -8110.2104        19036    -347.4546    78.380015 
   41900    806.77645   -118.57466   0.72998828   -117.84467   -8729.4648    4.2680329    4.2680329    4.2680329   -8729.4648   -32163.976   -71.059643    6046.6409    2542.8915   -37386.288    2304.8082    77.746937 
   42000    939.09145    -118.6807   0.84970968   -117.83099    27968.448    4.2397477    4.2397477    4.2397477    27968.448    34390.698    29641.571    19873.076     1594.827   -53939.355   -5981.0026    76.211419 
   42100    1565.0758   -119.25733    1.4161135   -117.84121   -16196.357    4.2588358    4.2588358    4.2588358   -16196.357   -4607.4358   -26122.995    -17858.64    1434.0581    4205.9463   -1707.5628    77.245409 
   42200    1278.5851   -118.99656    1.1568907   -117.83967   -10396.263    4.2695411    4.2695411    4.2695411   -10396.263   -9406.1136   -26869.677    5087.0009   -2344.4553   -7037.3632    5578.5364    77.829387 
   42300    742.50129   -118.51856   0.67183077   -117.84673    -17628.82    4.2670746    4.2670746    4.2670746    -17628.82   -49368.298    7144.4802   -10662.643   -2147.4851   -64793.118   -1202.6458    77.694576 
   42400    1077.7217   -118.81847   0.97514527   -117.84333    3710.8501    4.2519846    4.2519846    4.2519846    3710.8501   -12259.816    2632.9491    20759.418    2226.0201   -26098.704   -7609.3022    76.873217 
   42500    1541.4433   -119.23608    1.3947303   -117.84134   -4244.8109    4.2570955    4.2570955    4.2570955   -4244.8109   -2214.0075   -36199.114    25678.688     2476.827    19174.778   -1319.8914    77.150753 
   42600    950.99387   -118.70415   0.86047924   -117.84367   -13611.653    4.2637248    4.2637248    4.2637248   -13611.653   -22515.434   -10889.928   -7429.5965   -4101.2452   -21379.334    8473.8841     77.51174 
   42700    963.36314   -118.71695   0.87167122   -117.84527    1039.9207    4.2527029    4.2527029    4.2527029    1039.9207   -12908.409    5565.5715      10462.6    175.02899   -32861.291     10405.92    76.912184 
   42800    1398.1048   -119.10901    1.2650346   -117.84397   -4230.2427    4.2618408    4.2618408    4.2618408   -4230.2427   -4306.8687   -24510.592    16126.733   -4593.2607    10964.165   -4156.2316    77.409039 
   42900    1196.9405   -118.92591    1.0830169   -117.84289   -6362.1053     4.260831     4.260831     4.260831   -6362.1053    8399.0847   -30947.828    3462.4277    -4834.538    24498.555    811.03701    77.354026 
   43000    809.60736   -118.57687   0.73254976   -117.84432    22843.574    4.2541006    4.2541006    4.2541006    22843.574        58374   -11938.022    22094.744   -3491.1776   -3844.1068    16472.142    76.988041 
   43100    1317.5912   -119.03017    1.1921842   -117.83799    708.49391    4.2587539    4.2587539    4.2587539    708.49391   -10274.544   -23255.242    35655.268   -852.32409   -20804.007    8159.7617    77.240955 
   43200    1352.9652   -119.06378    1.2241914   -117.83959   -5078.5004    4.2547046    4.2547046    4.2547046   -5078.5004   -9915.0296   -15396.121    10075.649   -2215.0509    28832.013   -6413.5282    77.020836 
   43300    665.55324   -118.45405   0.60220656   -117.85184   -7551.0547    4.2581075    4.2581075    4.2581075   -7551.0547    30029.407   -24453.075   -28229.495   -1917.5954    33001.458     13464.01     77.20579 
   43400    1061.4365   -118.80251   0.96041002    -117.8421   -7751.5492    4.2551735    4.2551735    4.2551735   -7751.5492    8518.2751    -39734.41    7961.4878   -888.24197   -17300.809    25397.179    77.046304 
   43500    1435.8571   -119.13892    1.2991937   -117.83973   -10161.538     4.256901     4.256901     4.256901   -10161.538   -9746.4716   -30865.149    10127.007   -4833.1894    5812.7622     4099.401    77.140182 
   43600    1067.1594   -118.81096   0.96558827   -117.84538    19325.394    4.2519505    4.2519505    4.2519505    19325.394    3548.9662   -5651.3308    60078.545    1260.5596    34530.575   -3401.3633    76.871366 
   43700    996.21193   -118.75093   0.90139349   -117.84954    -25518.53    4.2670127    4.2670127    4.2670127    -25518.53    67.994424   -51395.106   -25228.477   -4290.4474    17466.629     24163.35    77.691198 
   43800    1077.1398    -118.8154   0.97461874   -117.84078   -22153.119    4.2626127    4.2626127    4.2626127   -22153.119    26559.838   -58469.214    -34549.98   -7433.7436     389.3337     21091.38    77.451105 
   43900    1342.9499   -119.04508    1.2151293   -117.82995     4350.267    4.2427122    4.2427122    4.2427122     4350.267    -4526.928    11380.505    6197.2239     2334.616   -988.83449   -12991.548    76.371394 
   44000    898.00947   -118.65823   0.81253784   -117.84569   -14584.659    4.2624688    4.2624688    4.2624688   -14584.659    17827.538    -13460.31   -48121.205   -8076.3905     21678.95     12463.87     77.44326 
   44100    881.65929   -118.64127   0.79774385   -117.84353    6242.9119    4.2622665    4.2622665    4.2622665    6242.9119    70355.245   -33388.445   -18238.065   -1821.5555    1598.8597     35173.01    77.432237 
   44200    1319.7628   -119.02986    1.1941491   -117.83571    9974.9128    4.2576083    4.2576083    4.2576083    9974.9128    27056.953   -11873.544     14741.33    10217.942   -13265.191    7309.8972    77.178641 
   44300    1394.6889   -119.09792    1.2619438   -117.83598    -6925.426    4.2605952    4.2605952    4.2605952    -6925.426    15469.803     1754.058   -38000.139    3391.6003    5239.8392   -5143.2349    77.341184 
   44400    732.32061   -118.50971   0.66261908   -117.84709    23126.764    4.2520231    4.2520231    4.2520231    23126.764    60575.404   -3096.0195    11900.908     2270.438    12305.196     26257.93    76.875303 
   44500    901.56529   -118.66606   0.81575522   -117.85031   -8498.6816    4.2663433    4.2663433    4.2663433   -8498.6816   -2057.9119    9381.5202   -32819.653   -655.31656    1702.1595    24707.013    77.654638 
   44600    1380.9555   -119.08178    1.2495176   -117.83227   -1191.0769    4.2628624    4.2628624    4.2628624   -1191.0769   -1662.0355    25251.969   -27163.164   -4657.1625   -5669.3885   -20079.036    77.464717 
   44700    1104.0998    -118.8327   0.99901268   -117.83369    12369.712    4.2535949    4.2535949    4.2535949    12369.712    11643.539   -563.23382    26028.831   -3289.8739    15065.002    315.11017    76.960586 
   44800    826.40228   -118.58976   0.74774615   -117.84201    280.21396    4.2659225    4.2659225    4.2659225    280.21396   -5311.7432    13514.586   -7362.2009   -4090.4908    12849.723    37899.716    77.631664 
   44900    1282.6194   -118.98984     1.160541    -117.8293    -4607.642    4.2715391    4.2715391    4.2715391    -4607.642   -18506.341   -2287.5259    6970.9409    1535.7284   -11088.766    9031.5939    77.938698 
   45000    1226.9896   -118.93185     1.110206   -117.82164   -9221.4443    4.2634546    4.2634546    4.2634546   -9221.4443   -5140.7225   -29011.105    6487.4951    -14968.52     1089.014   -24655.251    77.497009 
   45100    659.38566   -118.42683     0.596626    -117.8302    6347.9376     4.252782     4.252782     4.252782    6347.9376    38360.816   -8736.1914   -10580.812   -9680.1972   -5771.8867     17551.98    76.916473 
   45200    882.24089   -118.64245   0.79827009   -117.84418    -1241.863    4.2606858    4.2606858    4.2606858    -1241.863    11627.328   -22628.172     7275.255    3243.0024    1945.0437    37392.315    77.346118 
   45300    1564.3047   -119.25701    1.4154157   -117.84159   -8992.8413    4.2576011    4.2576011    4.2576011   -8992.8413   -21642.284   -33224.115    27887.875   -340.84019      7733.54   -4403.8076    77.178245 
   45400    1229.4569    -118.9514    1.1124384   -117.83896    16461.589    4.2516043    4.2516043    4.2516043    16461.589    13576.559   -12118.946    47927.153   -1972.9475   -18989.848    -899.6129    76.852588 
   45500    532.56487   -118.33316   0.48187588   -117.85129   -11081.163    4.2704911    4.2704911    4.2704911   -11081.163   -859.45997   -43886.723    11502.692   -2152.0541   -774.83972    26823.975    77.881347 
   45600    976.63344   -118.72515   0.88367846   -117.84147   -18848.098    4.2636425    4.2636425    4.2636425   -18848.098   -6871.4738   -57033.629    7360.8088    14491.095     10880.69    5902.7292    77.507255 
   45700    1643.5004   -119.30874    1.4870737   -117.82167    4637.1887    4.2471834    4.2471834    4.2471834    4637.1887   -15614.477   -1479.4762    31005.519    9667.1462   -16945.967   -19139.438    76.613104 
   45800    969.18949   -118.71282   0.87694302   -117.83588   -9888.4025    4.2616155    4.2616155    4.2616155   -9888.4025   -14748.096    6194.4255   -21111.537   -4062.1227   -10509.607    15135.476    77.396762 
   45900    682.16513   -118.45872   0.61723734   -117.84148   -9640.3033    4.2680906    4.2680906    4.2680906   -9640.3033    9596.3091   -37346.111   -1171.1081     14615.47    9541.5019    29596.948    77.750086 
   46000    1241.8908   -118.95989    1.1236889    -117.8362    828.38981    4.2596845    4.2596845    4.2596845    828.38981    15437.173   -31542.972    18590.969    6917.1609    6741.3005   -8488.0607    77.291602 
   46100    1377.0595   -119.07871    1.2459924   -117.83272    8888.8328    4.2496152    4.2496152    4.2496152    8888.8328   -10079.827    1924.9188    34821.407   -1952.2791   -18086.709   -7843.9523    76.744778 
   46200    713.88004   -118.49261   0.64593366   -117.84668    18521.114    4.2606615    4.2606615    4.2606615    18521.114    39661.955    3810.5171    12090.869    1791.2583   -26530.476    30711.672    77.344795 
   46300    1075.2856   -118.80668   0.97294104   -117.83374   -23465.634    4.2816885    4.2816885    4.2816885   -23465.634    12778.636   -33078.165   -50097.374   -652.86363    6876.0837    19810.518    78.495582 
   46400    1526.9804   -119.19721     1.381644   -117.81556   -22951.677    4.2636586    4.2636586    4.2636586   -22951.677   -30401.927   -23619.704   -14833.401    7830.7752    -5513.581   -14409.494    77.508133 
   46500    1123.7111    -118.8398    1.0167574   -117.82305    8697.9282    4.2435432    4.2435432    4.2435432    8697.9282    12050.592     17081.16   -3037.9675    369.63885   -40897.237   -4187.5793    76.416277 
   46600    914.67642    -118.6735   0.82761844   -117.84588   -5785.1034    4.2648445    4.2648445    4.2648445   -5785.1034    17870.447   -15055.219   -20170.538    1655.9957   -16547.111    26489.596    77.572822 
   46700    1240.9012   -118.95278    1.1227935   -117.82999   -19119.038    4.2742956    4.2742956    4.2742956   -19119.038   -17573.981    -28970.72   -10812.415    7173.8027    7134.4975    14718.373    78.089683 
   46800     1208.486   -118.92039    1.0934635   -117.82693    7268.2222    4.2525454    4.2525454    4.2525454    7268.2222   -11810.129     17242.99    16371.806   -1747.9264   -25358.117   -5418.4165    76.903634 
   46900      1167.47   -118.89214    1.0563513   -117.83579    -5509.033    4.2547131    4.2547131    4.2547131    -5509.033   -9881.5886    2738.0259   -9383.5362   -2160.1821   -33535.669    8944.6239    77.021301 
   47000     1173.356   -118.89763    1.0616771   -117.83595   -7343.8483    4.2724192    4.2724192    4.2724192   -7343.8483    7292.1058   -13831.716   -15491.935   -2253.9349   -2847.4944    28649.379    77.986884 
   47100    1157.5505   -118.87245     1.047376   -117.82507   -20785.947    4.2704946    4.2704946    4.2704946   -20785.947   -3809.9695   -11730.052   -46817.818    2127.3572    11939.135    6210.7761    77.881542 
   47200    862.20644   -118.60693    0.7801425   -117.82679   -1042.6099    4.2516501    4.2516501    4.2516501   -1042.6099   -15985.029    30268.116   -17410.917     9163.236     -21993.4   -15629.297    76.855075 
   47300    1043.2551   -118.78284   0.94395917   -117.83888    8458.0498     4.253262     4.253262     4.253262    8458.0498   -16617.745    26572.957    15418.937   -5002.7869   -21123.156   -2847.5736    76.942522 
   47400    1519.0436   -119.20801    1.3744626   -117.83355   -7215.1865    4.2669598    4.2669598    4.2669598   -7215.1865   -13389.348   -6856.0463   -1400.1654   -1158.0398    10371.681    15554.135    77.688306 
   47500    913.24403   -118.65843   0.82632239    -117.8321    2901.6294    4.2670863    4.2670863    4.2670863    2901.6294   -16441.514     6994.776    18151.626    716.03043   -9269.5012   -11574.717    77.695217 
   47600    713.33476   -118.48179   0.64544028   -117.83635    11452.568      4.24888      4.24888      4.24888    11452.568   -24608.832    37277.716    21688.819    383.43103   -26150.968   -14282.004    76.704953 
   47700    1233.3005   -118.95535    1.1159162   -117.83943    18354.708    4.2473361    4.2473361    4.2473361    18354.708   -6294.7115    34458.142    26900.694    913.34928   -2992.9198    3562.7707    76.621367 
   47800    1537.7861   -119.22658    1.3914212   -117.83516   -18238.314     4.273686     4.273686     4.273686   -18238.314   -23714.607   -35860.026    4859.6905   -16921.816    4658.4966    731.29303    78.056278 
   47900    745.13149    -118.5111   0.67421063   -117.83689   -9073.5876    4.2655252    4.2655252    4.2655252   -9073.5876    -10744.63    1584.0873   -18060.221   -1003.3417   -13958.716    4571.5294    77.609974 
   48000    676.96939    -118.4427   0.61253613   -117.83017    19937.913    4.2467155    4.2467155    4.2467155    19937.913    9574.2808    56728.767   -6489.3089    8333.3446   -25964.784   -5901.1989    76.587785 
   48100    1483.5243   -119.17415     1.342324   -117.83182    127.30016    4.2636698    4.2636698    4.2636698    127.30016   -11980.266   -20892.191    33254.358   -4394.2042    7412.3575   -2513.1673    77.508741 
   48200    1382.9077   -119.07478     1.251284    -117.8235   -19435.213    4.2765455    4.2765455    4.2765455   -19435.213   -34718.227   -43302.413        19715    -2148.052    1359.8443    10553.646    78.213063 
   48300    593.34885    -118.3623   0.53687451   -117.82543    10248.587    4.2621386    4.2621386    4.2621386    10248.587   -9931.2341    36106.892    4570.1024    6410.5461   -29347.025     6964.053    77.425263 
   48400    1173.8742   -118.87707    1.0621461   -117.81493    15913.584    4.2469912    4.2469912    4.2469912    15913.584    11571.654     23882.53    12286.569     4508.928   -7351.4398    3692.5754    76.602699 
   48500    1319.7465   -119.02196    1.1941344   -117.82783    2134.2642    4.2627427    4.2627427    4.2627427    2134.2642   -8112.4883    2900.3774    11614.904   -2230.4899    5611.1418    1386.0266    77.458192 
   48600    789.24682   -118.54815   0.71412711   -117.83403   -16382.243    4.2772504    4.2772504    4.2772504   -16382.243   -35604.811    3003.2578   -16545.174   -10330.517   -16692.976   -342.41335    78.251744 
   48700    1181.6793   -118.89246    1.0692082   -117.82326   -8920.7108    4.2535343    4.2535343    4.2535343   -8920.7108   -14585.068    2684.6089   -14861.674    3423.0054   -10238.361   -1043.7776      76.9573 
   48800    1454.2644   -119.13399     1.315849   -117.81814   -3702.6106    4.2476453    4.2476453    4.2476453   -3702.6106   -2799.3295   -11330.168     3021.666    13076.395    10712.117   -7876.5342      76.6381 
   48900    970.41461   -118.71846   0.87805153   -117.84041    4318.7475    4.2617915    4.2617915    4.2617915    4318.7475    16169.809   -20084.284    16870.718   -6499.4748    863.18562   -7542.4961     77.40635 
   49000    930.06757   -118.67861   0.84154469   -117.83706     1991.909    4.2713819    4.2713819    4.2713819     1991.909    17133.111   -11860.387    703.00358   -15473.054   -26475.349    2802.5591    77.930094 
   49100    1439.2416    -119.1242     1.302256   -117.82194   -8773.0536    4.2614676    4.2614676    4.2614676   -8773.0536       8184.8   -15888.948   -18615.013     8150.127     2679.488   -4759.1009    77.388702 
   49200    1110.7314   -118.82757    1.0050131   -117.82255    29388.089    4.2371492    4.2371492    4.2371492    29388.089    51031.985     4584.465    32547.816    17882.967     13669.48   -5798.0898    76.071377 
   49300    847.45454   -118.61127   0.76679468   -117.84447   -6536.4193    4.2642111    4.2642111    4.2642111   -6536.4193   -13889.041   -17801.079    12080.862   -7470.7066   -27142.974   -885.00919    77.538267 
   49400    1356.6983   -119.05399    1.2275691   -117.82642   -19482.158    4.2741948    4.2741948    4.2741948   -19482.158   -12990.751   -18965.575   -26490.147   -14779.547   -824.82817   -5905.6208    78.084159 
   49500    1156.9324   -118.86809    1.0468167   -117.82128    4391.6344    4.2498275    4.2498275    4.2498275    4391.6344    9466.5008    19902.941   -16194.539     2346.555    39096.903    5128.4606    76.756278 
   49600    880.77151   -118.62774   0.79694057    -117.8308   -236.81393    4.2496193    4.2496193    4.2496193   -236.81393   -1550.6375    17803.496   -16963.301    9001.0224    3129.2395   -4764.6667       76.745 
   49700    1279.3373   -118.98876    1.1575712   -117.83119   -2341.5687    4.2663791    4.2663791    4.2663791   -2341.5687    15173.896   -2004.8809   -20193.721   -7915.9967   -16983.771   -2372.2453    77.656593 
   49800    1025.1786   -118.75545   0.92760318   -117.82784   -66.458446    4.2723244    4.2723244    4.2723244   -66.458446   -6448.1532    23563.337   -17314.559    1315.2094    32098.994   -694.17874    77.981696 
   49900    951.15341   -118.68313    0.8606236    -117.8225     7180.178    4.2602398    4.2602398    4.2602398     7180.178    22802.148    26910.001   -28171.615    8943.7996    23870.335   -6940.6224    77.321833 
   50000    1474.8488   -119.14447    1.3344742   -117.80999   -6912.3682     4.262456     4.262456     4.262456   -6912.3682    18507.855   -13574.635   -25670.325   -5718.7251   -15930.254    8972.2222    77.442567 
   50100    781.34817   -118.52678   0.70698025    -117.8198   -9428.6348    4.2739934    4.2739934    4.2739934   -9428.6348   -23885.251    18878.832   -23279.485    2463.0293    32284.962   -3310.7266    78.073119 
   50200     838.4215   -118.57475   0.75862139   -117.81613    12657.987    4.2658993    4.2658993    4.2658993    12657.987   -12828.316    32496.143    18306.135   -6961.0001    40465.919   -12883.046    77.630395 
   50300    1611.4999   -119.26313     1.458119   -117.80501    1084.4413    4.2620069    4.2620069    4.2620069    1084.4413    1651.1506   -24243.742    25845.915    3097.9691   -13680.073   -8065.0338    77.418089 
   50400    865.46881    -118.6026   0.78309437   -117.81951    9976.8644    4.2623351    4.2623351    4.2623351    9976.8644    15521.695    21355.148   -6946.2504    1149.5983    26263.532    3933.6563    77.435976 
   50500    711.90247   -118.47081   0.64414431   -117.82667   -217.54615    4.2707723    4.2707723    4.2707723   -217.54615    21842.544     26309.62   -48804.803    1223.0283    30866.767   -419.68054    77.896733 
   50600    1709.4994   -119.35449     1.546791    -117.8077   -21176.647    4.2708421    4.2708421    4.2708421   -21176.647    1458.4182   -44140.368    -20847.99    12087.782   -24223.331   -5431.3603    77.900556 
   50700    1078.0731   -118.79168   0.97546323   -117.81622    14390.574    4.2558435    4.2558435    4.2558435    14390.574    32888.497    9908.1918    375.03313   -6766.5575    31505.261     4950.865    77.082708 
   50800    630.28909   -118.40259   0.57029881   -117.83229    4815.0628    4.2605227    4.2605227    4.2605227    4815.0628    1941.0563    23103.068   -10598.936   -194.59258    63133.673    1531.1642    77.337239 
   50900    1199.9232   -118.90569    1.0857157   -117.81997   -11151.276    4.2686408    4.2686408    4.2686408   -11151.276   -14293.542   -11892.122   -7268.1654    7688.1185   -13374.798   -2776.8134    77.780159 
   51000    1080.3165   -118.79758   0.97749311   -117.82009   -6459.6452    4.2648907    4.2648907    4.2648907   -6459.6452   -33855.019    10919.831    3556.2527   -370.23414    4683.4707    1272.6403    77.575345 
   51100    909.44923   -118.65057   0.82288877   -117.82768   -9583.4593    4.2625712    4.2625712    4.2625712   -9583.4593   -60961.491    37222.569   -5011.4561    1371.3872    49370.639    5153.6268    77.448846 
   51200    1564.1785   -119.23413    1.4153015   -117.81883   -16708.805    4.2585183    4.2585183    4.2585183   -16708.805   -15571.516   -14722.474   -19832.425   -4149.0342   -4697.4279    9692.1634    77.228136 
   51300    1093.1076   -118.81571   0.98906675   -117.82665   -14243.309    4.2701735    4.2701735    4.2701735   -14243.309   -14781.144   -14416.635   -13532.146    12328.335   -6747.0492    4281.7911    77.863975 
   51400    576.89519     -118.352   0.52198689   -117.83002   -1944.5561    4.2676106    4.2676106    4.2676106   -1944.5561   -15657.575    26366.702   -16542.794    4199.5076    42126.399    6498.6424    77.723858 
   51500    1333.1468   -119.02476    1.2062592    -117.8185    14338.271    4.2564247    4.2564247    4.2564247    14338.271   -1878.8575    9541.4775    35352.192   -1250.4761    7848.7717    4498.9997    77.114289 
   51600    1572.0277   -119.23886    1.4224037   -117.81646   -26734.223    4.2754113    4.2754113    4.2754113   -26734.223   -39414.494   -39220.548   -1567.6282    1374.9463   -7074.2499   -4036.4731    78.150848 
   51700    618.03276   -118.37543   0.55920903   -117.81622    7830.0006    4.2697077    4.2697077    4.2697077    7830.0006    -34929.26    64630.938   -6211.6761    6257.7629    30508.579   -5601.6506    77.838494 
   51800    843.30615    -118.5743   0.76304112   -117.81126    26262.451    4.2586809    4.2586809    4.2586809    26262.451   -23561.381    77813.916    24534.818     8166.624   -463.77102    -5828.064    77.236984 
   51900     1574.797   -119.23552    1.4249094   -117.81061   -19466.394    4.2669763    4.2669763    4.2669763   -19466.394   -37121.141   -13398.933   -7879.1082    1351.6961   -13901.987    16120.901    77.689208 
   52000    989.84529   -118.71931   0.89563282   -117.82367    17183.543    4.2551677    4.2551677    4.2551677    17183.543   -5245.2115    21254.881    35540.959    9343.8091    38623.978   -6235.2954    77.045991 
   52100    926.73161   -118.67302   0.83852623   -117.83449   -2981.3721     4.257712     4.257712     4.257712   -2981.3721   -15568.442    6449.0536    175.27189   -2355.0963    13079.361   -6319.8022    77.184278 
   52200    1202.2821   -118.91945    1.0878501    -117.8316   -5784.6898    4.2575641    4.2575641    4.2575641   -5784.6898   -9232.9664    14153.275   -22274.378    648.50099   -38698.108    10343.978    77.176233 
   52300    1254.1503   -118.96968    1.1347815    -117.8349    6102.2725    4.2493969    4.2493969    4.2493969    6102.2725    26449.688   -1784.4155   -6358.4549    2526.0738   -1282.4674   -6749.7724    76.732949 
   52400    741.76326   -118.52143   0.67116298   -117.85026   -10890.429    4.2625016    4.2625016    4.2625016   -10890.429   -21086.076   -20656.905    9071.6937    6443.7487    42826.842    903.87081     77.44505 
   52500    1215.6673   -118.94179    1.0999613   -117.84183   -1654.6411    4.2537397    4.2537397    4.2537397   -1654.6411   -5630.0571   -7293.9592    7960.0931    4768.7152    8796.2122   -4424.1666     76.96845 
   52600    1464.9911   -119.16102    1.3255547   -117.83546    4032.1051    4.2537553    4.2537553    4.2537553    4032.1051    10943.798    26112.658   -24960.141   -6179.9525   -15349.499   -5412.7532    76.969296 
   52700    801.75189   -118.57144   0.72544196     -117.846   -1476.7745    4.2659993    4.2659993    4.2659993   -1476.7745   -9931.8225    18343.962   -12842.463   -9649.9869    28099.204    3380.4724    77.635858 
   52800    791.89372   -118.55535   0.71652208   -117.83882    15280.992    4.2642166    4.2642166    4.2642166    15280.992    5404.8536    28098.297    12339.826    1036.3715    27162.637   -9816.6747    77.538569 
   52900    1826.6556   -119.47117    1.6527963   -117.81837   -16792.005    4.2647981    4.2647981    4.2647981   -16792.005   -12129.007   -17141.222   -21105.785    4427.8406   -9440.3965    6105.7137    77.570294 
   53000    967.25634   -118.69397   0.87519387   -117.81878    492.11582    4.2681613    4.2681613    4.2681613    492.11582   -4463.9654    20596.996   -14656.683    964.22939    28201.751    8273.2053    77.753954 
   53100    800.71551   -118.54165   0.72450422   -117.81714   -13412.535    4.2739879    4.2739879    4.2739879   -13412.535   -28376.675   -8919.4502   -2941.4792   -9234.6221    23318.098    8328.6121    78.072819 
   53200    1446.8653   -119.11876    1.3091542    -117.8096    6597.7596    4.2570334    4.2570334    4.2570334    6597.7596    -19745.94    23470.256    16068.963    901.68535   -12972.835   -3290.7804    77.147379 
   53300    1056.2769   -118.78003   0.95574153   -117.82428    17003.255    4.2571371    4.2571371    4.2571371    17003.255   -25852.144    54154.258    22707.649   -8161.6248    17583.787   -5358.0734    77.153016 
   53400    745.48372    -118.5068   0.67452933   -117.83227   -14956.774    4.2727994    4.2727994    4.2727994   -14956.774   -39585.868    15824.006    -21108.46   -1776.2135    22265.738   -5774.7619     78.00771 
   53500    1274.8437   -118.97625    1.1535054   -117.82275   -1266.0261     4.257377     4.257377     4.257377   -1266.0261    13507.377   -13642.488   -3662.9674    4824.6319   -1825.7523    -7555.642    77.166061 
   53600    1361.6075   -119.05567    1.2320111   -117.82366    7364.9357     4.254754     4.254754     4.254754    7364.9357   -5185.8165   -2166.3436    29446.967    2066.2634   -7391.3994    11093.804    77.023523 
   53700    712.53012   -118.48064   0.64471223   -117.83593    5303.8113    4.2661361    4.2661361    4.2661361    5303.8113   -20938.042    7447.6165     29401.86   -2400.0084   -3862.5377   -8541.6707    77.643324 
   53800    992.60769   -118.73034    0.8981323   -117.83221    11967.534    4.2638467    4.2638467    4.2638467    11967.534    19042.644    -9667.919    26527.878   -155.18842     7025.719   -8893.3866     77.51839 
   53900    1744.9181   -119.39958    1.5788386   -117.82074   -6000.7605    4.2572941    4.2572941    4.2572941   -6000.7605   -9033.6617   -16402.601    7433.9807    2444.0828   -6107.9115    3490.0418    77.161555 
   54000    975.13871   -118.71783   0.88232599   -117.83551    13122.103    4.2535516    4.2535516    4.2535516    13122.103   -22610.959    15360.947     46616.32    4890.4166   -11804.591   -5675.0092    76.958236 
   54100    459.52509    -118.2621   0.41578796   -117.84631    581.50527    4.2637425    4.2637425    4.2637425    581.50527   -46597.459    28502.138    19839.836   -5631.5283    7229.5349   -2835.7583    77.512707 
   54200    1399.3833   -119.09915    1.2661914   -117.83295    -14606.28    4.2635106    4.2635106    4.2635106    -14606.28   -33230.295   -2208.9277   -8379.6164    -899.6318    14997.546    890.30386     77.50006 
   54300    1687.8659   -119.35067    1.5272165   -117.82346    2074.8027    4.2539208    4.2539208    4.2539208    2074.8027   -6490.1933    2961.2838    9753.3176    7365.5643   -7067.7823    14992.501     76.97828 
   54400    594.76755    -118.3783   0.53815818   -117.84014     6470.274    4.2579229    4.2579229    4.2579229     6470.274   -46113.306     53803.68    11720.447   -3230.3458    808.76606    7988.5025    77.195749 
   54500    689.71566   -118.45975   0.62406922   -117.83568   -2699.4733    4.2696777    4.2696777    4.2696777   -2699.4733   -74564.875    40931.302    25535.154   -3230.1076    18561.455   -3914.0202    77.836853 
   54600    1699.8772   -119.35472    1.5380846   -117.81664   -16836.339    4.2659445    4.2659445    4.2659445   -16836.339   -37995.872   -7249.9785   -5263.1673    6501.7772   -1494.3941    7902.6365    77.632861 
   54700    1250.0566   -118.95093    1.1310775   -117.81986    6983.5965    4.2493733    4.2493733    4.2493733    6983.5965    4951.9155    -2318.906     18317.78    3802.3871   -1165.5307   -1791.8108    76.731673 
   54800    649.44241   -118.42495   0.58762914   -117.83732   -4162.2124    4.2653331    4.2653331    4.2653331   -4162.2124   -57534.536    30169.176    14878.722   -8217.9099    16599.685    7902.1185     77.59949 
   54900    1182.2096   -118.89278     1.069688   -117.82309   -16687.307     4.268945     4.268945     4.268945   -16687.307   -54742.348    9716.8828   -5036.4557   -7094.6944    13604.447   -1784.3928    77.796792 
   55000    1289.1814   -118.98456    1.1664784   -117.81808     12729.15    4.2493228    4.2493228    4.2493228     12729.15    21628.048    16224.926    334.47674    -5048.938   -4120.9162   -4372.5244    76.728938 
   55100    1029.3742   -118.76401   0.93139939   -117.83261   -272.82198    4.2562908    4.2562908    4.2562908   -272.82198   -12920.464    26991.697   -14889.699   -1641.4578    5883.3512    11442.236    77.107013 
   55200    1080.8142   -118.81302   0.97794338   -117.83508   -1614.6805    4.2590946    4.2590946    4.2590946   -1614.6805   -33613.303    26705.372    2063.8889    1946.9635    4412.6018    3452.7785    77.259492 
   55300    1187.7633   -118.90568    1.0747132   -117.83097    7109.8661    4.2591499    4.2591499    4.2591499    7109.8661   -8732.0467    9601.5056    20460.139   -7282.4246   -5615.0015    1339.1473    77.262501 
   55400    1056.9566   -118.78701   0.95635656   -117.83065   -14264.114    4.2643775    4.2643775    4.2643775   -14264.114   -28678.255    2294.4789   -16408.567    -2673.194    5378.4558    -13712.69    77.547345 
   55500    989.05153   -118.72533   0.89491461   -117.83042    9282.3769    4.2528453    4.2528453    4.2528453    9282.3769   -20626.053    31946.855    16526.328   -2602.8982    1402.3343   -3916.6986    76.919908 
   55600    1261.2161   -118.97334    1.1411749   -117.83216    5198.7046    4.2566779    4.2566779    4.2566779    5198.7046   -21657.547    14826.588    22427.073    1557.6222   -4625.7848    7161.3325    77.128053 
   55700    1072.5864    -118.7996   0.97049869    -117.8291   -13265.346    4.2645162    4.2645162    4.2645162   -13265.346   -39477.969   -1268.5891    950.52124    5052.5197   -3832.2397    -23150.71    77.554912 
   55800    853.80406   -118.60217   0.77253986   -117.82963    8272.6246    4.2561218    4.2561218    4.2561218    8272.6246    -31537.93    38527.848    17827.955   -3150.8881    6524.1457   -14001.121    77.097829 
   55900    1174.3901   -118.89224    1.0626128   -117.82962   -5725.0528    4.2611121    4.2611121    4.2611121   -5725.0528   -20291.498     8983.884   -5867.5443   -3620.7003    11224.602      9794.33    77.369335 
   56000    1325.3916   -119.02433    1.1992422   -117.82509    -9484.092      4.26395      4.26395      4.26395    -9484.092   -11057.658   -13069.732   -4324.8856     6.666539   -3799.4039   -4716.8019    77.524024 
   56100    1086.0474   -118.80874   0.98267852   -117.82606   -7552.8215    4.2617263    4.2617263    4.2617263   -7552.8215   -4558.5921   -5809.6632   -12290.209   -4368.8034    1382.9414   -12645.313    77.402798 
   56200    937.16156   -118.67311   0.84796348   -117.82515    1326.4148    4.2556841    4.2556841    4.2556841    1326.4148   -16474.015    24569.889   -4116.6295   -1523.1457    16986.128   -2603.0935    77.074044 
   56300    1199.4154   -118.91309    1.0852562   -117.82783    12151.678    4.2583383    4.2583383    4.2583383    12151.678   -12100.506    13657.684    34897.857   -6449.8842    7231.7091     5372.111    77.218342 
   56400     1205.811   -118.91702    1.0910431   -117.82597   -1499.6822    4.2762254    4.2762254    4.2762254   -1499.6822    15778.461   -14060.282   -6217.2254   -4938.5459   -13490.573   -27500.835    78.195503 
   56500    1041.6546   -118.76073   0.94251094   -117.81822    1605.3327    4.2640784    4.2640784    4.2640784    1605.3327    3283.1721    13247.203   -11714.377       6547.8   -2499.3502   -25238.918     77.53103 
   56600    1059.8639   -118.77072   0.95898713   -117.81174    2858.8841    4.2511591    4.2511591    4.2511591    2858.8841   -38179.135    27152.856    19602.931   -2812.6474    19157.736    21022.723     76.82845 
   56700    1051.2092   -118.77578   0.95115618   -117.82462   -9240.3929     4.263307     4.263307     4.263307   -9240.3929   -8396.0079    4735.5981   -24060.769   -6137.3869    13745.791   -11080.076    77.488957 
   56800    1303.9193   -119.00684    1.1798136   -117.82703   -4978.9566    4.2631979    4.2631979    4.2631979   -4978.9566    22117.373   -18016.964   -19037.279   -1978.5359   -428.18237   -41932.947    77.483012 
   56900    1207.2823   -118.92215    1.0923744   -117.82978   -6518.7916    4.2576313    4.2576313    4.2576313   -6518.7916   -9122.2991   -14695.882     4261.806   -15264.757    10515.105    9970.6085    77.179891 
   57000    905.38683    -118.6514   0.81921303   -117.83218    11728.781     4.247326     4.247326     4.247326    11728.781   -13030.009    16171.804    32044.548    -10034.85    15898.614    9907.9194    76.620817 
   57100    852.46485   -118.61835   0.77132811   -117.84702    793.95824    4.2609044    4.2609044    4.2609044    793.95824    18058.611   -34658.982    18982.245    4509.1334    7406.7727   -31228.498    77.358024 
   57200    1339.6147   -119.05012    1.2121116   -117.83801   -19600.879     4.266625     4.266625     4.266625   -19600.879    18455.732   -51430.382   -25827.986    645.28084   -6858.9847   -18659.661    77.670021 
   57300    1371.2203   -119.06796     1.240709   -117.82725    10280.495    4.2472766    4.2472766    4.2472766    10280.495    15148.497    12885.035    2807.9533     5548.812   -7367.3501    14886.796    76.618144 
   57400    863.68624    -118.6207   0.78148146   -117.83922   -8985.8376    4.2581107    4.2581107    4.2581107   -8985.8376    -17797.73   -6542.3362   -2617.4469   -1020.6875    14186.673    -20457.33     77.20596 
   57500    1042.4849   -118.78245   0.94326225   -117.83919    5566.5759    4.2562863    4.2562863    4.2562863    5566.5759    18448.751   -18595.336    16846.312    1838.9291    10053.544   -31594.481    77.106769 
   57600     1208.296   -118.93126    1.0932916   -117.83797    6219.6767     4.259717     4.259717     4.259717    6219.6767   -813.26727   -1721.3749    21193.672    13123.131   -15001.455    3008.6429    77.293368 
   57700    1165.7419   -118.89086    1.0547878   -117.83607       -19398    4.2614841    4.2614841    4.2614841       -19398   -26110.109   -2716.0249   -29367.867    -2664.603   -29461.943    8714.2408    77.389601 
   57800    1061.3477   -118.79325   0.96032969   -117.83292    23185.426    4.2424139    4.2424139    4.2424139    23185.426     11380.06    57347.396     828.8228    -1965.729    3519.7543   -19931.555    76.355286 
   57900    1049.5691   -118.79598    0.9496722   -117.84631   -10500.344    4.2612825    4.2612825    4.2612825   -10500.344   -4311.6204   -3306.4567   -23882.956    6894.7922    10372.448   -30987.876    77.378618 
   58000    1013.5675   -118.75602   0.91709722   -117.83892   -3576.3009    4.2619804    4.2619804    4.2619804   -3576.3009   -9181.6807    15074.279   -16621.501   -1109.8562   -24768.652   -317.19686    77.416645 
   58100    1303.0067   -119.00886    1.1789879   -117.82987    7830.8254    4.2528405    4.2528405    4.2528405    7830.8254   -15654.991    52673.078   -13525.612    4331.1226   -13245.197    10645.102    76.919647 
   58200    1122.0797   -118.85013    1.0152813   -117.83485   -15513.183    4.2583077    4.2583077    4.2583077   -15513.183    -4732.458   -14241.184   -27565.906    4637.7908     12738.01   -26471.512    77.216677 
   58300    779.14096   -118.54402   0.70498312   -117.83904    10752.407     4.250851     4.250851     4.250851    10752.407    6634.8885    21612.008    4010.3238    1514.5078   -16111.541   -16623.996    76.811747 
   58400    1304.1594   -119.01987    1.1800308   -117.83983   -10612.232    4.2635067    4.2635067    4.2635067   -10612.232   -29580.497    37014.703   -39270.902    5299.9152   -18724.722     5984.891    77.499848 
   58500    1446.2203   -119.13994    1.3085705   -117.83137   -7133.6757    4.2580152    4.2580152    4.2580152   -7133.6757   -9589.3828    10331.219   -22142.864    3644.5438    6838.3021    4388.8206     77.20077 
   58600    711.97139   -118.47943   0.64420667   -117.83522    14633.808    4.2503225    4.2503225    4.2503225    14633.808    -5871.905     61492.27   -11718.942    -5264.251   -4308.9052   -15347.786    76.783101 
   58700    1054.0796   -118.78843   0.95375339   -117.83468   -34781.758    4.2724951    4.2724951    4.2724951   -34781.758   -34468.036   -11312.141   -58565.095   -705.81063   -23884.174   -11064.051    77.991042 
   58800     1555.261   -119.22634    1.4072328   -117.81911   -9747.3219    4.2562254    4.2562254    4.2562254   -9747.3219    -6464.393   -7454.2362   -15323.337    8283.4624    6775.7683    13687.609    77.103456 
   58900      846.098   -118.59623   0.76556725   -117.83066    -3884.174    4.2505227    4.2505227    4.2505227    -3884.174    39.668739   -1379.4461   -10312.745   -9819.0524    16787.353   -8291.2758    76.793953 
   59000     841.0061   -118.59713   0.76095999   -117.83617   -12121.657    4.2611385    4.2611385    4.2611385   -12121.657    6408.0813   -12151.443   -30621.611     5500.406   -7247.4316   -14821.851    77.370777 
   59100    1668.3267   -119.33333    1.5095371    -117.8238    4602.2795    4.2573576    4.2573576    4.2573576    4602.2795    14756.276    1882.9227   -2832.3606    11702.707   -4341.3907    2628.2499    77.165007 
   59200    1005.0992   -118.74117   0.90943489   -117.83174    -27879.53    4.2688529    4.2688529    4.2688529    -27879.53   -6816.4173   -38173.835   -38648.338    2699.6065    15589.826    5821.2298    77.791753 
   59300    532.12666   -118.32063   0.48147939   -117.83915    13128.372    4.2460709    4.2460709    4.2460709    13128.372     36804.59     21631.65   -19051.124   -4248.7828    19033.521   -18078.878    76.552912 
   59400    1363.1393   -119.06965    1.2333971   -117.83625    6868.5398    4.2481682    4.2481682    4.2481682    6868.5398   -3497.1877    19412.144    4690.6627   -2383.4245    -2694.563   -26176.941    76.666406 
   59500    1220.6054    -118.9362    1.1044294   -117.83178   -18447.844    4.2725633    4.2725633    4.2725633   -18447.844   -14785.941   -13670.899   -26886.691    8093.2713   -16265.038    9213.8177    77.994778 
   59600     890.0086   -118.63137   0.80529848   -117.82607    8640.2499    4.2595491    4.2595491    4.2595491    8640.2499    13864.937    12337.852   -282.03972    174.86067     13397.36   -5147.0326     77.28423 
   59700    1134.1797   -118.84792    1.0262296   -117.82169   -3734.6493    4.2600497    4.2600497    4.2600497   -3734.6493   -9944.3002    19473.208   -20732.856   -4674.3243    8727.8284   -17166.366    77.311481 
   59800    1363.5428   -119.05615    1.2337622   -117.82239   -12544.441    4.2593364    4.2593364    4.2593364   -12544.441   -15493.189   -12121.709   -10018.426    2414.8349   -15973.592    786.83561    77.272654 
   59900    786.04516   -118.54091   0.71123018   -117.82968    22969.523    4.2536557    4.2536557    4.2536557    22969.523   -6086.8263    4722.9855    70272.411    13626.923    -378.9081    9047.8954    76.963889 
   60000    1154.2259   -118.87133    1.0443679   -117.82696    -8311.713    4.2669652    4.2669652    4.2669652    -8311.713   -14824.983   -4949.8774   -5160.2782    29.633684    12287.005   -2526.0714      77.6886 
   60100    1347.5531   -119.03986    1.2192944   -117.82056    5980.6026      4.25731      4.25731      4.25731    5980.6026     2682.857     11054.54    4204.4112    4874.1795     152.5645   -7990.5886    77.162419 
   60200    708.39099   -118.47529   0.64096706   -117.83432    8695.5277    4.2562281    4.2562281    4.2562281    8695.5277   -20904.451    4719.8169    42271.217    11307.022   -16220.479   -5498.9595    77.103603 
   60300    1069.5674   -118.79742    0.9677671   -117.82965   -26554.243    4.2678396    4.2678396    4.2678396   -26554.243   -26199.893   -38341.681   -15121.154     7721.474    -4505.807     -3224.83    77.736373 
   60400     1682.136   -119.33822     1.522032   -117.81619   -10356.791    4.2570059    4.2570059    4.2570059   -10356.791     2326.809   -21009.789   -12387.392   -5502.6067    3210.8783   -5839.5452    77.145883 
   60500    878.43105   -118.62832   0.79482287   -117.83349   -14558.083    4.2656774    4.2656774    4.2656774   -14558.083   -43306.219    31762.197   -32130.225   -1319.3678   -13165.407   -6226.0422     77.61828 
   60600    699.69416   -118.46261   0.63309798   -117.82951    3085.8071     4.263356     4.263356     4.263356    3085.8071   -21197.609    33612.065   -3157.0346    16795.006    -17376.75    3152.1364     77.49163 
   60700    1474.3943   -119.15028    1.3340629   -117.81622   -10173.157    4.2646439    4.2646439    4.2646439   -10173.157   -12854.909   -12082.111   -5582.4497    1308.9766     8854.784   -2556.9157     77.56188 
   60800    997.38248   -118.73002   0.90245262   -117.82757   -14778.098    4.2628172    4.2628172    4.2628172   -14778.098   -33409.873    5112.5209   -16036.942    -8156.842    5841.4052    2153.0768    77.462252 
   60900    865.89831   -118.61313   0.78348299   -117.82964    26934.169    4.2424038    4.2424038    4.2424038    26934.169   -1463.7353    20184.752    62081.491    1967.3419    -25136.47    2128.6102    76.354739 
   61000    1379.1682   -119.07959    1.2479003   -117.83169   -6942.8948    4.2628268    4.2628268    4.2628268   -6942.8948   -33560.107   -8392.4787    21123.902    5098.4036   -8704.0169    10082.083    77.462775 
   61100    905.84416   -118.64863   0.81962683   -117.82901    13280.589     4.263024     4.263024     4.263024    13280.589    -12650.01    28829.159    23662.618   -5536.5024    14292.979     10627.81    77.473529 
   61200    615.83926   -118.39279    0.5572243   -117.83557    19057.044    4.2613987    4.2613987    4.2613987    19057.044   -21386.497    52266.079    26291.549   -11572.589    914.00704    2188.4201     77.38495 
   61300    1600.5224   -119.26759    1.4481863   -117.81941   -14455.613    4.2663474    4.2663474    4.2663474   -14455.613   -37271.852    28886.175   -34981.162   -49.688195   -7360.7999    -862.0525    77.654861 
   61400    1324.0016   -119.01196    1.1979844   -117.81398    4731.0305    4.2543349    4.2543349    4.2543349    4731.0305    5467.2733   -14511.614    23237.432    4892.8227    2399.1286   -3558.3957    77.000763 
   61500    596.89627   -118.36808   0.54008429     -117.828   -23278.819    4.2675105    4.2675105    4.2675105   -23278.819       -33687   -41895.297    5745.8403   -726.46902   -4934.5213    5379.8989    77.718393 
   61600    1406.3813   -119.09053    1.2725234     -117.818   -12006.868    4.2606693    4.2606693    4.2606693   -12006.868   -30380.779    251.08472   -5890.9103   -5548.5418   -10229.625    5029.6618    77.345218 
   61700    1525.4276   -119.20227     1.380239   -117.82204   -7145.8775    4.2576445    4.2576445    4.2576445   -7145.8775   -3250.1808   -17951.399   -236.05254    8159.3773    7809.9678    1904.2922    77.180609 
   61800    474.62443   -118.26537   0.42945016   -117.83592   -12745.571    4.2642585    4.2642585    4.2642585   -12745.571   -21612.917   -18343.886    1720.0886    18353.289   -2717.4719    3771.2458    77.540852 
   61900    1015.6086   -118.74494   0.91894405     -117.826    4154.0695    4.2534269    4.2534269    4.2534269    4154.0695   -40.044176    8877.2144    3625.0382   -1184.0753   -8885.3688   -4651.1443    76.951472 
   62000    1619.0972   -119.28763    1.4649931   -117.82263   -13223.181    4.2630522    4.2630522    4.2630522   -13223.181    12731.863   -21308.894   -31092.511    625.86035   -1213.3506    4348.8237    77.475065 
   62100      816.548   -118.57516   0.73882979   -117.83633     3420.396    4.2591056    4.2591056    4.2591056     3420.396    42588.428   -29475.606   -2851.6344    14570.412     7333.991   -422.87145    77.260093 
   62200     684.4957   -118.46074   0.61934609    -117.8414    3491.2334    4.2519162    4.2519162    4.2519162    3491.2334    10031.594    -29809.71    30251.816    9610.4138    6891.3226   -8241.6442    76.869508 
   62300    1439.7115   -119.13151    1.3026812   -117.82883   -7489.0178    4.2595361    4.2595361    4.2595361   -7489.0178    11003.296   -26077.402   -7392.9476   -9985.6381   -6919.9568    5676.1988    77.283521 
   62400    1115.3254   -118.84456    1.0091699   -117.83539    2764.5188    4.2628868    4.2628868    4.2628868    2764.5188    22357.301    3453.1552   -17516.899    7160.6056   -13289.265    6134.6993    77.466047 
   62500    1114.6156   -118.84243    1.0085276    -117.8339    12024.912    4.2560862    4.2560862    4.2560862    12024.912    24271.328   -6738.3869    18541.796     15778.06    10122.625   -6285.4873    77.095895 
   62600    1266.9921   -118.97333    1.1464011   -117.82693    5065.3781    4.2520184    4.2520184    4.2520184    5065.3781    30131.864   -14251.803   -683.92624   -5423.8087    5579.7482   -5927.9155    76.875047 
   62700    656.12108   -118.43262   0.59367214   -117.83895     17942.08    4.2516624    4.2516624    4.2516624     17942.08    17785.468    13236.449    22804.323   -3938.5474   -27204.092    13012.358    76.855741 
   62800    893.10547   -118.65283   0.80810059   -117.84473    814.70541    4.2613769    4.2613769    4.2613769    814.70541    -1806.308    18989.555   -14739.131   -267.77823   -19086.874    12583.299    77.383764 
   62900    1676.3409   -119.34783    1.5167884   -117.83104   -2596.6851     4.262311     4.262311     4.262311   -2596.6851   -2950.7118   -8783.6602    3944.3167   -6359.6138    9249.5527   -11049.813    77.434662 
   63000    1205.4454   -118.92114    1.0907123   -117.83043   -3838.6397    4.2566153    4.2566153    4.2566153   -3838.6397   -11050.203    -4759.407    4293.6905   -8671.8105   -11313.889    1044.4964    77.124651 
   63100     391.9197   -118.19574   0.35461718   -117.84112   -1304.5142    4.2518835    4.2518835    4.2518835   -1304.5142   -11692.047    27129.323   -19350.819   -5017.2494   -42682.597    19122.481    76.867732 
   63200    1088.8516   -118.82611   0.98521582   -117.84089   -7938.9234    4.2568227    4.2568227    4.2568227   -7938.9234   -6192.3393   -1541.2147   -16083.216    2775.3834   -6147.3164    2636.7521    77.135927 
   63300    1731.7589   -119.39896    1.5669318   -117.83203   -16827.389    4.2649053    4.2649053    4.2649053   -16827.389   -19613.073   -8246.8853   -22622.208   -3152.9332    9482.2578   -21277.959    77.576143 
   63400    1156.8837   -118.88166    1.0467727   -117.83489   -5575.0257    4.2561073    4.2561073    4.2561073   -5575.0257   -20937.903    19867.053   -15654.227    -2798.276   -33782.635    7530.3096     77.09704 
   63500    515.44867   -118.30599   0.46638879    -117.8396   -2107.8618    4.2529091    4.2529091    4.2529091   -2107.8618   -383.61785   -10072.306    4132.3378    6070.4928   -26661.592    29828.702    76.923372 
   63600    1228.0704   -118.94681    1.1111839   -117.83563   -17405.558    4.2593096    4.2593096    4.2593096   -17405.558   -9788.5128   -33136.688   -9291.4721     8437.161    13012.066    3719.6144    77.271195 
   63700     1726.452   -119.39434    1.5621301   -117.83221   -5434.1505    4.2554671    4.2554671    4.2554671   -5434.1505   -8237.7089   -4372.7932   -3691.9494    9078.2563    -10327.09   -13715.325    77.062254 
   63800    896.04347   -118.65619   0.81075896   -117.84543   -7505.2773      4.25626      4.25626      4.25626   -7505.2773    11500.453   -2249.8529   -31766.432    1376.5876    -38198.52    16472.859    77.105337 
   63900    667.08224   -118.44635   0.60359003   -117.84276    4790.2916    4.2516575    4.2516575    4.2516575    4790.2916    10178.753    -10344.12    14536.242    1602.4552   -11184.394    28413.132    76.855475 
   64000    1265.8896   -118.98166    1.1454035   -117.83626    4196.8813    4.2610645    4.2610645    4.2610645    4196.8813   -3381.2281     -2702.41    18674.282    1751.4429    11956.854    1855.7335    77.366744 
   64100    1307.4006   -119.01815    1.1829636   -117.83518   -3726.6129    4.2656072    4.2656072    4.2656072   -3726.6129    295.90594    13326.102   -24801.846   -1363.1816   -24348.897   -11381.543    77.614449 
   64200    762.88539   -118.52485   0.69027473   -117.83457     28033.36    4.2463751    4.2463751    4.2463751     28033.36    24671.298     48137.67    11291.112    1885.3149   -30322.861    23884.734    76.569368 
   64300    829.69861   -118.59004   0.75072874   -117.83931     3141.571    4.2545852    4.2545852    4.2545852     3141.571    21248.871    4612.3785   -16436.536   -1261.8724    2887.0243    25875.139    77.014353 
   64400    1411.3792   -119.10771    1.2770455   -117.83066   -6774.5798    4.2588003    4.2588003    4.2588003   -6774.5798   -5561.0504    -9852.211   -4910.4781   -6594.1741   -2052.5969   -9147.0379    77.243481 
   64500    1245.5264   -118.96562    1.1269784   -117.83864   -6054.1942    4.2590004    4.2590004    4.2590004   -6054.1942    -15635.53    24184.083   -26711.136    832.90194   -37334.003   -2282.0732     77.25437 
   64600    1001.5515   -118.74522   0.90622487     -117.839   -14871.079    4.2619993    4.2619993    4.2619993   -14871.079    10664.153   -1897.4205    -53379.97    3717.4346   -18515.325    36664.613    77.417675 
   64700    1210.8729   -118.92111    1.0956233   -117.82548   -10318.332    4.2577781    4.2577781    4.2577781   -10318.332    1552.8767   -21460.674   -11047.199    5996.6641    17414.352     14731.68    77.187874 
   64800    1039.2248   -118.76752   0.94031242   -117.82721   -13169.692    4.2619552    4.2619552    4.2619552   -13169.692     -27853.7    9047.2767   -20702.653    6951.6189   -17530.627   -18497.262    77.415272 
   64900    1019.3952   -118.75671   0.92237019   -117.83434   -177.54126    4.2577541    4.2577541    4.2577541   -177.54126    6204.6782    6190.5528   -12927.855     6725.776   -20328.911    19566.694    77.186566 
   65000    1236.5129   -118.95142    1.1188229    -117.8326    1944.7889    4.2532057    4.2532057    4.2532057    1944.7889    21176.501    -22553.63    7211.4952    4806.1411    10493.392    31769.397    76.939464 
   65100    1037.3968   -118.77133   0.93865843   -117.83267    7345.5753    4.2547191    4.2547191    4.2547191    7345.5753    656.75876   -588.69538    21968.663    -3148.841     -2565.94   -1712.0679    77.021625 
   65200    670.66399   -118.44979   0.60683087   -117.84296    11745.531    4.2634065    4.2634065    4.2634065    11745.531    19047.492    6907.0358    9282.0646   -8130.1274    -36502.37    -12945.45    77.494386 
   65300    1297.7397    -119.0108    1.1742221   -117.83658   -7801.3646    4.2633101    4.2633101    4.2633101   -7801.3646    14290.476   -24079.349   -13615.221    -415.6459   -15080.012      19298.6    77.489127 
   65400    1473.6793    -119.1587     1.333416   -117.82528    15662.002    4.2452569    4.2452569    4.2452569    15662.002    30104.413    10058.153    6823.4385    3216.5962    9562.2783    20555.037    76.508893 
   65500    743.57779   -118.51239   0.67280481   -117.83958   -7661.9836     4.258755     4.258755     4.258755   -7661.9836   -15728.904    11155.932   -18412.978    5049.6929    -24562.05    746.13189    77.241015 
   65600     932.4172   -118.67645   0.84367067   -117.83278   -25336.021    4.2687305    4.2687305    4.2687305   -25336.021   -20538.527   -14823.891   -40645.646    5344.8337   -19870.026   -9406.2757    77.785062 
   65700    1588.6529   -119.25857    1.4374465   -117.82113    4966.6882    4.2544886    4.2544886    4.2544886    4966.6882    39714.718   -22315.261   -2499.3921    6288.6676    14870.149    4311.5562    77.009108 
   65800    1117.8977    -118.8375    1.0114973     -117.826    -3961.569    4.2652638    4.2652638    4.2652638    -3961.569   -1850.5525   -13399.129    3364.9745    10298.761   -20842.993    10994.215    77.595705 
   65900     659.9636   -118.42286   0.59714893   -117.82571    7563.8839     4.260117     4.260117     4.260117    7563.8839    22283.458   -10536.106      10944.3   -761.15754   -43382.136   -352.89614    77.315148 
   66000     1052.377   -118.77908   0.95221285   -117.82686    2010.8733    4.2586747    4.2586747    4.2586747    2010.8733    33735.808   -31702.812    3999.6237   -3926.1187    1780.9846     1089.326    77.236646 
   66100    1360.2754   -119.05834    1.2308057   -117.82753   -8360.0029    4.2595592    4.2595592    4.2595592   -8360.0029   -6299.8543   -7034.5169   -11745.637    1559.2733    14777.893    5976.6067     77.28478 
   66200     844.4636   -118.59991   0.76408842   -117.83582    19728.027    4.2500046    4.2500046    4.2500046    19728.027   -4383.6507    25418.682    38149.049    2172.3658    -37981.16    1045.9702    76.765872 
   66300     1107.202   -118.83535    1.0018196   -117.83353   -23986.548    4.2703681    4.2703681    4.2703681   -23986.548   -34747.425   -28982.702    -8229.515    8735.4457   -20115.486     5815.895    77.874619 
   66400    1406.8459   -119.09298    1.2729437   -117.82003    -5511.029    4.2673937    4.2673937    4.2673937    -5511.029    8051.8489   -22353.419   -2231.5168   -2553.6241    12521.409    1041.6346    77.712007 
   66500    877.88793   -118.62092   0.79433144   -117.82659    19824.997    4.2576316    4.2576316    4.2576316    19824.997    28123.689    36767.887   -5416.5868   -5797.1773    -28943.21    3041.9875    77.179903 
   66600    893.57496   -118.63633    0.8085254    -117.8278   -9015.6152    4.2696366    4.2696366    4.2696366   -9015.6152   -22435.098    9974.9458   -14586.693    5397.8663   -28191.322    7327.3508    77.834606 
   66700     1448.679   -119.11727    1.3107952   -117.80648   -27597.654     4.270537     4.270537     4.270537   -27597.654   -41902.826   -33966.687   -6923.4478    1935.2893    9891.1789   -462.10759     77.88386 
   66800    916.51279    -118.6443   0.82928003   -117.81502    4281.8744    4.2654858    4.2654858    4.2654858    4281.8744   -28885.022    34311.697    7418.9482   -11808.065   -21324.816   -1129.9748    77.607822 
   66900     1035.754   -118.75372     0.937172   -117.81654    9400.4492    4.2688158    4.2688158    4.2688158    9400.4492   -8584.5853    49442.057   -12656.125   -9299.8172   -29069.011   -1312.0703    77.789727 
   67000    1468.2693   -119.13978     1.328521   -117.81126   -1326.1809     4.259325     4.259325     4.259325   -1326.1809    4408.2641    5855.3937   -14242.201    6900.6395     10973.29    4591.3542    77.272032 
   67100    742.98241   -118.49559    0.6722661   -117.82332   -1210.8564    4.2550943    4.2550943    4.2550943   -1210.8564   -4182.5775   -6300.7624    6850.7707    3655.0264    -12442.31    791.10276    77.042003 
   67200    903.48491   -118.65039   0.81749213    -117.8329   -22917.493    4.2624607    4.2624607    4.2624607   -22917.493   -39733.988   -8480.9922     -20537.5    2492.7571   -43300.541   -3919.8966    77.442818 
   67300    1725.3176   -119.38876    1.5611036   -117.82765   -3956.9744    4.2527593    4.2527593    4.2527593   -3956.9744     16139.85   -11391.748   -16619.026    2616.6697    4794.3493   -454.41014    76.915241 
   67400    1196.6038   -118.91845    1.0827123   -117.83573   -12315.987    4.2604865    4.2604865    4.2604865   -12315.987   -5350.8169   -19754.929   -11842.217      2300.54    1058.8606    4924.2026    77.335263 
   67500    407.73868   -118.21007   0.36893052   -117.84114    256.14896    4.2595107    4.2595107    4.2595107    256.14896    -26559.54    14480.108    12847.879   -1245.3853   -44942.465   -95.371784     77.28214 
   67600    1154.9377   -118.87827    1.0450119   -117.83326    8499.2421    4.2529165    4.2529165    4.2529165    8499.2421   -8124.0078     18462.36    15159.374   -5538.9595   -13850.478   -8636.6786    76.923769 
   67700    1792.3299   -119.45046    1.6217378   -117.82872   -11939.235    4.2606219    4.2606219    4.2606219   -11939.235   -14708.946   -17753.159   -3355.5985    211.18901    20751.488    5929.1998    77.342637 
   67800    856.20877   -118.61125   0.77471569   -117.83654    5845.3569    4.2601655    4.2601655    4.2601655    5845.3569   -15683.177    19800.453    13418.795   -2430.4489   -26373.419    5380.5363    77.317785 
   67900    596.36016   -118.37827   0.53959921   -117.83867    1502.5911    4.2620759    4.2620759    4.2620759    1502.5911   -25900.916    23133.099    7275.5909    899.55871   -38719.615     5228.124    77.421852 
   68000    1611.5756   -119.28153    1.4581875   -117.82334   -9158.3361    4.2566589    4.2566589    4.2566589   -9158.3361     -21931.7   -13870.231    8326.9228    3463.8304    8448.6954   -683.50214    77.127022 
   68100    1406.7425   -119.10454    1.2728502   -117.83169    -2928.484    4.2501013    4.2501013    4.2501013    -2928.484   -20066.616    7969.3961    3311.7682   -5084.5518   -12153.507   -11848.299    76.771117 
   68200    576.76279   -118.36869   0.52186709   -117.84682    7452.4972    4.2557635    4.2557635    4.2557635    7452.4972   -29196.999    12604.878    38949.613    389.68662   -44762.001    3752.4697    77.078357 
   68300    1121.8021   -118.85403    1.0150301     -117.839   -6098.1588    4.2604866    4.2604866    4.2604866   -6098.1588   -28848.205   -21917.215    32470.944   -956.00877    1955.7277    2806.6902    77.335268 
   68400    1608.0392   -119.28507    1.4549877   -117.83009   -8866.0249    4.2549341    4.2549341    4.2549341   -8866.0249   -27276.066   -12264.344    12942.335    531.59955    13349.871   -7944.0055      77.0333 
   68500    951.78266   -118.70028   0.86119296   -117.83909   -2742.1301    4.2500621    4.2500621    4.2500621   -2742.1301   -6189.8067    9677.1225   -11713.706    4054.8588   -38759.526   -409.21936    76.768991 
   68600    821.49934    -118.5855   0.74330987   -117.84219   -7517.4131    4.2570784    4.2570784    4.2570784   -7517.4131   -22648.334   -605.24933    701.34432   -2843.9456   -14978.386   -2002.6591    77.149826 
   68700    1286.9134   -119.00198    1.1644262   -117.83755   -6365.7128    4.2628088    4.2628088    4.2628088   -6365.7128   -24320.949   -10479.693    15703.503     2434.883    33402.326   -2695.1954    77.461794 
   68800    1317.7474   -119.02594    1.1923256   -117.83362    5809.4139    4.2506553    4.2506553    4.2506553    5809.4139    18401.623    5031.7896   -6005.1705    1888.1417   -6716.5567   -1045.4859    76.801137 
   68900    802.12506   -118.56779   0.72577961   -117.84201    15465.842    4.2477895    4.2477895    4.2477895    15465.842    29259.901    14492.814    2644.8118   -2318.1858    -47077.01   -6743.3383    76.645906 
   69000    929.61016   -118.68409   0.84113081   -117.84296   -2890.9644    4.2625471    4.2625471    4.2625471   -2890.9644      5065.64    -16875.07     3136.537    7410.5411   -4970.0914   -1526.6903    77.447532 
   69100    1492.5435   -119.17992    1.3504847   -117.82944   -5018.3799    4.2581687    4.2581687    4.2581687   -5018.3799    13419.252    -23397.51   -5076.8818    2044.9591     21762.53    2099.7577    77.209119 
   69200    898.42899   -118.65043   0.81291743   -117.83751   -15653.456    4.2577094    4.2577094    4.2577094   -15653.456   -16341.189      3252.99   -33872.168   -5197.2495   -43012.652   -8129.9302    77.184139 
   69300    739.97843   -118.51123   0.66954804   -117.84168    6164.5656     4.246257     4.246257     4.246257    6164.5656    23353.511    9448.2847   -14308.099   -2174.0193     -41868.8   -6339.0756    76.562979 
   69400    1413.3924   -119.11759    1.2788672   -117.83872    576.56922    4.2513763    4.2513763    4.2513763    576.56922    39394.199   -29644.532   -8019.9586   -5482.0523    16553.313     322.6513    76.840227 
   69500    1058.7204   -118.79656   0.95795246   -117.83861   -16709.436    4.2663699    4.2663699    4.2663699   -16709.436   -19686.778   -24410.271     -6031.26   -5472.2995   -21515.693   -1702.6369    77.656092 
   69600    784.98188   -118.54625    0.7102681   -117.83598    11353.159    4.2512174    4.2512174    4.2512174    11353.159    12672.151    16854.955    4532.3723    1057.7667   -50495.674   -816.01746     76.83161 
   69700    1323.2557   -119.02741    1.1973095   -117.83011   -2146.7706    4.2515881    4.2515881    4.2515881   -2146.7706    22712.334   -9176.1207   -19976.525   -1706.6652    3196.6003   -7081.9052    76.851715 
   69800    1119.0472   -118.84522    1.0125374   -117.83268    9942.0472    4.2579757    4.2579757    4.2579757    9942.0472   -2426.1279     4176.209    28076.061   -2452.2294    7450.4994   -7577.9708    77.198618 
   69900    825.19489   -118.58282   0.74665368   -117.83616     14453.23    4.2614112    4.2614112    4.2614112     14453.23   -16532.473     32452.08    27440.082    434.66081   -36375.732   -2260.2204    77.385629 
   70000    1290.9757   -118.99376     1.168102   -117.82566   -9573.3137    4.2632999    4.2632999    4.2632999   -9573.3137    -22900.46    6586.2218   -12405.702   -902.76605   -11399.401   -1479.9126     77.48857 
   70100    1161.2454   -118.87197    1.0507193   -117.82125    8355.5901    4.2538006    4.2538006    4.2538006    8355.5901    4726.0088    16614.559    3726.2026   -894.37534    23121.375    3623.2539    76.971756 
   70200    975.88626   -118.71406   0.88300239   -117.83106   -12652.849    4.2664972    4.2664972    4.2664972   -12652.849   -12241.714    -6526.554   -19190.278   -8327.5722   -9993.9621   -2397.8859    77.663039 
   70300     1449.389   -119.12624    1.3114376    -117.8148   -17624.791    4.2676376    4.2676376    4.2676376   -17624.791   -38456.649    15096.224   -29513.948   -1893.7637    -18030.08    3657.3648    77.725336 
   70400    1003.7211   -118.72736   0.90818793   -117.81917    3300.9902    4.2512194    4.2512194    4.2512194    3300.9902   -4775.0756    23567.971   -8889.9251    1428.2317     20562.27   -4975.0502    76.831721 
   70500    666.62629   -118.43635   0.60317748   -117.83317     2465.799    4.2531617    4.2531617    4.2531617     2465.799    17940.321    23109.701   -33652.624   -9340.3645    3005.4148   -6606.6045    76.937077 
   70600    1477.2463   -119.16385    1.3366435    -117.8272   -3072.5158    4.2564397    4.2564397    4.2564397   -3072.5158     3001.413    23168.011   -35386.971   -8572.7778   -22754.618    1186.0249    77.115107 
   70700    1116.0568   -118.84167    1.0098317   -117.83184   -5725.7685    4.2646983    4.2646983    4.2646983   -5725.7685    -20230.56    26153.295   -23100.041    8569.3893    13169.427    1482.0746    77.564846 
   70800    479.30205   -118.27234   0.43368257   -117.83865     -1961.14    4.2573347    4.2573347    4.2573347     -1961.14    -21288.53    30772.597   -15367.487    7091.7467    24540.446    -4774.931     77.16376 
   70900     1193.709   -118.91453     1.080093   -117.83444    12707.163    4.2435892    4.2435892    4.2435892    12707.163    24519.847    27656.684   -14055.042   -8880.2328   -5312.8075    1543.2647    76.418765 
   71000    1658.6336   -119.33638    1.5007666   -117.83561   -12471.117    4.2586432    4.2586432    4.2586432   -12471.117     2916.731   -9753.5087   -30576.574   -3987.7427     -6292.95    3841.4556    77.234932 
   71100    821.67839   -118.58596   0.74347188   -117.84249   -5044.3325    4.2616219    4.2616219    4.2616219   -5044.3325   -27304.172    3721.1747    8449.9999    10571.407    16772.469    3791.1835    77.397113 
   71200    902.30481    -118.6513   0.81642435   -117.83487   -1608.7693    4.2537386    4.2537386    4.2537386   -1608.7693   -30402.582    4137.5608    21438.713    11399.997    16748.307   -9462.1269    76.968391 
   71300    1427.7029   -119.12193    1.2918156   -117.83011   -13445.469    4.2613997    4.2613997    4.2613997   -13445.469   -11116.517     2588.544   -31808.433   -8414.8329   -8938.0911   -4245.7723    77.385005 
   71400    1100.3939   -118.82954   0.99565951   -117.83388    4203.0593    4.2651005    4.2651005    4.2651005    4203.0593   -1903.7539    6796.0469    7716.8849   -1383.7601    315.62348   -355.48403    77.586793 
   71500    1160.2693   -118.87563    1.0498361   -117.82579    8273.2052    4.2596116    4.2596116    4.2596116    8273.2052   -30448.702    24426.132    30842.186    11990.807     18198.39    448.88617    77.287633 
   71600    1213.4276   -118.91935    1.0979348   -117.82141    1414.6931    4.2513723    4.2513723    4.2513723    1414.6931     -8128.26    15895.234   -3522.8947    301.82458    -3081.973   -2737.7789    76.840013 
   71700     603.1197   -118.38682   0.54571538    -117.8411    10150.115    4.2510126    4.2510126    4.2510126    10150.115   -10806.925    23369.385    17887.887   -19184.882   -8971.3107    1801.9173    76.820508 
   71800    1050.1435   -118.79609   0.95019191    -117.8459    1664.4072    4.2630358    4.2630358    4.2630358    1664.4072    -21673.43    29086.307   -2419.6549    -21113.12   -576.48794   -1937.2287    77.474173 
   71900    1680.6676   -119.34844    1.5207034   -117.82773   -3463.9048    4.2610769    4.2610769    4.2610769   -3463.9048   -20515.792    28103.513   -17979.435   -1909.6595    3430.1882    1526.9994    77.367418 
   72000    587.99348    -118.3656   0.53202886   -117.83358    8965.6178    4.2568511    4.2568511    4.2568511    8965.6178   -40432.348    45189.057    22140.145    5208.3504    3141.4787    1179.2279    77.137467 
   72100    759.49322   -118.51948   0.68720543   -117.83227   -20753.241    4.2639157    4.2639157    4.2639157   -20753.241   -47350.071    8105.5856   -23015.237   -7260.8666   -1720.2788     8447.507    77.522153 
   72200    1893.2912   -119.53245    1.7130897   -117.81936   -12132.233     4.253732     4.253732     4.253732   -12132.233   -2776.1195   -7693.2955   -25927.285   -3923.1093    4313.5246    1137.9594    76.968032 
   72300     1176.652   -118.89776    1.0646594    -117.8331   -14948.077    4.2561867    4.2561867    4.2561867   -14948.077   -35675.462   -25155.345    15986.577    22350.234   -5643.4276    998.25529    77.101355 
   72400    743.43962   -118.50788   0.67267979    -117.8352   -10854.242     4.260769     4.260769     4.260769   -10854.242   -40715.841    8611.5777    -458.4639    7767.2658   -9387.1893    2890.8695    77.350651 
   72500    1344.3785   -119.04007    1.2164219   -117.82365   -8101.4295     4.264486     4.264486     4.264486   -8101.4295   -16778.989    10826.952   -18352.251   -5848.0909    1174.3514    5422.8153    77.553261 
   72600    1036.8442   -118.76624   0.93815846   -117.82809   -3400.8995    4.2682304    4.2682304    4.2682304   -3400.8995   -28028.126    16619.356    1206.0716    1854.0144   -1604.3284   -6687.5378    77.757726 
   72700    1055.0618   -118.78128   0.95464212   -117.82664    9822.0676    4.2561944    4.2561944    4.2561944    9822.0676     3988.989    26422.604   -945.39025    6370.6007   -9990.9989   -12126.538    77.101774 
   72800    1249.3921   -118.95503    1.1304762   -117.82455   -1881.9142    4.2534787    4.2534787    4.2534787   -1881.9142   -8896.9362    17413.381   -14162.188   -6867.0322   -1130.8423   -8444.6212    76.954281 
   72900    810.79492   -118.56645   0.73362428   -117.83283    -8660.987    4.2572989    4.2572989    4.2572989    -8660.987   -26578.855    7927.0521   -7331.1585   -13585.343    9341.5326    2063.9774    77.161812 
   73000    1010.3362   -118.74929   0.91417343   -117.83512   -4873.1946    4.2594404    4.2594404    4.2594404   -4873.1946    -10756.71     5567.873   -9430.7465   -3587.9725     3320.136    11153.004    77.278313 
   73100    1558.0431   -119.23594    1.4097501   -117.82619   -14954.372    4.2663607    4.2663607    4.2663607   -14954.372   -13416.503   -28627.539   -2819.0729    7796.5966   -9684.2706   -249.20834    77.655585 
   73200    1084.3403   -118.80595   0.98113385   -117.82481   -6365.6689    4.2657138    4.2657138    4.2657138   -6365.6689   -21651.735   -925.04669    3479.7756   -4013.7428    5106.2942   -15890.857    77.620267 
   73300     592.7144   -118.36256   0.53630045   -117.82626    8436.0542    4.2592691    4.2592691    4.2592691    8436.0542   -21737.623    34246.458    12799.328   -13282.993    9301.9843   -1322.5115    77.268989 
   73400    1352.3758   -119.04541    1.2236581   -117.82175    5573.2577    4.2548632    4.2548632    4.2548632    5573.2577   -10860.549    8848.2635    18732.059   -4488.9727   -10005.281     1478.252    77.029454 
   73500    1473.0331   -119.16267    1.3328313   -117.82984    10888.014    4.2537279    4.2537279    4.2537279    10888.014    22794.172    13240.364   -3370.4937   -2719.0592   -3918.1782   -9188.6132    76.967807 
   73600    914.21514   -118.66869   0.82720107   -117.84148   -408.56551    4.2591807    4.2591807    4.2591807   -408.56551    17367.541   -17531.164   -1062.0736   -12127.021    8031.9469   -9668.1924    77.264179 
   73700    1016.4518   -118.75335   0.91970691   -117.83364   -7210.9184    4.2613816    4.2613816    4.2613816   -7210.9184   -20918.697   -8763.1363    8049.0781   -16164.007    13491.031   -2708.9261    77.384021 
   73800    1299.3023   -119.00336     1.175636   -117.82772    4155.3529    4.2598285    4.2598285    4.2598285    4155.3529   -922.38398    2816.2845    10572.158    451.23043   -1388.8078    3185.6992    77.299442 
   73900    964.44392   -118.70552   0.87264913   -117.83287     2905.436    4.2685154    4.2685154    4.2685154     2905.436    29017.913   -43714.494    23412.888   -2213.6394   -18392.337    -9450.453    77.773306 
   74000    1085.6306   -118.80975   0.98230142   -117.82745   -4039.3031    4.2608638    4.2608638    4.2608638   -4039.3031   -9228.1381   -32110.362     29220.59   -5288.4954   -1207.1894   -11043.906    77.355814 
   74100    1143.2924   -118.85455     1.034475   -117.82008   -7802.7754    4.2512983    4.2512983    4.2512983   -7802.7754   -34949.537     18559.57   -7018.3592    659.73772     11571.43    8224.8163    76.835999 
   74200    848.57913   -118.60419   0.76781223   -117.83638   -6978.3828    4.2581318    4.2581318    4.2581318   -6978.3828    17936.085   -3059.6998   -35811.534    8454.4448    10710.366     7585.601    77.207108 
   74300    1318.7065   -119.03043    1.1931934   -117.83724   -3963.4266    4.2591597    4.2591597    4.2591597   -3963.4266    26386.793   -3110.8199   -35166.253    1880.4419    4454.7742   -8726.5773    77.263038 
   74400    1500.4248   -119.18753    1.3576159   -117.82992   -7244.2497    4.2616892    4.2616892    4.2616892   -7244.2497    -2691.619    3069.4468   -22110.577    711.20358   -9225.5918   -4949.2919     77.40078 
   74500    641.85321   -118.41589   0.58076227   -117.83513    15883.583    4.2548858    4.2548858    4.2548858    15883.583    7283.5103    14088.924    26278.316    5663.8476   -4397.5527     14497.41    77.030681 
   74600     641.9615   -118.42203   0.58086025   -117.84117    18436.604    4.2589623    4.2589623    4.2589623    18436.604    16939.317    12349.991    26020.503    9507.3238    1702.4339    14240.684    77.252296 
   74700    1697.3546   -119.36294    1.5358021   -117.82713   -18115.892      4.26935      4.26935      4.26935   -18115.892   -19081.678   -28703.606   -6562.3931    8837.2839    2310.5123    -9423.195    77.818933 
   74800    1475.5076    -119.1533    1.3350703   -117.81823    -6087.264    4.2544476    4.2544476    4.2544476    -6087.264   -6064.1845   -2198.9317   -9998.6757   -5213.1007     273.2682    5034.4575    77.006884 
   74900    471.19994   -118.25891   0.42635161   -117.83256   -3473.4577    4.2567557    4.2567557    4.2567557   -3473.4577   -7011.9555    19573.679   -22982.097    6388.0417   -106.14857     29478.85    77.132284 
   75000    1000.5683   -118.73606   0.90533526   -117.83072   -4480.0939    4.2660155    4.2660155    4.2660155   -4480.0939   -3910.5214   -7640.8621   -1888.8982    13828.425   -1472.6603     3126.864    77.636738 
   75100    1636.9585   -119.30031    1.4811545   -117.81915    4706.6212     4.264765     4.264765     4.264765    4706.6212    27494.803   -3596.7896   -9778.1502    12676.251   -11752.206   -4122.4278    77.568487 
   75200    1016.4543   -118.74114    0.9197092   -117.82143   -9380.0731    4.2652879    4.2652879    4.2652879   -9380.0731    21478.427   -11024.573   -38594.073   -3435.7522    1757.6553    25545.998    77.597021 
   75300    862.73052   -118.59871    0.7806167   -117.81809   -16437.343    4.2649095    4.2649095    4.2649095   -16437.343   -23141.213   -23788.394   -2382.4207    2360.2987     3555.301    4264.5362    77.576373 
   75400    1234.3342   -118.92766    1.1168515   -117.81081    4642.2301      4.26314      4.26314      4.26314    4642.2301   -5864.5656    1318.8744    18472.382    9041.3123   -3519.2768   -6808.8908     77.47985 
   75500    962.90968   -118.69445   0.87126091   -117.82319    2582.1882    4.2680353    4.2680353    4.2680353    2582.1882    23863.984    -32578.61    16461.191    1546.6934    -4034.533    38595.288    77.747068 
   75600    1045.0778   -118.77038   0.94560837   -117.82477   -2660.7781    4.2588981    4.2588981    4.2588981   -2660.7781    17422.318   -32772.377    7367.7246   -13298.599   -50.323332    23475.919    77.248803 
   75700    1443.7295   -119.12042    1.3063168    -117.8141   -19482.169    4.2617604    4.2617604    4.2617604   -19482.169   -32983.847   -23313.404   -2149.2568   -16117.654    14731.124   -14231.882    77.404658 
   75800    764.86981   -118.51055   0.69207028   -117.81848   -16670.248    4.2733069    4.2733069    4.2733069   -16670.248    12437.995   -14069.719    -48379.02    3931.8258   -1886.8121    24709.756    78.035508 
   75900    860.69042   -118.59255   0.77877078   -117.81377    27248.314    4.2564991    4.2564991    4.2564991    27248.314    52122.311    19389.203    10233.428    445.22449   -6967.2088    25896.422    77.118333 
   76000    1548.3147   -119.21345    1.4009477   -117.81251   -1856.1917    4.2631954    4.2631954    4.2631954   -1856.1917   -14791.397    5246.5961    3976.2252   -16247.613    1976.5502    -6171.743    77.482875 
   76100    1085.3458   -118.79837   0.98204373   -117.81633   -5951.7958    4.2621309    4.2621309    4.2621309   -5951.7958   -19457.824    8408.4092   -6805.9725   -14282.891    1039.1031    13692.753    77.424847 
   76200    678.06998   -118.43613   0.61353197    -117.8226    7288.6645    4.2582487    4.2582487    4.2582487    7288.6645   -7012.7781    40426.215   -11547.444    6835.0402   -8885.5489    28179.618    77.213471 
   76300    1395.6397   -119.08428    1.2628041   -117.82148   -17603.134    4.2637205    4.2637205    4.2637205   -17603.134   -30872.809   -11115.643   -10820.951    3726.4168   -1951.0727   -10789.939    77.511506 
   76400    1437.0034   -119.12528    1.3002308   -117.82505    10506.112    4.2473703    4.2473703    4.2473703    10506.112    5360.1683   -5622.0339      31780.2   -14769.081    10314.361    3488.8684    76.623218 
   76500    664.63114   -118.44335   0.60137222   -117.84198   -1580.9095    4.2538983    4.2538983    4.2538983   -1580.9095    -4060.965   -15774.623    15092.859   -3881.6968    -1663.853     52693.69     76.97706 
   76600    894.48747    -118.6458   0.80935106   -117.83645   -22005.015    4.2613652    4.2613652    4.2613652   -22005.015   -45494.939   -15180.354   -5339.7515    7383.3767   -4399.0961    19843.412    77.383128 
   76700    1547.2014   -119.23067    1.3999404   -117.83073    4597.6124    4.2474178    4.2474178    4.2474178    4597.6124   -20577.826   -5301.0627    39671.725   -5931.2278      14525.7   -16768.283    76.625788 
   76800    877.58266    -118.6402   0.79405524   -117.84614   -5734.6368    4.2546503    4.2546503    4.2546503   -5734.6368    11429.658   -40012.849    11379.281    -5990.995    9374.3471    35584.011     77.01789 
   76900    618.31663   -118.40713   0.55946589   -117.84766     -8963.61    4.2540907    4.2540907    4.2540907     -8963.61   -8365.0714   -22059.734    3533.9748   -477.14296   -3398.7541    35558.378    76.987502 
   77000    1384.1067   -119.09011    1.2523689   -117.83774    4176.6837    4.2505496    4.2505496    4.2505496    4176.6837   -22927.827   -1739.7156    37197.593    69.142993    3860.6058   -20466.325    76.795413 
   77100    1423.3757   -119.13115    1.2879002   -117.84325   -3285.1267    4.2584355    4.2584355    4.2584355   -3285.1267    1212.9433   -17119.031    6050.7073    1751.5688    8744.0221    2204.7773    77.223633 
   77200    756.54172   -118.53136   0.68453485   -117.84682    7565.1781    4.2528328    4.2528328    4.2528328    7565.1781    17702.898   -2941.3056    7933.9418   -290.37549    10935.546    48437.033    76.919228 
   77300    910.23475   -118.66669   0.82359953   -117.84309    1200.9461    4.2532572    4.2532572    4.2532572    1200.9461   -4113.2578   -4920.2395    12636.336     591.9281    7276.8001    11360.866     76.94226 
   77400    1497.5219   -119.19179    1.3549892    -117.8368   -4232.0952    4.2559371    4.2559371    4.2559371   -4232.0952   -13168.921    7058.0076    -6585.372    684.84741   -3624.7938    -27312.11    77.087791 
   77500     914.9385   -118.67188   0.82785558   -117.84403    2013.2772    4.2564407    4.2564407    4.2564407    2013.2772    30879.977   -2347.8486   -22492.297   -7666.2785   -82.531763    27905.729    77.115162 
   77600     560.1027    -118.3534   0.50679269   -117.84661    1123.7765    4.2546451    4.2546451    4.2546451    1123.7765    28037.896    1081.4617   -25748.028   -1440.5772     7224.752    45605.187    77.017607 
   77700    1418.1841   -119.11931    1.2832028   -117.83611   -6115.5542    4.2560912    4.2560912    4.2560912   -6115.5542   -17462.685    30839.654   -31723.632   -2506.0661    9107.3412   -8727.5845    77.096167 
   77800    1507.9949   -119.20074    1.3644654   -117.83627   -6301.7224    4.2591333    4.2591333    4.2591333   -6301.7224   -75.650436    2077.5932    -20907.11    -5117.692    1401.4524    7586.5569      77.2616 
   77900     742.0809   -118.51384   0.67145039   -117.84238   -1523.5427    4.2554271    4.2554271    4.2554271   -1523.5427    41400.387    -33305.12   -12665.895    1891.1255     427.4434    42869.259    77.060083 
   78000    744.80665   -118.51517   0.67391671   -117.84125    10211.649    4.2487183    4.2487183    4.2487183    10211.649    30031.086    27291.452   -26687.591    17.493048    11054.824    6223.6688    76.696192 
   78100    1301.1443   -119.01994    1.1773027   -117.84264   -583.46993    4.2514792    4.2514792    4.2514792   -583.46993     3271.569    28335.082   -33357.061   -702.55129     7912.379   -18595.397    76.845806 
   78200    1288.7565   -119.00956     1.166094   -117.84347    273.62692    4.2578563    4.2578563    4.2578563    273.62692    13319.433   -8814.7919   -3683.7601   -6537.2552   -5710.0409    14987.092    77.192123 
   78300    1197.9031   -118.92066    1.0838879   -117.83678   -17971.235    4.2585506    4.2585506    4.2585506   -17971.235    1922.8593   -49394.501   -6442.0627   -8853.6878    5248.4519    18999.971    77.229896 
   78400    867.54949   -118.62595   0.78497701   -117.84098   -3002.5885    4.2521129    4.2521129    4.2521129   -3002.5885    15520.345     9304.377   -33832.488    3409.1583    31167.312   -1044.5059    76.880172 
   78500    1007.8794   -118.75857   0.91195046   -117.84662    6413.3649    4.2535374    4.2535374    4.2535374    6413.3649    30045.545    34914.381   -45719.831   -5708.9258   -1448.3583   -8036.7238    76.957465 
   78600    1209.9241   -118.93572    1.0947648   -117.84095   -12294.832    4.2594183    4.2594183    4.2594183   -12294.832    7258.3262   -24276.527   -19866.296    1040.0645   -17360.313   -9296.1285    77.277109 
   78700      1173.36    -118.8968    1.0616808   -117.83511   -1053.5959    4.2524945    4.2524945    4.2524945   -1053.5959    24479.919   -26722.076   -918.63142    5073.3691    21812.609    4194.7031    76.900877 
   78800    1056.8529   -118.79958   0.95626275   -117.84332   -1168.1695     4.251753     4.251753     4.251753   -1168.1695    24094.609    14459.984   -42059.101   -7699.4214    18390.181    3820.0871    76.860655 
   78900     1039.224   -118.78872   0.94031173   -117.84841    1447.4863    4.2516862    4.2516862    4.2516862    1447.4863    28975.512    27395.628   -52028.681    4298.5166   -26090.144   -10558.284    76.857031 
   79000    1062.8136   -118.80565   0.96165609     -117.844     5045.968    4.2537962    4.2537962    4.2537962     5045.968    18081.066    9335.5581   -12278.721   -5599.3281   -19035.923   -5485.2114    76.971513 
   79100    1141.4868   -118.87286    1.0328413   -117.84001   -8608.4082    4.2574815    4.2574815    4.2574815   -8608.4082    11395.682   -19930.443   -17290.463   -10330.029    17117.499    9678.3501    77.171744 
   79200    1041.1137   -118.78684   0.94202153   -117.84482    9646.1887    4.2511204    4.2511204    4.2511204    9646.1887    23339.458     38151.49   -32552.382    2777.3856       -17931    7073.7494    76.826353 
   79300    1107.0818   -118.84583    1.0017109   -117.84412   -1473.8301    4.2574302    4.2574302    4.2574302   -1473.8301   -10740.785    48420.677   -42101.382   -633.08553   -29814.079   -10899.062    77.168951 
   79400    1283.8385   -118.99154     1.161644    -117.8299   -17902.208    4.2638337    4.2638337    4.2638337   -17902.208    3587.8137   -27329.134   -29965.303    4464.1136    7726.1604    6105.9752    77.517683 
   79500    938.39621   -118.67899   0.84908061   -117.82991   -9271.7971    4.2583909    4.2583909    4.2583909   -9271.7971    6693.3805   -19534.978   -14973.794    708.34168   -12892.399    23697.843    77.221205 
   79600    1025.9129   -118.76273   0.92826754   -117.83447    864.64092    4.2543788    4.2543788    4.2543788    864.64092   -5254.1297    43408.838   -35560.785   -4493.9897   -34889.852    6053.6425    77.003148 
   79700    1539.8411   -119.22484    1.3932805   -117.83156   -1603.9421    4.2539061    4.2539061    4.2539061   -1603.9421     7095.667    24486.996   -36394.489   -426.60045    5815.2161   -9565.9129     76.97748 
   79800    1025.4186   -118.76458   0.92782032   -117.83676   -2226.0848    4.2550821    4.2550821    4.2550821   -2226.0848    7427.5148    -7291.054   -6814.7151   -7417.1692    10709.983    8268.1935    77.041341 
   79900    615.07646    -118.4022    0.5565341   -117.84567    1895.1658    4.2542516    4.2542516    4.2542516    1895.1658    15914.682    3983.9303   -14213.115   -28.959877   -34728.979    19004.025    76.996239 
   80000    1176.2015   -118.90941    1.0642518   -117.84516    3937.9696    4.2545077    4.2545077    4.2545077    3937.9696    17850.092     28976.28   -35012.463    2561.3194   -19266.507   -3037.7605    77.010145 
   80100     1576.897   -119.26478    1.4268095   -117.83797   -12891.399    4.2553058    4.2553058    4.2553058   -12891.399   -15219.355   -2954.3654   -20500.477   -4295.9058    29895.231    -12482.52    77.053493 
   80200    922.81825   -118.67298   0.83498535     -117.838   -1626.9726    4.2509099    4.2509099    4.2509099   -1626.9726   -5785.7995   -18685.614    19590.495    1968.5814   -1422.1574      16.3017    76.814939 
   80300     510.5078   -118.31107   0.46191819   -117.84915   -2497.9919     4.255036     4.255036     4.255036   -2497.9919   -1670.4053   -12040.861    6217.2908    2770.5881   -40862.594    13929.059    77.038834 
   80400    1304.8204   -119.03026    1.1806289   -117.84963   -1905.1346    4.2514133    4.2514133    4.2514133   -1905.1346   -6328.5357   -1229.0407    1842.1726   -6159.7168   -8981.8302    11002.583    76.842236 
   80500    1899.6522   -119.55618    1.7188452   -117.83734   -78.976734    4.2474448    4.2474448    4.2474448   -78.976734   -6850.4746   -8811.3204    15424.865   -5902.4402     10693.13   -11131.204     76.62725 
   80600    909.56091   -118.66994   0.82298983   -117.84695    -13148.18    4.2565861    4.2565861    4.2565861    -13148.18   -12034.598   -30771.987    3362.0466   -4.9857107   -26621.224   -2949.5474    77.123061 
   80700    524.89874   -118.32706   0.47493941   -117.85212    -706.6768    4.2494924    4.2494924    4.2494924    -706.6768    6211.6395   -27379.613    19047.943   -1534.0287   -29238.783    20472.448    76.738121 
   80800    1318.8893   -119.04262    1.1933588   -117.84927     1507.293    4.2470185    4.2470185    4.2470185     1507.293    11105.546   -13790.612    7206.9455   -5975.2651   -15.202217    5418.1079    76.604176 
   80900    1469.8593   -119.17562    1.3299596   -117.84566   -15736.283    4.2548018    4.2548018    4.2548018   -15736.283   -2134.8181   -24424.385   -20649.646   -3988.7795    17833.705   -21102.446    77.026115 
   81000    776.15873   -118.54904   0.70228473   -117.84676    3153.0974    4.2474824    4.2474824    4.2474824    3153.0974    34526.336   -11467.806   -13599.238    3749.6737   -644.96672   -1752.8787    76.629285 
   81100    785.63363   -118.56407   0.71085781   -117.85321    6406.6317    4.2501655    4.2501655    4.2501655    6406.6317    34211.343   -14.248513   -14977.199    -2094.601   -24159.462    28034.923    76.774595 
   81200      1439.17   -119.15096    1.3021913   -117.84877   -2758.4934    4.2552989    4.2552989    4.2552989   -2758.4934    1961.6338   -5957.4973   -4279.6166   -7857.7436    -8673.099    15535.117    77.053115 
   81300    1562.7616   -119.25641    1.4140196   -117.84239    5040.3907    4.2484479    4.2484479    4.2484479    5040.3907    7598.7844    7355.0697    167.31794    214.19345    15006.035   -10756.092     76.68155 
   81400    734.22739   -118.51461   0.66434437   -117.85027   -1955.4477    4.2525083    4.2525083    4.2525083   -1955.4477    7887.1291    5039.0409   -18792.513     1324.779    15691.136    8578.6061    76.901622 
   81500    543.39947    -118.3458   0.49167926   -117.85413   -9761.4621    4.2567939    4.2567939    4.2567939   -9761.4621    7993.4156   -6781.5995   -30496.202    140.89141   -12906.514    35372.167    77.134359 
   81600    1432.6926   -119.14158    1.2963304   -117.84525    -7423.787    4.2530473    4.2530473    4.2530473    -7423.787     194.4164    14900.937   -37366.714   -6741.1864   -17289.841    7381.8682     76.93087 
   81700     1624.189   -119.30982    1.4696003   -117.84022   -6776.6854    4.2553422    4.2553422    4.2553422   -6776.6854   -11246.087    -1098.432   -7985.5372   -62.769671    5327.5134   -11003.571    77.055471 
   81800    829.02496   -118.59448    0.7501192   -117.84437    725.57514    4.2577942    4.2577942    4.2577942    725.57514    12615.893   -19325.513    8886.3461    11182.824    3836.4904    28843.627    77.188748 
   81900    680.16989   -118.45795   0.61543201   -117.84251    10195.096    4.2551384    4.2551384    4.2551384    10195.096    18752.219    14149.896   -2316.8278   -349.65314   -4843.4604      28735.4      77.0444 
   82000    1285.9158   -118.99845    1.1635236   -117.83492   -3083.6301     4.259008     4.259008     4.259008   -3083.6301   -5663.1356    3307.3565   -6895.1111    1029.1838   -5424.9502   -18046.869    77.254779 
   82100    1415.1145   -119.11122    1.2804253    -117.8308   -5148.5194    4.2585142    4.2585142    4.2585142   -5148.5194    9.8213138   -8447.4852   -7007.8943    18542.134    866.29316   -17009.696    77.227911 
   82200    1010.9283   -118.74877   0.91470914   -117.83406   -7949.2155    4.2618301    4.2618301    4.2618301   -7949.2155      13205.7   -41153.658    4100.3116    9262.7014    1133.8008    26288.907    77.408453 
   82300    987.38161   -118.72465   0.89340363   -117.83125     961.6054    4.2559265    4.2559265    4.2559265     961.6054    11733.013   -10025.881    1177.6845   -3983.0922   -611.77123    23969.819    77.087218 
   82400    1293.4304   -119.00139     1.170323   -117.83107    11606.421    4.2466978    4.2466978    4.2466978    11606.421    5058.5684    15437.301    14323.393    3287.3105    1141.6792   -18222.539    76.586824 
   82500    1189.2883    -118.9188     1.076093    -117.8427   -9716.2496    4.2561027    4.2561027    4.2561027   -9716.2496   -3913.0283   -28130.748    2895.0277    15543.301   -8935.8791   -2036.2308    77.096788 
   82600     819.0528   -118.58952   0.74109619   -117.84843    1270.2185    4.2506204    4.2506204    4.2506204    1270.2185    21387.916   -32539.136    14961.876    5383.0456    7707.9722    28854.649    76.799248 
   82700    925.40663   -118.68666   0.83732736   -117.84933    1403.7493    4.2477326    4.2477326    4.2477326    1403.7493   -4122.4569   -18005.564    26339.269   -13814.511    18973.783    18551.816    76.642825 
   82800    1353.0831   -119.07055     1.224298   -117.84625   -12804.427    4.2540442    4.2540442    4.2540442   -12804.427   -38997.319   -11479.516    12063.555   -4729.4983   -3381.4933   -8024.2245     76.98498 
   82900    1342.8628   -119.06016    1.2150505   -117.84511   -1665.0733    4.2498909    4.2498909    4.2498909   -1665.0733   -768.21246   -11127.594    6900.5863    11405.036   -9338.6218    5253.5413    76.759712 
   83000     815.3233   -118.58777   0.73772165   -117.85005   -4535.1566    4.2543717    4.2543717    4.2543717   -4535.1566    23557.477   -42213.881    5050.9348    3124.5752    9800.4769    27127.297    77.002763 
   83100    834.71377    -118.6007   0.75526656   -117.84543   -2754.8099    4.2549952    4.2549952    4.2549952   -2754.8099   -243.98653   -36936.347    28915.903   -16551.612    12478.245    580.08242    77.036621 
   83200    1355.1634   -119.06145    1.2261803   -117.83527   -3142.8319    4.2547085    4.2547085    4.2547085   -3142.8319   -25171.096    13509.403    2233.1974   -12675.237   -7185.8032   -8289.5055    77.021052 
   83300    1157.1651   -118.88332    1.0470273   -117.83629    6583.7986     4.261586     4.261586     4.261586    6583.7986    8688.2034    33497.187   -22433.994    646.67485   -12832.825    20923.549    77.395157 
   83400    726.47098   -118.49207   0.65732621   -117.83475    5666.7867    4.2627742    4.2627742    4.2627742    5666.7867    21301.957    24841.023    -29142.62   -6719.6956    17270.295    21018.717     77.45991 
   83500     1120.681   -118.83882    1.0140157   -117.82481    4074.9413     4.257162     4.257162     4.257162    4074.9413    7998.3612    2257.0207     1969.442   -8194.1541    9229.9535   -5800.4985    77.154369 
   83600    1492.4135     -119.169    1.3503671   -117.81863   -17024.363    4.2655891    4.2655891    4.2655891   -17024.363   -14582.605   -21313.536   -15176.949    3295.8837   -10914.085    6383.0943    77.613462 
   83700    902.67125   -118.64016   0.81675592   -117.82341   -1087.1602    4.2644651    4.2644651    4.2644651   -1087.1602    19068.055   -2909.7578   -19419.778   -416.88282    17030.724    33841.319    77.552126 
   83800    999.25336   -118.72768   0.90414544   -117.82354    11364.307    4.2577191    4.2577191    4.2577191    11364.307    24534.531   -2222.2349    11780.623   -1125.0191    19720.197    4893.8248    77.184664 
   83900    1466.2452   -119.14436    1.3266895   -117.81767    -14402.78    4.2611269    4.2611269    4.2611269    -14402.78   -1896.1601   -39800.809   -1511.3722    2658.9796   -4923.7382   -7212.4156    77.370144 
   84000    1015.6408   -118.74371   0.91897315   -117.82473    2514.8004    4.2556127    4.2556127    4.2556127    2514.8004    9862.2664   -7061.5827    4743.7174   -2978.6074   -6384.9745    30518.864    77.070165 
   84100    893.35543   -118.64157   0.80832677   -117.83324   -9944.2617    4.2608042    4.2608042    4.2608042   -9944.2617   -25316.821    12906.515   -17422.479   -3541.5765    12282.642    23111.862    77.352568 
   84200    1368.6973   -119.06587    1.2384261   -117.82744   -6939.2898    4.2577093    4.2577093    4.2577093   -6939.2898    -24730.27    6966.8853   -3054.4849   -778.51557    10374.354   -9090.3483    77.184129 
   84300    1342.1538   -119.04553     1.214409   -117.83112   -735.60734    4.2515683    4.2515683    4.2515683   -735.60734    16851.947   -13837.682   -5221.0874    7899.5544   -7097.1691     18361.35    76.850636 
   84400     899.0479   -118.65348   0.81347743      -117.84   -17740.049    4.2598719    4.2598719    4.2598719   -17740.049   -8747.4949   -24452.118   -20020.535   -4191.9952    2642.2996    38076.034    77.301803 
   84500    976.87748   -118.71803   0.88389927   -117.83413    2068.7537    4.2572775    4.2572775    4.2572775    2068.7537   -8911.4441     19463.54   -4345.8345   -7082.7117    15660.642   -5315.8568    77.160652 
   84600    1251.8163   -118.96199    1.1326697   -117.82932   -7273.2164    4.2594178    4.2594178    4.2594178   -7273.2164     5399.677    -12199.19   -15020.136    1298.7039    5222.8308    -8383.811    77.277086 
   84700    1105.2815   -118.83643     1.000082   -117.83635    10142.785    4.2511155    4.2511155    4.2511155    10142.785    47064.108   -10934.748   -5701.0042    6483.4016   -6695.9363    32330.458    76.826087 
   84800    918.37631   -118.66971   0.83096618   -117.83875      13466.2    4.2512261    4.2512261    4.2512261      13466.2    7521.7675    24299.794    8577.0371    6376.1172    4610.2418    17152.235    76.832084 
   84900    1118.5676   -118.84685    1.0121035   -117.83475    -11309.37      4.26651      4.26651      4.26651    -11309.37   -57559.821    31602.758   -7971.0467   -6427.5526    15177.096   -10922.465    77.663743 
   85000    1227.5282   -118.93696    1.1106933   -117.82627    7005.5005    4.2630368    4.2630368    4.2630368    7005.5005    8986.2713    9921.2906    2108.9396   -12462.222   -967.63614    17266.039    77.474224 
   85100     1099.107   -118.81849   0.99449514     -117.824    4491.0803      4.25913      4.25913      4.25913    4491.0803     28101.38   -13475.176   -1152.9635    336.82272    5160.5401    21565.754    77.261423 
   85200    1018.0858   -118.74556    0.9211854   -117.82437    -3851.138    4.2561099    4.2561099    4.2561099    -3851.138   -13502.044    6199.3859   -4250.7556    3025.1484    27964.454   -8072.5728    77.097179 
   85300    1221.2199   -118.93088    1.1049854   -117.82589    6131.2441    4.2520094    4.2520094    4.2520094    6131.2441    -11428.65    20764.006     9058.376    1426.4246     9394.312   -7116.5575    76.874562 
   85400     1211.032   -118.93051    1.0957672   -117.83474   -13468.656    4.2642689    4.2642689    4.2642689   -13468.656   -10659.444    -3640.994    -26105.53    1530.4853   -8796.8088     25176.06    77.541422 
   85500    838.63663   -118.59397   0.75881604   -117.83515    5943.1503    4.2583799    4.2583799    4.2583799    5943.1503    2230.4965    21663.216   -6064.2618   -1091.6989    17408.423    21867.918    77.220609 
   85600    1028.4509   -118.76079   0.93056398   -117.83023    18327.247    4.2521595    4.2521595    4.2521595    18327.247   -26403.496    49831.338      31553.9    2931.4487    18057.328   -5513.6399    76.882704 
   85700    1239.0818   -118.94592    1.1211472   -117.82477   -17101.392    4.2660755    4.2660755    4.2660755   -17101.392   -48859.085    8182.2943   -10627.386    2409.4205   -9004.5893    13438.681    77.640016 
   85800    990.26147   -118.72236   0.89600939   -117.82636   -737.15199    4.2577078    4.2577078    4.2577078   -737.15199   -48.805044    5253.3654   -7416.0163    6189.2663    2510.8924    21860.909    77.184048 
   85900    1158.1024   -118.87869    1.0478754   -117.83082   -573.88883    4.2564911    4.2564911    4.2564911   -573.88883    10458.141    1398.0629   -13577.871    3585.9361    26767.374   -3622.4617    77.117897 
   86000    1451.8678   -119.13833    1.3136805   -117.82465   -12719.311    4.2643306    4.2643306    4.2643306   -12719.311   -14742.431   -8565.1644   -14850.338     2266.376    8475.3844   -7444.2232    77.544786 
   86100    917.94176   -118.65642     0.830573   -117.82585    8209.8117    4.2580923    4.2580923    4.2580923    8209.8117    10278.026    16846.216   -2494.8074    3994.5358   -5718.3001    23903.565    77.204964 
   86200    780.83606   -118.53709   0.70651688   -117.83058    -10427.56    4.2599757    4.2599757    4.2599757    -10427.56   -16761.956     12823.81   -27344.535    3534.3539     26753.87     15212.67    77.307451 
   86300    1614.7386   -119.28771    1.4610495   -117.82666   -14621.558    4.2597617    4.2597617    4.2597617   -14621.558   -12530.235   -9576.8344   -21757.604    14966.452    17632.554   -12593.387    77.295801 
   86400    1318.1115   -119.01752     1.192655   -117.82486    -13808.98    4.2633848    4.2633848    4.2633848    -13808.98    2452.1848   -23902.046   -19977.079    2203.2979   -6266.2869     21539.48    77.493201 
   86500     651.3364   -118.41659   0.58934287   -117.82724    1596.4433     4.261382     4.261382     4.261382    1596.4433   -6152.1958    26985.827   -16044.301   -3986.5434    5817.3203    22154.329    77.384042 
   86600    1000.7603   -118.72963   0.90550893   -117.82412    16232.259    4.2524754    4.2524754    4.2524754    16232.259    7163.9648    54635.198   -13102.386   -2827.5274    25494.312   -12463.863    76.899838 
   86700    1423.3471   -119.11725    1.2878744   -117.82938    9911.0319    4.2563869    4.2563869    4.2563869    9911.0319    33199.589    9390.0819   -12856.575   -5071.3661     818.9753   -2128.9413    77.112237 
   86800    1119.1591   -118.84293    1.0126387   -117.83029   -7135.1717    4.2662659    4.2662659    4.2662659   -7135.1717    -8782.552   -5881.3047   -6741.6582   -2341.5802   -14728.898    13940.233    77.650411 
   86900     764.2963   -118.51695   0.69155136    -117.8254   -11391.939    4.2608515    4.2608515    4.2608515   -11391.939    -61019.54    21034.433    5809.2902    758.44837     15639.33    2043.0039    77.355141 
   87000    1097.6421    -118.8178   0.99316961   -117.82463    9701.6139    4.2501373    4.2501373    4.2501373    9701.6139   -35747.986    25061.739    39791.088    7865.9461    21730.016   -6044.0401    76.773062 
   87100    1481.6366   -119.17171     1.340616   -117.83109    5451.2732    4.2578509    4.2578509    4.2578509    5451.2732    8757.8576   -13373.625    20969.587   -884.32139   -6048.0373      16046.7     77.19183 
   87200    989.69432   -118.73127   0.89549622   -117.83578   -339.93266    4.2618102    4.2618102    4.2618102   -339.93266     -9026.23   -13158.648     21165.08   -4044.5412    6101.4147    14316.558    77.407371 
   87300    587.22019   -118.36757   0.53132917   -117.83624   -4700.7678    4.2563171    4.2563171    4.2563171   -4700.7678   -52833.467    22422.179    16308.985   -505.08283    37064.711   -6569.1091    77.108444 
   87400    1262.1745   -118.97272    1.1420421   -117.83068   -1797.5094    4.2464843    4.2464843    4.2464843   -1797.5094   -35477.852    14956.927    15128.396    2415.0541    4931.5046   -3207.6559    76.575276 
   87500    1698.8388   -119.37495     1.537145    -117.8378   -3907.7373    4.2524632    4.2524632    4.2524632   -3907.7373    10522.156   -14084.927   -8160.4411    3868.5748   -15196.745    6421.3582    76.899175 
   87600    841.48055   -118.60726   0.76138929   -117.84587    -6170.574    4.2634641    4.2634641    4.2634641    -6170.574   -4071.9813    7306.3602   -21746.101   -8943.9117    37663.857    8333.8254    77.497522 
   87700    562.76228   -118.35159   0.50919914   -117.84239    5783.5457    4.2550926    4.2550926    4.2550926    5783.5457   -17662.784    28256.364    6757.0564   -11415.189    33362.337   -564.45676    77.041913 
   87800     1456.909   -119.14797    1.3182418   -117.82973    2914.4372     4.251393     4.251393     4.251393    2914.4372    9479.3245   -4358.8992    3622.8861   -6066.8743    -19070.34   -6553.1123    76.841134 
   87900     1264.293   -118.98452    1.1439589   -117.84056   -8030.0406    4.2619776    4.2619776    4.2619776   -8030.0406    12409.166   -581.98434   -35917.304    413.04921    20641.522    283.38728     77.41649 
   88000    642.58672   -118.42413   0.58142597   -117.84271    2991.9937    4.2559619    4.2559619    4.2559619    2991.9937     11488.24    32787.953   -35300.213    4202.8477    47973.726    5409.6386    77.089137 
   88100    1081.0836   -118.80789   0.97818712    -117.8297    7523.3987    4.2483328    4.2483328    4.2483328    7523.3987    8584.0052    9486.3467    4499.8443   -3750.2314   -11357.864    7918.6099    76.675319 
   88200    1269.1958   -118.98132    1.1483951   -117.83292   -8869.3057    4.2601954    4.2601954    4.2601954   -8869.3057   -13151.177   -15018.938    1562.1978   -4712.1284   -5885.8592   -1463.6725    77.319413 
   88300    896.04873   -118.64975   0.81076372   -117.83899    4101.8754    4.2580599    4.2580599    4.2580599    4101.8754     1154.693    13848.586   -2697.6524    1604.6965     44447.58   -2555.5959      77.2032 
   88400    1172.6491    -118.8948    1.0610376   -117.83376    7227.7699    4.2524146    4.2524146    4.2524146    7227.7699    2019.3723    9559.9711    10103.966   -3495.2122    14086.314    2438.6072    76.896539 
   88500    1362.7709   -119.06134    1.2330638   -117.82828   -6962.3303    4.2560754    4.2560754    4.2560754   -6962.3303    -31620.99   -17513.868    28247.867   -3475.7351   -18730.239   -725.81952    77.095309 
   88600    719.05089   -118.49235   0.65061235   -117.84174    2068.4111     4.254219     4.254219     4.254219    2068.4111   -35007.955    9794.2993    31418.889    703.49589    34356.665    -1138.039     76.99447 
   88700    958.95669   -118.70774   0.86768417   -117.84006    4156.2534    4.2515099    4.2515099    4.2515099    4156.2534   -12589.858    15152.966    9905.6528    5410.6542    40154.326   -1127.7122    76.847471 
   88800    1564.5433   -119.24783    1.4156317    -117.8322   -938.41091    4.2562181    4.2562181    4.2562181   -938.41091   -1817.7159   -19079.243    18081.726   -158.54226   -12147.735    -2041.444    77.103061 
   88900    1009.9679   -118.75081   0.91384022   -117.83697   -10944.803    4.2608744    4.2608744    4.2608744   -10944.803   -29609.818   -7726.7317    4502.1414   -9932.1689    15304.775    1776.1286    77.356392 
   89000    561.84894   -118.35048   0.50837273   -117.84211    4384.2574    4.2490543    4.2490543    4.2490543    4384.2574   -24372.433    27722.723     9802.483    476.68931    57667.843      344.605    76.714393 
   89100    1400.2729   -119.10503    1.2669963   -117.83804    1748.9609    4.2497483    4.2497483    4.2497483    1748.9609    10183.505    -3511.937   -1424.6848    7635.5829    9456.5192   -3503.9982    76.751985 
   89200    1605.8565   -119.28495    1.4530127   -117.83194   -16697.832    4.2622774    4.2622774    4.2622774   -16697.832   -1585.4794   -17953.915   -30554.101   -1624.5006   -8870.3045   -156.39815     77.43283 
   89300    751.83017    -118.5178   0.68027174   -117.83753    1934.5327    4.2577184    4.2577184    4.2577184    1934.5327   -20629.087    23634.791     2797.894   -3056.8991    44586.404   -21.492344    77.184623 
   89400     1154.934   -118.87323    1.0450086   -117.82822   -12698.418     4.259443     4.259443     4.259443   -12698.418   -26114.469   -10378.283   -1602.5007    3338.4736     20054.25   -3694.1601    77.278453 
   89500    1493.7268   -119.16994    1.3515554   -117.81838   -6343.1533    4.2648599    4.2648599    4.2648599   -6343.1533    1586.9339   -13897.981   -6718.4127    2572.7428   -12744.399   -1361.1845    77.573665 
   89600    690.25415   -118.44828   0.62455646   -117.82372    11010.187    4.2656775    4.2656775    4.2656775    11010.187   -7146.6775    41845.232   -1667.9927   -8766.4973    34123.584    3181.6764    77.618285 
   89700    1021.4482    -118.7411   0.92422782   -117.81687   -11129.505    4.2631219    4.2631219    4.2631219   -11129.505   -32923.244    8043.8972   -8509.1693   -6728.3109    20267.761    -6967.303    77.478867 
   89800    1616.2953    -119.2636     1.462458   -117.80115    -24446.55    4.2649588    4.2649588    4.2649588    -24446.55   -63232.872   -11680.096    1573.3186   -58.834022   -11662.446   -7577.5486    77.579059 
   89900    801.65302   -118.54353    0.7253525   -117.81818    3055.4511    4.2664441    4.2664441    4.2664441    3055.4511    -21473.06     40435.62   -9796.2078   -6747.6021    36133.885    882.11587    77.660142 
   90000    921.83933   -118.64968    0.8340996   -117.81558      16385.8     4.262368     4.262368     4.262368      16385.8    9049.6676      45754.5   -5646.7689   -8954.0043    18254.389     8725.874    77.437768 
   90100    1646.6439   -119.29162     1.489918   -117.80171   -17557.154    4.2669644    4.2669644    4.2669644   -17557.154   -17136.287   -17976.848   -17558.327    7893.1518   -18494.591    900.34456    77.688559 
   90200    835.05623    -118.5669   0.75557642   -117.81132   -8088.1705    4.2672894    4.2672894    4.2672894   -8088.1705   -33769.234     20106.24   -10601.518    7526.2951    30224.428   -643.12129    77.706308 
   90300    820.71794   -118.55548   0.74260284   -117.81288    14044.788    4.2617626    4.2617626    4.2617626    14044.788   -11528.877    34893.115    18770.124   -1544.2998    27122.746    7400.2956    77.404777 
   90400    1726.1416   -119.36908    1.5618492   -117.80723   -10888.439    4.2625453    4.2625453    4.2625453   -10888.439    7730.0183   -30673.853   -9721.4818    2500.8909   -13766.434    1494.6826    77.447434 
   90500    942.45443   -118.67444   0.85275257   -117.82168    8153.2947    4.2534032    4.2534032    4.2534032    8153.2947     21859.41    9313.7034   -6713.2296    6001.2044     36153.24   -5506.5548    76.950181 
   90600    676.75337   -118.44193   0.61234067   -117.82959    8114.3167    4.2561102    4.2561102    4.2561102    8114.3167    3497.6374    28161.412   -7316.0989    5459.7487    39088.521    1363.2891    77.097197 
   90700    1522.9935   -119.19832    1.3780365   -117.82029   -18136.849    4.2651537    4.2651537    4.2651537   -18136.849    -15509.01   -34302.137   -4599.3982    3508.5584   -16413.145    1523.5684    77.589696 
   90800    1169.2028   -118.88258    1.0579193   -117.82466     1674.108    4.2556859    4.2556859    4.2556859     1674.108     23822.03    -5938.236    -12861.47   -2245.0658    17344.801   -2583.0677    77.074142 
   90900    927.34146    -118.6717   0.83907804   -117.83262    4632.3812    4.2535301    4.2535301    4.2535301    4632.3812    5694.1905    21319.992   -13117.038    2659.9123    48101.839    -8038.163    76.957071 
   91000    1488.0059    -119.1685     1.346379   -117.82212   -7070.4413    4.2589062    4.2589062    4.2589062   -7070.4413   -23731.083   -10058.751     12578.51    1239.8217   -3778.7702   -6150.7784     77.24924 
   91100    1020.7808    -118.7505   0.92362393   -117.82688   -2937.7878      4.26365      4.26365      4.26365   -2937.7878   -17000.797    2048.7258    6138.7081   -8251.5292    8603.0164    3931.1788    77.507663 
   91200    726.49585    -118.4864   0.65734871   -117.82905   -901.98219     4.261225     4.261225     4.261225   -901.98219   -4970.7478    20817.855   -18553.054    2797.7251    43173.512   -3132.5523    77.375485 
   91300    1589.3444    -119.2552    1.4380722   -117.81713     3919.134    4.2526722    4.2526722    4.2526722     3919.134     4716.116    1940.7722    5100.5139    3491.0421   -1802.0915   -4350.3582    76.910515 
   91400    1269.9336   -118.97214    1.1490626   -117.82308    -21293.49    4.2657362    4.2657362    4.2657362    -21293.49   -37070.661   -10330.147   -16479.661   -2062.8643   -5830.4653    2887.3348    77.621494 
   91500    389.20087   -118.18012   0.35215713   -117.82796   -781.59787    4.2632444    4.2632444    4.2632444   -781.59787   -30249.216    40569.627   -12665.205   -410.04117    33615.178    2605.8362    77.485543 
   91600    1263.9124   -118.96382    1.1436145    -117.8202    17969.118    4.2526843    4.2526843    4.2526843    17969.118    33215.968    35487.873   -14796.487   -1633.1807    4716.1851   -1339.5608    76.911172 
   91700    1816.0382   -119.46237    1.6431895   -117.81918   -13033.427    4.2610554    4.2610554    4.2610554   -13033.427    15280.624   -24699.912   -29680.993    161.27977   -14415.883    3435.7827    77.366248 
   91800    594.79479   -118.37397   0.53818283   -117.83579    13605.871    4.2528192    4.2528192    4.2528192    13605.871    12661.737    17297.651    10858.226   -4749.6386     31500.76    9498.8959    76.918489 
   91900    514.79498   -118.30553   0.46579732   -117.83973    10715.839    4.2530755    4.2530755    4.2530755    10715.839    3351.4639    23858.668    4937.3847   -2339.5009    24746.778     10186.27      76.9324 
   92000      1721.64   -119.38905     1.557776   -117.83127   -11405.824    4.2581638    4.2581638    4.2581638   -11405.824    9007.9893   -24226.716   -18998.746    7699.5907   -18464.198   -1900.0276    77.208852 
   92100    1360.0431   -119.07001    1.2305956   -117.83941    8470.7152    4.2519273    4.2519273    4.2519273    8470.7152    20402.341   -2172.1055      7181.91    7684.5434    9743.9127   -6354.9098    76.870108 
   92200    358.19439   -118.17058   0.32410181   -117.84648   -4464.7153    4.2571305    4.2571305    4.2571305   -4464.7153   -23675.757    10874.968   -593.35646   -4745.3218    41994.703    7397.9171    77.152658 
   92300    1097.9433   -118.82907   0.99344217   -117.83563   -427.63764    4.2566578    4.2566578    4.2566578   -427.63764   -3499.6984   -14659.784     16876.57    2111.7634   -2003.8833    2428.3068    77.126962 
   92400    1829.7939   -119.48652    1.6556359   -117.83089   -6229.2396    4.2546545    4.2546545    4.2546545   -6229.2396   -5150.1735   -13257.271   -280.27459    11302.412   -8068.6561    -3894.723    77.018115 
   92500    938.72294   -118.69069   0.84937624   -117.84131     8095.695    4.2543649    4.2543649    4.2543649     8095.695    8615.3067    14362.057     1309.721    75.223076    36495.542    2888.4144    77.002391 
   92600    697.54726   -118.46854   0.63115542   -117.83739   -8227.2387    4.2583651    4.2583651    4.2583651   -8227.2387    -32777.02     4568.661    3526.6424    986.12416    20691.185     8835.414    77.219799 
   92700    1288.9533    -118.9961     1.166272   -117.82983   -3460.5627    4.2544394    4.2544394    4.2544394   -3460.5627   -12867.747   -10338.214    12824.273    5034.9383   -14703.963    808.80502    77.006435 
   92800     1242.705   -118.96187    1.1244256   -117.83744    1617.2573    4.2564881    4.2564881    4.2564881    1617.2573    5290.5916    21132.149   -21570.968    7401.1834    14920.804    -9546.064    77.117738 
   92900    921.69504   -118.67146   0.83396904   -117.83749   -5195.0594    4.2578236    4.2578236    4.2578236   -5195.0594   -6971.2204      15053.8   -23667.758    5036.0794     28925.01   -4129.7886    77.190348 
   93000    971.64179   -118.71019   0.87916191   -117.83103   -3030.1949    4.2535198    4.2535198    4.2535198   -3030.1949    1254.8172   -12480.627    2135.2255    5482.6572   -4922.9499    19654.983    76.956514 
   93100    1230.0981   -118.94689    1.1130186   -117.83387   -11909.731     4.255891     4.255891     4.255891   -11909.731   -19779.567    9299.4781   -25249.105    6436.1621   -2048.9272    16942.429    77.085288 
   93200    1226.8004   -118.94905    1.1100348   -117.83901    5637.0364    4.2522914    4.2522914    4.2522914    5637.0364    19947.074    24590.628   -27626.593   -2242.6706    20284.754   -4754.2565    76.889858 
   93300    1068.8743   -118.80653   0.96713994   -117.83939   -3512.9634    4.2566357    4.2566357    4.2566357   -3512.9634      25385.5   -20518.188   -15406.202   -2399.8298    6676.6616    7627.8773    77.125761 
   93400    1022.6635   -118.75747   0.92532744   -117.83214   -7694.5192    4.2586541    4.2586541    4.2586541   -7694.5192    -11360.49    3384.4809   -15107.549    2136.4655   -8946.7824    23200.409    77.235525 
   93500    1143.3019   -118.86829    1.0344835   -117.83381    9443.9322    4.2494853    4.2494853    4.2494853    9443.9322     5856.894    44580.935   -22106.032   -1609.8313    15477.022    5231.1262    76.737737 
   93600    1017.8379    -118.7631   0.92096109   -117.84214    3931.1234    4.2594617    4.2594617    4.2594617    3931.1234    23061.343    27536.603   -38804.576    6768.0863    13524.745   -8491.7089    77.279475 
   93700    1139.9929   -118.86558    1.0314895   -117.83409   -3374.4998    4.2604914    4.2604914    4.2604914   -3374.4998    5453.3745   -924.63908   -14652.235    12959.286   -12680.764    6954.9018    77.335534 
   93800    1176.6657   -118.89048    1.0646719    -117.8258    4935.9267    4.2495273    4.2495273    4.2495273    4935.9267    1821.2397    3926.3804      9060.16    6668.7931     8602.858    5208.8856    76.740014 
   93900    978.59298   -118.72335   0.88545149    -117.8379    -10344.45    4.2575989    4.2575989    4.2575989    -10344.45   -8321.5108    11126.174   -33838.014    5338.5241    24712.765   -4224.5914    77.178128 
   94000    984.59763   -118.73084   0.89088463   -117.83996    449.04106    4.2559753    4.2559753    4.2559753    449.04106    33859.094    4410.6057   -36922.577    -2325.394   -9760.3034   -4102.0724    77.089867 
   94100     1281.597   -118.99606    1.1596159   -117.83645    3866.2333    4.2516333    4.2516333    4.2516333    3866.2333    21568.503   -1335.7904   -8634.0126    2428.0048   -21053.385   -1895.4873    76.854162 
   94200    1208.9808   -118.92771    1.0939113    -117.8338    182.03573    4.2524881    4.2524881    4.2524881    182.03573   -21532.984    13456.626    8622.4654    1893.5926    10668.357    5449.2833     76.90053 
   94300    867.26544   -118.62878      0.78472   -117.84406    15856.837    4.2506691    4.2506691    4.2506691    15856.837    21777.861    30508.459     -4715.81   -9237.1434     5292.616   -5083.8148    76.801889 
   94400    1122.2794   -118.86111     1.015462   -117.84565   -5423.0692    4.2587601    4.2587601    4.2587601   -5423.0692    19895.214    8754.8286   -44919.251    1234.2984   -24792.893   -9275.3791    77.241294 
   94500     1312.447   -119.02357    1.1875296   -117.83604    1442.0118    4.2513313    4.2513313    4.2513313    1442.0118    10189.767     1030.961   -6894.6922    3464.7437   -11087.627    4762.3677    76.837786 
   94600    1002.7846    -118.7432   0.90734062   -117.83586    1343.7609    4.2481101    4.2481101    4.2481101    1343.7609   -24811.777     12369.31     16473.75    3977.7238     8580.422    12927.212    76.663263 
   94700    941.87047   -118.69514    0.8522242   -117.84292   -9374.5597    4.2573641    4.2573641    4.2573641   -9374.5597   -30817.649    21612.169   -18918.199    4617.9054   -8886.7976   -3456.7252    77.165361 
   94800    1343.0356   -119.05471    1.2152068    -117.8395    2602.2419    4.2547104    4.2547104    4.2547104    2602.2419    29152.465    13463.214   -34808.954   -8758.8894   -12956.466   -4241.9845    77.021155 
   94900    1307.8003   -119.01853    1.1833252    -117.8352   -9718.6477    4.2569207    4.2569207    4.2569207   -9718.6477    3996.1196   -5557.1891   -27594.874    848.75174    7125.0701    17217.267    77.141252 
   95000    766.58774   -118.53008    0.6936247   -117.83645    1321.6674    4.2506316    4.2506316    4.2506316    1321.6674    -22581.22     17261.23    9284.9915    914.78095    4442.0449    11713.807    76.799854 
   95100    814.85946   -118.58118   0.73730196   -117.84388    3129.5044    4.2495506    4.2495506    4.2495506    3129.5044   -499.35388    23753.202   -13865.335   -4228.6065    -24117.32   -4152.4282    76.741277 
   95200    1379.1987   -119.08895    1.2479279   -117.84102    -8482.621    4.2601581    4.2601581    4.2601581    -8482.621    21804.374    -10891.66   -36360.577   -2525.3778   -14847.924   -3451.8988    77.317383 
   95300    1381.2468   -119.08309    1.2497811   -117.83331    3006.2491    4.2537962    4.2537962    4.2537962    3006.2491    16174.767   -14108.365    6952.3456     992.6981    3428.1729    5076.2701    76.971518 
   95400     750.1842   -118.51647   0.67878243   -117.83768    3296.2225    4.2555234    4.2555234    4.2555234    3296.2225   -28273.561    25072.777    13089.452    11270.716   -16475.288     9600.024    77.065316 
   95500    982.90639   -118.72487   0.88935435   -117.83551   -5021.1758    4.2592295    4.2592295    4.2592295   -5021.1758    -20546.75    23730.415   -18247.193    1683.0158   -20596.968   -8575.3767    77.266834 
   95600    1509.7033   -119.19197    1.3660113   -117.82596   -2520.9782    4.2553186    4.2553186    4.2553186   -2520.9782     17259.79   -31029.647    6206.9221   -480.27159    7011.5908   -8066.9277    77.054186 
   95700    1103.0484   -118.83108   0.99806137   -117.83302    7026.9549     4.258068     4.258068     4.258068    7026.9549    -4514.416   -702.50175    26297.783    14516.983    3388.4026    6159.6771    77.203642 
   95800    849.51326   -118.60063   0.76865745   -117.83197    2516.3187    4.2627641    4.2627641    4.2627641    2516.3187   -36510.878    28549.207    15510.627    5796.1508    -25757.66    7777.3092    77.459358 
   95900    1187.1295   -118.89674    1.0741397    -117.8226   -3982.7668    4.2599349    4.2599349    4.2599349   -3982.7668     -15011.7   -567.28468    3630.6839   -2467.0848   -12324.723    -59.77135    77.305234 
   96000    1017.4045     -118.747   0.92056899   -117.82643    4181.3952      4.25147      4.25147      4.25147    4181.3952    16336.101   -17703.271    13911.356    4958.5407    6972.0636   -8269.4964     76.84531 
   96100    987.84981   -118.72853   0.89382727    -117.8347     3977.074    4.2504272    4.2504272    4.2504272     3977.074    7523.9037   -13174.345    17581.663    10340.953   -8659.4658    4164.9155    76.788774 
   96200    1240.1603   -118.95655    1.1221231   -117.83443   -712.96244    4.2587439    4.2587439    4.2587439   -712.96244   -23267.085    15476.129    5652.0684   -2092.9824   -15398.045   -249.65093    77.240413 
   96300    969.20462    -118.7123   0.87695671   -117.83535    281.41945    4.2581797    4.2581797    4.2581797    281.41945   -9216.4051   -11573.829    21634.493   -3763.7698    3131.7171   -10678.804    77.209715 
   96400    858.97203   -118.61447   0.77721595   -117.83726    30.061035    4.2564431    4.2564431    4.2564431    30.061035    9413.0596   -41351.593    32028.716    6807.9979     8660.512    1142.4566    77.115293 
   96500    1480.8653   -119.16833    1.3399181   -117.82841    -10024.87    4.2596355    4.2596355    4.2596355    -10024.87   -12010.442   -6838.3979   -11225.771   -4251.7292   -6309.5348    11584.665    77.288935 
   96600    1320.0437   -119.01906    1.1944033   -117.82466     25.23889    4.2570081    4.2570081    4.2570081     25.23889   -22175.929    28431.995   -6180.3489    3855.1892   -9260.3987   -4903.4656    77.146002 
   96700     487.4729   -118.27643   0.44107572   -117.83535    7393.6746     4.260598     4.260598     4.260598    7393.6746   -5189.4586    15409.378    11961.104    16159.046    6295.8691   -16062.658    77.341339 
   96800    1083.3045   -118.81122   0.98019666   -117.83102   -4415.9767    4.2592179    4.2592179    4.2592179   -4415.9767    7162.5627   -29331.007    8920.5142   -3505.7088    3667.7821   -5210.7666    77.266205 
   96900    1744.4246   -119.39824     1.578392   -117.81985   -15200.258    4.2571754    4.2571754    4.2571754   -15200.258   -21976.146   -14500.813   -9123.8134   -8904.0314   -4816.7611   -4648.3485      77.1551 
   97000    825.86715   -118.58063   0.74726196   -117.83336   -10939.679    4.2616957    4.2616957    4.2616957   -10939.679   -37439.628   -22999.182    27619.772    16554.264   -1379.5519   -11199.969    77.401134 
   97100      710.716   -118.47764   0.64307077   -117.83457    8415.8582    4.2535303    4.2535303    4.2535303    8415.8582   -8767.9295    9589.6968    24425.807    6022.1531    2916.4014   -10147.105    76.957081 
   97200     1412.404   -119.11026    1.2779728   -117.83229    9032.0055    4.2523112    4.2523112    4.2523112    9032.0055    15111.796    10853.888    1130.3327   -11233.452   -4959.8724     6598.841    76.890933 
   97300    1372.8398   -119.07809    1.2421743   -117.83591   -9614.8142    4.2552658    4.2552658    4.2552658   -9614.8142   -10151.253   -27628.487     8935.298    10111.581   -5809.5281    3914.6217    77.051321 
   97400    784.52128   -118.55369   0.70985134   -117.84384    3933.3821    4.2497322    4.2497322    4.2497322    3933.3821   -21088.964    1690.2496     31198.86    27189.036   -4233.5671   -10904.267    76.751114 
   97500    952.30701   -118.70757    0.8616674   -117.84591   -12053.142    4.2545363    4.2545363    4.2545363   -12053.142   -21502.075    -14263.96   -393.39114    2181.5977   -3962.4126   -8359.2909    77.011697 
   97600    1419.1957   -119.12248    1.2841181   -117.83836   -9396.6006    4.2520952    4.2520952    4.2520952   -9396.6006   -1600.0847   -17376.071    -9213.646   -13950.371   -5854.8493    1769.2625    76.879214 
   97700    1140.8986   -118.87747    1.0323091   -117.84516    6444.3687    4.2493211    4.2493211    4.2493211    6444.3687    3725.2473   -26078.257    41686.116     8194.517   -9970.4191    1214.6886    76.728845 
   97800     767.7946   -118.54407   0.69471669   -117.84935   -4966.7303    4.2551107    4.2551107    4.2551107   -4966.7303   -20459.123   -35228.286    40787.218    17393.414     1434.724   -15636.944    77.042892 
   97900    1076.4827   -118.81767   0.97402419   -117.84364    4911.5871    4.2511687    4.2511687    4.2511687    4911.5871   -4672.6958    1638.3636    17769.093   -4896.7289    559.97884   -11492.452     76.82897 
   98000    1429.8326   -119.13218    1.2937426   -117.83844    135.03219     4.251497     4.251497     4.251497    135.03219     2022.484    88.164139   -1705.5516   -2971.9783   -9139.6405    10707.463    76.846773 
   98100    1109.2992   -118.85038    1.0037172   -117.84666   -2364.8372    4.2558937    4.2558937    4.2558937   -2364.8372   -21555.011   -3260.5669    17721.067    21704.226   -4399.9744   -6191.9501    77.085435 
   98200    837.69298   -118.60557   0.75796221   -117.84761    49.809966     4.256621     4.256621     4.256621    49.809966   -23049.665    3312.0973    19886.998    12704.456   -6497.5027   -17395.851    77.124957 
   98300    1170.4747   -118.89385    1.0590701   -117.83478   -11684.915    4.2530169    4.2530169    4.2530169   -11684.915   -2312.0261   -13163.277   -19579.442   -10050.677   -1671.7502   -9817.1671    76.929217 
   98400    1378.2158   -119.08292    1.2470386   -117.83589    2380.3602    4.2520273    4.2520273    4.2520273    2380.3602   -4321.5992    13949.537   -2486.8572    8110.2713   -3902.5668    2492.6817    76.875532 
   98500    1009.1122   -118.75919   0.91306595   -117.84612   -4384.6318    4.2595748    4.2595748    4.2595748   -4384.6318   -24886.569   -22082.665    33815.339    25581.311   -7348.0194   -11959.671    77.285631 
   98600    915.52332   -118.67004   0.82838474   -117.84165    2838.2071    4.2537072    4.2537072    4.2537072    2838.2071   -11646.259    956.07818    19204.802    1157.2984   -2115.1878   -23755.878    76.966684 
   98700    1185.4623   -118.90194    1.0726312    -117.8293   -3062.9266    4.2570194    4.2570194    4.2570194   -3062.9266    273.84238    8200.8847   -17663.507   -8548.6384   -7137.5189    4931.6508    77.146616 
   98800    1169.0684   -118.89477    1.0577977   -117.83697    7458.9501    4.2542542    4.2542542    4.2542542    7458.9501    16434.466     4939.245    1003.1391    20241.658   -4573.4603    7773.9442    76.996378 
   98900    933.15469   -118.68797   0.84433797   -117.84363    19884.223    4.2534572    4.2534572    4.2534572    19884.223    31079.078    422.54357    28151.047    20291.957    142.35267   -20615.053    76.953115 
   99000     1075.786   -118.81112   0.97339382   -117.83772   -2706.7936    4.2609838    4.2609838    4.2609838   -2706.7936    19494.116   -20145.323   -7469.1734   -6050.8647   -3515.9167   -9932.3162    77.362351 
   99100    1139.4509    -118.8574    1.0309992   -117.82641   -3658.9774    4.2532758    4.2532758    4.2532758   -3658.9774    1475.4779    11615.316   -24067.726   -1958.7439   -100.16633    10701.231     76.94327 
   99200    1035.9446   -118.77627   0.93734442   -117.83892   -7812.0019    4.2546281    4.2546281    4.2546281   -7812.0019   -6524.3708   -22806.139    5894.5045    16946.371     1219.428   -13282.047    77.016686 
   99300    1089.7365   -118.82871   0.98601648   -117.84269   -2999.4382    4.2543731    4.2543731    4.2543731   -2999.4382    9300.8639   -41704.888     23405.71    10883.712   -4938.2567   -26458.345    77.002834 
   99400    1281.8162   -118.99481    1.1598142   -117.83499    -2464.777    4.2515347    4.2515347    4.2515347    -2464.777    349.76932   -11056.882    3312.7821   -5528.8909   -14710.722      6076.03    76.848818 
   99500    978.89232    -118.7214   0.88572235   -117.83568   -8652.1836    4.2603291    4.2603291    4.2603291   -8652.1836   -7542.4868   -15063.502   -3350.5617   -231.92341   -10881.445    6413.5751    77.326697 
   99600    900.49788   -118.65491    0.8147894   -117.84012    1898.8514    4.2516651    4.2516651    4.2516651    1898.8514    17890.132    -6176.841   -6016.7363    12805.382    7819.7044   -34149.437    76.855889 
   99700    1274.4194   -118.99491    1.1531215   -117.84179    3487.8771    4.2494347    4.2494347    4.2494347    3487.8771   -382.81909   -6019.7399     16866.19    1293.0731   -2203.9716   -24583.233    76.734999 
   99800    1330.1288   -119.03762    1.2035285   -117.83409   -17765.217    4.2592497    4.2592497    4.2592497   -17765.217   -26193.939   -7337.6554   -19764.055   -7994.8955    -18690.41    12360.718    77.267937 
   99900    899.65845    -118.6525   0.81402987   -117.83847    -5382.975    4.2490125    4.2490125    4.2490125    -5382.975    3514.3799    18581.411   -38244.716    742.12058   -3317.8469   -11629.655    76.712126 
  100000    993.93702   -118.74636    0.8993351   -117.84702    5894.4368    4.2497493    4.2497493    4.2497493    5894.4368     15871.71   -9525.3743    11336.974    7892.4889    3300.0465   -37009.055    76.752042 
Loop time of 222.999 on 1 procs for 100000 steps with 8 atoms

Pair  time (%) = 78.3414 (35.1309)
Kspce time (%) = 54.3007 (24.3502)
Neigh time (%) = 0 (0)
Comm  time (%) = 10.8429 (4.86229)
Outpt time (%) = 0.210169 (0.0942466)
Other time (%) = 79.3038 (35.5624)

Nlocal:    8 ave 8 max 8 min
Histogram: 1 0 0 0 0 0 0 0 0 0
Nghost:    2189 ave 2189 max 2189 min
Histogram: 1 0 0 0 0 0 0 0 0 0
Neighs:    2472 ave 2472 max 2472 min
Histogram: 1 0 0 0 0 0 0 0 0 0

Total # of neighbors = 2472
Ave neighs/atom = 309
Neighbor list builds = 0
Dangerous builds = 0
unfix 20
unfix 21
print "seeds:1694372"
seeds:1694372
