LAMMPS (10 Feb 2015)
# ---- initialize simulations
clear
units metal
dimension 3
boundary p p p
atom_style charge
atom_modify map array
# ---- create atoms
read_data /Users/eugeneragasa/pyflamestk_git/pypospack/tests/tests_integration/workflow/WorkflowLammpsThermalExpansion/MgO_NaCl_unit.npt.T300/lammps.structure
  triclinic box = (0 0 0) to (4.2565 4.2565 4.2565) with tilt (0 0 0)
  1 by 1 by 1 MPI processor grid
  reading atoms ...
  8 atoms
# ---- define interatomic potential
include potential.mod
mass 1 24.305
mass 2 15.999

group Mg type 1
4 atoms in group Mg
group O type 2
4 atoms in group O

set group Mg charge 2.0
  4 settings made for charge
set group O charge -2.0
  4 settings made for charge

variable R_cut equal 10.0

pair_style buck/coul/long ${R_cut}
pair_style buck/coul/long 10
pair_coeff 1 1 0.0 0.5 0.0 ${R_cut}
pair_coeff 1 1 0.0 0.5 0.0 10
pair_coeff 1 2 821.6 0.3242 0.0 ${R_cut}
pair_coeff 1 2 821.6 0.3242 0.0 10
pair_coeff 2 2 2274.0 0.149 27.88 ${R_cut}
pair_coeff 2 2 2274.0 0.149 27.88 10

kspace_style pppm 1.0e-5

neighbor 1.0 bin
neigh_modify every 1 delay 0 check yes
# ---- define settings
compute eng all pe/atom
compute eatoms all reduce sum c_eng
# ---- run minimization
reset_timestep 0
fix 1 all box/relax iso 0.0 vmax 0.001
thermo 10
thermo_style custom step pe lx ly lz xy xz yz press pxx pyy pzz pxy pxz pyz c_eatoms
min_style cg
minimize 1e-25 1e-25 5000 10000
PPPM initialization ...
  G vector (1/distance) = 0.354854
  grid = 8 8 8
  stencil order = 5
  estimated absolute RMS force accuracy = 5.34408e-05
  estimated relative force accuracy = 3.71126e-06
  using double precision FFTs
  3d grid and FFT values/proc = 3375 512
Neighbor list info ...
  1 neighbor list requests
  update every 1 steps, delay 0 steps, check yes
  master list distance cutoff = 11
Memory usage per processor = 4.06549 Mbytes
Step PotEng Lx Ly Lz Xy Xz Yz Press Pxx Pyy Pzz Pxy Pxz Pyz eatoms 
       0   -162.12848       4.2565       4.2565       4.2565            0            0            0    -64012.53    -64012.53    -64012.53    -64012.53 -3.8759874e-11 -1.4292379e-10 -3.6687737e-10   -162.12848 
      10   -162.17871     4.213935     4.213935     4.213935            0            0            0   -4821.7526   -4821.7526   -4821.7526   -4821.7526 8.9106085e-11 8.5332225e-11 -4.2335946e-10   -162.17871 
      14   -162.17896    4.2106915    4.2106915    4.2106915            0            0            0    -1.347652    -1.347652    -1.347652    -1.347652 2.5597609e-11 1.0162971e-11 2.8091283e-10   -162.17896 
Loop time of 0.015893 on 1 procs for 14 steps with 8 atoms

Minimization stats:
  Stopping criterion = linesearch alpha is zero
  Energy initial, next-to-last, final = 
        -162.128476026     -162.178964554     -162.178964554
  Force two-norm initial, final = 9.24344 0.000276677
  Force max component initial, final = 9.24344 0.000190436
  Final line search alpha, max atom move = 0.125 2.38044e-05
  Iterations, force evaluations = 14 33

Pair  time (%) = 0.00421262 (26.5062)
Kspce time (%) = 0.00311446 (19.5965)
Neigh time (%) = 0 (0)
Comm  time (%) = 0.000642061 (4.0399)
Outpt time (%) = 9.20296e-05 (0.579058)
Other time (%) = 0.00783181 (49.2784)

Nlocal:    8 ave 8 max 8 min
Histogram: 1 0 0 0 0 0 0 0 0 0
Nghost:    2189 ave 2189 max 2189 min
Histogram: 1 0 0 0 0 0 0 0 0 0
Neighs:    2344 ave 2344 max 2344 min
Histogram: 1 0 0 0 0 0 0 0 0 0

Total # of neighbors = 2344
Ave neighs/atom = 293
Neighbor list builds = 0
Dangerous builds = 0
unfix 1
# ---- define output variables ----
variable natoms equal "count(all)"
variable tot_energy equal "c_eatoms"
variable length_x equal "lx"
variable length_y equal "ly"
variable length_z equal "lz"
variable tilt_xy equal "xy"
variable tilt_xz equal "xz"
variable tilt_yz equal "yz"
variable tot_press equal "press"
variable press_xx equal "pxx"
variable press_yy equal "pyy"
variable press_zz equal "pzz"
variable press_xy equal "pxy"
variable press_xz equal "pxz"
variable press_yz equal "pyz"

# ---- output ----
print "pypospack:output_section:begin"
pypospack:output_section:begin
print "tot_energy = ${tot_energy}"
tot_energy = -162.17896455406
print "num_atoms = ${natoms}"
num_atoms = 8
print "xx = ${length_x}"
xx = 4.21069146013408
print "yy = ${length_y}"
yy = 4.21069146013408
print "zz = ${length_z}"
zz = 4.21069146013408
print "xy = ${tilt_xy}"
xy = 0
print "xz = ${tilt_xz}"
xz = 0
print "yz = ${tilt_yz}"
yz = 0
print "tot_press = ${tot_press}"
tot_press = -1.34765197939399
print "pxx = ${press_xx}"
pxx = -1.34765197919426
print "pyy = ${press_yy}"
pyy = -1.3476519793348
print "pzz = ${press_zz}"
pzz = -1.34765197965291
print "pxy = ${press_xy}"
pxy = 2.55976090046832e-11
print "pxz = ${press_xz}"
pxz = 1.01629705561986e-11
print "pyz = ${press_yz}"
pyz = 2.80912827691917e-10
print "pypospack:output_section:done"
pypospack:output_section:done
print "pypospack:lammps_sim:done"
pypospack:lammps_sim:done
#------------------------------------------------------------------------------
# RUN THERMOSTAT
# running using an NPT Nose-Hoover style thermostat
#------------------------------------------------------------------------------
variable tempdamp equal 0.1
variable pressdamp equal 1.0
# set initial velocities
velocity all create 300 8138180 mom yes dist gaussian loop all
# fix for Nose-Hoover style thermostat
fix 20 all npt temp 300 300 0.1 aniso 0.0 0.0 1.0 drag 1.0 couple xyz
variable boxx equal lx
variable boxy equal ly
variable boxz equal lz
variable boxp equal press
variable boxt equal temp
# calculate averages every 10000 steps
reset_timestep 0
fix 21 all ave/time 10 10 100 v_boxx v_boxy v_boxz v_boxp v_boxt file lattice.out
thermo_style custom step temp pe ke etotal press lx ly lz press pxx pyy pzz pxy pxz pyz vol
thermo_modify flush yes
thermo 100
run 100000
PPPM initialization ...
  G vector (1/distance) = 0.355384
  grid = 8 8 8
  stencil order = 5
  estimated absolute RMS force accuracy = 5.2136e-05
  estimated relative force accuracy = 3.62065e-06
  using double precision FFTs
  3d grid and FFT values/proc = 3375 512
Memory usage per processor = 3.06549 Mbytes
Step Temp PotEng KinEng TotEng Press Lx Ly Lz Press Pxx Pyy Pzz Pxy Pxz Pyz Volume 
       0          300   -162.17896    0.2714463   -161.90751    3883.1806    4.2106915    4.2106915    4.2106915    3883.1806    2129.4449    5524.7118     3995.385    -2107.187   -1103.3283    62.194201    74.655234 
     100    149.94725   -162.00274   0.13567542   -161.86706   -10194.852    4.2255254    4.2255254    4.2255254   -10194.852   -19998.419   -3500.7604   -7085.3776   -840.34916   -47.384864    1755.8154    75.447028 
     200    329.66765   -162.09907   0.29829022   -161.80078    329.50122    4.2165764    4.2165764    4.2165764    329.50122   -1585.8457    1559.3027    1015.0467   -1035.7777   -714.32111    1546.7712    74.968691 
     300     275.6792   -161.98198   0.24944033   -161.73254    2694.3034    4.2204414    4.2204414    4.2204414    2694.3034   -2594.2335    9097.8114    1579.3322   -1366.6323    484.37216   -808.84173    75.175033 
     400    243.40096   -161.90581    0.2202343   -161.68558   -4168.7066    4.2283594    4.2283594    4.2283594   -4168.7066   -7820.0884   -675.83976   -4010.1918    1657.8767    5044.0032   -388.14877    75.598938 
     500    401.75495   -162.01334   0.36351632   -161.64982    3571.9726    4.2209813    4.2209813    4.2209813    3571.9726    9299.9351    1367.4639    48.518784   -2134.1826    415.92107   -529.65171    75.203889 
     600    213.97284   -161.83012   0.19360712   -161.63652    890.85966    4.2273829    4.2273829    4.2273829    890.85966   -8784.3134    5956.2676    5500.6248    3572.3468    2395.2449   -1493.2845     75.54657 
     700    436.60621   -162.02649   0.39505047   -161.63144    3677.6899    4.2193426    4.2193426    4.2193426    3677.6899    6766.4342    2418.7908    1847.8445   -306.72803    1956.9488   -2376.7556    75.116332 
     800    302.69286   -161.90597   0.27388286   -161.63208    -2438.089    4.2250539    4.2250539    4.2250539    -2438.089   -11783.728    11276.796   -6807.3356    -1004.029   -3110.3999   -1323.1509    75.421778 
     900    415.16452   -162.00843   0.37564958   -161.63278   -13179.071    4.2286531    4.2286531    4.2286531   -13179.071   -16918.145   -7287.9067   -15331.162    2048.0097     3431.043    543.30956     75.61469 
    1000    353.27624    -161.9538   0.31965176   -161.63414   -1325.7476    4.2231705    4.2231705    4.2231705   -1325.7476   -9106.8345    14244.126    -9114.534   -2727.3028   -1398.9374   -1321.2895    75.320958 
    1100    374.24023   -161.97431   0.33862042   -161.63569   -5236.6177    4.2257054    4.2257054    4.2257054   -5236.6177   -14461.206    1078.0547    -2326.702    2962.0084   -1033.9717    1088.0585     75.45667 
    1200    344.94898   -161.94823   0.31211708   -161.63611     3306.079    4.2197682    4.2197682    4.2197682     3306.079    5478.2519    5515.5534   -1075.5685   -3766.9543     1573.654   -74.226804    75.139067 
    1300     272.2888   -161.88196   0.24637263   -161.63558   -2739.4637    4.2255001    4.2255001    4.2255001   -2739.4637   -4673.8208    8499.3892    -12043.96   -1606.0957   -147.35783   -1027.7911    75.445675 
    1400    301.66358   -161.90793   0.27295154   -161.63497   -3414.5859    4.2273204    4.2273204    4.2273204   -3414.5859    917.99548    5757.7547   -16919.508   -674.02195    6934.0858   -470.79777    75.543223 
    1500    175.26047    -161.7951   0.15857935   -161.63652    10559.189    4.2229736    4.2229736    4.2229736    10559.189    10011.394    29156.502   -7490.3299   -3456.9754    3134.9557    286.69172    75.310426 
    1600    345.75992   -161.94944   0.31285085   -161.63659   -869.43793    4.2240149    4.2240149    4.2240149   -869.43793    8986.3314   -6880.5777   -4714.0675    590.07426    1551.2158   -47.380614    75.366149 
    1700    141.30276   -161.76465    0.1278537    -161.6368    7142.6679    4.2198628    4.2198628    4.2198628    7142.6679    17321.392    6104.9099   -1998.2978   -4578.9378    3546.6009   -4122.8115     75.14412 
    1800    369.59027   -161.96872   0.33441304   -161.63431   -7891.9093    4.2267676    4.2267676    4.2267676   -7891.9093   -2666.0535   -3579.4054   -17430.269   -1536.1051   -2501.3506   -3017.6555    75.513586 
    1900    219.70858   -161.83421   0.19879694   -161.63541    2217.2581     4.226134     4.226134     4.226134    2217.2581   -8198.3344    33563.034   -18712.925   -594.39858    3086.4943   -3647.6679    75.479633 
    2000    298.14911   -161.90586   0.26977158   -161.63609    709.45177    4.2241738    4.2241738    4.2241738    709.45177   -9247.3612    21449.665   -10073.949    -1345.687    3776.4376   -4416.8148    75.374655 
    2100    352.18319   -161.95414   0.31866275   -161.63548   -6956.7652    4.2235964    4.2235964    4.2235964   -6956.7652   -5072.8655   -10641.887   -5155.5433    217.78064    49.165909   -2298.1138    75.343751 
    2200    137.97905   -161.76131   0.12484634   -161.63646    2637.3672    4.2216177    4.2216177    4.2216177    2637.3672    5649.3822   -4099.6461    6362.3656   -3677.0864    3692.0355   -6837.5191    75.237908 
    2300     375.1477   -161.97475   0.33944152   -161.63531   -4731.8445    4.2268376    4.2268376    4.2268376   -4731.8445   -6865.8284   -2892.5074   -4437.1977    2278.3041     1973.747   -3745.4941    75.517341 
    2400    148.58331   -161.77091    0.1344413   -161.63647    9490.9137    4.2253003    4.2253003    4.2253003    9490.9137   -385.17131    41396.102    -12538.19    825.48961    7383.6534   -2522.0491    75.434971 
    2500    303.30418   -161.91044   0.27443599   -161.63601   -1049.0126    4.2241247    4.2241247    4.2241247   -1049.0126    1404.4935    5938.1338   -10489.665    2416.0556    8140.1108   -5031.7153    75.372029 
    2600    239.19725   -161.85278    0.2164307   -161.63635   -3047.4685    4.2231011    4.2231011    4.2231011   -3047.4685    6610.1557    -6380.921   -9371.6401    903.28942    1145.1896   -2280.2164    75.317244 
    2700    256.71442   -161.86842    0.2322806   -161.63614     1517.324    4.2223427    4.2223427    4.2223427     1517.324    6943.1703   -6275.0594    3883.8612   -1225.3582     3887.307    -5136.908    75.276678 
    2800    317.54367   -161.92233   0.28732019   -161.63501    195.59888    4.2261276    4.2261276    4.2261276    195.59888   -7517.2996    12588.027   -4483.9304    3951.0321   -1132.2378    733.44255    75.479293 
    2900     317.3928   -161.92145   0.28718368   -161.63427     -1456.38    4.2249961    4.2249961    4.2249961     -1456.38   -12919.723    21902.854   -13352.272   -21.045324    891.60669   -6.2020675    75.418682 
    3000    300.69848   -161.90674    0.2720783   -161.63467   -6753.0372    4.2244545    4.2244545    4.2244545   -6753.0372   -15941.535    -1544.152   -2773.4244    473.86254    5911.0598    196.93294    75.389683 
    3100    250.74485   -161.86271   0.22687921   -161.63583   -1874.6385    4.2235748    4.2235748    4.2235748   -1874.6385   -9352.1999   -1692.8207    5421.1051   -1430.5758    93.219335   -156.03694    75.342596 
    3200     327.0676   -161.93156   0.29593763   -161.63562    3492.3678    4.2241891    4.2241891    4.2241891    3492.3678   -5135.3151    -2920.348    18532.767   -2901.3479    4074.4423    -2741.624    75.375471 
    3300    176.93453   -161.79646   0.16009408   -161.63637    11093.115    4.2255451    4.2255451    4.2255451    11093.115   -978.90839    22727.732    11530.521    2841.5127    3853.2914    3431.3582    75.448087 
    3400    320.50063   -161.92596    0.2899957   -161.63596   -473.77052    4.2263656    4.2263656    4.2263656   -473.77052   -4974.4419   -346.65169     3899.782   -2009.3377    2701.9751    535.16388    75.492046 
    3500    186.47318   -161.80626   0.16872485   -161.63753    299.85949    4.2245013    4.2245013    4.2245013    299.85949   -7026.9791    712.84792    7213.7097    906.63088     7094.425    903.17266    75.392187 
    3600    307.24786   -161.91417   0.27800432   -161.63616   -64.270981    4.2238241    4.2238241    4.2238241   -64.270981   -8874.4824   -3149.9839    11831.653   -820.89603   -656.02595   -586.82147    75.355938 
    3700    370.37272   -161.97105   0.33512102   -161.63593    1952.1014    4.2238361    4.2238361    4.2238361    1952.1014   -13110.078    5389.3711     13577.01    583.86489    1247.3428    327.93832    75.356581 
    3800    268.60344   -161.87862   0.24303803   -161.63558   -1458.5367     4.227673     4.227673     4.227673   -1458.5367   -11037.527    13788.814   -7126.8972     4849.408   -2432.5994    -366.8385    75.562125 
    3900    440.00404   -162.03313    0.3981249   -161.63501   -12143.299    4.2262268    4.2262268    4.2262268   -12143.299   -11013.394   -7520.8793   -17895.623    -550.6571   -3698.1991   -2249.3695    75.484609 
    4000    269.49981   -161.88067   0.24384909   -161.63682   -2007.3625    4.2245452    4.2245452    4.2245452   -2007.3625    -3615.943    7712.6026   -10118.747    4022.9681      3133.23    1193.8329    75.394536 
    4100    408.80499   -162.00566   0.36989535   -161.63576   -780.65271    4.2232814    4.2232814    4.2232814   -780.65271    2504.2852   -5161.2294      314.986   -550.63075   -3286.4014   -2540.6036    75.326895 
    4200    260.18977   -161.87141   0.23542517   -161.63598    2363.6985    4.2252035    4.2252035    4.2252035    2363.6985   -1785.8963     8349.304    527.68774    1888.5302    2318.9174    125.29893    75.429789 
    4300    313.27877   -161.91862   0.28346122   -161.63516   -2424.1286    4.2258938    4.2258938    4.2258938   -2424.1286    6602.4329   -6824.8544   -7049.9642    102.56543    1299.6408    1222.0868    75.466763 
    4400    264.75071   -161.87585   0.23955201    -161.6363    2476.3592    4.2246124    4.2246124    4.2246124    2476.3592    5825.1318    8761.3514   -7157.4056   -2785.5357   -346.49812   -3976.7741    75.398135 
    4500    321.29322   -161.92628   0.29071286   -161.63557    4418.1418    4.2232158    4.2232158    4.2232158    4418.1418    9535.9898    3694.3196    24.116141    -931.9958     4627.678    4042.4628    75.323384 
    4600    308.81608   -161.91553   0.27942328   -161.63611    2027.3718    4.2249302    4.2249302    4.2249302    2027.3718     3573.605    -1320.076    3828.5865   -3686.9464   -1805.4276   -923.80108    75.415155 
    4700     298.1973   -161.90551   0.26981518    -161.6357   -3689.5357    4.2253511    4.2253511    4.2253511   -3689.5357   -6782.3648    3222.7764   -7509.0186    1920.7582   -716.37065    5547.3249    75.437693 
    4800    367.40457   -161.96834   0.33243537   -161.63591   -9364.8927    4.2266199    4.2266199    4.2266199   -9364.8927    -5160.142   -665.80079   -22268.735   -3999.9507   -2846.6704    1837.7197    75.505675 
    4900     314.1416   -161.92029   0.28424192   -161.63605    2879.1318    4.2229263    4.2229263    4.2229263    2879.1318   -2031.0689    24319.785   -13651.321   -723.06029   -2945.2962   -3582.3317    75.307897 
    5000    363.50157   -161.96515   0.32890386   -161.63625    1767.2839     4.224263     4.224263     4.224263    1767.2839    8787.6278    5532.4703   -9018.2463   -1520.8327   -563.86863    3524.9086     75.37943 
    5100    233.16674   -161.84656   0.21097416   -161.63558    1848.0329    4.2248698    4.2248698    4.2248698    1848.0329    -1158.522    9388.8264   -2686.2056    403.53818   -1964.5386   -5253.7755    75.411919 
    5200    308.61191   -161.91424   0.27923854     -161.635   -5158.3071    4.2270794    4.2270794    4.2270794   -5158.3071   -11149.275   -3323.6364   -1002.0103    4436.8587    635.33964   -2722.6378    75.530304 
    5300    250.58708   -161.86236   0.22673646   -161.63562    5223.3901    4.2243881    4.2243881    4.2243881    5223.3901   -4173.7543    24352.738   -4508.8139   -1299.0041    1415.8947   -378.09459    75.386125 
    5400    311.73613   -161.91835    0.2820654   -161.63629    5161.2664    4.2235141    4.2235141    4.2235141    5161.2664    4832.1594    18608.836   -7957.1959    4067.0861    904.31302   -2755.7369    75.339347 
    5500    280.93002   -161.88986   0.25419139   -161.63567    2082.5549    4.2234925    4.2234925    4.2234925    2082.5549    18570.216   -1180.2922   -11142.259   -781.38443    1667.6354    6715.9805    75.338189 
    5600    346.09622   -161.94807   0.31315513   -161.63491   -8500.2578    4.2265662    4.2265662    4.2265662   -8500.2578   -1447.6317   -9460.2949   -14592.847    2580.4122    1040.2717   -1217.7681    75.502794 
    5700    324.38565   -161.92799   0.29351095   -161.63447   -6854.6922    4.2269748    4.2269748    4.2269748   -6854.6922   -1683.4833   -12817.716    -6062.877    1426.0448    500.81907      1882.46    75.524694 
    5800    323.12858   -161.92681   0.29237353   -161.63444    1598.6202    4.2237763    4.2237763    4.2237763    1598.6202   -3087.9803    17375.936   -9492.0948   -1261.2941   -897.62381    3681.0492    75.353376 
    5900    336.77214   -161.93928   0.30471851   -161.63456    1877.5399    4.2219309    4.2219309    4.2219309    1877.5399    8861.7197    175.43694   -3404.5368    4188.7798   -2355.7844    456.05595    75.254656 
    6000    231.13272   -161.84451   0.20913374   -161.63537    464.27277    4.2236021    4.2236021    4.2236021    464.27277    16580.432   -11572.177    -3615.436   -5262.9467   -1814.4196    8803.7507    75.344054 
    6100    338.57012   -161.94106   0.30634536   -161.63471   -7489.4667    4.2273697    4.2273697    4.2273697   -7489.4667   -3612.9592   -15123.363   -3732.0784    1170.7585   -1213.2733   -2964.0038    75.545866 
    6200    223.40639   -161.83778    0.2021428   -161.63564    2465.3166    4.2255477    4.2255477    4.2255477    2465.3166    3687.3286   -4343.9921    8052.6131    -2900.318    197.81706   -737.94446    75.448227 
    6300    266.34653   -161.87671   0.24099594   -161.63572    6919.2389    4.2225155    4.2225155    4.2225155    6919.2389   -3451.9585     24211.53   -1.8551635   -2123.3389   -338.67431   -1614.8955    75.285919 
    6400    305.26611   -161.91161   0.27621119    -161.6354    2956.5149    4.2208035    4.2208035    4.2208035    2956.5149    5880.1373    -332.9821    3322.3894    597.35852    1233.5468   -389.22163    75.194385 
    6500    214.15987   -161.82941   0.19377635   -161.63564   -1865.3144    4.2246407    4.2246407    4.2246407   -1865.3144    6337.2048   -4011.8787   -7921.2693   -6472.2312    2146.3894    5144.0906    75.399649 
    6600    349.39705   -161.95181   0.31614179   -161.63567   -7269.8962    4.2270055    4.2270055    4.2270055   -7269.8962   -5688.3911   -7629.8745   -8491.4229    2291.9246    3193.1111   -4765.7986     75.52634 
    6700    245.50607   -161.85866   0.22213905   -161.63652    1784.6826    4.2256782    4.2256782    4.2256782    1784.6826    1276.6881    7945.7239   -3868.3641   -4020.6293    4174.2025    3153.8483    75.455218 
    6800    307.28313   -161.91328   0.27803623   -161.63524    4465.6687    4.2219635    4.2219635    4.2219635    4465.6687   -3747.8255    26179.201   -9034.3698    288.35902    1016.0626   -2630.3344    75.256397 
    6900    328.29139   -161.93276   0.29704495   -161.63571   -1636.7981    4.2221698    4.2221698    4.2221698   -1636.7981    2488.1499   -460.71142   -6937.8329    517.70157    423.85366    5614.8525    75.267432 
    7000    209.56912    -161.8264   0.18962254   -161.63677   -2448.2044    4.2249457    4.2249457    4.2249457   -2448.2044    1980.1706    2301.1368   -11625.921   -5151.2937   -505.99924     5481.359    75.415985 
    7100    384.66726   -161.98361   0.34805502   -161.63555   -7189.5809    4.2280231    4.2280231    4.2280231   -7189.5809   -9704.9762   -9008.2216   -2855.5448    2844.1835     1978.974   -170.73907    75.580901 
    7200    193.13278   -161.81046    0.1747506   -161.63571    7580.2056    4.2251165    4.2251165    4.2251165    7580.2056    79.504372    18972.695    3688.4173   -5062.1434    282.21083    7491.4577    75.425129 
    7300    335.19786   -161.93832   0.30329407   -161.63503     4956.126    4.2228207    4.2228207    4.2228207     4956.126   -2159.9993    14285.703    2742.6742   -456.78681   -235.09126    514.56742    75.302247 
    7400    272.90696   -161.88412   0.24693195   -161.63719    4188.5149    4.2212995    4.2212995    4.2212995    4188.5149    2150.9441    6603.9009    3810.6997   -2275.8206    1087.5416    8730.9834    75.220895 
    7500     279.8969   -161.89018    0.2532566   -161.63692   -3743.5515    4.2264005    4.2264005    4.2264005   -3743.5515   -2956.5304    788.10012   -9062.2243   -4221.9892   -1298.3837    3203.3604    75.493915 
    7600    450.06508   -162.04267   0.40722834   -161.63544   -10092.212    4.2275137    4.2275137    4.2275137   -10092.212   -16618.144   -3400.4366   -10258.055    753.19553    2537.1867   -967.28656    75.553585 
    7700    254.69724   -161.86623   0.23045541   -161.63577    -1936.891    4.2272038    4.2272038    4.2272038    -1936.891   -12109.867    14915.364   -8616.1707   -8698.7301    4067.5087    3118.0557    75.536972 
    7800    503.49623   -162.08953   0.45557397   -161.63396   -6188.7583    4.2219891    4.2219891    4.2219891   -6188.7583   -10834.132   -2271.3209   -5460.8215    1282.9181    679.00869   -3138.2692    75.257768 
    7900    278.90979   -161.88827   0.25236344   -161.63591     2522.063    4.2221628    4.2221628    4.2221628     2522.063   -1629.3905    10483.645   -1288.0658   -4578.1761   -216.71906    3153.2933    75.267053 
    8000    410.04711   -162.00642   0.37101925   -161.63541   -5746.2729    4.2256372    4.2256372    4.2256372   -5746.2729    990.04574   -11463.368    -6765.496   -682.28544   -1203.7407   -2460.9319    75.453021 
    8100    333.77923    -161.9373   0.30201046   -161.63529   -5666.7826    4.2290238    4.2290238    4.2290238   -5666.7826   -17459.911    3170.1983   -2710.6349   -405.95196   -680.83286   -3090.2549     75.63458 
    8200    288.46562   -161.89569   0.26100976   -161.63468   -611.65542     4.225302     4.225302     4.225302   -611.65542   -9332.0062   -3567.0816    11064.122   -5306.1381   -137.44051    3021.9765    75.435063 
    8300    329.45575   -161.93279   0.29809848   -161.63469     3892.639    4.2212077    4.2212077    4.2212077     3892.639   -6131.6205   -2551.7307    20361.268    6274.3458   -1017.4662   -2509.1737    75.215989 
    8400    249.59669   -161.86097   0.22584033   -161.63513     7019.361     4.222009     4.222009     4.222009     7019.361   -3285.8502    3578.3056    20765.628   -694.10905    16.178311    5372.5667     75.25883 
    8500    349.76435   -161.95096   0.31647414   -161.63449   -2147.0872    4.2263083    4.2263083    4.2263083   -2147.0872   -808.52733   -11184.936    5552.2014    2527.8809   -4120.6199     264.2573    75.488974 
    8600    260.99972   -161.87103   0.23615804   -161.63487     -2206.82    4.2277569    4.2277569    4.2277569     -2206.82   -17891.335    6329.7972    4941.0782    1255.8283   -55.060041    3884.5051    75.566622 
    8700    310.94667   -161.91711   0.28135108   -161.63576   -649.42304    4.2248547    4.2248547    4.2248547   -649.42304   -13827.372   -5677.1031    17556.206   -3201.5881    1960.8073     2114.426     75.41111 
    8800     322.8615   -161.92868   0.29213187   -161.63655     1325.503    4.2222965    4.2222965    4.2222965     1325.503   -10015.969     2050.509    11941.969    6398.9877    538.92882    436.44372    75.274208 
    8900    252.77778    -161.8651   0.22871865   -161.63638    2554.7287    4.2229155    4.2229155    4.2229155    2554.7287   -1709.5427   -515.82137    9889.5503   -1639.5372    2903.3561    3775.7191    75.307316 
    9000    327.32016   -161.93103   0.29616616   -161.63486   -4979.7346    4.2265564    4.2265564    4.2265564   -4979.7346    4769.9449    -9058.801   -10650.348    -644.6616    -2475.758   -4167.7485    75.502269 
    9100    259.99074   -161.87084   0.23524509   -161.63559    -1642.166    4.2267498    4.2267498    4.2267498    -1642.166   -5412.3425   -406.50756    892.35216    5.2098859   -1525.0541    3407.2416    75.512634 
    9200    267.93435   -161.87877   0.24243263   -161.63634    2324.0548    4.2246024    4.2246024    4.2246024    2324.0548   -3699.2016   -7494.6966    18166.063    -4756.723    1618.2923   -1408.8315    75.397603 
    9300    348.00215   -161.94991   0.31487966   -161.63503    478.77857    4.2215781    4.2215781    4.2215781    478.77857    1368.8673   -4407.0498    4474.5182    4854.8567    579.36126    399.00153    75.235792 
    9400    247.93273   -161.85924   0.22433474    -161.6349    -1064.678    4.2235485    4.2235485    4.2235485    -1064.678    2302.2437    -9004.773    3508.4954    990.19416   -1706.0098    3321.3036    75.341187 
    9500    366.53784   -161.96618   0.33165114   -161.63453   -8708.2962    4.2266579    4.2266579    4.2266579   -8708.2962    1698.4843   -16511.702   -11311.671    841.73215   -5955.3901   -4801.2452    75.507708 
    9600     277.6706   -161.88791    0.2512422   -161.63666    -2123.824    4.2273297    4.2273297    4.2273297    -2123.824   -6784.9943   -13206.492    13620.014    2377.7632    -3452.182    2675.1525    75.543721 
    9700    296.22226   -161.90501   0.26802812   -161.63698   -1416.9249    4.2240219    4.2240219    4.2240219   -1416.9249   -14412.019   -4090.7869    14252.031   -4944.6242   -3372.7182   -3591.3313    75.366525 
    9800     293.1942   -161.90127   0.26528828   -161.63598   -3275.1111    4.2200203    4.2200203    4.2200203   -3275.1111   -3513.9269   -1674.5604   -4636.8461    856.83325    647.30128    643.65386    75.152533 
    9900    191.64101    -161.8092   0.17340081    -161.6358    453.16713     4.222503     4.222503     4.222503    453.16713     3731.602    4699.1323   -7071.2329    285.99858   -1907.0538    6338.6555    75.285248 
   10000    293.56467   -161.90045   0.26562348   -161.63483    958.51944    4.2271355    4.2271355    4.2271355    958.51944    10010.306   -6314.0846    -820.6631   -3748.6306   -1888.8874   -1655.5389    75.533307 
   10100    192.60133   -161.80976   0.17426973   -161.63549    5198.4048    4.2271358    4.2271358    4.2271358    5198.4048    4909.4706   -11844.312    22530.055   -321.74693   -457.84633    7557.7843    75.533324 
   10200    296.57834   -161.90452   0.26835031   -161.63617   -5294.8916    4.2235563    4.2235563    4.2235563   -5294.8916   -7852.0204   -7604.7894   -427.86514   -6173.1293   -1318.0158    -1023.068    75.341602 
   10300    235.27708   -161.84987   0.21288364   -161.63699   -3154.9276    4.2201065    4.2201065    4.2201065   -3154.9276   -1093.7554   -3729.1346   -4641.8927   -229.72633    3358.2467    1057.4178     75.15714 
   10400    252.58689   -161.86512   0.22854593   -161.63658    1063.3027    4.2242557    4.2242557    4.2242557    1063.3027    3314.8435    4114.3528   -4239.2881    1643.0291    1070.8513    3882.7602    75.379037 
   10500    314.66705   -161.91994   0.28471736   -161.63523    2854.1174    4.2271439    4.2271439    4.2271439    2854.1174    11113.179   -12687.433    10136.606   -1347.0842    3091.5464    -2560.138    75.533759 
   10600    216.02689   -161.83095   0.19546567   -161.63549     2151.752    4.2276925    4.2276925    4.2276925     2151.752    2537.1477   -12041.537    15959.645    2396.8079   -391.77191    6438.8518    75.563169 
   10700     340.9607   -161.94283   0.30850841   -161.63432   -9326.5776    4.2228984    4.2228984    4.2228984   -9326.5776   -16413.847   -7505.0518   -4060.8345   -2385.2289    505.57692   -3520.9565    75.306405 
   10800     208.8458   -161.82444   0.18896807   -161.63548   -5107.3037    4.2213807    4.2213807    4.2213807   -5107.3037   -15712.233    8379.9141    -7989.592    3065.5534     4613.837   -894.78027    75.225239 
   10900    304.92244   -161.91131   0.27590023   -161.63541   -1780.8688    4.2244648    4.2244648    4.2244648   -1780.8688   -5553.4814    11862.002   -11651.127    1042.7773   -2804.5839     194.8626    75.390232 
   11000    286.65497   -161.89525   0.25937144   -161.63588    4421.1161    4.2276656    4.2276656    4.2276656    4421.1161    10576.574   -2585.4387    5272.2128   -173.01372    1277.5163   -3728.8238     75.56173 
   11100    153.45557   -161.77515   0.13884982    -161.6363    10268.942    4.2262571    4.2262571    4.2262571    10268.942    7699.7749    9407.9888    13699.061   -324.25181    727.11188    4574.8286    75.486229 
   11200    354.13119   -161.95552   0.32042534    -161.6351   -2974.2635    4.2226351    4.2226351    4.2226351   -2974.2635   -8991.1004    8183.8554   -8115.5454   -3961.5994   -466.09761    -3003.954    75.292319 
   11300    88.897196   -161.71719  0.080436051   -161.63675    4054.5278     4.220815     4.220815     4.220815    4054.5278   -7877.3142    32658.635   -12617.738    697.61679    4564.1707      2096.77    75.194997 
   11400    301.80007   -161.90972   0.27307504   -161.63664   -3151.2164    4.2243413    4.2243413    4.2243413   -3151.2164   -8301.0916      18119.4   -19271.958    -3599.944    264.67841   -166.91157     75.38362 
   11500    241.35773   -161.85543   0.21838555   -161.63704    5979.0588    4.2268859    4.2268859    4.2268859    5979.0588    10771.711    11009.381   -3843.9162   -670.33562    2147.3158   -900.85568     75.51993 
   11600    171.57596   -161.79211   0.15524553   -161.63686    10266.075    4.2266754    4.2266754    4.2266754    10266.075     2104.708    12853.866     15839.65   -2764.2037    1865.0928    2513.7865    75.508647 
   11700    370.92645   -161.97069   0.33562204   -161.63507   -832.75266    4.2228039    4.2228039    4.2228039   -832.75266   -13098.565    14334.114   -3733.8072    431.97779   -649.30252   -3172.0416    75.301347 
   11800    170.69295   -161.79111   0.15444657   -161.63667    1212.1618    4.2206103    4.2206103    4.2206103    1212.1618   -11856.817    27358.433   -11865.131    1689.2599    8705.9966    2499.6605     75.18406 
   11900     324.2764   -161.92981    0.2934121    -161.6364   -5560.0013    4.2240138    4.2240138    4.2240138   -5560.0013   -14213.393    11425.578   -13892.189   -501.83096   -952.06589   -4155.7022    75.366089 
   12000     286.2972    -161.8957   0.25904772   -161.63666    217.47157    4.2277015    4.2277015    4.2277015    217.47157    6273.7374   -1777.6823   -3843.6404    4032.9395    1526.5114     151.2345    75.563652 
   12100    268.62711   -161.87832   0.24305945   -161.63526    2540.6027    4.2268162    4.2268162    4.2268162    2540.6027   -5177.2266   -5094.7825    17893.817    1672.1878    2281.5581    582.19746    75.516193 
   12200    386.81455   -161.98472   0.34999793   -161.63472   -4460.0246    4.2227907    4.2227907    4.2227907   -4460.0246   -7821.7459    126.92783   -5685.2558    3573.2356   -1874.9904   -2932.5888    75.300643 
   12300    232.82363   -161.84625   0.21066371   -161.63559   -1806.5083    4.2207068    4.2207068    4.2207068   -1806.5083    653.67073    2532.1265   -8605.3223    643.66899     7076.238    3593.3578    75.189215 
   12400    367.57017   -161.96751   0.33258522   -161.63493    -5931.317    4.2240455    4.2240455    4.2240455    -5931.317    -2771.567   -7879.2587   -7143.1254   -60.726469   -308.33745   -4430.8946    75.367787 
   12500    295.22183   -161.90282   0.26712292    -161.6357    1407.0191    4.2273157    4.2273157    4.2273157    1407.0191     11930.09   -17137.972     9428.939    755.20284    2941.3672    3924.5496    75.542971 
   12600    272.86055   -161.88255   0.24688996   -161.63566    2010.0511    4.2278353    4.2278353    4.2278353    2010.0511   -1856.4034   -12139.711    20026.267   -3275.5283    449.40661    1006.9029    75.570826 
   12700    361.64577   -161.96188    0.3272247   -161.63465   -5720.8078    4.2229645    4.2229645    4.2229645   -5720.8078    -8278.201    1224.5118   -10108.734   -1454.2831    475.47731    1371.3452     75.30994 
   12800    180.53241   -161.79962   0.16334952   -161.63627   -260.48315     4.221206     4.221206     4.221206   -260.48315   -4098.0713    4830.7143   -1514.0924   -2532.7608    5980.4045    7080.3873    75.215897 
   12900    401.15531   -161.99862   0.36297375   -161.63565   -3206.4551    4.2247564    4.2247564    4.2247564   -3206.4551   -9626.9211    1678.3067   -1670.7507   -1009.0169   -2914.9254   -3021.4957    75.405846 
   13000    175.39384   -161.79467   0.15870003   -161.63597    8626.1783    4.2276366    4.2276366    4.2276366    8626.1783     4633.415   -4675.4394    25920.559    1688.5316     -810.069     4806.011    75.560175 
   13100    301.60984   -161.90755   0.27290292   -161.63465    1774.4911    4.2265323    4.2265323    4.2265323    1774.4911    112.00833   -1598.2993    6809.7643    1693.7153   -1580.1217   -668.48959    75.500978 
   13200    319.79317   -161.92459   0.28935558   -161.63523   -3293.1275    4.2218295    4.2218295    4.2218295   -3293.1275   -1811.6975   -3149.1185   -4918.5664    4195.1619   -2403.6578   -3431.4618    75.249234 
   13300    204.66466   -161.82094   0.18518488   -161.63575    173.73062    4.2214617    4.2214617    4.2214617    173.73062    4063.9897    276.76989   -3819.5677    611.66417   -233.69502    5060.6148    75.229569 
   13400    418.65575   -162.01288   0.37880852   -161.63407   -5697.0929    4.2252037    4.2252037    4.2252037   -5697.0929    -7029.879   -5511.3083   -4550.0914   -8.6199543   -3074.6673   -6131.2699    75.429797 
   13500    244.03285   -161.85493   0.22080605   -161.63412    1035.2462     4.228131     4.228131     4.228131    1035.2462    2972.1132   -19544.117    19677.742    1174.9909    1356.2628    2079.2511    75.586685 
   13600    375.18607   -161.97301   0.33947624   -161.63353   -5104.6849    4.2258769    4.2258769    4.2258769   -5104.6849    1754.3266   -12616.085   -4452.2963   -2151.7921   -884.97735   -1997.8399    75.465862 
   13700    322.00395   -161.92632   0.29135594   -161.63496   -826.51093    4.2210393    4.2210393    4.2210393   -826.51093   -3780.7854   -3322.7864     4624.039   -1182.8176    1976.8832   -7243.8913    75.206984 
   13800    298.49081    -161.9054   0.27008076   -161.63532     555.4453    4.2217103    4.2217103    4.2217103     555.4453   -3019.4402    12653.356   -7967.5801   -1958.7285    2143.8259     6511.021    75.242859 
   13900    335.09995    -161.9386   0.30320547   -161.63539    -1728.284    4.2254344    4.2254344    4.2254344    -1728.284   -16354.712    9879.2803    1290.5796   -354.73451   -2598.9816   -3242.8921    75.442157 
   14000    290.26739   -161.89847   0.26264003   -161.63583   -3796.5388    4.2291016    4.2291016    4.2291016   -3796.5388   -10343.552   -7470.1479    6424.0835    1106.4124    1953.1908    6091.9344    75.638751 
   14100     282.2009   -161.89077    0.2553413   -161.63542    1619.3007    4.2245635    4.2245635    4.2245635    1619.3007   -2271.9226    8131.9335   -1002.1089    1774.0428   -2493.6434    38.180986    75.395517 
   14200    283.82297   -161.89214   0.25680898   -161.63533    9590.5777    4.2201372    4.2201372    4.2201372    9590.5777   -85.469584    10223.511    18633.692    3012.3334    996.11642   -59.536316    75.158777 
   14300    305.85024   -161.91252   0.27673973   -161.63578     7982.196    4.2218684    4.2218684    4.2218684     7982.196    659.28807    21155.035    2132.2651    115.07329   -1504.4447    5019.2485     75.25131 
   14400    269.91835   -161.87975   0.24422779   -161.63552    260.59286    4.2275884    4.2275884    4.2275884    260.59286   -17087.571    7373.6486    10495.701    319.17721   -2248.4134   -2360.9076    75.557587 
   14500    397.74208   -161.99446    0.3598854   -161.63457   -11329.781    4.2291267    4.2291267    4.2291267   -11329.781   -17749.367    -11357.07   -4882.9075   -141.45136    2148.6256    5087.7254    75.640098 
   14600    282.85653   -161.89159   0.25593454   -161.63565   -2743.3454    4.2242992    4.2242992    4.2242992   -2743.3454   -10953.138   -1220.6529    3943.7547   -2045.8104   -231.00713   -3812.1416    75.381368 
   14700    399.34178   -161.99587   0.36133283   -161.63453     1835.466    4.2204813    4.2204813    4.2204813     1835.466   -7433.5778   -2149.6575    15089.633   -2515.5879    2666.3421    1705.6772    75.177164 
   14800    372.66424   -161.97184   0.33719444   -161.63465    4347.5246    4.2229257    4.2229257    4.2229257    4347.5246    633.71333    7359.1409    5049.7197   -1849.7872    2387.4801   -1915.3172    75.307863 
   14900    280.92867   -161.88924   0.25419017   -161.63505   -765.20196    4.2281753    4.2281753    4.2281753   -765.20196   -12847.354   -2147.0214     12698.77   -871.91328    3175.3612   -3374.9034    75.589061 
   15000    433.20847   -162.02592   0.39197613   -161.63394    -13358.78    4.2297889    4.2297889    4.2297889    -13358.78   -10955.961   -18772.725   -10347.654   -920.53019    4172.0742   -800.66419    75.675635 
   15100    201.98569   -161.81812    0.1827609   -161.63536    2101.1755    4.2227995    4.2227995    4.2227995    2101.1755    -1640.857   -3481.4809    11425.865    2585.0606   -457.52437   -7096.9087     75.30111 
   15200    391.38383   -161.98938   0.35413231   -161.63525    3525.3457    4.2199993    4.2199993    4.2199993    3525.3457    92.896591    924.21274    9558.9277    3525.7582     2322.609    1602.9523     75.15141 
   15300    279.21653   -161.88826   0.25264098   -161.63561    7602.8322    4.2232153    4.2232153    4.2232153    7602.8322    1656.4569    7430.8269    13721.213    1313.2475    561.15901   -6282.2612    75.323359 
   15400    278.82285   -161.88751   0.25228477   -161.63523   -1395.7185    4.2293148    4.2293148    4.2293148   -1395.7185   -14868.246     7802.943    2878.1471    1164.3482    1468.1829   -3388.8232    75.650191 
   15500    382.59647   -161.98078   0.34618133    -161.6346   -8708.9135     4.228261     4.228261     4.228261   -8708.9135   -19133.533   -8278.2268    1285.0189   -865.85291   -768.02964    105.88607    75.593656 
   15600    244.94748   -161.85776   0.22163363   -161.63613   -1251.2081    4.2228437    4.2228437    4.2228437   -1251.2081   -11749.012   -3645.8317    11641.219   -1164.2622   -6270.5776    -6127.403    75.303477 
   15700    368.78397   -161.96929   0.33368349    -161.6356   -311.41881    4.2201367    4.2201367    4.2201367   -311.41881     3315.796   -6539.2988    2289.2463   -1309.8004   -1061.7025    7111.3273     75.15875 
   15800    279.66844   -161.88951   0.25304988   -161.63646    3498.2834    4.2251691    4.2251691    4.2251691    3498.2834    3621.6254   -4234.8503    11108.075   -1923.7785   -3226.6033   -1596.8167    75.427947 
   15900    311.94333    -161.9184   0.28225288   -161.63615   -1790.4818    4.2299396    4.2299396    4.2299396   -1790.4818    -2328.595    5986.3787    -9029.229   -415.01103    -1379.235    3747.0798    75.683727 
   16000     291.5855   -161.89959   0.26383269   -161.63575   -3377.6665    4.2274437    4.2274437    4.2274437   -3377.6665   -8740.6105   -3545.6666    2153.2775   -818.56077   -4157.3441    4425.0781    75.549831 
   16100     341.4307   -161.94436   0.30893367   -161.63542   -6185.1159    4.2216304    4.2216304    4.2216304   -6185.1159   -6826.5001   -5399.7661   -6329.0816    1301.4433   -5717.1128   -1425.9014    75.238586 
   16200    264.96996   -161.87567   0.23975039   -161.63592   -394.14395    4.2206255    4.2206255    4.2206255   -394.14395    4823.4186   -5867.0295   -138.82099    1095.1059    1688.0468    13278.803    75.184869 
   16300    361.86796   -161.96271   0.32742573   -161.63528   -2027.4246    4.2262079    4.2262079    4.2262079   -2027.4246      23.0375   -4133.4242    -1971.887    856.80764    19.565844   -1073.0434    75.483592 
   16400    280.26492   -161.88934   0.25358958   -161.63575    207.98175    4.2294577    4.2294577    4.2294577    207.98175    3014.0924    7040.4781   -9430.6252    771.94009    2184.8301    7751.2178    75.657862 
   16500    270.58101   -161.88066   0.24482739   -161.63583   -2227.5429    4.2269949    4.2269949    4.2269949   -2227.5429   -8259.2452    1751.2074   -174.59102   -2178.3396   -839.52829    5055.0064     75.52577 
   16600     386.2488   -161.98406   0.34948604   -161.63457   -9338.3927    4.2214182    4.2214182    4.2214182   -9338.3927   -10106.772   -4306.6188   -13601.787   -1473.5442   -823.23399   -846.07178    75.227243 
   16700    158.19628   -161.77937   0.14313932   -161.63623    716.85792     4.221728     4.221728     4.221728    716.85792    9021.6243   -5578.1246    -1292.926   -1039.0348    1990.5729    14226.546    75.243804 
   16800    361.32678   -161.96243   0.32693606   -161.63549   -3249.2866    4.2260604    4.2260604    4.2260604   -3249.2866    14307.354    -10186.64   -13868.574   -1111.3961   -2084.6934   -1446.3716    75.475692 
   16900    246.04721   -161.85928   0.22262868   -161.63665    3380.2143     4.228305     4.228305     4.228305    3380.2143    17793.426   -6032.6741   -1620.1093   -544.21825   -103.78481    2694.8152    75.596016 
   17000    208.95208   -161.82498   0.18906423   -161.63591    3288.1322    4.2243145    4.2243145    4.2243145    3288.1322    7141.9981    9248.5707   -6526.1722   -263.36599   -4990.5554     6361.161    75.382185 
   17100    341.37751    -161.9429   0.30888555   -161.63401    -4029.522    4.2207482    4.2207482    4.2207482    -4029.522   -5017.2052    282.35959   -7353.7203     890.6101   -4035.2171   -4529.7772    75.191425 
   17200    226.37394   -161.83893   0.20482789   -161.63411   -1743.7418    4.2219834    4.2219834    4.2219834   -1743.7418    4951.0935   -6020.2942   -4162.0247     1229.938   -3919.0569    11992.762    75.257461 
   17300     254.0682   -161.86504   0.22988625   -161.63515   -1866.0266     4.226042     4.226042     4.226042   -1866.0266    14554.954   -4410.2179   -15742.816   -689.35435   -4398.9176    586.31826    75.474707 
   17400    304.62288   -161.91118   0.27562918   -161.63555     261.2531    4.2267443    4.2267443    4.2267443     261.2531    6495.2077   -8818.6058    3107.1574   -97.328684   -3268.3033   -123.21169    75.512337 
   17500    216.27321   -161.83083   0.19568854   -161.63514    5359.2112    4.2214209    4.2214209    4.2214209    5359.2112   -204.81652    16852.438   -569.98748   -1723.1367   -4408.9048    6390.3762    75.227385 
   17600    251.93881   -161.86267   0.22795953   -161.63471    1671.7666    4.2200174    4.2200174    4.2200174    1671.7666   -7458.7487      10016.6    2457.4483   -2239.5225    2102.3428   -5489.4892    75.152376 
   17700    286.57748   -161.89391   0.25930132   -161.63461   -1653.0146     4.223424     4.223424     4.223424   -1653.0146   -119.70893   -4126.0291   -713.30576    292.38786    1027.3977    9202.6899    75.334522 
   17800    169.86179   -161.78866   0.15369451   -161.63496    3041.6976    4.2263253    4.2263253    4.2263253    3041.6976    16867.954    1735.1326   -9477.9936   -2158.2893    49.915452    1081.3938    75.489885 
   17900    325.96432    -161.9293   0.29493937   -161.63436    1313.3137    4.2243069    4.2243069    4.2243069    1313.3137    2977.8121   -7343.5761    8305.7051   -583.30047    1199.1128   -1664.5546    75.381778 
   18000    247.02224   -161.85932   0.22351091   -161.63581    4384.7723    4.2209741    4.2209741    4.2209741    4384.7723    -440.6618    11349.502    2245.4767   -2507.3477    986.70515    3841.6041      75.2035 
   18100    228.80477   -161.84245   0.20702737   -161.63542    2125.4919    4.2222507    4.2222507    4.2222507    2125.4919   -832.41372    7847.3319   -638.44247   -447.80246    2368.4991   -7494.5584    75.271758 
   18200    398.66372   -161.99497   0.36071932   -161.63425   -6011.3408    4.2259228    4.2259228    4.2259228   -6011.3408    -1514.869   -7615.6408   -8903.5127    293.07145   -413.68467    3614.3792    75.468318 
   18300    234.76141   -161.84809   0.21241705   -161.63568    56.362363     4.226073     4.226073     4.226073    56.362363      12362.9    1000.3513   -13194.165   -2647.0421   -872.03792   -2089.1341    75.476366 
   18400     374.7982   -161.97327   0.33912529   -161.63415   -2712.9957    4.2235285    4.2235285    4.2235285   -2712.9957    -59.70494    -6195.821   -1883.4611    699.58634   -3836.9284   -2116.1563    75.340115 
   18500    410.79757   -162.00585   0.37169827   -161.63415   -5509.5576    4.2217274    4.2217274    4.2217274   -5509.5576   -8833.7289    2083.2125   -9778.1564   -3842.5487   -3793.9827    186.83596    75.243773 
   18600    261.68648   -161.87102   0.23677943   -161.63424   -4137.8715    4.2247283    4.2247283    4.2247283   -4137.8715   -6906.0834    2220.8575   -7728.3887   -1096.3973    224.74201   -8103.7605     75.40434 
   18700    481.07084   -162.06819   0.43528301    -161.6329   -10498.375    4.2265156    4.2265156    4.2265156   -10498.375   -10214.572   -9624.4424    -11656.11    3622.6774   -1415.6475     850.6745    75.500085 
   18800    306.16189   -161.91266   0.27702171   -161.63564    264.31334     4.224864     4.224864     4.224864    264.31334    6429.1627   -2141.3547   -3494.8679   -2115.7612   -790.55529   -4394.1253    75.411607 
   18900    340.12029   -161.94228   0.30774799   -161.63453    2744.0879    4.2209945    4.2209945    4.2209945    2744.0879    8962.4577   -1231.5574    501.36336     1731.304   -631.38342    81.454228    75.204594 
   19000    438.35165   -162.03069   0.39662979   -161.63406   -4059.0514    4.2218106    4.2218106    4.2218106   -4059.0514   -5534.2763   -4711.4794   -1931.3985   -1305.4179    1596.8935    426.60797    75.248222 
   19100    246.38228   -161.85753   0.22293187   -161.63459   -1705.9631    4.2256075    4.2256075    4.2256075   -1705.9631   -3256.1845    883.05734   -2744.7622   -1813.0218    1969.8154   -7077.3905    75.451429 
   19200    435.47388   -162.02721   0.39402592   -161.63319   -7704.2247    4.2271644    4.2271644    4.2271644   -7704.2247   -8874.9425   -9203.8155   -5033.9161    2809.9876    562.36872    2996.8609    75.534859 
   19300    356.81389   -161.95696    0.3228527   -161.63411    2322.6162    4.2221232    4.2221232    4.2221232    2322.6162    2733.2648   -5959.5091    10194.093   -3087.4877    3168.7586   -4938.6907     75.26494 
   19400     306.7782   -161.91183   0.27757936   -161.63425    6563.4052    4.2194368    4.2194368    4.2194368    6563.4052    11916.458    1234.8769     6538.881    330.19303    1254.0967    510.88003    75.121363 
   19500    426.39614   -162.01945   0.38581219   -161.63364    -1923.294    4.2221833    4.2221833    4.2221833    -1923.294   -6633.1784   -5893.5533    6756.8497   -948.82343    1719.2605    4296.9281    75.268151 
   19600    323.81871   -161.92711   0.29299797   -161.63411    -5613.691    4.2275703    4.2275703    4.2275703    -5613.691   -11269.659   -2108.1459    -3463.268   -2433.7389    2419.7256   -4822.4126    75.556621 
   19700    389.12917   -161.98487   0.35209225   -161.63278   -7026.2056    4.2269693    4.2269693    4.2269693   -7026.2056   -8812.8455   -4335.4157   -7930.3555    4527.8974   -1049.7146    5263.3127    75.524398 
   19800    425.14471   -162.01715   0.38467987   -161.63247   -1268.5802    4.2207819    4.2207819    4.2207819   -1268.5802   -1016.7216   -7987.3101     5198.291    82.700327   -31.246576   -3620.5042    75.193228 
   19900    347.73388   -161.94738   0.31463693   -161.63274    5170.3001    4.2179821    4.2179821    4.2179821    5170.3001    13342.421    1612.3387    556.14003   -392.02606    87.681155   -2896.9615    75.043693 
   20000    425.94037   -162.01853    0.3853998   -161.63313   -2643.2059    4.2231725    4.2231725    4.2231725   -2643.2059   -1482.0303   -8398.8367    1951.2494    1160.1249    647.45134    4889.2741    75.321068 
   20100    413.55913   -162.00741   0.37419699   -161.63321   -10720.167    4.2293754    4.2293754    4.2293754   -10720.167   -10351.796   -14145.072   -7663.6329   -2035.7014     -1498.24   -5818.8657    75.653444 
   20200    351.19948   -161.95093   0.31777267   -161.63316   -7494.8912    4.2255622    4.2255622    4.2255622   -7494.8912     72.01801   -6821.6859   -15735.006     1279.939     -1779.84    4813.1596    75.449004 
   20300    414.38629   -162.00809   0.37494542   -161.63315   -772.80284     4.219215     4.219215     4.219215   -772.80284     6833.018   -7044.4503   -2106.9762    219.25597    826.84531     55.24978    75.109515 
   20400     389.7058   -161.98612     0.352614   -161.63351    5401.3758    4.2178846    4.2178846    4.2178846    5401.3758    16970.858   -487.03238    -279.6978   -1971.0107   -597.62508   -5372.0565     75.03849 
   20500    338.14538   -161.94032   0.30596104   -161.63436    1699.2058    4.2243678    4.2243678    4.2243678    1699.2058    4250.5218   -3216.4733    4063.5689     189.5336    1896.4752    7192.0846    75.385042 
   20600    397.05939   -161.99234   0.35926768   -161.63307    -7860.991    4.2285489    4.2285489    4.2285489    -7860.991   -5645.3984   -16527.627   -1409.9478   -2213.8024    1618.9479   -2100.7496    75.609101 
   20700    322.41579   -161.92492   0.29172859    -161.6332   -6441.1372    4.2249947    4.2249947    4.2249947   -6441.1372    3814.1704   -10295.586   -12841.995    948.63025   -768.52981    6208.6841    75.418607 
   20800    313.10284   -161.91652   0.28330203   -161.63321    1157.2307    4.2192578    4.2192578    4.2192578    1157.2307    12360.459   -6031.7172   -2857.0501     92.21722    2392.7405    9757.5523    75.111805 
   20900    394.62898   -161.99072    0.3570686   -161.63365    4161.2033     4.219806     4.219806     4.219806    4161.2033    14361.466   -6601.0683    4723.2126    -3064.575    1653.0397   -4257.0368    75.141084 
   21000    297.44139   -161.90339   0.26913122   -161.63426    3074.3084    4.2255877    4.2255877    4.2255877    3074.3084    2437.2279    -2401.871    9187.5683    1583.6923    1173.2039    6153.4095     75.45037 
   21100    330.37916   -161.93276   0.29893401   -161.63383   -4533.7751    4.2280275    4.2280275    4.2280275   -4533.7751   -3458.5396    -15754.48    5611.6939    1001.2585    715.75083    256.07323    75.581138 
   21200    395.88467   -161.99166   0.35820477   -161.63346   -9823.4332    4.2252884    4.2252884    4.2252884   -9823.4332   -5137.6477   -13736.205   -10596.447    940.19032    -1476.946    1205.9636    75.434338 
   21300    256.16387   -161.86568   0.23178246    -161.6339   -405.25263    4.2196919    4.2196919    4.2196919   -405.25263    7950.1931   -2161.6454   -7004.3056    3900.8298   -707.46035     11970.14    75.134986 
   21400    359.77876   -161.95949   0.32553539   -161.63395    80.424975    4.2199445    4.2199445    4.2199445    80.424975    8766.2424   -5854.8012   -2670.1663   -620.63883   -3500.3776   -2631.7738    75.148481 
   21500    308.19517   -161.91278   0.27886146   -161.63391    2837.2931    4.2248464    4.2248464    4.2248464    2837.2931   -3607.2501    5465.7384    6653.3909    690.02192   -1619.1513    1583.7272    75.410665 
   21600    203.32152   -161.81925   0.18396958   -161.63528    4210.7012    4.2277544    4.2277544    4.2277544    4210.7012   -736.45657    -402.5522    13771.112   -276.29291   -152.13844    3187.4017    75.566492 
   21700    388.78938    -161.9861    0.3517848   -161.63432   -4421.5294    4.2246604    4.2246604    4.2246604   -4421.5294   -6206.0192   -1594.5894   -5463.9796   -1775.1869   -2368.5068   -1315.1852    75.400705 
   21800    184.77541   -161.80278   0.16718868   -161.63559    2171.8874      4.21981      4.21981      4.21981    2171.8874    10315.914    3105.4675   -6905.7189   -676.56723   -392.32817    13037.483    75.141296 
   21900    283.68884   -161.89199   0.25668763    -161.6353    -278.9685    4.2204587    4.2204587    4.2204587    -278.9685    8974.2544   -3408.0785   -6403.0814   -3977.0804   -4708.4294    1745.8334    75.175959 
   22000    337.45729   -161.94018   0.30533844   -161.63484   -209.33734    4.2254702    4.2254702    4.2254702   -209.33734    -4766.731   -419.96354    4558.6825    68.056564    -4057.882    496.78592    75.444075 
   22100    174.10846   -161.79306     0.157537   -161.63552    6277.9397    4.2280247    4.2280247    4.2280247    6277.9397    4249.6542    -3975.687    18559.852   -268.90493   -790.37417    5217.8391    75.580985 
   22200    401.64528   -161.99677   0.36341709   -161.63335   -4129.1699    4.2242613    4.2242613    4.2242613   -4129.1699   -3749.3502    -9532.062    893.90264   -1849.6203   -4448.7721   -1010.9043    75.379337 
   22300    221.17587   -161.83448   0.20012457   -161.63436   -521.20295    4.2192863    4.2192863    4.2192863   -521.20295    10781.289   -8064.1202   -4280.7774    2800.3348   -1927.7765    12849.968    75.113327 
   22400    292.77947   -161.89916   0.26491302   -161.63425   -4462.5986    4.2206229    4.2206229    4.2206229   -4462.5986    9059.4971   -13719.321   -8727.9722   -1982.3109   -3629.1897    5233.2007    75.184729 
   22500    377.99657   -161.97644   0.34201924   -161.63442   -4669.4349    4.2266433    4.2266433    4.2266433   -4669.4349   -8196.7793    -7854.983    2043.4576    1276.6676   -3343.9431    1446.9779    75.506928 
   22600    168.60495   -161.78804    0.1525573   -161.63548    6075.0001    4.2278123    4.2278123    4.2278123    6075.0001   -328.34333   -3145.4731    21698.817    772.09431    154.74897    8228.8267    75.569593 
   22700    352.62058   -161.95287   0.31905851   -161.63381    166.08602    4.2229369    4.2229369    4.2229369    166.08602   -5469.7558   -2944.6282     8912.642   -2488.7612   -1773.5845   -442.65261     75.30846 
   22800    237.86694   -161.85015   0.21522701   -161.63493     3282.079    4.2182359    4.2182359    4.2182359     3282.079    7336.4226    -1386.258    3896.0725    1303.0394    798.55108    12521.655     75.05724 
   22900    240.62275   -161.85287   0.21772052   -161.63515   -157.63552    4.2214452    4.2214452    4.2214452   -157.63552    8442.6631   -4437.8618   -4477.7079   -1325.0706   -3273.1664    8375.4467    75.228682 
   23000    336.89429   -161.93921   0.30482903   -161.63438   -5192.3455    4.2278893    4.2278893    4.2278893   -5192.3455   -11545.505   -8630.5134     4598.982    383.07016   -2733.3114   -892.12377    75.573726 
   23100    238.01001   -161.84988   0.21535646   -161.63452    163.69803    4.2284698    4.2284698    4.2284698    163.69803   -5903.3075   -5293.9964    11688.398   -316.77065    1931.5314    5502.6853    75.604859 
   23200    297.72534   -161.90345   0.26938815   -161.63406    2655.4606    4.2219895    4.2219895    4.2219895    2655.4606   -2451.3874   -139.28083     10557.05    -2489.283   -627.22097   -3631.4306    75.257788 
   23300    344.42867   -161.94628    0.3116463   -161.63463    1819.5667    4.2173991    4.2173991    4.2173991    1819.5667    8089.2592   -3464.1531     833.5941    1971.0612     593.2265    2752.5662     75.01258 
   23400    250.84342   -161.86215    0.2269684   -161.63518   -1460.6623    4.2217209    4.2217209    4.2217209   -1460.6623    9707.6951    -1611.012    -12478.67   -2383.3862    -3806.838    4784.6929    75.243425 
   23500    372.43839    -161.9706   0.33699008   -161.63361   -10041.975    4.2292324    4.2292324    4.2292324   -10041.975   -7752.1879   -17004.856   -5368.8824    348.34914   -2614.9199   -4826.6526    75.645768 
   23600    318.02915   -161.92138   0.28775946   -161.63362   -6320.3052    4.2289896    4.2289896    4.2289896   -6320.3052   -7654.8981   -11487.249    181.23128    769.34456   -343.89828     2468.704    75.632744 
   23700    279.79492   -161.88684   0.25316433   -161.63367    2196.6534    4.2212346    4.2212346    4.2212346    2196.6534   -4798.8152    1887.0098    9501.7657   -3515.2254   -2547.1598   -4820.7379    75.217427 
   23800    390.96763   -161.98748   0.35375573   -161.63372     1383.866    4.2172019    4.2172019    4.2172019     1383.866   -2255.6016    2594.9054    3812.2941    2658.8049    2786.6645   -477.81416     75.00206 
   23900    215.50965    -161.8303   0.19499766   -161.63531    2303.9981    4.2224777    4.2224777    4.2224777    2303.9981    3915.6432    10215.209   -7218.8577    653.97935    -3137.443    7534.0437    75.283897 
   24000    336.90334   -161.93944   0.30483722    -161.6346   -5765.2018    4.2300341    4.2300341    4.2300341   -5765.2018   -2727.5791   -11026.438   -3541.5889    790.47809   -2098.9184     -2857.42    75.688796 
   24100    284.76281   -161.89231   0.25765938   -161.63465   -1319.5315     4.228756     4.228756     4.228756   -1319.5315   -6196.5058   -3831.0804    6068.9915    796.82939    2411.0871    4354.0621    75.620212 
   24200    255.55073   -161.86535   0.23122767   -161.63413    5804.2225    4.2197512    4.2197512    4.2197512    5804.2225   -3181.1912    3994.4146    16599.444   -437.82076    273.30393    210.72451    75.138156 
   24300     348.5278   -161.94909   0.31535528   -161.63373    4138.3781    4.2156996    4.2156996    4.2156996    4138.3781   -2978.4066    2445.2218    12948.319    5725.4359    2894.8917   -2038.7565    74.921934 
   24400    235.77572   -161.84821   0.21333483   -161.63488    2389.8613    4.2223661    4.2223661    4.2223661    2389.8613    3581.9178     7333.915    -3746.249   -1263.4201    471.17041    6463.4606    75.277928 
   24500    345.38162   -161.94623   0.31250855   -161.63373    -4880.631    4.2298325    4.2298325    4.2298325    -4880.631    3491.7412   -8024.2786   -10109.356     2016.663   -272.94927   -2774.2364    75.677974 
   24600    322.02786   -161.92578   0.29137758    -161.6344   -2052.7576    4.2288736    4.2288736    4.2288736   -2052.7576    -1430.362   -1935.5757   -2792.3352    955.53988    2154.1093    1148.1319    75.626519 
   24700    290.00157   -161.89663   0.26239952   -161.63423    3044.7512    4.2207411    4.2207411    4.2207411    3044.7512    1909.4701   -1424.7842    8649.5678   -1.6552224    533.72762    595.08082    75.191048 
   24800    382.47715   -161.97987   0.34607336    -161.6338   -1843.3809    4.2174837    4.2174837    4.2174837   -1843.3809   -2753.4785    -5389.638    2612.9738    9970.4544    2337.7953   -5073.3382    75.017093 
   24900    309.91447   -161.91501   0.28041713   -161.63459   -3691.3859    4.2232712    4.2232712    4.2232712   -3691.3859   -271.04533   -1196.7673   -9606.3451    2687.0308    -1209.303    3878.8192    75.326346 
   25000    354.15905   -161.95426   0.32045055   -161.63381   -6432.7939    4.2303969    4.2303969    4.2303969   -6432.7939    292.27169   -6080.0856   -13510.568    2570.7728   -3540.2994    -2689.765    75.708277 
   25100    331.07479   -161.93271   0.29956343   -161.63315    -2805.191    4.2283441    4.2283441    4.2283441    -2805.191   -4274.2663   -2192.8661   -1948.4406     3880.019    212.94102    156.33702    75.598116 
   25200    293.83641   -161.89874   0.26586936   -161.63287    3531.2325    4.2193236    4.2193236    4.2193236    3531.2325   -1240.6402    -1792.267    13626.605    856.70026   -3191.1326    5717.3207    75.115317 
   25300    365.73313   -161.96412   0.33092302   -161.63319   -83.607435    4.2173219    4.2173219    4.2173219   -83.607435   -9694.2566   -1348.3166    10791.751    8390.7887   -93.397669   -2811.1226    75.008461 
   25400    293.31171   -161.89977    0.2653946   -161.63438   -1186.2178    4.2235458    4.2235458    4.2235458   -1186.2178   -6933.4157   -490.70193    3865.4641    1466.4179    1468.0205    3386.3067    75.341044 
   25500    360.54969   -161.96008   0.32623294   -161.63385   -7457.6869     4.230652     4.230652     4.230652   -7457.6869   -4535.8361   -8855.9464   -8981.2782    626.69525   -528.38773    941.11845    75.721969 
   25600    361.96754   -161.96096   0.32751583   -161.63345   -2834.0077    4.2265597    4.2265597    4.2265597   -2834.0077   -4881.8323    759.04559   -4379.2364     633.8295    1533.3302   -562.94333    75.502448 
   25700    351.55196    -161.9507    0.3180916   -161.63261    4323.5568    4.2178455    4.2178455    4.2178455    4323.5568    6724.8637   -478.96245    6724.7692   -4149.4902     337.8778    5711.1136      75.0364 
   25800    414.56204   -162.00795   0.37510444   -161.63285    1772.9314    4.2167803    4.2167803    4.2167803    1772.9314    1904.6999     646.7966    2767.2977    4902.9289     2192.844   -1915.0516    74.979567 
   25900    323.52423   -161.92662   0.29273152   -161.63389   -2283.7645    4.2249154    4.2249154    4.2249154   -2283.7645   -3553.4099   -1193.3851   -2104.4986   -285.55374   -65.980205    1296.3778    75.414361 
   26000    415.60372   -162.00836   0.37604698   -161.63232   -11090.024     4.230669     4.230669     4.230669   -11090.024   -1769.9227   -15115.168   -16384.981   -4897.1602   -1128.4978    870.47645    75.722882 
   26100    335.28163   -161.93627   0.30336987    -161.6329   -2199.6043    4.2245739    4.2245739    4.2245739   -2199.6043    560.33675   -1324.1094   -5835.0404    2768.6644   -1679.8968    128.95458    75.396076 
   26200    363.04467   -161.96121   0.32849044   -161.63271    6488.2657    4.2171778    4.2171778    4.2171778    6488.2657    11270.101    781.26365    7413.4328   -5697.5998   -4320.3604    3222.4922    75.000775 
   26300    405.20161   -161.99976   0.36663493   -161.63313    5955.7695    4.2181803    4.2181803    4.2181803    5955.7695    6983.2509    5501.7896     5382.268   -1308.0204   -538.58782    -1823.991    75.054271 
   26400    290.96737   -161.89719   0.26327339   -161.63391    931.18226     4.226738     4.226738     4.226738    931.18226   -5451.3731    4689.4949    3555.4249    1138.2182   -775.52223   -1340.9385    75.512004 
   26500     423.2641   -162.01595   0.38297825   -161.63297   -12164.985     4.230151     4.230151     4.230151   -12164.985   -8028.8964   -18782.225   -9683.8332   -3993.7566   -1384.0253   -1209.8223    75.695072 
   26600    344.44789   -161.94563   0.31166369   -161.63396   -7177.9436    4.2240013    4.2240013    4.2240013   -7177.9436   -10070.823    -9262.986   -2200.0219    4410.6764   -1166.6136   -498.55014    75.365423 
   26700    364.03322   -161.96302    0.3293849   -161.63363    1317.7397    4.2179595    4.2179595    4.2179595    1317.7397   -821.09852   -3107.7885    7882.1062   -2422.9946   -1133.0058   -427.54171    75.042485 
   26800    427.24636    -162.0204   0.38658148   -161.63382    2572.5179    4.2208599    4.2208599    4.2208599    2572.5179   -1063.6447    6909.4049    1871.7937    93.108648    1689.4516   -1589.7135    75.197397 
   26900     342.8453   -161.94446   0.31021363   -161.63425   -1555.8399    4.2280352    4.2280352    4.2280352   -1555.8399   -13854.962    14875.501   -5688.0582    2719.1091    651.60925    717.37953    75.581551 
   27000    402.14387   -161.99768   0.36386822   -161.63381   -12256.065    4.2292796    4.2292796    4.2292796   -12256.065   -12270.282   -10027.429   -14470.482   -2395.0088    2192.2613   -2376.5144    75.648306 
   27100    363.07582   -161.96307   0.32851863   -161.63455   -7446.6088    4.2227809    4.2227809    4.2227809   -7446.6088   -13389.847   -3280.7524   -5669.2271    6722.4231    907.79395     2379.027    75.300113 
   27200    349.67616   -161.95117   0.31639434   -161.63478    1921.3189    4.2196186    4.2196186    4.2196186    1921.3189   -2077.8781    3769.6479    4072.1869    267.68318   -2388.8514    970.10893    75.131072 
   27300    342.36408   -161.94438   0.30977822    -161.6346     4966.396      4.22334      4.22334      4.22334     4966.396    2479.7511    8317.0472    4102.3896    617.98226    360.72599    -2277.078    75.330031 
   27400    354.60628   -161.95556   0.32085521    -161.6347   -1109.4371    4.2287426    4.2287426    4.2287426   -1109.4371   -6554.5553    8798.4407   -5572.1967    3779.4548   -1718.7061    2476.1596    75.619491 
   27500    302.47429   -161.90786   0.27368509   -161.63417   -5642.5112    4.2269429    4.2269429    4.2269429   -5642.5112   -126.05921   -10575.228   -6226.2464    218.89101   -1387.8626   -7445.7521    75.522983 
   27600    309.77263   -161.91407   0.28028879   -161.63379   -4336.1755    4.2212779    4.2212779    4.2212779   -4336.1755   -6234.0459   -10566.778    3792.2972    6251.5575   -1841.4638   -1838.9536     75.21974 
   27700    366.65852   -161.96501   0.33176034   -161.63325    2697.0897    4.2189294    4.2189294    4.2189294    2697.0897    1166.8842   -1086.5072    8010.8921     1539.035   -2852.3862   -210.15317    75.094267 
   27800    284.17051   -161.89142   0.25712345    -161.6343    7481.0385    4.2241821    4.2241821    4.2241821    7481.0385    4507.7856    8240.3482    9694.9818    257.73312   -325.48325   -6679.5862    75.375099 
   27900    396.07289   -161.99215   0.35837507   -161.63377   -4535.5993    4.2292138    4.2292138    4.2292138   -4535.5993   -6455.3059    1464.5618   -8616.0538    2531.6824    59.354184    1561.9939    75.644773 
   28000    301.16236   -161.90742   0.27249803   -161.63492   -7408.6488    4.2264699    4.2264699    4.2264699   -7408.6488   -2164.2162   -6526.5334   -13535.197   -240.47175    2654.6366   -10561.849    75.497634 
   28100    362.32945    -161.9622    0.3278433   -161.63435   -8920.5395    4.2203181    4.2203181    4.2203181   -8920.5395   -12541.375   -12424.021   -1796.2221    9094.0006    1114.6551   -2477.3821    75.168443 
   28200    358.59246   -161.95861   0.32446199   -161.63415   -2379.4169    4.2198905    4.2198905    4.2198905   -2379.4169   -8940.8018   -187.07289    1989.6239    5496.7762     -140.468   -1200.4724      75.1456 
   28300    260.50355   -161.87068   0.23570908   -161.63497    3891.0161    4.2257566    4.2257566    4.2257566    3891.0161    2076.8957    3137.5601    6458.5926    871.25485    120.07171   -6634.0156    75.459416 
   28400    330.64297   -161.93335    0.2991727   -161.63418   -371.77774    4.2292023    4.2292023    4.2292023   -371.77774     9154.702   -2457.5264   -7812.5088     6683.677   -819.54047    2879.4635    75.644158 
   28500    214.21868   -161.82809   0.19382956   -161.63426    2088.5789    4.2250063    4.2250063    4.2250063    2088.5789    15326.322   -1176.6184    -7883.967    4156.7465    164.78004    -9246.567    75.419229 
   28600    268.79453   -161.87702   0.24321094   -161.63381   -1271.8152    4.2181498    4.2181498    4.2181498   -1271.8152   -1274.6368     -10875.5     8334.691    11398.382   -2099.8111   -2568.5536    75.052646 
   28700    233.25052   -161.84511   0.21104997   -161.63406    2966.9742    4.2186561    4.2186561    4.2186561    2966.9742   -7030.8087    120.29907    15811.432     13327.85   -1538.5389    1949.8938    75.079673 
   28800     222.8518   -161.83639   0.20164099   -161.63475    5643.3255    4.2258613    4.2258613    4.2258613    5643.3255   -635.51112    1988.4425    15577.045    3385.6498   -2377.4608   -4906.1446    75.465026 
   28900    292.64487   -161.89952   0.26479123   -161.63473    985.11455    4.2302989    4.2302989    4.2302989    985.11455    9580.3546   -5974.4534   -650.55751    5351.6985   -1304.3519    4105.1624    75.703013 
   29000    245.76924   -161.85654   0.22237717   -161.63417   -71.130287    4.2242204    4.2242204    4.2242204   -71.130287     11334.16   -2737.1602   -8810.3909    3158.7293    623.66676   -6490.5645    75.377148 
   29100     280.3621   -161.88732   0.25367752   -161.63365   -3966.7495      4.21664      4.21664      4.21664   -3966.7495   -2800.7124   -11583.165    2483.6285    8422.1086   -28.502396   -6894.9376    74.972084 
   29200    293.67914   -161.89962   0.26572706   -161.63389    -2462.433    4.2190056    4.2190056    4.2190056    -2462.433   -13909.956    -4265.266    10787.922    11744.029    1520.3621     1681.757    75.098334 
   29300    265.37857   -161.87444   0.24012011   -161.63432    2092.6362    4.2274564    4.2274564    4.2274564    2092.6362   -5479.4445   -37.771753    11795.125    450.07894    191.82686   -6150.3681    75.550513 
   29400    281.42907   -161.88742   0.25464294   -161.63278    1252.1793    4.2304775    4.2304775    4.2304775    1252.1793    7709.8253   -2067.2248   -1886.0625    3457.3729     473.8747    560.34904    75.712603 
   29500    295.69827   -161.89945   0.26755401    -161.6319   -1971.8822    4.2231063    4.2231063    4.2231063   -1971.8822    11594.447   -3238.0011   -14272.093    594.06086   -39.851444   -7109.2735    75.317523 
   29600    258.35602   -161.86712   0.23376596   -161.63335   -2386.7543    4.2166704    4.2166704    4.2166704   -2386.7543     10250.39    -12079.66   -5330.9921   -555.18306    -422.1652   -14191.438    74.973702 
   29700    283.44184   -161.89071   0.25646414   -161.63425    338.94499    4.2196989    4.2196989    4.2196989    338.94499   -1514.0207   -5970.7069    8501.5627    8801.6259   -167.42519   -794.11176    75.135361 
   29800    270.70086   -161.87955   0.24493583   -161.63462    3556.6625    4.2278798    4.2278798    4.2278798    3556.6625    2115.7998   -4017.0011    12571.189   -22.685457   -3283.1988   -6802.6823    75.573215 
   29900    224.62474   -161.83716   0.20324518   -161.63392    5967.8285    4.2287472    4.2287472    4.2287472    5967.8285    11757.498    1458.7993    4687.1879   -8.9377366   -1777.7209   -3872.0541    75.619738 
   30000     300.9602   -161.90607   0.27231512   -161.63376    1346.7935    4.2221252    4.2221252    4.2221252    1346.7935     9293.332    1524.2003   -6777.1519    532.13558   -3551.4723   -2494.2455    75.265043 
   30100    230.74742   -161.84357   0.20878512   -161.63479   -1248.7511    4.2174999    4.2174999    4.2174999   -1248.7511    9838.4475   -10561.125   -3023.5762   -321.70302   -2273.0152   -14198.567    75.017961 
   30200    309.17396   -161.91405    0.2797471   -161.63431   -4326.7133    4.2220406    4.2220406    4.2220406   -4326.7133   -7713.6162   -7595.6979    2329.1743    4328.8696   -1337.0281   -3212.0375     75.26052 
   30300    357.28725   -161.95705   0.32328101   -161.63377   -3477.4906    4.2287479    4.2287479    4.2287479   -3477.4906   -9350.2809   -9047.0394    7964.8485   -1307.0023   -3154.5412   -1837.8257    75.619775 
   30400    219.20751   -161.83192   0.19834356   -161.63358    4449.1764    4.2283673    4.2283673    4.2283673    4449.1764    3283.8556   -363.09195    10426.766    2552.2627   -314.13684   -4812.7708    75.599358 
   30500     424.4959   -162.01661   0.38409281   -161.63252   -3953.4667    4.2220123    4.2220123    4.2220123   -3953.4667   -6741.2661    -2736.472   -2382.6618    583.22599   -2715.1713     1446.052    75.259005 
   30600    278.97651   -161.88676   0.25242381   -161.63434    -4078.384    4.2190704    4.2190704    4.2190704    -4078.384   -558.65877    -8625.535   -3050.9583   -1610.8767    740.74634   -9330.5711    75.101795 
   30700     281.9767   -161.88977   0.25513844   -161.63463   -4582.6711    4.2228808    4.2228808    4.2228808   -4582.6711   -4641.2454    -5734.904   -3371.8638    2217.4453    1118.3983   -5160.1875     75.30546 
   30800    387.88694   -161.98549   0.35096825   -161.63452   -4311.7068    4.2288475    4.2288475    4.2288475   -4311.7068    2175.6793   -11916.748   -3194.0522   -2458.5553   -1082.8787    1430.5013    75.625122 
   30900    162.65611    -161.7832   0.14717466   -161.63602    10186.227    4.2270148    4.2270148    4.2270148    10186.227    16191.187    7340.2555    7027.2396   -1604.0683    1744.8429   -6692.2735     75.52684 
   31000    390.41861   -161.98775   0.35325897   -161.63449    3540.8769    4.2209235    4.2209235    4.2209235    3540.8769    5901.4649    5934.6288    -1213.463   -2659.2569   -3160.7779    3737.5921    75.200799 
   31100    268.41365   -161.87827   0.24286631    -161.6354    1405.5578    4.2182214    4.2182214    4.2182214    1405.5578    7209.0841    2092.8718   -5085.2824   -1676.5005   -555.06809   -5319.6049    75.056464 
   31200    218.15915   -161.83239   0.19739498     -161.635    -1248.863    4.2228614    4.2228614    4.2228614    -1248.863    1276.4391     3186.453    -8209.481   -1756.4367    835.02196   -7781.8877    75.304424 
   31300    435.20662   -162.02728    0.3937841   -161.63349   -7250.7139    4.2286736    4.2286736    4.2286736   -7250.7139   -294.71712   -6725.4147    -14732.01   -4067.9552   -2654.4002    4896.4309     75.61579 
   31400    182.46983   -161.80067   0.16510254   -161.63557    8176.3241    4.2270309    4.2270309    4.2270309    8176.3241    10164.249    14388.946    -24.22363   -1202.9586    11.646188     -6120.33    75.527703 
   31500    372.68433   -161.97149   0.33721261   -161.63428    1892.5408    4.2223767    4.2223767    4.2223767    1892.5408   -4945.7323    11478.524   -855.16908   -2134.2158   -3577.9552   -902.99771    75.278495 
   31600    358.95603   -161.95933   0.32479096   -161.63453    -3475.031    4.2195956    4.2195956    4.2195956    -3475.031   -10508.109    7835.8488   -7752.8323    2124.9932    1084.3044   -1339.2324    75.129845 
   31700    254.37084   -161.86541   0.23016009   -161.63525   -4143.3868    4.2235404    4.2235404    4.2235404   -4143.3868   -6967.7266    1615.9341   -7078.3679     2047.045    2505.1659   -8588.3936    75.340755 
   31800     433.8583   -162.02695    0.3925641   -161.63438   -8440.5745    4.2285585    4.2285585    4.2285585   -8440.5745    776.64995    -9452.376   -16645.997    1238.0191   -1629.7874    3727.2539    75.609618 
   31900     267.8926   -161.87676   0.24239486   -161.63436    1092.1422    4.2264948    4.2264948    4.2264948    1092.1422    8276.7896   -899.91492   -4100.4481    256.35627    619.66313   -4910.3062     75.49897 
   32000     335.0697   -161.93676   0.30317811   -161.63358     94.29508    4.2217159    4.2217159    4.2217159     94.29508    2330.4588   -3531.1944    1483.6208    1449.7574     -2735.48   -3083.4839    75.243159 
   32100    377.51017    -161.9752   0.34157914   -161.63362    -2569.189     4.220158     4.220158     4.220158    -2569.189   -341.81481   -503.10793   -6862.6443    3224.2629    4035.8819    1809.7454    75.159892 
   32200    219.18116   -161.83319   0.19831972   -161.63488    1658.5761    4.2239108    4.2239108    4.2239108    1658.5761    6955.3384   -1412.2133   -567.39667   -1913.6473    5017.3757   -5953.4362    75.360577 
   32300    363.24962   -161.96293   0.32867589   -161.63425   -2894.4895    4.2277083    4.2277083    4.2277083   -2894.4895    11974.326   -11790.426   -8867.3689    596.89393    631.41337    3070.0749     75.56402 
   32400    249.57286     -161.861   0.22581877   -161.63518    2690.5383    4.2265207    4.2265207    4.2265207    2690.5383    11134.809   -4095.2629    1032.0683   -2305.9274    2438.7345   -3634.5241    75.500357 
   32500    248.55922   -161.86013   0.22490161   -161.63523    3449.9118    4.2217498    4.2217498    4.2217498    3449.9118    5348.2098    2669.9884    2331.5372   -3218.9262    485.30972   -5733.8719    75.244971 
   32600    318.10658   -161.92235   0.28782952   -161.63452   -1768.8309    4.2196851    4.2196851    4.2196851   -1768.8309   -8500.4643    9495.4641   -6301.4925   -337.11753    8885.6298    884.54645    75.134626 
   32700    174.68081   -161.79316   0.15805487   -161.63511    2262.5095    4.2231198    4.2231198    4.2231198    2262.5095    -4942.253    8930.4278    2799.3535   -1394.4456    9430.6213    -7844.983     75.31825 
   32800    313.46017   -161.91769   0.28362535   -161.63407    -803.4242    4.2275049    4.2275049    4.2275049    -803.4242    1578.3057   -156.77497   -3831.8033   -193.24029    4644.7831    1048.2378    75.553111 
   32900     199.4511   -161.81497   0.18046754    -161.6345     4683.112    4.2262582    4.2262582    4.2262582     4683.112    1199.7668    1523.6836    11325.886   -1835.9371    5255.1308    -360.8118    75.486292 
   33000    243.09712   -161.85404   0.21995938   -161.63408    3102.1794    4.2212127    4.2212127    4.2212127    3102.1794    645.33646    9495.1578   -833.95605     1581.234    3288.9566   -5864.2504    75.216255 
   33100    313.59605   -161.91801   0.28374829   -161.63426   -4978.2326    4.2206844    4.2206844    4.2206844   -4978.2326   -13866.064    8709.3813   -9778.0151     329.5088    12072.841    3781.2508    75.188018 
   33200    201.08277   -161.81668   0.18194392   -161.63474   -2940.4816    4.2244005    4.2244005    4.2244005   -2940.4816   -9355.3369     3952.627   -3418.7351   -885.60236    11469.203   -2294.2371    75.386791 
   33300    295.28414    -161.9012    0.2671793   -161.63402   -2727.7177    4.2274989    4.2274989    4.2274989   -2727.7177    65.103906   -5195.2929   -3052.9641    3437.1927     3336.023    259.16566    75.552788 
   33400    270.99661   -161.87917   0.24520343   -161.63397    3456.9223    4.2248954    4.2248954    4.2248954    3456.9223    3223.0932   -6880.4875    14028.161   -1833.0601    3670.9177    948.01938    75.413288 
   33500    264.12786   -161.87266   0.23898844   -161.63367    4442.1224    4.2199254    4.2199254    4.2199254    4442.1224    10188.625    4913.7345   -1775.9925   -1600.2128    876.54378   -6779.9586     75.14746 
   33600    328.93877   -161.93191   0.29763071   -161.63428   -3924.5054    4.2207251    4.2207251    4.2207251   -3924.5054   -7480.9288    2452.2629   -6744.8504   -83.499788    5419.3265    134.46227    75.190191 
   33700    256.71337   -161.86773   0.23227966   -161.63546   -4333.5178    4.2257795    4.2257795    4.2257795   -4333.5178   -14309.352    6290.2969   -4981.4983    -1892.828    6763.1396   -4414.0646    75.460641 
   33800    295.08502   -161.90141   0.26699913   -161.63441   -1416.7567    4.2285282    4.2285282    4.2285282   -1416.7567   -10466.262    6206.0843    9.9072731   -160.49288   -1475.2352   -3700.8874     75.60799 
   33900     311.4337   -161.91611   0.28179176   -161.63431    4537.0398    4.2244636    4.2244636    4.2244636    4537.0398   -6818.7885    1359.4991    19070.409   -2009.2377   -469.21352   -2275.9505    75.390167 
   34000     245.4992   -161.85697   0.22213284   -161.63483    7800.2169    4.2206483    4.2206483    4.2206483    7800.2169    4033.1841    12798.929    6568.5379   -424.39242   -1411.9702   -8829.5013     75.18609 
   34100     316.7194    -161.9209   0.28657437   -161.63432    403.90343    4.2215297    4.2215297    4.2215297    403.90343   -9910.8775    4606.0848    6516.5029   -2115.7931     1373.261   -1178.7445    75.233202 
   34200    284.95536   -161.89224    0.2578336   -161.63441   -2556.5951    4.2263392    4.2263392    4.2263392   -2556.5951   -18388.902    8831.8195    1887.2974    232.04572     4726.303   -1998.0625    75.490631 
   34300    305.63849   -161.91045   0.27654813   -161.63391   -688.69727    4.2284527    4.2284527    4.2284527   -688.69727   -13550.933    6091.9648    5392.8759    4177.3843   -1995.6878   -5787.1776     75.60394 
   34400     373.5595   -161.97188   0.33800448   -161.63387    1451.6509    4.2237842    4.2237842    4.2237842    1451.6509   -10717.909   -2102.1262    17174.988   -2112.6403    1403.9377    1083.1238    75.353801 
   34500    345.36638   -161.94657   0.31249476   -161.63408    835.38897    4.2200302    4.2200302    4.2200302    835.38897      2232.57    1275.9261   -1002.3292    1439.1296   -1174.0067   -8137.7861     75.15306 
   34600    379.69458   -161.97728   0.34355564   -161.63373   -5798.2721    4.2221979    4.2221979    4.2221979   -5798.2721   -7643.4193   -8675.3054   -1076.0915   -244.44463   -3063.0362   -1726.4477    75.268933 
   34700    418.06284   -162.01161   0.37827204   -161.63334   -9469.6194    4.2271358    4.2271358    4.2271358   -9469.6194   -13283.537   -8927.6244   -6197.6972   -3256.9367    898.18974    2757.4055    75.533324 
   34800    353.68811   -161.95324   0.32002444   -161.63321   -3744.1705    4.2270877    4.2270877    4.2270877   -3744.1705   -9709.4952   -3457.5483    1934.5318    2622.8313   -3521.5031   -3981.5484    75.530748 
   34900    437.60854   -162.02853    0.3959574   -161.63257   -2274.2287    4.2223081    4.2223081    4.2223081   -2274.2287   -12349.184    3291.7549    2234.7435   -1581.4015   -160.39552    3798.6089    75.274826 
   35000    351.26467   -161.95135   0.31783165   -161.63351    344.00252    4.2200371    4.2200371    4.2200371    344.00252   -4041.9002    9405.8476   -4331.9399   -1518.5636   -2103.5247   -5150.7849    75.153431 
   35100    319.14505   -161.92371   0.28876915   -161.63494     -1988.31     4.224021     4.224021     4.224021     -1988.31   -6975.7803    3551.9095   -2541.0591   -191.89238   -3422.7522   -1718.0988    75.366475 
   35200    396.48754   -161.99321   0.35875026   -161.63445   -4946.3962    4.2274842    4.2274842    4.2274842   -4946.3962   -7171.9168   -1182.1628    -6485.109    192.40375   -630.61514    2263.8388    75.552005 
   35300    229.98597   -161.84299   0.20809614   -161.63489    5778.3273    4.2263834    4.2263834    4.2263834    5778.3273   -3450.6912    13191.003    7594.6697    2254.7701    -999.6273   -7091.6537    75.493001 
   35400    327.64239   -161.93061   0.29645772   -161.63415    6278.0551    4.2214248    4.2214248    4.2214248    6278.0551    -9452.776    24025.216    4261.7258   -1543.1284    1652.1334    1144.5902    75.227595 
   35500    295.44341   -161.90225    0.2673234   -161.63493    3328.4192    4.2200358    4.2200358    4.2200358    3328.4192   -6287.3066    14836.619    1435.9453    2997.0945   -1418.3004   -7121.1538    75.153359 
   35600     219.0602   -161.83346   0.19821027   -161.63525    1008.9632     4.223303     4.223303     4.223303    1008.9632   -6243.2472    10742.255    -1472.118   -1110.6461   -3823.4353   -8019.2154    75.328051 
   35700    396.99216   -161.99301   0.35920685    -161.6338   -6822.3477     4.227765     4.227765     4.227765   -6822.3477   -7761.8611   -1164.2445   -11540.937   -2618.3058   -1237.5916    3847.7061     75.56706 
   35800    218.90685   -161.83355   0.19807152   -161.63548     3329.584     4.226751     4.226751     4.226751     3329.584   -2302.2268    12268.446    22.532798    2271.8209   -1031.3666   -6786.5304      75.5127 
   35900    357.21445   -161.95809   0.32321514   -161.63488     659.8517    4.2229978    4.2229978    4.2229978     659.8517   -5770.4234    12878.544   -5128.5653   -2750.3667   -860.92303    3454.0535     75.31172 
   36000    322.03581   -161.92645   0.29138477   -161.63506   -1402.7826    4.2212994    4.2212994    4.2212994   -1402.7826   -8774.5586    6657.6386   -2091.4279    2407.6858   -3571.8421    2006.6419    75.220892 
   36100    287.37832   -161.89557   0.26002594   -161.63554   -5275.2003    4.2256032    4.2256032    4.2256032   -5275.2003   -8031.5075   -3755.5998   -4038.4935    464.21521   -2727.3027      -2238.1    75.451199 
   36200    367.01134   -161.96691   0.33207957   -161.63483   -8252.7743    4.2292081    4.2292081    4.2292081   -8252.7743   -6159.9033   -10438.278   -8160.1416   -2238.9655    492.76473    5915.3808    75.644465 
   36300    195.17042   -161.81228    0.1765943   -161.63568     3803.374    4.2268093    4.2268093    4.2268093     3803.374    55.009302    1010.5146    10344.598    1212.4278    814.42079   -4053.0505    75.515822 
   36400    360.53534   -161.96144   0.32621995   -161.63522    1023.3057    4.2223159    4.2223159    4.2223159    1023.3057   -4753.0343   -3623.9509    11446.902    410.31749   -113.97629     2627.828    75.275245 
   36500    192.99827    -161.8104   0.17462889   -161.63577    4241.7952     4.221232     4.221232     4.221232    4241.7952   -7607.8457   -3232.5834    23565.815    6737.2805   -2030.0839   -1559.0536    75.217285 
   36600    291.73093   -161.90031   0.26396427   -161.63634   -3506.7175    4.2259147    4.2259147    4.2259147   -3506.7175   -11401.872   -6685.0375    7566.7567     2402.226    546.19132   -4348.6815    75.467885 
   36700    225.67636   -161.84139   0.20419671    -161.6372    2943.3559    4.2284882    4.2284882    4.2284882    2943.3559    -9110.759   -1162.9089    19103.736    1936.7463      940.248   -284.07524    75.605847 
   36800    204.33956   -161.82243   0.18489073   -161.63754    8127.5507    4.2254933    4.2254933    4.2254933    8127.5507    2962.2659    4960.0631    16460.323    1988.1515   -1373.0455    -8631.649     75.44531 
   36900    272.82199   -161.88356   0.24685507    -161.6367    6184.5241    4.2207593    4.2207593    4.2207593    6184.5241   -7378.7234    5309.5271    20622.769   -512.29823   -4531.5009   -817.97457     75.19202 
   37000    187.40455   -161.80673   0.16956757   -161.63716    4421.8201     4.221706     4.221706     4.221706    4421.8201   -8892.6821    435.70512    21722.437     8466.155     -4478.47   -1924.1525    75.242626 
   37100    251.25929   -161.86378   0.22734468   -161.63643   -164.86968    4.2262438    4.2262438    4.2262438   -164.86968   -13255.544   -2166.4857     14927.42    1872.9298    12.008133   -350.05769     75.48552 
   37200    270.89712   -161.88153   0.24511341   -161.63642    4046.6939    4.2282713    4.2282713    4.2282713    4046.6939   -7783.9202   -954.31104    20878.313   -1163.3332   -2632.7002    1686.1187    75.594211 
   37300    292.27009   -161.90053   0.26445212   -161.63608     3732.095    4.2251646    4.2251646    4.2251646     3732.095    3697.5159    769.49928    6729.2698    5425.7703   -941.39531    239.71721    75.427705 
   37400     318.6925   -161.92275   0.28835967   -161.63439   -1657.5798    4.2224592    4.2224592    4.2224592   -1657.5798   -9322.5709   -2615.6826    6965.5141   -407.72672   -2514.1479    3754.6275    75.282909 
   37500    374.38465   -161.97351    0.3387511   -161.63476   -7969.7912     4.224234     4.224234     4.224234   -7969.7912   -18658.382   -5491.1148    240.12367    4836.8383   -668.51443    546.62427    75.377877 
   37600    309.08743   -161.91502    0.2796688   -161.63535   -5465.9187    4.2285644    4.2285644    4.2285644   -5465.9187    -20906.86   -3999.7976    8508.9013     4355.507     3539.586    4393.6705    75.609931 
   37700    421.27242   -162.01556   0.38117614   -161.63438   -5846.7612    4.2279681    4.2279681    4.2279681   -5846.7612   -13209.583   -2380.2911   -1950.4093   -1310.8316   -1593.8636    3192.6905     75.57795 
   37800    309.25071   -161.91444   0.27981654   -161.63462     420.6445    4.2229902    4.2229902    4.2229902     420.6445    2540.3114    4148.1955   -5426.5734    2682.3658    3972.0505    1833.2522    75.311314 
   37900     366.1455   -161.96518   0.33129615   -161.63389   -2081.9438    4.2212237    4.2212237    4.2212237   -2081.9438   -3188.5623    3081.3875   -6138.6565    -2856.451   -801.22948    1767.8257    75.216844 
   38000    376.52274   -161.97519   0.34068569    -161.6345   -3466.1903    4.2241718    4.2241718    4.2241718   -3466.1903   -13552.483    6136.5543   -2982.6421    2578.3653   -116.11089    -706.1939    75.374548 
   38100    303.29618   -161.91015   0.27442876   -161.63572   -2552.5628    4.2285719    4.2285719    4.2285719   -2552.5628   -18024.279    1141.0013    9225.5889    1286.1726    2956.7626    478.44877    75.610334 
   38200    395.16367   -161.99239   0.35755239   -161.63483    -4670.807     4.226349     4.226349     4.226349    -4670.807   -18292.715    7501.0632   -3220.7695   -3960.3086   -2015.9484   -120.98898    75.491157 
   38300    255.52326   -161.86666   0.23120281   -161.63546    1498.1736    4.2225882    4.2225882    4.2225882    1498.1736   -10171.329     16818.67   -2152.8206     1559.809    5884.5681     2135.151    75.289806 
   38400    329.78616   -161.93352   0.29839744   -161.63512    218.76512    4.2223293    4.2223293    4.2223293    218.76512   -8311.9875    10857.451   -1889.1682   -4797.8529    3315.9421   -1811.4741    75.275961 
   38500    295.58097   -161.90263   0.26744787   -161.63518    4426.7165    4.2256332    4.2256332    4.2256332    4426.7165   -14659.069    14285.988    13653.231    718.56621    912.48545   -3209.2827    75.452806 
   38600    271.52836   -161.88111   0.24568457   -161.63542    4977.8456    4.2265051    4.2265051    4.2265051    4977.8456   -10186.159     5157.911    19961.785    3265.6637    5684.8691   -3444.3741     75.49952 
   38700     251.2172   -161.86327    0.2273066   -161.63596    3110.9491    4.2246146    4.2246146    4.2246146    3110.9491   -14877.051    9490.2663    14719.632   -5783.7474    687.59937   -4273.0423    75.398255 
   38800    278.11067   -161.88754   0.25164037    -161.6359   -2017.3144    4.2244448    4.2244448    4.2244448   -2017.3144   -17836.263    7144.3735    4639.9462    2637.8932    8462.5867   -3368.7804    75.389165 
   38900    300.17514   -161.90702   0.27160478   -161.63541    -1083.725    4.2247447    4.2247447    4.2247447    -1083.725   -9630.9787    2428.7268    3951.0768   -2247.1179    6623.5705   -2550.3497    75.405217 
   39000    276.82366   -161.88607   0.25047586    -161.6356    5219.2395    4.2258187    4.2258187    4.2258187    5219.2395   -13393.278    6873.6513    22177.345   -2899.1119     1225.066    179.41156    75.462742 
   39100    342.37361   -161.94649   0.30978683   -161.63671    2006.0964     4.225185     4.225185     4.225185    2006.0964   -5888.4056   -2409.7221    14316.417   -1865.1469    3067.2935   -2500.1767    75.428798 
   39200    275.00283   -161.88619   0.24882834   -161.63736   -1885.6227    4.2254786    4.2254786    4.2254786   -1885.6227    -11505.85    1778.5146    4070.4679    -7580.338   -3014.8751     1171.213    75.444521 
   39300    448.06649    -162.0404   0.40541998   -161.63498   -13057.928    4.2258914    4.2258914    4.2258914   -13057.928   -16961.121   -8531.8001   -13680.862    -656.8337    3096.9677    1955.8204    75.466637 
   39400    320.75929   -161.92503   0.29022975    -161.6348   -6468.1039    4.2257707    4.2257707    4.2257707   -6468.1039   -11709.442    920.68878   -8615.5582   -6069.6132    2407.5013     983.8654     75.46017 
   39500    381.47344   -161.97915   0.34516519   -161.63399   -3167.7651    4.2253439    4.2253439    4.2253439   -3167.7651   -13336.166    619.31469    3213.5561   -307.51561   -192.32521    4889.1713     75.43731 
   39600    408.77992   -162.00632   0.36987266   -161.63645    -1263.241    4.2246111    4.2246111    4.2246111    -1263.241   -5232.2226    2408.8164    -966.3168   -727.16377    3025.1967    3609.9354    75.398066 
   39700    272.04343   -161.88317   0.24615061   -161.63702   -225.91294    4.2252994    4.2252994    4.2252994   -225.91294   -3961.2244    6023.9081   -2740.4225   -4268.2742   -2233.8782    760.25983    75.434928 
   39800    464.15886   -162.05498   0.41998069     -161.635   -11344.577     4.226293     4.226293     4.226293   -11344.577   -17580.942   -5481.0704   -10971.717    2197.1734    2271.2132   -812.01524    75.488154 
   39900    235.03395   -161.84769   0.21266366   -161.63503   -2004.8911     4.226945     4.226945     4.226945   -2004.8911   -18900.845    8422.2256    4463.9459   -6872.2301    3060.1828    74.044316    75.523099 
   40000    337.16948   -161.94014   0.30507803   -161.63506     277.2451    4.2244272    4.2244272    4.2244272     277.2451   -15105.304    890.74647    15046.293   -1769.7632   -1089.3955   -3324.4013    75.388222 
   40100    316.90874   -161.92331   0.28674569   -161.63656    6048.1709    4.2237494    4.2237494    4.2237494    6048.1709   -11369.491    14284.699    15229.305   -131.21034    1727.7211   -907.11657    75.351936 
   40200    180.70306   -161.80086   0.16350393   -161.63736    9392.7267    4.2244792    4.2244792    4.2244792    9392.7267    300.78375    13884.639    13992.757   -3820.5881   -4428.5446   -1467.3529    75.391005 
   40300    360.72178   -161.96127   0.32638865   -161.63488   -4088.9095    4.2276955    4.2276955    4.2276955   -4088.9095   -13401.015    3244.8069   -2110.5204    1128.7308    -1973.267   -3191.9806    75.563331 
   40400    207.86743   -161.82345   0.18808282   -161.63537    1385.7072    4.2269377    4.2269377    4.2269377    1385.7072   -19516.694    9747.7234    13926.092   -8396.3693    1177.4284    -3844.151    75.522704 
   40500    298.86644   -161.90628   0.27042064   -161.63586   -463.74662    4.2250869    4.2250869    4.2250869   -463.74662   -15015.343    3732.5888    9891.5146   -1532.5934    977.64015   -4379.6573    75.423546 
   40600    321.26526   -161.92644   0.29068756   -161.63575    4315.5556    4.2218828    4.2218828    4.2218828    4315.5556   -8652.4746    14933.723    6665.4183    1496.6783    4612.8648     1617.949    75.252084 
   40700    274.88565   -161.88378   0.24872232   -161.63506    2333.1605       4.2249       4.2249       4.2249    2333.1605     3983.784    5539.4882   -2523.7906   -2681.4366    -1244.711    -2573.824    75.413538 
   40800    369.57646   -161.96807   0.33440055   -161.63367   -4615.6284    4.2267069    4.2267069    4.2267069   -4615.6284   -1691.6404    170.59172   -12325.836    3351.9333    753.58671     3538.847    75.510335 
   40900    301.77389   -161.90811   0.27305136   -161.63506   -4913.1965    4.2274848    4.2274848    4.2274848   -4913.1965   -16429.867   -5012.2698    6702.5468   -6166.7111    1231.2794    2887.7125    75.552032 
   41000    350.78462    -161.9527    0.3173973    -161.6353   -5457.2452    4.2234199    4.2234199    4.2234199   -5457.2452   -8582.3799   -2172.2533   -5617.1025   -819.97854    2474.3343    -815.6274    75.334303 
   41100    345.54298   -161.94871   0.31265455   -161.63606   -2597.7755    4.2231664    4.2231664    4.2231664   -2597.7755   -6061.6117    3307.5598   -5039.2746    1663.7557    3324.4083    6862.0467     75.32074 
   41200     322.2337   -161.92745   0.29156382   -161.63588   -646.63079    4.2251893    4.2251893    4.2251893   -646.63079    5058.1009   -869.62019   -6128.3731   -3831.9358   -3381.6148     -589.068    75.429027 
   41300    320.86997   -161.92593   0.29032989    -161.6356   -3080.5289    4.2276186    4.2276186    4.2276186   -3080.5289   -3010.9572   -8070.2842    1839.6548    385.99159    810.16714    5579.6472    75.559211 
   41400    338.00903   -161.94087   0.30583767   -161.63504   -4676.7314    4.2252728    4.2252728    4.2252728   -4676.7314   -20347.142   -10714.694    17031.643   -8000.1424   -1320.9814   -96.001587      75.4335 
   41500    249.66748    -161.8612   0.22590438   -161.63529   -517.70938    4.2227313    4.2227313    4.2227313   -517.70938   -12379.317    2226.3138    8599.8747   -3505.1218    3335.5793    1314.0571    75.297465 
   41600    300.63727   -161.90683   0.27202292   -161.63481    2053.0309    4.2228061    4.2228061    4.2228061    2053.0309   -13859.355    4805.3937    15213.054    122.18985    4150.2057    -452.3568    75.301462 
   41700    274.74714   -161.88402   0.24859698   -161.63542    4024.7571    4.2274042    4.2274042    4.2274042    4024.7571    726.38165    3581.2096      7766.68    -2009.605    1705.2961    -6240.598    75.547712 
   41800    208.03191   -161.82488   0.18823165   -161.63664    7797.3291    4.2274999    4.2274999    4.2274999    7797.3291   -1849.8632    784.07668    24457.774    4021.3493    4878.6722   -709.86752    75.552845 
   41900    314.94372   -161.92221    0.2849677   -161.63724   -218.05985     4.226042     4.226042     4.226042   -218.05985    -17815.91   -1217.6264    18379.357   -2467.2894    768.86841   -7100.0261    75.474705 
   42000    218.88455   -161.83549   0.19805134   -161.63743    1743.1166    4.2227604    4.2227604    4.2227604    1743.1166   -14228.272    14989.966    4467.6549    2479.6774    6292.0027   -942.21688    75.299019 
   42100    322.05208   -161.92723   0.29139949   -161.63583   -1706.6532    4.2235821    4.2235821    4.2235821   -1706.6532   -20018.684    11315.027    3583.6976    3240.4173    2560.8233   -2993.0491    75.342983 
   42200    325.28752   -161.93061   0.29432699   -161.63628    339.53034     4.226431     4.226431     4.226431    339.53034   -4057.7947     6210.828   -1134.4422     -2473.09   -397.21325   -4782.2335    75.495549 
   42300    231.70576   -161.84716   0.20965224   -161.63751    4840.6338    4.2270626    4.2270626    4.2270626    4840.6338   -1945.1518    1849.6862    14617.367    2508.2335     872.9374   -2209.0015    75.529401 
   42400    357.07766   -161.95925   0.32309137   -161.63616   -5060.9962    4.2255765    4.2255765    4.2255765   -5060.9962    -12031.13    4716.3499   -7868.2089   -2941.8785   -388.11384   -1676.0488    75.449766 
   42500    217.19391    -161.8327   0.19652162   -161.63618   -1446.7774    4.2227294    4.2227294    4.2227294   -1446.7774   -9071.5751    22489.605   -17758.362   -3387.4676    7366.4327    5300.2375    75.297361 
   42600    323.79297    -161.9293   0.29297469   -161.63633   -3896.0876    4.2252228    4.2252228    4.2252228   -3896.0876   -14919.754    16953.508   -13722.017    176.17134    4113.3015   -2338.2974    75.430821 
   42700    297.83806   -161.90741   0.26949014   -161.63792   -337.20987    4.2284593    4.2284593    4.2284593   -337.20987   -10659.681    12693.924   -3045.8727   -3173.2508    3378.3905      2444.85    75.604295 
   42800    260.36779   -161.87313   0.23558625   -161.63755    3410.3843    4.2276224    4.2276224    4.2276224    3410.3843   -5664.6089    9574.8926    6320.8691    3265.3555    4478.1329      642.607    75.559415 
   42900    311.49911   -161.91784   0.28185094   -161.63599    55.921432    4.2245548    4.2245548    4.2245548    55.921432     -9499.79    15418.731   -5751.1769    637.24255    1855.5292    2363.8104    75.395051 
   43000    225.53358   -161.83982   0.20406752   -161.63576    3075.9103    4.2219508    4.2219508    4.2219508    3075.9103   -13773.293    24238.458   -1237.4334    3002.5292    4882.7267    8763.3779    75.255718 
   43100     300.6024   -161.90737   0.27199136   -161.63538    150.13815    4.2253659    4.2253659    4.2253659    150.13815   -13653.762    15748.308    -1644.131    2244.3123    359.18411    387.15263    75.438486 
   43200    227.50397   -161.84168   0.20585038   -161.63583    5134.7717    4.2276708    4.2276708    4.2276708    5134.7717   -8689.3924    12931.731    11161.976     101.7529   -1132.2203    7524.1796    75.562007 
   43300     275.6549   -161.88432   0.24941835   -161.63491    5790.6266    4.2261964    4.2261964    4.2261964    5790.6266   -1971.5426    2426.6346    16916.788    5132.1619   -628.30301    1653.6072    75.482977 
   43400     273.5806   -161.88372   0.24754148   -161.63618    5378.7962     4.223109     4.223109     4.223109    5378.7962   -274.37908    20327.874   -3917.1065    1815.9398   -3260.6641     2841.505    75.317667 
   43500    316.83499   -161.92399   0.28667896   -161.63731   -3147.8781    4.2234598    4.2234598    4.2234598   -3147.8781   -11465.342    9895.6074   -7873.8999    2124.0907    4751.7315     -117.268    75.336439 
   43600    359.36057   -161.96237     0.325157   -161.63721   -10259.562    4.2266962    4.2266962    4.2266962   -10259.562   -15484.666   -1366.0453   -13927.974   -2874.9347    1698.6349   -5876.1668    75.509762 
   43700    322.24496    -161.9287   0.29157401   -161.63713   -3787.0317    4.2285083    4.2285083    4.2285083   -3787.0317   -18366.472   -8876.6417    15882.018   -4123.8389    1112.2226    2726.7485    75.606921 
   43800    435.91166   -162.02989   0.39442203   -161.63547   -5774.3096    4.2263307    4.2263307    4.2263307   -5774.3096    -9796.897   -10452.403    2926.3715    254.00199    2090.4176   -6067.3777    75.490173 
   43900    312.81181   -161.91795    0.2830387   -161.63491   -4176.4127     4.223187     4.223187     4.223187   -4176.4127   -7769.5492     4145.625   -8905.3139   -2284.4606   -3944.8604    1317.8625     75.32184 
   44000    367.14372   -161.96729   0.33219936   -161.63509   -8584.9479    4.2237447    4.2237447    4.2237447   -8584.9479   -6709.8082   -9342.6257   -9702.4098    937.53582    2185.0232   -1850.6779    75.351688 
   44100    359.89838   -161.96165   0.32564361   -161.63601   -6074.0136    4.2288744    4.2288744    4.2288744   -6074.0136    -11051.81   -6584.7736   -585.45761    1087.5775   -4109.9882   -3507.8909    75.626564 
   44200    268.60572   -161.87988    0.2430401   -161.63684     4948.087    4.2280078    4.2280078    4.2280078     4948.087   -12394.248    960.62306    26277.886    1407.8268   -3426.5562    1197.6741     75.58008 
   44300    367.01293   -161.96883   0.33208101   -161.63674   -2580.7815    4.2253019    4.2253019    4.2253019   -2580.7815   -16683.747    14191.923   -5250.5196    2778.6472   -1769.4427    2662.4955    75.435058 
   44400    175.41026   -161.79628   0.15871489   -161.63756     449.5114     4.222822     4.222822     4.222822     449.5114   -15431.875    20091.322   -3310.9124    1233.5629   -10128.417    6733.0443    75.302313 
   44500    365.27113   -161.96687     0.330505   -161.63636   -1604.8683    4.2248125    4.2248125    4.2248125   -1604.8683    -16306.61    17244.182    -5752.177    723.96957   -482.13454    1025.9435    75.408849 
   44600    155.37102   -161.77844   0.14058296   -161.63786    13029.998    4.2281611    4.2281611    4.2281611    13029.998   -10774.112    20719.604    29144.502   -4074.0416   -4050.2705    3083.0514    75.588301 
   44700    275.96593   -161.88716   0.24969977   -161.63746    7705.9374    4.2270449    4.2270449    4.2270449    7705.9374   -2671.0523    18076.279    7712.5854   -3035.5931   -767.86218   -61.199134    75.528451 
   44800    235.29538   -161.85002   0.21290021   -161.63712    2442.2326    4.2237395    4.2237395    4.2237395    2442.2326   -9379.1918    23661.087   -6955.1971   -2732.8201    801.17551    993.96002     75.35141 
   44900    201.56953   -161.81902   0.18238434   -161.63664   -1654.8592    4.2228241    4.2228241    4.2228241   -1654.8592   -9957.0435    13779.833   -8787.3668   -477.45464   -7309.4724    3902.9503    75.302429 
   45000    382.63613   -161.98154   0.34621721   -161.63532   -4406.8489    4.2258021    4.2258021    4.2258021   -4406.8489    -15912.19    4679.2773   -1987.6339    3446.7335    2329.7648    952.53998    75.461855 
   45100    249.22445   -161.86155   0.22550352   -161.63604    4249.2918    4.2281815    4.2281815    4.2281815    4249.2918   -15321.934    532.70696    27537.103    333.92267   -2428.8356    3626.5234    75.589395 
   45200    390.74566   -161.98963   0.35355488   -161.63608   -6417.8106    4.2272385    4.2272385    4.2272385   -6417.8106   -4945.5146    -6769.227   -7538.6902    3348.5371   -1939.1767    -659.6806    75.538832 
   45300    284.02914   -161.89322   0.25699554   -161.63622   -7160.7595    4.2237977    4.2237977    4.2237977   -7160.7595    -4856.759   -7893.9785   -8731.5411     1176.385    3663.2477    2125.0013    75.354523 
   45400    348.78129   -161.95115   0.31558464   -161.63557   -7028.5133    4.2229503    4.2229503    4.2229503   -7028.5133   -6811.8258   -7721.8048   -6551.9094    2541.3619   -5519.5272   -62.347297    75.309181 
   45500     365.5817   -161.96628     0.330786    -161.6355   -3414.7744    4.2258086    4.2258086    4.2258086   -3414.7744   -7899.6478   -11853.201    9508.5258    1626.0666    3311.2922   -531.99851    75.462201 
   45600    290.08819   -161.89899   0.26247789   -161.63652   -1524.9124    4.2292467    4.2292467    4.2292467   -1524.9124   -12960.914   -6819.0124    15205.189   -731.14986    1859.1423    1658.6791    75.646541 
   45700    367.88546   -161.96917    0.3328705    -161.6363   -8554.6044    4.2270043    4.2270043    4.2270043   -8554.6044   -3560.2404   -8595.7138   -13507.859    -1345.322    377.07609    955.07589    75.526277 
   45800    235.84639   -161.84995   0.21339877   -161.63656   -3526.8246    4.2233707    4.2233707    4.2233707   -3526.8246   -2786.0211   -3419.4883   -4374.9645   -2604.2361    3769.5751    7057.5729    75.331674 
   45900    393.12337   -161.99095   0.35570629   -161.63525   -2730.5122    4.2224155    4.2224155    4.2224155   -2730.5122   -11349.492    2669.2587    488.69716    785.40728   -2725.8925    2881.8062    75.280571 
   46000    223.58815   -161.83787   0.20230725   -161.63556    5224.7001    4.2262049    4.2262049    4.2262049    5224.7001   -12660.922    8590.1439    19744.878    -319.2008    3169.0809    5266.3448    75.483434 
   46100    269.04889   -161.87972   0.24344109   -161.63628    1917.4556    4.2279155    4.2279155    4.2279155    1917.4556   -16821.118    17051.294    5522.1906    2089.0833    1658.3239    3936.2526    75.575126 
   46200    255.21562   -161.86761   0.23092446   -161.63669    2307.1924    4.2255314    4.2255314    4.2255314    2307.1924   -2519.1784    16380.685   -6939.9292    2250.6227   -4164.0693    5597.0075    75.447354 
   46300    154.69883   -161.77756   0.13997475   -161.63759    8556.1115    4.2230568    4.2230568    4.2230568    8556.1115    4883.9352    20478.596     305.8029    1676.4333    1747.2192    10137.478    75.314877 
   46400     368.4827   -161.96922   0.33341089   -161.63581    3545.4999    4.2239399    4.2239399    4.2239399    3545.4999   -6549.8843    16248.291    938.09294    4523.2905   -1588.7517   -218.54399    75.362136 
   46500     168.5616   -161.78915   0.15251808   -161.63663    8945.6303    4.2264057    4.2264057    4.2264057    8945.6303   -11982.339    21446.359    17372.871    1387.6375    3308.1801    3209.7927    75.494193 
   46600    357.61646   -161.95876   0.32357889   -161.63519   -4162.4085    4.2275032    4.2275032    4.2275032   -4162.4085   -18925.506    18165.406   -11727.126     145.3311    3103.8889   -209.56881    75.553023 
   46700    335.30897   -161.94018    0.3033946   -161.63679   -3756.2688    4.2242199    4.2242199    4.2242199   -3756.2688   -9688.7838    4005.2341   -5585.2567   -3656.1803   -446.28316    1546.5493    75.377124 
   46800    279.01888   -161.88805   0.25246215   -161.63559   -499.84137    4.2228419    4.2228419    4.2228419   -499.84137    -1926.818    4870.0173   -4442.7234   -3274.2262     3295.051    5923.2938    75.303377 
   46900    446.81075   -162.03844   0.40428375   -161.63416    -3567.066     4.224512     4.224512     4.224512    -3567.066   -8365.4022   -15.401361   -2320.3943   -1709.1412    -2411.931   -4436.7947    75.392762 
   47000    255.00613   -161.86705   0.23073491   -161.63632    2775.3979    4.2268456    4.2268456    4.2268456    2775.3979   -6770.8397    6362.8364    8734.1969   -1314.1549    18.886098    800.70221     75.51777 
   47100    390.46476   -161.99057   0.35330072   -161.63727   -5471.8681    4.2271412    4.2271412    4.2271412   -5471.8681    -9581.031    2620.6189   -9455.1923    2233.9811   -1154.9724   -6528.0518    75.533613 
   47200    375.38864    -161.9767   0.33965953   -161.63704   -6762.6588    4.2247365    4.2247365    4.2247365   -6762.6588   -11080.542   -12578.653    3371.2183   -1504.5669   -3722.3885     2491.479    75.404782 
   47300    317.80669   -161.92267   0.28755818   -161.63511    -3090.697    4.2228119    4.2228119    4.2228119    -3090.697   -4344.2382   -5820.3394    892.48664    562.64639   -403.92589    812.50444    75.301773 
   47400      396.762   -161.99289   0.35899859   -161.63389   -2950.9844    4.2247949    4.2247949    4.2247949   -2950.9844   -13158.473   -5907.9592    10213.479    952.21245   -3900.2382    -5174.228     75.40791 
   47500    299.53011   -161.90598   0.27102114   -161.63496      1044.33    4.2279991    4.2279991    4.2279991      1044.33   -12098.868     5733.854    9498.0036    289.12487    411.77586    6143.0522    75.579609 
   47600    327.24906    -161.9307   0.29610183    -161.6346   -155.07979    4.2272881    4.2272881    4.2272881   -155.07979   -4530.1086   -1139.6416    5204.5108    2374.2385    19.021328   -2532.4184    75.541488 
   47700    321.76135   -161.92573   0.29113643   -161.63459    1388.1644    4.2227706    4.2227706    4.2227706    1388.1644   -8012.2042   -6545.1628     18721.86   -1881.0504    418.27815    4658.5393    75.299563 
   47800     236.4913   -161.84937    0.2139823   -161.63539    3973.2096    4.2225688    4.2225688    4.2225688    3973.2096   -4245.5341    2097.6597    14067.503   -4191.0893    1689.7463    3189.3925    75.288771 
   47900    295.74917   -161.90276   0.26760006   -161.63516    993.89415    4.2258221    4.2258221    4.2258221    993.89415   -13295.411     165.9371    16111.156   -603.96936   -842.07779    1322.2477    75.462922 
   48000    355.48729   -161.95666   0.32165237   -161.63501   -3312.6899    4.2285982    4.2285982    4.2285982   -3312.6899   -14171.582    7652.6774   -3419.1651   -1452.7528    2451.5669     4758.719    75.611743 
   48100    267.96711   -161.87774   0.24246228   -161.63528    2991.5247    4.2247654    4.2247654    4.2247654    2991.5247   -1084.4444    4188.0618    5870.9568    2994.5733   -1269.2659   -878.42877    75.406328 
   48200    364.47483   -161.96481   0.32978448   -161.63503     808.7751    4.2209422    4.2209422    4.2209422     808.7751    -7310.534    4150.5506    5586.3087    2447.6973    1311.7041    4364.3973    75.201795 
   48300    326.07975   -161.93031   0.29504381   -161.63527   -1546.0426    4.2223998    4.2223998    4.2223998   -1546.0426   -8750.2454    8218.1541   -4106.0365   -1186.1294   -860.47806   -4786.8112    75.279731 
   48400    325.32757   -161.92912   0.29436322   -161.63476   -5315.5172    4.2278176    4.2278176    4.2278176   -5315.5172   -15687.252    16.926383   -276.22569    479.86391   -2650.9698   -559.94455    75.569879 
   48500     378.0987   -161.97687   0.34211165   -161.63476   -5362.2987    4.2280555    4.2280555    4.2280555   -5362.2987    -10831.44    9129.8475   -14385.303   -68.797395     1205.683   -416.90265    75.582639 
   48600    314.19889   -161.92143   0.28429376   -161.63714    965.92713    4.2256644    4.2256644    4.2256644    965.92713     -2394.94    6534.1997   -1241.4783    2793.6526   -1222.1636   -3577.9928    75.454479 
   48700    395.64522   -161.99439   0.35798811    -161.6364   -1314.4368     4.222201     4.222201     4.222201   -1314.4368   -2660.2524     3948.607   -5231.6651    1153.5208    2558.2753   -2907.5377    75.269099 
   48800     357.0457   -161.95861   0.32306245   -161.63554   -7799.7483    4.2253456    4.2253456    4.2253456   -7799.7483   -14020.846    1652.8431   -11031.242    -1283.373   -1522.1766   -7542.6203      75.4374 
   48900    405.66075   -162.00135   0.36705037    -161.6343   -12895.127    4.2283706    4.2283706    4.2283706   -12895.127   -20273.156   -8879.5106   -9532.7145    792.10144   -1543.0206   -1584.0548    75.599535 
   49000    325.88873   -161.93082   0.29487097   -161.63595   -6116.6251    4.2283641    4.2283641    4.2283641   -6116.6251   -12171.821   -270.62427   -5907.4303    -769.6952    1524.8947    -7794.755    75.599186 
   49100     430.0954   -162.02487   0.38915936   -161.63571   -2358.7443    4.2240489    4.2240489    4.2240489   -2358.7443   -6272.5675   -2642.0732     1838.408   -1025.5495   -3711.8949   -1635.4345    75.367967 
   49200    347.31149   -161.95029   0.31425474   -161.63604    1029.8954    4.2224387    4.2224387    4.2224387    1029.8954    2668.8199   -4516.3291    4937.1953    3904.7778    447.17518   -4454.4573    75.281811 
   49300    331.37143   -161.93543   0.29983183    -161.6356   -4762.9277    4.2260877    4.2260877    4.2260877   -4762.9277   -10363.603   -5756.5299    1831.3496   -84.152228    -2346.345    -7059.492    75.477153 
   49400    389.87614   -161.98861   0.35276813   -161.63584   -8405.5406    4.2291054    4.2291054    4.2291054   -8405.5406   -20792.005   -7482.7164    3058.0999   -441.30803   -1890.3749    142.93828    75.638957 
   49500     259.4157   -161.87256   0.23472478   -161.63784    503.91459    4.2270891    4.2270891    4.2270891    503.91459   -14307.954    3559.1214    12260.577   -253.16979     1951.627   -6296.9698    75.530823 
   49600    424.44675    -162.0207   0.38404834   -161.63665   -389.15932    4.2213058    4.2213058    4.2213058   -389.15932    -10603.57   -4642.2209    14078.313   -794.31353   -2089.2973    719.26741    75.221234 
   49700    238.88113   -161.85282   0.21614466   -161.63668     7108.376    4.2215452    4.2215452    4.2215452     7108.376    4355.1061    2773.9328    14196.089    2319.2277     3389.567   -6911.0313    75.234033 
   49800    328.78447     -161.933    0.2974911   -161.63551   -288.39263    4.2266437    4.2266437    4.2266437   -288.39263   -8327.7913   -3360.8988    10823.512   -538.70233    1408.3903    2815.3903    75.506947 
   49900    312.17124   -161.91735    0.2824591   -161.63489   -1605.3415    4.2293156    4.2293156    4.2293156   -1605.3415    -15835.95   -2203.9579    13223.884   -1997.5635     777.4734     1660.142    75.650233 
   50000    243.22046   -161.85592   0.22007098   -161.63585    3919.9422    4.2252643    4.2252643    4.2252643    3919.9422   -12707.472    8958.0745    15509.224   -2225.7816    5160.7599    2002.0647    75.433047 
   50100    321.04493   -161.92652    0.2904882   -161.63603    4991.6772    4.2206832    4.2206832    4.2206832    4991.6772   -10946.486    2563.4112    23358.106    -5629.407    -565.0709    8504.8455    75.187953 
   50200    199.56304   -161.81746   0.18056883   -161.63689    7459.4118    4.2240302    4.2240302    4.2240302    7459.4118    -4081.456    11767.593    14692.098   -573.67725    2455.1123   -1786.0845    75.366969 
   50300    324.56448   -161.92964   0.29367276   -161.63597   -260.39907    4.2291031    4.2291031    4.2291031   -260.39907   -11335.513   -233.55708    10787.873   -168.67033   -339.35699      3540.88    75.638834 
   50400     302.6157    -161.9092   0.27381304   -161.63539    637.38228    4.2287339    4.2287339    4.2287339    637.38228   -11531.287   -3295.2682    16738.702   -265.10392    -2146.534    734.25586    75.619026 
   50500    280.41263   -161.88965   0.25372324   -161.63592    2180.7043     4.222983     4.222983     4.222983    2180.7043   -4689.3565    1451.9146    9779.5548    1926.7766    2597.1102    3719.3969    75.310926 
   50600    317.74901   -161.92331   0.28750598    -161.6358    2184.4319    4.2198544    4.2198544    4.2198544    2184.4319   -778.68731   -7874.4255    15206.409   -1980.6916   -4278.6731   -398.16922    75.143667 
   50700    335.43358   -161.93835   0.30350735   -161.63484   -2667.8249    4.2259541    4.2259541    4.2259541   -2667.8249    -3980.069   -5688.8311    1665.4254    1203.8542    2748.9199   -3360.3232    75.469997 
   50800    363.84159    -161.9638   0.32921152   -161.63459   -3010.7374    4.2290923    4.2290923    4.2290923   -3010.7374   -6010.5042   -10771.611    7749.9032   -32.522758    61.007701    -447.9344    75.638255 
   50900    345.58064     -161.949   0.31268863   -161.63631   -2712.3088    4.2282415    4.2282415    4.2282415   -2712.3088   -15346.061   -5971.1429    13180.278    -3360.355    718.80641   -4648.9223    75.592614 
   51000    345.41335   -161.94876   0.31253725   -161.63622   -416.05824     4.220967     4.220967     4.220967   -416.05824   -3426.3905    50.491387    2127.7244   -1088.8013    5408.0077    3039.1788     75.20312 
   51100    324.29484   -161.92919   0.29342878   -161.63576   -2855.2974    4.2206835    4.2206835    4.2206835   -2855.2974   -6528.1451   -4762.1028    2724.3557    -2983.221   -1290.0681    96.413257    75.187968 
   51200     363.7625    -161.9642   0.32913995   -161.63506   -6453.8563    4.2277205    4.2277205    4.2277205   -6453.8563   -18535.185   -1069.3653    242.98162    623.06933    5970.6604   -680.94029    75.564674 
   51300    301.21146   -161.90682   0.27254246   -161.63428   -1526.1265    4.2304932    4.2304932    4.2304932   -1526.1265   -12524.098   -234.13218    8179.8508     2393.773    510.30988   -25.965314    75.713447 
   51400    244.59836    -161.8555   0.22131774   -161.63418    4852.7425    4.2263436    4.2263436    4.2263436    4852.7425   -11858.376    17125.916    9290.6883    2044.2376   -1312.1967   -659.59405    75.490863 
   51500    323.35762   -161.92734   0.29258077   -161.63476    3017.9824    4.2210157    4.2210157    4.2210157    3017.9824    2818.1788     11727.65   -5491.8816    3666.3769    2163.1392    4065.0377    75.205727 
   51600    261.89413    -161.8727   0.23696731   -161.63573   -1244.5187    4.2235362    4.2235362    4.2235362   -1244.5187   -3094.1036    4233.9602   -4873.4128    402.19273   -3663.3939     4583.987    75.340528 
   51700      366.014   -161.96635   0.33117716   -161.63517    -8023.341    4.2296609    4.2296609    4.2296609    -8023.341    -17601.05   -4591.2636   -1877.7094    1891.4786    375.87659    6104.0959    75.668765 
   51800    264.12131   -161.87579   0.23898251   -161.63681   -1354.2708    4.2292878    4.2292878    4.2292878   -1354.2708   -16065.055    -3538.452    15540.694   -877.84586    -4183.975    4485.3555    75.648746 
   51900    307.19383   -161.91462   0.27795543   -161.63667   -1025.5993    4.2233828    4.2233828    4.2233828   -1025.5993   -12967.938    12357.412   -2466.2719   -2998.5904   -3433.5468    4777.6775    75.332317 
   52000    328.65838   -161.93327   0.29737701    -161.6359   -2432.3502    4.2187912    4.2187912    4.2187912   -2432.3502    4855.5173   -3821.7814   -8330.7864    87.435864    187.74795    11814.455    75.086884 
   52100    242.10614    -161.8548   0.21906272   -161.63574   -3220.8519    4.2229136    4.2229136    4.2229136   -3220.8519    1957.4136   -5074.8569   -6545.1125   -1701.5277   -1684.7551    6543.6331    75.307214 
   52200    307.50211   -161.91326   0.27823437   -161.63502   -4168.7322     4.229929     4.229929     4.229929   -4168.7322   -6528.9406   -10124.822    4147.5664    709.25793    3383.6313    5272.1698    75.683153 
   52300    248.96939   -161.86069   0.22527274   -161.63542    3760.2778    4.2284644    4.2284644    4.2284644    3760.2778   -9265.0132    1306.0508    19239.796    2109.6284    574.71368    4889.6835    75.604567 
   52400    311.67467    -161.9182   0.28200979   -161.63619   -1522.7013    4.2235546    4.2235546    4.2235546   -1522.7013   -12693.095    9050.8753    -925.8837    130.96738    4219.2414    6357.0895    75.341516 
   52500    290.47147   -161.89949   0.26282469   -161.63666   -3579.6622      4.22002      4.22002      4.22002   -3579.6622   -4995.2307   -7759.7252    2015.9695    2425.8711     4791.472     9173.288    75.152515 
   52600    261.56681   -161.87318   0.23667115   -161.63651   -3566.5432    4.2256847    4.2256847    4.2256847   -3566.5432   -9958.8962   -3164.5562    2423.8227    1260.4182   -780.76646    2426.6337    75.455566 
   52700    292.64289   -161.90001   0.26478943   -161.63522   -1034.1213    4.2304202    4.2304202    4.2304202   -1034.1213   -5709.4186   -10287.633    12894.688    2446.6853    1599.5224    1733.0295    75.709525 
   52800    221.62979   -161.83633   0.20053529    -161.6358     6961.346    4.2279718    4.2279718    4.2279718     6961.346   -10061.552    8709.1857    22236.405     1136.143   -939.29811    561.44269    75.578148 
   52900    260.34012   -161.87072   0.23556121   -161.63516    1951.7765    4.2216888    4.2216888    4.2216888    1951.7765   -6777.6601    7155.1061    5477.8836   -3822.2832    172.82166    3370.6683    75.241708 
   53000    239.76797   -161.85255    0.2169471    -161.6356   -1825.5443    4.2206554    4.2206554    4.2206554   -1825.5443   -1752.4421   -4767.8984    1043.7077    4397.8449   -139.67458    3488.4494    75.186467 
   53100    243.00751   -161.85506   0.21987831   -161.63518   -1865.7554    4.2265739    4.2265739    4.2265739   -1865.7554   -7286.3871    2867.9349    -1178.814   -2874.6586    -596.3755   -2692.5895    75.503207 
   53200    335.42016   -161.93928   0.30349521   -161.63578   -2660.0636    4.2308745    4.2308745    4.2308745   -2660.0636   -1505.6573   -6327.3232   -147.21015   -850.84294    2091.3948   -3050.5644    75.733921 
   53300    255.53528   -161.86831   0.23121369    -161.6371    3247.2459     4.227641     4.227641     4.227641    3247.2459   -13470.184    17078.917    6133.0049   -371.09163    1723.7742   -2186.7057    75.560407 
   53400    344.67263   -161.94786   0.31186704   -161.63599   -2350.9667    4.2202594    4.2202594    4.2202594   -2350.9667   -12817.942    14314.991   -8549.9492    -4767.032    6497.9272    2435.3004    75.165309 
   53500    247.97551   -161.86074   0.22437345   -161.63637    -3663.109    4.2212959    4.2212959    4.2212959    -3663.109   -12659.651    12918.659   -11248.335    5883.2445    4926.6416    1631.0749    75.220705 
   53600    276.39519   -161.88671   0.25008818   -161.63663   -3136.5936    4.2276781    4.2276781    4.2276781   -3136.5936   -12868.368    10848.204   -7389.6164    841.67764   -714.22353    2621.5188      75.5624 
   53700    304.18386   -161.91168   0.27523195   -161.63644   -878.20522    4.2313993    4.2313993    4.2313993   -878.20522   -6136.1337    3705.5458   -204.02776    3172.6057    1268.8402    2683.4296    75.762106 
   53800    191.17806   -161.80908   0.17298193    -161.6361    10180.355    4.2245131    4.2245131    4.2245131    10180.355   -3911.7208    25170.497    9282.2891    3674.1562   -1959.8517    1522.7055    75.392819 
   53900    335.82265    -161.9387   0.30385939   -161.63484    4915.6364    4.2188776    4.2188776    4.2188776    4915.6364   -6159.5147    17404.513    3501.9116    1413.6879    586.35415    2816.0589    75.091501 
   54000     209.8318    -161.8256   0.18986023   -161.63574     1664.623    4.2214927    4.2214927    4.2214927     1664.623   -17272.702    18560.779    3705.7917    6036.2462     3075.563    3943.5649    75.231224 
   54100    339.63353   -161.94267   0.30730756   -161.63536   -7519.7256    4.2285687    4.2285687    4.2285687   -7519.7256   -23841.618   -2743.3261    4025.7673   -447.36406   -87.014092    6139.7033    75.610162 
   54200    310.07871   -161.91663   0.28056573   -161.63607   -3495.1171    4.2303275    4.2303275    4.2303275   -3495.1171   -18629.322    2063.0998    6080.8703   -645.23902    3341.2815    2510.4755    75.704545 
   54300    224.96614   -161.83882   0.20355409   -161.63526    9340.7559    4.2227984    4.2227984    4.2227984    9340.7559   -2177.8062    16526.645    13673.429    497.79474     1611.645    1498.7066    75.301055 
   54400    359.51819   -161.95951   0.32529961   -161.63421    7219.4174    4.2192694    4.2192694    4.2192694    7219.4174    1795.9473    12153.535    7708.7695   -3196.1751    2651.5662      2135.97     75.11242 
   54500    270.31527   -161.87995   0.24458694   -161.63536    3130.7519     4.222421     4.222421     4.222421    3130.7519   -7119.3158    14131.657    2379.9143    2723.6568    3627.4233    1270.7224    75.280867 
   54600    336.66784   -161.93952   0.30462414    -161.6349    -7824.386    4.2296605    4.2296605    4.2296605    -7824.386   -15929.966   -8258.7441    715.55184   -1997.2021   -1338.6515    4269.8068    75.668746 
   54700    376.04939    -161.9761   0.34025739   -161.63584   -9267.5883    4.2297285    4.2297285    4.2297285   -9267.5883   -20867.138   -4644.9475   -2290.6792    -1222.526    141.15458    553.07623    75.672394 
   54800    284.67578   -161.89368   0.25758063    -161.6361    908.90542    4.2220137    4.2220137    4.2220137    908.90542   -10267.791     10365.48    2629.0272    3112.2921   -5074.7675   -211.42309    75.259082 
   54900    467.77861   -162.05698   0.42325592   -161.63372   -2359.8576    4.2195701    4.2195701    4.2195701   -2359.8576   -8989.8388     7012.568   -5102.3021   -2155.8287   -4416.0908   -1961.3949    75.128483 
   55000    341.50259   -161.94401   0.30899872   -161.63501    -119.5628    4.2231466    4.2231466    4.2231466    -119.5628   -13688.788    9514.0703    3816.0297    3672.5829    -642.4286   -2360.2402    75.319679 
   55100    346.95428    -161.9484   0.31393152   -161.63447   -8029.3307    4.2289528    4.2289528    4.2289528   -8029.3307   -11932.836   -8828.6456   -3326.5106     1402.323   -3881.4227    1100.9428    75.630767 
   55200    420.21018   -162.01467     0.380215   -161.63445   -11333.556    4.2284901    4.2284901    4.2284901   -11333.556   -14706.883   -10382.945   -8910.8411   -1326.3066    437.20092   -3117.2185    75.605947 
   55300    298.69233   -161.90474    0.2702631   -161.63448   -1675.9335    4.2230467    4.2230467    4.2230467   -1675.9335   -7587.4517   -2215.1561    4774.8074     4124.812   -3033.6121    -1063.164    75.314334 
   55400    434.72921   -162.02662   0.39335212   -161.63326     1846.155    4.2198176    4.2198176    4.2198176     1846.155    540.58339    2539.0842    2458.7974   -2151.8612   -1584.0319    1693.1156    75.141703 
   55500    292.81007   -161.90001    0.2649407   -161.63507    6688.5361    4.2233823    4.2233823    4.2233823    6688.5361   -7669.0979    13725.222    14009.484    854.19794    850.64358   -398.98059    75.332294 
   55600    349.78279   -161.95167   0.31649082   -161.63518   -4724.0978    4.2285589    4.2285589    4.2285589   -4724.0978   -9908.9238   -5630.7725    1367.4029   -1973.5056   -1099.1338    3799.1716    75.609638 
   55700    440.74342   -162.03314   0.39879391   -161.63435   -10982.239    4.2276523    4.2276523    4.2276523   -10982.239   -19600.304   -9116.8893   -4229.5252   -4439.5412    990.97043   -172.44518    75.561014 
   55800    275.28124   -161.88315   0.24908025   -161.63407    263.96263    4.2215111    4.2215111    4.2215111    263.96263   -12604.708     1395.209    12001.387    5253.4009   -2549.1532    3296.3571    75.232206 
   55900    364.15536   -161.96281   0.32949542   -161.63331    5152.2524      4.21902      4.21902      4.21902    5152.2524   -4360.7089    9324.2645    10493.202   -1400.6562   -2258.7452    3127.6746    75.099103 
   56000    300.32071    -161.9061   0.27173649   -161.63437    9269.5987    4.2232604    4.2232604    4.2232604    9269.5987   -9067.2815    15537.025    21339.053    2424.6372   -1411.7972    2174.9019    75.325771 
   56100    290.46427   -161.89799   0.26281817   -161.63518    208.10475    4.2294495    4.2294495    4.2294495    208.10475   -3412.7661   -1526.9578    5564.0381    3290.8106   -3285.4278    4629.6913    75.657422 
   56200    362.93245   -161.96199   0.32838891    -161.6336   -6715.1308    4.2272911    4.2272911    4.2272911   -6715.1308   -10556.128   -4648.1623    -4941.102   -2350.6087    922.94544   -63.860194    75.541651 
   56300    278.84174   -161.88658   0.25230187   -161.63428   -1816.4457    4.2218613    4.2218613    4.2218613   -1816.4457   -12023.539    923.27175    5650.9303    8179.2393   -2510.6329    4963.5196    75.250933 
   56400      368.386   -161.96795   0.33332339   -161.63463     673.6157    4.2210762    4.2210762    4.2210762     673.6157   -7366.9103    6964.0547    2423.7027    310.91132    1075.8886    1321.4896    75.208961 
   56500     392.6013   -161.99009    0.3552339   -161.63486   -406.90568    4.2259504    4.2259504    4.2259504   -406.90568   -14727.882    9083.4827     4423.682   -549.97514    2724.7632    -1252.094    75.469798 
   56600    319.96813   -161.92397   0.28951389   -161.63446    -5107.871    4.2289614    4.2289614    4.2289614    -5107.871    -305.3443   -5360.4379   -9657.8307    858.43155    1961.9957    2429.5289    75.631228 
   56700    391.26306   -161.98781   0.35402304   -161.63378   -10949.351      4.22592      4.22592      4.22592   -10949.351   -4429.0018   -16375.749   -12043.302   -5537.7199    2370.8981   -3793.6337    75.468167 
   56800    349.23458   -161.95078   0.31599479   -161.63478   -5718.7926    4.2220448    4.2220448    4.2220448   -5718.7926   -6315.6187   -11410.141    569.38172    5586.5924   -425.93771    61.490733    75.260745 
   56900    271.58478   -161.88096   0.24573562   -161.63523    3675.9113    4.2207941    4.2207941    4.2207941    3675.9113    2250.9777    3602.0867    5174.6696    5167.5821   -244.94956   -927.93984    75.193879 
   57000    374.88382   -161.97394   0.33920275   -161.63474   -930.41378    4.2264159    4.2264159    4.2264159   -930.41378   -8132.3151    624.15297    4716.9208     1695.197   -1898.5412    -84.47485    75.494739 
   57100    228.17394   -161.84191   0.20645657   -161.63546    1454.4007    4.2277226    4.2277226    4.2277226    1454.4007    7793.1572    86.834031   -3516.7891    4272.2438   -1398.3587    1271.1739    75.564784 
   57200    306.74902   -161.91355   0.27755296     -161.636   -2828.7993    4.2244999    4.2244999    4.2244999   -2828.7993    888.68994    -11540.14    2165.0516   -45.697575   -2878.9389   -2830.1151    75.392111 
   57300    265.64222   -161.87652   0.24035867   -161.63616      2396.47    4.2207048    4.2207048    4.2207048      2396.47   -3647.6033   -3277.9911    14115.004    6793.0779   -4813.3956    6182.5019    75.189108 
   57400    202.04219   -161.81903   0.18281202   -161.63622    8557.8177    4.2213721    4.2213721    4.2213721    8557.8177   -1864.4072    6909.6357    20628.225    6250.4277   -609.83465    46.590956    75.224774 
   57500    342.18356   -161.94482   0.30961487   -161.63521   -983.79399     4.227375     4.227375     4.227375   -983.79399   -12592.477    1338.1692    8302.9259    1292.6925    549.70729     1713.587    75.546147 
   57600    193.03336    -161.8097   0.17466064   -161.63504    2825.8107    4.2279665    4.2279665    4.2279665    2825.8107    4851.6733    6247.5778   -2621.8188    2626.0636    3161.6085    3790.0599    75.577866 
   57700    357.85675   -161.95717   0.32379631   -161.63338   -5027.1718    4.2244625    4.2244625    4.2244625   -5027.1718    -5752.091   -4580.0713   -4749.3531   -604.65069    695.88611   -4741.2599    75.390109 
   57800    289.85693   -161.89623   0.26226864   -161.63396   -1801.6645    4.2218352    4.2218352    4.2218352   -1801.6645   -369.24157   -1221.4938   -3814.2581    2497.4518    2103.4885    134.78619    75.249534 
   57900    299.27537   -161.90492   0.27079064   -161.63413   -2426.6981    4.2233291    4.2233291    4.2233291   -2426.6981   -5847.3353    466.71108   -1899.4699    4310.6211    903.24508    1074.4041    75.329449 
   58000    334.64312   -161.93733   0.30279213   -161.63453   -5318.8066    4.2278025    4.2278025    4.2278025   -5318.8066   -4310.2393   -2197.4385    -9448.742   -765.63548    2762.7016   -2028.4926    75.569067 
   58100    235.58718   -161.84845   0.21316423   -161.63529    500.67419    4.2262778    4.2262778    4.2262778    500.67419    8631.4337    3712.8135   -10842.225    1279.0609    2668.0645   -1589.8514    75.487342 
   58200    311.18532   -161.91705   0.28156702   -161.63548   -1512.1497     4.223727     4.223727     4.223727   -1512.1497   -2327.2552    1721.3427   -3930.5365    1929.0277   -922.37297    -5430.944    75.350741 
   58300    188.73902   -161.80655   0.17077503   -161.63578    4263.2584    4.2208022    4.2208022    4.2208022    4263.2584    7209.7816    3291.7674    2288.2264    3980.9444   -1693.1068    35.988706    75.194313 
   58400    227.11133   -161.84141    0.2054951   -161.63591    1957.5382    4.2232068    4.2232068    4.2232068    1957.5382   -4413.9795     3501.647    6784.9469    5010.1882   -3563.1765   -2147.9013    75.322901 
   58500    201.16104   -161.81773   0.18201474   -161.63572    3928.2006     4.225963     4.225963     4.225963    3928.2006    9227.6888   -1229.3052    3786.2183    547.18026    761.79265   -1312.7134    75.470475 
   58600    219.27119   -161.83422   0.19840118   -161.63582     5266.895    4.2252481    4.2252481    4.2252481     5266.895    8222.2702    5293.0758    2285.3391    2487.1195   -2315.1663    2200.5457     75.43218 
   58700    235.77849   -161.84937   0.21333733   -161.63603    3877.0945    4.2231728    4.2231728    4.2231728    3877.0945   -913.46145     8547.457    3997.2881    2153.9393   -117.68399    -5828.889    75.321081 
   58800    237.02634   -161.85064   0.21446642   -161.63617   -310.74931     4.222493     4.222493     4.222493   -310.74931    605.65501    4122.2109   -5660.1138    4116.0792   -2452.5159    2019.0072    75.284715 
   58900    290.09497   -161.89765   0.26248403   -161.63517   -4087.5726    4.2244561    4.2244561    4.2244561   -4087.5726   -9276.2094    4419.5424   -7406.0509    3661.7782   -1115.4054    2524.4723    75.389766 
   59000    310.51912   -161.91549   0.28096423   -161.63453   -3301.8173    4.2264688    4.2264688    4.2264688   -3301.8173    714.24992   -2210.4382   -8409.2638    1256.1105    5205.0771   -2524.2596    75.497572 
   59100    314.29719   -161.91804    0.2843827   -161.63366   -1226.5537    4.2259561    4.2259561    4.2259561   -1226.5537   -5988.2642    7956.0746   -5647.4714    1568.9978     108.8607   -484.13864    75.470103 
   59200    307.21336   -161.91204    0.2779731   -161.63407   -989.15982     4.224403     4.224403     4.224403   -989.15982   -8737.6323    8617.5603   -2847.4075   -1248.6217    1644.9582   -5111.0349    75.386926 
   59300    322.64936   -161.92623   0.29193992   -161.63429   -4122.6229    4.2235678    4.2235678    4.2235678   -4122.6229   -4492.3158   -1362.5399   -6513.0131    2451.1102   -1095.0004   -1582.4137     75.34222 
   59400    253.46856     -161.864   0.22934368   -161.63465   -916.50954    4.2251216    4.2251216    4.2251216   -916.50954    -9251.696    292.47488    6209.6925   -2179.7879   -1052.5043   -3272.7259    75.425404 
   59500    277.53052    -161.8854   0.25111545   -161.63429    2872.2342    4.2256993    4.2256993    4.2256993    2872.2342    705.02662   -4750.5302    12662.206   -2775.3301    1201.9403   -3105.8541    75.456345 
   59600    251.56058   -161.86268    0.2276173   -161.63507    7353.8982    4.2248126    4.2248126    4.2248126    7353.8982    838.80232    9541.4289    11681.463   -1761.6173   -4472.4768   -2229.8875    75.408856 
   59700    262.16545   -161.87328    0.2372128   -161.63606    5574.2519    4.2236739    4.2236739    4.2236739    5574.2519    502.63911    3480.0741    12740.043   -2300.1603    1266.2437   -7428.9639      75.3479 
   59800    317.39847   -161.92325   0.28718881   -161.63606   -1928.0572    4.2226751    4.2226751    4.2226751   -1928.0572   -455.26218   -6717.7668    1388.8573    2447.8354   -3278.5074    2912.9276    75.294458 
   59900    276.75845   -161.88574   0.25041687   -161.63533   -4008.7979     4.224355     4.224355     4.224355   -4008.7979   -8753.0388   -4587.1858    1313.8309    -3343.334   -744.29111    2478.7705    75.384353 
   60000    356.54816   -161.95666   0.32261227   -161.63405   -3134.5487    4.2254083    4.2254083    4.2254083   -3134.5487    -3520.444   -10045.496    4162.2934   -25.948006    4034.8939   -1019.4776    75.440758 
   60100    379.57003   -161.97831   0.34344294   -161.63487    638.39862     4.224218     4.224218     4.224218    638.39862   -11015.355    7572.3775    5358.1732    1152.9074   -1909.7962    2218.5896     75.37702 
   60200    345.56339   -161.94791   0.31267302   -161.63524   -612.85787     4.223029     4.223029     4.223029   -612.85787   -4339.1177   -2101.7872    4602.3313   -1095.4084    3493.4354   -3667.8875    75.313387 
   60300    404.71383   -162.00061   0.36619357   -161.63442   -9795.9785    4.2235698    4.2235698    4.2235698   -9795.9785   -6874.6682   -12398.281   -10114.986    4896.4108   -113.34443    1971.3261    75.342328 
   60400    336.82968   -161.93919   0.30477058   -161.63442   -9953.1449    4.2252663    4.2252663    4.2252663   -9953.1449   -11782.594   -9204.5796   -8872.2613   -5446.3459    731.24733    37.193594    75.433154 
   60500    324.00366   -161.92737   0.29316532    -161.6342    -249.6179    4.2245872    4.2245872    4.2245872    -249.6179    2450.9947   -7234.3901    4034.5417    -2115.022    2708.1063   -312.99846    75.396787 
   60600    403.18592   -161.99853    0.3648111   -161.63372    3833.3112    4.2233945    4.2233945    4.2233945    3833.3112   -3786.8854    8064.7569    7222.0621   -1199.4073    310.11372   -1030.4428    75.332946 
   60700    239.69557   -161.85148   0.21688159   -161.63459    7694.2014    4.2231474    4.2231474    4.2231474    7694.2014    8327.4792    2705.4708    12049.654   -4364.4348     -272.917   -5341.3679    75.319726 
   60800      348.755   -161.94956   0.31556085     -161.634   -3949.1137    4.2260711    4.2260711    4.2260711   -3949.1137   -3473.7034   -8398.0755    24.437925    1355.5822   -3926.5382    1277.9247    75.476263 
   60900    315.21178   -161.91971   0.28521024    -161.6345   -4656.4304    4.2259206    4.2259206    4.2259206   -4656.4304   -6441.9682   -8694.7962    1167.4732   -4421.1536   -1806.4736   -3295.8988    75.468201 
   61000    284.30705    -161.8924     0.257247   -161.63515    1624.8135    4.2248913    4.2248913    4.2248913    1624.8135    6183.7984   -10427.721    9118.3636   -3020.3492   -2776.8178   -2505.0169     75.41307 
   61100    422.87119   -162.01702   0.38262274    -161.6344    1308.3274    4.2228406    4.2228406    4.2228406    1308.3274   -8059.8153   -297.20426    12282.002    427.70763   -1609.1515    2572.0095    75.303308 
   61200    280.79646    -161.8888   0.25407054   -161.63473    1867.5955    4.2238527    4.2238527    4.2238527    1867.5955   -673.10607   -3285.4328    9561.3253    185.73817   -32.174658   -3222.0159    75.357466 
   61300    415.46832   -162.00918   0.37592446   -161.63326   -9124.4938    4.2251327    4.2251327    4.2251327   -9124.4938   -10624.746   -11898.213   -4850.5224     5140.598    1360.4378    363.87294    75.425995 
   61400    403.39202   -161.99947   0.36499758   -161.63448   -11406.875    4.2270627    4.2270627    4.2270627   -11406.875   -12427.185   -14149.537    -7643.903   -673.97987    3130.6101     1187.127    75.529407 
   61500    312.94412   -161.91782   0.28315842   -161.63466   -1166.5872    4.2256315    4.2256315    4.2256315   -1166.5872    9166.3221   -12653.411   -12.672419   -859.21729    2159.3556    1178.5019    75.452716 
   61600    435.89275   -162.02816   0.39440492   -161.63376    127.46014    4.2222672    4.2222672    4.2222672    127.46014   -860.08807    787.06722    455.40128   -385.05025    4826.0779    2981.0355    75.272639 
   61700    275.41969   -161.88392   0.24920552   -161.63472    4262.3852    4.2231145    4.2231145    4.2231145    4262.3852    6133.2444     4033.458    2620.4533   -1299.4109     1538.286   -533.49709    75.317962 
   61800    374.43459   -161.97316   0.33879629   -161.63437   -4246.0934    4.2255927    4.2255927    4.2255927   -4246.0934   -3192.1999    1841.5992    -11387.68   -880.69372    282.27197     1498.322    75.450633 
   61900    333.99242   -161.93698   0.30220336   -161.63478   -3987.5744    4.2262437    4.2262437    4.2262437   -3987.5744    -1153.771    326.63413   -11135.586    -2327.731    1717.0782    -3184.746    75.485511 
   62000     244.9644   -161.85672   0.22164894   -161.63507    8006.4193     4.222304     4.222304     4.222304    8006.4193     23190.49    1199.9643   -371.19605   -4878.9176   -3332.7641   -3720.5785    75.274606 
   62100    394.87907   -161.99174   0.35729488   -161.63444    3380.5514    4.2221833    4.2221833    4.2221833    3380.5514    6865.0846    2965.6464    310.92306   -2945.1973   -820.19859    2339.2689    75.268154 
   62200    255.66695   -161.86655   0.23133283   -161.63522    4765.1155    4.2242449    4.2242449    4.2242449    4765.1155    8772.4528   -21.791516    5544.6851    145.58906    -2208.408   -2952.7524    75.378459 
   62300    389.13526   -161.98695   0.35209776   -161.63485   -6366.3456     4.227679     4.227679     4.227679   -6366.3456   -2685.8965   -3873.5754   -12539.565    -1864.802     730.9814   -800.93285    75.562449 
   62400    357.47561   -161.95878   0.32345144   -161.63533   -4332.3342    4.2253115    4.2253115    4.2253115   -4332.3342    2011.4261   -5660.6772   -9347.7515    1975.6732    2186.3689   -77.605314    75.435571 
   62500    310.01879   -161.91546   0.28051151   -161.63495    1333.4999    4.2225592    4.2225592    4.2225592    1333.4999    17609.739   -7019.1086   -6590.1307   -2142.0088   -485.44874    1077.6108    75.288258 
   62600    488.29876   -162.07568   0.44182298   -161.63386   -6816.0693    4.2235665    4.2235665    4.2235665   -6816.0693   -3258.4157   -9858.9776   -7330.8146    2564.8074    3248.6581    2995.8696    75.342148 
   62700    319.35709   -161.92365   0.28896101   -161.63469   -3344.0977    4.2260796    4.2260796    4.2260796   -3344.0977   -3821.2278   -7201.3563    990.29095    4681.8045    2516.1951   -794.13234    75.476721 
   62800    405.96237   -162.00164   0.36732328   -161.63432   -9078.0007    4.2274441    4.2274441    4.2274441   -9078.0007   -12823.211    1060.7493    -15471.54   -344.89902    2093.1336    3932.7702    75.549852 
   62900    416.48238   -162.01154   0.37684201    -161.6347   -5238.2529    4.2241669    4.2241669    4.2241669   -5238.2529   -8769.6537   -491.52583    -6453.579     4767.056    2921.9794   -1601.5252    75.374286 
   63000    287.01042   -161.89468   0.25969306   -161.63499    1963.7366    4.2216722    4.2216722    4.2216722    1963.7366    6559.4361     1862.884   -2531.1101   -3979.4917   -1031.0521   -5237.2503    75.240821 
   63100    433.72236   -162.02649    0.3924411   -161.63405   -3571.7595    4.2231078    4.2231078    4.2231078   -3571.7595   -8442.4046   -1204.4091   -1068.4648    1614.1161    -921.8272    376.83738    75.317603 
   63200    289.83446   -161.89701   0.26224831   -161.63476   -1033.2242    4.2265303    4.2265303    4.2265303   -1033.2242    -6565.175    4358.1827   -892.68028    2494.2467   -3084.2863   -2657.1456    75.500872 
   63300    296.75645   -161.90272   0.26851147    -161.6342   -1359.9514    4.2266293    4.2266293    4.2266293   -1359.9514   -6383.5149    10790.384   -8486.7233   -4730.0555   -2308.5891    -1656.912    75.506174 
   63400    389.59151   -161.98656   0.35251059   -161.63405    324.96887    4.2234653    4.2234653    4.2234653    324.96887   -592.76451    11508.641   -9940.9699    1023.5658    1216.7445   -4146.8835    75.336734 
   63500    272.98252   -161.88178   0.24700032   -161.63478    4105.8385    4.2216751    4.2216751    4.2216751    4105.8385    9791.5487     9312.573   -6786.6063   -7364.4002    1276.5515   -862.86038    75.240975 
   63600    356.19901   -161.95644   0.32229635   -161.63414   -2780.8728    4.2244869    4.2244869    4.2244869   -2780.8728   -3350.3843    -86.31239   -4905.9218   -3255.4761    2591.7767    2477.5247    75.391419 
   63700    339.65446   -161.94113    0.3073265    -161.6338   -6138.5683    4.2275437    4.2275437    4.2275437   -6138.5683   -12274.245    3361.8514   -9503.3111     2303.044      1071.27   -2518.7813    75.555191 
   63800    267.44808   -161.87532   0.24199265   -161.63332    -374.4147    4.2262587    4.2262587    4.2262587    -374.4147   -12046.197    11472.133   -549.17986   -6769.5019     1237.052    3727.3449    75.486316 
   63900    387.79149    -161.9837   0.35088189   -161.63282    3418.1628     4.221315     4.221315     4.221315    3418.1628   -3200.3481    11745.478    1709.3581    3328.6761    1272.7699    1233.7185    75.221723 
   64000    277.08069   -161.88492   0.25070843   -161.63421    5889.5218    4.2212646    4.2212646    4.2212646    5889.5218     7319.506    6599.9718    3749.0877   -2146.9176   -2341.0469    -2750.288     75.21903 
   64100    291.03913   -161.89746   0.26333832   -161.63412   -1105.2502    4.2257344    4.2257344    4.2257344   -1105.2502   -2608.3324   -3886.2016    3178.7835   -4046.1077   -1622.2092   -615.89039    75.458225 
   64200    401.32379   -161.99654    0.3631262   -161.63341   -10421.397    4.2281253    4.2281253    4.2281253   -10421.397   -13537.976   -6505.3538   -11220.862    5836.5672   -4567.3164   -1284.1505    75.586379 
   64300     260.4168      -161.87    0.2356306   -161.63437     -1051.12    4.2250759    4.2250759    4.2250759     -1051.12   -3489.2092    4251.2275   -3915.3782   -4743.8354    -4277.127    285.72807    75.422957 
   64400    359.55618   -161.95942   0.32533399   -161.63409    4174.5234    4.2198546    4.2198546    4.2198546    4174.5234    14670.634    4344.0536   -6491.1179    2792.6813    189.41741   -4160.2763    75.143679 
   64500    328.66827   -161.93181   0.29738596   -161.63443     3782.263    4.2210388    4.2210388    4.2210388     3782.263    22222.211   -2612.0638   -8263.3585    1628.3785    897.67231   -2276.6503    75.206958 
   64600     267.4548     -161.878   0.24199872     -161.636    8.2873149    4.2256165    4.2256165    4.2256165    8.2873149    8682.9263   -3623.8998   -5034.1645   -4495.0083    2554.5757    134.35984    75.451909 
   64700    381.39552   -161.97992   0.34509468   -161.63483   -8686.8007    4.2282649    4.2282649    4.2282649   -8686.8007   -2355.6007   -11165.457   -12539.344    5124.6898    1200.4331   -3010.1254    75.593867 
   64800    244.93716   -161.85591   0.22162429   -161.63429     1151.159    4.2244362    4.2244362    4.2244362     1151.159    6060.1438   -4685.9331    2079.2663   -6756.5173    4880.8983    1285.5277    75.388703 
   64900    248.13678   -161.85888   0.22451937   -161.63436    8564.9574    4.2204011    4.2204011    4.2204011    8564.9574    20189.567    474.84707    5030.4583   -2547.4189    3757.4594   -1386.9025     75.17288 
   65000    345.19599   -161.94642   0.31234059   -161.63408      5845.14    4.2219759    4.2219759    4.2219759      5845.14    23953.362   -5632.7645   -785.17722    2483.4087    2452.6989     -3822.34    75.257063 
   65100    231.52634    -161.8448   0.20948989   -161.63531    3963.0482    4.2247909    4.2247909    4.2247909    3963.0482     5576.829    4969.7423    1342.5733   -5263.1617    4599.0835   -1665.1644    75.407692 
   65200    330.89972   -161.93389   0.29940502   -161.63448   -6639.4592    4.2267087    4.2267087    4.2267087   -6639.4592   -6745.1209   -6287.0234   -6886.2332     3952.179      957.531   -1768.4865    75.510434 
   65300    363.25653   -161.96213   0.32868214   -161.63344   -5522.0127    4.2246465    4.2246465    4.2246465   -5522.0127   -3412.2416   -10767.411   -2386.3857   -4836.7045   -1209.2741   -937.74435    75.399963 
   65400    287.31384   -161.89297    0.2599676     -161.633   -117.36579        4.223        4.223        4.223   -117.36579    4176.8821    -1585.415   -2943.5646   -4965.4722   -1457.9208      -1053.5     75.31184 
   65500    442.22865    -162.0329   0.40013778   -161.63277   -3628.8704    4.2235072    4.2235072    4.2235072   -3628.8704     4755.063   -9065.3643   -6576.3098    3045.8174     677.9437    2382.6621    75.338979 
   65600    352.22206   -161.95292   0.31869792   -161.63422   -4135.6756    4.2249672    4.2249672    4.2249672   -4135.6756   -9295.7473    3398.9958   -6510.2753   -1919.7913   -894.17863    911.14849    75.417135 
   65700    297.75097   -161.90402   0.26941134   -161.63461    -6311.617    4.2261386    4.2261386    4.2261386    -6311.617   -18573.026    1703.1251   -2064.9498    4242.7553   -2917.8167   -703.46336     75.47988 
   65800    409.39988   -162.00449   0.37043361   -161.63406   -5112.8785    4.2245635    4.2245635    4.2245635   -5112.8785   -5632.0772   -12447.758    2741.1996   -2684.3917    2316.5294    2046.4193    75.395518 
   65900    278.94679   -161.88662   0.25239691   -161.63422    3069.3384    4.2230513    4.2230513    4.2230513    3069.3384     5452.904    -4008.478     7763.589   -4513.0393    2935.7874    -1855.717    75.314581 
   66000    334.40439   -161.93747   0.30257612    -161.6349    1254.5389    4.2238061    4.2238061    4.2238061    1254.5389    2304.1615   -9227.1751     10686.63    1631.6304    2467.5337   -432.39816    75.354972 
   66100    374.95262   -161.97442   0.33926501   -161.63516   -3129.5845    4.2255473    4.2255473    4.2255473   -3129.5845    -2128.346   -2673.2718   -4587.1358   -353.88461    2502.6719   -2211.4124    75.448204 
   66200     283.6429   -161.89192   0.25664605   -161.63527   -184.27311    4.2247506    4.2247506    4.2247506   -184.27311   -3366.2142    2841.8716   -28.476718    3685.6711    4001.5514   -1088.6217    75.405538 
   66300    350.08784   -161.95143   0.31676683   -161.63467    430.12946    4.2234896    4.2234896    4.2234896    430.12946    13582.007   -7821.4193   -4470.1998    96.727188    3143.7151    3911.9974    75.338035 
   66400    345.21725   -161.94661   0.31235982   -161.63425    1262.2856    4.2231027    4.2231027    4.2231027    1262.2856    15617.939   -5439.2074   -6391.8749   -1178.1053    964.70114   -3565.5075    75.317334 
   66500    296.46219   -161.90292   0.26824522   -161.63467      2173.31    4.2243154    4.2243154    4.2243154      2173.31    9182.6105   -5029.5618    2366.8813    2597.5081    2894.0573    3836.4953    75.382235 
   66600     351.9581   -161.95298   0.31845909   -161.63452     747.3473    4.2238925    4.2238925    4.2238925     747.3473    11205.144     2048.485   -11011.587    723.17223   -510.09863    1264.5815      75.3596 
   66700     354.8886    -161.9556   0.32111066   -161.63449   -922.21852    4.2241174    4.2241174    4.2241174   -922.21852    4191.2043    1616.4309   -8574.2908    4381.6617   -1045.0604   -2998.8908    75.371638 
   66800     301.3982   -161.90702   0.27271142   -161.63431    265.29424     4.224392     4.224392     4.224392    265.29424    11954.632   -3766.2926   -7392.4571    2362.1238   -808.26019    5940.3214    75.386338 
   66900    374.59593   -161.97229   0.33894227   -161.63335   -5031.4304     4.225319     4.225319     4.225319   -5031.4304    5606.4358   -10023.407   -10677.319   -1168.3949   -923.97742   -1579.1462    75.435973 
   67000    336.27891   -161.93722   0.30427222   -161.63295   -1005.3987    4.2233183    4.2233183    4.2233183   -1005.3987   -5413.9073   -4766.9308    7164.6421    -2262.616   -1528.1295   -942.30166    75.328869 
   67100    321.37321   -161.92421   0.29078524   -161.63342    575.79671    4.2232891    4.2232891    4.2232891    575.79671   -3650.6721     10145.14   -4767.0778   -1181.1977   -3273.9751    2660.3883    75.327306 
   67200    422.87092   -162.01592   0.38262249   -161.63329   -3808.3247    4.2249982    4.2249982    4.2249982   -3808.3247   -11243.881    3517.5881   -3698.6817    100.02681    1079.4473   -1800.1126    75.418795 
   67300    299.23426   -161.90503   0.27075345   -161.63428   -3986.2104    4.2262762    4.2262762    4.2262762   -3986.2104    2677.7107   -3012.9004   -11623.441   -1320.3407    1692.5997    6649.6002    75.487256 
   67400    393.06428   -161.98997   0.35565282   -161.63432   -8169.1284    4.2245397    4.2245397    4.2245397   -8169.1284   -197.97744   -9855.1295   -14454.278   -3913.4198    847.35615    1439.1327    75.394241 
   67500    382.60501   -161.98106   0.34618905   -161.63487   -3393.9139    4.2238246    4.2238246    4.2238246   -3393.9139   -4796.4293    -1639.151   -3746.1615   -4086.3959    3628.5662   -440.89028    75.355962 
   67600    295.29936   -161.90253   0.26719307   -161.63534     2568.511    4.2242209    4.2242209    4.2242209     2568.511    5266.1264    15024.085   -12584.678   -1372.4076   -1708.8803    6375.1016    75.377178 
   67700    354.16987    -161.9554   0.32046034   -161.63494    971.45049    4.2255521    4.2255521    4.2255521    971.45049    6343.2177    5046.0818    -8474.948     1347.137   -872.92884   -833.00652    75.448463 
   67800    246.15418   -161.85764   0.22272548   -161.63491    175.99711    4.2246969    4.2246969    4.2246969    175.99711    22211.792   -3117.0134   -18566.787    378.50579   -784.96795    5692.3609    75.402661 
   67900    279.56632   -161.88823   0.25295748   -161.63527   -2272.9713    4.2233267    4.2233267    4.2233267   -2272.9713    13477.886   -12030.688   -8266.1124    149.33367   -1853.2241    9552.1166    75.329317 
   68000    298.54701   -161.90522   0.27013161   -161.63509    2824.5226    4.2225148    4.2225148    4.2225148    2824.5226    11168.692   -888.69757   -1806.4269    559.20108    1030.0343    -1542.583    75.285882 
   68100    235.24153    -161.8481   0.21285148   -161.63524    8433.3927    4.2239823    4.2239823    4.2239823    8433.3927    15297.581    14648.405   -4645.8076    2018.3007   -5917.9206    4586.4047    75.364405 
   68200    281.30326   -161.88901    0.2545291   -161.63448    4518.7334    4.2258549    4.2258549    4.2258549    4518.7334    12613.443    3614.5124   -2671.7548    1172.1162    1089.4886    2225.6894    75.464682 
   68300    334.58066   -161.93702   0.30273562   -161.63429   -5485.1638    4.2257066    4.2257066    4.2257066   -5485.1638    9946.9754   -6965.5751   -19436.892    937.30473     797.5184    3642.9728    75.456737 
   68400    272.81863   -161.88123   0.24685203   -161.63438   -3487.5338     4.222533     4.222533     4.222533   -3487.5338    7216.1157   -8676.3171      -9002.4    1400.7218    181.43862    10563.645    75.286855 
   68500    360.37534    -161.9604   0.32607518   -161.63433   -3460.2581    4.2220202    4.2220202    4.2220202   -3460.2581    2386.0153   -6905.5716   -5861.2179    400.50589    2958.9495    94.460031    75.259431 
   68600     341.2393   -161.94335   0.30876049   -161.63459     126.6351    4.2250602    4.2250602    4.2250602     126.6351    -562.7092    7242.0027   -6299.3882    777.32563   -95.912604    3310.1612    75.422115 
   68700    309.28499   -161.91392   0.27984756   -161.63407   -1043.8723    4.2284338    4.2284338    4.2284338   -1043.8723   -3270.1523    4047.7293   -3909.1938    55.070936    5290.5061    4186.2959    75.602925 
   68800    465.66532   -162.05462   0.42134377   -161.63327    -10709.35    4.2262251    4.2262251    4.2262251    -10709.35   -10884.314    -11323.28   -9920.4556   -906.94306   -171.16968   -1417.9388    75.484518 
   68900     258.1822   -161.86895   0.23360868   -161.63534   -3459.1392    4.2233204    4.2233204    4.2233204   -3459.1392    1699.9247   -8298.6204   -3778.7219   -2017.1465    2907.3635    10181.953    75.328981 
   69000    411.14574   -162.00624   0.37201331   -161.63423   -5426.7373    4.2220035    4.2220035    4.2220035   -5426.7373   -3989.3907   -12647.059      356.238   -430.49186    1933.8881    2487.9165    75.258536 
   69100    389.47424   -161.98669   0.35240448   -161.63428   -3161.3015     4.225454     4.225454     4.225454   -3161.3015   -4467.9256     480.2825   -5496.2616    1456.0726   -1828.3798   -2883.9361    75.443207 
   69200    265.70869   -161.87505    0.2404188   -161.63463   -502.73473    4.2279607    4.2279607    4.2279607   -502.73473   -3099.0302    5709.9017   -4119.0756    1414.0198     399.0396    6966.5833     75.57755 
   69300    424.84259   -162.01813    0.3844065   -161.63372   -4808.8789    4.2259189    4.2259189    4.2259189   -4808.8789   -1003.5573    -10215.87   -3207.2091   -13.196952    -3222.866   -1544.2647    75.468108 
   69400    286.90486   -161.89402   0.25959755   -161.63442    2146.3706    4.2213326    4.2213326    4.2213326    2146.3706    16578.559   -7042.1181   -3097.3289    156.82801    241.85004    2927.4974    75.222666 
   69500    314.31731   -161.91917   0.28440091   -161.63477   -511.50849    4.2219445    4.2219445    4.2219445   -511.50849    12989.357   -12024.151   -2499.7318    1310.4128   -4597.4977    6151.5033    75.255379 
   69600     388.2405   -161.98546   0.35128816   -161.63417   -3404.2261    4.2259925    4.2259925    4.2259925   -3404.2261    9635.1848   -9721.9707   -10125.892   -41.008517   -1664.6122   -2788.1956    75.472054 
   69700    233.78059   -161.84693   0.21152959    -161.6354     1579.571    4.2279138    4.2279138    4.2279138     1579.571     9597.717    1422.4298   -6281.4339    -247.9348    351.86421    5414.2126    75.575037 
   69800    338.03533   -161.94028   0.30586147   -161.63442    5288.4074    4.2229394    4.2229394    4.2229394    5288.4074    20195.624    1614.9885   -5945.3899    309.98541   -3969.3717    387.66686    75.308598 
   69900    355.25099   -161.95594   0.32143856    -161.6345    5113.7516    4.2192886    4.2192886    4.2192886    5113.7516    21936.112   -4957.2196    -1637.638   -526.75695    2567.5095    1050.0974     75.11345 
   70000    224.00541    -161.8378   0.20268481   -161.63511    2033.5113    4.2217762    4.2217762    4.2217762    2033.5113    18379.517    -4655.661   -7623.3227   -1389.3295   -899.06401    8028.7719    75.246383 
   70100    402.26323   -161.99794   0.36397623   -161.63396   -7678.4915    4.2280914    4.2280914    4.2280914   -7678.4915    4715.0458   -15227.924   -12522.597   -1858.8954    2190.4755    -3745.051    75.584559 
   70200    321.28278   -161.92607   0.29070341   -161.63537    -1714.723    4.2277558    4.2277558    4.2277558    -1714.723    6396.7977   -5798.0856   -5742.8812   -625.00348    526.72202    3789.2418    75.566565 
   70300    289.23973   -161.89684   0.26171018   -161.63513    5936.0368    4.2224393    4.2224393    4.2224393    5936.0368    12335.259    8479.3492   -3006.4983    612.05439    2431.5397    4015.0804    75.281846 
   70400    437.81621   -162.03094   0.39614531    -161.6348   -1068.2258    4.2210744    4.2210744    4.2210744   -1068.2258   -1619.1838   -6348.6425    4763.1489    2328.1099    3933.2432   -3236.2451    75.208864 
   70500    264.01728   -161.87432   0.23888839   -161.63543   -2965.6292    4.2241512    4.2241512    4.2241512   -2965.6292   -2649.8346   -3256.6655   -2990.3875    2690.5521   -3782.9746    5714.8988    75.373444 
   70600    380.33639   -161.97876   0.34413636   -161.63463   -8892.5998    4.2279942    4.2279942    4.2279942   -8892.5998   -4414.7345   -13312.194   -8950.8706    1595.5232    1258.6992   -1842.6872    75.579347 
   70700    400.79872   -161.99829    0.3626511   -161.63564   -6830.9483    4.2271546    4.2271546    4.2271546   -6830.9483   -4560.0122   -11209.573   -4723.2591    1254.9088   -509.97024   -1444.5418     75.53433 
   70800    262.75427   -161.87225   0.23774559   -161.63451    2859.4999    4.2221045    4.2221045    4.2221045    2859.4999   -280.37437    8658.1626    200.71148    2136.2448   -174.19193    5222.1712    75.263937 
   70900    438.92456   -162.03011   0.39714817   -161.63296   -5472.1365    4.2214517    4.2214517    4.2214517   -5472.1365   -7249.5902   -5355.2089   -3811.6105     2696.511   -3337.8747   -986.09368    75.229031 
   71000    297.58196   -161.90357   0.26925841   -161.63431   -2816.3649     4.224631     4.224631     4.224631   -2816.3649   -2642.9348   -647.73544   -5158.4245    705.60867   -6347.8052    402.52804    75.399133 
   71100    270.61155    -161.8791   0.24485502   -161.63425   -806.14431    4.2279994    4.2279994    4.2279994   -806.14431    8293.1133   -465.40302   -10246.143    249.42363    1643.2666   -847.84832    75.579629 
   71200    404.17631   -161.99905   0.36570722   -161.63334   -2723.1864    4.2252982    4.2252982    4.2252982   -2723.1864    9100.2383   -8262.4085   -9007.3891   -106.16946     -3966.29    -1928.002    75.434859 
   71300     183.9996   -161.80135    0.1664867   -161.63486    7205.0603    4.2203516    4.2203516    4.2203516    7205.0603     16232.06    7968.5716    -2585.451   -619.86416   -1163.9725    8027.8548    75.170232 
   71400    314.07168   -161.91852   0.28417865   -161.63434   -260.81587    4.2217449    4.2217449    4.2217449   -260.81587    12058.469   -2693.2024   -10147.714   -1548.4959    2364.2814    1442.6473     75.24471 
   71500    315.10802   -161.92026   0.28511636   -161.63514    967.64354     4.225047     4.225047     4.225047    967.64354    12056.456     -2588.94   -6564.5852   -3527.7427    -501.5516    142.60803     75.42141 
   71600    144.93428   -161.76778   0.13113958   -161.63664    9893.4792    4.2266634    4.2266634    4.2266634    9893.4792     29964.65    7554.0019   -7838.2144   -2774.8638    1990.8205    4677.6311    75.508002 
   71700    378.95108   -161.97786    0.3428829   -161.63498    1722.5386    4.2241764    4.2241764    4.2241764    1722.5386     18069.85   -7969.9693   -4932.2645   -584.65462    1291.8326   -2192.5601    75.374796 
   71800    185.25321   -161.80445   0.16762099   -161.63683    3022.7697     4.221318     4.221318     4.221318    3022.7697    13265.215   -341.91412   -3854.9918    1419.1901    5332.3604    5648.6051    75.221884 
   71900    299.37284   -161.90578   0.27087883    -161.6349   -5712.4123    4.2242876    4.2242876    4.2242876   -5712.4123    5033.5452   -6896.6927   -15274.089    2675.3163     1298.526    5351.3465    75.380747 
   72000    385.44373   -161.98461   0.34875759   -161.63585   -1537.4371    4.2258712    4.2258712    4.2258712   -1537.4371    15414.008    -9839.745   -10186.574     543.4186   -1262.8368   -2992.6239    75.465556 
   72100    198.75556   -161.81725   0.17983821   -161.63741    5073.1368    4.2268323    4.2268323    4.2268323    5073.1368    19026.801    6518.4164   -10325.806     1171.573    890.06636    971.05573    75.517056 
   72200    378.99396   -161.97746    0.3429217   -161.63453   -4501.2528    4.2240143    4.2240143    4.2240143   -4501.2528   -5524.8185   -8302.7729    323.83284    3514.4111    -2298.522    -412.3405    75.366119 
   72300    306.84203   -161.91202   0.27763712   -161.63438   -7590.5726    4.2235839    4.2235839    4.2235839   -7590.5726    -12198.05   -3204.5251   -7369.1429    2615.2622    1065.8642    425.67853    75.343079 
   72400    283.13908   -161.89016   0.25619019   -161.63397   -5099.2244    4.2245256    4.2245256    4.2245256   -5099.2244   -4094.4851    1114.4583   -12317.646    2967.1878    524.94346    7182.1362    75.393488 
   72500    378.51718   -161.97643    0.3424903   -161.63394   -2549.7161    4.2258709    4.2258709    4.2258709   -2549.7161    11214.045   -8840.5224   -10022.671    1826.7002    2011.8326   -1739.7669    75.465536 
   72600    271.12619   -161.88022   0.24532067    -161.6349    1407.2319    4.2244863    4.2244863    4.2244863    1407.2319    3039.0042    6756.1715     -5573.48    1320.3235    2294.6811    1004.2359    75.391386 
   72700    278.25966   -161.88664   0.25177519   -161.63487   -421.69474    4.2233478    4.2233478    4.2233478   -421.69474   -7042.5272   -789.59292    6567.0359    1310.4401   -2924.3125    2237.4954    75.330447 
   72800     341.4279   -161.94298   0.30893114   -161.63405   -4679.6912     4.224775     4.224775     4.224775   -4679.6912    734.32746   -2189.3065   -12584.095   -1632.7719    5147.1776   -3064.0788    75.406841 
   72900     164.2328   -161.78355   0.14860129   -161.63495    4777.1017    4.2248997    4.2248997    4.2248997    4777.1017    23214.477    9297.3631   -18180.535   -2129.6655    1469.8195    5173.7377    75.413518 
   73000    288.35703   -161.89589    0.2609115   -161.63498    2249.6864    4.2244886    4.2244886    4.2244886    2249.6864    26876.333   -5810.0723   -14317.202    -2499.423    1139.9015   -717.61931    75.391509 
   73100      225.142   -161.83969   0.20371321   -161.63598    4911.3153    4.2232484    4.2232484    4.2232484    4911.3153     17757.71    2288.2797   -5312.0439   -1751.8439    1240.2562   -2056.7361     75.32513 
   73200    168.78262   -161.78895   0.15271806   -161.63623    7361.3117    4.2239495    4.2239495    4.2239495    7361.3117    11650.917   -1364.1989    11797.217   -1762.0752   -3197.6072    2391.6508     75.36265 
   73300    344.30145   -161.94599   0.31153119   -161.63446   -959.40717    4.2259322    4.2259322    4.2259322   -959.40717    12444.258   -8228.8952    -7093.584   -1919.1931    1759.6749   -4499.1222    75.468824 
   73400    143.37848   -161.76578   0.12973186   -161.63605     5988.455     4.225438     4.225438     4.225438     5988.455    30802.554    4255.0711    -17092.26    438.95322   -2399.9051    4535.4421    75.442348 
   73500    285.50596   -161.89506   0.25833179   -161.63672   -3457.0355    4.2244621    4.2244621    4.2244621   -3457.0355    15206.345   -9817.7606   -15759.691    1638.1855    2938.6587   -275.19977    75.390089 
   73600    258.81207   -161.87161    0.2341786   -161.63743   -1370.5935    4.2229526    4.2229526    4.2229526   -1370.5935    4935.3084   -1990.5905   -7056.4985    4466.7312    5332.0489   -1614.2907    75.309302 
   73700    241.72208   -161.85444   0.21871521   -161.63572    1088.4608    4.2249114    4.2249114    4.2249114    1088.4608   -5589.0866   -4124.0143    12978.483    1588.6596   -1895.7686    4575.6519    75.414147 
   73800    350.79884    -161.9515   0.31741016   -161.63409   -1067.8409    4.2265356    4.2265356    4.2265356   -1067.8409   -299.57415   -6743.7023    3839.7538    1261.3896    4634.1529   -3438.0977    75.501157 
   73900    225.90095    -161.8393   0.20439993    -161.6349    263.27664    4.2258074    4.2258074    4.2258074    263.27664    9430.9781    5749.6705   -14390.819    1870.4344    2952.7329    2650.8553    75.462134 
   74000    306.10271   -161.91198   0.27696816   -161.63501    -9449.636    4.2231853    4.2231853    4.2231853    -9449.636   -14739.145    480.80326   -14090.566     2679.833    8746.5095    1651.0986    75.321752 
   74100    320.09626   -161.92442   0.28962982   -161.63479   -7619.5168    4.2235417    4.2235417    4.2235417   -7619.5168   -14995.844    2086.1593   -9948.8659    2104.7501    4767.0321    921.55241    75.340821 
   74200    236.80499   -161.84906   0.21426613    -161.6348    2244.8041    4.2267034    4.2267034    4.2267034    2244.8041   -6564.0512    1319.4169    11979.046   -381.32907    1621.1924    4751.5381    75.510149 
   74300    287.99912   -161.89536   0.26058766   -161.63477    4004.1701    4.2279478    4.2279478    4.2279478    4004.1701    6089.8089   -3324.1532    9246.8547   -1012.5708    5403.2506   -2992.4786    75.576859 
   74400    293.15432   -161.90012   0.26525219   -161.63486   -806.45863    4.2250215    4.2250215    4.2250215   -806.45863    5184.9886    2858.3046   -10462.669   -1844.5971   -315.37418    1868.4966    75.420042 
   74500    222.51389    -161.8371   0.20133524   -161.63576   -3771.7935    4.2224946    4.2224946    4.2224946   -3771.7935    -3057.499    1893.4144   -10151.296   -1096.8072    10415.844   -676.59095    75.284803 
   74600    323.08629   -161.92753   0.29233527   -161.63519   -5120.3727    4.2244151    4.2244151    4.2244151   -5120.3727    1118.6863   -10129.149   -6350.6553   -912.98284    3829.2084   -2489.3434    75.387575 
   74700    179.95327    -161.7981    0.1628255   -161.63528    5998.3408     4.228224     4.228224     4.228224    5998.3408    19127.333   -13747.437    12615.126   -3257.8129    736.79916     5878.569    75.591674 
   74800     273.3001   -161.88302   0.24728768   -161.63573    5947.5217    4.2274689    4.2274689    4.2274689    5947.5217    23095.929   -14581.197    9327.8336   -1056.6638     427.1067   -1804.5606    75.551185 
   74900    272.30036   -161.88384   0.24638309   -161.63746    864.08784     4.224257     4.224257     4.224257    864.08784    15250.009    -5210.043   -7447.7021    2321.8251    914.16082    2253.0054    75.379109 
   75000    113.61834   -161.74106   0.10280427   -161.63825    6695.7331    4.2199591    4.2199591    4.2199591    6695.7331     19679.58    5181.6221   -4774.0026    3915.5044    8006.7432    6015.5612    75.149263 
   75100     329.9898   -161.93452    0.2985817   -161.63594    2436.8865    4.2239406    4.2239406    4.2239406    2436.8865    18436.655   -7139.9285    -3986.067    3304.7976   -3433.2901   -1068.4569    75.362172 
   75200     149.8948   -161.77233   0.13562796    -161.6367     10687.54    4.2278305    4.2278305    4.2278305     10687.54    29207.699   -10603.912    13458.833    290.40979    3730.8625    7252.2118    75.570573 
   75300    293.95754   -161.90168   0.26597896    -161.6357    1053.3033    4.2284604    4.2284604    4.2284604    1053.3033    17201.754   -15258.692    1216.8472   -1613.5633   -145.75639    931.59188    75.604351 
   75400    299.62068   -161.90683   0.27110309   -161.63573    -1445.709    4.2232067    4.2232067    4.2232067    -1445.709    14921.818   -10667.797   -8591.1487   -2704.5404    4696.4201   -2125.0211    75.322897 
   75500    270.58791   -161.88059   0.24483363   -161.63575   -1658.7333    4.2229919    4.2229919    4.2229919   -1658.7333    10747.821   -3395.1182   -12328.903   -2915.9949    6837.4551    4232.9386    75.311405 
   75600    366.73405   -161.96634   0.33182868   -161.63452   -137.99618    4.2262098    4.2262098    4.2262098   -137.99618    11916.032   -4762.6926   -7567.3283   -1306.2544    2694.3074   -4788.3417    75.483694 
   75700    287.42881   -161.89481   0.26007163   -161.63474   -254.82895    4.2301595    4.2301595    4.2301595   -254.82895    10767.282   -11303.197   -228.57211   -1731.0895    6184.6826    3030.2601    75.695531 
   75800    319.62318   -161.92333   0.28920177   -161.63413   -4295.6613    4.2267235    4.2267235    4.2267235   -4295.6613   -1063.8381   -1716.8425   -10106.303    -2427.991    1595.3348    3069.4935    75.511227 
   75900     334.7547   -161.93701   0.30289309   -161.63411   -5747.9414    4.2222536    4.2222536    4.2222536   -5747.9414   -6130.1405    947.36333   -12061.047   -1074.4138    8196.6565   -4232.9929    75.271909 
   76000    316.13046   -161.92002   0.28604149   -161.63398   -2161.0677    4.2224093    4.2224093    4.2224093   -2161.0677   -3054.0354    6982.7638   -10411.932    1180.4695    3144.1025    8502.4491    75.280241 
   76100    312.21202   -161.91686     0.282496   -161.63437   -378.32437    4.2282074    4.2282074    4.2282074   -378.32437    7471.1696    5146.4088   -13752.552    1938.3373    429.37629   -207.49177    75.590784 
   76200    403.96709   -161.99857   0.36551792   -161.63305    -8354.497    4.2294961    4.2294961    4.2294961    -8354.497   -6862.6862   -16291.489   -1909.3157    2619.7577    250.75075   -404.31743    75.659922 
   76300    258.40977   -161.86883   0.23381459   -161.63501   -4126.5595    4.2253257    4.2253257    4.2253257   -4126.5595    -2255.662   -5667.4117   -4456.6048    3336.1542   -3311.9174    4516.0263    75.436335 
   76400    423.32936   -162.01838    0.3830373   -161.63534   -6578.9368    4.2214223    4.2214223    4.2214223   -6578.9368   -844.81039   -9407.8231    -9484.177    3198.3388    2581.6564   -5886.6732    75.227462 
   76500    284.53008   -161.89316   0.25744879   -161.63571    594.40579    4.2240282    4.2240282    4.2240282    594.40579    14394.554    940.36363   -13551.701    1242.6024   -4592.7718    4192.2342     75.36686 
   76600    290.98336   -161.89934   0.26328786   -161.63605   -1704.6967    4.2272631    4.2272631    4.2272631   -1704.6967    12868.356    4049.3452   -22031.791   -507.67217   -769.64574    2268.7976    75.540151 
   76700    382.68639   -161.98258   0.34626268   -161.63631   -9369.4319    4.2291186    4.2291186    4.2291186   -9369.4319    1168.1981   -15430.298   -13846.196    116.81699   -2407.8099   -4522.1076    75.639666 
   76800    157.91915   -161.77986   0.14288857   -161.63697    6477.4624    4.2234308    4.2234308    4.2234308    6477.4624    20814.036    937.60711    -2319.256   -3122.7489   -3516.1553    2500.9554    75.334891 
   76900    328.83286   -161.93336   0.29753489   -161.63582    6489.4222    4.2218444    4.2218444    4.2218444    6489.4222    24219.114   -1206.4671   -3544.3806   -4160.4075    2830.1216   -2209.0237    75.250027 
   77000    239.24494   -161.85214   0.21647385   -161.63566    8735.0297    4.2240467    4.2240467    4.2240467    8735.0297    27973.556    6465.5645    -8234.031   -2131.7308   -843.90136    823.84622    75.367853 
   77100    200.68156   -161.81837   0.18158089   -161.63679    1254.3915    4.2275273    4.2275273    4.2275273    1254.3915    15265.056    8559.9125   -20061.794   -2982.0216    2721.4358    7515.2041    75.554314 
   77200    315.61431    -161.9215   0.28557446   -161.63593   -3506.6721    4.2260498    4.2260498    4.2260498   -3506.6721     14269.53   -5560.5401   -19229.007   -3217.3097   -2306.3587   -4024.9917    75.475122 
   77300    256.34877   -161.86753   0.23194976   -161.63558     4761.648    4.2217453    4.2217453    4.2217453     4761.648    20310.756    695.98403   -6721.7955   -1515.7778    -1040.765    1079.0181    75.244731 
   77400    273.51866   -161.88142   0.24748543   -161.63393    6221.3213    4.2225141    4.2225141    4.2225141    6221.3213        24704   -5313.0596   -726.97657    173.42263    2693.9283    2353.9821    75.285842 
   77500     393.7131   -161.98906   0.35623988   -161.63282    -1100.027    4.2262082    4.2262082    4.2262082    -1100.027    9795.2988   -4527.0456   -8568.3341    378.79513   -2952.3217   -5303.5673    75.483609 
   77600    272.55444   -161.88033   0.24661298   -161.63372   -1413.6496    4.2271837    4.2271837    4.2271837   -1413.6496    6534.4758    8457.4909   -19232.916     2833.865     -399.587     4126.328    75.535893 
   77700     364.8717   -161.96447   0.33014358   -161.63432   -5663.0813     4.224629     4.224629     4.224629   -5663.0813    5107.6842   -8666.5804   -13430.348    3383.4925   -3376.3237   -3162.1671    75.399024 
   77800    401.99972    -161.9983    0.3637378   -161.63457   -5645.5227    4.2232035    4.2232035    4.2232035   -5645.5227    1107.8716   -6841.9548   -11202.485    890.42847     -2130.86   -3948.5022    75.322724 
   77900    256.56448   -161.86665   0.23214493    -161.6345    1413.4671    4.2252126    4.2252126    4.2252126    1413.4671    9857.5943   -5614.2369   -2.9561467    1151.3032    1734.5841    7672.6372    75.430276 
   78000    419.05562   -162.01245   0.37917033   -161.63328   -3448.9957    4.2265605    4.2265605    4.2265605   -3448.9957   -7482.2312   -2361.6003   -503.15571    1440.3586   -2082.0099   -1964.2426    75.502491 
   78100    275.10245    -161.8842   0.24891847   -161.63528    2942.4208    4.2260773    4.2260773    4.2260773    2942.4208    -2205.701    18915.994   -7883.0301    1701.7285    3806.4802     4063.039    75.476597 
   78200    383.34298   -161.98189   0.34685678   -161.63503   -4467.0032    4.2256985    4.2256985    4.2256985   -4467.0032   -7378.3237   -1023.5069   -4999.1789    73.249848    1953.3364      1178.62    75.456301 
   78300    369.42262   -161.96864   0.33426135   -161.63437   -7557.9581    4.2253115    4.2253115    4.2253115   -7557.9581   -2930.5082   -4562.8681   -15180.498   -678.28791    3010.3544   -5695.6289    75.435572 
   78400     286.1725   -161.89385   0.25893489   -161.63492   -4677.2941     4.226229     4.226229     4.226229   -4677.2941    307.87392    -8192.223   -6147.5332   -2769.4991    6518.3613    5998.7738    75.484726 
   78500    417.99191   -162.01389   0.37820787   -161.63569   -4477.7347    4.2265725    4.2265725    4.2265725   -4477.7347   -2720.1439   -7616.2758   -3096.7846   -4809.2477    1050.3633   -3466.5507    75.503132 
   78600    311.36565   -161.91789   0.28173018   -161.63616    3826.6271    4.2246769    4.2246769    4.2246769    3826.6271    6813.4395    14500.277   -9833.8354   -2426.6064      5455.56   -1425.1732     75.40159 
   78700    339.04399   -161.94179   0.30677412   -161.63501   -49.521299    4.2232078    4.2232078    4.2232078   -49.521299    8773.0171   -7079.9958   -1841.5852   -647.39564    -1270.746   -685.46525    75.322953 
   78800    307.38687   -161.91216    0.2781301   -161.63403   -4324.4446    4.2240261    4.2240261    4.2240261   -4324.4446    14111.971   -15739.641   -11345.664   -1031.0015    2285.5497   -9509.6127    75.366746 
   78900    280.55773   -161.88822   0.25385453   -161.63437   -5839.1663    4.2272147    4.2272147    4.2272147   -5839.1663    6508.6583   -20058.492   -3967.6654    682.12397    241.42594    5062.2285    75.537556 
   79000     317.8279   -161.92207   0.28757736    -161.6345    191.40826    4.2260171    4.2260171    4.2260171    191.40826    7560.2881   -7443.9122    457.84887    44.884055   -3206.0443    1990.8169    75.473373 
   79100    271.41769   -161.88056   0.24558443   -161.63498    9226.5596    4.2233127    4.2233127    4.2233127    9226.5596    10506.715    15657.852    1515.1112    1864.5297    1487.7146    467.61289    75.328566 
   79200    248.02013   -161.85983   0.22441383   -161.63542    8257.8091    4.2229137    4.2229137    4.2229137    8257.8091    9433.7448    2526.4354    12813.247    4.0664258   -5830.0177    3534.4717     75.30722 
   79300    295.44867   -161.90244   0.26732817   -161.63511   -1598.1949    4.2256974    4.2256974    4.2256974   -1598.1949    2937.2624   -5336.6563    -2395.191   -186.11222    1695.2526   -2591.6423    75.456241 
   79400    317.39618   -161.92163   0.28718673   -161.63444   -8540.5246    4.2281203    4.2281203    4.2281203   -8540.5246   -4348.3104    -20069.96   -1203.3038    645.98142   -840.42174    7550.3315    75.586111 
   79500    314.14035   -161.91839   0.28424079   -161.63415   -3638.0455    4.2242694    4.2242694    4.2242694   -3638.0455   -3196.3708   -13230.047    5512.2814   -2202.8663   -1312.6934    5504.8059    75.379774 
   79600    322.18748   -161.92576     0.291522   -161.63424    1967.5534     4.222496     4.222496     4.222496    1967.5534    -5846.207    4925.8804    6822.9868   -2101.3358     4353.192   -1253.7504    75.284878 
   79700    307.55353   -161.91228   0.27828089   -161.63399    4036.9351     4.223782     4.223782     4.223782    4036.9351   -3057.9032    1429.4829    13739.226   -1541.8088    -1963.112    2383.6923    75.353683 
   79800    333.34817   -161.93589   0.30162043   -161.63427   -2806.9957    4.2271621    4.2271621    4.2271621   -2806.9957   -2629.0716   -5077.2661   -714.64935   -345.74729    4604.7742   -4555.3013    75.534736 
   79900    250.60689    -161.8621   0.22675438   -161.63535   -3373.9637    4.2272417    4.2272417    4.2272417   -3373.9637    1172.5581   -17048.246    5753.7965    1094.0397    2665.4872    4366.1153    75.539003 
   80000    234.20875   -161.84778     0.211917   -161.63587     1609.234    4.2243673    4.2243673    4.2243673     1609.234   -655.12916   -5629.6124    11112.444    1778.7312    3437.7909    1060.2137    75.385015 
   80100     224.6268   -161.83891   0.20324705   -161.63567    7758.5619    4.2230662    4.2230662    4.2230662    7758.5619   -391.74815    13833.001    9834.4328    1564.1557     8626.341   -4268.3691    75.315378 
   80200    267.93289   -161.87812   0.24243131   -161.63568    7937.3064    4.2243716    4.2243716    4.2243716    7937.3064   -1612.4003    12696.875    12727.445   -217.85704    -215.0934    1529.1082    75.385246 
   80300    298.17462   -161.90567   0.26979466   -161.63588    1556.7388    4.2267541    4.2267541    4.2267541    1556.7388   -5028.1769    5625.1817    4073.2115    519.30013    3547.6623    -1459.475    75.512867 
   80400    248.35796   -161.85951    0.2247195   -161.63479    -2288.669    4.2257566    4.2257566    4.2257566    -2288.669    5072.7094   -13780.176    1841.4595    545.42156    974.07664    8390.5661    75.459415 
   80500    423.93874   -162.01662   0.38358868   -161.63303   -9169.9822    4.2237211    4.2237211    4.2237211   -9169.9822   -10286.899   -10793.921   -6429.1261   -1240.7952   -2233.8893    3248.0684    75.350426 
   80600    306.32275   -161.91149   0.27716726   -161.63432    -2386.359    4.2240231    4.2240231    4.2240231    -2386.359   -6696.5468    4697.9593   -5160.4894   -1681.2042    7434.9471    2311.5825    75.366588 
   80700    361.94917   -161.96129   0.32749921   -161.63379   -839.81014    4.2251149    4.2251149    4.2251149   -839.81014   -2473.3109   -1708.4094    1662.2899   -1856.9426   -1707.8951    4738.2263    75.425044 
   80800    337.74077   -161.93988   0.30559494   -161.63429    -989.3173     4.225918     4.225918     4.225918    -989.3173    5938.6765   -9100.3528    193.72437    309.25553    1182.2384    2142.6003    75.468061 
   80900     239.5201   -161.85234   0.21672282   -161.63561    47.709596    4.2248127    4.2248127    4.2248127    47.709596    18217.595   -14108.883   -3965.5832   -352.34085    969.27431    8972.3482     75.40886 
   81000    369.35105    -161.9693    0.3341966   -161.63511   -5299.9818    4.2242167    4.2242167    4.2242167   -5299.9818    4368.3541   -5857.2493    -14411.05    3966.1917    -78.68068    1828.0291     75.37695 
   81100    202.10134   -161.81855   0.18286554   -161.63569    5425.8907    4.2234169    4.2234169    4.2234169    5425.8907    14651.607    9473.0664    -7847.001    3433.6543    9611.1239    1178.8226    75.334144 
   81200    287.82142   -161.89544   0.26042687   -161.63501    6651.7771    4.2244936    4.2244936    4.2244936    6651.7771    15962.093    3800.8994    192.33921    548.16253    334.48533    2883.8051    75.391773 
   81300    258.27496   -161.86856   0.23369261   -161.63487    6818.1673    4.2251971    4.2251971    4.2251971    6818.1673     17563.34    290.92829    2600.2339    2795.8677    5106.7006    460.42068    75.429447 
   81400     249.6512   -161.86018   0.22588965   -161.63429    1248.1549    4.2258217    4.2258217    4.2258217    1248.1549    14622.339   -12186.952    1309.0776   -156.58345    5540.1717    6234.1643    75.462904 
   81500    386.29615   -161.98333   0.34952887    -161.6338   -4649.6979    4.2241904    4.2241904    4.2241904   -4649.6979    4819.4474   -10358.146   -8410.3949    1127.8507   -311.43858    2456.8684    75.375541 
   81600    254.77503   -161.86626    0.2305258   -161.63574    357.71064    4.2237255    4.2237255    4.2237255    357.71064    7903.1921    2433.3623   -9263.4226    445.31301    10802.332    273.97676    75.350658 
   81700    391.67107   -161.98863   0.35439222   -161.63424   -3741.0191    4.2248255    4.2248255    4.2248255   -3741.0191   -2129.9132   -6191.9054   -2901.2388    -1228.137   -692.64048    1597.1515    75.409548 
   81800    385.58381   -161.98315   0.34888434   -161.63427    -5309.018    4.2266554    4.2266554    4.2266554    -5309.018   -5897.7353   -5492.6728   -4536.6458   -1149.0195    2680.1908    1846.4561    75.507578 
   81900    314.44152   -161.91785    0.2845133   -161.63334   -2093.1775    4.2253449    4.2253449    4.2253449   -2093.1775   -10264.904   -2417.5553    6402.9263   -2813.0381    5457.1512    3374.8002     75.43736 
   82000    458.55905   -162.04818   0.41491387   -161.63327    -5481.306    4.2237384    4.2237384    4.2237384    -5481.306   -8058.1812   -2294.1529   -6091.5839    1758.1084   -3452.5342   -832.85142    75.351351 
   82100    280.82774   -161.88918   0.25409884   -161.63508    26.968507     4.223876     4.223876     4.223876    26.968507   -4267.4988    8555.1339   -4206.7296    1542.5118    8092.5624     92.33375    75.358717 
   82200    369.28885   -161.96815   0.33414031   -161.63401   -1643.8554     4.224346     4.224346     4.224346   -1643.8554   -7844.0924    5732.3995   -2819.8733    1343.1141   -1025.8868   -619.88872    75.383871 
   82300    346.28887   -161.94831   0.31332945   -161.63498   -656.39593    4.2264392    4.2264392    4.2264392   -656.39593   -5330.2357    3738.1182   -377.07028     2942.796    2535.3647    1003.6406    75.495988 
   82400    250.45501   -161.86162   0.22661696   -161.63501    4355.9587    4.2248207    4.2248207    4.2248207    4355.9587   -2376.8583    992.85132    14451.883    950.59538    9152.0846    2408.5348     75.40929 
   82500    452.61682   -162.04297   0.40953721   -161.63343   -3119.2745    4.2231068    4.2231068    4.2231068   -3119.2745    621.27774   -6364.1707   -3614.9304    2624.4718   -2861.9802   -1733.9969    75.317551 
   82600    250.14032   -161.86139   0.22633222   -161.63506    1665.6906    4.2227156    4.2227156    4.2227156    1665.6906    6248.7292   -1278.4809    26.823488    2310.6382    6481.1571    118.50922    75.296623 
   82700    411.80579   -162.00632   0.37261053    -161.6337   -4789.6814    4.2247917    4.2247917    4.2247917   -4789.6814    1584.5543   -7346.1738   -8607.4247   -779.93529    2235.2363   -1430.4497    75.407734 
   82800    377.21003   -161.97661   0.34130756   -161.63531   -3717.6303    4.2263833    4.2263833    4.2263833   -3717.6303   -12650.463   -7409.1097    8906.6815    -1300.506   -1132.1288    2869.7754    75.492995 
   82900    335.94888   -161.93954    0.3039736   -161.63557   -3317.6918    4.2243431    4.2243431    4.2243431   -3317.6918   -15962.193   -2925.1013     8934.219   -3415.8532    7765.3362    1496.7026    75.383719 
   83000    419.92157   -162.01497   0.37995386   -161.63501    -9005.774    4.2233684    4.2233684    4.2233684    -9005.774   -12075.306   -3106.9122   -11835.103   -1432.1554   -4874.6859     1649.258    75.331548 
   83100    281.72556   -161.89014   0.25491121   -161.63523   -929.82474    4.2237607    4.2237607    4.2237607   -929.82474    1618.8632    3407.4406   -7815.7781    1906.1168    1267.4173    2275.8058    75.352542 
   83200    351.60143   -161.95216   0.31813637   -161.63402    1382.6526    4.2258591    4.2258591    4.2258591    1382.6526    11119.518     5268.368   -12239.928    786.73233    1563.7727   -2158.0284    75.464909 
   83300    254.23857   -161.86401    0.2300404   -161.63397    6697.3047    4.2260186    4.2260186    4.2260186    6697.3047    1885.3352    4672.6251    13533.954    4039.4802   -1872.7684    1978.4994    75.473449 
   83400    302.13931   -161.90717     0.273382   -161.63378    1396.4976    4.2239307    4.2239307    4.2239307    1396.4976   -557.08469    7766.4489   -3019.8714    2923.5282    6570.0847    -1666.078    75.361642 
   83500    285.57812   -161.89303   0.25839708   -161.63463   -1767.9953    4.2234956    4.2234956    4.2234956   -1767.9953   -44.484333    8347.6989     -13607.2    923.94766    -1196.973   -81.231005    75.338356 
   83600    270.12046   -161.87926   0.24441067   -161.63485     1235.528    4.2243434    4.2243434    4.2243434     1235.528    9295.3143    1291.2343   -6879.9645    3059.5983    3190.5834   -1881.7982    75.383733 
   83700    367.58746    -161.9675   0.33260086    -161.6349   -1384.0994    4.2271032    4.2271032    4.2271032   -1384.0994    12768.838   -7098.4585   -9822.6776    356.75527    1738.7459   -3131.6046    75.531579 
   83800    294.44975   -161.90098   0.26642433   -161.63456    846.74097    4.2269507    4.2269507    4.2269507    846.74097    -4549.507   -11548.764    18638.494    687.28244    361.44411    872.63776    75.523403 
   83900    397.68296   -161.99285    0.3598319   -161.63301   -5668.9677     4.224047     4.224047     4.224047   -5668.9677   -13360.471   -7195.6474     3549.215   -3626.9722    3588.2226   -1363.1204    75.367869 
   84000    369.06184   -161.96775   0.33393491   -161.63382   -6980.3034    4.2225426    4.2225426    4.2225426   -6980.3034   -9217.6077   -3154.0351   -8569.2673   -3692.4126   -4071.7682    4333.7573    75.287369 
   84100    309.41204    -161.9147   0.27996252   -161.63473   -3517.5147    4.2244097    4.2244097    4.2244097   -3517.5147      4698.29   -9567.2477   -5683.5863     621.4456     561.8907    1806.3331    75.387281 
   84200    394.65001   -161.99061   0.35708762   -161.63352   -3991.3973    4.2267508    4.2267508    4.2267508   -3991.3973    6878.8588   -6700.1095   -12152.941   -191.48859   -1916.3053     472.4001    75.512686 
   84300    244.60375   -161.85615   0.22132261   -161.63483    3570.0135    4.2264373    4.2264373    4.2264373    3570.0135   -747.23297   -5595.2056    17052.479    5520.2408    -3085.634    5294.3207    75.495888 
   84400    317.69903   -161.92311   0.28746076   -161.63565    2699.7557    4.2234145    4.2234145    4.2234145    2699.7557    131.96543    5361.5661    2605.7354    4097.6903   -1994.5114   -831.34492    75.334018 
   84500    263.43469   -161.87399   0.23836125   -161.63563    2714.7226    4.2220388    4.2220388    4.2220388    2714.7226    3402.6907    12288.795   -7547.3181    2922.5364   -5701.3862    5200.2529    75.260422 
   84600    258.02612   -161.86793   0.23346745   -161.63446    2504.0904    4.2236491    4.2236491    4.2236491    2504.0904    11349.822     2788.062   -6625.6133    3605.7202    2913.5786    313.33185    75.346571 
   84700    364.27081   -161.96315   0.32959988   -161.63355   -2573.2465    4.2270166    4.2270166    4.2270166   -2573.2465    1740.0569    1310.8122   -10770.609    1160.5342    1.8370832    -599.0743    75.526937 
   84800    267.13369   -161.87575   0.24170818   -161.63404    185.97176    4.2273074    4.2273074    4.2273074    185.97176   -7567.0097   -9437.0727    17561.998    2041.8049    962.76441    981.97356    75.542522 
   84900    456.38982   -162.04643    0.4129511   -161.63348     -7816.02    4.2236933    4.2236933    4.2236933     -7816.02   -14405.223   -9424.0374    381.20022    412.09058    2030.8013   -2526.4938    75.348933 
   85000    318.45575   -161.92261   0.28814546   -161.63446   -7180.0051    4.2247313    4.2247313    4.2247313   -7180.0051   -7953.6051   -11004.988   -2581.4221   -1163.1022   -5200.6559    1630.4649      75.4045 
   85100    373.69304   -161.97178   0.33812531   -161.63365   -5361.2244    4.2252594    4.2252594    4.2252594   -5361.2244    2932.5667   -13527.699   -5488.5406   -166.52131     1198.327    689.31484    75.432785 
   85200    301.92168   -161.90857   0.27318508   -161.63539    1338.9176    4.2280466    4.2280466    4.2280466    1338.9176    231.79082   -7309.2449    11094.207    1526.5031   -2472.6644    2057.8882     75.58216 
   85300    258.99081   -161.87032   0.23434033   -161.63598    6965.1698    4.2250578    4.2250578    4.2250578    6965.1698    13445.122   -6361.6859    13812.073    5624.6848   -3230.8219    3624.8894    75.421984 
   85400    320.55288   -161.92485   0.29004299   -161.63481    3124.1417    4.2222354    4.2222354    4.2222354    3124.1417    8312.3402    792.96194     267.1231    5050.7689    372.18503    2096.6358     75.27094 
   85500    195.46127   -161.81188   0.17685746   -161.63502     2701.061    4.2220498    4.2220498    4.2220498     2701.061    10220.573    972.97779   -3090.3676    391.61011   -11373.596    5844.6846    75.261013 
   85600    379.00789   -161.97648   0.34293431   -161.63355   -3915.0363    4.2258215    4.2258215    4.2258215   -3915.0363    4627.2639   -6437.9695   -9934.4032    1046.7234     273.3779    1701.4964    75.462893 
   85700    316.63286   -161.92168   0.28649607   -161.63518    1651.3436    4.2268933    4.2268933    4.2268933    1651.3436    157.99701   -7627.1695    12423.203   -1076.9679   -2939.7024    56.190588    75.520328 
   85800     335.1977   -161.93845   0.30329392   -161.63516    1778.9879    4.2250892    4.2250892    4.2250892    1778.9879    14501.616   -8973.2015   -191.45089   -488.75147    -2687.424    2159.7325    75.423666 
   85900    435.79055   -162.02899   0.39431244   -161.63468   -7951.0862    4.2231201    4.2231201    4.2231201   -7951.0862   -4863.3663   -7500.1388   -11489.753   -2777.9575    1823.0812   -390.43985    75.318263 
   86000    269.81376   -161.87968   0.24413316   -161.63555   -7617.5871    4.2228806    4.2228806    4.2228806   -7617.5871   -6473.8531   -1116.3589   -15262.549   -2008.3782   -11686.724    3912.3008    75.305451 
   86100    435.73706   -162.02853   0.39426405   -161.63427    -8929.362    4.2247939    4.2247939    4.2247939    -8929.362   -12902.515    1124.8056   -15010.377     -1755.68   -415.51464    1286.3331    75.407855 
   86200    323.71809   -161.92831   0.29290693   -161.63541    3820.1862    4.2259104    4.2259104    4.2259104    3820.1862    2093.8391    5663.1503    3703.5691   -2875.3742   -2246.8751    2826.9099    75.467653 
   86300    251.54216    -161.8634   0.22760063    -161.6358    8656.7005    4.2251641    4.2251641    4.2251641    8656.7005    11950.953    11243.115    2776.0338     1845.274   -3971.4632    3303.9434    75.427676 
   86400    424.30449    -162.0182   0.38391962   -161.63428   -3227.8866    4.2230101    4.2230101    4.2230101   -3227.8866   -8477.1883    3593.1163   -4799.5878   -455.95619    282.95107    2620.9406    75.312378 
   86500    206.84771   -161.82286   0.18716016    -161.6357   -598.34437    4.2212499    4.2212499    4.2212499   -598.34437   -8521.1474    13833.795   -7107.6804    685.68752    -13489.37    5726.1578    75.218242 
   86600    388.08257    -161.9853   0.35114527   -161.63416   -6406.0204    4.2241506    4.2241506    4.2241506   -6406.0204   -14339.138    6977.3872    -11856.31    773.19611   -4516.9888    -909.7173    75.373415 
   86700    381.87535    -161.9804   0.34552884   -161.63487   -2260.4152    4.2269188    4.2269188    4.2269188   -2260.4152   -1071.3463   -2029.6876   -3680.2119   -273.04322   -742.16066     574.3715    75.521695 
   86800    275.79605   -161.88306   0.24954606   -161.63351    2711.6727    4.2264296    4.2264296    4.2264296    2711.6727    8464.5892   -563.25274    233.68155    1566.3499   -7636.6808    1158.7331    75.495475 
   86900    538.19733   -162.11859   0.48697225   -161.63162   -7102.7494    4.2225553    4.2225553    4.2225553   -7102.7494   -4610.0545   -9282.4876    -7415.706   -103.42582    2275.2927   -106.20552    75.288047 
   87000    321.82072   -161.92506   0.29119015   -161.63387   -3866.5503    4.2217043    4.2217043    4.2217043   -3866.5503   -7463.5318     3844.559   -7980.6781    788.90381   -6709.2259    2761.0448    75.242539 
   87100    397.78571   -161.99358   0.35992487   -161.63365   -8411.4737    4.2238268    4.2238268    4.2238268   -8411.4737   -11112.046   -1143.7435   -12978.631   -2746.7063   -6236.5259   -1693.4228    75.356083 
   87200    422.08832   -162.01604   0.38191438   -161.63413   -7104.7673    4.2276874    4.2276874    4.2276874   -7104.7673   -11288.675   -4897.8675   -5127.7596   -2179.9678    2732.1678    1406.5417    75.562895 
   87300    244.75675   -161.85535   0.22146105   -161.63389    4040.3142    4.2260281    4.2260281    4.2260281    4040.3142    830.78091    8666.0555    2624.1061    688.26767   -6678.7816    2795.8423    75.473961 
   87400    423.98159    -162.0162   0.38362746   -161.63258    1245.4151    4.2221696    4.2221696    4.2221696    1245.4151   -3537.8832    6046.1695    1227.9589   -3366.0754    736.27152    2313.2343     75.26742 
   87500    275.30804   -161.88321    0.2491045   -161.63411     7461.488    4.2198538    4.2198538    4.2198538     7461.488   -1650.1172    19166.521      4868.06   -723.29107   -686.26838    6894.1829     75.14364 
   87600    292.18488   -161.89833   0.26437502   -161.63395    2914.6758    4.2223814    4.2223814    4.2223814    2914.6758    384.60012    10944.714   -2585.2872   -2021.1072    -6133.712     517.1203    75.278748 
   87700    406.10905   -162.00025   0.36745601   -161.63279   -6700.9915    4.2269941    4.2269941    4.2269941   -6700.9915   -9399.3527   -4669.8409    -6033.781   -3277.0378    3325.1546    2912.5473     75.52573 
   87800    305.27629   -161.90919   0.27622041   -161.63297   -5425.4881    4.2271397    4.2271397    4.2271397   -5425.4881   -2881.6803   -6201.7154   -7193.0686    182.35628   -4538.3247    3137.7754    75.533531 
   87900    399.21802   -161.99332   0.36122086    -161.6321   -2016.7698    4.2222304    4.2222304    4.2222304   -2016.7698   -2014.7586    2008.1213   -6043.6723   -1382.4857     -589.552   -1756.8384    75.270671 
   88000    383.93848   -161.98135   0.34739561   -161.63396    2418.2023    4.2197586    4.2197586    4.2197586    2418.2023    1930.0269    8044.8259    -2720.246   -456.96001    2458.3408    1707.2789    75.138553 
   88100    317.42988    -161.9218   0.28721722   -161.63458    331.70459     4.222452     4.222452     4.222452    331.70459    11678.793   -3187.0864    -7496.593   -4058.3791   -6315.5826   -2502.6505    75.282524 
   88200    396.65545   -161.99223   0.35890219   -161.63333   -11127.432    4.2275717    4.2275717    4.2275717   -11127.432   -2059.6421   -17891.635   -13431.019   -3081.9257    2343.1992    1976.8966    75.556695 
   88300    265.50828   -161.87323   0.24023747   -161.63299   -5390.1961     4.226274     4.226274     4.226274   -5390.1961    2527.4745    -12528.84   -6169.2227   -604.16735   -3350.4322    4651.6143    75.487135 
   88400    259.23181   -161.86798   0.23455839   -161.63342    3911.1341    4.2211773    4.2211773    4.2211773    3911.1341   -168.92203    7607.8921    4294.4324    348.31154   -7614.9469     1238.938     75.21436 
   88500    326.12771   -161.92907   0.29508721   -161.63398    7929.4376    4.2194164    4.2194164    4.2194164    7929.4376    2502.4217    11009.435    10276.456    5232.8351    2919.0401    6560.5978    75.120275 
   88600     191.8661   -161.80899   0.17360448   -161.63538    8991.7875    4.2231365    4.2231365    4.2231365    8991.7875    14267.892    5910.8054    6796.6649   -1350.4511   -4958.0664    1457.1072    75.319138 
   88700    288.74501   -161.89526   0.26126255   -161.63399   -4392.3943     4.227714     4.227714     4.227714   -4392.3943    4097.9602   -8013.2432   -9261.8998   -766.73894   -253.58764    4115.0784    75.564323 
   88800    287.44625   -161.89362   0.26008741   -161.63353   -7421.0207    4.2261686    4.2261686    4.2261686   -7421.0207    2463.1738   -12554.576   -12171.659    833.19032    -763.0383     5103.144     75.48149 
   88900    277.65665   -161.88478   0.25122957   -161.63355   -2046.0269    4.2215552    4.2215552    4.2215552   -2046.0269   -4223.6495    5623.3061   -7537.7373    1152.2044   -7214.4384   -2138.9962    75.234567 
   89000    375.42431   -161.97249    0.3396918    -161.6328   -551.14701     4.220451     4.220451     4.220451   -551.14701   -4437.9355     1140.869    1643.6254    3247.8132    2441.9167    1447.2901    75.175548 
   89100    278.07575   -161.88494   0.25160878   -161.63333    1320.2929    4.2240811    4.2240811    4.2240811    1320.2929    10643.658   -6262.4612   -420.31763   -1673.8345   -3017.2353   -1983.0092    75.369694 
   89200     295.5459   -161.90119   0.26741614   -161.63377   -4146.4696    4.2283707    4.2283707    4.2283707   -4146.4696    12373.765   -12731.483   -12081.691     17.79864    52.857635    1705.4468     75.59954 
   89300     302.3591   -161.90747   0.27358087   -161.63389   -4582.0754    4.2264431    4.2264431    4.2264431   -4582.0754    6389.3732   -13253.874    -6881.725   -629.99001    401.34457    5108.1451    75.496199 
   89400    218.19539   -161.83195   0.19742778   -161.63452    2761.1233    4.2210927    4.2210927    4.2210927    2761.1233   -82.089652    5445.1856    2920.2741    3087.3419   -9373.3599    1857.0022    75.209843 
   89500     227.3189   -161.84025   0.20568292   -161.63456    6725.4066    4.2205708    4.2205708    4.2205708    6725.4066   -1395.1119    4189.8295    17381.502    8318.1486   -674.65124    5510.8073    75.181948 
   89600    252.13106   -161.86262   0.22813348   -161.63449    5736.0221    4.2243917    4.2243917    4.2243917    5736.0221    11915.739   -1181.4161    6473.7434      2684.89   -3912.4767    2206.5383    75.386322 
   89700    238.97053   -161.85059   0.21622556   -161.63437    2993.3078    4.2279987    4.2279987    4.2279987    2993.3078    19671.173   -8329.4442   -2361.8058    1114.7206   -5145.8173    3998.3314    75.579589 
   89800    335.29121   -161.93673   0.30337853   -161.63335    -3549.612    4.2246893    4.2246893    4.2246893    -3549.612     8827.977   -14464.049   -5012.7637    513.38357    1753.2626     4684.041    75.402256 
   89900    309.90445   -161.91373   0.28040806   -161.63332   -4232.7779     4.219811     4.219811     4.219811   -4232.7779   -4124.4562    -1228.919   -7344.9586    526.65906   -10003.488   -1453.9532    75.141351 
   90000    305.51737    -161.9097   0.27643854   -161.63327   -3745.2612    4.2207705    4.2207705    4.2207705   -3745.2612   -10216.896   -4457.9167    3439.0287    2940.5186   -4269.6886    1028.8341    75.192621 
   90100    386.79219   -161.98319    0.3499777   -161.63321   -3013.6131      4.22555      4.22555      4.22555   -3013.6131    6269.4836   -8362.4351   -6947.8878   -360.20293    444.52215    -22.79625    75.448346 
   90200    261.52602   -161.87086   0.23663424   -161.63423     3037.472     4.228327     4.228327     4.228327     3037.472    16190.777   -1885.7816   -5192.5795    847.81188   -5880.7352     273.2702    75.597199 
   90300    363.12695   -161.96198   0.32856489   -161.63342   -1694.7723    4.2236412    4.2236412    4.2236412   -1694.7723     91.75679    -313.0754   -4862.9982   -802.41416    2894.6438    3418.6144    75.346145 
   90400    316.78534   -161.92021   0.28663403   -161.63357    -2480.716    4.2197296    4.2197296    4.2197296    -2480.716   -10595.654    10673.478   -7519.9719    -556.6119   -9350.2183    1271.9819    75.137005 
   90500    246.45052   -161.85716   0.22299361   -161.63417    1630.5606    4.2210488    4.2210488    4.2210488    1630.5606   -12261.663    11302.866    5850.4793    5221.3862   -7122.2277     3569.661    75.207497 
   90600    413.38613   -162.00778   0.37404046   -161.63374   -2880.0681    4.2264639    4.2264639    4.2264639   -2880.0681    1047.7215   -2598.8097   -7089.1161    2255.4201    613.80611     2505.937    75.497313 
   90700    226.21807   -161.83938   0.20468686   -161.63469    6011.3271    4.2273513    4.2273513    4.2273513    6011.3271    11105.976   -2071.5337    8999.5392    1853.0219   -10681.544    2174.7316    75.544877 
   90800    376.89475   -161.97382   0.34102229    -161.6328   -32.366183    4.2247373    4.2247373    4.2247373   -32.366183    1104.9079   -7081.4875     5879.481    1221.9328    943.96546    817.43873    75.404823 
   90900    416.19712   -162.00942    0.3765839   -161.63284   -5793.5711    4.2218078    4.2218078    4.2218078   -5793.5711   -10531.844   -4356.4757   -2492.3939   -2253.2866    -6046.226   -3175.2791    75.248072 
   91000    264.56591   -161.87345    0.2393848   -161.63407   -3389.8428     4.222849     4.222849     4.222849   -3389.8428    -16029.57    3661.2275    2198.8138   -183.03404   -12000.481   -77.080649    75.303759 
   91100     519.9408   -162.10383   0.47045336   -161.63338    -12515.94    4.2261552    4.2261552    4.2261552    -12515.94   -14614.945   -10808.622   -12124.252   -511.73858    3830.7638   -1106.1232     75.48077 
   91200     296.9783   -161.90278   0.26871221   -161.63407   -744.05531    4.2271576    4.2271576    4.2271576   -744.05531   -1079.4017    504.62962   -1657.3939   -411.24304   -5794.9245   -1543.4547    75.534495 
   91300    342.92458    -161.9433   0.31028537   -161.63302    1973.7133    4.2240766    4.2240766    4.2240766    1973.7133    5319.8156     5273.147   -4671.8226    164.60629   -3034.3594    -1247.984    75.369454 
   91400    440.01751   -162.03126   0.39813709   -161.63312   -2309.5835    4.2225088    4.2225088    4.2225088   -2309.5835   -9228.4955    9162.0029    -6862.258   -1437.4487    2880.1199   -635.59013    75.285563 
   91500    209.13787   -161.82368   0.18923234   -161.63444    3850.5823    4.2218617    4.2218617    4.2218617    3850.5823   -8425.6269    21794.002   -1816.6278    2816.1051   -10475.841    1884.9826    75.250952 
   91600    381.12317   -161.97832   0.34484826   -161.63347   -2610.8766    4.2242625    4.2242625    4.2242625   -2610.8766    -8876.999    12010.071   -10965.701    332.10687    682.14747     822.2011    75.379403 
   91700    297.92834   -161.90401   0.26957182   -161.63444     2822.917    4.2263557    4.2263557    4.2263557     2822.917   -1123.6438    10444.758   -852.36369    912.00164   -1177.6712    2382.3931    75.491513 
   91800    266.33415   -161.87501   0.24098474   -161.63403    5381.3539    4.2249023    4.2249023    4.2249023    5381.3539    12404.709    12461.892   -8722.5396    1285.4201   -6940.3117   -1008.1007    75.413661 
   91900    410.38088   -162.00493   0.37132124   -161.63361    456.58828    4.2219069    4.2219069    4.2219069    456.58828   -2902.5416    14278.642   -10006.336   -1755.1217    3389.2214     1565.455    75.253369 
   92000    257.24134   -161.86862   0.23275737   -161.63587     2470.773    4.2211055    4.2211055    4.2211055     2470.773   -4818.3873    17356.147    -5125.441    440.17427   -7098.3359     2602.544    75.210524 
   92100    349.33178   -161.95056   0.31608273   -161.63448   -5363.2951    4.2248141    4.2248141    4.2248141   -5363.2951   -11588.889    4329.2629   -8830.2593   -1793.3066    -2017.367    -212.8168    75.408934 
   92200    406.63092   -162.00193    0.3679282   -161.63401    -7909.766    4.2280016    4.2280016    4.2280016    -7909.766   -8890.0944   -9827.6109   -5011.5927   -255.61463    2894.6962      4826.27    75.579744 
   92300    319.49371   -161.92275   0.28908462   -161.63367   -1935.4974    4.2260871    4.2260871    4.2260871   -1935.4974    8944.0795   -2963.9338   -11786.638    -3703.018   -6139.0353   -32.436248     75.47712 
   92400    418.28422   -162.01234   0.37847235   -161.63387   -2292.7552    4.2226138    4.2226138    4.2226138   -2292.7552    1885.1364    3265.7742   -12029.176   -2535.5347    2958.7293    1083.2987    75.291176 
   92500    363.55149   -161.96416   0.32894903   -161.63521   -3664.4721     4.222493     4.222493     4.222493   -3664.4721    3190.2905   -6269.5238   -7914.1828   -2990.4964    1494.1786   -1278.6573    75.284717 
   92600      327.632   -161.93112   0.29644832   -161.63467   -6875.5808    4.2260549    4.2260549    4.2260549   -6875.5808   -4299.2566   -7891.7289   -8435.7568   -801.25878   -2331.7927   -100.10354    75.475396 
   92700    391.81091   -161.98786   0.35451875   -161.63334   -8858.6156    4.2284232    4.2284232    4.2284232   -8858.6156   -5799.9597   -14623.289   -6152.5982    2880.3935    4130.6516    3885.6892    75.602358 
   92800    257.51936   -161.86673   0.23300893   -161.63372    2374.2427    4.2257899    4.2257899    4.2257899    2374.2427    14673.865    6334.2698   -13885.406    85.278369    -2754.046   -315.55208    75.461197 
   92900    328.23658   -161.93148   0.29699535   -161.63448     4526.941    4.2220106    4.2220106    4.2220106     4526.941    12751.374    12297.199    -11467.75    3269.9671   -709.63665    3807.8114    75.258915 
   93000    268.20938   -161.87826   0.24268149   -161.63558    5198.1441    4.2218286    4.2218286    4.2218286    5198.1441    14131.204    8074.3635   -6611.1349    1448.2878    5754.7502   -214.58137    75.249183 
   93100    238.66098    -161.8516   0.21594547   -161.63565    2895.6385    4.2248218    4.2248218    4.2248218    2895.6385    309.88911    11988.987   -3611.9603    5782.1421    502.93776   -784.34719    75.409348 
   93200    304.30976   -161.90953   0.27534587   -161.63418   -3246.2284    4.2287626    4.2287626    4.2287626   -3246.2284   -3649.5319   -471.23552   -5617.9179    4412.7172    2731.1904    2770.3508    75.620567 
   93300    227.38303   -161.84013   0.20574094   -161.63439    6105.2654    4.2251224    4.2251224    4.2251224    6105.2654    18052.522    13403.706   -13140.431    2066.9461   -1696.1178   -2032.4199    75.425444 
   93400    326.38555   -161.93004    0.2953205   -161.63472     2665.043    4.2230616    4.2230616    4.2230616     2665.043    16002.353    4566.5134   -12573.737     1845.936    104.74097    2201.5614    75.315133 
   93500    276.30109   -161.88518   0.25000303   -161.63517    1635.0123    4.2219905    4.2219905    4.2219905    1635.0123    10335.647    2465.3815   -7895.9915   -908.86435    7613.3613    1129.8198    75.257839 
   93600    334.62868   -161.93711   0.30277907   -161.63433   -7509.2686    4.2266853    4.2266853    4.2266853   -7509.2686   -4889.8162   -9208.0098   -8429.9797    510.67354    70.318805    997.21913    75.509179 
   93700    332.87858   -161.93527   0.30119553   -161.63407   -6032.6329    4.2284122    4.2284122    4.2284122   -6032.6329    3120.1075   -19168.915   -2049.0916   -174.07957    37.025176    2121.3437    75.601769 
   93800    291.97807   -161.89884    0.2641879   -161.63466   -660.51846     4.226834     4.226834     4.226834   -660.51846    17287.242   -8581.2392   -10687.558   -1580.7644   -472.74288   -3108.5725     75.51715 
   93900    332.95511   -161.93627   0.30126478   -161.63501   -621.09278     4.222627     4.222627     4.222627   -621.09278    12632.483   -7239.1464   -7256.6151   -3032.0756   -325.77749     -1334.18    75.291882 
   94000    251.18497   -161.86334   0.22727744   -161.63606    1381.4466    4.2224067    4.2224067    4.2224067    1381.4466    3310.8144    9395.6091   -8562.0837   -2308.6796    7573.0702   -179.39119    75.280101 
   94100    281.78447   -161.89082   0.25496451   -161.63586   -1681.3824    4.2264849    4.2264849    4.2264849   -1681.3824   -4867.6689    -310.8983    134.41994   -1920.8713    2796.0334   -1042.3696    75.498437 
   94200    236.35264   -161.84948   0.21385683   -161.63563    3271.8555    4.2279013    4.2279013    4.2279013    3271.8555     9212.599    963.85415   -360.88649   -1710.8819    2879.4996   -605.64012    75.574367 
   94300    247.25636   -161.85914   0.22372275   -161.63541    4943.6491    4.2241297    4.2241297    4.2241297    4943.6491    18058.653    9773.4526   -13001.158   -985.68638    3009.3975   -4769.5195    75.372295 
   94400    249.88134   -161.86132   0.22609789   -161.63523    1622.3469    4.2213236    4.2213236    4.2213236    1622.3469    13667.191    2426.2697    -11226.42   -32.803228    1440.0857    267.26191    75.222182 
   94500    292.74765   -161.89998   0.26488423   -161.63509   -2677.0487    4.2232904    4.2232904    4.2232904   -2677.0487   -1678.7001    4409.1899   -10761.636    -25.19497    4639.4164    492.73845    75.327375 
   94600    303.59503   -161.91002   0.27469916   -161.63532   -4079.9979    4.2278726    4.2278726    4.2278726   -4079.9979    557.20275   -18532.246    5735.0493    3244.1467     3185.125    -611.5121    75.572828 
   94700    335.49333   -161.93867   0.30356142   -161.63511   -2727.6833    4.2284696    4.2284696    4.2284696   -2727.6833    12803.303   -17574.297    -3412.056    481.40522    1405.7237    639.63864    75.604845 
   94800    338.37797   -161.94115   0.30617149   -161.63497   -3094.8972    4.2246807    4.2246807    4.2246807   -3094.8972    14050.874   -13462.139   -9873.4265    3646.1948     1654.519   -4579.5646    75.401793 
   94900    272.35796   -161.88152    0.2464352   -161.63509   -2527.8484    4.2222035    4.2222035    4.2222035   -2527.8484    8144.4879    -9129.791   -6598.2423    2115.6387   -829.35415   -2951.4115    75.269231 
   95000    329.46521   -161.93314   0.29810705   -161.63504   -4933.2905    4.2243147    4.2243147    4.2243147   -4933.2905    -7588.261    925.50544   -8137.1159     4847.395   -2407.1327   -2248.2907      75.3822 
   95100    255.09433   -161.86621   0.23081471    -161.6354    1860.8854    4.2279949    4.2279949    4.2279949    1860.8854     2946.021   -5666.6521    8303.2873    3397.3615   -2133.6363   -2957.5425    75.579387 
   95200     305.3646    -161.9107    0.2763003    -161.6344    2884.4969    4.2275431    4.2275431    4.2275431    2884.4969    7597.4283    4382.0598   -3325.9976   -1505.1842   -2294.5901   -2348.8257     75.55516 
   95300    301.95384   -161.90711   0.27321418   -161.63389    466.29146    4.2237241    4.2237241    4.2237241    466.29146    8705.8958    1417.7279   -8724.7493    2504.7154   -157.76163   -3698.9309    75.350584 
   95400    306.01836   -161.91077   0.27689184   -161.63388   -3543.8908    4.2217152    4.2217152    4.2217152   -3543.8908    2689.1658   -842.11849    -12478.72   -3412.4813   -7508.4864   -598.61154    75.243122 
   95500    403.93046    -161.9999   0.36548477   -161.63442   -9076.5464    4.2255671    4.2255671    4.2255671   -9076.5464    -1832.081   -12612.391   -12785.167   -1515.4991   -2968.8324    -680.2125    75.449265 
   95600    287.62459    -161.8962   0.26024877   -161.63595   -1391.0768    4.2294389    4.2294389    4.2294389   -1391.0768    11913.785   -22262.181    6175.1655    1190.0134   -4395.6603   -1290.5748    75.656853 
   95700    382.62045   -161.98169   0.34620303   -161.63549   -2765.6133    4.2269757    4.2269757    4.2269757   -2765.6133    4371.6226   -13272.712    604.25013   -4482.1465   -2731.0889    99.985986    75.524744 
   95800     289.7475   -161.89794   0.26216963   -161.63577   -1787.8755    4.2218613    4.2218613    4.2218613   -1787.8755    4133.8463   -5199.0818   -4298.3911    821.25356   -1694.8339   -3738.0589     75.25093 
   95900    291.40541   -161.89913   0.26366974   -161.63546   -2624.6401    4.2209801    4.2209801    4.2209801   -2624.6401   -5873.1897    10266.221   -12266.952    149.34556   -9053.3636   -3688.5945    75.203823 
   96000    304.87486   -161.91082   0.27585718   -161.63496   -1033.9505    4.2264888    4.2264888    4.2264888   -1033.9505    4853.0668    -541.6679   -7413.2502   -293.82937   -2070.5368   -2132.8654    75.498645 
   96100    265.49606   -161.87492   0.24022642   -161.63469    3786.2866    4.2282295    4.2282295    4.2282295    3786.2866    5648.3038   -3968.1329     9678.689    5687.5548   -3372.2212   -1652.2545    75.591968 
   96200    344.51188   -161.94599   0.31172159   -161.63427   -1238.9974     4.225835     4.225835     4.225835   -1238.9974   -2789.7917   -10162.828    9235.6276   -1266.3771   -3247.4947   -189.75446    75.463613 
   96300    334.56269    -161.9366   0.30271936   -161.63388   -5309.0891    4.2221057    4.2221057    4.2221057   -5309.0891   -51.600339   -14016.087   -1859.5796    3704.4782   -3558.4968   -886.94744    75.264001 
   96400    349.36161   -161.95047   0.31610973   -161.63436   -8655.6548    4.2238317    4.2238317    4.2238317   -8655.6548   -5975.0395   -8033.6563   -11958.269    1766.4735   -4990.9817    340.75369    75.356343 
   96500     269.2734   -161.87911   0.24364423   -161.63547   -2307.0573    4.2277901    4.2277901    4.2277901   -2307.0573    17711.263   -13588.552   -11043.883   -1075.1714   -480.35113    983.85264    75.568402 
   96600    335.95161   -161.93937   0.30397608    -161.6354    828.34994     4.227225     4.227225     4.227225    828.34994    1810.0124   -499.73809    1174.7755   -134.41027   -2456.5473    696.62176    75.538109 
   96700    210.52795   -161.82655   0.19049011   -161.63606    5465.3214    4.2247218    4.2247218    4.2247218    5465.3214    280.36961   -365.97456    16481.569   -4178.8401    140.30382    996.19677    75.403991 
   96800    298.36346   -161.90486   0.26996553    -161.6349    705.08927    4.2219096    4.2219096    4.2219096    705.08927    -2765.372    3040.3039    1840.3359   -4087.5648   -2942.3989   -837.13011    75.253518 
   96900    270.08145   -161.87971   0.24437537   -161.63534   -3295.1847    4.2250061    4.2250061    4.2250061   -3295.1847    1606.0711   -2023.5048   -9468.1204   -2294.7753   -6570.9147   -2185.0415    75.419217 
   97000    269.07723   -161.87873   0.24346674   -161.63527   -2954.5135    4.2268583    4.2268583    4.2268583   -2954.5135    16091.449   -14977.439   -9977.5497   -4626.3087   -1769.9727   -91.657813    75.518447 
   97100    384.72916   -161.98366   0.34811103   -161.63555   -6176.9939    4.2278782    4.2278782    4.2278782   -6176.9939   -4286.3444   -17568.893    3324.2552   -1288.6031   -1866.0369    1403.4353    75.573128 
   97200    195.99642   -161.81319   0.17734168   -161.63585    4826.4737    4.2242953    4.2242953    4.2242953    4826.4737    8417.7808   -13916.711    19978.351   -3574.9578   -3921.0034    1569.4901    75.381158 
   97300     338.0714   -161.94079   0.30589411   -161.63489      2511.47    4.2227781    4.2227781    4.2227781      2511.47    3276.2887   -2618.1901    6876.3114    1287.3149   -4509.5771    2109.4013    75.299967 
   97400    179.26425   -161.79798   0.16220206   -161.63577    5836.2295    4.2246381    4.2246381    4.2246381    5836.2295    18032.218    2364.1132   -2887.6427    1398.2405   -6353.4516    1321.6755     75.39951 
   97500    256.47787   -161.86797   0.23206657    -161.6359    63.996646    4.2252099    4.2252099    4.2252099    63.996646    11877.059    2634.8488   -14319.918    3514.9088   -4256.1479    1369.4651     75.43013 
   97600    257.22147   -161.87025   0.23273939   -161.63751    184.41239    4.2259228    4.2259228    4.2259228    184.41239    1637.3501   -3652.9355    2568.8226    913.96149   -2507.5586    1301.8708    75.468321 
   97700    207.61668   -161.82522   0.18785593   -161.63737    6498.6826    4.2234781    4.2234781    4.2234781    6498.6826    6868.5321   -7114.9837    19742.499    150.68762   -1073.1029     1751.545     75.33742 
   97800    379.62222   -161.97933   0.34349017   -161.63584    -695.7443    4.2240804    4.2240804    4.2240804    -695.7443     285.3392   -10934.825    8562.2529    1641.9121   -1323.2262    359.90308    75.369656 
   97900    227.33878   -161.84157    0.2057009   -161.63587     1763.023    4.2244022    4.2244022    4.2244022     1763.023    17313.232   -11965.264   -58.899058   -3032.8244   -3205.8954   -1019.4383    75.386881 
   98000    336.19182   -161.93896   0.30419342   -161.63477   -8811.3987    4.2259274    4.2259274    4.2259274   -8811.3987    5052.3375   -13153.731   -18332.803   -390.70298   -2799.0503    407.70629    75.468566 
   98100    270.23859   -161.87921   0.24451755    -161.6347   -2425.7495    4.2253058    4.2253058    4.2253058   -2425.7495    2830.1435   -9586.2792   -521.11275   -4051.8929    349.36267    826.59805    75.435269 
   98200    248.34921   -161.85916   0.22471158   -161.63445    5500.0386    4.2247038    4.2247038    4.2247038    5500.0386    1766.7927   -2150.1133    16883.437   -6277.8111      1897.83    886.12516    75.403028 
   98300    369.65739   -161.96838   0.33447377   -161.63391    3131.1133    4.2244181    4.2244181    4.2244181    3131.1133   -1853.6737   -283.97317    11530.987   -734.67199    1863.9874    2474.4274    75.387734 
   98400    255.83379   -161.86721   0.23148379   -161.63573    537.92497    4.2254953    4.2254953    4.2254953    537.92497    5573.3751   -3023.1511   -936.44908   -1463.2889     168.1972    3461.5538     75.44542 
   98500     364.2297   -161.96511   0.32956268   -161.63555   -9883.2459    4.2268115    4.2268115    4.2268115   -9883.2459   -6824.6502    -14286.34   -8538.7474   -165.68039    447.09342    2669.8293    75.515941 
   98600    425.61828    -162.0204   0.38510837   -161.63529   -8839.6502    4.2257651    4.2257651    4.2257651   -8839.6502   -13707.946   -18333.936     5522.932    2459.2888    2727.8184    1767.5418     75.45987 
   98700    290.49598   -161.89804   0.26284686   -161.63519    3187.2659    4.2242847    4.2242847    4.2242847    3187.2659   -7850.6201   -13705.725    31118.143    -1868.205    3974.3757     1864.226    75.380593 
   98800    395.84803    -161.9924   0.35817162   -161.63423   -1584.9281    4.2235459    4.2235459    4.2235459   -1584.9281   -6407.7483   -7357.5928    9010.5568    23.735569    3976.4842   -409.10003    75.341047 
   98900     241.3768    -161.8533    0.2184028    -161.6349    815.14451      4.22433      4.22433      4.22433    815.14451    4824.3846    111.86016   -2490.8112   -1047.9663    1654.0315    -1039.174    75.383014 
   99000    259.74914   -161.86943   0.23502648    -161.6344    877.49222    4.2241071    4.2241071    4.2241071    877.49222    2023.5007    630.22246   -21.246529   -4186.7648   -2429.0847   -1475.4464    75.371086 
   99100    339.52088   -161.94153   0.30720562   -161.63433    481.99757     4.225219     4.225219     4.225219    481.99757   -4998.7962   -4546.2994    10991.088   -285.81521   -2498.5898   -3973.6096    75.430619 
   99200    239.28641   -161.85347   0.21651137   -161.63696    5987.5115    4.2247076    4.2247076    4.2247076    5987.5115   -822.60348   -12512.794    31297.932   -5602.0338   -4167.3065   -1247.6318    75.403234 
   99300    324.33492   -161.93174   0.29346505   -161.63827   -3018.3979    4.2253021    4.2253021    4.2253021   -3018.3979    -4183.109   -11660.739    6788.6546   -96.902773    1846.1811    476.49741    75.435071 
   99400    308.99813   -161.91646   0.27958801   -161.63688   -4889.3906    4.2247278    4.2247278    4.2247278   -4889.3906    8612.0979   -15882.066   -7398.2037    1714.5516    802.43347    964.44996    75.404316 
   99500    347.38172   -161.94976   0.31431828   -161.63545   -149.37754    4.2249719    4.2249719    4.2249719   -149.37754    4308.7279   -7251.7866     2494.926   -1316.2246     849.0215    912.16303    75.417388 
   99600    342.15331   -161.94402   0.30958751   -161.63443   -282.85872    4.2261146    4.2261146    4.2261146   -282.85872   -9682.5217   -7156.4336    15990.379    5560.5724    4416.0527    2757.5653    75.478597 
   99700    323.80955   -161.92701   0.29298969   -161.63402   -2839.7287    4.2256828    4.2256828    4.2256828   -2839.7287   -12428.766   -5795.8533    9705.4331   -3557.6075    1384.7181    1845.6172    75.455461 
   99800    274.80321    -161.8835   0.24864772   -161.63485   -1038.9573    4.2249091    4.2249091    4.2249091   -1038.9573   -14973.727    9966.0564    1890.7983   -231.80458    3623.6651    426.25208    75.414024 
   99900    335.06539   -161.93834   0.30317421   -161.63517   -3296.6197    4.2263736    4.2263736    4.2263736   -3296.6197   -2048.3163    2357.0896   -10198.632     724.1204    3800.8869    1999.3459    75.492471 
  100000    280.28367   -161.88913   0.25360656   -161.63552    5608.4819     4.226085     4.226085     4.226085    5608.4819   -1281.4728    13594.432    4512.4867   -5347.0944    3433.3672   -1401.3351    75.477012 
Loop time of 39.737 on 1 procs for 100000 steps with 8 atoms

Pair  time (%) = 13.7107 (34.5035)
Kspce time (%) = 9.45549 (23.7951)
Neigh time (%) = 0 (0)
Comm  time (%) = 1.88982 (4.75581)
Outpt time (%) = 0.161809 (0.407199)
Other time (%) = 14.5193 (36.5384)

Nlocal:    8 ave 8 max 8 min
Histogram: 1 0 0 0 0 0 0 0 0 0
Nghost:    2189 ave 2189 max 2189 min
Histogram: 1 0 0 0 0 0 0 0 0 0
Neighs:    2472 ave 2472 max 2472 min
Histogram: 1 0 0 0 0 0 0 0 0 0

Total # of neighbors = 2472
Ave neighs/atom = 309
Neighbor list builds = 0
Dangerous builds = 0
unfix 20
unfix 21
print "seeds:8138180"
seeds:8138180
