LAMMPS (10 Feb 2015)
# ---- initialize simulations
clear
units metal
dimension 3
boundary p p p
atom_style charge
atom_modify map array
# ---- create atoms
read_data /Users/eugeneragasa/pyflamestk_git/pypospack/tests/tests_integration/workflow/WorkflowLammpsThermalExpansion/param_9544/MgO_NaCl_unit.npt.T800/lammps.structure
  triclinic box = (0 0 0) to (4.2565 4.2565 4.2565) with tilt (0 0 0)
  1 by 1 by 1 MPI processor grid
  reading atoms ...
  8 atoms
# ---- define interatomic potential
include potential.mod
mass 1 24.305
mass 2 15.999

group Mg type 1
4 atoms in group Mg
group O type 2
4 atoms in group O

set group Mg charge 1.64252902328
  4 settings made for charge
set group O charge -1.64252902328
  4 settings made for charge

variable R_cut equal 10.0

pair_style buck/coul/long ${R_cut}
pair_style buck/coul/long 10
pair_coeff 1 1 0.0 0.5 0.0 ${R_cut}
pair_coeff 1 1 0.0 0.5 0.0 10
pair_coeff 1 2 1425.65456865 0.277130619093 0.0 ${R_cut}
pair_coeff 1 2 1425.65456865 0.277130619093 0.0 10
pair_coeff 2 2 8710.58674493 0.211543782712 -4.62088168449 ${R_cut}
pair_coeff 2 2 8710.58674493 0.211543782712 -4.62088168449 10

kspace_style pppm 1.0e-5

neighbor 1.0 bin
neigh_modify every 1 delay 0 check yes
# ---- define settings
compute eng all pe/atom
compute eatoms all reduce sum c_eng
# ---- run minimization
reset_timestep 0
fix 1 all box/relax iso 0.0 vmax 0.001
thermo 10
thermo_style custom step pe lx ly lz xy xz yz press pxx pyy pzz pxy pxz pyz c_eatoms
min_style cg
minimize 1e-25 1e-25 5000 10000
PPPM initialization ...
  G vector (1/distance) = 0.352708
  grid = 8 8 8
  stencil order = 5
  estimated absolute RMS force accuracy = 3.89813e-05
  estimated relative force accuracy = 2.7071e-06
  using double precision FFTs
  3d grid and FFT values/proc = 3375 512
Neighbor list info ...
  1 neighbor list requests
  update every 1 steps, delay 0 steps, check yes
  master list distance cutoff = 11
Memory usage per processor = 4.06549 Mbytes
Step PotEng Lx Ly Lz Xy Xz Yz Press Pxx Pyy Pzz Pxy Pxz Pyz eatoms 
       0   -111.38871       4.2565       4.2565       4.2565            0            0            0   -14022.103   -14022.103   -14022.103   -14022.103 -1.0617953e-11 -7.0203049e-11 5.2505523e-12   -111.38871 
       6    -111.3915    4.2448057    4.2448057    4.2448057            0            0            0    11.870105    11.870105    11.870105    11.870105 -3.2023954e-10 4.899455e-11 2.2757866e-10    -111.3915 
Loop time of 0.0153279 on 1 procs for 6 steps with 8 atoms

Minimization stats:
  Stopping criterion = linesearch alpha is zero
  Energy initial, next-to-last, final = 
        -111.388714234     -111.391500014     -111.391500014
  Force two-norm initial, final = 2.0248 0.00171153
  Force max component initial, final = 2.0248 0.00170464
  Final line search alpha, max atom move = 0.00229153 3.90625e-06
  Iterations, force evaluations = 6 44

Pair  time (%) = 0.00427341 (27.8799)
Kspce time (%) = 0.00237656 (15.5047)
Neigh time (%) = 0 (0)
Comm  time (%) = 0.0004704 (3.06891)
Outpt time (%) = 0 (0)
Other time (%) = 0.00820756 (53.5464)

Nlocal:    8 ave 8 max 8 min
Histogram: 1 0 0 0 0 0 0 0 0 0
Nghost:    2189 ave 2189 max 2189 min
Histogram: 1 0 0 0 0 0 0 0 0 0
Neighs:    2344 ave 2344 max 2344 min
Histogram: 1 0 0 0 0 0 0 0 0 0

Total # of neighbors = 2344
Ave neighs/atom = 293
Neighbor list builds = 0
Dangerous builds = 0
unfix 1
# ---- define output variables ----
variable natoms equal "count(all)"
variable tot_energy equal "c_eatoms"
variable length_x equal "lx"
variable length_y equal "ly"
variable length_z equal "lz"
variable tilt_xy equal "xy"
variable tilt_xz equal "xz"
variable tilt_yz equal "yz"
variable tot_press equal "press"
variable press_xx equal "pxx"
variable press_yy equal "pyy"
variable press_zz equal "pzz"
variable press_xy equal "pxy"
variable press_xz equal "pxz"
variable press_yz equal "pyz"

# ---- output ----
print "pypospack:output_section:begin"
pypospack:output_section:begin
print "tot_energy = ${tot_energy}"
tot_energy = -111.391500014071
print "num_atoms = ${natoms}"
num_atoms = 8
print "xx = ${length_x}"
xx = 4.24480566540602
print "yy = ${length_y}"
yy = 4.24480566540602
print "zz = ${length_z}"
zz = 4.24480566540602
print "xy = ${tilt_xy}"
xy = 0
print "xz = ${tilt_xz}"
xz = 0
print "yz = ${tilt_yz}"
yz = 0
print "tot_press = ${tot_press}"
tot_press = 11.8701047091937
print "pxx = ${press_xx}"
pxx = 11.8701047092997
print "pyy = ${press_yy}"
pyy = 11.8701047087814
print "pzz = ${press_zz}"
pzz = 11.8701047094999
print "pxy = ${press_xy}"
pxy = -3.20239539923879e-10
print "pxz = ${press_xz}"
pxz = 4.8994550277695e-11
print "pyz = ${press_yz}"
pyz = 2.27578662531736e-10
print "pypospack:output_section:done"
pypospack:output_section:done
print "pypospack:lammps_sim:done"
pypospack:lammps_sim:done
#------------------------------------------------------------------------------
# RUN THERMOSTAT
# running using an NPT Nose-Hoover style thermostat
#------------------------------------------------------------------------------
variable tempdamp equal 0.1
variable pressdamp equal 1.0
# set initial velocities
velocity all create 800 3012666 mom yes dist gaussian loop all
# fix for Nose-Hoover style thermostat
fix 20 all npt temp 800 800 0.1 aniso 0.0 0.0 1.0 drag 1.0 couple xyz
variable boxx equal lx
variable boxy equal ly
variable boxz equal lz
variable boxp equal press
variable boxt equal temp
# calculate averages every 10000 steps
reset_timestep 0
fix 21 all ave/time 10 10 100 v_boxx v_boxy v_boxz v_boxp v_boxt file lattice.out
thermo_style custom step temp pe ke etotal press lx ly lz press pxx pyy pzz pxy pxz pyz vol
thermo_modify flush yes
thermo 100
run 100000
PPPM initialization ...
  G vector (1/distance) = 0.352825
  grid = 8 8 8
  stencil order = 5
  estimated absolute RMS force accuracy = 3.87738e-05
  estimated relative force accuracy = 2.69269e-06
  using double precision FFTs
  3d grid and FFT values/proc = 3375 512
Memory usage per processor = 3.06549 Mbytes
Step Temp PotEng KinEng TotEng Press Lx Ly Lz Press Pxx Pyy Pzz Pxy Pxz Pyz Volume 
       0          800    -111.3915   0.72385681   -110.66764     10120.76    4.2448057    4.2448057    4.2448057     10120.76    6274.7125    10351.085    13736.483    239.29756   -2111.6186    6996.9306    76.484501 
     100    440.76712   -110.97044   0.39881535   -110.57163    -7760.075    4.2743793    4.2743793    4.2743793    -7760.075   -26326.789   -10985.531    14032.095   -3581.8875    488.47605   -4601.0844     78.09427 
     200    530.76652   -110.84964   0.48024871    -110.3694   -11345.021      4.28213      4.28213      4.28213   -11345.021   -32857.468   -522.00431      -655.59   -4579.4299    3407.6025     2541.356    78.519863 
     300    1013.8228   -111.11423   0.91732815   -110.19691    7586.1395    4.2654676    4.2654676    4.2654676    7586.1395   -14414.838    38825.655   -1652.3988   -3984.1754   -2026.5205    -3858.733     77.60683 
     400    713.10126   -110.72617   0.64522901   -110.08094    17781.462    4.2797681    4.2797681    4.2797681    17781.462   -26775.686    54728.863     25391.21    1655.1619    3973.6936   -8388.3205    78.390008 
     500    489.24882   -110.43651   0.44268261   -109.99383    77.048594    4.2957541    4.2957541    4.2957541    77.048594   -42889.635    29645.927    13474.854   -4268.6346     3284.239   -842.37028     79.27171 
     600    1018.0225   -110.86111   0.92112815   -109.93999    -8816.305    4.2824818    4.2824818    4.2824818    -8816.305   -31524.048    10460.667   -5385.5338   -12574.552   -4626.2636    -4752.581    78.539222 
     700    1154.2406   -110.97826    1.0443812   -109.93388    6884.5106    4.2723881    4.2723881    4.2723881    6884.5106    -20080.66    7927.0388    32807.154    2456.7647   -4849.2146   -17034.882    77.985184 
     800     446.4697   -110.35992   0.40397516   -109.95595    383.29812    4.2901827    4.2901827    4.2901827    383.29812   -34538.856   -12483.641    48172.391   -6722.3484    323.67559    11417.186    78.963675 
     900    910.76781   -110.77976   0.82408185   -109.95568   -2559.9791    4.2749704    4.2749704    4.2749704   -2559.9791   -23551.663   -28091.374      43963.1   -9648.6921   -3148.5512   -6090.1631    78.126675 
    1000    1056.1177   -110.91643   0.95559747   -109.96084    398.34813    4.2797613    4.2797613    4.2797613    398.34813   -20747.507    27629.964   -5687.4128     1541.554    5360.9304    9353.4917    78.389634 
    1100    880.29328    -110.7533   0.79650786    -109.9568   -18137.567     4.291576     4.291576     4.291576   -18137.567   -40240.098   -18000.213      3827.61   -3228.7526   -3855.1851   -9562.1292    79.040637 
    1200    515.79953   -110.41282   0.46670626   -109.94612    41989.193    4.2667393    4.2667393    4.2667393    41989.193   -7298.9992    44750.355    88516.225    -14772.76   -2728.2827   -733.04025    77.676265 
    1300    904.98782   -110.77803     0.818852   -109.95918   -14804.295    4.2908703    4.2908703    4.2908703   -14804.295   -26616.658   -19591.938    1795.7115   -1450.4934   -5452.3048   -4275.8406     79.00165 
    1400    1148.6019   -110.99507    1.0392791   -109.95579   -15084.795     4.276972     4.276972     4.276972   -15084.795   -22895.664   -2195.6165   -20163.105    4177.3786    4026.9815    6969.2356    78.236463 
    1500    669.15482   -110.56366   0.60546534    -109.9582    28364.294    4.2660298    4.2660298    4.2660298    28364.294   -1468.3692    31821.364    54739.887   -16373.993   -1652.9516    505.87639    77.637522 
    1600    699.12734   -110.59435   0.63258511   -109.96177    -20881.96    4.3005718    4.3005718    4.3005718    -20881.96    -47605.56   -42687.835    27647.514   -6698.4041   -571.19648   -10253.048    79.538721 
    1700      770.191   -110.65682   0.69688501   -109.95993    32823.429    4.2648805    4.2648805    4.2648805    32823.429   -161.70658    31625.765    67006.229    5851.8691   -7683.3416   -10593.231    77.574787 
    1800    848.35966   -110.73023   0.76761365   -109.96262   -9343.1103    4.2710987    4.2710987    4.2710987   -9343.1103   -19294.757   -16425.275    7690.7017   -15631.579    4487.5319    4157.1942    77.914599 
    1900    897.86971    -110.7692   0.81241138   -109.95679   -44672.292    4.3001861    4.3001861    4.3001861   -44672.292   -55195.725   -56897.765   -21923.385   -14925.009    2899.4127    6818.1371    79.517322 
    2000    939.11754   -110.79726   0.84973328   -109.94753    37642.016    4.2578253    4.2578253    4.2578253    37642.016    7939.4972    18264.517    86722.035    7216.3661   -283.66286   -1230.1658    77.190442 
    2100    357.23978   -110.29371   0.32323806   -109.97047   -806.94881    4.2801973    4.2801973    4.2801973   -806.94881    -25385.97   -33266.657    56231.781   -16038.318   -1562.1266   -3244.2353    78.413595 
    2200    460.42682   -110.38087   0.41660386   -109.96426   -15425.524    4.2924316    4.2924316    4.2924316   -15425.524   -44042.462   -46593.318    44359.207   -22997.199   -4261.7385    -4798.032    79.087918 
    2300    1331.9032   -111.15065     1.205134   -109.94552    3360.5179     4.259309     4.259309     4.259309    3360.5179    -530.7859    10458.751    153.58891    8116.3896    10033.351    13316.314    77.271161 
    2400    800.46867   -110.68619   0.72428088   -109.96191   -21136.505     4.285842     4.285842     4.285842   -21136.505   -27045.247   -22543.757   -13820.511   -7904.1408   -6256.0471   -4400.3646    78.724236 
    2500    293.95963   -110.22415   0.26598085   -109.95817    4009.9968    4.2832654    4.2832654    4.2832654    4009.9968    -28584.29   -18175.328    58789.609   -21983.454    3645.7975   -4117.1255    78.582338 
    2600    730.82892   -110.61037   0.66126937    -109.9491    20527.996    4.2686612    4.2686612    4.2686612    20527.996   -9561.8307    49569.669    21576.151    5908.0641   -6026.0271   -5851.8671    77.781274 
    2700    1082.9848   -110.92727   0.97990738   -109.94736   -21329.446    4.2881492    4.2881492    4.2881492   -21329.446   -31696.469    -13893.91    -18397.96    176.67801    4711.9993    2236.8014    78.851444 
    2800    574.20503    -110.4726   0.51955278   -109.95305    20398.312    4.2722363    4.2722363    4.2722363    20398.312   -22053.534    32063.997    51184.473   -13180.509    7381.0864   -7602.1559    77.976867 
    2900    346.46671   -110.27736   0.31349036   -109.96387    4374.0074    4.2833022    4.2833022    4.2833022    4374.0074   -21303.209    14463.797    19961.434    -75.20074   -8688.0445    3171.0127    78.584365 
    3000    1059.9253   -110.90736    0.9590427   -109.94832   -11595.603    4.2851229    4.2851229    4.2851229   -11595.603   -25670.557   -2025.7082   -7090.5428    2716.9123   -5995.7168   -15027.612    78.684621 
    3100    983.45697   -110.83642   0.88985253   -109.94657    314.96631    4.2739086    4.2739086    4.2739086    314.96631    -22553.57    10919.032    12579.437   -10001.882     5589.578    4758.3728    78.068474 
    3200    542.13016   -110.44927   0.49053077   -109.95874    -15654.73    4.2863249    4.2863249    4.2863249    -15654.73   -39872.648   -21306.813    14215.271   -9953.8623    449.14674      6659.11    78.750852 
    3300    535.33332   -110.44026   0.48438084   -109.95588    13844.662    4.2741049    4.2741049    4.2741049    13844.662   -3340.9175   -9062.4788    53937.381    4859.3303   -2629.4918   -9328.2578     78.07923 
    3400    884.07411   -110.75919   0.79992883   -109.95926   -10982.989    4.2764154    4.2764154    4.2764154   -10982.989   -8379.7448     -22069.1   -2500.1209    -4619.677    1500.8915    8077.0698    78.205923 
    3500     887.2418   -110.75852   0.80279503   -109.95572   -35692.499    4.2927882    4.2927882    4.2927882   -35692.499   -49797.965    -24636.54   -32642.993   -12657.359   -5470.6375   -6536.5831    79.107634 
    3600    423.96791   -110.32779   0.38361508   -109.94417    33413.737     4.269865     4.269865     4.269865    33413.737   -309.29452    12825.422    87725.085   -1871.0865   -7889.0306    1617.3387    77.847099 
    3700    957.10244   -110.80677    0.8660064   -109.94076    -10791.22    4.2771199    4.2771199    4.2771199    -10791.22   -11603.525   -609.02198   -20161.112   -1794.3883   -2040.4556    5730.1643    78.244582 
    3800    764.83648   -110.63422   0.69204012   -109.94218   -22560.424    4.2941607    4.2941607    4.2941607   -22560.424   -34663.517   -8659.2509   -24358.503   -12904.498    217.53046   -8696.6605    79.183533 
    3900    622.16117   -110.50676    0.5629445   -109.94381    28400.202    4.2664811    4.2664811    4.2664811    28400.202   -8359.6759    33514.773    60045.509   -296.13133   -1957.7656    8358.6427    77.662162 
    4000    645.15193   -110.53898   0.58374702   -109.95523    23600.337     4.273519     4.273519     4.273519    23600.337   -3847.2244    32796.598    41851.638   -4615.6788   -5986.0697   -4433.9398    78.047127 
    4100    837.42704   -110.70972   0.75772159     -109.952   -24372.155     4.296807     4.296807     4.296807   -24372.155   -38630.648   -2815.2592   -31670.559   -7094.4227    4669.1878   -3527.4524    79.330016 
    4200    556.42564   -110.44602   0.50346561   -109.94255    32774.315    4.2664623    4.2664623    4.2664623    32774.315   -2121.2744    32674.213    67770.008   -1905.1415   -350.50453    6852.5476    77.661138 
    4300    808.18065   -110.68001   0.73125883   -109.94875    6157.3797    4.2746583    4.2746583    4.2746583    6157.3797   -8134.6529    18109.179    8497.6133   -4675.2975   -8845.0846    1205.7563    78.109565 
    4400    1076.5642   -110.91933   0.97409795   -109.94523   -36389.623    4.2919162    4.2919162    4.2919162   -36389.623   -35304.746   -34156.537   -39707.586    -2372.716    298.47091   -14632.799    79.059434 
    4500    506.35104   -110.39998   0.45815707   -109.94183     24521.71    4.2659932    4.2659932    4.2659932     24521.71    7020.0022   -2428.3485    68973.475   -6061.1405    6218.5828    401.80518     77.63552 
    4600     964.8516   -110.81733     0.873018   -109.94431   -11485.303    4.2810894    4.2810894    4.2810894   -11485.303   -22678.247   -9054.5209   -2723.1418   -5220.2012   -8350.0896   -9184.8605    78.462636 
    4700    1128.2772   -110.95705    1.0208889   -109.93617    -31401.02    4.2955156    4.2955156    4.2955156    -31401.02   -33607.631   -28077.373   -32518.057    2735.0618   -1312.3871    5393.5185     79.25851 
    4800    511.40354   -110.39925   0.46272867   -109.93652    22875.005    4.2610284    4.2610284    4.2610284    22875.005    3650.9348    4611.9583    60362.122   -3008.2611    2517.7419    -11397.72    77.364781 
    4900     619.3166   -110.51407   0.56037068    -109.9537   -2888.7715     4.275531     4.275531     4.275531   -2888.7715   -21007.735   -881.75269    13223.173   -7484.7791   -4523.6296    1544.6067    78.157413 
    5000    1195.8824   -111.03067    1.0820595   -109.94862   -23973.181    4.2882803    4.2882803    4.2882803   -23973.181   -33242.937   -16503.737   -22172.868   -2228.7689   -4129.1412   -2088.4288    78.858681 
    5100    898.63527   -110.75893   0.81310408   -109.94582    32972.317    4.2586576    4.2586576    4.2586576    32972.317    3285.9217    31821.591    63809.438    1938.9813    6655.0846    -2062.615    77.235716 
    5200    386.99429   -110.30459   0.35016057   -109.95443   -11488.331    4.2872808    4.2872808    4.2872808   -11488.331   -27794.131   -6780.4094    109.54702   -7550.0424    2655.3564   -15912.642    78.803552 
    5300    946.40197   -110.79692   0.85632439   -109.94059   -18598.191    4.2818451    4.2818451    4.2818451   -18598.191   -27540.618    603.70915   -28857.664   -3976.8463   -1459.1292     7189.261    78.504196 
    5400    799.95647   -110.65885   0.72381743   -109.93503    27539.311    4.2677897    4.2677897    4.2677897    27539.311   -6235.9498    25038.161    63815.723    6853.9959   -2479.7887    4030.1785    77.733643 
    5500    829.75878   -110.69211   0.75078318   -109.94133   -10452.737     4.283276     4.283276     4.283276   -10452.737    -33285.78   -9953.1786    11880.748   -301.39747   -1360.2004   -6769.0494    78.582925 
    5600    791.95816   -110.66628   0.71658039    -109.9497   -10326.415    4.2775055    4.2775055    4.2775055   -10326.415   -818.58004   -8741.6364   -21419.029   -4354.2151     7800.291   -14985.851    78.265744 
    5700    908.34558   -110.77107   0.82189017   -109.94918    17372.124    4.2674304    4.2674304    4.2674304    17372.124   -4016.0331     9664.456    46467.948    1145.3465   -1228.6923    3689.6062    77.714016 
    5800    842.39074   -110.71236   0.76221284   -109.95015   -17101.603    4.2883697    4.2883697    4.2883697   -17101.603   -36635.733   -9324.0396   -5345.0361    2497.0916   -380.08659    4979.4718    78.863609 
    5900    785.84192   -110.65436   0.71104628   -109.94331   -2976.5296    4.2723907    4.2723907    4.2723907   -2976.5296   -8689.1287     11582.74     -11823.2   -1106.6077    4529.2998   -9940.4973    77.985327 
    6000    699.28476   -110.57895   0.63272754   -109.94622    9694.2528    4.2746455    4.2746455    4.2746455    9694.2528   -6164.6813   -1004.8316    36252.271   -3842.0344    1309.2226   -5215.2474    78.108864 
    6100    1086.6894   -110.92193   0.98325942   -109.93867   -18006.007     4.283874     4.283874     4.283874   -18006.007   -15657.258   -27628.711   -10732.052    9886.9508    -3944.874    5349.7453    78.615842 
    6200    938.44928   -110.78428   0.84912863   -109.93515    2268.3036    4.2685833    4.2685833    4.2685833    2268.3036   -13366.492    600.23841    19571.165    4665.1494    5031.6913   -3553.7037    77.777017 
    6300    611.05049   -110.49566   0.55289132   -109.94277   -8923.3221    4.2828259    4.2828259    4.2828259   -8923.3221   -24318.531   -14718.448    12267.012   -6606.5003    7201.6785   -18384.933    78.558151 
    6400    1136.2876   -110.96169    1.0281369   -109.93356   -12862.656    4.2775873    4.2775873    4.2775873   -12862.656   -7428.7574   -20094.583   -11064.628    5129.2132   -1947.8044    19479.685    78.270235 
    6500     852.4252   -110.70704   0.77129224   -109.93575    8539.6596    4.2742114    4.2742114    4.2742114    8539.6596   -9899.6453    9452.5582    26066.066   -966.30753    -1755.738   -3756.7926    78.085067 
    6600    765.72311   -110.63545   0.69284236   -109.94261    4266.9484    4.2779342    4.2779342    4.2779342    4266.9484   -30847.906   -11919.478     55568.23    -8086.146    6327.4408    -3939.294    78.289279 
    6700    1027.2497   -110.87599   0.92947714   -109.94651   -5925.3044    4.2731966    4.2731966    4.2731966   -5925.3044   -6687.5794    4310.9192   -15399.253    2808.3851    3419.4644   -10026.273    78.029465 
    6800    987.16326   -110.84087   0.89320607   -109.94767    10567.364    4.2717074    4.2717074    4.2717074    10567.364   -16868.444    19681.218    28889.317     823.3956   -295.71217    14104.011    77.947913 
    6900    679.70484   -110.56812   0.61501123   -109.95311   -3555.7036    4.2862554    4.2862554    4.2862554   -3555.7036   -29042.766   -23478.471    41854.126   -10341.044   -1632.3994   -2643.0428    78.747022 
    7000    948.02222   -110.80462   0.85779043   -109.94683    2911.6095    4.2663836    4.2663836    4.2663836    2911.6095   -10410.914     16491.87    2653.8727   -6224.6766    6680.6774    6694.4145    77.656838 
    7100    958.98355   -110.81346   0.86770847   -109.94575    5824.0287    4.2756122    4.2756122    4.2756122    5824.0287   -17959.886    4790.8177    30641.155    4050.5094    1632.1322   -9367.2288    78.161866 
    7200     955.3353   -110.80189   0.86440745   -109.93748   -14049.416    4.2863151    4.2863151    4.2863151   -14049.416   -33412.405   -33344.838    24608.996   -6929.3456    1055.1336   -2401.0424     78.75031 
    7300    991.09859   -110.83085   0.89676683   -109.93409   -859.79105    4.2627432    4.2627432    4.2627432   -859.79105   -16844.415    3334.9965    10930.045   -7987.6405   -259.65688   -1250.3351    77.458217 
    7400    832.98192   -110.70197   0.75369954   -109.94827   -5877.9194    4.2765851    4.2765851    4.2765851   -5877.9194   -29327.753     7365.041    4328.9538     3095.899    16710.276   -263.13059    78.215237 
    7500    754.24401   -110.63306   0.68245583   -109.95061    1085.0772    4.2880069    4.2880069    4.2880069    1085.0772   -34172.054   -26984.339    64411.624   -4556.4788   -6526.9798    3758.8211    78.843596 
    7600    1091.2524   -110.93339   0.98738807     -109.946   -4538.8022    4.2704728    4.2704728    4.2704728   -4538.8022   -19798.115   -14007.829    20189.537   -8526.5115    98.131017    4819.0877    77.880348 
    7700    1036.5791   -110.88282   0.93791852    -109.9449    3652.7835     4.263623     4.263623     4.263623    3652.7835   -15752.647    1983.4165    24727.581    7054.8802    5612.6647   -10047.137     77.50619 
    7800    645.88099   -110.53356   0.58440669   -109.94915   -16977.742    4.2879668    4.2879668    4.2879668   -16977.742   -34334.044   -22092.232    5493.0494   -512.07452    9861.0898   -6618.7643    78.841384 
    7900    1127.7924   -110.95859    1.0204502   -109.93814   -7258.9847      4.27224      4.27224      4.27224   -7258.9847   -24005.285   -16754.693    18983.024   -8284.2692   -10797.545   -1477.3076    77.977072 
    8000    1036.8533   -110.87746   0.93816663    -109.9393    -8670.685     4.278066     4.278066     4.278066    -8670.685   -23015.843   -22734.893    19738.681     4656.372    10185.846    1271.8757    78.296516 
    8100    798.23787   -110.66416    0.7222624    -109.9419    12171.574    4.2749119    4.2749119    4.2749119    12171.574    -21700.46   -8987.8615    67203.044    2768.0128   -2636.9494   -1439.3438    78.123464 
    8200    796.65527    -110.6722   0.72083043   -109.95136   -11523.721    4.2753972    4.2753972    4.2753972   -11523.721    -17764.77   -23189.028     6382.636   -4511.6707   -5172.5249   -8695.2351    78.150074 
    8300    977.00752   -110.83299   0.88401694   -109.94898     -11548.8    4.2697756    4.2697756    4.2697756     -11548.8   -21471.288   -17401.748     4226.634     3936.787   -539.85512    6062.7246    77.842211 
    8400    983.84356   -110.84003   0.89020233   -109.94983    1430.6666    4.2779224    4.2779224    4.2779224    1430.6666   -12554.007   -18660.324     35506.33     5918.129    8015.1462    11228.479    78.288635 
    8500    931.37174   -110.78669   0.84272473   -109.94397     3696.268    4.2812734    4.2812734    4.2812734     3696.268   -15038.365   -22844.061     48971.23    -8037.157   -7165.7974   -477.94936    78.472752 
    8600    899.97146   -110.75606   0.81431309   -109.94175   -12087.536    4.2746338    4.2746338    4.2746338   -12087.536   -27007.801   -27313.416    18058.609    1785.5675    5098.5897    3049.1801    78.108221 
    8700    735.88975   -110.60646   0.66584851   -109.94061    8432.9862    4.2688719    4.2688719    4.2688719    8432.9862   -10956.735   -1316.4025    37572.096     11091.88   -6936.3501    15842.006    77.792793 
    8800    980.67041   -110.83387    0.8873312   -109.94654    14812.413    4.2752506    4.2752506    4.2752506    14812.413    4767.9229   -7443.5811    47112.897   -2670.6048    3733.4027   -11929.935    78.142039 
    8900    977.92425   -110.83665   0.88484641    -109.9518   -8624.7929    4.2784242    4.2784242    4.2784242   -8624.7929    -34193.89   -5391.8882    13711.399   -4156.6289    -296.4361   -1204.1773    78.316183 
    9000    572.81342   -110.46731   0.51829362   -109.94901    26268.426    4.2711855    4.2711855    4.2711855    26268.426   -13397.866    14286.513    77916.632    11042.122    -3065.537    3898.9729    77.919347 
    9100    1003.6392   -110.84822   0.90811383    -109.9401   -6743.6296    4.2839764    4.2839764    4.2839764   -6743.6296   -13799.034   -3703.9046   -2727.9502    855.84165   -2653.4511    10445.302    78.621479 
    9200    1056.7975   -110.89135   0.95621261   -109.93513    12606.818      4.26463      4.26463      4.26463    12606.818   -12479.621    20212.044     30088.03   -8019.1538    9466.7808   -4763.8736     77.56112 
    9300    706.75178   -110.59432   0.63948386   -109.95484    -8466.437    4.2780966    4.2780966    4.2780966    -8466.437   -37835.466   -13366.756    25802.911    8547.3015    -12091.58    -804.1216    78.298194 
    9400    772.55831   -110.64861     0.699027   -109.94959    21262.425    4.2753482    4.2753482    4.2753482    21262.425   -11150.262   -4387.0866    79324.624    2794.7922     2407.329     -4452.59     78.14739 
    9500    1089.1894   -110.93102   0.98552142    -109.9455   -14467.252     4.280031     4.280031     4.280031   -14467.252   -31021.341   -13790.197     1409.781   -6295.1729    5287.6101    18616.541    78.404457 
    9600     568.6962   -110.46055   0.51456827   -109.94598   -12177.093    4.2772929    4.2772929    4.2772929   -12177.093   -41842.182   -34342.987    39653.889     5509.102   -953.12242   -4607.4521    78.254076 
    9700    677.53663   -110.55969   0.61304938   -109.94664    24534.222    4.2616824    4.2616824    4.2616824    24534.222    5704.0098   -8327.1652    76225.822    5328.1216     -155.751    2108.6102    77.400404 
    9800    1149.7064    -110.9914    1.0402785   -109.95112   -15596.823    4.2808397    4.2808397    4.2808397   -15596.823   -31802.749   -18382.995    3395.2739   -5908.3633    13602.331   -6341.2944    78.448909 
    9900    820.62216   -110.70217   0.74251617   -109.95966   -31372.161    4.2841508    4.2841508    4.2841508   -31372.161   -48773.667   -42986.902   -2355.9124    2997.9369    4209.3991   -853.01481    78.631084 
   10000    869.92868   -110.74319   0.78712975   -109.95606    13106.387    4.2591157    4.2591157    4.2591157    13106.387   -17511.614    519.13899    56311.637     7951.478    490.53926    4158.0245    77.260643 
   10100     826.4188   -110.70689    0.7477611   -109.95913   -6143.4801     4.286558     4.286558     4.286558   -6143.4801   -14729.041   -14562.862    10861.462   -5116.0489    -374.6698    -2948.062    78.763702 
   10200    972.87151   -110.82995   0.88027459   -109.94968   -22956.011    4.2791175    4.2791175    4.2791175   -22956.011   -32950.155   -19844.291   -16073.587    1335.6725    7907.7286   -7933.3281    78.354266 
   10300    624.99457   -110.50859   0.56550822   -109.94308    22520.383     4.257576     4.257576     4.257576    22520.383   -21537.597    22974.648    66124.098    8926.9495    2724.3901    1890.2601    77.176883 
   10400    686.53504   -110.57079   0.62119133    -109.9496   -9337.5812    4.2860228    4.2860228    4.2860228   -9337.5812   -39219.917   -9133.6822    20340.856   -513.06454   -9169.8838   -6836.0947    78.734203 
   10500    1091.9546   -110.93414   0.98802345   -109.94611   -2029.8208    4.2770613    4.2770613    4.2770613   -2029.8208   -7750.8707   -10164.591        11826    1498.7244   -4656.9435     8799.279    78.241368 
   10600    913.45585    -110.7782   0.82651405   -109.95168   -7969.2133    4.2728253    4.2728253    4.2728253   -7969.2133   -29275.334   -3753.0413    9120.7358    5395.4106    6441.4956      144.177    78.009125 
   10700      599.272   -110.49569    0.5422339   -109.95346    78.452716    4.2800445    4.2800445    4.2800445    78.452716   -25958.912   -15539.048    41733.319   -3338.6862   -8893.8582   -7840.8129    78.405198 
   10800    910.78185   -110.77008   0.82409455   -109.94599    900.57951    4.2753309    4.2753309    4.2753309    900.57951   -17178.022   -2727.6662    22607.427   -111.23606   -16335.474   -7690.7504     78.14644 
   10900    1061.0145   -110.90132   0.96002821   -109.94129   -3737.6852    4.2732671    4.2732671    4.2732671   -3737.6852   -16955.734   -11841.825    17584.504    6900.3191    5718.3962    4679.0459    78.033327 
   11000     565.1463   -110.45857   0.51135625   -109.94721    2262.1399    4.2796205    4.2796205    4.2796205    2262.1399   -14534.341   -12628.536    33949.297    343.77493     4963.679   -4498.9943      78.3819 
   11100    817.09135   -110.68303   0.73932143   -109.94371    13080.074    4.2682544    4.2682544    4.2682544    13080.074   -14996.385    1097.1321    53139.473   -2161.4221   -20939.015    9073.5807    77.759038 
   11200    956.58715   -110.81205   0.86554015   -109.94651   -10538.165    4.2838758    4.2838758    4.2838758   -10538.165   -21421.131   -18093.206    7899.8405    4120.1198   -4275.2896   -9760.0172     78.61594 
   11300    743.07494   -110.61433   0.67234982   -109.94198    10658.598     4.276405     4.276405     4.276405    10658.598   -16593.026   -7652.0407     56220.86    598.16262     9964.862   -3637.5554    78.205355 
   11400    581.23061   -110.47154   0.52590967   -109.94563    20498.506    4.2677003    4.2677003    4.2677003    20498.506    3753.5431    -3963.351    61705.325   -5443.1445   -20403.396   -1120.7392    77.728759 
   11500    946.25435   -110.80564   0.85619082   -109.94945   -13515.286    4.2803838    4.2803838    4.2803838   -13515.286   -32250.386   -6821.9478   -1473.5231    1315.9573   -12039.939    917.34305    78.423846 
   11600    773.44723   -110.64795    0.6998313   -109.94812    458.61096    4.2837726    4.2837726    4.2837726    458.61096    -22290.96   -14969.024    38635.817   -2887.1072     2540.146    1197.6434    78.610259 
   11700    738.85302   -110.61109   0.66852974   -109.94257    17774.085    4.2672525    4.2672525    4.2672525    17774.085   -5698.8588   -7103.5486    66124.663   -7540.1633   -5454.4634    2684.8803    77.704297 
   11800    950.15929   -110.80788   0.85972409   -109.94816   -4889.2506    4.2723056    4.2723056    4.2723056   -4889.2506   -989.01535    1080.8743   -14759.611    1396.7646   -17659.417   -14813.878    77.980663 
   11900    621.92314   -110.50773   0.56272912   -109.94501   -8524.6289    4.2885434    4.2885434    4.2885434   -8524.6289   -36046.338   -1989.7406    12462.192   -3215.5616   -1019.0499    7743.6755    78.873195 
   12000    778.42552   -110.64067   0.70433577   -109.93633    10781.984    4.2711139    4.2711139    4.2711139    10781.984   -8729.7045   -13178.904     54254.56   -9720.4177    1585.6006   -1530.6869    77.915428 
   12100    1053.4705   -110.89472   0.95320223   -109.94152   -11374.848    4.2724696    4.2724696    4.2724696   -11374.848   -11259.886   -12697.388   -10167.269    577.95277   -8639.7964   -4356.0446    77.989647 
   12200    719.17332   -110.59873   0.65072313     -109.948    4465.9114     4.280797     4.280797     4.280797    4465.9114   -11871.765   -3255.8945    28525.393   -1373.6144   -14084.507   -91.972199    78.446561 
   12300    772.86292   -110.64506   0.69930261   -109.94576   -5371.9935     4.277061     4.277061     4.277061   -5371.9935   -34894.178    -7994.509    26772.706   -8581.0365    6027.9632    1059.9702     78.24135 
   12400    990.45574   -110.83901   0.89618517   -109.94282   -8992.2747    4.2678422    4.2678422    4.2678422   -8992.2747   -6456.5391    -16958.48   -3561.8045   -85.324296    2931.7891   -25079.184    77.736511 
   12500    880.65739   -110.74865   0.79683732   -109.95182   -15757.305     4.279058     4.279058     4.279058   -15757.305   -29286.317   -10974.031   -7011.5676    3873.8264   -10854.958     4890.793    78.350996 
   12600    649.61085   -110.53686   0.58778155   -109.94908    19202.518    4.2746142    4.2746142    4.2746142    19202.518    -12519.91   -5138.0644    75265.529   -7145.3751   -3022.2159    7633.6152    78.107148 
   12700    999.03147   -110.84961   0.90394467   -109.94566   -22336.459    4.2801742    4.2801742    4.2801742   -22336.459   -23459.283   -37361.376   -6188.7167   -543.44977    7915.8527   -3679.5753    78.412325 
   12800    871.16556   -110.73127    0.7882489   -109.94302   -4903.3484    4.2691108    4.2691108    4.2691108   -4903.3484   -10736.984   -12479.306    8506.2455    6920.6225   -6298.9394   -20934.684    77.805853 
   12900    691.29455   -110.57631   0.62549784   -109.95082    4380.5945    4.2734014    4.2734014    4.2734014    4380.5945   -18276.995   -10356.686    41775.465   -11270.097   -8812.8423    1126.2231    78.040684 
   13000    917.85066   -110.77804   0.83049057   -109.94755   -5154.4243    4.2826272    4.2826272    4.2826272   -5154.4243   -25878.184   -28020.809     38435.72    -5577.076    2854.4089   -4104.2057    78.547217 
   13100    1049.9008   -110.89589   0.94997231   -109.94591   -14880.181    4.2733551    4.2733551    4.2733551   -14880.181   -13516.038   -24986.722   -6137.7834    6533.6335   -970.37463   -9598.2873    78.038144 
   13200    762.84504   -110.63898   0.69023823   -109.94874    1986.6451    4.2666395    4.2666395    4.2666395    1986.6451   -11761.978   -11566.623    29288.536   -7836.6244   -1461.3665   -14211.541    77.670811 
   13300    712.82365   -110.59815   0.64497782   -109.95317   -1409.1121    4.2818394    4.2818394    4.2818394   -1409.1121   -23168.376    -27970.12     46911.16   -2881.4721    482.48495    12972.825     78.50388 
   13400    1116.3174   -110.95649    1.0100674   -109.94642   -19369.083    4.2766529    4.2766529    4.2766529   -19369.083   -16769.161   -26546.538   -14791.551     3558.265   -6166.2355   -23362.938    78.218953 
   13500    893.52902   -110.75566   0.80848384   -109.94717   -20.784254    4.2662292    4.2662292    4.2662292   -20.784254    174.06078   -12539.098    12302.685   -4765.3865    10775.717    -19062.09    77.648408 
   13600    641.61685   -110.53255   0.58054841     -109.952    7868.1439    4.2762749    4.2762749    4.2762749    7868.1439   -28788.109   -6193.4831    58586.024   -7271.1607    6658.0913     10325.66    78.198215 
   13700    859.18889   -110.73047   0.77741217   -109.95305   -12325.093    4.2849598    4.2849598    4.2849598   -12325.093   -24097.245   -15393.364    2515.3287   -5855.6856   -4991.3473    2112.7688    78.675637 
   13800     1018.594   -110.87172   0.92164528   -109.95008   -6067.2681    4.2645309    4.2645309    4.2645309   -6067.2681    1185.5022   -7486.0346   -11901.272    2032.3637    6315.0323   -29490.632    77.555715 
   13900    667.08998   -110.56079   0.60359703    -109.9572    22184.835     4.264585     4.264585     4.264585    22184.835   -3052.7633    12075.281    57531.987   -7262.2976    6890.7626   -4862.4358    77.558667 
   14000    755.15731   -110.63354   0.68328221   -109.95026   -7671.7517    4.2906481    4.2906481    4.2906481   -7671.7517   -37638.293   -6737.3673    21360.405   -9546.0507   -117.25606     5987.105    78.989377 
   14100    1189.6201   -111.01599    1.0763933    -109.9396    2248.9788    4.2678342    4.2678342    4.2678342    2248.9788   -2840.9223     -4437.58    14025.439    5804.1094    4986.4661   -4966.4691    77.736075 
   14200    715.75052   -110.59691   0.64762611   -109.94928    8246.6138    4.2675222    4.2675222    4.2675222    8246.6138   -12936.719    17630.001    20046.559   -6528.6993    3872.0763   -15325.444    77.719029 
   14300    487.42505   -110.39558   0.44103243   -109.95455   -4192.2888        4.286        4.286        4.286   -4192.2888   -37658.537   -13160.375    38242.046   -14182.188    9570.9278    611.62117    78.732948 
   14400    1108.9192   -110.94885    1.0033734   -109.94548     11567.17     4.265565     4.265565     4.265565     11567.17    3991.6758    4847.1471    25862.688   -1452.0524   -177.63345   -9554.4278    77.612145 
   14500    1056.0729   -110.90515   0.95555692   -109.94959   -1196.3523    4.2690354    4.2690354    4.2690354   -1196.3523   -7221.0305   -6169.7405    9801.7141    -2946.645   -5728.8818   -1612.5013     77.80173 
   14600     356.7589   -110.27691   0.32280295   -109.95411   -25290.985    4.2884652    4.2884652    4.2884652   -25290.985   -41323.741   -32689.659   -1859.5543    -13912.12    12416.892   -12021.919    78.868878 
   14700    764.94672   -110.63779   0.69213987   -109.94565    35987.012    4.2574211    4.2574211    4.2574211    35987.012    6402.6896    14045.266     87513.08   -4213.6411    19225.691    6427.8913    77.168456 
   14800    1159.4263   -110.99908    1.0490733   -109.95001   -21169.223      4.28424      4.28424      4.28424   -21169.223   -15460.381   -18845.194   -29202.093    2116.0628   -17711.908   -7394.4055     78.63599 
   14900    534.94816   -110.43328   0.48403233   -109.94925    1642.8962    4.2757614    4.2757614    4.2757614    1642.8962   -13378.101   -973.56764    19280.357   -10978.381     3122.729   -9781.3824    78.170049 
   15000      484.705   -110.38394   0.43857127   -109.94537    22937.201    4.2650234    4.2650234    4.2650234    22937.201    6799.9961    17873.899    44137.708   -12960.659    16364.956   -4668.6474    77.582587 
   15100    1144.0785   -110.97328    1.0351863   -109.93809    -18314.69    4.2851443    4.2851443    4.2851443    -18314.69   -21981.488   -14234.789   -18727.794    2394.7291    3685.3849    11520.354    78.685797 
   15200    848.19189   -110.71169   0.76746184   -109.94423    1098.6412    4.2737156    4.2737156    4.2737156    1098.6412    5080.3045   -9978.4799    8194.0989   -6322.0021   -9712.8173   -12652.207    78.057897 
   15300    365.37631    -110.2853   0.33060017    -109.9547    29179.386    4.2680667    4.2680667    4.2680667    29179.386   -4637.3655   -2329.6149    94505.137   -17245.327    14610.512   -1402.8647    77.748782 
   15400    792.42206   -110.67517   0.71700013   -109.95817   -26720.246    4.2863782    4.2863782    4.2863782   -26720.246   -32868.546   -14757.499   -32534.694    84.379018     10222.04   -850.08997    78.753789 
   15500    1110.1889   -110.94953    1.0045222   -109.94501    1510.0328     4.265678     4.265678     4.265678    1510.0328   -1890.3779    7027.9311   -607.45492    1881.3975    143.03111    734.48049    77.618313 
   15600    527.74138   -110.43125   0.47751149   -109.95374    1519.5104    4.2793335    4.2793335    4.2793335    1519.5104   -24320.939   -18699.857    47579.327   -17061.368   -2346.3681   -4385.0232    78.366132 
   15700    697.75008   -110.57705   0.63133893   -109.94571    -12438.62    4.2762946    4.2762946    4.2762946    -12438.62    -26919.33    -253.8795   -10142.652   -9163.9656    21797.052    8862.7576    78.199297 
   15800    1049.8094   -110.88772   0.94988961   -109.93783   -5093.6784    4.2749695    4.2749695    4.2749695   -5093.6784   -18654.866    6400.6551   -3026.8245    2338.7056    3952.2749   -5456.9769    78.126625 
   15900     590.3486   -110.47371   0.53415982   -109.93955    2760.6445    4.2847019    4.2847019    4.2847019    2760.6445   -38099.537    -7702.853    54084.323   -11647.921   -9448.0494    9010.9307    78.661431 
   16000     561.2846   -110.45503    0.5078621   -109.94717    5540.8557    4.2649819    4.2649819    4.2649819    5540.8557    -13025.16    30225.087   -577.35972   -12895.816     15827.77   -5100.9093    77.580324 
   16100    872.84656    -110.7398   0.78976991   -109.95003   -6538.1304    4.2805802    4.2805802    4.2805802   -6538.1304   -16493.373    28882.843    -32003.86     3309.304    16377.352     4605.839    78.434642 
   16200    738.10217   -110.60741   0.66785036   -109.93956    5602.6481    4.2865586    4.2865586    4.2865586    5602.6481    -32498.15    6870.8209    42435.273    -3075.958   -4975.0475    2733.1437    78.763735 
   16300    700.12072   -110.56889   0.63348394   -109.93541     8900.564    4.2619587    4.2619587    4.2619587     8900.564   -14351.519    41240.136   -186.92481   -16886.298    4486.2443    6728.1084    77.415464 
   16400     669.7218   -110.55375   0.60597836   -109.94777   -9303.2454    4.2807679    4.2807679    4.2807679   -9303.2454   -17726.952    -1510.983   -8671.8013   -1136.3407    14970.092   -1504.6148     78.44496 
   16500    990.29279   -110.82433   0.89603773   -109.92829   -13731.005    4.2906032    4.2906032    4.2906032   -13731.005   -14945.158   -20881.247   -5366.6094   -2404.0216   -3020.4099   -1099.8985    78.986899 
   16600    854.80411   -110.69516   0.77344472   -109.92172    10310.335    4.2654379    4.2654379    4.2654379    10310.335   -2749.0719    3880.0931    29799.984   -10904.935     10301.22    2244.8309    77.605208 
   16700    615.22094   -110.49134   0.55666483   -109.93468   -12688.204    4.2793332    4.2793332    4.2793332   -12688.204   -7103.2375   -7710.3254    -23251.05    -8051.329     15495.43   -6902.4476    78.366115 
   16800    930.66033   -110.77106   0.84208102   -109.92897   -5443.2157     4.281713     4.281713     4.281713   -5443.2157   -93.715694        19295   -35530.931    9009.0141    3363.1243    760.13999    78.496928 
   16900    751.55774   -110.60994   0.68002524   -109.92991    25001.326    4.2719935    4.2719935    4.2719935    25001.326    4680.1126    45289.277    25034.588    7371.9539   -2044.4287   -6609.0114    77.963575 
   17000    615.81536   -110.49159   0.55720268   -109.93439   -4003.2434    4.2811721    4.2811721    4.2811721   -4003.2434   -23041.379    14393.213   -3361.5642   -15637.673    7871.1712    6183.2313    78.467183 
   17100    758.16743   -110.61587   0.68600582   -109.92986    10589.605    4.2725125    4.2725125    4.2725125    10589.605   -6682.3002     39363.13   -912.01455    4966.3382    5192.3286    10873.271    77.991992 
   17200    882.50035   -110.73185   0.79850487   -109.93335   -2199.4776    4.2799386    4.2799386    4.2799386   -2199.4776    -8876.298   -2799.4489    5077.3141    6794.0837   -13514.549   -12384.254    78.399377 
   17300    531.44897   -110.41527   0.48086619    -109.9344   -4452.9092    4.2805606    4.2805606    4.2805606   -4452.9092   -24164.182   -25227.305     36032.76   -16965.292    676.66161    1144.9594    78.433566 
   17400     853.7937   -110.70363   0.77253048    -109.9311    1971.2939    4.2711412    4.2711412    4.2711412    1971.2939   -20625.483    9541.2534    16998.111    -10745.76    4373.1493   -7881.2002    77.916923 
   17500    950.08882   -110.79207   0.85966033   -109.93241    -6927.277     4.283618     4.283618     4.283618    -6927.277   -17484.066    13606.454   -16904.218    4300.4682   -6534.2621   -9624.5077    78.601749 
   17600    817.50744   -110.67236   0.73969791   -109.93266    3488.5195    4.2733479    4.2733479    4.2733479    3488.5195   -12831.793    31593.444   -8296.0929   -11534.734   -1380.0789   -9720.8223     78.03775 
   17700    643.74026    -110.5226   0.58246972   -109.94013   -2674.8772    4.2846223    4.2846223    4.2846223   -2674.8772   -36391.329    29898.545   -1531.8482   -16675.732    5638.1271    500.25324    78.657046 
   17800    1111.2719   -110.93317    1.0055021   -109.92767   -12226.008    4.2825396    4.2825396    4.2825396   -12226.008   -30443.109    17137.591   -23372.508    4262.8955    961.01727    15213.224    78.542402 
   17900    751.30759   -110.60759    0.6797989   -109.92779    18789.445    4.2687722    4.2687722    4.2687722    18789.445   -4091.7555    25933.783    34526.308   -10310.308   -10286.143   -1687.6886    77.787345 
   18000    671.41042   -110.54313   0.60750626   -109.93562   -33511.303    4.2930236    4.2930236    4.2930236   -33511.303   -54300.066   -44902.865   -1330.9785   -22409.782    9320.4908    3008.8063    79.120645 
   18100    815.93318   -110.66568   0.73827349   -109.92741    9718.4499     4.271681     4.271681     4.271681    9718.4499     -21296.5    13770.777    36681.072   -1299.6557      7770.13   -3446.0571    77.946466 
   18200    881.57035   -110.73055   0.79766338   -109.93288    1175.4886    4.2741766    4.2741766    4.2741766    1175.4886   -16226.017     32477.61   -12725.128   -5821.3404   -7972.8332   -1114.6605    78.083162 
   18300    400.37105   -110.29919   0.36226414   -109.93693   -5552.3302    4.2867511    4.2867511    4.2867511   -5552.3302   -37421.974    44714.405   -23949.422   -8861.9346    256.85099   -13132.047    78.774346 
   18400    649.57706   -110.51699   0.58775098   -109.92924    11833.873     4.269859     4.269859     4.269859    11833.873   -19430.229    41835.425    13096.424    -11996.47    6197.5354   -14784.546    77.846771 
   18500    862.43069   -110.71241   0.78034542   -109.93206   -11786.766    4.2807355    4.2807355    4.2807355   -11786.766   -30270.777        12941   -18030.521    13235.582   -7709.8461    923.06618     78.44318 
   18600    698.21694   -110.56449   0.63176136   -109.93273   -7957.2033    4.2779307    4.2779307    4.2779307   -7957.2033   -23091.429    15321.014   -16101.195   -1767.8202    -7149.308   -2019.6426    78.289089 
   18700    811.76078   -110.66683   0.73449821   -109.93233   -6357.1767    4.2736212    4.2736212    4.2736212   -6357.1767   -9284.7466   -3437.3241   -6349.4594   -3659.3052    6516.4543    1327.5544    78.052725 
   18800    630.49051   -110.50372   0.57048107   -109.93323   -1331.0798    4.2878688    4.2878688    4.2878688   -1331.0798   -29846.093    50303.569   -24450.715   -1377.7709   -6246.4304    9034.6565     78.83598 
   18900    617.12029   -110.48936   0.55838341   -109.93098    7716.8152    4.2779863    4.2779863    4.2779863    7716.8152   -16413.934    50490.915   -10926.535    4386.9505   -10040.691    18169.962    78.292141 
   19000     576.2105    -110.4524   0.52136737   -109.93103    14533.013    4.2697404    4.2697404    4.2697404    14533.013   -14480.015    52976.305    5102.7469   -8018.5717    3112.4012    6247.5707    77.840284 
   19100    692.57745   -110.56317   0.62665863   -109.93652   -18215.567    4.2874625    4.2874625    4.2874625   -18215.567   -35449.521   -17414.833   -1782.3485   -9350.6821   -6806.6082    3016.2703    78.813571 
   19200    822.78567    -110.6742   0.74447376   -109.92973   -4903.6784    4.2782677    4.2782677    4.2782677   -4903.6784    3259.3582   -19300.651    1330.2576     3937.194   -11995.532    6881.1285    78.307594 
   19300    686.91546   -110.55238   0.62153555   -109.93085    -3702.584    4.2831469    4.2831469    4.2831469    -3702.584   -12345.282    622.64615     614.8836   -4738.4434    4403.8267    5295.8107    78.575816 
   19400    713.58527   -110.57858   0.64566695   -109.93291   -9898.4908     4.279241     4.279241     4.279241   -9898.4908   -31686.073    14766.626   -12776.026   -12641.464   -56.358076    -13082.02     78.36105 
   19500     853.4791   -110.70032   0.77224583   -109.92807    31063.962    4.2544403    4.2544403    4.2544403    31063.962    10108.437    77390.249    5693.2006   -4872.6109   -4185.8573   -5918.5284    77.006485 
   19600    563.72714   -110.45579   0.51007216   -109.94571   -20493.029    4.2946546    4.2946546    4.2946546   -20493.029   -27082.993   -536.03161   -33860.064    8464.5263    886.44513    11475.656    79.210858 
   19700    720.42776   -110.59603   0.65185817   -109.94417   -5520.7603    4.2700052    4.2700052    4.2700052   -5520.7603   -1980.1884    2482.0492   -17064.142   -6734.0453    4019.6807    9256.1772    77.854766 
   19800    1017.8619   -110.84979   0.92098286   -109.92881    22306.524    4.2522483    4.2522483    4.2522483    22306.524    15276.819    18925.636    32717.116   -195.62317   -4986.6114   -722.16125    76.887521 
   19900    941.85144   -110.78224   0.85220698   -109.93003   -33522.658    4.2954767    4.2954767    4.2954767   -33522.658   -28103.061   -26707.771   -45757.142    6602.3114   -2736.6362    1193.1462    79.256355 
   20000    487.90623   -110.37455   0.44146781   -109.93308    27309.962    4.2631369    4.2631369    4.2631369    27309.962    16137.606    49744.855    16047.423    15000.904     11469.78    12586.918    77.479686 
   20100    771.30643    -110.6332   0.69789427   -109.93531    19265.508    4.2696481    4.2696481    4.2696481    19265.508    11799.133    44521.503    1475.8878   -959.30662    -2773.116    6265.6499    77.835235 
   20200    1119.0667   -110.93775    1.0125551   -109.92519   -15376.615    4.2863596    4.2863596    4.2863596   -15376.615   -23201.827    18625.468   -41553.487   -4021.7258   -8436.9317   -4727.3979    78.752765 
   20300    759.87614   -110.61846    0.6875519   -109.93091     7149.498    4.2576491    4.2576491    4.2576491     7149.498    30557.864   -11927.629    2818.2591    11403.514    1844.9884   -8431.2719    77.180859 
   20400    596.27416   -110.48762   0.53952139   -109.94809   -6057.1481     4.274092     4.274092     4.274092   -6057.1481   -14315.488    11475.919   -15331.876    7209.4009    9651.3838     12992.25    78.078524 
   20500     1057.739   -110.89254   0.95706451   -109.93547   -8339.4069     4.285786     4.285786     4.285786   -8339.4069   -18969.004    35752.191   -41801.408   -4498.2938    6212.5566   -1827.8556    78.721155 
   20600     788.9931   -110.64575   0.71389754   -109.93186     13715.61    4.2655892    4.2655892    4.2655892     13715.61    3635.5918    49304.849   -11793.612    1041.7419   -3969.2554   -2812.3173    77.613465 
   20700    572.23619   -110.46093   0.51777133   -109.94316   -15684.674    4.2717217    4.2717217    4.2717217   -15684.674   -21448.969      6195.89   -31800.943    2085.7583    13160.004    11753.794    77.948697 
   20800    863.96441   -110.72114   0.78173315    -109.9394    -9216.963    4.2757719    4.2757719    4.2757719    -9216.963   -8235.0613    2305.9702   -21721.798   -8732.6782    10308.337     16772.68    78.170626 
   20900    1193.2112   -111.01043    1.0796426   -109.93079   -13248.138    4.2815037    4.2815037    4.2815037   -13248.138    -9152.076   -8481.0378     -22111.3   -45.667472   -7295.4528    1423.4869    78.485417 
   21000    620.26379   -110.49221   0.56122771   -109.93098   -19486.576     4.281812     4.281812     4.281812   -19486.576   -35056.366    6707.3165   -30110.679    7653.5898    11617.232   -4529.6449    78.502371 
   21100    676.21906   -110.53868   0.61185722   -109.92682    12353.075    4.2552321    4.2552321    4.2552321    12353.075    14679.484    36674.891    -14295.15    2734.1745    7747.4626     14665.41    77.049489 
   21200    894.97666   -110.74683   0.80979369   -109.93703    319.84771    4.2768126    4.2768126    4.2768126    319.84771    -1567.506     9305.585   -6778.5359    2809.9454   -6717.3449    3453.5345     78.22772 
   21300    860.33005   -110.70938   0.77844471   -109.93093   -15210.128    4.2848377    4.2848377    4.2848377   -15210.128   -22467.136   -5586.5415   -17576.707    14104.014    2856.0162    -7778.615     78.66891 
   21400    687.09643   -110.55087   0.62169929   -109.92917    8250.4807    4.2590865    4.2590865    4.2590865    8250.4807    12011.068     13336.51   -596.13596    10702.802    9610.2903   -2124.7352    77.259052 
   21500    781.19446   -110.64242   0.70684116   -109.93558   -11447.257    4.2717183    4.2717183    4.2717183   -11447.257    14044.922   -16317.364   -32069.328   -191.12758   -165.83511    14150.784    77.948512 
   21600    728.68551   -110.59171   0.65932996   -109.93238   -6541.8101    4.2844255    4.2844255    4.2844255   -6541.8101   -17137.807    19443.462   -21931.085   -7775.5475   -6550.4379    6579.2446    78.646209 
   21700    747.48555   -110.60213   0.67634063   -109.92579    13585.155      4.26983      4.26983      4.26983    13585.155    19653.368    13419.571    7682.5266    2965.2708    10286.479    871.91015    77.845185 
   21800    636.67536   -110.50497   0.57607725   -109.92889    9201.6659    4.2686254    4.2686254    4.2686254    9201.6659    21899.867    26844.434   -21139.303    2777.3993    8083.7604     20694.08    77.779319 
   21900    583.43027   -110.46469   0.52789997   -109.93679   -1267.2127    4.2758743    4.2758743    4.2758743   -1267.2127     17899.93    972.84654   -22674.415   -10443.048   -13542.641    14252.549    78.176239 
   22000    684.24232   -110.55548   0.61911683   -109.93637    13333.718    4.2728292    4.2728292    4.2728292    13333.718    16844.998    3635.4049    19520.751    1729.6427    1848.6424    2548.5828    78.009341 
   22100    861.51689   -110.71511   0.77951859    -109.9356   -9301.9376    4.2780082    4.2780082    4.2780082   -9301.9376   -13242.533   -25378.721    10715.441    803.27618    10732.502    6987.4891    78.293344 
   22200     497.7152   -110.38636   0.45034317   -109.93602   -7674.6005    4.2733867    4.2733867    4.2733867   -7674.6005    8957.0074   -25494.631   -6486.1776    8867.1977   -5617.9602    19201.943    78.039879 
   22300    734.85307   -110.59929    0.6649105   -109.93438    -10228.66    4.2718169    4.2718169    4.2718169    -10228.66   -17510.688   -10101.726   -3073.5666   -6538.7677   -14341.977   -5977.6079    77.953908 
   22400    771.84612   -110.62933   0.69838259   -109.93095   -9871.1981     4.281396     4.281396     4.281396   -9871.1981   -12311.967   -35283.316    17981.689    6723.3906   -7174.5263   -6690.2436    78.479495 
   22500     799.4745   -110.65323   0.72338132   -109.92985   -4619.2377     4.267717     4.267717     4.267717   -4619.2377    5220.9759   -19346.141    267.45204    6349.5356   -3783.8027    16594.671    77.729674 
   22600     540.4497   -110.42554   0.48901024   -109.93653   -3540.8991    4.2754351    4.2754351    4.2754351   -3540.8991    4004.3605    15852.589   -30479.647   -5521.4643   -19171.616    2187.5088    78.152152 
   22700    891.07357   -110.73743   0.80626209   -109.93117   -14742.206    4.2829159    4.2829159    4.2829159   -14742.206   -12459.919   -12052.639    -19714.06    3913.1149   -10690.637   -10053.787    78.563103 
   22800     747.5806   -110.60553   0.67642664    -109.9291    28769.567     4.257194     4.257194     4.257194    28769.567    52841.903   -8189.8142    41656.613    -2916.513    12096.814    13194.217     77.15611 
   22900    555.50715   -110.44338   0.50263454   -109.94075    5345.2326    4.2731544    4.2731544    4.2731544    5345.2326    17755.489   -4367.0639    2647.2731    1127.6776   -6778.6077    22260.199     78.02715 
   23000     763.8387   -110.62379   0.69113731   -109.93265   -10303.385    4.2859721    4.2859721    4.2859721   -10303.385   -22507.638   -14511.262    6108.7439   -4773.6725   -5291.9179   -7623.5758     78.73141 
   23100    774.67224   -110.62769   0.70093972   -109.92675    21402.854    4.2594993    4.2594993    4.2594993    21402.854    49277.772   -8800.4362    23731.226   -1133.8955   -1421.6789    6060.6227    77.281521 
   23200    669.07533   -110.54134   0.60539342   -109.93595   -10575.757     4.269237     4.269237     4.269237   -10575.757    17577.595   -31577.201   -17727.665    4461.6181    2004.8209    30582.432    77.812753 
   23300    739.48026   -110.60187   0.66909728   -109.93278   -18136.504    4.2820374    4.2820374    4.2820374   -18136.504   -5082.1966   -28933.874   -20393.441    290.81996   -10703.844    1301.1817     78.51477 
   23400    921.41558   -110.76358   0.83371618   -109.92987   -5511.5132    4.2663247    4.2663247    4.2663247   -5511.5132   -3002.2355   -13260.345   -271.95926    2378.6001   -22252.135   -4444.6197    77.653624 
   23500     557.4367   -110.44273   0.50438044   -109.93835    12865.616    4.2588386    4.2588386    4.2588386    12865.616    56923.871   -19367.124    1040.1007    287.67585    13278.961    30376.643    77.245565 
   23600    670.22075   -110.54987   0.60642982   -109.94344   -10561.593     4.282467     4.282467     4.282467   -10561.593   -8049.8979   -50036.266    26401.386     14281.48   -5775.9048    14436.373    78.538407 
   23700     950.3982   -110.79631   0.85994026   -109.93637   -6045.9846    4.2741752    4.2741752    4.2741752   -6045.9846    9341.9219   -21891.524   -5588.3521   -723.76466    -7547.415   -12240.859    78.083083 
   23800    713.51637   -110.57575   0.64560461   -109.93015     21673.17    4.2521333    4.2521333    4.2521333     21673.17    28673.607   -13598.219    49944.122     202.1673     1041.016    20835.215    76.881283 
   23900    652.11239   -110.53049     0.590045   -109.94045   -20327.332    4.2829615    4.2829615    4.2829615   -20327.332    7069.8098   -54265.693   -13786.114     12562.21   -4352.6009    28376.561    78.565615 
   24000    1072.3545   -110.89844   0.97028885   -109.92815   -9987.5372     4.274929     4.274929     4.274929   -9987.5372   -18477.308   -24103.538    12618.234     309.1058    4380.5618   -9142.3059    78.124402 
   24100    866.75109   -110.70999    0.7842546   -109.92574   -3031.1034    4.2638251    4.2638251    4.2638251   -3031.1034    16333.801   -17697.813   -7729.2979    2117.0791   -15274.297    14671.976     77.51721 
   24200    628.96623   -110.50305   0.56910186   -109.93395   -18071.161    4.2740472    4.2740472    4.2740472   -18071.161    7529.6192   -39232.679   -22510.425   -1710.6108   -1104.1956    30583.011    78.076069 
   24300    952.21416   -110.79272   0.86158339   -109.93114    10829.393     4.265992     4.265992     4.265992    10829.393    27437.923   -8058.1076    13108.365     11974.41    5765.7068    -2658.398    77.635455 
   24400    922.91957   -110.76912   0.83507702   -109.93404   -6551.1997    4.2778174    4.2778174    4.2778174   -6551.1997    8541.5809   -27443.969   -751.21061    2833.9372   -1627.7356    427.00199    78.282869 
   24500    671.71651   -110.54622   0.60778321   -109.93843    6779.7704    4.2625168    4.2625168    4.2625168    6779.7704    37669.369   -9955.7881   -7374.2694   -7625.7602    4089.5428    29835.792    77.445881 
   24600    858.41824   -110.71853   0.77671486   -109.94182    11116.528    4.2664734    4.2664734    4.2664734    11116.528    32443.686   -7393.1548    8299.0536    11847.821   -6300.1441    10740.373     77.66174 
   24700    1045.1414   -110.87628   0.94566586   -109.93061   -16911.687    4.2849304    4.2849304    4.2849304   -16911.687   -15864.311   -29015.729   -5855.0189    5703.7446    11771.123   -11878.508    78.674017 
   24800    788.74455   -110.64165   0.71367264   -109.92797    17084.723    4.2567352    4.2567352    4.2567352    17084.723    38452.451    4825.3478    7976.3707   -5698.8947   -7629.3465    23688.126    77.131169 
   24900    918.55387   -110.76554   0.83112684   -109.93441   -12822.326    4.2727914    4.2727914    4.2727914   -12822.326    -3788.224   -18533.947   -16144.807   -1766.6568   -8028.2694    17776.827    78.007271 
   25000    895.57519   -110.73847   0.81033525   -109.92813   -10766.714    4.2775074    4.2775074    4.2775074   -10766.714   -11219.348   -21001.823   -78.971341     16892.99    9333.3435   -7130.0463     78.26585 
   25100    974.14242   -110.80855   0.88142453   -109.92712    10823.325    4.2561036    4.2561036    4.2561036    10823.325    34064.949   -12086.184    10491.212    5402.0236   -7097.7042    10532.087    77.096841 
   25200    820.58707   -110.67917   0.74248443   -109.93669   -6491.8826     4.274783     4.274783     4.274783   -6491.8826    26751.074   -30976.817   -15249.905   -10844.925    5111.5679    16639.914      78.1164 
   25300    1026.9515   -110.85917   0.92920726   -109.92997    8787.8262    4.2687255    4.2687255    4.2687255    8787.8262    44695.864   -10719.686   -7612.6996    19737.891   -1833.8475   -220.82783    77.784788 
   25400    802.03262    -110.6607   0.72569597     -109.935   -7942.6103    4.2768398    4.2768398    4.2768398   -7942.6103    9581.5302   -30679.365   -2729.9957     9065.638    1510.2088    2194.5115    78.229211 
   25500    918.11168   -110.76268   0.83072674   -109.93195   -11607.883    4.2670872    4.2670872    4.2670872   -11607.883    6473.8476   -31462.651   -9834.8457   -14537.777    8671.6157    14971.957    77.695267 
   25600    1058.6794   -110.88484   0.95791534   -109.92692    23059.208    4.2557646    4.2557646    4.2557646    23059.208    29115.407    14196.595    25865.623   -3475.3457   -2524.4741    2533.0278    77.078419 
   25700    887.16907   -110.73461   0.80272922   -109.93188   -28342.517    4.2887968    4.2887968    4.2887968   -28342.517   -21356.143   -38652.695   -25018.714    18198.113   -4768.8617   -9671.9094    78.887175 
   25800    631.80742   -110.50324   0.57167263   -109.93156    12649.077    4.2630955    4.2630955    4.2630955    12649.077    36759.726   -17031.928    18219.433   -11517.613    2077.6791    15570.638    77.477423 
   25900    938.91421   -110.78071   0.84954931   -109.93116    12767.726    4.2643331    4.2643331    4.2643331    12767.726    56674.482   -10394.085   -7977.2173   -18949.126   -5473.0765    7957.9642    77.544924 
   26000    922.29614   -110.76223   0.83451293   -109.92772    1245.5875    4.2817618    4.2817618    4.2817618    1245.5875    23069.511    -18109.86   -1222.8882    14031.163   -6486.1736    -10092.57    78.499615 
   26100    917.07541   -110.75973    0.8297891   -109.92994   -4884.9125    4.2667367    4.2667367    4.2667367   -4884.9125    2998.8703   -15207.122   -2446.4861    3709.9434   -4647.9802     12116.78    77.676121 
   26200    740.01827   -110.60809   0.66958408    -109.9385   -4176.5079    4.2711615    4.2711615    4.2711615   -4176.5079   -9613.8867   -21866.642    18951.005   -19159.609   -4371.8502    7014.7609    77.918035 
   26300    1229.9463   -111.04564    1.1128812   -109.93276   -14975.673    4.2798433    4.2798433    4.2798433   -14975.673   -11031.408   -23002.776   -10892.836     193.1079    11041.431   -5341.8196    78.394141 
   26400    933.67182   -110.77488   0.84480588   -109.93008   -2887.1798    4.2732907    4.2732907    4.2732907   -2887.1798    7341.9445   -20413.269    4409.7852    16364.717   -1753.6329    5366.8537    78.034621 
   26500    681.61222   -110.54722   0.61673706   -109.93048     182.3962    4.2687452    4.2687452    4.2687452     182.3962    40326.615   -33095.318    -6684.108   -11509.414     2523.893     13023.77    77.785869 
   26600    841.58318   -110.69414   0.76148214   -109.93266   -5528.5662    4.2759191    4.2759191    4.2759191   -5528.5662    6456.8135   -27440.569    4398.0565   -17810.251    2856.9309    -2195.006    78.178701 
   26700    1050.4454   -110.87977    0.9504651    -109.9293    10028.028     4.264933     4.264933     4.264933    10028.028    47160.936    -9412.723   -7664.1278    5436.6863   -6721.8752   -2947.7068    77.577654 
   26800    805.29392   -110.66586   0.72864686   -109.93722   -12328.733    4.2755168    4.2755168    4.2755168   -12328.733    3800.0038   -21315.489   -19470.715   -3923.2281    6498.1532    19654.062    78.156637 
   26900    714.45336   -110.58559   0.64645242   -109.93913   -11303.231     4.271037     4.271037     4.271037   -11303.231   -16368.391   -14152.357   -3388.9445   -23026.382   -2417.6742    8603.0499    77.911221 
   27000    900.12012   -110.74813    0.8144476   -109.93368    23490.313    4.2586832    4.2586832    4.2586832    23490.313     19802.45    22524.653    28143.837   -10114.051    343.80482   -9989.4418    77.237107 
   27100    1020.1458   -110.86028   0.92304938   -109.93723   -12721.432    4.2789682    4.2789682    4.2789682   -12721.432    10875.939   -8679.0205   -40361.213    10655.763    618.67044    7918.0779    78.346065 
   27200    749.48435   -110.61688   0.67814919   -109.93873    27478.517    4.2596094    4.2596094    4.2596094    27478.517    44674.562    11632.987    26128.002   -11910.395   -1002.7806    11485.236    77.287513 
   27300    892.02114    -110.7485   0.80711947   -109.94138    2253.7132    4.2720624    4.2720624    4.2720624    2253.7132    29510.122   -12554.077   -10194.905   -9067.0885    3080.8728    -6150.595    77.967346 
   27400    882.38544   -110.73267   0.79840089   -109.93427   -16747.581    4.2777298    4.2777298    4.2777298   -16747.581   -6213.1774    -12985.09   -31044.475    1375.7251    7508.9568   -7180.4472    78.278061 
   27500    911.05256   -110.75115    0.8243395   -109.92681    19943.462    4.2463695    4.2463695    4.2463695    19943.462    34461.783    16376.553    8992.0518    1993.9721    3129.0699    9887.8864    76.569068 
   27600    825.64815    -110.6866    0.7470638   -109.93954   -20922.118    4.2795931    4.2795931    4.2795931   -20922.118   -18714.744   -30790.985   -13260.626   -20698.749   -2759.7239    10376.791    78.380394 
   27700    1001.1955   -110.84401   0.90590277   -109.93811   -13091.769    4.2678933    4.2678933    4.2678933   -13091.769   -12828.258   -6878.3635   -19568.687   -15797.197    3390.7987   -14579.665    77.739304 
   27800    719.93327   -110.58648   0.65141075   -109.93507    20087.071    4.2539315    4.2539315    4.2539315    20087.071    44595.435    21514.103   -5848.3248    8040.1917    4200.2789    3321.5354     76.97886 
   27900    779.69855   -110.63869   0.70548763    -109.9332   -30749.818    4.2853535    4.2853535    4.2853535   -30749.818   -13907.827    -42507.56   -35834.068   -19989.466    1395.6225    23631.638    78.697321 
   28000    900.91824   -110.74735   0.81516975   -109.93218    20826.035    4.2554296    4.2554296    4.2554296    20826.035    28732.951    22708.732    11036.424   -15796.914    1845.5702   -1450.3646    77.060218 
   28100     1102.312   -110.92967   0.99739506   -109.93227    6750.5271    4.2627025    4.2627025    4.2627025    6750.5271    12860.699    16737.097   -9346.2141    9721.3491    3738.5363    1537.9031    77.456002 
   28200     745.3773   -110.61077   0.67443305   -109.93634   -13284.826    4.2786054    4.2786054    4.2786054   -13284.826    13768.555   -16392.357   -37230.675   -895.51182    876.97897    17190.115    78.326136 
   28300     707.9794    -110.5758   0.64059464    -109.9352    20683.064    4.2546546    4.2546546    4.2546546    20683.064    23248.036    26140.927     12660.23    -17562.81   -8397.5742    7327.5502    77.018121 
   28400    1118.3925   -110.94658     1.011945   -109.93463   -1802.6747    4.2705887    4.2705887    4.2705887   -1802.6747   -4539.2356    2670.8766   -3539.6652   -17472.733    2523.1403   -465.20792     77.88669 
   28500    1070.3154   -110.90187   0.96844383   -109.93343    1214.6798    4.2710943    4.2710943    4.2710943    1214.6798     15235.93     4423.769   -16015.659    5783.8519    4476.4348    6147.9356    77.914353 
   28600    686.49333   -110.55912   0.62115359   -109.93797   -1906.5695    4.2636265    4.2636265    4.2636265   -1906.5695    7784.8939   -7721.7152   -5782.8871   -7998.5092   -1563.7625     11326.22    77.506381 
   28700    630.24243   -110.51116   0.57025659    -109.9409   -3519.6126    4.2695301    4.2695301    4.2695301   -3519.6126   -16652.781   -2778.5116    8872.4548    -32027.89   -3479.1998    -3743.284    77.828786 
   28800    1206.9118   -111.02531    1.0920392   -109.93327    2920.5028    4.2663777    4.2663777    4.2663777    2920.5028    5269.3181    1375.3171    2116.8731    7463.1647   -1835.6454   -3529.0762    77.656517 
   28900    887.83134    -110.7396   0.80332846   -109.93627    2467.7035    4.2701161    4.2701161    4.2701161    2467.7035     23152.57   -5999.6073   -9749.8524     825.9813    11050.122    15568.564    77.860832 
   29000    601.50114   -110.48645   0.54425088    -109.9422   -3782.3167    4.2653771    4.2653771    4.2653771   -3782.3167   -7668.8012   -11144.522    7466.3737   -29373.066   -2697.5346    1328.8092     77.60189 
   29100    695.72454   -110.57123   0.62950618   -109.94172     10485.38    4.2694781    4.2694781    4.2694781     10485.38     9285.585    13971.898    8198.6561    -12263.82   -6861.9543   -9352.7336    77.825939 
   29200    1359.9907   -111.16142    1.2305482   -109.93087   -8376.9284     4.268996     4.268996     4.268996   -8376.9284   -3899.3241   -6794.0176   -14437.443    5482.3854    1457.9441    1206.6199    77.799577 
   29300    756.48096   -110.62294   0.68447987   -109.93846    9295.0665    4.2595323    4.2595323    4.2595323    9295.0665    3073.2821    4333.1024    20478.815   -24507.678   -1764.3757     4571.718    77.283314 
   29400    630.25565   -110.51363   0.57026855   -109.94336    -19370.29    4.2734903    4.2734903    4.2734903    -19370.29   -18469.457   -35214.209   -4427.2057   -29196.032   -3899.5676    146.43855    78.045551 
   29500    978.57626   -110.82101   0.88543637   -109.93557   -1685.9432    4.2722855    4.2722855    4.2722855   -1685.9432    6601.5068    1850.4625   -13509.799    9761.1799   -6887.9372   -2501.3338    77.979566 
   29600    1084.5711   -110.91067   0.98134272   -109.92933    12391.077     4.260268     4.260268     4.260268    12391.077    23562.412    6008.8743    7601.9457    1647.6624   -3137.2695    1672.5756    77.323366 
   29700     579.8125    -110.4641   0.52462654   -109.93948   -11199.689    4.2716193    4.2716193    4.2716193   -11199.689   -7639.8829   -25178.715   -780.46915   -34871.683   -6932.3382    495.56857    77.943092 
   29800    672.52596   -110.54765   0.60851562   -109.93913   -2712.7054    4.2671769    4.2671769    4.2671769   -2712.7054   -3632.4629     16153.97   -20659.623     -2879.84   -13912.814   -9321.9297    77.700165 
   29900    1133.1786   -110.95827    1.0253238   -109.93295    6596.3117    4.2660105    4.2660105    4.2660105    6596.3117    11636.375    16459.126   -8306.5657     6888.959   -3471.5964   -5852.2892    77.636465 
   30000    925.47326   -110.77365   0.83738765   -109.93626   -7135.3976    4.2745666    4.2745666    4.2745666   -7135.3976   -10545.724   -13840.657    2980.1878   -23669.385    1449.5459     11067.75    78.104535 
   30100    784.73341   -110.64497   0.71004328   -109.93493   -171.25012    4.2635124    4.2635124    4.2635124   -171.25012   -19755.337    21231.279   -1989.6922     -22836.6   -11996.576   -1905.3841    77.500157 
   30200    900.49781   -110.75008   0.81478934   -109.93529   -2181.1839    4.2716526    4.2716526    4.2716526   -2181.1839    16711.415    -3657.792   -19597.175    4144.8512   -846.10091   -10225.737    77.944913 
   30300    1064.9335   -110.89383   0.96357422   -109.93026    2930.5421    4.2694401    4.2694401    4.2694401    2930.5421    18063.528    1118.1053   -10390.007   -418.72015    9740.9015    3875.3989    77.823862 
   30400     678.7382   -110.54681   0.61413659   -109.93267     16019.81    4.2672905    4.2672905    4.2672905     16019.81     23121.74    16189.329      8748.36   -26251.627   -7344.6691    2561.1572    77.706369 
   30500    825.65415     -110.678   0.74706923   -109.93093   -13398.618    4.2753334    4.2753334    4.2753334   -13398.618    5271.2216   -17218.378   -28248.698    -5023.144    108.80155     -2865.35     78.14658 
   30600    916.53171   -110.75669   0.82929715   -109.92739    16069.102    4.2544424    4.2544424    4.2544424    16069.102    18926.892    31312.839   -2032.4257    6754.9582    4916.9079   -1323.5741    77.006601 
   30700    845.88563   -110.70448   0.76537509    -109.9391   -6316.5109    4.2716034    4.2716034    4.2716034   -6316.5109   -9883.2571   -3406.0831   -5660.1924   -24517.609    1881.0138    413.36614    77.942218 
   30800    877.34939   -110.73169   0.79384416   -109.93785   -23910.155    4.2772227    4.2772227    4.2772227   -23910.155   -23303.239   -34195.142   -14232.084    -18362.45    785.88276   -162.78961    78.250225 
   30900      902.381   -110.74616   0.81649329   -109.92966    25901.124    4.2481927    4.2481927    4.2481927    25901.124    46931.504    26456.666    4315.2015    3674.5246   -2483.1745   -11068.561    76.667732 
   31000    760.33676    -110.6295   0.68796868   -109.94154   -15011.319    4.2784737    4.2784737    4.2784737   -15011.319    14724.592    -34888.71    -24869.84   -10746.555    6824.1016    5303.3276    78.318904 
   31100     538.1157   -110.42599   0.48689839   -109.93909   -9241.6698    4.2749966    4.2749966    4.2749966   -9241.6698    13536.843   -46920.808    5658.9557   -32663.882    2421.8077    9832.5591     78.12811 
   31200    1128.6323   -110.94362    1.0212102   -109.92241    13800.441     4.248222     4.248222     4.248222    13800.441    16952.081    12094.374    12354.869   -2856.4156   -8643.3778   -12662.633    76.669317 
   31300    969.35943   -110.81009   0.87709678   -109.93299   -29484.417    4.2837346    4.2837346    4.2837346   -29484.417   -28101.697   -26440.378   -33911.176      4329.21   -6192.6564   -2076.8081    78.608167 
   31400    498.97682   -110.38687   0.45148471   -109.93538   -8651.0427    4.2733434    4.2733434    4.2733434   -8651.0427   -7106.6573   -24293.908     5447.437   -33996.374    2583.6103    10809.111    78.037506 
   31500    859.34218   -110.70669   0.77755086   -109.92914    23363.755    4.2492538    4.2492538    4.2492538    23363.755    31966.992    8208.3212    29915.951   -11079.136   -7460.2393    806.16308    76.725196 
   31600    1033.2068   -110.86942   0.93486723   -109.93455    3804.2726    4.2738251    4.2738251    4.2738251    3804.2726    39196.407   -9668.5329   -18115.056    11307.798   -4153.0891     554.1018    78.063896 
   31700    497.22219    -110.3891   0.44989709    -109.9392    -6619.312    4.2808377    4.2808377    4.2808377    -6619.312     -9493.54   -476.40945   -9887.9865   -18845.615    2296.6663    4038.3056    78.448795 
   31800    609.66782   -110.48419   0.55164025   -109.93255    2672.6101    4.2630209    4.2630209    4.2630209    2672.6101    330.55072   -7382.0227    15069.302   -28529.178    4828.6924    8073.3553    77.473359 
   31900    1203.0175   -111.01742    1.0885155    -109.9289    12133.932    4.2571792    4.2571792    4.2571792    12133.932     11981.63    6172.6348    18247.531    6065.3354    312.71217    1035.4283    77.155305 
   32000    882.59106   -110.73884   0.79858694   -109.94026   -5968.9021    4.2739406    4.2739406    4.2739406   -5968.9021    -14377.36   -8073.3722    4544.0264   -3519.6383   -3043.6669   -3697.1192    78.070228 
   32100    292.47067   -110.20533    0.2646336    -109.9407    6616.1287    4.2762963    4.2762963    4.2762963    6616.1287    45359.245   -31364.273    5853.4147   -32152.333    14534.348    6836.7621    78.199391 
   32200    937.34854   -110.77699   0.84813265   -109.92886    11187.757    4.2686334    4.2686334    4.2686334    11187.757    44344.124   -9635.1307   -1145.7209   -327.41105    3378.4979   -1373.3824    77.779758 
   32300    1016.8382   -110.84625   0.92005654   -109.92619    17374.777    4.2598733    4.2598733    4.2598733    17374.777    33826.074   -3468.0739     21766.33    8642.4655   -1218.2082    -1700.549    77.301879 
   32400    589.32278   -110.47573   0.53323164    -109.9425   -18022.112    4.2708585    4.2708585    4.2708585   -18022.112   -26709.409   -34741.693    7384.7667   -26227.977     2996.376    4420.3838    77.901452 
   32500    623.04292   -110.50733   0.56374233   -109.94358   -12917.004    4.2685559    4.2685559    4.2685559   -12917.004   -14869.416   -20951.133   -2930.4647   -16620.672    2644.4033    1602.6223     77.77552 
   32600    983.06656   -110.82653   0.88949928   -109.93703    8537.0517    4.2702094    4.2702094    4.2702094    8537.0517    30493.713    1844.8539   -6727.4122    8489.8366    -4988.694   -3597.3487    77.865935 
   32700     767.2442   -110.63035   0.69421868   -109.93613   -7679.7394    4.2765622    4.2765622    4.2765622   -7679.7394    1707.0175   -31246.744    6500.5078   -6539.0971   -8594.0231   -1359.7885    78.213981 
   32800    390.06009   -110.28719   0.35293457   -109.93426     19917.44     4.254308     4.254308     4.254308     19917.44    49879.899   -4771.1286    14643.551   -24021.701   -1354.0349    10392.824    76.999302 
   32900    695.46297   -110.57187   0.62926951    -109.9426    -12054.08    4.2720368    4.2720368    4.2720368    -12054.08    2534.7021   -10959.091   -27737.852    5159.4957    6489.3497   -3809.1919    77.965947 
   33000    944.19295   -110.78444   0.85432563   -109.93012   -6191.2194    4.2749253    4.2749253    4.2749253   -6191.2194   -958.39528   -3444.0036   -14171.259    3159.1779    -2152.088   -10126.411      78.1242 
   33100    880.20509   -110.72466   0.79642806   -109.92823    459.97653    4.2637663    4.2637663    4.2637663    459.97653   -2622.2639   -3465.6698    7467.8633   -26812.163   -1572.1142    12848.889    77.514004 
   33200    620.31087   -110.49451   0.56127031   -109.93324   -11354.431    4.2681894    4.2681894    4.2681894   -11354.431   -1057.7733    -13094.29   -19911.229   -5475.4759    13484.254   -6096.1161    77.755488 
   33300    743.99402   -110.60968   0.67318143    -109.9365     7198.203    4.2602806    4.2602806    4.2602806     7198.203    34563.776    11530.373   -24499.541    5650.2988    6366.3376    -18529.11    77.324053 
   33400     930.8909   -110.77911   0.84228965   -109.93682    -4458.089    4.2732784    4.2732784    4.2732784    -4458.089    4582.2467    260.91843   -18217.432   -4005.6547    1033.4298    2395.8861    78.033945 
   33500    691.69268   -110.56242   0.62585807   -109.93656     10213.56    4.2650806    4.2650806    4.2650806     10213.56    37935.227    1634.3005   -8928.8477   -13191.909   -3950.7668    -5383.959    77.585707 
   33600    688.31451   -110.55961   0.62280144   -109.93681    4767.6607    4.2589547    4.2589547    4.2589547    4767.6607    40050.959   -5437.1147   -20310.862    1408.5734    11920.112   -16825.883    77.251883 
   33700    720.38514   -110.58835   0.65181961   -109.93654   -23167.748    4.2741319    4.2741319    4.2741319   -23167.748   -14846.351   -12337.783   -42319.111    5967.5088    303.52247   -3200.6219    78.080711 
   33800    841.13374   -110.69483   0.76107549   -109.93375   -3471.8841    4.2589859    4.2589859    4.2589859   -3471.8841   -11137.989    9662.6922   -8940.3552    -17648.12   -19448.328      3915.98    77.253577 
   33900    752.70461   -110.61886   0.68106295    -109.9378   -4447.7677    4.2661124    4.2661124    4.2661124   -4447.7677    30701.365   -20198.411   -23846.257   -5229.8769    6484.2664   -14313.289    77.642032 
   34000    788.77806   -110.65115   0.71370296   -109.93744   -11399.195    4.2688518    4.2688518    4.2688518   -11399.195    13298.448   -19908.059   -27587.974    751.10304    1935.3541   -16190.355    77.791696 
   34100    587.88254   -110.46834   0.53192847   -109.93642    11404.749    4.2592277    4.2592277    4.2592277    11404.749    35766.034    10075.674    -11627.46   -8026.0367   -15864.687    3719.4525    77.266736 
   34200    597.78273   -110.48104   0.54088638   -109.94015   -13659.542    4.2712841    4.2712841    4.2712841   -13659.542    3857.1616     -21183.4   -23652.388   -17734.405   -14877.002   -6311.9018    77.924743 
   34300    814.47983   -110.67052   0.73695847   -109.93356    9545.1979    4.2609295    4.2609295    4.2609295    9545.1979    40796.606   -3986.1887   -8174.8234    619.83265      5986.03   -17043.635    77.359394 
   34400    797.35305   -110.65765    0.7214618   -109.93618    -9165.862     4.269851     4.269851     4.269851    -9165.862   -11291.871    8107.8705   -24313.586    10765.317   -5084.8173    1923.4728    77.846335 
   34500    572.59786   -110.45724   0.51809858   -109.93915   -14249.953    4.2683776    4.2683776    4.2683776   -14249.953   -29007.304    3497.7843   -17240.339   -13627.756   -14304.874    1051.5969    77.765776 
   34600    509.57222   -110.39806   0.46107165   -109.93699    25341.648     4.253305     4.253305     4.253305    25341.648    65406.425    6413.7714     4204.747   -3488.2006   -341.91121   -15232.941    76.944855 
   34700    770.05068   -110.63463   0.69675804   -109.93787    -11313.51    4.2770152    4.2770152    4.2770152    -11313.51    5318.8142   -11828.799   -27430.544    13422.901    3515.8965   -4993.0145    78.238838 
   34800    749.06914   -110.61042    0.6777735   -109.93265    4362.9429    4.2648784    4.2648784    4.2648784    4362.9429    17617.762    10115.689   -14644.622     1424.966   -6169.2106    3617.9216    77.574675 
   34900    570.11752   -110.45061   0.51585431   -109.93476    2029.1983    4.2627059    4.2627059    4.2627059    2029.1983    874.63347    1416.0059    3796.9555   -13209.185   -16160.681   -6115.9778    77.456188 
   35000     698.0592   -110.56543   0.63161863   -109.93381   -16368.404    4.2712586    4.2712586    4.2712586   -16368.404   -5746.9806   -31307.692   -12050.539   -2757.2159    874.06277   -9361.0537    77.923346 
   35100    842.56669   -110.69479   0.76237205   -109.93242    5702.1712     4.261341     4.261341     4.261341    5702.1712    12649.587    -2885.863    7342.7902    14159.908   -675.93925    2246.5205    77.381804 
   35200    968.07668   -110.81223   0.87593612   -109.93629   -8067.8696    4.2685236    4.2685236    4.2685236   -8067.8696    -4267.343   -3754.8705   -16181.395   -10722.455   -20674.982    3620.0809    77.773751 
   35300    546.94397   -110.43573    0.4948864   -109.94084    15847.556    4.2621507    4.2621507    4.2621507    15847.556    50050.605   -19158.746     16650.81    -8764.569   -2915.8174   -8196.3622    77.425923 
   35400    743.27116   -110.61289   0.67252736   -109.94036   -7827.1866    4.2706406    4.2706406    4.2706406   -7827.1866    7477.1324   -28299.151   -2659.5415    17333.878    -254.2062   -5719.2283    77.889528 
   35500    953.25381   -110.79756   0.86252408   -109.93504    1448.2261    4.2674256    4.2674256    4.2674256    1448.2261   -1060.5463    8929.9228   -3524.6983    14190.461   -9186.0678    6987.8175    77.713751 
   35600    946.19283   -110.79206   0.85613516   -109.93592    4104.2248    4.2605206    4.2605206    4.2605206    4104.2248    4760.9819     18708.64   -11156.948   -10898.863    1378.3724   -823.74812    77.337124 
   35700    491.08043   -110.38683   0.44433989   -109.94249   -15363.432    4.2732603    4.2732603    4.2732603   -15363.432   -20263.477   -21934.526   -3892.2943   -2461.7543   -4265.4586   -11369.576    78.032952 
   35800     973.9309   -110.81766   0.88123314   -109.93643    1611.3052     4.257725     4.257725     4.257725    1611.3052   -3109.7782    5753.5293    2190.1646     17503.29    6318.9057   -8467.4275    77.184986 
   35900    1123.0171    -110.9518    1.0161295   -109.93567   -4729.8621    4.2703301    4.2703301    4.2703301   -4729.8621   -311.86207    1954.7656    -15832.49   -7787.7613    -2400.708    8213.8736     77.87254 
   36000    895.39144   -110.74755   0.81016899   -109.93738   -17753.186    4.2716184    4.2716184    4.2716184   -17753.186   -8152.2389   -24183.282   -20924.038    -10031.78   -8811.6957   -941.61727    77.943041 
   36100    765.18503   -110.62747   0.69235549   -109.93511     15701.84     4.255346     4.255346     4.255346     15701.84    35048.936    3475.1673     8581.416    1179.2881    9707.7855   -13568.936    77.055676 
   36200    1152.4058   -110.97847     1.042721   -109.93575   -14495.858    4.2717047    4.2717047    4.2717047   -14495.858   -14588.112   -2894.9706   -26004.492    2944.3003     8327.713     1169.142    77.947762 
   36300     916.8901   -110.76501   0.82962143   -109.93539    20429.198    4.2602413    4.2602413    4.2602413    20429.198    26227.172    40442.861   -5382.4376   -824.91912    2.9241732    12420.484    77.321913 
   36400    878.03348   -110.73308   0.79446314   -109.93861   -5624.9211    4.2700322    4.2700322    4.2700322   -5624.9211   -1984.2998    3674.3538   -18564.817   -8726.0084    3375.2331   -4626.4224    77.856243 
   36500    803.25156   -110.66214   0.72679889   -109.93534   -5323.6562    4.2707256    4.2707256    4.2707256   -5323.6562   -18437.859    19350.642   -16883.752    4880.9159    8024.6837   -10088.577    77.894181 
   36600    1108.1707   -110.93252    1.0026961   -109.92983     7041.966    4.2535199    4.2535199    4.2535199     7041.966    10222.459    14490.008   -3586.5692    214.07164    8885.0053    21979.853    76.956515 
   36700     859.7893   -110.71582   0.77795543   -109.93787   -11372.307    4.2703272    4.2703272    4.2703272   -11372.307    13516.386   -27066.409   -20566.897   -12118.749   -4920.8156     10949.36    77.872381 
   36800    877.06171   -110.73184   0.79358387   -109.93826   -4392.9395     4.262093     4.262093     4.262093   -4392.9395   -6383.5965   -5378.6578   -1416.5643    1101.2192    4418.4286    -18722.23    77.422781 
   36900    780.86003   -110.64597   0.70653856   -109.93943    2131.1149    4.2666833    4.2666833    4.2666833    2131.1149   -1889.8771    25568.267   -17285.045   -45.096956    16319.312    2980.5104    77.673202 
   37000      1104.77    -110.9326   0.99961914   -109.93298   -7505.0171    4.2673245    4.2673245    4.2673245   -7505.0171    2563.2429   -4107.1376   -20971.157    -266.4987   -5858.3754    16927.066     77.70823 
   37100    680.70053   -110.55176   0.61591215   -109.93585    27610.395     4.254965     4.254965     4.254965    27610.395    25394.152    52291.309    5145.7238   -4998.7181    3038.1344   -13863.222    77.034982 
   37200    621.99294   -110.50478   0.56279228   -109.94198    -12290.05     4.272604     4.272604     4.272604    -12290.05   -13213.348    834.16624   -24490.969   -7694.5667    14168.475   -26798.773    77.997007 
   37300     899.1213   -110.74964   0.81354385   -109.93609    11694.555    4.2598377    4.2598377    4.2598377    11694.555     5269.888    34362.612   -4548.8351    769.04339    1062.4343    6052.7685    77.299943 
   37400     1069.732   -110.90468   0.96791596   -109.93676   -4052.3973    4.2641977    4.2641977    4.2641977   -4052.3973    -2512.878    236.25062   -9880.5645    360.51924    43.372348    3153.6444    77.537537 
   37500    437.08949   -110.33684   0.39548776   -109.94136   -12005.289    4.2715249    4.2715249    4.2715249   -12005.289    18177.064   -33844.875   -20348.056   -6941.2117    6292.4805   -28132.305    77.937922 
   37600    646.73594   -110.52398   0.58518027    -109.9388    10172.405    4.2528353    4.2528353    4.2528353    10172.405    11215.163    23746.556    -4444.504   -3486.5423    9669.0712   -9034.1816    76.919366 
   37700    1028.2021   -110.86804   0.93033884    -109.9377   -9633.7911    4.2710418    4.2710418    4.2710418   -9633.7911   -24477.923    8962.8001    -13386.25    3309.9486   -7338.1326    9298.0003    77.911482 
   37800    906.15275   -110.75707   0.81990606   -109.93717   -8483.8001    4.2662397    4.2662397    4.2662397   -8483.8001    -1276.926   -4101.7789   -20072.695    284.11516   -3091.3939   -18260.309    77.648981 
   37900     375.8021   -110.28162   0.34003364   -109.94158    12977.283    4.2576174    4.2576174    4.2576174    12977.283    24889.438    17357.805   -3315.3928    -2581.257    16564.357   -20321.398    77.179131 
   38000     695.2086   -110.56903   0.62903936   -109.93999   -19908.135    4.2716987    4.2716987    4.2716987   -19908.135   -36219.835    5635.4938   -29140.064   -7615.6125    71.385513    2814.4095    77.947438 
   38100     989.1489   -110.82826   0.89500271   -109.93325    5342.7718    4.2568696    4.2568696    4.2568696    5342.7718   -1470.7267    12786.706    4712.3366    99.572251   -6161.7322    4479.3301    77.138473 
   38200    730.05674   -110.60115   0.66057068   -109.94058   -10136.412     4.268388     4.268388     4.268388   -10136.412   -10097.773   -15650.628   -4660.8339    4010.7787    620.73829   -19834.465    77.766341 
   38300    414.33135   -110.31798   0.37489571   -109.94308   -3695.1841    4.2673343    4.2673343    4.2673343   -3695.1841     648.7387   -5568.0515   -6166.2396   -10842.378    14925.506   -10753.871    77.708764 
   38400    753.85176   -110.61763   0.68210091   -109.93553    16880.693    4.2521707    4.2521707    4.2521707    16880.693     21599.28     18045.16    10997.638   -4026.4534    3662.2255    14515.406    76.883312 
   38500    850.28413   -110.70471   0.76935495   -109.93535   -17830.147    4.2763281    4.2763281    4.2763281   -17830.147   -17195.892   -19680.866   -16613.683    9329.9423   -10120.944    2294.7775    78.201134 
   38600    690.03211   -110.56203   0.62435555   -109.93767    2103.4939    4.2593643    4.2593643    4.2593643    2103.4939   -2588.7407    4899.0442    4000.1781    69.356761    14151.553   -12423.245    77.274171 
   38700    583.74186   -110.46803    0.5281819   -109.93985    14962.454    4.2545179    4.2545179    4.2545179    14962.454    24333.808    19885.891    667.66157   -6336.7863    20610.006   -312.19986    77.010697 
   38800    795.34342    -110.6562   0.71964344   -109.93655   -26256.372     4.275681     4.275681     4.275681   -26256.372   -26122.921   -18224.606    -34421.59   -2293.9249   -7318.7091    17614.274    78.165639 
   38900    773.94163   -110.63442   0.70027865   -109.93414    6668.7261    4.2552426    4.2552426    4.2552426    6668.7261    3282.5152    7875.4791    8848.1839    14247.681   -7547.4034    3145.6459    77.050059 
   39000    794.39087   -110.65733   0.71878155   -109.93855   -8040.9035    4.2663829    4.2663829    4.2663829   -8040.9035   -13627.721    147.41335   -10642.403     2805.629     16438.42   -10082.576    77.656797 
   39100    619.50795   -110.49874   0.56054381   -109.93819   -1799.4075     4.268164     4.268164     4.268164   -1799.4075    2320.2565    701.01179   -8419.4908    -13395.99    11657.071    10773.529      77.7541 
   39200    775.06032    -110.6357   0.70129086   -109.93441    16043.575      4.25332      4.25332      4.25332    16043.575    26504.668    15137.226    6488.8321     9488.182   -8424.1095    18936.958    76.945668 
   39300    864.93742   -110.72039   0.78261355   -109.93778   -7290.4866     4.269086     4.269086     4.269086   -7290.4866   -11678.478   -459.37417   -9733.6079    8105.0723   -8041.4742    -7014.923    77.804497 
   39400    705.41881   -110.57805   0.63827777   -109.93977    14364.276    4.2589701    4.2589701    4.2589701    14364.276    11559.788    16425.599     15107.44    -4347.482    13899.325   -3593.9549     77.25272 
   39500    587.23887   -110.47466   0.53134607   -109.94332    9213.6512    4.2631209    4.2631209    4.2631209    9213.6512    23614.828    7154.8921   -3128.7661   -5901.2993    7527.6687    21551.887    77.478813 
   39600    790.85877   -110.65163   0.71558563   -109.93604    -13461.26    4.2709181    4.2709181    4.2709181    -13461.26   -17883.948   -7715.2008   -14784.631   -833.85456   -12193.479    8718.6304    77.904711 
   39700    801.74303   -110.65645   0.72543395   -109.93102    3087.8839    4.2557629    4.2557629    4.2557629    3087.8839   -1723.3692    16432.222   -5445.2009     14092.32   -5636.6452   -10145.691    77.078327 
   39800    583.18771   -110.46664   0.52768049   -109.93896   -14091.051    4.2642816    4.2642816    4.2642816   -14091.051   -3145.7122   -8554.3988   -30573.043   -10137.694    19171.406    7510.0389    77.542113 
   39900    577.13966   -110.46405   0.52220809   -109.94185   -3933.1971    4.2609222    4.2609222    4.2609222   -3933.1971    7444.5494   -6643.6233   -12600.517    -10389.61    765.63407    16444.589    77.358991 
   40000    782.88396   -110.64789   0.70836986   -109.93952   -2741.1435    4.2633901    4.2633901    4.2633901   -2741.1435    3791.9758    11134.917   -23150.323    10933.825   -21500.981    2671.1987    77.493487 
   40100    744.90359   -110.61095   0.67400442   -109.93695   -10884.383    4.2686168    4.2686168    4.2686168   -10884.383   -2576.0249    4786.3741   -34863.498   -486.47411    1666.5287   -377.47485     77.77885 
   40200    614.66148    -110.4929   0.55615863   -109.93674    8917.5723    4.2544902    4.2544902    4.2544902    8917.5723     24413.13    14366.893   -12027.306   -10081.673    9633.6245    17714.569    77.009195 
   40300    512.58718   -110.40528   0.46379966   -109.94148   -1765.0242    4.2678908    4.2678908    4.2678908   -1765.0242    5813.4383    428.38273   -11536.894   -11058.973    -12791.43    5942.3817    77.739167 
   40400    885.84702   -110.73968     0.801533   -109.93815    1057.9402    4.2597615    4.2597615    4.2597615    1057.9402   -7155.4935      20718.8   -10389.486    1801.0373    -19595.22   -10205.188    77.295794 
   40500    846.08152   -110.70431   0.76555234   -109.93875    6780.6066    4.2572746    4.2572746    4.2572746    6780.6066    8415.3532    3847.9369    8078.5296    8918.3937    3615.5598    12091.881    77.160492 
   40600     508.3791   -110.40141   0.45999209   -109.94142   -20782.715    4.2743837    4.2743837    4.2743837   -20782.715     -6330.97    -27066.41   -28950.766   -15891.097    5688.2369    15854.646     78.09451 
   40700    573.69451   -110.45729   0.51909085    -109.9382    16625.583    4.2516888    4.2516888    4.2516888    16625.583    8994.9159    25677.478    15204.357   -6770.2548   -21555.864   -1812.1312    76.857175 
   40800    969.97408   -110.81505   0.87765293    -109.9374    -1338.824    4.2621089    4.2621089    4.2621089    -1338.824    1445.7162    13618.244   -19080.433    8487.3693   -8100.6309   -3430.0438    77.423645 
   40900    810.71581   -110.67058    0.7335527   -109.93702   -12471.513    4.2711373    4.2711373    4.2711373   -12471.513   -6590.1866   -6072.0031    -24752.35   -5521.6185     6369.457    12537.144    77.916708 
   41000     554.4567   -110.43884   0.50168407   -109.93715    12875.629      4.25444      4.25444      4.25444    12875.629    21513.568    22484.531   -5371.2107    -8573.029   -11749.545     13532.15    77.006467 
   41100    625.69724   -110.50624   0.56614401    -109.9401   -6603.4952    4.2670296    4.2670296    4.2670296   -6603.4952   -6680.7035    11857.113   -24986.896   -6305.4279   -14182.477   -15463.432    77.692121 
   41200      944.037   -110.79008   0.85418452    -109.9359    3024.1644    4.2585415    4.2585415    4.2585415    3024.1644    2472.9444    17248.886   -10649.338    3839.3987   -2050.9017   -9801.4805    77.229398 
   41300    913.21006   -110.76523   0.82629166   -109.93894   -3168.5339    4.2612035    4.2612035    4.2612035   -3168.5339    1511.5447   -7952.8732   -3064.2731    1350.7424    3336.0701    15668.861    77.374315 
   41400     512.2231   -110.40489   0.46347022   -109.94142   -14601.939    4.2697989    4.2697989    4.2697989   -14601.939    -10747.66   -9578.0241   -23480.133   -12853.483   -21062.568   -6477.1148    77.843484 
   41500    587.20493   -110.46939   0.53131536   -109.93808    14229.491    4.2554876    4.2554876    4.2554876    14229.491    12745.513    27496.388    2446.5728    6244.6865   -12352.468   -21311.456    77.063367 
   41600    991.23204   -110.82988   0.89688758   -109.93299   -10240.409    4.2687203    4.2687203    4.2687203   -10240.409   -10952.811   -5894.2817   -13874.136    2331.1304    12228.866    -3292.099    77.784506 
   41700    861.83634   -110.71712   0.77980763   -109.93732   -548.84395    4.2576291    4.2576291    4.2576291   -548.84395   -8530.5715    8236.7534   -1352.7138   -8404.0069   -13179.022    10534.066    77.179768 
   41800    507.43551   -110.40557   0.45913831   -109.94643    2457.1792    4.2560456    4.2560456    4.2560456    2457.1792    7241.4279    19517.174   -19387.064    -1999.027   -21407.118   -18384.287    77.093686 
   41900    653.79116   -110.53269   0.59156398   -109.94112   -12723.001    4.2736894    4.2736894    4.2736894   -12723.001   -380.71712   -1390.0861   -36398.199   -1807.5706    6341.1442   -25001.249    78.056465 
   42000     1109.326   -110.93499    1.0037415   -109.93125    9547.8306     4.253241     4.253241     4.253241    9547.8306    907.64796    23884.283    3851.5606    5580.9542    5291.8699    8670.6774    76.941378 
   42100     697.3215   -110.56892   0.63095115   -109.93797   -9525.1198     4.263875     4.263875     4.263875   -9525.1198   -14512.881    7378.2098   -21440.688   -4066.2792   -19608.782    -8957.385    77.519932 
   42200    581.64634   -110.46476   0.52628583   -109.93847   -19954.672    4.2688034    4.2688034    4.2688034   -19954.672   -2763.1238   -14900.856   -42200.038    -3352.172   -11127.006    -27199.68     77.78905 
   42300    855.28951   -110.70755   0.77388392   -109.93367    22922.629    4.2519533    4.2519533    4.2519533    22922.629    20151.464    42623.239    5993.1858    4235.2579    13889.983   -1591.7591     76.87152 
   42400    979.52816    -110.8211   0.88629766    -109.9348   -6798.4317    4.2656964    4.2656964    4.2656964   -6798.4317   -17201.534    2066.7221   -5260.4836   -5822.6037     3703.817    8773.9202    77.619321 
   42500    500.06607   -110.39445   0.45247029   -109.94198   -1328.6785    4.2622269    4.2622269    4.2622269   -1328.6785   -4597.9449   -1160.4322    1772.3418   -4282.7626   -17541.671   -16936.837    77.430081 
   42600    760.59771   -110.62769   0.68820479   -109.93949   -1094.5171     4.260448     4.260448     4.260448   -1094.5171    7297.5743   -11141.197    560.07107   -917.37453   -4757.1069   -23879.567    77.333171 
   42700    950.50016   -110.79416   0.86003252   -109.93413    8343.3318    4.2646124    4.2646124    4.2646124    8343.3318   -1094.3843    11911.023    14213.356    4423.6685    12237.797    12832.867    77.560161 
   42800    733.03874   -110.60124   0.66326886   -109.93797   -4468.9579    4.2614849    4.2614849    4.2614849   -4468.9579    -3928.553   -12474.621    2996.3003   -11.228801   -4671.6481    1494.3955    77.389647 
   42900     478.1397   -110.37401   0.43263085   -109.94137   -14617.582    4.2628034    4.2628034    4.2628034   -14617.582    706.77582   -20348.074   -24211.447   -8377.5395   -14272.525   -35263.084    77.461499 
   43000      969.928   -110.81364   0.87761124   -109.93603   -409.10401    4.2609037    4.2609037    4.2609037   -409.10401    10262.853   -6958.6505    -4531.515    6960.2574   -2140.9492   -1595.4719    77.357985 
   43100    962.81957   -110.80418   0.87117938     -109.933    1227.9563    4.2672259    4.2672259    4.2672259    1227.9563    -11060.24    10963.538    3780.5704   -2186.3417    31.109194    16284.965    77.702844 
   43200    462.42259   -110.35975   0.41840968   -109.94134   -2828.4702    4.2605328    4.2605328    4.2605328   -2828.4702   -8075.8324   -2113.8241    1704.2457    -9397.494   -11136.294   -17720.925    77.337786 
   43300     511.1953   -110.40502   0.46254025   -109.94248   -567.94437    4.2612846    4.2612846    4.2612846   -567.94437   -2950.8533   -12261.676    13508.696    975.33967   -14161.938   -19199.589    77.378732 
   43400    1126.1471   -110.95401    1.0189616   -109.93505    859.25829    4.2630654    4.2630654    4.2630654    859.25829   -7752.6311   -6480.5894    16810.995   -2708.8057    3369.2186    3782.6204    77.475788 
   43500    832.70601   -110.69413    0.7534499   -109.94068    17936.191    4.2581598    4.2581598    4.2581598    17936.191   -1400.1333    15487.098    39721.607   -3657.6645    865.67925    1446.8311    77.208633 
   43600    358.03809   -110.26773   0.32396039   -109.94377   -18995.275    4.2716121    4.2716121    4.2716121   -18995.275   -16250.836   -25630.537   -15104.451     -8769.66   -17383.326   -24426.716    77.942694 
   43700    739.17671   -110.60544   0.66882262   -109.93661   -4480.9798    4.2618629    4.2618629    4.2618629   -4480.9798   -10436.571    5724.0662   -8730.4349    2409.3985   -900.13782   -10268.265    77.410241 
   43800    1095.1897   -110.92152   0.99095065   -109.93057    7944.0768    4.2586711    4.2586711    4.2586711    7944.0768   -9161.3675    12503.935    20489.663   -4023.7085    10034.726    11781.768    77.236449 
   43900    614.64764   -110.49659   0.55614611   -109.94044    992.36691    4.2633379    4.2633379    4.2633379    992.36691   -7373.6568    3179.0322    7171.7253   -12032.797   -10199.419   -15520.645    77.490645 
   44000    385.97689   -110.29478      0.34924   -109.94554   -876.16641     4.259876     4.259876     4.259876   -876.16641   -12305.115    3014.9384    6661.6777    3007.4797   -7071.2444   -19033.323    77.302023 
   44100    881.91431   -110.73535    0.7979746   -109.93737   -8988.4839    4.2693935    4.2693935    4.2693935   -8988.4839   -21309.801    -8215.997    2560.3458     128.0458    14473.565    4007.1514    77.821315 
   44200    1001.0075   -110.83816   0.90573259   -109.93242    4775.8738    4.2614213    4.2614213    4.2614213    4775.8738   -6903.4218    8003.3686    13227.675   -11318.233    699.65646   -197.85462    77.386179 
   44300    576.99687   -110.46134   0.52207889   -109.93926   -8213.4029    4.2588307    4.2588307    4.2588307   -8213.4029   -5448.9269   -15792.802   -3398.4801   -4438.0858   -14860.754   -21769.489    77.245132 
   44400    533.77815   -110.42542   0.48297369   -109.94245   -19048.214    4.2658175    4.2658175    4.2658175   -19048.214   -24892.646   -7239.9246    -25012.07     4809.815   -1433.0539   -16504.884    77.625929 
   44500    1031.3812   -110.87027   0.93321539   -109.93705    3317.9102    4.2602607    4.2602607    4.2602607    3317.9102   -12316.157    20335.806    1934.0812    7396.7761    10868.284    11737.695    77.322971 
   44600    870.97925   -110.72609   0.78808033   -109.93801    3431.4113    4.2637713    4.2637713    4.2637713    3431.4113    -5952.985    24642.581   -8395.3623   -1424.7791   -3413.0851   -6996.8633    77.514279 
   44700    381.88184   -110.28761   0.34553472   -109.94207    -9078.812    4.2674107    4.2674107    4.2674107    -9078.812   -17084.443    9977.6331   -20129.626   -1231.2873   -12168.311   -18280.218    77.712936 
   44800    708.46892   -110.57843   0.64103757   -109.93739   -4375.8374     4.258054     4.258054     4.258054   -4375.8374   -27163.542    7935.4337    6100.5963    14895.575    6790.1598   -1493.8854    77.202879 
   44900    1014.8932    -110.8531   0.91829668    -109.9348    2764.2323    4.2593198    4.2593198    4.2593198    2764.2323   -11189.797     9366.761    10115.733    5331.7612    4430.9802    4387.8462    77.271749 
   45000    751.88178   -110.61953   0.68031844   -109.93921   -8574.1235     4.266407     4.266407     4.266407   -8574.1235   -5564.4615   -3115.7196   -17042.189   -5162.6877   -11765.896   -4382.9094    77.658114 
   45100    492.02826   -110.38632   0.44519751   -109.94112   -2666.6033    4.2629456    4.2629456    4.2629456   -2666.6033   -23853.844    12841.242    3012.7925    12551.375    2056.1441    -18011.05    77.469256 
   45200    920.68464    -110.7675   0.83305481   -109.93444    4770.7948    4.2584982    4.2584982    4.2584982    4770.7948   -26518.741    30201.823    10629.302    8062.8259    7783.5572    5256.9174     77.22704 
   45300    780.96144   -110.64228   0.70663032   -109.93565    10132.884    4.2610007    4.2610007    4.2610007    10132.884   -3395.9452    46368.806   -12574.209   -5065.5306   -2812.2531    -2761.705    77.363269 
   45400    527.29001   -110.41786   0.47710308   -109.94076   -5543.1912     4.266647     4.266647     4.266647   -5543.1912   -2746.1781    11334.956   -25218.352    379.88351   -6291.4475   -15434.477     77.67122 
   45500    853.12977   -110.70919   0.77192974   -109.93726    883.01885     4.257419     4.257419     4.257419    883.01885   -12520.851    18121.778   -2951.8707    3513.8036    3579.9765   -1172.6755    77.168345 
   45600    1082.1272   -110.91541   0.97913146   -109.93628    4138.7809    4.2575527    4.2575527    4.2575527    4138.7809   -19212.595     30676.75    952.18749    1729.4178    3564.1426    4162.9386    77.175612 
   45700    430.64326   -110.33624   0.38965507   -109.94659   -12078.779      4.26808      4.26808      4.26808   -12078.779   -13720.574    8317.0296   -30832.793   -7686.5168   -5404.7472   -9582.5879    77.749508 
   45800     445.8157    -110.3499   0.40338341   -109.94652   -86.958307    4.2627282    4.2627282    4.2627282   -86.958307    5838.1709    25727.476   -31826.522   -4793.8335    758.90894   -9711.3781    77.457404 
   45900    1198.6907   -111.01752    1.0846005   -109.93292    7820.5713    4.2596095    4.2596095    4.2596095    7820.5713   -12251.005    27910.434    7802.2846    4020.0281    2339.5281    3342.4946     77.28752 
   46000    907.00278   -110.75871   0.82067518   -109.93804   -8734.5681    4.2644993    4.2644993    4.2644993   -8734.5681   -27032.497    15461.396   -14632.604   -8078.6914   -4242.8464   -7074.5273    77.553991 
   46100    331.63425   -110.24647   0.30006964    -109.9464   -18061.672    4.2635849    4.2635849    4.2635849   -18061.672   -7605.4594   -7812.5015   -38767.056   -5210.6479   -4222.2449   -13873.711    77.504113 
   46200    845.64073   -110.70645    0.7651535    -109.9413    2955.6725    4.2577813    4.2577813    4.2577813    2955.6725    9385.3832    10660.475    -11178.84    9487.9501    534.84596   -1985.7175    77.188047 
   46300     1056.541   -110.89144   0.95598051   -109.93546    2310.9859    4.2659751    4.2659751    4.2659751    2310.9859   -24543.614    26227.318    5249.2538    4275.5814   -1006.4003    6407.0129    77.634534 
   46400    688.39264   -110.56314   0.62287213   -109.94027   -5287.0833    4.2605261    4.2605261    4.2605261   -5287.0833   -21188.616    28525.837   -23198.471   -5444.4974   -7071.8174   -10356.537    77.337421 
   46500    590.86202   -110.47439   0.53462437   -109.93977    -5892.966    4.2608859    4.2608859    4.2608859    -5892.966   -7281.0101    4765.4175   -15163.306   -1642.1229    1019.4192   -11731.277    77.357015 
   46600    914.33129   -110.76183   0.82730617   -109.93452   -9082.7824    4.2659351    4.2659351    4.2659351   -9082.7824   -24950.324   -611.10401   -1686.9191    10806.239    1252.9698    9847.8664    77.632348 
   46700    803.01524   -110.66099   0.72658506   -109.93441    4624.1804     4.259213     4.259213     4.259213    4624.1804    -20474.96      24949.3    9398.2018    11849.609     -8666.67   -2040.9643    77.265939 
   46800    835.93937   -110.69334   0.75637551   -109.93697   -12272.671    4.2614177    4.2614177    4.2614177   -12272.671    -17491.05    4329.5217   -23656.484   -1367.5348   -4016.3042   -22319.412    77.385987 
   46900    855.72431   -110.71086   0.77427734   -109.93659   -2502.4254    4.2628099    4.2628099    4.2628099   -2502.4254    -13361.37    7542.6472   -1688.5536    6312.5722    2470.8045   -6408.9509    77.461858 
   47000    958.64837   -110.80284   0.86740519   -109.93544   -4178.4347    4.2631114    4.2631114    4.2631114   -4178.4347   -33756.697    15682.254    5539.1392    17259.271   -1952.0457    5871.8709    77.478294 
   47100    642.80274    -110.5209   0.58162143   -109.93927    5465.3828    4.2595797    4.2595797    4.2595797    5465.3828   -19732.648     25754.11    10374.687    -5060.511   -13589.424   -6792.1248    77.285894 
   47200     822.6534   -110.68325   0.74435409    -109.9389    1560.0141     4.260163     4.260163     4.260163    1560.0141   -14271.537    23598.632   -4647.0529   -5437.7572    543.37494   -13086.896    77.317649 
   47300    1091.3581   -110.92299   0.98748372   -109.93551   -1761.4792    4.2651181    4.2651181    4.2651181   -1761.4792   -20072.225    5980.6334    8807.1544    12600.007    2089.3609    -1056.418    77.587753 
   47400    937.02772   -110.78641   0.84784237   -109.93857    4175.7103    4.2586112    4.2586112    4.2586112    4175.7103   -23740.954    18682.925     17585.16   -143.92845   -20561.465    6310.6871    77.233191 
   47500    506.47148   -110.40378   0.45826604   -109.94552   -758.53857    4.2619605    4.2619605    4.2619605   -758.53857   -22828.861    14132.461    6420.7846    -10827.44   -2919.1814   -10096.716    77.415561 
   47600    991.51998   -110.83622   0.89714812   -109.93907   -10730.882    4.2643765    4.2643765    4.2643765   -10730.882   -15931.667   -2607.7964   -13653.183   -4920.4124    15215.177   -14574.619    77.547288 
   47700    1213.5932   -111.03155    1.0980847   -109.93346    5528.9461     4.259084     4.259084     4.259084    5528.9461   -4339.7307    11339.006    9587.5635    5787.9782   -6737.7751    3131.1398     77.25892 
   47800    831.17332   -110.69418   0.75206308   -109.94211   -6052.6111    4.2621122    4.2621122    4.2621122   -6052.6111   -22021.818    10553.584      -6689.6    3922.4643   -15891.552   -2272.5492    77.423825 
   47900    589.21419   -110.47867   0.53313338   -109.94554    125.27441    4.2609685    4.2609685    4.2609685    125.27441   -9301.4298    8006.0777    1671.1753   -7009.7382    9694.5204   -18931.351    77.361515 
   48000    1023.8215   -110.86688   0.92637518   -109.94051     2058.464    4.2628822    4.2628822    4.2628822     2058.464   -1304.4678    2370.3422    5109.5175    -2818.787    14355.137   -6825.4057    77.465796 
   48100    1224.5568   -111.04295    1.1080048   -109.93495    4603.2766    4.2611621    4.2611621    4.2611621    4603.2766   -2483.4144    12378.448     3914.796    -1029.156   -15721.501    9278.8348     77.37206 
   48200    762.27755   -110.63026   0.68972475   -109.94053   -1258.2545    4.2635616    4.2635616    4.2635616   -1258.2545   -16554.716    2740.2628    10039.689   -3580.9843   -3241.1827   -7602.0063    77.502842 
   48300    646.63014   -110.52733   0.58508454   -109.94224   -11386.441     4.263791     4.263791     4.263791   -11386.441   -11163.804   -2597.2014   -20398.318   -3535.8833    21344.281   -20757.964    77.515351 
   48400    1120.4152   -110.95186    1.0137752   -109.93808    6573.1968    4.2529894    4.2529894    4.2529894    6573.1968    5012.0122    5384.9557    9322.6225   -3191.6862   -884.88673    8157.4933    76.927726 
   48500    1238.8322   -111.05866    1.1209214   -109.93774    -4060.508     4.267429     4.267429     4.267429    -4060.508   -8154.0153    2205.1521   -6232.6609    3838.7101   -5884.4816    9534.1601    77.713938 
   48600    667.70348   -110.54887   0.60415214   -109.94472   -1104.8291    4.2635956    4.2635956    4.2635956   -1104.8291   -12789.566    10140.943   -665.86425   -3254.2197    15760.256   -19680.149    77.504694 
   48700    617.95632   -110.50445   0.55913986   -109.94531    4226.2606    4.2560473    4.2560473    4.2560473    4226.2606   -16543.726    4002.5521    25219.956   -6873.5425    15641.603   -6473.9481    77.093779 
   48800    1242.6305   -111.06022    1.1243582   -109.93586   -4238.8038    4.2677834    4.2677834    4.2677834   -4238.8038   -14533.325   -9293.2193    11110.132   -2867.0419   -739.30114    4940.7286    77.733302 
   48900    1158.9159   -110.98475    1.0486115   -109.93613    10320.216    4.2578623    4.2578623    4.2578623    10320.216    7548.5459    11221.466    12190.638     -1789.94   -1490.0837   -8718.1748     77.19245 
   49000    505.48323   -110.40507   0.45737185   -109.94769   -13404.117    4.2641477    4.2641477    4.2641477   -13404.117   -27316.831   -20617.796    7722.2759   -4234.1682    14912.597   -15213.596    77.534806 
   49100    707.50018   -110.58627   0.64016103   -109.94611   -10915.868    4.2635266    4.2635266    4.2635266   -10915.868   -25995.414   -6935.2875    183.09628   -10411.536    7993.7711   -2834.1267    77.500933 
   49200    1307.0874   -111.11904    1.1826801   -109.93636    13450.014     4.253821     4.253821     4.253821    13450.014    498.70872     27551.78    12299.554    803.57425   -8392.4653    11223.623     76.97286 
   49300    924.64506   -110.77959   0.83663828   -109.94295   -8372.6813    4.2683531    4.2683531    4.2683531   -8372.6813   -13871.118    4395.6855   -15642.612   -2908.5432    7392.2716    -10065.79    77.764434 
   49400    492.52538   -110.39116   0.44564731   -109.94551    1143.9852    4.2620595    4.2620595    4.2620595    1143.9852   -19171.485     19380.99    3222.4507   -12267.348    15924.246   -15206.923    77.420954 
   49500    929.97537   -110.78126   0.84146125    -109.9398     2044.321    4.2576052    4.2576052    4.2576052     2044.321   -20919.851    7762.4423    19290.372    1350.5688   -9146.6864    3286.9357    77.178468 
   49600    997.67886   -110.83874    0.9027208   -109.93602    2793.4328    4.2646122    4.2646122    4.2646122    2793.4328   -6686.3196    24388.296   -9321.6784    4136.0755   -20858.489    1210.2859    77.560148 
   49700    909.02572   -110.75982   0.82250557   -109.93732   -3439.7114    4.2624665    4.2624665    4.2624665   -3439.7114   -15729.475   -3046.5938    8456.9345   -6975.2227    12252.366   -7940.8973    77.443139 
   49800    607.35355   -110.48954   0.54954625   -109.93999   -5573.4357    4.2614566    4.2614566    4.2614566   -5573.4357   -26027.293   -3988.0021    13294.988   -9998.7142    11301.227   -8981.3642    77.388104 
   49900    709.24961   -110.58254   0.64174395   -109.94079   -3817.3991    4.2599554    4.2599554    4.2599554   -3817.3991   -28620.469    20712.231   -3543.9593   -1525.6688    -27502.65    3725.7874    77.306347 
   50000    920.25622   -110.77248   0.83266716   -109.93982      3904.61    4.2633487    4.2633487    4.2633487      3904.61   -23684.352    28058.253    7339.9292    6993.1126   -11841.194   -1556.3747    77.491234 
   50100    996.07736   -110.84034   0.90127173   -109.93907     3562.773    4.2595277    4.2595277    4.2595277     3562.773    -9436.185    18332.869    1791.6351   -9944.4168    13906.468   -16020.825    77.283063 
   50200    418.79039   -110.32535   0.37893035   -109.94642    4011.1343    4.2611324    4.2611324    4.2611324    4011.1343   -31186.034    48277.602    -5058.166    -10358.35   -16490.249   -209.10832    77.370445 
   50300    589.31755   -110.47678   0.53322691   -109.94355   -18413.123    4.2676687    4.2676687    4.2676687   -18413.123    -56668.71     6249.427   -4820.0851    8073.6631   -25413.943    2184.8714    77.727032 
   50400    1006.5971   -110.84629    0.9107902    -109.9355    12595.929    4.2545797    4.2545797    4.2545797    12595.929   -5010.2024    16769.485    26028.504    11743.284    5413.2932    4634.6844    77.014054 
   50500    940.69447   -110.79116   0.85116013      -109.94   -3974.8428    4.2635063    4.2635063    4.2635063   -3974.8428   -10525.089    7861.8051   -9261.2444   -7916.0191    -8379.383    -10630.06    77.499825 
   50600    486.46117   -110.38696   0.44016029    -109.9468   -11248.788    4.2644819    4.2644819    4.2644819   -11248.788   -47979.305    5085.3458    9147.5947   -7347.3912   -27370.912    -4301.932    77.553039 
   50700    589.57661   -110.47723   0.53346131   -109.94377    8992.1935    4.2563286    4.2563286    4.2563286    8992.1935   -21055.241     10422.45    37609.372    17190.711   -5265.2288    5966.9735    77.109069 
   50800    1037.5841   -110.87471   0.93882791   -109.93588   -6776.3061    4.2703893    4.2703893    4.2703893   -6776.3061   -24175.339    5432.2101   -1585.7897    8499.9732    10280.366   -2469.4441    77.875777 
   50900    928.25433   -110.77633   0.83990403   -109.93643    12308.294     4.255581     4.255581     4.255581    12308.294    -15700.53    33091.578    19533.832   -4909.9299   -19904.202     1663.576    77.068443 
   51000    498.33133   -110.39551   0.45090066   -109.94461    4404.0775    4.2602782    4.2602782    4.2602782    4404.0775   -29112.166     27405.99    14918.409    5972.1797   -18151.868   -3858.1737    77.323925 
   51100    599.77289   -110.48492   0.54268712   -109.94223   -20440.941    4.2715189    4.2715189    4.2715189   -20440.941   -56743.662     1040.334   -5619.4947    17346.322    14397.975   -245.96501    77.937596 
   51200    943.62756   -110.78886   0.85381404   -109.93505    24090.043    4.2476497    4.2476497    4.2476497    24090.043    650.62137    52467.192    19152.315   -388.95722    4904.8717    5291.9689    76.638336 
   51300    1066.2575   -110.90465   0.96477218   -109.93988   -7347.5098    4.2692849    4.2692849    4.2692849   -7347.5098   -18663.067    15930.794   -19310.256   -1807.6802   -13852.949   -3844.4256    77.815372 
   51400    577.01491   -110.46573   0.52209522   -109.94363   -13668.529    4.2685975    4.2685975    4.2685975   -13668.529   -50196.664    6740.8122    2450.2653    20745.441   -2262.8006    1526.0101    77.777793 
   51500    541.75403   -110.42836   0.49019043   -109.93817    17662.679    4.2454977    4.2454977    4.2454977    17662.679   -20090.889    44920.796    28158.131    3667.4019     18977.36    -1317.832    76.521914 
   51600     1057.811   -110.89464   0.95712964   -109.93751   -14482.163    4.2731593    4.2731593    4.2731593   -14482.163    -32321.09    6786.2829   -17911.684   -12580.219    953.16428   -5344.7369    78.027419 
   51700    1021.9121   -110.85984   0.92464753   -109.93519    4559.9703    4.2616603    4.2616603    4.2616603    4559.9703    -22287.75    31470.189    4497.4723    12608.852   -6675.6408    3116.0342    77.399202 
   51800    463.81688   -110.36065   0.41967126   -109.94098    5682.7154    4.2517935    4.2517935    4.2517935    5682.7154   -36214.173    31860.295    21402.023     22470.51    16739.154    586.22566    76.862852 
   51900    447.70847    -110.3489   0.40509603   -109.94381   -18190.952    4.2703579    4.2703579    4.2703579   -18190.952   -59060.017    6300.9745   -1813.8129    -17777.38     13110.39    2149.7382    77.874059 
   52000     1023.014    -110.8599   0.92564459   -109.93426    4845.0477    4.2607413    4.2607413    4.2607413    4845.0477   -19300.774    25526.349    8309.5681   -10527.613   -5673.2565    654.96668    77.349141 
   52100    935.28335   -110.78339   0.84626403   -109.93712   -5227.3356    4.2623141    4.2623141    4.2623141   -5227.3356   -28173.766    15141.993   -2650.2338    20534.499    3749.8737   -3392.6079    77.434831 
   52200    498.40229   -110.39714   0.45096486   -109.94617   -5926.5654    4.2556674    4.2556674    4.2556674   -5926.5654    -45284.22    7494.3788    20010.145   -4611.2708    16192.896    3976.0171    77.073136 
   52300    463.34385   -110.36954   0.41924325    -109.9503    3224.9971    4.2623971    4.2623971    4.2623971    3224.9971   -40558.446    18913.772    31319.666   -24403.382    3607.1185    3907.8304    77.439352 
   52400    1036.9376   -110.87561   0.93824295   -109.93737   -20441.897    4.2734588    4.2734588    4.2734588   -20441.897   -34602.682   -3152.8246   -23570.186    15.077446   -10308.852   -6994.3862    78.043828 
   52500    846.77604   -110.70073   0.76618076   -109.93455    22562.663    4.2437735    4.2437735    4.2437735    22562.663   -6238.6091    44999.777    28926.822     2288.089     2404.303   -1264.2957    76.428722 
   52600    567.34001   -110.46065   0.51334117   -109.94731   -12561.801    4.2637216    4.2637216    4.2637216   -12561.801   -47609.733    701.66798     9222.662   -26438.602    13567.157   -149.67674    77.511568 
   52700     549.2807   -110.43787   0.49700072   -109.94087   -21087.213    4.2728419    4.2728419    4.2728419   -21087.213    -46357.57    5169.4636   -22073.533   -10570.453    -13223.15   -7097.9929    78.010037 
   52800    907.12346   -110.75189   0.82078437   -109.93111    14327.859    4.2461043    4.2461043    4.2461043    14327.859   -2685.0557    47600.641   -1932.0077     6700.091   -16310.381   -9010.8269    76.554722 
   52900    891.47597   -110.74309   0.80662619   -109.93646    -10247.66    4.2648985    4.2648985    4.2648985    -10247.66   -30075.916   -3178.6123    2511.5476   -15316.998    12486.405    1526.7931    77.575773 
   53000    634.07433   -110.51415   0.57372378   -109.94043   -5590.8249    4.2652957    4.2652957    4.2652957   -5590.8249   -27078.716    11664.881   -1358.6399   -19349.731    3386.4675    4495.2454    77.597445 
   53100    654.86011   -110.53199   0.59253119   -109.93946    4940.7421    4.2550997    4.2550997    4.2550997    4940.7421   -20319.705    26958.281    8183.6503    4435.4075   -22242.697   -9386.1958    77.042298 
   53200    900.58185   -110.75383   0.81486539   -109.93897   -3387.3324    4.2617197    4.2617197    4.2617197   -3387.3324   -5592.1368   -6051.4473    1481.5869    6636.6135   -10463.454   -9012.8822    77.402439 
   53300    949.76129   -110.79707   0.85936397    -109.9377    8087.7615    4.2616581    4.2616581    4.2616581    8087.7615    9329.0661    3349.1544    11585.064   -20650.977    10763.582     1132.255    77.399082 
   53400     756.4103   -110.62385   0.68441594   -109.93943   -4911.1515    4.2657845    4.2657845    4.2657845   -4911.1515   -25059.252    4923.0478    5402.7502   -11822.888   -4284.2242    2039.4804     77.62413 
   53500    753.64299   -110.62075   0.68191201   -109.93884    6200.4731    4.2545798    4.2545798    4.2545798    6200.4731    9962.0591    625.83722     8013.523    17051.169   -14283.354   -9627.0921    77.014059 
   53600    980.66649   -110.82685   0.88732765   -109.93952   -3158.4759    4.2590275    4.2590275    4.2590275   -3158.4759   -10503.726   -8006.5799    9034.8784    11330.313   -1753.1412   -5124.8352    77.255844 
   53700    943.19325   -110.79258   0.85342108   -109.93916   -12720.508    4.2678512    4.2678512    4.2678512   -12720.508    -29857.21   -8643.9709    339.65591   -17649.857    12954.222    4779.3406    77.737005 
   53800    822.16678   -110.68318   0.74391378   -109.93927    2675.0076    4.2548298    4.2548298    4.2548298    2675.0076   -3755.3778     12241.32   -460.91965      -7341.4    6800.5677   -4545.5039    77.027639 
   53900    810.08292   -110.67361   0.73298005   -109.94063   -5390.9687    4.2624103    4.2624103    4.2624103   -5390.9687   -20606.768    1519.2927    2914.5696    25076.821   -12662.594   -6027.9195    77.440071 
   54000     997.5198   -110.83854   0.90257687   -109.93596   -2946.9816    4.2634853    4.2634853    4.2634853   -2946.9816   -13664.338   -9673.2547    14496.648    5919.7785   -1193.8703   -2837.2791     77.49868 
   54100    942.37225   -110.78799   0.85267821   -109.93531    7772.8615    4.2594406    4.2594406    4.2594406    7772.8615    8896.4225    10399.331    4022.8311   -19173.987    13008.158    3403.4614    77.278322 
   54200    806.96382   -110.66936   0.73015782    -109.9392   -1177.4578    4.2615534    4.2615534    4.2615534   -1177.4578   -10754.009     8851.339   -1629.7035    6230.4968   -631.70012    2588.1845    77.393377 
   54300    881.44629   -110.73805   0.79755112    -109.9405    11729.127    4.2555837    4.2555837    4.2555837    11729.127    10938.703   -4602.9545    28851.633    25937.964   -7585.4861   -6203.1982    77.068591 
   54400    1081.8043   -110.91782   0.97883928   -109.93899    -1996.032     4.266393     4.266393     4.266393    -1996.032   -2818.7819   -3641.3595    472.04547    4321.7912    5967.0453   -1848.7646     77.65735 
   54500    1010.0068   -110.85143    0.9138754   -109.93755   -3624.0825    4.2629219    4.2629219    4.2629219   -3624.0825   -16977.138    6491.2993   -386.40892   -11613.879     11346.71    3703.7596     77.46796 
   54600    704.20227   -110.57606   0.63717701   -109.93888    5772.6707    4.2543365    4.2543365    4.2543365    5772.6707   -7701.6996   -11448.573    36468.285    23706.643   -1009.8685    125.29838    77.000851 
   54700     960.1821   -110.80662   0.86879294   -109.93782   -14519.113    4.2674768    4.2674768    4.2674768   -14519.113   -26299.685   -17922.847    665.19189    27346.008   -1994.1242   -1677.6781    77.716548 
   54800    1127.7449   -110.95464    1.0204073   -109.93423     3159.431    4.2604271    4.2604271    4.2604271     3159.431   -515.11939    15406.742   -5413.3292   -12314.172    16895.975    1675.0722     77.33203 
   54900    911.21544    -110.7622   0.82448688   -109.93771    5472.8451    4.2549184    4.2549184    4.2549184    5472.8451   -2517.8987    4479.0132    14457.421    4776.2061    7698.3556    1914.5792    77.032451 
   55000    568.21468   -110.45769   0.51413258   -109.94356   -4277.3808     4.266251     4.266251     4.266251   -4277.3808   -22349.002   -1682.5445    11199.404    30234.246   -13758.198   -1252.0557      77.6496 
   55100    965.17323   -110.81217   0.87330902   -109.93887    2130.7066    4.2630789    4.2630789    4.2630789    2130.7066    2028.5211    15502.971   -11139.372    2204.8099    845.80548   -8803.0443    77.476522 
   55200    1197.3666   -111.01686    1.0834024   -109.93346    13979.887    4.2551607    4.2551607    4.2551607    13979.887    14337.914    25915.166    1686.5801   -6080.6718    14063.672   -644.74503    77.045608 
   55300    816.88366   -110.68176    0.7391335   -109.94263   -5232.2484    4.2614337    4.2614337    4.2614337   -5232.2484   -26586.175    6862.9565    4026.4732    25425.335    1900.8712    5219.3931    77.386855 
   55400    594.35028    -110.4836   0.53778062   -109.94582   -12521.875    4.2650341    4.2650341    4.2650341   -12521.875   -28120.064   -5928.3343   -3517.2277    17882.927   -15023.258   -10156.914    77.583169 
   55500    1066.8099   -110.90391   0.96527198   -109.93864    529.46601    4.2559594    4.2559594    4.2559594    529.46601  -0.46977431    11658.271   -10069.404   -11934.911    -5211.926   -9705.7149    77.089005 
   55600    1100.3479   -110.93138   0.99561786   -109.93576   -1086.7145    4.2620055    4.2620055    4.2620055   -1086.7145    -10451.89    10485.901   -3294.1544    8485.8787    6147.3605    3553.5327    77.418015 
   55700    692.25114   -110.56603   0.62636338   -109.93966   -10183.221    4.2659542    4.2659542    4.2659542   -10183.221   -31689.425    5780.7892   -4641.0261     23575.03   -7192.6494   -946.49062    77.633394 
   55800    690.48352   -110.56396     0.624764   -109.93919    5660.2178    4.2544659    4.2544659    4.2544659    5660.2178   -13905.918    22927.454    7959.1179   -9251.0806   -11060.655   -5528.3991    77.007877 
   55900    977.60299    -110.8223   0.88455573   -109.93774    7646.9203    4.2584783    4.2584783    4.2584783    7646.9203     6739.975    17585.829   -1385.0434   -11582.403    1117.2813    -4324.774    77.225961 
   56000    951.88611   -110.79895   0.86128656   -109.93767    4345.7625    4.2641752    4.2641752    4.2641752    4345.7625    1445.0519    18172.487   -6580.2515    19749.427    1933.3215    4489.7246     77.53631 
   56100    707.77995   -110.58036   0.64041417   -109.93995    3078.2108    4.2605684    4.2605684    4.2605684    3078.2108   -21132.608    12284.108    18083.132    6621.6131   -6212.8836   -437.93488    77.339726 
   56200     630.5826    -110.5107   0.57056439   -109.94014     402.0247     4.260108     4.260108     4.260108     402.0247   -12639.467     9550.506    4295.0355   -17479.109   -7030.8147   -12536.535    77.314657 
   56300    894.56501   -110.74632   0.80942122    -109.9369     2200.219     4.261211     4.261211     4.261211     2200.219    2417.1266     10307.35   -6123.8195    2479.0271    715.42425    5149.6965    77.374724 
   56400    994.90563   -110.83557   0.90021152   -109.93536    3661.4763    4.2601292    4.2601292    4.2601292    3661.4763   -12309.883    14554.201    8740.1114    15080.801    3505.4646    12455.842    77.315811 
   56500    574.18635   -110.46071   0.51953588   -109.94118   -4759.4785     4.262281     4.262281     4.262281   -4759.4785     -37617.6    9377.3934    13961.772   -17071.156   -8624.8894   -12222.963    77.433026 
   56600    543.91167   -110.43472   0.49214271   -109.94258   -11622.116    4.2619342    4.2619342    4.2619342   -11622.116   -27401.709    5062.3226   -12526.963   -18295.315   -5531.5901   -2678.1496    77.414127 
   56700    980.41071   -110.82305   0.88709622   -109.93595    827.41449    4.2605278    4.2605278    4.2605278    827.41449   -10432.593    14146.642    -1231.806     5167.699    3977.8527    12091.138    77.337516 
   56800    1007.1204   -110.84707   0.91126371   -109.93581   -6318.5154     4.263123     4.263123     4.263123   -6318.5154   -28289.782    8314.1375    1020.0982   -5038.3799   -6539.4445    1224.8376    77.478924 
   56900    466.70331   -110.36424   0.42228296   -109.94195   -2028.1547    4.2603269    4.2603269    4.2603269   -2028.1547   -34134.517    22701.116    5348.9364   -21723.572   -7822.7542   -8079.2059    77.326573 
   57000    630.87358   -110.51223   0.57082767    -109.9414   -4952.6223    4.2625453    4.2625453    4.2625453   -4952.6223   -14295.854    11690.884   -12252.898   -5013.9794    2078.9791   -1796.0461    77.447433 
   57100    994.46753   -110.83541   0.89981512    -109.9356   -662.30169    4.2612133    4.2612133    4.2612133   -662.30169   -5943.2836    4960.4593   -1004.0808    13021.667    1050.0679    8900.4925    77.374851 
   57200    753.62549   -110.61959   0.68189618   -109.93769    3581.8035    4.2577554    4.2577554    4.2577554    3581.8035    -12238.71    24438.363   -1454.2425   -4506.7517    -10542.56   -15.319617    77.186639 
   57300    557.37353   -110.44591   0.50432329   -109.94159   -8870.2819    4.2650027    4.2650027    4.2650027   -8870.2819   -17024.201    3354.7803   -12941.425    -15689.48   -6045.0158   -6160.2942    77.581457 
   57400    719.94225   -110.58943   0.65141888   -109.93801    872.27988    4.2586377    4.2586377    4.2586377    872.27988    3081.8732   -3746.7782    3281.7446     5365.935    5309.4246    7669.6752    77.234633 
   57500    745.71709    -110.6121   0.67474049   -109.93736    2462.5972    4.2601527    4.2601527    4.2601527    2462.5972   -5970.0341    10799.311    2558.5149    19282.992   -5886.0181    4555.7122    77.317087 
   57600    778.42757   -110.64251   0.70433763   -109.93818   -5892.0932    4.2638475    4.2638475    4.2638475   -5892.0932   -32324.227    17169.918   -2521.9708   -1922.9449    -13551.18   -4271.6844    77.518433 
   57700    791.71157   -110.65274   0.71635727   -109.93639    12426.568    4.2550688    4.2550688    4.2550688    12426.568   -6778.1231    19846.926      24210.9   -6279.3275   -1435.4536   -7237.4283    77.040617 
   57800    704.79153   -110.57744   0.63771018   -109.93973   -9664.8494    4.2660903    4.2660903    4.2660903   -9664.8494   -29416.157    5.7383664    415.86996     21040.87    1392.1155    1843.1439    77.640821 
   57900    657.12957   -110.53419   0.59458465    -109.9396    269.93154    4.2609365    4.2609365    4.2609365    269.93154    -36072.96     12901.82    23980.935    15866.162   -12197.861    6239.9932    77.359775 
   58000    1050.0987   -110.88427   0.95015137   -109.93412    5521.3967    4.2545961    4.2545961    4.2545961    5521.3967   -16269.052    30238.922    2594.3197   -9116.4969   -14352.993   -1184.0296    77.014946 
   58100    842.19703   -110.70014   0.76203757    -109.9381   -14974.524    4.2670115    4.2670115    4.2670115   -14974.524   -25353.777   -15190.862   -4378.9343    11272.947    8225.9763   -14163.838    77.691129 
   58200    630.02176   -110.51111   0.57005693   -109.94105   -9043.4151    4.2570903    4.2570903    4.2570903   -9043.4151   -25459.439   -13120.988    11450.181    23066.802   -8246.5927   -2562.1226    77.150471 
   58300    748.06838    -110.6169   0.67686799   -109.94004   -4856.4948    4.2607681    4.2607681    4.2607681   -4856.4948   -21162.862    14551.058   -7957.6798   -3746.6824   -18552.233    8852.3725    77.350603 
   58400    950.47627   -110.79431    0.8600109    -109.9343    -15823.59    4.2669846    4.2669846    4.2669846    -15823.59   -25788.045   -3224.9647    -18457.76   -4961.7105    4607.9617    -12096.71    77.689661 
   58500    712.92333   -110.58003   0.64506801   -109.93496    5025.2198    4.2537872    4.2537872    4.2537872    5025.2198    2004.4265     -7467.89    20539.123    18545.424    5702.1234   -12874.851    76.971027 
   58600    654.77488   -110.53126   0.59245407   -109.93881   -3932.2625    4.2629867    4.2629867    4.2629867   -3932.2625   -15964.643     6021.076   -1853.2211    10904.542   -15548.628   -361.37617    77.471492 
   58700    764.18508   -110.62959   0.69145072   -109.93814    6309.1218    4.2611714    4.2611714    4.2611714    6309.1218   -20341.081    20640.073    18628.373   -11938.204   -19559.999    6823.0879    77.372569 
   58800    793.98499    -110.6556    0.7184143   -109.93718    13551.518    4.2553065    4.2553065    4.2553065    13551.518    6996.3708    3997.3461    29660.838    981.74885    9950.9272   -4191.6937    77.053529 
   58900    652.02444   -110.52963   0.58996541   -109.93966   -5652.9296    4.2661984    4.2661984    4.2661984   -5652.9296   -6353.0569    -4576.098   -6029.6339    15228.139   -505.79344   -17150.955    77.646723 
   59000    713.93071   -110.58281   0.64597951   -109.93683    6571.5904    4.2583238    4.2583238    4.2583238    6571.5904   -9203.4048    11571.737    17346.439    2584.4494   -29613.231    451.34074    77.217554 
   59100    838.99668   -110.69389   0.75914183   -109.93474   -2633.1058    4.2602577    4.2602577    4.2602577   -2633.1058   -10871.986   -3922.3455    6895.0136    -10595.05   -1685.3046    3757.8333    77.322809 
   59200    669.12846   -110.54327   0.60544149   -109.93783   -12670.524    4.2628303    4.2628303    4.2628303   -12670.524   -3039.9531   -24069.027   -10902.593   -144.96552    17495.363   -16591.872    77.462966 
   59300    622.12029   -110.50312   0.56290751   -109.94021   -2473.9483    4.2564049    4.2564049    4.2564049   -2473.9483    5850.5506   -15614.003    2341.6073    9621.6538   -10490.923   -13476.531    77.113212 
   59400     801.3857    -110.6652   0.72511062   -109.94009   -4537.2266    4.2624579    4.2624579    4.2624579   -4537.2266   -8737.0702   -11242.644    6368.0342    2627.0349   -21810.237    716.97722    77.442668 
   59500    832.98157   -110.69193   0.75369923   -109.93823    1232.7195    4.2593256    4.2593256    4.2593256    1232.7195    4681.6349   -21353.179    20369.703   -3100.4259    12947.652   -6187.2213    77.272063 
   59600    494.32903   -110.38871    0.4472793   -109.94143   -6788.8912    4.2664811    4.2664811    4.2664811   -6788.8912    13358.479   -42378.835    8653.6826    3093.4398    14080.639   -21733.903    77.662161 
   59700    790.87926   -110.65119   0.71560418   -109.93559    -4914.255    4.2624401    4.2624401    4.2624401    -4914.255    7200.2268   -24357.205    2414.2129    6874.0831   -22481.871   -2432.0622    77.441699 
   59800     1015.685   -110.85114   0.91901317   -109.93213    12743.419    4.2523823    4.2523823    4.2523823    12743.419    6978.7437    2375.0935    28876.421   -634.03142   -6653.3668    6211.3676    76.894787 
   59900    729.10642    -110.5998   0.65971081   -109.94009    -14494.12    4.2668028    4.2668028    4.2668028    -14494.12    8382.9917   -35625.853   -16239.499   -2972.4649    17893.643   -17681.746    77.679734 
   60000    597.65615   -110.48265   0.54077184   -109.94187   -2377.0624    4.2588099    4.2588099    4.2588099   -2377.0624     17883.49   -38011.517    12996.839    10764.753   -493.94342   -9110.8875       77.244 
   60100    884.03241   -110.73833    0.7998911   -109.93844    1705.5159    4.2621817    4.2621817    4.2621817    1705.5159   -2616.8859   -22377.128    30110.562    4547.8882   -12290.583    7312.1059    77.427614 
   60200    869.92979   -110.72116   0.78713076   -109.93403   -8622.8622    4.2664266    4.2664266    4.2664266   -8622.8622   -7556.8694   -17740.344   -571.37316   -5294.5736    8164.8678   -7911.5217    77.659187 
   60300    649.51681   -110.52328   0.58769646   -109.93558    11745.231    4.2502735    4.2502735    4.2502735    11745.231    28576.586     -12824.5    19483.608     2862.526    20321.729   -14348.732    76.780447 
   60400    681.77631   -110.55656   0.61688553   -109.93967    -12120.03        4.265        4.265        4.265    -12120.03    2872.8172    -42272.21    3039.3023    7133.7139   -6619.1979    4736.0773    77.581309 
   60500    759.69203   -110.62413   0.68738531   -109.93675    -7413.002    4.2652685    4.2652685    4.2652685    -7413.002    10997.012   -35236.392    2000.3737   -413.05412   -5988.5502    5969.7437    77.595963 
   60600    847.98176   -110.70191   0.76727172   -109.93464    11021.697    4.2531279    4.2531279    4.2531279    11021.697    25205.907    425.49412    7433.6886    -9534.103    20812.816   -7721.9231    76.935243 
   60700    738.11345   -110.60454   0.66786056   -109.93668    -735.8797    4.2636681    4.2636681    4.2636681    -735.8797    20710.001   -19478.917   -3438.7231    9030.9147   -411.70943   -1724.8036    77.508652 
   60800    614.82477   -110.49485   0.55630637   -109.93854   -7810.0168     4.261743     4.261743     4.261743   -7810.0168    14562.291   -40065.493    2073.1525     5949.933   -10486.162    6553.5704    77.403708 
   60900    678.43574   -110.55321   0.61386292   -109.93935    -5876.884    4.2577803    4.2577803    4.2577803    -5876.884    -10349.73   -23809.096    16528.174   -19365.168    4135.9703   -1102.4447    77.187994 
   61000    941.57943   -110.78703   0.85196085   -109.93507    330.77094    4.2620227    4.2620227    4.2620227    330.77094    9571.2175   -5418.0608   -3160.8439   -2723.9787    6027.9533   -4298.8915    77.418951 
   61100     810.6287   -110.67037   0.73347389   -109.93689    -4405.508    4.2624493    4.2624493    4.2624493    -4405.508     19711.19    -23143.94   -9783.7742    14248.253    -5518.419    7349.3667    77.442197 
   61200    378.97681   -110.28661   0.34290618    -109.9437   -6833.6883    4.2586727    4.2586727    4.2586727   -6833.6883   -3470.5898   -37076.766    20046.291   -12372.964    -4231.741    4530.4045    77.236538 
   61300    804.53481   -110.66968      0.72796   -109.94172     -2415.61     4.258341     4.258341     4.258341     -2415.61    7877.5862   -28210.742    13086.326   -23705.302    9861.3014   -1522.6239    77.218488 
   61400    1148.9288   -110.97489    1.0395749   -109.93532     1249.005    4.2655564    4.2655564    4.2655564     1249.005     28442.28   -8192.8723   -16502.393    5976.7105   -1342.1794    1984.7304    77.611675 
   61500    673.38171   -110.55156   0.60928992   -109.94227   -3208.2838    4.2614398    4.2614398    4.2614398   -3208.2838   -1999.6055   -15130.627    7505.3816    -3867.807   -11299.296    5576.9127    77.387188 
   61600    478.53452    -110.3756   0.43298809   -109.94261   -323.32458    4.2578084    4.2578084    4.2578084   -323.32458    10495.165   -36324.444    24859.306   -26057.584   -2241.8791    1525.3591    77.189519 
   61700    1066.3705   -110.90283   0.96487439   -109.93796     1049.249    4.2618705    4.2618705    4.2618705     1049.249    20556.237   -18641.252    1232.7626   -6441.7677    3289.4853   -5196.8822    77.410656 
   61800    1093.4714   -110.92687   0.98939589   -109.93748     17247.36    4.2562652    4.2562652    4.2562652     17247.36    27165.657    17364.747    7211.6756    7925.1863   -6023.5439   -511.81778    77.105623 
   61900    597.90788   -110.48672   0.54099961   -109.94572   -9959.5234    4.2659813    4.2659813    4.2659813   -9959.5234   -12069.628   -25634.425    7825.4827   -20471.808   -12733.867    1646.5437    77.634871 
   62000    722.87607   -110.59605   0.65407346   -109.94198   -6740.8682    4.2594685    4.2594685    4.2594685   -6740.8682   -8408.1948   -27026.943    15212.533   -17458.538    4315.6599   -494.47176    77.279844 
   62100    1155.2289   -110.98044    1.0452754   -109.93516    12047.622    4.2537441    4.2537441    4.2537441    12047.622    21003.131    6054.4979    9085.2367    10239.646    1828.9715     -5527.84    76.968688 
   62200    984.17184   -110.82729   0.89049937   -109.93679   -14626.987    4.2708694    4.2708694    4.2708694   -14626.987   -18439.951   -15183.092   -10257.919   -15716.977   -10782.085    -1344.615    77.902049 
   62300    700.39098   -110.57348   0.63372848   -109.93975    9357.3855    4.2545205    4.2545205    4.2545205    9357.3855    7489.1808   -5285.9679    25868.944   -32051.649   -1746.0042    3090.9453    77.010839 
   62400     1025.748    -110.8663   0.92811835   -109.93818    3336.6301    4.2560394    4.2560394    4.2560394    3336.6301    11381.615   -11535.198    10163.473    6016.1345    1334.8102   -10051.373    77.093349 
   62500    970.36872   -110.81459   0.87801001   -109.93658   -5799.8719    4.2670757    4.2670757    4.2670757   -5799.8719    996.81661   -6810.7894   -11585.643    6324.4533    5951.4984   -8959.0737    77.694639 
   62600    776.04048    -110.6406   0.70217773   -109.93843    1626.9591    4.2577038    4.2577038    4.2577038    1626.9591   -13666.438    8341.4734    10205.842   -32796.411   -3681.1424    3177.6492    77.183833 
   62700    899.52753   -110.75231   0.81391141    -109.9384   -800.57659    4.2604223    4.2604223    4.2604223   -800.57659   -15983.157   -3151.7725      16733.2   -19943.839   -10904.774     156.1641    77.331772 
   62800    1213.8965     -111.033     1.098359   -109.93464    2084.1489    4.2570443    4.2570443    4.2570443    2084.1489    5417.3551    2799.4481   -1964.3564    15290.721    11298.381     -5939.91    77.147973 
   62900    674.29246   -110.55353   0.61011399   -109.94342   -8493.8678    4.2633604    4.2633604    4.2633604   -8493.8678    -23828.99    14551.306   -16203.919   -11484.752    5121.4589   -1127.8007    77.491867 
   63000    495.59999   -110.39496   0.44842928   -109.94654   -13033.567    4.2622279    4.2622279    4.2622279   -13033.567   -31163.493   -2716.7985   -5220.4109   -35480.806     -12096.1     3885.822    77.430133 
   63100    1041.6682   -110.88053   0.94252328   -109.93801    14054.185    4.2533662    4.2533662    4.2533662    14054.185     14664.57    8284.9801    19213.006    82.981849   -4140.6061   -3785.4158    76.948177 
   63200     1002.919   -110.84396   0.90746216    -109.9365   -6602.1107    4.2667649    4.2667649    4.2667649   -6602.1107    1613.7511   -5016.9853   -16403.098    2273.8892    2571.2536   -8118.5882    77.677664 
   63300    348.80832    -110.2604    0.3156091   -109.94479   -1197.9632    4.2590402    4.2590402    4.2590402   -1197.9632   -5699.1537    2523.0413   -417.77714   -28543.237    2001.8893   -727.15522    77.256531 
   63400    498.34006   -110.39551   0.45090856    -109.9446     4810.126    4.2563534    4.2563534    4.2563534     4810.126   -4692.4598    10949.733    8173.1047   -15786.741   -12471.139     1817.666    77.110417 
   63500    1003.3879   -110.84439   0.90788649    -109.9365    5929.9308    4.2625291    4.2625291    4.2625291    5929.9308      17319.8   -982.50065    1452.4932    13226.215   -5893.5393   -1324.3937     77.44655 
   63600    737.68821   -110.60824   0.66747579   -109.94076    6203.1369    4.2584643    4.2584643    4.2584643    6203.1369    12677.429   -8836.3869    14768.369   -11534.386    5775.9321   -4609.9518    77.225198 
   63700    385.10721   -110.29352    0.3484531   -109.94507   -9472.9223    4.2615272    4.2615272    4.2615272   -9472.9223    -21380.59   -1549.1473   -5489.0293   -34037.698   -4055.8026    1530.4357    77.391953 
   63800    730.09531   -110.60059   0.66060558   -109.93998    533.14295    4.2578639    4.2578639    4.2578639    533.14295   -2645.5755    14403.479   -10158.474      1230.67   -5462.7514    6517.0381    77.192541 
   63900    940.07753   -110.78723   0.85060191   -109.93662   -6021.1781    4.2627611    4.2627611    4.2627611   -6021.1781   -5076.9088   -14955.692    1969.0661    17539.026    1466.5784   -1258.3821    77.459197 
   64000    683.83184   -110.55919   0.61874542   -109.94044   -9897.8405    4.2598584    4.2598584    4.2598584   -9897.8405   -21675.996    -20222.87    12205.344   -16426.921   -1137.9922   -2352.9331     77.30107 
   64100    653.65018   -110.53247   0.59143642   -109.94103   -972.94484    4.2551482    4.2551482    4.2551482   -972.94484   -284.03771    991.53573   -3626.3325   -19902.736   -9090.3335    4574.1148    77.044932 
   64200    864.67926    -110.7213   0.78237996   -109.93892   -8484.6759      4.26513      4.26513      4.26513   -8484.6759   -10025.801   -11361.493   -4066.7333    16650.484   -5673.4899     4040.258    77.588406 
   64300    946.07498   -110.79346   0.85602852   -109.93744    3458.5208    4.2569122    4.2569122    4.2569122    3458.5208    3919.5743   -16635.961    23091.949    10332.171    2531.7991   -2129.9952    77.140791 
   64400    823.89811   -110.68528   0.74548033    -109.9398     5624.352    4.2582203    4.2582203    4.2582203     5624.352    9317.9587   -7907.2444    15462.342   -21520.581   -533.90268   -1536.5934    77.211924 
   64500    875.33242   -110.73156   0.79201917   -109.93954   -2203.9079    4.2622082    4.2622082    4.2622082   -2203.9079   -7934.5327   -7782.3306    9105.1395   -5756.2629   -4280.5219    10833.737     77.42906 
   64600    846.42131   -110.70477   0.76585979   -109.93891    10346.858    4.2579577    4.2579577    4.2579577    10346.858    15730.477    1292.5172    14017.579    25571.473    2345.7954    8175.1974    77.197642 
   64700    994.09076   -110.83718   0.89947421    -109.9377   -5276.5382    4.2623354    4.2623354    4.2623354   -5276.5382     -11800.4   -22577.689    18548.475   -1356.3741    1820.1583   -5193.4519     77.43599 
   64800    976.33967   -110.82058   0.88341265   -109.93717    11248.723    4.2547248    4.2547248    4.2547248    11248.723    4922.6847    4999.4184    23824.065    -27343.98   -2776.9337    3216.9984    77.021933 
   64900    837.00009     -110.699   0.75733527   -109.94166   -4793.3547    4.2616117    4.2616117    4.2616117   -4793.3547   -5611.0075    -2547.138   -6221.9186    11080.015   -431.94924    11310.266    77.396554 
   65000    747.96005   -110.61902   0.67676997   -109.94225   -9082.4103    4.2630502    4.2630502    4.2630502   -9082.4103   -8809.2166   -22228.265    3790.2512    33892.308   -3239.7244    4534.3608    77.474956 
   65100    1056.7891   -110.89273     0.956205   -109.93652    7667.3245    4.2523057    4.2523057    4.2523057    7667.3245    4736.3956   -6494.7485    24760.326   -10993.356    10.986306   -3626.3982    76.890632 
   65200    943.84173   -110.79205   0.85400783   -109.93805    -9136.782    4.2653619    4.2653619    4.2653619    -9136.782   -16182.878   -2842.8236    -8384.644   -18954.257   -2691.0377    1055.0691    77.601061 
   65300    484.55137   -110.38273   0.43843227   -109.94429   -7472.8329    4.2595382    4.2595382    4.2595382   -7472.8329   -12348.043   -9570.9082   -499.54743    31498.367   -5463.2405    11197.488    77.283636 
   65400     707.4002   -110.58523   0.64007057   -109.94516     677.7771    4.2536734    4.2536734    4.2536734     677.7771   -14069.061   -12035.479    28137.871    25824.852    5708.8882   -168.63195    76.964851 
   65500    1110.8605   -110.94141    1.0051299   -109.93628   -3780.1859    4.2656094    4.2656094    4.2656094   -3780.1859   -7296.8991   -1327.7663   -2715.8923   -13055.868    1314.6317   -4221.6945    77.614567 
   65600     647.6591   -110.52875   0.58601556   -109.94273    1490.1405    4.2583476    4.2583476    4.2583476    1490.1405   -13309.623    8717.7857    9062.2585    9551.6064   -12101.528    7793.8417    77.218852 
   65700    188.63964   -110.11976   0.17068511   -109.94908   -12462.198    4.2603518    4.2603518    4.2603518   -12462.198   -28791.389   -22372.574    13777.369    37764.239    1535.4755    5974.0975    77.327929 
   65800    833.45112   -110.69633   0.75412409    -109.9422   -6773.7881    4.2601049    4.2601049    4.2601049   -6773.7881   -12437.449   -5583.8331   -2300.0824    3357.7333     11091.77    1708.8794    77.314487 
   65900    1104.6282   -110.93704   0.99949079   -109.93755     5474.492    4.2568295    4.2568295    4.2568295     5474.492    5721.9365    3616.2774     7085.262   -5672.7498    1052.7205   -2984.8036    77.136295 
   66000    393.29273   -110.30346   0.35585953    -109.9476   -7994.5001    4.2640987    4.2640987    4.2640987   -7994.5001   -13047.494   -20799.014    9863.0074    36342.109   -3134.0189    1162.7677    77.532134 
   66100    436.59994   -110.34039    0.3950448   -109.94534   -2638.2399    4.2579509    4.2579509    4.2579509   -2638.2399   -20616.491    1468.8383    11232.933    20608.503    5159.1205    4156.3433     77.19727 
   66200    945.70927   -110.79303   0.85569763   -109.93733    4029.3465    4.2601602    4.2601602    4.2601602    4029.3465    4094.2606    3240.0205    4753.7585   -16747.506    9842.4314   -5217.7157    77.317499 
   66300    847.54713   -110.70416   0.76687845   -109.93728    443.14684    4.2627836    4.2627836    4.2627836    443.14684   -2421.7439   -8355.2136    12106.398     7898.341   -3807.2918   -395.08323    77.460422 
   66400    673.06887   -110.54981   0.60900686    -109.9408    3071.1804    4.2552685    4.2552685    4.2552685    3071.1804   -2867.1002    -3248.739     15329.38    27097.028   -5730.6272    6335.0778    77.051464 
   66500    701.19413   -110.57596   0.63445518   -109.94151   -1540.4355    4.2602318    4.2602318    4.2602318   -1540.4355   -5503.1782   -516.94109    1398.8128   -1979.3869    3486.2537    3821.8438    77.321394 
   66600    884.83721   -110.74028    0.8006193   -109.93966   -3696.9176    4.2608788    4.2608788    4.2608788   -3696.9176   -18489.416   -5017.3717    12416.035   -18323.342    7625.6545    1346.1245    77.356629 
   66700    942.24284   -110.79123   0.85256112   -109.93867    3807.8313    4.2583576    4.2583576    4.2583576    3807.8313     6116.085   -13103.178    18410.587    10587.678   -2457.0419   -784.45647    77.219393 
   66800    953.66507   -110.80107    0.8628962   -109.93817    987.98313    4.2602869    4.2602869    4.2602869    987.98313   -9598.4879   -895.83884    13458.276    15988.319   -4367.5105    5498.4621    77.324395 
   66900    694.25801   -110.57062   0.62817924   -109.94244   -32.499702    4.2586364    4.2586364    4.2586364   -32.499702   -22095.658    6297.4821    15700.677   -20859.637    9939.8602   -548.10895    77.234561 
   67000     771.9049   -110.64243   0.69843577     -109.944    -3938.507    4.2608819    4.2608819    4.2608819    -3938.507   -11583.302   -15850.841    15618.622   -19616.938     8443.391   -6438.7615      77.3568 
   67100    1243.7123   -111.06207     1.125337   -109.93673    1550.5947    4.2590747    4.2590747    4.2590747    1550.5947   -1879.7466   -8275.7316    14807.262    11093.875    -1907.492    -1234.662     77.25841 
   67200    904.88921    -110.7603   0.81876277   -109.94154    5882.4599    4.2575749    4.2575749    4.2575749    5882.4599   -6834.2987    7633.6769    16848.001    1535.5832    1587.0472   -1759.9801    77.176822 
   67300    388.81103   -110.30051   0.35180439   -109.94871   -14196.189    4.2635888    4.2635888    4.2635888   -14196.189   -40249.534   -8177.6545    5838.6214   -32338.606    5449.4873   -2868.5549    77.504324 
   67400    816.07764   -110.68419   0.73840419   -109.94579    31.249402    4.2587229    4.2587229    4.2587229    31.249402   -9997.6496    4410.9344    5680.4635   -14078.845   -1854.6675   -3978.1682    77.239266 
   67500    1269.3407   -111.08504    1.1485261   -109.93651    6003.8575    4.2578065    4.2578065    4.2578065    6003.8575     2279.376    7686.0235    8046.1731    11267.076    163.33214   -1570.7508    77.189417 
   67600    585.28506   -110.47695   0.52957822   -109.94738   -2424.9076    4.2610949    4.2610949    4.2610949   -2424.9076   -23751.922    4846.7741    11630.425   -18055.152     4007.079    2646.4579    77.368399 
   67700    233.51017   -110.16175   0.21128491   -109.95046   -2642.5654      4.25893      4.25893      4.25893   -2642.5654   -24161.649    19096.798   -2862.8455   -27611.632   -1560.6237   -6222.5128    77.250539 
   67800    858.79308   -110.71859   0.77705403   -109.94154   -9536.6681    4.2619655    4.2619655    4.2619655   -9536.6681   -14246.183   -7343.7446   -7020.0763    10984.993    504.39586   -2818.6546    77.415832 
   67900    848.49878   -110.70522   0.76773953   -109.93748    4008.3205    4.2580177    4.2580177    4.2580177    4008.3205    -2742.119   -7076.3071    21843.388    10448.379   -3810.0598    5629.8049    77.200903 
   68000    517.43841   -110.41055   0.46818915   -109.94236   -1995.5427    4.2588379    4.2588379    4.2588379   -1995.5427   -10308.574   -1115.1491    5437.0947   -31357.915    1357.1408   -3456.1068    77.245527 
   68100    519.50897   -110.41175   0.47006263   -109.94169   -14250.834    4.2637962    4.2637962    4.2637962   -14250.834   -19588.427   -14185.511   -8978.5637   -9151.7599    8204.1853   -5284.2896    77.515634 
   68200    715.95298   -110.58603    0.6478093   -109.93822     441.7482    4.2565375    4.2565375    4.2565375     441.7482   -4749.3413   -11615.885    17690.471    35465.901   -2920.8829   -6373.5122    77.120421 
   68300    820.32586   -110.68043   0.74224808   -109.93818     589.4425    4.2595946    4.2595946    4.2595946     589.4425   -6646.6981   -13257.388    21672.414    184.00676    3923.4702    604.58203    77.286707 
   68400    775.14944   -110.64013    0.7013715   -109.93876    1413.8364    4.2622734    4.2622734    4.2622734    1413.8364   -3511.7451   -5544.5098    13297.764   -30654.447    4811.4442    2376.3018    77.432615 
   68500    666.19704   -110.54281   0.60278908   -109.94003    3012.9138    4.2575454    4.2575454    4.2575454    3012.9138   -18921.343    4849.1991    23110.886    16862.559    1392.5477   -7093.0409    77.175218 
   68600    762.77358   -110.63014   0.69017356   -109.93997   -1315.2611    4.2629735    4.2629735    4.2629735   -1315.2611   -8933.2551   -10140.959    15128.431    30633.858   -1499.3656    1007.6244    77.470777 
   68700    1142.6448   -110.96842     1.033889   -109.93453    6597.0053    4.2593541    4.2593541    4.2593541    6597.0053    757.92327    1616.6376    17416.455   -15773.664   -4109.1037    3197.9731    77.273615 
   68800    996.88622   -110.84144    0.9020036   -109.93944    3711.0153    4.2570843    4.2570843    4.2570843    3711.0153   -9431.0984    6829.2791    13734.865   -5914.7887    5954.5633    -269.2964    77.150145 
   68900    512.51396   -110.41286    0.4637334   -109.94913   -9482.9205    4.2615049    4.2615049    4.2615049   -9482.9205   -23859.543   -16502.895    11913.676     35927.61   -981.76606   -5099.7395    77.390735 
   69000     968.1447   -110.82274   0.87599767   -109.94674    1393.3506    4.2580141    4.2580141    4.2580141    1393.3506    -12158.38    3359.8646    12978.568     13371.05   -3503.5648   -11695.724    77.200707 
   69100    1404.8104   -111.20828     1.271102   -109.93718    1714.6246    4.2641836    4.2641836    4.2641836    1714.6246   -2997.6039    5276.5797    2864.8981   -13196.942    1018.5409    2399.2725    77.536764 
   69200    731.87142   -110.60809   0.66221264   -109.94587    896.44732    4.2603142    4.2603142    4.2603142    896.44732   -18296.585    30.989977    20954.937     26669.98    4567.6873   -652.56778    77.325884 
   69300    444.46544   -110.34917   0.40216167   -109.94701    1594.3309    4.2586447    4.2586447    4.2586447    1594.3309   -24756.276    14630.792    14908.476    30841.246    720.84599   -7050.0165    77.235011 
   69400    1080.7548   -110.91672   0.97788965   -109.93883   -4949.0107    4.2658183    4.2658183    4.2658183   -4949.0107   -9014.3872    6355.7611   -12188.406   -10380.039   -4547.3123    2041.3587    77.625976 
   69500    1078.8893   -110.91268   0.97620172   -109.93647    4567.4633    4.2554981    4.2554981    4.2554981    4567.4633    2093.0241   -1157.8466    12767.212    1143.7623   -664.98382    462.37316    77.063939 
   69600    497.03927   -110.39576   0.44973157   -109.94603   -2659.0126     4.257866     4.257866     4.257866   -2659.0126   -5463.7071   -2649.9499    136.61926    31606.274    5570.4881   -1333.1716    77.192652 
   69700    543.91658   -110.43657   0.49214715   -109.94442   -11631.226    4.2651442    4.2651442    4.2651442   -11631.226   -17995.972   -1092.6226   -15805.083    6535.3154   -3980.6525   -2360.8772    77.589181 
   69800    796.91967   -110.65734   0.72106967   -109.93627   -3678.7089    4.2619744    4.2619744    4.2619744   -3678.7089   -2499.7876   -8788.9574    252.61843    -17884.43    -6793.185   -509.44108    77.416317 
   69900      682.109   -110.55253   0.61718656   -109.93535   -4051.3584    4.2593817    4.2593817    4.2593817   -4051.3584    4680.3052   -26196.499    9362.1188    11119.919    2484.1247    3844.9175    77.275117 
   70000     610.5097   -110.48903   0.55240201   -109.93662    3945.4233    4.2574186    4.2574186    4.2574186    3945.4233    2273.7139    1569.5907    7992.9653    20188.647   -1516.0539   -4347.7005     77.16832 
   70100    557.08057   -110.44347   0.50405821   -109.93941   -9067.0881    4.2645062    4.2645062    4.2645062   -9067.0881   -18546.721    1703.9842   -10358.527    -17057.19    -5972.548   -3304.2569    77.554364 
   70200    595.87948   -110.48082   0.53916428   -109.94166   -4297.7544    4.2583294    4.2583294    4.2583294   -4297.7544   -5955.7389   -22011.465    15073.941   -24331.317   -2868.3199    1802.6436    77.217859 
   70300    912.76387   -110.76449   0.82588793    -109.9386    12566.404     4.255415     4.255415     4.255415    12566.404    19586.809    -8686.186    26798.589    12648.566    -736.8327    -3773.344    77.059426 
   70400    863.47981   -110.72098   0.78129468   -109.93969   -8508.2501    4.2684283    4.2684283    4.2684283   -8508.2501   -20542.475    538.46901   -5520.7443    7595.6051    5142.6668   -1683.7557    77.768543 
   70500    420.83263     -110.326   0.38077821   -109.94523   -465.01584    4.2570973    4.2570973    4.2570973   -465.01584   -13560.801    1533.3999    10632.354   -30131.512    897.71061    1339.8963    77.150851 
   70600    855.94969   -110.71791   0.77448127   -109.94343    3511.4647    4.2549497    4.2549497    4.2549497    3511.4647   -9329.7841   -5673.6621     25537.84   -18781.055   -2314.3917    5277.2198    77.034148 
   70700    1371.1425   -111.17622    1.2406385   -109.93558    234.26983    4.2658658    4.2658658    4.2658658    234.26983   -3527.6883   -4085.8453    8316.3431     9075.913     3966.569    4336.3429    77.628566 
   70800    873.88032    -110.7353   0.79070528   -109.94459   -3340.0659    4.2615729    4.2615729    4.2615729   -3340.0659   -23425.895   -1401.8149    14807.512   -17999.312    5897.5217   -526.46942    77.394438 
   70900    570.51432   -110.46339   0.51621334   -109.94718   -8119.8415    4.2582094    4.2582094    4.2582094   -8119.8415    -45402.83   -77.554679     21120.86   -30163.482   -4486.6037    1965.1562    77.211331 
   71000    1190.2917   -111.01873    1.0770009   -109.94173   -66.319164    4.2592625    4.2592625    4.2592625   -66.319164   -10906.856    3077.9777     7629.921    4832.1311   -13007.707    3323.9104     77.26863 
   71100    1243.0742    -111.0634    1.1247597   -109.93864    -3707.562      4.26338      4.26338      4.26338    -3707.562   -15832.627   -13729.764    18439.705    1924.2116    1320.3666    2313.7481    77.492939 
   71200    742.46175   -110.61587   0.67179499   -109.94407   -2567.1382     4.258342     4.258342     4.258342   -2567.1382   -33633.496   -8642.3083     34574.39    -32615.28   -1778.6764   -4925.4795    77.218546 
   71300    692.38659   -110.56966   0.62648593   -109.94317   -863.14933    4.2590196    4.2590196    4.2590196   -863.14933   -19699.867   -1450.3654    18560.785   -9647.6134   -3916.7439    2588.9785     77.25541 
   71400    923.87171   -110.77346   0.83593854   -109.93752   -7766.2319    4.2662286    4.2662286    4.2662286   -7766.2319   -10893.895   -24901.635    12496.834    22194.605    3353.8474    7677.2407    77.648374 
   71500    799.48542   -110.65933   0.72339121   -109.93594    4409.4279    4.2588603    4.2588603    4.2588603    4409.4279    984.87064   -24521.815    36765.228   -6910.1507    4378.7885   -1749.8135    77.246745 
   71600    665.02358    -110.5389   0.60172731   -109.93717    5208.5253    4.2597732    4.2597732    4.2597732    5208.5253    2669.0594   -6035.1126    18991.629   -23623.234   -363.83719    1435.0543    77.296431 
   71700    618.85715   -110.49882   0.55995495   -109.93887   -364.78892    4.2619809    4.2619809    4.2619809   -364.78892   -5335.1985   -8984.5232    13225.355    11755.756   -4869.9522    2384.9949    77.416673 
   71800    621.07686   -110.50205   0.56196339   -109.94009    613.16023    4.2606562    4.2606562    4.2606562    613.16023    -1273.486   -22122.125    25235.091    25447.487   -43.882365    382.28724    77.344509 
   71900    847.46344   -110.70234   0.76680273   -109.93554   -778.90716    4.2632274    4.2632274    4.2632274   -778.90716    2416.7245   -17957.172    13203.726   -9775.8501    1368.7603   -2025.9958    77.484616 
   72000    713.10833   -110.58137    0.6452354   -109.93613    1198.7882    4.2622969    4.2622969    4.2622969    1198.7882   -10749.296    14227.353    118.30791   -7343.4776   -3779.9318    -6153.372    77.433895 
   72100      450.956    -110.3472   0.40803447   -109.93916   -8643.9856     4.261733     4.261733     4.261733   -8643.9856   -26615.168   -849.24543     1532.457    31518.048   -7968.2434    1853.5377    77.403165 
   72200    784.60178   -110.64719   0.70992418   -109.93726   -2423.7395     4.260463     4.260463     4.260463   -2423.7395   -2513.5153   -15726.355    10968.652    15006.186    376.57616    796.39216    77.333987 
   72300     1176.596   -110.99824    1.0646088   -109.93363   -1349.6496    4.2622541    4.2622541    4.2622541   -1349.6496    1422.7326   -4517.6763   -954.00503    -15151.19   -1100.5562   -4685.9487    77.431559 
   72400    607.30875   -110.49553   0.54950572   -109.94602   -410.12511    4.2576859    4.2576859    4.2576859   -410.12511   -18817.008    10188.577    7398.0562     18658.04   -7931.2671    2572.6993    77.182859 
   72500    458.16052   -110.36411   0.41455327   -109.94956   -1166.8482    4.2603003    4.2603003    4.2603003   -1166.8482   -20958.039   -8882.0974    26339.592    31640.033   -3469.6362    3711.5756    77.325128 
   72600     1176.478   -111.00171     1.064502   -109.93721   -8742.8173    4.2702149    4.2702149    4.2702149   -8742.8173   -16320.154   -15971.964    6063.6661   -5987.6272    386.13722    2459.3035    77.866238 
   72700    1101.5852   -110.93255   0.99673747   -109.93582    13808.345    4.2520175    4.2520175    4.2520175    13808.345    12893.665   -1240.0036    29771.374    3320.6375    1829.4767   -5038.6506    76.874998 
   72800    674.14785   -110.55448   0.60998315    -109.9445    2169.7311    4.2562393    4.2562393    4.2562393    2169.7311   -15912.406   -8682.3374    31103.936    32988.965   -6001.1398    -2690.972    77.104215 
   72900    849.93111   -110.71028   0.76903553   -109.94125   -11469.415    4.2702552    4.2702552    4.2702552   -11469.415   -38547.242   -3195.0162    7334.0121    8463.3847   -465.56065    2719.6599    77.868445 
   73000    1156.2238    -110.9818    1.0461756   -109.93562    12669.676    4.2515957    4.2515957    4.2515957    12669.676    10743.588    9520.4408    17744.999   -16682.653    6391.6962    -11221.59    76.852124 
   73100    881.02715   -110.73898   0.79717188   -109.94181    988.32503    4.2583939    4.2583939    4.2583939    988.32503   -12635.793   -7376.2822     22977.05    15644.642    -514.5754    -9079.057    77.221368 
   73200    864.69343   -110.72227   0.78239279   -109.93988    -11093.62    4.2675781    4.2675781    4.2675781    -11093.62   -35472.733   -2135.4723    4327.3446     26319.98   -6693.7972   -1503.6383    77.722085 
   73300    978.87104   -110.82178   0.88570309   -109.93608    5460.8655    4.2556001    4.2556001    4.2556001    5460.8655    -9601.373     15745.78     10238.19   -11653.313    -8385.741   -1136.2845    77.069482 
   73400    888.79159     -110.742   0.80419731    -109.9378   -3072.6771    4.2585815    4.2585815    4.2585815   -3072.6771   -9053.2304   -13697.049    13532.248   -14702.076    3953.5783   -6323.8855    77.231573 
   73500    856.28649   -110.71368   0.77478601   -109.93889   -4878.0649    4.2631609    4.2631609    4.2631609   -4878.0649   -7637.3246   -19152.778    12155.908    17554.947   -3432.4648   -4205.4202     77.48099 
   73600     884.7336   -110.73811   0.80052555   -109.93759   -1042.8119    4.2616829    4.2616829    4.2616829   -1042.8119   -11213.083    4378.9381    3705.7096    11617.713   -15498.041    5553.8448    77.400432 
   73700    863.80215   -110.71991   0.78158634   -109.93833    2158.4429    4.2548231    4.2548231    4.2548231    2158.4429   -4996.0355   -5854.8547    17326.219   -22244.983    2855.8002   -1626.1709    77.027275 
   73800    797.50497   -110.66215   0.72159925   -109.94055    1647.0186    4.2603404    4.2603404    4.2603404    1647.0186    11730.445   -28087.332    21297.943   -12907.375    5521.6202   -7392.8175    77.327312 
   73900    840.03147   -110.69784   0.76007813   -109.93776   -11566.598    4.2679975    4.2679975    4.2679975   -11566.598   -8201.2527   -17145.451   -9353.0901    14935.523   -14287.447   -82.216815    77.745002 
   74000    758.02505   -110.62247   0.68587699   -109.93659    8398.4229    4.2510163    4.2510163    4.2510163    8398.4229    2128.6377    8919.4948    14147.136    1418.6527   -16804.141    7057.5322    76.820707 
   74100     699.1147   -110.57284   0.63257367   -109.94026   -1617.7093    4.2590018    4.2590018    4.2590018   -1617.7093   -645.92763   -21076.937    16869.737   -23324.011    6855.4387   -1313.2929    77.254445 
   74200    786.33138   -110.64831   0.71148916   -109.93682   -16669.566     4.269275     4.269275     4.269275   -16669.566   -9325.7352   -26712.909   -13970.054    -9464.134    7455.6596   -8893.4014    77.814836 
   74300    733.21522   -110.59854   0.66342854   -109.93511    11030.732     4.252009     4.252009     4.252009    11030.732    12152.118    24114.736   -3174.6587    14089.298   -22815.958    4288.3101    76.874537 
   74400    686.51166   -110.56026   0.62117018   -109.93909   -5666.7243    4.2607242    4.2607242    4.2607242   -5666.7243   -14409.815    1484.5034   -4074.8612   -7351.7107   -11565.385     4726.594    77.348212 
   74500    674.78192    -110.5494   0.61055686   -109.93885   -5810.8873     4.263474     4.263474     4.263474   -5810.8873   -4373.2852   -12464.491   -594.88594   -22206.152    15776.091   -5433.3043    77.498062 
   74600    767.15631   -110.63164   0.69413915    -109.9375    4731.2203    4.2545986    4.2545986    4.2545986    4731.2203    11399.188    12775.197    -9980.724   -1964.2316   -4915.4021   -6920.1362    77.015081 
   74700    865.42337   -110.72021   0.78305325   -109.93716   -4396.3406    4.2629946    4.2629946    4.2629946   -4396.3406   -14517.756    16424.121   -15095.387    4940.6596    -21397.01    786.31758    77.471926 
   74800    744.81971   -110.61185   0.67392853   -109.93792   -3352.7676    4.2615893    4.2615893    4.2615893   -3352.7676   -16200.574     973.7104    5168.5612    -13232.93    3495.9982   -2373.5885    77.395334 
   74900    676.93955   -110.55184   0.61250913   -109.93933   -4410.9019    4.2585815    4.2585815    4.2585815   -4410.9019    -5932.188   -4055.7959   -3244.7218   -15487.032    13290.279   -13699.152    77.231577 
   75000    914.08322   -110.76502    0.8270817   -109.93794    -1519.336     4.259487     4.259487     4.259487    -1519.336   -3020.8461    11735.561   -13272.723    4985.5651   -13535.844   -5596.0704     77.28085 
   75100    1056.6025   -110.89376   0.95603614   -109.93773    6016.5536    4.2581905    4.2581905    4.2581905    6016.5536   -2131.1644    11588.286    8592.5388     4110.379   -15691.742    6411.1716    77.210304 
   75200    705.30829   -110.58158   0.63817776    -109.9434   -978.64275    4.2619372    4.2619372    4.2619372   -978.64275    -15417.37    3668.2766    8813.1654   -10494.922    11285.355     -3986.57    77.414291 
   75300    734.44948   -110.60736   0.66454532   -109.94281    1695.6921    4.2607956    4.2607956    4.2607956    1695.6921   -1966.0386    18377.497   -11324.383   -6966.8076    13538.728   -7588.8244    77.352096 
   75400    1134.9512   -110.96181    1.0269277   -109.93488    12002.967    4.2580558    4.2580558    4.2580558    12002.967    12000.631    27308.911     -3300.64    5083.6213   -5102.9667    3300.6635    77.202974 
   75500    991.69501   -110.83552   0.89730648   -109.93821    2630.2101    4.2611449    4.2611449    4.2611449    2630.2101   -16459.524    15185.094      9165.06    1325.5176   -6388.6269    6438.1285    77.371125 
   75600    637.47947   -110.52065   0.57680482   -109.94385    -4165.418    4.2604349    4.2604349    4.2604349    -4165.418   -26231.425     16616.46    -2881.289   -11868.912    20279.832   -2269.1622    77.332458 
   75700    940.60955   -110.79236   0.85108329   -109.94128   -177.45294    4.2568539    4.2568539    4.2568539   -177.45294   -8554.6357    25423.386   -17401.109   -4027.5452    22444.286   -9961.5844    77.137618 
   75800     1220.349   -111.04068    1.1041975   -109.93648   -6191.2517    4.2637107    4.2637107    4.2637107   -6191.2517    -8584.416    3516.8193   -13506.159    5906.8807   -6283.6346    1965.0693    77.510972 
   75900    803.05892   -110.66765   0.72662459   -109.94102   -8462.2049    4.2619301    4.2619301    4.2619301   -8462.2049   -27564.364    2636.1881   -458.43844   -8469.1942    5440.0664    2892.0624    77.413901 
   76000    569.26347   -110.45757   0.51508155   -109.94249    251.29289    4.2553163    4.2553163    4.2553163    251.29289   -28115.095    24931.336     3937.638   -10170.447    27799.693   -5428.2123    77.054063 
   76100    940.65192   -110.79129   0.85112163   -109.94017   -2622.2791    4.2634519    4.2634519    4.2634519   -2622.2791   -12319.531    9279.5836   -4826.8893   -433.19119    7045.2055     3597.011    77.496861 
   76200    1070.7659   -110.90562   0.96885149   -109.93677    5666.3206    4.2586193    4.2586193    4.2586193    5666.3206    3971.3627    14861.454   -1833.8548    1490.6563   -8709.4975    6497.5423     77.23363 
   76300    536.83638   -110.42957   0.48574084   -109.94383    4385.2615    4.2583044    4.2583044    4.2583044    4385.2615   -13640.551    26008.806     787.5294   -7643.0597    19598.645    238.62918    77.216499 
   76400    377.10842   -110.28634   0.34121563   -109.94513   -7855.4135    4.2652613    4.2652613    4.2652613   -7855.4135   -19809.717     10446.23   -14202.753   -4409.1345    21295.155   -936.30817    77.595567 
   76500    795.09729   -110.65743   0.71942074   -109.93801    9558.5262    4.2548366    4.2548366    4.2548366    9558.5262    16549.305    27581.719   -15455.446     6746.061   -16653.541    6199.7051    77.028004 
   76600    829.71087   -110.68717   0.75073983   -109.93643   -2304.1671    4.2632028    4.2632028    4.2632028   -2304.1671    7268.8904    12003.712   -26185.103    207.51815    472.65409    4498.6659    77.483279 
   76700    456.99663     -110.355   0.41350016    -109.9415    -7659.275    4.2629146    4.2629146    4.2629146    -7659.275   -14914.531    15892.642   -23955.936   -7088.9524    33223.878   -5850.0265    77.467561 
   76800    425.22864   -110.32526   0.38475581    -109.9405     9323.382    4.2528053    4.2528053    4.2528053     9323.382   -3841.6129    37602.684   -5790.9253    -3959.757   -767.19232   -664.78069    76.917736 
   76900      735.138   -110.60294   0.66516832   -109.93778   -13691.228    4.2679829    4.2679829    4.2679829   -13691.228   -13092.812    4371.2893   -32352.161    5238.5234   -19628.318    6900.0876    77.744203 
   77000    785.05071   -110.64674   0.71033038   -109.93641    178.72804    4.2568734    4.2568734    4.2568734    178.72804   -2080.9137    23229.972   -20612.874    2134.0007    20558.537   -3268.2453    77.138679 
   77100    615.46848   -110.49654   0.55688882   -109.93965      3617.93    4.2563136    4.2563136    4.2563136      3617.93    -8071.818    27245.516    -8319.908   -13259.507    19927.833   -2112.3198    77.108253 
   77200    596.46984   -110.47969   0.53969845      -109.94   -15122.251    4.2663371    4.2663371    4.2663371   -15122.251   -22812.133   -4458.9395    -18095.68    -7397.471    -19791.23    5371.3211    77.654301 
   77300    685.75599   -110.55776   0.62048643   -109.93727    12043.609    4.2527329    4.2527329    4.2527329    12043.609    18401.729     22692.29   -4963.1929    10139.152   -7528.5593     5800.575    76.913812 
   77400    888.56921   -110.73926    0.8039961   -109.93527   -6370.5259    4.2675383    4.2675383    4.2675383   -6370.5259    -7253.396    11103.436   -22961.618    491.60444    20101.137   -835.80917    77.719908 
   77500    794.39834   -110.65633   0.71878832   -109.93754   -1132.7163    4.2597598    4.2597598    4.2597598   -1132.7163   -10602.322    10846.447   -3642.2739   -18852.789   -3065.7595   -2158.9927    77.295702 
   77600    567.37095   -110.45347   0.51336916    -109.9401    12159.618    4.2484048    4.2484048    4.2484048    12159.618    3320.8396    23995.918    9162.0968     2041.415   -20070.377    6425.5232     76.67922 
   77700    785.85375   -110.65187   0.71105699   -109.94082   -16416.139    4.2702521    4.2702521    4.2702521   -16416.139   -24072.424    -3527.604    -21648.39    23335.725    3714.4605    3594.0489    77.868274 
   77800    1164.1264   -110.98851     1.053326   -109.93518    10528.467    4.2545876    4.2545876    4.2545876    10528.467    1917.8848    21971.614    7695.9034   -4227.3493    9632.8326   -4611.4954    77.014486 
   77900    814.02172   -110.67859   0.73654396   -109.94205    4775.4397    4.2566057    4.2566057    4.2566057    4775.4397   -11841.063    21130.951    5036.4313   -13206.631   -10790.345    1382.4094     77.12413 
   78000    559.54363   -110.44801   0.50628684   -109.94173   -16923.793     4.269857     4.269857     4.269857   -16923.793    -42902.89    1199.7643   -9068.2519    19604.665   -13403.457    6399.1988    77.846663 
   78100     1074.297   -110.90585    0.9720465    -109.9338     12866.86    4.2515903    4.2515903    4.2515903     12866.86    2885.5894    27004.536    8710.4553    18426.845    3108.0346    4320.6036    76.851834 
   78200    1216.6258    -111.0356    1.1008286   -109.93477   -718.44737    4.2591004    4.2591004    4.2591004   -718.44737   -4931.2943    11715.272   -8939.3202   -12529.305   -1327.7496   -6272.0154    77.259809 
   78300    703.38001   -110.57994   0.63643302   -109.94351   -8917.6332    4.2614143    4.2614143    4.2614143   -8917.6332   -33771.369    8683.3363   -1664.8668    5479.6303   -13932.595    243.48634    77.385801 
   78400    645.98141   -110.52976   0.58449756   -109.94526    466.10743    4.2542827    4.2542827    4.2542827    466.10743   -17516.747    449.21021    18465.859    23728.498   -5624.1778    5116.4368    76.997928 
   78500    1050.9907   -110.88974   0.95095848   -109.93879   -10008.293     4.264388     4.264388     4.264388   -10008.293   -4569.8738   -10419.847   -15035.158   -3767.2712    5581.3253   -18582.272    77.547919 
   78600     956.2058   -110.80168    0.8651951   -109.93649    1470.4474    4.2571115    4.2571115    4.2571115    1470.4474    103.08825    7830.8846   -3522.6307   -1510.1318   -3006.5573   -13788.448    77.151627 
   78700    632.60813   -110.51233   0.57239713   -109.93993    3827.1878    4.2584462    4.2584462    4.2584462    3827.1878   -18781.341    13768.146    16494.758    20757.994   -12407.895    5457.0042    77.224214 
   78800    688.64594   -110.56167   0.62310132   -109.93857   -4749.2083    4.2645812    4.2645812    4.2645812   -4749.2083   -18300.637     5577.296   -1524.2839    10401.658    737.33438   -5561.6687    77.558458 
   78900    844.09885   -110.69914   0.76375838   -109.93538    9703.3664    4.2542533    4.2542533    4.2542533    9703.3664    16697.389    18543.274   -6130.5643   -5179.1754    11242.809   -16967.921    76.996329 
   79000    758.46263   -110.62432   0.68627292   -109.93804   -5038.0967    4.2616684    4.2616684    4.2616684   -5038.0967   -4811.5068   -10488.385    185.60123    11738.759   -5442.1433   -1527.8552    77.399643 
   79100    658.37332   -110.53468   0.59571002   -109.93897   -4714.0028    4.2611482    4.2611482    4.2611482   -4714.0028   -13496.282    -5036.087    4390.3604    25300.326   -12450.721    6623.0651    77.371304 
   79200    626.38821   -110.50554   0.56676921   -109.93877    4967.1914     4.254892     4.254892     4.254892    4967.1914    16541.995    452.96067   -2093.3815    -1495.504    5990.3411   -11973.546    77.031014 
   79300    690.99397   -110.56338   0.62522586   -109.93815    -7414.352    4.2643906    4.2643906    4.2643906    -7414.352    16764.279   -22972.083   -16035.252   -9285.2499     11531.77   -12037.727    77.548059 
   79400    701.09959   -110.57043   0.63436964   -109.93606    -5295.342    4.2611457    4.2611457    4.2611457    -5295.342   -1812.1736   -9571.4132   -4502.4391    14200.809   -8748.7086    6829.7727    77.371166 
   79500    547.49191   -110.43329   0.49538219   -109.93791    2679.0436    4.2552882    4.2552882    4.2552882    2679.0436     9124.235   -3727.1813    2640.0772    11744.204   -15335.536   -6993.5006    77.052535 
   79600    687.41191   -110.56006   0.62198474   -109.93808   -5033.4365    4.2622557    4.2622557    4.2622557   -5033.4365    19661.868   -16470.291   -18291.886   -6422.9088    6586.1421   -21001.892    77.431648 
   79700    809.04155   -110.66774    0.7320378    -109.9357    -7311.342    4.2626879    4.2626879    4.2626879    -7311.342    3894.0578   -11987.638   -13840.446   -2316.8608    5196.7433   -2132.3563    77.455203 
   79800    645.79117   -110.52315   0.58432542   -109.93883   -2650.2901    4.2552528    4.2552528    4.2552528   -2650.2901   -8618.2879   -4397.7544     5065.172    14075.854   -20285.263    4030.4669    77.050611 
   79900    540.37346   -110.43136   0.48894127   -109.94242   -1787.2818    4.2588301    4.2588301    4.2588301   -1787.2818    10052.121   -10500.415    -4913.551    11649.583   -14247.529   -20864.775    77.245102 
   80000    902.18593   -110.75359   0.81631679   -109.93727   -5970.2357    4.2656161    4.2656161    4.2656161   -5970.2357    9024.4734   -17284.354   -9650.8262   -7128.5312    5097.4715   -19518.227    77.614935 
   80100    943.03274    -110.7887   0.85327584   -109.93542    4876.2556    4.2558161    4.2558161    4.2558161    4876.2556    3863.4953   -6628.2847    17393.556    907.08952   -3604.1721    5332.2812    77.081215 
   80200    467.03381   -110.36594     0.422582   -109.94336   -1204.1926    4.2588044    4.2588044    4.2588044   -1204.1926   -376.67413   -16774.192    13538.288     14239.47   -18583.341   -10834.715    77.243705 
   80300    577.95663   -110.46556    0.5229473   -109.94261   -5604.5146    4.2663933    4.2663933    4.2663933   -5604.5146    11085.446   -22860.122   -5038.8683    5127.8242   -6576.3911   -26880.241    77.657367 
   80400    1173.2181   -110.99532    1.0615524   -109.93377    12484.026    4.2537856    4.2537856    4.2537856    12484.026    19204.094   -4384.4231    22632.409   -718.89724    10895.294   -1615.7099    76.970938 
   80500    907.82548   -110.76329   0.82141958   -109.94187    1049.7795    4.2579369    4.2579369    4.2579369    1049.7795    3898.3762   -14756.485    14007.448     2272.552   -6118.7704    3567.5303    77.196507 
   80600    337.00179   -110.25574    0.3049263   -109.95081   -13168.916    4.2642047    4.2642047    4.2642047   -13168.916   -471.16039    -24843.77   -14191.817    10439.026   -17718.533   -23238.108    77.537917 
   80700    798.86182    -110.6696   0.72282697   -109.94677    5028.5913    4.2557893    4.2557893    4.2557893    5028.5913    15416.741   -6705.2235    6374.2564    5283.4604   -2380.9872   -15870.132     77.07976 
   80800    1385.1719   -111.18939    1.2533326   -109.93606   -781.13712    4.2620787    4.2620787    4.2620787   -781.13712    2432.4652   -9618.7706     4842.894   -2664.9988    4254.4515    9614.7265    77.422004 
   80900    747.19785   -110.62064   0.67608032   -109.94456   -7836.3858     4.263304     4.263304     4.263304   -7836.3858   -2141.4183   -21463.447    95.707878    8466.8356   -12610.026   -12140.057    77.488795 
   81000    400.31375   -110.30812   0.36221229   -109.94591   -5373.3597    4.2593598    4.2593598    4.2593598   -5373.3597   -693.50479     -16934.5    1507.9257    8816.6449   -16457.126    -27570.24     77.27393 
   81100    1166.0266   -110.99548    1.0550454   -109.94044    2196.5521    4.2569913    4.2569913    4.2569913    2196.5521    5172.0775   -391.69057    1809.2692   -1164.0273    3789.8841    646.13505    77.145091 
   81200    1321.4257   -111.13474    1.1956537   -109.93909    9485.7682    4.2566226    4.2566226    4.2566226    9485.7682    7911.5019   -3805.3046    24351.107   -2913.4605    3986.2638    3610.8424    77.125045 
   81300    640.96934   -110.53147   0.57996253   -109.95151   -7441.6344    4.2627229    4.2627229    4.2627229   -7441.6344    71.408585   -17339.446   -5056.8655    8201.2854   -17752.518   -26323.622    77.457112 
   81400     597.4019   -110.49061    0.5405418   -109.95006    3196.3874    4.2572528    4.2572528    4.2572528    3196.3874     16790.64   -4957.0112    -2244.467     9681.387   -15091.445   -13299.227    77.159307 
   81500    1318.5028    -111.1312    1.1930091   -109.93819    5085.8965    4.2598355    4.2598355    4.2598355    5085.8965    1823.8855   -2311.3906    15745.195   -3037.2738    6007.3808    10748.869    77.299821 
   81600    1132.7354   -110.96468    1.0249228   -109.93976   -702.27748    4.2616875    4.2616875    4.2616875   -702.27748    6250.8296   -3187.6167   -5170.0453   -1082.6098    5290.1698   -13420.065    77.400686 
   81700    626.80735   -110.51277   0.56714846   -109.94562    821.63928    4.2548192    4.2548192    4.2548192    821.63928    12510.048   -4619.2035   -5425.9271    10859.678   -18782.749   -29191.592    77.027059 
   81800    868.20954   -110.73071   0.78557424   -109.94514   -6318.2033    4.2615989    4.2615989    4.2615989   -6318.2033   -14299.854   -7494.5201    2839.7638    8136.2479   -11727.668   -1324.7896    77.395856 
   81900    1311.0001    -111.1228    1.1862205   -109.93658    2330.5279    4.2580004    4.2580004    4.2580004    2330.5279    597.04694    3375.0073    3019.5294   -8834.4625    8233.8855    3269.2617    77.199962 
   82000    925.05221   -110.77787   0.83700668   -109.94087   -764.55221    4.2594358    4.2594358    4.2594358   -764.55221    7482.9167   -11592.697    1816.1237   -6282.4485   -2031.8723   -24914.478    77.278065 
   82100    633.15457   -110.51727   0.57289156   -109.94438   -13533.917    4.2624769    4.2624769    4.2624769   -13533.917   -8063.5451   -16725.447    -15812.76    15484.733   -18996.177   -17246.249    77.443704 
   82200    966.98699   -110.81541   0.87495015   -109.94046    6894.7655    4.2537529    4.2537529    4.2537529    6894.7655    5640.7153     6616.133    8427.4482    7074.5193   -6596.7337    8888.5542    76.969166 
   82300    1093.4676   -110.92742   0.98939248   -109.93802   -1047.3612    4.2623539    4.2623539    4.2623539   -1047.3612    2570.0535   -8504.5845    2792.4475   -10444.204    7612.9376   -1771.3994    77.437001 
   82400    686.49099   -110.56399   0.62115147   -109.94284   -118.86941    4.2592007    4.2592007    4.2592007   -118.86941    7839.9435    -4210.269   -3986.2827    1463.3671   -7640.6347   -16804.448    77.265267 
   82500    521.59068   -110.41633    0.4719462   -109.94438    4212.0531    4.2569028    4.2569028    4.2569028    4212.0531    362.15091    6991.4745     5282.534    15362.634    -21757.72   -1378.4249     77.14028 
   82600    924.31607   -110.77325    0.8363406   -109.93691   -5599.7405    4.2662666    4.2662666    4.2662666   -5599.7405   -13162.214    -13398.73    9761.7222    -587.3331   -1084.6318     10100.24    77.650449 
   82700    971.24111   -110.81191   0.87879937   -109.93311    8529.8474    4.2562452    4.2562452    4.2562452    8529.8474    11605.111    488.53023    13495.901   -10101.619    2487.1802   -7397.7583    77.104535 
   82800    473.33404   -110.37075   0.42828258   -109.94247   -1266.5241     4.257594     4.257594     4.257594   -1266.5241    -1947.565   -1416.3262   -435.68105    12829.873   -19641.766   -14143.978     77.17786 
   82900    491.72571   -110.38972   0.44492375    -109.9448   -9295.4549    4.2615611    4.2615611    4.2615611   -9295.4549   -13276.935   -17337.992     2728.563     18788.84   -12461.826    3212.6323    77.393799 
   83000    970.62263   -110.81681   0.87823976   -109.93857    3097.2254    4.2587587    4.2587587    4.2587587    3097.2254     11874.07   -14582.524    12000.131    -7230.045    5717.9542    7002.8825    77.241214 
   83100    903.92316   -110.75661   0.81788867   -109.93872   -1817.4104    4.2612628    4.2612628    4.2612628   -1817.4104    8055.7266    -10942.44   -2565.5182   -1886.3378   -8432.9865   -3860.7262    77.377544 
   83200    402.26889   -110.30783   0.36398135   -109.94385    1288.9869    4.2583417    4.2583417    4.2583417    1288.9869    1210.2016   -8167.5769    10824.336    21250.067   -22806.533   -6868.3408    77.218529 
   83300    677.49084   -110.55293   0.61300795   -109.93992   -8376.3744    4.2656281    4.2656281    4.2656281   -8376.3744   -3302.3469   -26776.473    4949.6965    7439.0706   -961.28605    2320.1463    77.615592 
   83400    1086.6508   -110.91471   0.98322451   -109.93148   -394.26384    4.2597667    4.2597667    4.2597667   -394.26384    9820.1123   -12454.732    1451.8281   -9913.7035    8262.9615    7913.0852    77.296073 
   83500    806.65978   -110.66701   0.72988272   -109.93713    5359.5742    4.2527975    4.2527975    4.2527975    5359.5742   -1678.3644    7392.0192    10365.068    6363.6722    -18228.76   -4809.5734    76.917316 
   83600    589.50808    -110.4763    0.5333993    -109.9429   -14337.817    4.2642819    4.2642819    4.2642819   -14337.817    -21602.89   -20216.029   -1194.5329    18247.143   -15995.223   -6777.5259    77.542131 
   83700    773.41488    -110.6412   0.69980204   -109.94139   -6170.5317    4.2594778    4.2594778    4.2594778   -6170.5317    56.380388   -23379.743    4811.7676   -3037.6656    13376.615    5112.8191    77.280349 
   83800    978.30205   -110.82277   0.88518825   -109.93758     212.0338    4.2563564    4.2563564    4.2563564     212.0338   -2977.4057   -5122.3456    8735.8526   -5758.5104    2760.6885    6192.3823    77.110578 
   83900     853.4335   -110.70963   0.77220457   -109.93742   -1243.7519    4.2625171    4.2625171    4.2625171   -1243.7519   -12507.411   -4166.3625    12942.518    14225.831   -18040.258   -2515.1459    77.445896 
   84000    750.01832   -110.61492   0.67863234   -109.93629   -5043.6286    4.2630135    4.2630135    4.2630135   -5043.6286   -8301.1891   -17844.351    11014.655    4997.5926    2267.2572   -3041.3002    77.472954 
   84100      656.093   -110.53218   0.59364673   -109.93853   -5246.0193    4.2563255    4.2563255    4.2563255   -5246.0193    5651.1948   -20775.864   -613.38846   -9049.7375    14960.774    11651.447    77.108899 
   84200    878.07355   -110.73371    0.7944994   -109.93921    5133.8446    4.2549958    4.2549958    4.2549958    5133.8446     9622.663   -5743.5074    11522.378   -289.02862   -29.931062     10349.18    77.036655 
   84300    1156.2033   -110.98196     1.046157    -109.9358   -3977.5117    4.2660364    4.2660364    4.2660364   -3977.5117   -13654.098   -9511.5321    11233.095    9608.5684   -9483.7117   -4561.7701    77.637882 
   84400    646.50313   -110.53026   0.58496962   -109.94529   -2939.3896    4.2570543    4.2570543    4.2570543   -2939.3896    9265.1381   -17033.037   -1050.2701   -103.75225    4380.6841    1511.4202    77.148517 
   84500    371.08021   -110.28457   0.33576118   -109.94881    1053.5508    4.2531836    4.2531836    4.2531836    1053.5508    20335.991   -18350.059    1174.7205   -8107.0634    11692.562     11063.92    76.938266 
   84600    1098.7827   -110.93548   0.99420165   -109.94128    -7164.529    4.2668665    4.2668665    4.2668665    -7164.529   -15828.762    -13845.24    8180.4157    2597.1104   -3542.5932    760.40894     77.68321 
   84700    1200.0668   -111.02357    1.0858456   -109.93772    12067.264    4.2554463    4.2554463    4.2554463    12067.264    7036.7664     10388.04    18776.985    4861.7415   -3156.4081   -1402.8503    77.061122 
   84800    520.15636   -110.41936   0.47064841   -109.94871     1664.863    4.2546695    4.2546695    4.2546695     1664.863    13544.779   -8019.0801   -531.10969   -1637.9948    11070.103    10357.222    77.018931 
   84900    589.70449    -110.4807   0.53357702   -109.94712   -11165.823    4.2653227    4.2653227    4.2653227   -11165.823   -10972.176   -14493.012   -8032.2819   -5124.3988    10537.084    6533.7927     77.59892 
   85000    1161.5622   -110.98783    1.0510059   -109.93683    10800.081    4.2559572    4.2559572    4.2559572    10800.081   -1909.6395    20568.412    13741.471   -1737.4956   -9499.4166     -5551.37    77.088881 
   85100    1032.6703   -110.87301   0.93438177   -109.93863    3467.1989    4.2580048    4.2580048    4.2580048    3467.1989     2030.849     7821.132    549.61571   -498.16567   -11740.667    6387.5794    77.200202 
   85200    749.41162   -110.61955   0.67808338   -109.94147   -2121.4406    4.2595205    4.2595205    4.2595205   -2121.4406    5816.9793   -13471.266    1289.9653   -6169.0573    14948.447    16602.921    77.282674 
   85300    841.40009    -110.7015   0.76131648   -109.94018   -104.36542    4.2576219    4.2576219    4.2576219   -104.36542   -5095.2745    2741.6153    2040.5629     2544.555   -1627.8846     2364.243    77.179375 
   85400    1008.6363   -110.85156   0.91263529   -109.93892   -8580.6434    4.2611936    4.2611936    4.2611936   -8580.6434   -29861.463    13547.489   -9427.9558    8329.6356   -34137.083   -7085.2028    77.373779 
   85500    1095.1301   -110.92873   0.99089672   -109.93784    5386.4487    4.2531419    4.2531419    4.2531419    5386.4487   -1602.3519    7557.6735    10204.025    -3770.127   -3085.7789    8787.6464    76.936004 
   85600    981.54913   -110.82913   0.88812628     -109.941   -2176.2292    4.2586968    4.2586968    4.2586968   -2176.2292   -3280.9401   -7323.4157    4075.6682   -10998.707     11728.46     12919.99    77.237849 
   85700    610.60793    -110.4968   0.55249089   -109.94431   -9359.8176    4.2641081    4.2641081    4.2641081   -9359.8176   -32969.394    9536.8282   -4646.8877   -3245.6366   -26788.113    -4923.947    77.532646 
   85800    885.54112   -110.74217   0.80125622   -109.94092    5189.9463    4.2526969    4.2526969    4.2526969    5189.9463   -9183.3444    15769.336    8983.8473    5303.0124   -26382.891   -4714.7426    76.911857 
   85900    1195.4387   -111.01796     1.081658   -109.93631    5912.3651    4.2574096    4.2574096    4.2574096    5912.3651    6288.2826   -9368.5344    20817.347   -3551.9806    12090.987    6853.4674    77.167835 
   86000    780.99731   -110.64961   0.70666278   -109.94295   -7651.1371    4.2627391    4.2627391    4.2627391   -7651.1371   -19217.054   -3958.9528    222.59575   -8102.8022   -10270.356    6708.9645    77.457997 
   86100    366.19383   -110.27954   0.33133988    -109.9482     1893.137    4.2543021    4.2543021    4.2543021     1893.137   -28.609422    17656.518   -11948.498    1128.0449    -31821.52   -3773.8865     76.99898 
   86200    889.62253   -110.74826   0.80494916   -109.94332    672.60359      4.25786      4.25786      4.25786    672.60359    870.25492   -8864.1009    10011.657   -569.70633   -878.81264   -14282.567    77.192324 
   86300    1053.2007    -110.8897   0.95295811   -109.93675    2855.3126    4.2605106    4.2605106    4.2605106    2855.3126    7951.2189    -17508.42    18123.139   -5217.2704    3997.8817   -1628.1651    77.336579 
   86400     534.9625    -110.4276   0.48404531   -109.94356    2076.6551    4.2569121    4.2569121    4.2569121    2076.6551   -6272.5942    276.64348    12225.916   -3639.3569   -31263.441    218.70894    77.140782 
   86500    433.32579   -110.33626   0.39208228   -109.94418   -4834.0768    4.2591693    4.2591693    4.2591693   -4834.0768   -8373.9387   -9726.7139    3598.4222     2803.436   -21115.854   -14918.365    77.263559 
   86600    747.39507   -110.61543   0.67625876   -109.93917    4909.5789     4.255094     4.255094     4.255094    4909.5789    20082.978   -22105.968    16751.726    265.14947    13709.662   -7532.7987    77.041985 
   86700    769.20946   -110.63392   0.69599688   -109.93793   -7492.4962    4.2615699    4.2615699    4.2615699   -7492.4962    -10962.54   -22317.368     10802.42   -5860.6253   -8594.5723    6443.1013    77.394275 
   86800    559.33227   -110.44599   0.50609559   -109.93989   -11116.205    4.2605343    4.2605343    4.2605343   -11116.205   -17676.312   -11395.755   -4276.5463    2762.4325   -28006.776   -3534.2291    77.337868 
   86900    507.53588   -110.39876   0.45922913   -109.93953    5561.8847    4.2501832    4.2501832    4.2501832    5561.8847     20414.63    -10156.56    6427.5836    4177.4469    3956.7835   -15805.802    76.775553 
   87000     645.3979   -110.52345   0.58396958   -109.93948   -10074.208     4.265141     4.265141     4.265141   -10074.208    1435.3942   -39632.065    7974.0466   -6551.4066    9141.6856    1870.7589    77.589003 
   87100    715.92599   -110.58522   0.64778488   -109.93744   -3157.1303    4.2595747    4.2595747    4.2595747   -3157.1303   -2291.5989   -17117.402    9937.6097   -2165.6869   -11852.368    11764.739    77.285624 
   87200    605.15815   -110.48448   0.54755981   -109.93692    11124.753    4.2497053    4.2497053    4.2497053    11124.753    23287.394   -13063.023    23149.889    6843.9692    -10524.15   -17216.009    76.749657 
   87300    467.51475   -110.36397   0.42301717   -109.94095   -11265.656     4.265001     4.265001     4.265001   -11265.656    13516.602   -49477.379    2163.8085    4212.5658    2953.4074    -16278.17    77.581363 
   87400    693.23552    -110.5662   0.62725407   -109.93894    2178.1856    4.2556529    4.2556529    4.2556529    2178.1856    25975.674   -26385.221     6944.104   -4684.4459    7470.3682    15331.825     77.07235 
   87500    836.90427   -110.69446   0.75724857   -109.93721    2169.7707    4.2548489    4.2548489    4.2548489    2169.7707     14789.44   -20889.839    12609.711    2675.0035   -5604.2056    2868.7593    77.028675 
   87600    592.34582   -110.47599   0.53596695   -109.94003   -12962.182    4.2644025    4.2644025    4.2644025   -12962.182    1412.3864   -38260.128   -2038.8039    12725.231   -7384.4333   -26438.443     77.54871 
   87700     493.3165   -110.38712   0.44636313   -109.94076      1360.89    4.2543646    4.2543646    4.2543646      1360.89    28446.794   -25660.995    1296.8713    1919.3224    3914.3571     2080.789    77.002375 
   87800    791.30763    -110.6547   0.71599177   -109.93871   -2428.2026    4.2575433    4.2575433    4.2575433   -2428.2026    10776.799   -20257.159    2195.7518   -851.60376    6150.3405    26640.403    77.175103 
   87900    859.38108   -110.71485   0.77758606   -109.93727   -631.69438    4.2593716    4.2593716    4.2593716   -631.69438   -5206.6939   -9612.9246    12924.535    7756.6134    2374.5979   -9137.2585    77.274572 
   88000    637.38112   -110.51799   0.57671583   -109.94128    2331.7634    4.2567683    4.2567683    4.2567683    2331.7634    11067.667   -19215.087     15142.71    6185.1864   -2833.7434   -15710.676    77.132964 
   88100    579.40185   -110.46555   0.52425497   -109.94129   -6283.3223    4.2609902    4.2609902    4.2609902   -6283.3223    10690.252   -27098.081   -2442.1388   -3841.2573     4505.478    20717.114    77.362698 
   88200    859.63566   -110.71487   0.77781641   -109.93706    -1534.832     4.256164     4.256164     4.256164    -1534.832   -6248.2154     -6908.06    8551.7795    3366.6149    11123.347    14770.691    77.100124 
   88300    901.77388   -110.75365   0.81594396    -109.9377   -2921.6438    4.2578329    4.2578329    4.2578329   -2921.6438   -10165.307   -17465.805    18866.182    14627.288   -2770.4815   -16828.196    77.190855 
   88400     743.9726   -110.61324   0.67316204   -109.94007   -8768.2258    4.2605164    4.2605164    4.2605164   -8768.2258    5914.7516   -31420.112    -799.3171    4360.7473   -2204.2558   -3617.6441    77.336894 
   88500    745.19515   -110.61411   0.67426824   -109.93984   -2608.2393    4.2560517    4.2560517    4.2560517   -2608.2393    146.77075   -7833.6905   -137.79812   -3303.0672    10455.208    20699.724    77.094021 
   88600    860.77892   -110.71746   0.77885086   -109.93861   -1562.7456    4.2588367    4.2588367    4.2588367   -1562.7456   -24955.004    1695.5979    18571.169    7268.6632    3900.8219    2673.0685    77.245462 
   88700    751.50615   -110.61984   0.67997856   -109.93986    3250.5168    4.2583207    4.2583207    4.2583207    3250.5168   -15423.142    2594.4252    22580.267    8587.3778   -5528.2358   -8497.4012    77.217385 
   88800    777.12244   -110.64259   0.70315672   -109.93944    8316.4765    4.2572739    4.2572739    4.2572739    8316.4765    924.80645     4827.004    19197.619   -3338.8494    1498.7558    9033.0464    77.160455 
   88900     955.6123    -110.8011   0.86465809   -109.93644    3375.2778    4.2603942    4.2603942    4.2603942    3375.2778   -15560.776    4848.0431    20838.567    1686.0306    4379.5543    12878.681     77.33024 
   89000    803.76757   -110.66614   0.72726578   -109.93887    333.16521    4.2571652    4.2571652    4.2571652    333.16521   -32701.076    7654.6911    26045.881    13371.855   -4319.6484   -2744.8928    77.154543 
   89100    596.03779   -110.48237   0.53930752   -109.94306    -1292.462     4.255663     4.255663     4.255663    -1292.462    -18031.25   -364.02759    14517.892     3079.214    -10073.74   -3373.9587    77.072896 
   89200    907.18214    -110.7612   0.82083746   -109.94036   -5683.4505    4.2605892    4.2605892    4.2605892   -5683.4505   -2289.1777   -10002.621   -4758.5529   -3789.0286   -1029.9969     9537.814    77.340856 
   89300    1047.9866   -110.88462   0.94824031   -109.93638   -4450.8244    4.2598681    4.2598681    4.2598681   -4450.8244   -22091.522    44.502562    8694.5459    8920.7539    1878.3474    1228.4665    77.301593 
   89400      684.356   -110.55903   0.61921969   -109.93981   -2789.5079    4.2563126    4.2563126    4.2563126   -2789.5079   -36696.087    10769.623     17557.94    9985.1528   -10067.894   -4650.3815    77.108197 
   89500    601.77231   -110.48587   0.54449623   -109.94137   -4719.3603    4.2601795    4.2601795    4.2601795   -4719.3603   -13306.544    966.98966   -1818.5265   -4983.0588   -2791.1259    6645.2256    77.318547 
   89600    806.46553   -110.66849   0.72970696   -109.93878    3408.9617    4.2564362    4.2564362    4.2564362    3408.9617   -2428.3232    11617.895    1037.3128    1527.8084    7991.2844    7474.0803    77.114914 
   89700    815.65396    -110.6767   0.73802084   -109.93868    3259.5347    4.2552446    4.2552446    4.2552446    3259.5347   -30817.266    20474.409     20121.46    15541.878    3305.1645    5.3469943    77.050168 
   89800    740.46579   -110.60964     0.669989   -109.93965   -9234.6663    4.2618675    4.2618675    4.2618675   -9234.6663   -33757.687   -7264.2747    13317.963    794.15775   -3793.9705    3609.0441     77.41049 
   89900    765.72868   -110.63113    0.6928474   -109.93828    -1656.907     4.255375     4.255375     4.255375    -1656.907   -2026.5232    5384.1247   -8328.3224   -9925.5276    1392.3347    9179.3816    77.057252 
   90000    701.48766   -110.57455   0.63472078   -109.93983   -4975.7396    4.2570867    4.2570867    4.2570867   -4975.7396   -20663.622    10360.269   -4623.8659    10896.968    12643.794     1186.361    77.150278 
   90100    694.25856   -110.56819   0.62817973   -109.94001   -10559.435    4.2603484    4.2603484    4.2603484   -10559.435   -44062.155   -5909.0116    18292.862    12196.389    4690.1058   -4724.5016    77.327743 
   90200    870.78145   -110.72482   0.78790136   -109.93692   -2584.2893    4.2570204    4.2570204    4.2570204   -2584.2893   -19310.086    7540.5589     4016.659   -9516.8926   -3218.2811   -1974.8708    77.146671 
   90300    897.93398    -110.7494   0.81246953   -109.93693   -3853.0495    4.2587281    4.2587281    4.2587281   -3853.0495   -13075.188    10849.903   -9333.8635   -1058.7493    9331.5849    3919.9063    77.239549 
   90400    757.27274   -110.62508   0.68519629   -109.93988    6353.7067    4.2541697    4.2541697    4.2541697    6353.7067   -24066.408     21391.27    21736.258    20084.594    9483.2192     238.4182    76.991791 
   90500    639.98731   -110.52232   0.57907397   -109.94324   -2722.9037     4.260912     4.260912     4.260912   -2722.9037   -41492.126    17276.068    16047.348    396.46618   -4566.0162    -1787.075    77.358436 
   90600    877.11444   -110.73452   0.79363158   -109.94089   -2487.0612    4.2587069    4.2587069    4.2587069   -2487.0612   -20106.202    6316.5603    6328.4577   -18919.752   -5353.4135    4663.3481    77.238397 
   90700    1062.8314   -110.89829   0.96167222   -109.93662    11404.702    4.2519649    4.2519649    4.2519649    11404.702    176.23982    16157.076    17880.789    12007.158    3352.7326     6529.089    76.872149 
   90800    846.18102   -110.70575   0.76564237   -109.94011   -10628.157     4.264867     4.264867     4.264867   -10628.157     -36615.8   -4219.9791    8951.3077    23551.748    3645.0766    1333.2174    77.574051 
   90900    643.60973   -110.52515   0.58235161    -109.9428     2893.424    4.2537859    4.2537859    4.2537859     2893.424    -27938.68    12722.388    23896.564   -13790.005    -6333.344   -414.63749    76.970956 
   91000    911.60296   -110.76566   0.82483752   -109.94083    5539.1042    4.2539419    4.2539419    4.2539419    5539.1042   -8194.4908    13663.313    11148.491   -18070.358    -8181.611     5920.036    76.979426 
   91100    1056.8015    -110.8922   0.95621624   -109.93598   -7843.8363    4.2660385    4.2660385    4.2660385   -7843.8363   -23679.713    2154.4556   -2006.2517    18896.779    2852.4273    1579.0003    77.637993 
   91200     826.3608   -110.68559   0.74770862   -109.93788    5618.0571    4.2528826    4.2528826    4.2528826    5618.0571   -26542.057    15690.019    27706.209    6864.7437    179.13613   -3002.8617    76.921931 
   91300    710.13719   -110.58405   0.64254705    -109.9415   -4103.4037    4.2557013    4.2557013    4.2557013   -4103.4037   -29794.495     6499.577    10984.707   -25029.563   -8714.2572      1032.54    77.074978 
   91400    895.99421   -110.75005   0.81071439   -109.93933   -5826.6955    4.2603211    4.2603211    4.2603211   -5826.6955   -18894.511    7065.8274   -5651.4026   -1998.4936   -3102.8246     3456.696    77.326259 
   91500    954.81801   -110.80181    0.8639394   -109.93787   -2709.5829    4.2574546    4.2574546    4.2574546   -2709.5829   -20901.975   -3073.7516    15846.978    16785.011    2584.0885    2154.7252    77.170281 
   91600    803.18252   -110.66637   0.72673642   -109.93963   -7152.7893    4.2581677    4.2581677    4.2581677   -7152.7893   -33765.044   -12413.204     24719.88   -15911.905    -2814.206    -2890.963    77.209064 
   91700    862.33924   -110.71892   0.78026267   -109.93865    2792.4306    4.2548396    4.2548396    4.2548396    2792.4306    -16086.63    5138.7066    19325.216   -18690.856   -5383.5598    2882.8465     77.02817 
   91800    891.42002   -110.74468   0.80657557    -109.9381   -4656.1701    4.2611862    4.2611862    4.2611862   -4656.1701   -11762.024    1712.4139      -3918.9    10952.969    3529.0485     9524.106    77.373375 
   91900    676.51612    -110.5528     0.612126   -109.94068   -5638.3101    4.2579204    4.2579204    4.2579204   -5638.3101   -28246.356   -3333.9652    14665.391    -4466.795    5986.1598   -697.85594    77.195611 
   92000    763.29652   -110.63085   0.69064673    -109.9402    2907.2594    4.2534055    4.2534055    4.2534055    2907.2594   -24348.648    3230.8457     29839.58   -22756.231   -1048.5429    695.22514    76.950311 
   92100    1024.7335   -110.86374   0.92720042   -109.93654   -4052.3627    4.2612351    4.2612351    4.2612351   -4052.3627   -3958.3857   -4962.0747   -3236.6278   -1354.6874    -1351.776    8275.1437    77.376038 
   92200     756.8748   -110.62472   0.68483622   -109.93988   -763.61506    4.2574933    4.2574933    4.2574933   -763.61506   -4217.4129    2041.6657   -115.09799    2499.6126     3731.335    2623.9668    77.172383 
   92300    486.27005   -110.38388   0.43998736   -109.94389   -3990.5408    4.2553485    4.2553485    4.2553485   -3990.5408   -35382.878   -5968.4424    29379.697   -19341.321    2266.3875   -4702.3394    77.055813 
   92400    741.37057    -110.6128   0.67080767   -109.94199   -1734.3595    4.2586628    4.2586628    4.2586628   -1734.3595   -18612.781   -4742.4809    18152.184   -9761.1243   -4086.0545    644.84424    77.235999 
   92500    959.45555    -110.8048   0.86813555   -109.93667    5064.0447    4.2588925    4.2588925    4.2588925    5064.0447     9719.553    1314.1352    4158.4459    6993.1802   -274.73844    10176.608    77.248497 
   92600    786.77723    -110.6515   0.71189257   -109.93961    -1311.984    4.2574546    4.2574546    4.2574546    -1311.984   -13580.504   -11300.946    20945.497   -11453.765    5398.7524    1461.2939    77.170281 
   92700    587.61635   -110.47398   0.53168763   -109.94229    3162.6366     4.254264     4.254264     4.254264    3162.6366   -21853.118   -4739.9421    36080.969   -17903.278    1409.9596   -3213.3048    76.996911 
   92800    756.74406   -110.62619   0.68471793   -109.94147   -1907.4285     4.259924     4.259924     4.259924   -1907.4285   -10197.719   -7662.4953    12137.929    5152.7182   -6673.7939      11972.9    77.304637 
   92900    903.14049   -110.75597   0.81718049   -109.93879   -4129.9815    4.2598944    4.2598944    4.2598944   -4129.9815    2581.1511   -17439.611    2468.5156    1629.3808   -3627.3272     16042.62    77.303025 
   93000    886.11739   -110.74003   0.80177764   -109.93825    4771.9552    4.2521841    4.2521841    4.2521841    4771.9552   -3604.0461   -14584.938     32504.85   -21640.382    3656.6573   -1905.6691    76.884038 
   93100    839.19628   -110.69856   0.75932243   -109.93924   -3921.4242    4.2603611    4.2603611    4.2603611   -3921.4242   -23008.319   -10183.684     21427.73   -7327.5063   -3324.8107   -3034.8166    77.328438 
   93200    840.27432   -110.69879   0.76029786    -109.9385   -6477.0682    4.2612865    4.2612865    4.2612865   -6477.0682   -4533.3495   -6393.7226   -8504.1324    11235.297   -10488.994    17193.293    77.378837 
   93300    790.69322   -110.65423   0.71543584   -109.93879     4841.741    4.2511464    4.2511464    4.2511464     4841.741    7754.0843   -4215.0716     10986.21   -15758.883    -534.0543    9236.2549    76.827765 
   93400    868.24013   -110.72605   0.78560192   -109.94045    -799.5467    4.2584291    4.2584291    4.2584291    -799.5467   -19821.757    -5820.971    23244.088   -24669.322    2872.4875   -10788.452    77.223281 
   93500    913.36557   -110.76463   0.82643236    -109.9382   -3980.0307    4.2620978    4.2620978    4.2620978   -3980.0307   -13529.007    154.07816    1434.8368    5901.7938   -4021.3544    5318.0176    77.423042 
   93600    699.41403   -110.57191   0.63284452   -109.93907    3799.2398    4.2545104    4.2545104    4.2545104    3799.2398    8957.6483   -1436.2326    3876.3037    5387.7049   -1281.2489    22219.296    77.010289 
   93700    663.98283   -110.54036   0.60078562   -109.93957   -3684.9373    4.2586982    4.2586982    4.2586982   -3684.9373   -12242.888   -12509.497    13697.573   -22534.652    4251.6393    1262.4891    77.237927 
   93800    811.85686   -110.67131   0.73458515   -109.93673    -5691.669    4.2602544    4.2602544    4.2602544    -5691.669   -20190.202   -5992.4348      9107.63   -12645.658   -1214.5724   -12507.614     77.32263 
   93900    676.74633   -110.55019    0.6123343   -109.93785     603.6176    4.2550951    4.2550951    4.2550951     603.6176    840.28024    1076.6047   -106.03219    12808.638     -7237.77    16037.588    77.042048 
   94000    546.05049     -110.435   0.49407796   -109.94092   -4714.7363    4.2579272    4.2579272    4.2579272   -4714.7363   -229.37373   -7296.1528   -6618.6822   -78.063152   -1074.1171    27973.379    77.195982 
   94100    678.51972   -110.55327    0.6139389   -109.93933   -1140.3963    4.2582304    4.2582304    4.2582304   -1140.3963    -12471.57     674.2994    8376.0814   -19259.598    3920.0191   -9734.8477    77.212474 
   94200    618.90062   -110.49894   0.55999429   -109.93894   -1677.0028    4.2582637    4.2582637    4.2582637   -1677.0028   -4971.4491    2193.5253   -2253.0844   -2282.7763   -1738.6372   -13606.218    77.214288 
   94300    460.92324   -110.35807   0.41705304   -109.94102   -7325.2132    4.2588391    4.2588391    4.2588391   -7325.2132    7336.6845   -6264.7939    -23047.53    7016.9747   -3071.4786    27829.448    77.245593 
   94400    680.50003   -110.55348   0.61573073   -109.93775      3051.68    4.2559805    4.2559805    4.2559805      3051.68    4629.2685    4293.4029    232.36854   -5625.6827    3935.8451    19806.828    77.090147 
   94500    879.46625   -110.73148   0.79575955   -109.93572   -2027.1331    4.2588214    4.2588214    4.2588214   -2027.1331   -5633.0964    3393.1328   -3841.4358   -7525.3287      970.589    -19933.04    77.244629 
   94600    462.50985   -110.36207   0.41848864   -109.94359   -4793.2008    4.2561961    4.2561961    4.2561961   -4793.2008    11352.323    1942.2082   -27674.134     2230.867   -4288.6641    312.68241    77.101868 
   94700     449.7911   -110.35325   0.40698044   -109.94627   -3469.4146    4.2556901    4.2556901    4.2556901   -3469.4146    10037.151    276.10433   -20721.499    10418.209   -337.66187      30685.1    77.074368 
   94800    1023.7094   -110.86439   0.92627373   -109.93812   -2227.8067    4.2609057    4.2609057    4.2609057   -2227.8067   -8572.2248    8633.6991   -6744.8944    7619.7437    916.20367    1265.8062    77.358095 
   94900    940.26858    -110.7899   0.85077477   -109.93913    590.06875    4.2575435    4.2575435    4.2575435    590.06875    8901.5639    13185.866   -20317.223    -6663.366   -3271.9876   -11565.695    77.175115 
   95000    374.19127   -110.28593   0.33857613   -109.94735   -7707.8769    4.2549254    4.2549254    4.2549254   -7707.8769    21514.033   -10399.217   -34238.446    2169.4331   -4595.7645    23873.491     77.03283 
   95100    669.28369   -110.55097   0.60558195   -109.94538   -5023.5244    4.2587174    4.2587174    4.2587174   -5023.5244   -57.799303   -2254.4716   -12758.302    12351.943    1213.4925    18576.976    77.238966 
   95200    1214.8655   -111.03583    1.0992358    -109.9366    1180.8216    4.2600861    4.2600861    4.2600861    1180.8216   -11240.631    18759.784   -3976.6883   -992.90245    3131.4408   -9291.5032    77.313462 
   95300     841.3928   -110.70362   0.76130989   -109.94231    8277.7225    4.2523379    4.2523379    4.2523379    8277.7225    18408.834     23216.53   -16792.197    -3240.608   -4145.6411    11203.902    76.892378 
   95400    523.11183   -110.42016   0.47332257   -109.94684   -5481.3846    4.2590509    4.2590509    4.2590509   -5481.3846    10868.286   -3180.0186   -24132.421    6869.0749   -2115.3361    24748.185    77.257117 
   95500    944.22691   -110.79489   0.85435635   -109.94054   -3929.1734    4.2592888    4.2592888    4.2592888   -3929.1734   -8562.9912   -2450.4631   -774.06589    7981.0634    1296.5325   -2849.9367    77.270061 
   95600     1056.124   -110.89237   0.95560318   -109.93677    6011.3744    4.2531436    4.2531436    4.2531436    6011.3744   -6570.1668    11221.726    13382.564   -5735.8361   -2703.7438   -555.06493    76.936096 
   95700    709.12018   -110.58296   0.64162684   -109.94133   -8898.7251    4.2622804    4.2622804    4.2622804   -8898.7251    2992.9276   -13083.499   -16605.604   -6154.4592    -4913.896    26270.593    77.432994 
   95800    908.89781   -110.76099   0.82238984    -109.9386    1621.8377    4.2550689    4.2550689    4.2550689    1621.8377     11131.65    3874.6379   -10140.775    9765.4197   -1132.5347    10860.568    77.040623 
   95900    1056.1192   -110.89241   0.95559888   -109.93681    6372.7727    4.2556568    4.2556568    4.2556568    6372.7727   -6614.7596    10345.163    15387.915   -3674.5946    7127.8298   -9576.2077    77.072563 
   96000    749.17787   -110.61988   0.67787188   -109.94201    -6335.139    4.2607602    4.2607602    4.2607602    -6335.139   -18364.013   -450.36622   -191.03802   -21308.811    123.68987    12986.944    77.350169 
   96100    748.01087   -110.61992   0.67681596    -109.9431    3994.1139    4.2531448    4.2531448    4.2531448    3994.1139    11450.239     14628.57   -14096.468   -1009.3586    -10682.86    23666.076    76.936162 
   96200    1114.1912   -110.94609    1.0081436   -109.93795   -2389.0228    4.2601189    4.2601189    4.2601189   -2389.0228     845.8547   -1882.7495   -6130.1737    3078.6102   -2228.9844   -8019.3306    77.315251 
   96300    938.31455   -110.78786   0.84900672   -109.93885   -2387.6728    4.2584992    4.2584992    4.2584992   -2387.6728    -16824.65    2326.8163    7334.8157   -14774.961    6701.1548   -6924.8825    77.227098 
   96400    517.99156   -110.41209   0.46868965    -109.9434   -3252.3265    4.2548388    4.2548388    4.2548388   -3252.3265   -3491.8736    4799.3784   -11064.484   -7849.0175   -2577.6118    22704.625    77.028124 
   96500    779.83245   -110.64843   0.70560879   -109.94282   -8996.6776    4.2605845    4.2605845    4.2605845   -8996.6776   -2036.8205   -2400.1751   -22553.037    2746.6742   -10860.022    14482.194    77.340603 
   96600    1178.0276   -111.00172    1.0659041   -109.93582    4268.1146    4.2547769    4.2547769    4.2547769    4268.1146   -7022.6784    13345.392    6481.6303   -2543.3296    1338.6708   -8523.0136    77.024766 
   96700    701.02542   -110.57809   0.63430253   -109.94379   -923.27148     4.256586     4.256586     4.256586   -923.27148   -8997.6376    7500.3646   -1272.5414   -12571.462    7065.7956    7435.1418    77.123057 
   96800    265.00719   -110.18944   0.23978407   -109.94966   -8491.2259    4.2606052    4.2606052    4.2606052   -8491.2259   -8192.0441    7763.8608   -25045.494   -5704.9121   -9793.4702    26341.706    77.341727 
   96900    835.85857   -110.69868    0.7563024   -109.94238     1632.329    4.2568013    4.2568013    4.2568013     1632.329   -8867.4325    21962.726   -8198.3069    8273.6404   -12604.559    5325.6482    77.134761 
   97000    1047.5774   -110.88273   0.94787003   -109.93486    2582.8207    4.2581729    4.2581729    4.2581729    2582.8207   -7096.0701    10527.531    4317.0011   -1378.8135    6657.0859    -7199.527    77.209347 
   97100    414.55429   -110.32064   0.37509743   -109.94554   -5951.9735     4.257408     4.257408     4.257408   -5951.9735   -5811.5219    8306.5053   -20350.904   -9655.4939   -1270.5331    21295.252    77.167748 
   97200    258.49288   -110.18286   0.23388979   -109.94897   -5304.7398    4.2559057    4.2559057    4.2559057   -5304.7398   -9515.0048    12997.526   -19396.741   -799.11804   -18826.468    18678.332    77.086087 
   97300    827.11078   -110.69043   0.74838722   -109.94204   -1792.3514     4.258105     4.258105     4.258105   -1792.3514   -15089.048    5542.8866    4169.1072    8168.7355   -3113.0541   -9727.5601    77.205651 
   97400    875.90732   -110.73065   0.79253935   -109.93811   -3192.7266      4.25836      4.25836      4.25836   -3192.7266   -2845.2959    2262.3892   -8995.2731    1819.0067    5057.9822     2007.141    77.219526 
   97500    376.73507   -110.28417   0.34087781   -109.94329   -8575.7116    4.2591227    4.2591227    4.2591227   -8575.7116   -8341.4691    6895.1312   -24280.797   -8607.7245   -12067.869    26604.068    77.261025 
   97600    449.49513    -110.3477   0.40671264   -109.94098   -6381.3396    4.2587625    4.2587625    4.2587625   -6381.3396    -16794.95    9532.6702   -11881.739    5134.9746   -11226.072    6773.9054    77.241425 
   97700    833.40198    -110.6896   0.75407963   -109.93553    1701.1305    4.2550921    4.2550921    4.2550921    1701.1305   -6281.8618    16155.353   -4770.0998    13055.619    2647.8225   -13349.961    77.041883 
   97800    716.18591   -110.58644   0.64802006   -109.93842   -724.64023    4.2568297    4.2568297    4.2568297   -724.64023    3624.6931    16317.278   -22115.892   -2657.8226   -289.06175    11404.495    77.136305 
   97900    533.10852   -110.42449   0.48236779   -109.94212   -5852.0495    4.2591788    4.2591788    4.2591788   -5852.0495   -9936.7447    18618.784   -26238.188    -130.4716   -16869.006    22667.038    77.264077 
   98000    669.08361   -110.54555   0.60540092   -109.94015    970.48597    4.2568414    4.2568414    4.2568414    970.48597    -15637.53    28236.626    -9687.638    10578.238    -8352.961   -4785.5214    77.136941 
   98100    792.09038   -110.65417   0.71670002   -109.93747     -1221.21    4.2575323    4.2575323    4.2575323     -1221.21   -2640.8749    13325.969   -14348.724    4067.6369    11894.966   -4677.1159    77.174505 
   98200     574.8615   -110.46046   0.52014677   -109.94031    -7260.749    4.2585582    4.2585582    4.2585582    -7260.749    5505.3554    9373.8315   -36661.434      -2116.5   -5834.2784     22904.23    77.230305 
   98300    681.07349   -110.55619   0.61624961   -109.93994   -4706.2148     4.257044     4.257044     4.257044   -4706.2148   -4501.9291    17267.838   -26884.553    2422.6146   -18965.133    10256.272    77.147955 
   98400    959.22436    -110.8042   0.86792636   -109.93627    378.22116    4.2570892    4.2570892    4.2570892    378.22116   -7736.6723    13087.367   -4216.0314    9483.7986   -920.70602   -5551.3955     77.15041 
   98500    755.93135    -110.6248   0.68398257   -109.94082   -1863.9717    4.2576659    4.2576659    4.2576659   -1863.9717    8084.2771    4840.8154   -18517.008    965.44082    4365.6952    16298.839    77.181768 
   98600    503.40925   -110.40021   0.45549527   -109.94472   -6030.9112    4.2582597    4.2582597    4.2582597   -6030.9112    12586.666    8533.6666   -39213.066   -5356.9249   -14872.731    21608.519    77.214067 
   98700    904.69216   -110.75915   0.81858448   -109.94057    2328.5298       4.2563       4.2563       4.2563    2328.5298    2290.8733    18365.862   -13671.146    5733.0965   -17575.651   -6447.2113    77.107513 
   98800    1163.1418   -110.98917    1.0524351   -109.93674    5642.3458    4.2572481    4.2572481    4.2572481    5642.3458    1976.1839    13282.146    1668.7076    7638.4916    4145.3297   -24.609125    77.159052 
   98900    721.26683   -110.59655   0.65261739   -109.94393   -3753.1392    4.2595965    4.2595965    4.2595965   -3753.1392    16338.903   -3151.6652   -24446.655   -2277.2902    -1173.115     25398.64    77.286811 
   99000    610.03847   -110.49679   0.55197563   -109.94481    -2297.912    4.2553248    4.2553248    4.2553248    -2297.912    14353.249    5052.1253    -26299.11   -3419.4591   -21644.175    3842.7529    77.054523 
   99100    1048.9168   -110.88913     0.949082   -109.94005    1816.3698    4.2573761    4.2573761    4.2573761    1816.3698   -33.508501    13291.454   -7808.8361   -1009.4319    -4694.762   -13764.982     77.16601 
   99200    1145.5033    -110.9744    1.0364755   -109.93793   -227.52742     4.259562     4.259562     4.259562   -227.52742    4621.0361   -2093.3335   -3210.2849    2382.0365    10006.347    12506.334    77.284934 
   99300    792.87174   -110.65995   0.71740701   -109.94255    4120.1435    4.2545323    4.2545323    4.2545323    4120.1435    17234.293      458.858   -5332.7202     1039.082    -11858.06     17087.87    77.011479 
   99400    756.85647   -110.62795   0.68481964   -109.94313   -1804.9784     4.258011     4.258011     4.258011   -1804.9784    2238.5572    9964.5457   -17618.038   -2379.5954   -18629.614   -9081.9918    77.200537 
   99500    1022.4544   -110.86401   0.92513821   -109.93887     500.1124    4.2594405    4.2594405    4.2594405     500.1124   -1030.8272     7465.984   -4934.8196     1072.222    11642.148   -7599.4976    77.278318 
   99600     1090.329   -110.92376   0.98655261   -109.93721    4201.8417    4.2551882    4.2551882    4.2551882    4201.8417     10209.06    672.37602    1724.0888    1732.6006    12058.245    14568.434    77.047104 
   99700    879.90313     -110.737   0.79615485   -109.94085    1078.3319    4.2564083    4.2564083    4.2564083    1078.3319    9260.6861    8153.2476   -14178.938   -487.55689    -22958.01    4879.0605    77.113397 
   99800    789.46221   -110.65622     0.714322    -109.9419    -4561.109    4.2594854    4.2594854    4.2594854    -4561.109    707.07537    9937.8516   -24328.254   -2598.5206   -4384.5195   -13677.835    77.280764 
   99900    953.98987   -110.80274   0.86319008   -109.93955   -2064.3358    4.2573413    4.2573413    4.2573413   -2064.3358    2652.3068    5051.5921   -13896.906     46.11211    30712.965   -2865.5284    77.164121 
  100000     1144.833   -110.97277     1.035869    -109.9369    1738.4901     4.254372     4.254372     4.254372    1738.4901    3358.8285    5129.7677   -3273.1258    7721.4688   -2383.6684    5290.6443    77.002777 
Loop time of 22.59 on 1 procs for 100000 steps with 8 atoms

Pair  time (%) = 7.40856 (32.7957)
Kspce time (%) = 5.35817 (23.7192)
Neigh time (%) = 0 (0)
Comm  time (%) = 1.08073 (4.7841)
Outpt time (%) = 0.0268309 (0.118773)
Other time (%) = 8.71574 (38.5822)

Nlocal:    8 ave 8 max 8 min
Histogram: 1 0 0 0 0 0 0 0 0 0
Nghost:    2189 ave 2189 max 2189 min
Histogram: 1 0 0 0 0 0 0 0 0 0
Neighs:    2344 ave 2344 max 2344 min
Histogram: 1 0 0 0 0 0 0 0 0 0

Total # of neighbors = 2344
Ave neighs/atom = 293
Neighbor list builds = 0
Dangerous builds = 0
unfix 20
unfix 21
print "seeds:3012666"
seeds:3012666
