LAMMPS (10 Feb 2015)
# ---- initialize simulations
clear
units metal
dimension 3
boundary p p p
atom_style charge
atom_modify map array
# ---- create atoms
read_data /Users/eugeneragasa/pyflamestk_git/pypospack/tests/tests_integration/workflow/WorkflowLammpsThermalExpansion/param_5091/MgO_NaCl_unit.npt.T1300/lammps.structure
  triclinic box = (0 0 0) to (4.2565 4.2565 4.2565) with tilt (0 0 0)
  1 by 1 by 1 MPI processor grid
  reading atoms ...
  8 atoms
# ---- define interatomic potential
include potential.mod
mass 1 24.305
mass 2 15.999

group Mg type 1
4 atoms in group Mg
group O type 2
4 atoms in group O

set group Mg charge 1.60395442224
  4 settings made for charge
set group O charge -1.60395442224
  4 settings made for charge

variable R_cut equal 10.0

pair_style buck/coul/long ${R_cut}
pair_style buck/coul/long 10
pair_coeff 1 1 0.0 0.5 0.0 ${R_cut}
pair_coeff 1 1 0.0 0.5 0.0 10
pair_coeff 1 2 1640.33364459 0.274285748818 0.0 ${R_cut}
pair_coeff 1 2 1640.33364459 0.274285748818 0.0 10
pair_coeff 2 2 138.503876614 0.167383398543 15.9463705464 ${R_cut}
pair_coeff 2 2 138.503876614 0.167383398543 15.9463705464 10

kspace_style pppm 1.0e-5

neighbor 1.0 bin
neigh_modify every 1 delay 0 check yes
# ---- define settings
compute eng all pe/atom
compute eatoms all reduce sum c_eng
# ---- run minimization
reset_timestep 0
fix 1 all box/relax iso 0.0 vmax 0.001
thermo 10
thermo_style custom step pe lx ly lz xy xz yz press pxx pyy pzz pxy pxz pyz c_eatoms
min_style cg
minimize 1e-25 1e-25 5000 10000
PPPM initialization ...
  G vector (1/distance) = 0.352384
  grid = 8 8 8
  stencil order = 5
  estimated absolute RMS force accuracy = 3.76636e-05
  estimated relative force accuracy = 2.6156e-06
  using double precision FFTs
  3d grid and FFT values/proc = 3375 512
Neighbor list info ...
  1 neighbor list requests
  update every 1 steps, delay 0 steps, check yes
  master list distance cutoff = 11
Memory usage per processor = 4.06549 Mbytes
Step PotEng Lx Ly Lz Xy Xz Yz Press Pxx Pyy Pzz Pxy Pxz Pyz eatoms 
       0   -105.40733       4.2565       4.2565       4.2565            0            0            0    42357.047    42357.047    42357.047    42357.047 -5.4591187e-11 1.2697943e-10 -3.1158894e-11   -105.40733 
      10   -105.43209    4.2922445    4.2922445    4.2922445            0            0            0   -4.9211524   -4.9211524   -4.9211524   -4.9211524 1.7090498e-11 -3.1779622e-11 -1.1443831e-10   -105.43209 
      12   -105.43209    4.2922402    4.2922402    4.2922402            0            0            0  -0.19512063  -0.19512063  -0.19512063  -0.19512063 3.2638439e-11 -8.1058727e-11 1.6032595e-10   -105.43209 
Loop time of 0.00862002 on 1 procs for 12 steps with 8 atoms

Minimization stats:
  Stopping criterion = linesearch alpha is zero
  Energy initial, next-to-last, final = 
        -105.407331285      -105.43208818      -105.43208818
  Force two-norm initial, final = 6.11638 6.94804e-05
  Force max component initial, final = 6.11638 2.86507e-05
  Final line search alpha, max atom move = 0.5 1.43253e-05
  Iterations, force evaluations = 12 25

Pair  time (%) = 0.00233841 (27.1276)
Kspce time (%) = 0.00143099 (16.6007)
Neigh time (%) = 0 (0)
Comm  time (%) = 0.000281811 (3.26926)
Outpt time (%) = 1.19209e-05 (0.138293)
Other time (%) = 0.00455689 (52.8641)

Nlocal:    8 ave 8 max 8 min
Histogram: 1 0 0 0 0 0 0 0 0 0
Nghost:    2189 ave 2189 max 2189 min
Histogram: 1 0 0 0 0 0 0 0 0 0
Neighs:    2344 ave 2344 max 2344 min
Histogram: 1 0 0 0 0 0 0 0 0 0

Total # of neighbors = 2344
Ave neighs/atom = 293
Neighbor list builds = 0
Dangerous builds = 0
unfix 1
# ---- define output variables ----
variable natoms equal "count(all)"
variable tot_energy equal "c_eatoms"
variable length_x equal "lx"
variable length_y equal "ly"
variable length_z equal "lz"
variable tilt_xy equal "xy"
variable tilt_xz equal "xz"
variable tilt_yz equal "yz"
variable tot_press equal "press"
variable press_xx equal "pxx"
variable press_yy equal "pyy"
variable press_zz equal "pzz"
variable press_xy equal "pxy"
variable press_xz equal "pxz"
variable press_yz equal "pyz"

# ---- output ----
print "pypospack:output_section:begin"
pypospack:output_section:begin
print "tot_energy = ${tot_energy}"
tot_energy = -105.432088180201
print "num_atoms = ${natoms}"
num_atoms = 8
print "xx = ${length_x}"
xx = 4.29224022422512
print "yy = ${length_y}"
yy = 4.29224022422512
print "zz = ${length_z}"
zz = 4.29224022422512
print "xy = ${tilt_xy}"
xy = 0
print "xz = ${tilt_xz}"
xz = 0
print "yz = ${tilt_yz}"
yz = 0
print "tot_press = ${tot_press}"
tot_press = -0.195120630166908
print "pxx = ${press_xx}"
pxx = -0.195120630011552
print "pyy = ${press_yy}"
pyy = -0.195120630547228
print "pzz = ${press_zz}"
pzz = -0.195120629941943
print "pxy = ${press_xy}"
pxy = 3.26384388476247e-11
print "pxz = ${press_xz}"
pxz = -8.10587270505021e-11
print "pyz = ${press_yz}"
pyz = 1.60325951029016e-10
print "pypospack:output_section:done"
pypospack:output_section:done
print "pypospack:lammps_sim:done"
pypospack:lammps_sim:done
#------------------------------------------------------------------------------
# RUN THERMOSTAT
# running using an NPT Nose-Hoover style thermostat
#------------------------------------------------------------------------------
variable tempdamp equal 0.1
variable pressdamp equal 1.0
# set initial velocities
velocity all create 1300 8853617 mom yes dist gaussian loop all
# fix for Nose-Hoover style thermostat
fix 20 all npt temp 1300 1300 0.1 aniso 0.0 0.0 1.0 drag 1.0 couple xyz
variable boxx equal lx
variable boxy equal ly
variable boxz equal lz
variable boxp equal press
variable boxt equal temp
# calculate averages every 10000 steps
reset_timestep 0
fix 21 all ave/time 10 10 100 v_boxx v_boxy v_boxz v_boxp v_boxt file lattice.out
thermo_style custom step temp pe ke etotal press lx ly lz press pxx pyy pzz pxy pxz pyz vol
thermo_modify flush yes
thermo 100
run 100000
PPPM initialization ...
  G vector (1/distance) = 0.352034
  grid = 8 8 8
  stencil order = 5
  estimated absolute RMS force accuracy = 3.82705e-05
  estimated relative force accuracy = 2.65774e-06
  using double precision FFTs
  3d grid and FFT values/proc = 3375 512
Memory usage per processor = 3.06549 Mbytes
Step Temp PotEng KinEng TotEng Press Lx Ly Lz Press Pxx Pyy Pzz Pxy Pxz Pyz Volume 
       0         1300   -105.43209    1.1762673   -104.25583    15886.856    4.2922402    4.2922402    4.2922402    15886.856    12712.104    27659.361    7289.1018   -602.12117    153.46388   -5184.5952    79.077342 
     100    321.57627   -104.39177   0.29096897   -104.10081     16912.01    4.3105523    4.3105523    4.3105523     16912.01    4805.9865    32275.313    13654.732   -10190.992    663.24135   -1363.8144    80.093775 
     200    786.13157   -104.48103   0.71130836   -103.76972   -19901.561     4.339291     4.339291     4.339291   -19901.561   -15195.153    -20722.26    -23787.27    2595.5998   -216.44152   -4199.4591    81.706445 
     300     1309.297    -104.7003    1.1846794   -103.51562    13648.767    4.3190501    4.3190501    4.3190501    13648.767   -2626.0672    47925.101    -4352.734    -4035.071    5785.8881    1746.8832    80.568398 
     400    1116.8472     -104.291    1.0105468   -103.28045   -10182.082    4.3137581    4.3137581    4.3137581   -10182.082   -37711.086   -16200.958    23365.799   -30793.582    3394.5886    833.19275    80.272606 
     500    1420.4451   -104.41443    1.2852486   -103.12918    11881.435      4.33513      4.33513      4.33513    11881.435    18413.025    31474.205   -14242.926    16308.719    3009.5747    10624.846    81.471626 
     600    663.27399   -103.66116   0.60014424   -103.06102   -2663.7729    4.3442854    4.3442854    4.3442854   -2663.7729    15099.954   -8048.5228    -15042.75     -23923.8    4348.7059    3029.3937    81.988895 
     700    1630.4122   -104.49923    1.4752312     -103.024   -8504.3251     4.336623     4.336623     4.336623   -8504.3251     5265.651   -16254.181   -14524.445     13301.84   -391.26945    1030.4112    81.555827 
     800    1512.3278   -104.39664     1.368386   -103.02826    4237.2059    4.3177337    4.3177337    4.3177337    4237.2059   -9698.1728    33680.319   -11270.529   -18944.903   -393.68699    13239.111     80.49475 
     900    974.92546   -103.93602   0.88213305   -103.05389   -12981.696    4.3264775    4.3264775    4.3264775   -12981.696   -19000.257   -34940.007    14995.177   -13385.391   -5611.0075   -4256.9471    80.984769 
    1000    1344.1406   -104.26487    1.2162067   -103.04866    23341.951    4.3415172    4.3415172    4.3415172    23341.951    48024.983    37975.195   -15974.326    29657.158   -3664.3617    13139.656    81.832264 
    1100    1121.9869    -104.0633    1.0151973   -103.04811   -27440.015    4.3457418    4.3457418    4.3457418   -27440.015   -34046.907   -28941.351   -19331.788   -26934.013   -5302.3698   -3315.3349    82.071383 
    1200    1499.6356   -104.38807    1.3569018   -103.03117    5538.3487    4.3236645    4.3236645    4.3236645    5538.3487    12792.444    11336.761   -7514.1589    10492.515    1325.6398    1240.4626    80.826907 
    1300    1219.6145   -104.14635    1.1035329   -103.04282    3070.3661    4.3180564    4.3180564    4.3180564    3070.3661    958.02688    25107.411   -16854.339   -27906.457   -7381.9889    9760.0484    80.512802 
    1400       1196.7   -104.14547    1.0827993   -103.06267   -16683.758    4.3410093    4.3410093    4.3410093   -16683.758    8073.7541   -58407.488    282.46005   -14330.527    5580.8133   -8160.3174     81.80355 
    1500    1757.6939   -104.64112    1.5903984   -103.05072    -2311.536    4.3366613    4.3366613    4.3366613    -2311.536    -2993.379    29993.676   -33934.905    6611.0163   -1283.9735    6828.0756    81.557991 
    1600     717.3232   -103.71096    0.6490491   -103.06191   -3933.8702     4.329799     4.329799     4.329799   -3933.8702     26488.41   -25873.197   -12416.824   -46037.191   -5501.0915    -9488.159     81.17143 
    1700    1668.8634   -104.55211    1.5100227   -103.04208    24892.798    4.3268697    4.3268697    4.3268697    24892.798    78460.136   -821.38364   -2960.3597    1829.1262    5872.5908    1092.6394    81.006795 
    1800    961.23914   -103.93224   0.86974937   -103.06249   -7146.7486    4.3287906    4.3287906    4.3287906   -7146.7486   -37949.863    16055.201    454.41583   -35926.223     2221.669    2920.8311    81.114733 
    1900    1644.4194   -104.54105    1.4879052   -103.05314   -17644.074     4.340741     4.340741     4.340741   -17644.074    7901.2454   -16053.378   -44780.089   -2610.4055    5711.2052   -262.79323    81.788383 
    2000    1275.8273   -104.19929    1.1543954    -103.0449     15950.28    4.3277337    4.3277337    4.3277337     15950.28    25938.841    19741.375    2170.6225   -2689.9869     -1072.41    5877.6517    81.055331 
    2100    994.67487    -103.9531   0.90000272   -103.05309   -16916.968    4.3283739    4.3283739    4.3283739   -16916.968   -3164.9912   -41109.003   -6476.9099   -47687.796   -6373.0615   -3098.2608    81.091308 
    2200     1994.145   -104.84456    1.8043443   -103.04021   -3953.6498    4.3337953    4.3337953    4.3337953   -3953.6498    -7681.996    16876.466    -21055.42    14580.922     1462.146    9791.3335    81.396395 
    2300    806.07075   -103.78165   0.72934975   -103.05231    5498.3272    4.3340744    4.3340744    4.3340744    5498.3272    18658.828    2569.2522   -4733.0991   -31504.209   -5257.9823   -2216.4168    81.412122 
    2400    1277.1346   -104.19374    1.1555783   -103.03816    11658.755    4.3298743    4.3298743    4.3298743    11658.755    55348.249   -2658.1686   -17713.814    16727.796    56.425687    6944.4899    81.175667 
    2500    1238.8787   -104.16508    1.1209635   -103.04412   -2355.9523    4.3257695    4.3257695    4.3257695   -2355.9523   -12558.104    -1089.899    6580.1461   -7415.9054    4770.3664     5034.028    80.945015 
    2600    1604.7818   -104.50325    1.4520403   -103.05121    -16209.48    4.3316375    4.3316375    4.3316375    -16209.48    -11864.54   -11138.677   -25625.223   -44208.101    2319.9784   -1601.8156    81.274877 
    2700    1320.7009   -104.24557    1.1949979   -103.05057    18995.219    4.3252101    4.3252101    4.3252101    18995.219    52742.398    11975.898   -7732.6397     28521.76    6403.1045    8377.7356     80.91362 
    2800    771.24379   -103.75833   0.69783759   -103.06049    2918.2859    4.3250915    4.3250915    4.3250915    2918.2859   -2120.1484    -7508.517    18383.523   -40510.177   -5992.2963   -3406.4852    80.906963 
    2900    1897.5798   -104.76265    1.7169701   -103.04568    6235.7918    4.3296728    4.3296728    4.3296728    6235.7918   -16770.264    54857.579    -19379.94    13694.026   -2874.8249    9841.8506    81.164333 
    3000    1251.6017   -104.18997    1.1324756   -103.05749   -20270.173    4.3281818    4.3281818    4.3281818   -20270.173   -27007.937    -37382.45    3579.8682   -34267.555   -389.46669   -272.52557    81.080511 
    3100    1176.8799   -104.12056    1.0648657    -103.0557   -6090.9393    4.3287191    4.3287191    4.3287191   -6090.9393   -2815.9037   -4623.1269   -10833.787   -9499.3276   -1668.2039     12006.37     81.11071 
    3200    1181.9008   -104.11958    1.0694087   -103.05017    19198.823    4.3296672    4.3296672    4.3296672    19198.823   -3081.5827    41790.951    18887.102    8403.6582    2296.8477   -3061.2467    81.164019 
    3300    1081.6367   -104.03432   0.97868758   -103.05563   -35946.024    4.3410087    4.3410087    4.3410087   -35946.024   -60439.165     -45332.8   -2066.1065   -32659.281    1202.6041    207.12911    81.803518 
    3400    1971.1955   -104.81637    1.7835792   -103.03279    15943.344    4.3204117    4.3204117    4.3204117    15943.344    10665.948    39830.338   -2666.2538    8235.5395    7574.3348    1407.7995    80.644622 
    3500     666.1383   -103.66359   0.60273593   -103.06086   -23951.555    4.3243886    4.3243886    4.3243886   -23951.555   -62567.863   -33409.879    24123.076   -42644.814   -1727.8079   -3601.2781    80.867525 
    3600    1626.0934   -104.52463    1.4713235    -103.0533    8834.6289    4.3340329    4.3340329    4.3340329    8834.6289   -785.76188    35912.223   -8622.5745    25222.081   -2747.9346    1490.0577    81.409786 
    3700    1210.8728   -104.14629    1.0956232   -103.05067   -19626.462     4.344504     4.344504     4.344504   -19626.462   -46183.147    -22711.42     10015.18   -50070.267    2526.0988   -6619.3037    82.001274 
    3800    998.86776    -103.9472   0.90379654   -103.04341    872.50732    4.3233871    4.3233871    4.3233871    872.50732   -28237.251    12744.651    18110.122   -6622.2563     -1015.43    5836.2935    80.811349 
    3900    1549.0124   -104.43443     1.401579   -103.03285    16966.147    4.3202539    4.3202539    4.3202539    16966.147    6692.4601    18854.525    25351.456   -12570.013   -6131.2141   -20599.163    80.635782 
    4000    1192.5334   -104.12389    1.0790292   -103.04486   -23240.769      4.34098      4.34098      4.34098   -23240.769   -59230.024   -22927.779    12435.496   -31032.535    7839.4354   -2598.9364    81.801895 
    4100    1273.6128   -104.18777    1.1523916   -103.03538    24320.518    4.3407147    4.3407147    4.3407147    24320.518    1917.4881    34103.571    36940.495    33210.476   -2778.1863    447.15008    81.786896 
    4200     1303.126   -104.22272    1.1790958   -103.04363   -8264.3244    4.3325127    4.3325127    4.3325127   -8264.3244   -47783.541    10035.173    12955.396   -52237.455    13896.504   -7985.9108    81.324153 
    4300    1590.5668   -104.48324    1.4391782   -103.04406    16089.784    4.3316215    4.3316215    4.3316215    16089.784   -10209.518    59432.669   -953.80042    22854.778    7459.7214   -6538.6361    81.273976 
    4400    1467.0053   -104.37323    1.3273772   -103.04586   -20273.849    4.3441195    4.3441195    4.3441195   -20273.849   -24453.018    -20971.09   -15397.439   -35092.796    5377.4419   -15942.212    81.979504 
    4500    1368.9292   -104.27425    1.2386359   -103.03561   -17103.541    4.3455994    4.3455994    4.3455994   -17103.541   -39885.794    8758.3891   -20183.218    2081.1458    4983.6053   -8665.7453    82.063318 
    4600    1609.5011   -104.48546    1.4563105   -103.02915    14947.784    4.3356865    4.3356865    4.3356865    14947.784   -5086.7643    57319.211   -7389.0935   -1494.5594   -874.38299   -724.91919    81.503002 
    4700    1142.8564   -104.07318    1.0340805    -103.0391   -488.63016    4.3310015    4.3310015    4.3310015   -488.63016   -24681.454    24295.128   -1079.5645   -12365.846    5385.4258    1972.7574    81.239079 
    4800     1635.459   -104.51694    1.4797977   -103.03715    6471.6587    4.3312232    4.3312232    4.3312232    6471.6587   -11318.786    4584.0007    26149.762    18831.242    -4223.586    6825.8655    81.251556 
    4900    860.79674   -103.83982   0.77886698   -103.06095   -4876.9041    4.3365071    4.3365071    4.3365071   -4876.9041   -24430.465   -2709.9319    12509.685    -31677.97   -4806.8819   -3497.3759     81.54929 
    5000    1623.2821   -104.51197    1.4687797   -103.04319    11540.084    4.3428104    4.3428104    4.3428104    11540.084   -24436.994    28079.957    30977.288    21355.206    5218.3911    1100.9696    81.905415 
    5100    1025.3759   -103.97359   0.92778166   -103.04581    3177.7631    4.3235089    4.3235089    4.3235089    3177.7631   -17549.134    12569.173     14513.25   -26115.021   -16032.877     6904.348    80.818184 
    5200    1292.5491    -104.2173    1.1695256   -103.04777    5663.3955    4.3294055    4.3294055    4.3294055    5663.3955     1948.231    17201.924   -2159.9684    -5771.424    16410.096    9773.2017    81.149301 
    5300    1884.6971   -104.74378    1.7053135   -103.03847   -5106.8119    4.3373188    4.3373188    4.3373188   -5106.8119    604.47322    8361.4615    -24286.37    5434.2601   -6861.1538    7185.4341     81.59509 
    5400    858.63863   -103.82771   0.77691428   -103.05079   -3170.3989     4.342628     4.342628     4.342628   -3170.3989    339.40748    22317.789   -32168.393    -24166.79    8422.3113    6857.4638    81.895093 
    5500    1833.2322    -104.6836     1.658747   -103.02485   -8102.9207    4.3431996    4.3431996    4.3431996   -8102.9207   -3272.5662    -19486.83   -1549.3658    5800.4909    5391.3722   -4540.8726    81.927439 
    5600     1147.633   -104.06897    1.0384024   -103.03057   -6400.4521    4.3350393    4.3350393    4.3350393   -6400.4521    2049.8294   -13598.668   -7652.5173   -21254.605   -5182.3609   -5334.6796     81.46651 
    5700    1713.2722   -104.57216    1.5502047   -103.02195   -5320.9121    4.3371488    4.3371488    4.3371488   -5320.9121    -3654.388   -4087.2729   -8221.0755   -3349.1504    7869.9845   -2614.5113    81.585499 
    5800    853.30823   -103.80974   0.77209122   -103.03764    15070.723    4.3345253    4.3345253    4.3345253    15070.723    35060.171   -14008.403    24160.402    10137.126   -14642.118   -688.77148    81.437534 
    5900    1442.0027    -104.3457    1.3047543   -103.04095     2851.612    4.3390614    4.3390614    4.3390614     2851.612   -20406.776    33472.749   -4511.1371   -19380.641    4332.3241    13050.667    81.693476 
    6000    1000.1625   -103.95037   0.90496805   -103.04541    18443.907    4.3368436    4.3368436    4.3368436    18443.907    24251.493   -3344.3687    34424.596    42830.578    -8640.736   -7262.5821    81.568278 
    6100    1436.9829   -104.34497    1.3002124   -103.04475    -17409.96    4.3331449    4.3331449    4.3331449    -17409.96   -35344.845   -11670.678   -5214.3582   -31044.001   -5002.3288    14177.417    81.359755 
    6200    1333.3193    -104.2528    1.2064154   -103.04638   -4049.9801    4.3341949    4.3341949    4.3341949   -4049.9801   -13834.565   -10126.183    11810.808    23782.289    9946.7676   -14328.856    81.418914 
    6300    1317.7572   -104.23954    1.1923344    -103.0472   -201.49697    4.3402008    4.3402008    4.3402008   -201.49697   -35631.315    4467.7641     30559.06    10646.089   -12741.165   -4111.2699    81.757848 
    6400    1203.4092   -104.12589    1.0888699   -103.03702   -10052.114    4.3407262    4.3407262    4.3407262   -10052.114   -24859.626   -580.86961   -4715.8462   -4322.8315    1832.7062   -3330.2672    81.787546 
    6500     1174.491   -104.10525    1.0627042   -103.04254   -6828.8853    4.3258773    4.3258773    4.3258773   -6828.8853   -3388.6397    -23253.23    6155.2141    38709.833    505.55437   -7416.6548    80.951072 
    6600    1687.9466   -104.57898    1.5272896   -103.05169     9757.238    4.3306777    4.3306777    4.3306777     9757.238   -7473.7438    12694.159    24051.298   -20927.936   -7403.6206    3198.9914     81.22086 
    6700     1092.501   -104.05025   0.98851785   -103.06173   -14301.934     4.348233     4.348233     4.348233   -14301.934   -4277.3698   -8515.4877   -30112.944     21853.29    12929.779   -28562.318    82.212607 
    6800     1325.257   -104.24078    1.1991204   -103.04166    7901.8485    4.3418879    4.3418879    4.3418879    7901.8485    -7935.506    10709.029    20932.022     2822.139   -1440.0585    15287.362     81.85323 
    6900    1278.5895   -104.19198    1.1568946   -103.03509    10986.075    4.3403324    4.3403324    4.3403324    10986.075    10064.785    10232.953    12660.486     23018.64   -2015.0147    266.37807    81.765287 
    7000     1376.025   -104.28802    1.2450564   -103.04297   -7499.6204    4.3272074    4.3272074    4.3272074   -7499.6204    19523.237   -42818.154    796.05621    19210.447    10899.665   -8227.3495    81.025766 
    7100    1334.8399   -104.25695    1.2077912   -103.04916    22164.561    4.3341327    4.3341327    4.3341327    22164.561    20512.653    29553.753    16427.276   -8436.5559    -16315.85     19872.37    81.415408 
    7200    1105.7312   -104.04992    1.0004889   -103.04943   -22165.991    4.3486043    4.3486043    4.3486043   -22165.991    10374.468   -44301.639   -32570.801    23988.986    3124.2333   -8732.4766     82.23367 
    7300    1518.3904   -104.40843    1.3738716   -103.03456    9737.8798    4.3335501    4.3335501    4.3335501    9737.8798    39233.912   -2425.6137   -7594.6587   -7398.4897   -6605.9726     14305.16    81.382583 
    7400    1195.7065   -104.11621    1.0819003   -103.03431   -2430.0744    4.3389672    4.3389672    4.3389672   -2430.0744    17671.895   -7014.8127   -17947.306    18197.657   -6370.8142   -3415.4184    81.688159 
    7500    1197.0439   -104.12048    1.0831104   -103.03737   -15768.064    4.3368979    4.3368979    4.3368979   -15768.064    23458.934   -55547.499   -15215.625    9847.2912   -5553.3648    20840.246     81.57134 
    7600    1459.2904   -104.35778    1.3203967   -103.03738    7155.1069    4.3378009    4.3378009    4.3378009    7155.1069     8955.837    5620.4739    6889.0098   -7951.0966     1146.526    829.81343    81.622304 
    7700    912.25157   -103.87348   0.82542439   -103.04806   -11674.325     4.345017     4.345017     4.345017   -11674.325    55042.592   -72083.648    -17981.92    22650.684    9092.7461    13655.704    82.030325 
    7800    1507.0143    -104.4022    1.3635782   -103.03862    3292.5107    4.3301375    4.3301375    4.3301375    3292.5107    24522.828   -16942.005    2296.7092   -6860.6328     4319.819    7524.9101    81.190472 
    7900    1277.8972   -104.20501    1.1562682   -103.04875   -15197.831     4.327859     4.327859     4.327859   -15197.831   -36477.097   -23505.673    14389.278    8621.9637   -15268.092     5742.196    81.062371 
    8000     1462.941   -104.37421    1.3236997   -103.05051   -23677.153     4.341752     4.341752     4.341752   -23677.153   -2064.0215   -48446.948    -20520.49    18489.938    1270.7542    30176.547    81.845544 
    8100    1579.6423   -104.46952    1.4292935   -103.04022   -248.68799    4.3438614    4.3438614    4.3438614   -248.68799   -9498.9918    -11555.93    20308.858   -14183.592   -20490.548   -9524.1998    81.964895 
    8200    763.85721   -103.73981   0.69115405   -103.04866   -7042.9197    4.3334757    4.3334757    4.3334757   -7042.9197    55617.659    -66845.14   -9901.2785    27009.451    5616.5443    42215.206    81.378391 
    8300    1432.9178   -104.33421    1.2965341   -103.03767    24819.845    4.3214841    4.3214841    4.3214841    24819.845    19243.491    7731.8856    47484.157   -8127.4022    9162.2606   -10957.081    80.704688 
    8400    1102.1704   -104.05115   0.99726694   -103.05388   -32927.801    4.3396092    4.3396092    4.3396092   -32927.801    -25451.76    -74972.93    1641.2881    9617.0697   -283.95322    30840.294    81.724423 
    8500    1309.1517   -104.23923     1.184548   -103.05468   -19787.725    4.3340369    4.3340369    4.3340369   -19787.725    168.20855   -36673.958   -22857.426    3888.3647    919.27547    17204.697     81.41001 
    8600    1655.3609   -104.54306    1.4978053   -103.04525    635.11239    4.3290536    4.3290536    4.3290536    635.11239   -28855.269   -25058.483    55819.089   -10227.325    13372.132    -2653.633    81.129517 
    8700    693.57841   -103.68662   0.62756432   -103.05906   -19992.808    4.3442312    4.3442312    4.3442312   -19992.808     1211.092   -57467.536   -3721.9811    17836.133   -3550.5409    27741.592    81.985831 
    8800    1639.5508   -104.52275       1.4835   -103.03925    9206.6736    4.3388102    4.3388102    4.3388102    9206.6736    13913.794   -1714.3399    15420.567   -13654.224    12743.441    -12609.04    81.679293 
    8900    1258.4507   -104.18303    1.1386727   -103.04436   -14946.091    4.3369756    4.3369756    4.3369756   -14946.091    791.20143   -40543.037   -5086.4381    15750.111   -8462.8185    32101.669    81.575726 
    9000    1087.6777   -104.03032   0.98415362   -103.04617   -398.00757    4.3323468    4.3323468    4.3323468   -398.00757    17949.914   -11885.265   -7258.6721   -7921.4726    3380.3657    10548.266    81.314811 
    9100    1373.5858   -104.29319    1.2428493   -103.05034    13142.855    4.3341896    4.3341896    4.3341896    13142.855   -17326.747     6775.333    49979.978   -2315.3718   -2067.1467    2419.9248    81.418616 
    9200    1185.5414   -104.12993    1.0727027   -103.05723   -22591.558    4.3491958    4.3491958    4.3491958   -22591.558   -3607.8052   -29233.516   -34933.354   -768.62574   -13292.063    21501.869    82.267228 
    9300    1589.1226    -104.4692    1.4378715   -103.03133   -1208.8617    4.3361147    4.3361147    4.3361147   -1208.8617   -31127.012   -6910.5954    34411.022   -21524.794    18839.546   -11899.733    81.527155 
    9400    924.03709   -103.86993   0.83608818   -103.03385   -9603.2636    4.3314212    4.3314212    4.3314212   -9603.2636   -18691.106   -19032.753    8914.0682    19169.777   -10673.997    15714.149    81.262702 
    9500    1603.0527   -104.48317    1.4504758   -103.03269    13555.004    4.3311702    4.3311702    4.3311702    13555.004   -20134.136    9579.9365    51219.211   -24985.197    4245.0512   -3919.8317    81.248577 
    9600    1257.1125   -104.18377    1.1374618   -103.04631   -11767.157     4.340398     4.340398     4.340398   -11767.157   -23340.665    -36192.38    24231.575    2128.3903    9193.2437    4167.2094    81.768998 
    9700     1262.318   -104.18712    1.1421719   -103.04494   -2730.6098    4.3414754    4.3414754    4.3414754   -2730.6098   -46130.354   -9839.3984    47777.923   -4578.6719   -5795.2082    5356.1848    81.829905 
    9800    1346.2015    -104.2642    1.2180715   -103.04613     5112.175    4.3317372    4.3317372    4.3317372     5112.175    -3359.572   -14987.235    33683.332   -23098.495    5962.6569    3954.4717    81.280487 
    9900    1410.0681   -104.31684    1.2758593   -103.04098    8397.8655    4.3234194    4.3234194    4.3234194    8397.8655    6628.8901   -11259.345    29824.052    200.76251    1119.0491    12083.165    80.813163 
   10000    1118.4028   -104.06467    1.0119544   -103.05272   -1572.5218    4.3384899    4.3384899    4.3384899   -1572.5218   -29518.117   -18982.092    43782.644   -22975.693   -5515.6996    6490.5695    81.661203 
   10100    1368.3864   -104.28263    1.2381448   -103.04449   -9674.3276    4.3427393    4.3427393    4.3427393   -9674.3276   -7452.0804   -20381.219   -1189.6836    6353.4499   -2563.4336    1303.4059    81.901388 
   10200    1387.7377   -104.29567    1.2556543   -103.04002    2196.6484      4.33097      4.33097      4.33097    2196.6484   -2965.5522   -17759.641    27315.138   -21190.357    715.26424    1812.8592    81.237308 
   10300    1200.2597   -104.12564    1.0860202   -103.03962   -3677.8236    4.3359249    4.3359249    4.3359249   -3677.8236   -33736.201    10086.997    12615.733    6371.1051   -1022.7484    4046.0866    81.516451 
   10400    1261.9383   -104.18594    1.1418283   -103.04411   -15331.598     4.332109     4.332109     4.332109   -15331.598   -1227.6929   -33255.483   -11511.617    1490.3711   -1112.5653   -7269.1726    81.301417 
   10500    1614.0339   -104.50645    1.4604118   -103.04604   -2533.0694    4.3351438    4.3351438    4.3351438   -2533.0694    -38672.04    28585.092    2487.7396   -7485.5684   -13942.741   -3758.0725    81.472405 
   10600    927.56275     -103.894   0.83927827   -103.05472   -3975.7117     4.334856     4.334856     4.334856   -3975.7117    33108.427   -41614.608   -3420.9539    8964.8626   -4209.5694   -9264.9696    81.456176 
   10700    1414.9834   -104.33334    1.2803067   -103.05303   -3240.9945    4.3414403    4.3414403    4.3414403   -3240.9945   -17535.343    3796.7089    4015.6501    2463.5433   -19246.568    7884.0014    81.827918 
   10800     1309.091   -104.23276    1.1844931   -103.04827    -1407.375    4.3392394    4.3392394    4.3392394    -1407.375    33944.547   -4241.8628   -33924.809   -13872.136   -18833.728   -3395.2323    81.703532 
   10900    1281.5622   -104.20556    1.1595844   -103.04598   -8860.8742    4.3300915    4.3300915    4.3300915   -8860.8742    31820.894   -30014.611   -28388.905    19918.338    413.42744     6047.941    81.187886 
   11000    1246.9848   -104.17413     1.128298   -103.04583    3013.0346    4.3358472    4.3358472    4.3358472    3013.0346   -19308.475    38916.752   -10569.174   -19366.259   -44485.902    -755.7461    81.512067 
   11100    1385.2936   -104.29959    1.2534428   -103.04615    1167.4791    4.3341372    4.3341372    4.3341372    1167.4791     21584.68   -5244.3234   -12837.919    21415.811    13315.532    5518.9681    81.415666 
   11200    1018.1597   -103.96486   0.92125229   -103.04361   -1199.9893    4.3411044    4.3411044    4.3411044   -1199.9893   -7033.6293    30441.349   -27007.688     -2415.18   -47523.617    3564.5249    81.808927 
   11300    1562.4171    -104.4498    1.4137079    -103.0361    873.24696    4.3282132    4.3282132    4.3282132    873.24696   -5315.2156    10956.632   -3021.6752    3422.7742   -3839.0751    -5853.594    81.082277 
   11400    1000.2019   -103.95677   0.90500371   -103.05177    11112.656    4.3290183    4.3290183    4.3290183    11112.656      591.454     40613.04   -7866.5246    17863.258   -15478.453    6003.6688    81.127532 
   11500    1524.6628   -104.42232    1.3795469   -103.04277   -25981.415    4.3407924    4.3407924    4.3407924   -25981.415   -38445.462   -7188.6249   -32310.158   -12342.614   -26234.568   -2560.0741    81.791288 
   11600    1293.1244   -104.21506    1.1700461   -103.04502   -5676.0981    4.3371229    4.3371229    4.3371229   -5676.0981    9087.1148   -24541.343   -1574.0665    12826.792    7725.2881   -2141.9133    81.584035 
   11700    1119.9786   -104.06807    1.0133802   -103.05469   -11500.066    4.3314085    4.3314085    4.3314085   -11500.066   -23987.752    5154.3425   -15666.788   -11410.991    -32668.98    15183.157    81.261987 
   11800    1685.8483    -104.5706    1.5253909   -103.04521   -1655.6364    4.3366262    4.3366262    4.3366262   -1655.6364    5431.1654   -14349.549    3951.4743   -11651.952    6417.3375   -5809.6463    81.556011 
   11900    953.76843   -103.91392   0.86298972   -103.05093   -26030.036    4.3423413    4.3423413    4.3423413   -26030.036    -16301.61    -28785.62   -33002.879    6833.1317   -27085.201    7724.4247    81.878874 
   12000    1487.7595   -104.39096    1.3461561   -103.04481    6220.1542    4.3352149    4.3352149    4.3352149    6220.1542   -2938.6179    14605.355    6993.7261   -30212.265   -9200.4451   -3750.9569    81.476411 
   12100    1685.6492    -104.5698    1.5252108   -103.04459    7192.5276    4.3269703    4.3269703    4.3269703    7192.5276   -9579.7832    40167.082   -9009.7163    5611.6793   -2269.1775    8890.9713    81.012448 
   12200    546.36432   -103.56237   0.49436192     -103.068    26256.154    4.3308235    4.3308235    4.3308235    26256.154    10425.711    30744.283    37598.469   -9805.3163   -31463.868    9608.3585    81.229063 
   12300    1839.0252   -104.70025    1.6639887   -103.03626   -10569.212    4.3540017    4.3540017    4.3540017   -10569.212   -27650.546    4261.1424   -8318.2335    9250.7612     1894.125    11142.612    82.540253 
   12400    565.34335   -103.54818   0.51153454   -103.03665    7310.2905    4.3404142    4.3404142    4.3404142    7310.2905   -36037.819    38621.536    19347.155    1702.3821    -44924.27    11108.659    81.769912 
   12500    1588.9924   -104.45387    1.4377537   -103.01612    4631.9773    4.3201762    4.3201762    4.3201762    4631.9773      10534.9   -13605.957    16966.989   -21473.367    4678.0715    3752.4132    80.631434 
   12600    1222.6735   -104.14807    1.1063007   -103.04177   -10864.979    4.3341108    4.3341108    4.3341108   -10864.979   -21522.167     14003.48   -25076.251    6783.8557   -32242.138   -8345.3575    81.414173 
   12700    1517.9679   -104.41302    1.3734893   -103.03953   -35039.108    4.3508649    4.3508649    4.3508649   -35039.108   -42512.037   -46027.851   -16577.435   -33762.081    1924.4518    636.50158    82.361984 
   12800    1516.5467   -104.41054    1.3722033   -103.03834    -18491.02    4.3343916    4.3343916    4.3343916    -18491.02   -26246.031    5304.5305   -34531.558    3025.8234   -22827.339   -19019.746    81.429998 
   12900     942.4587   -103.89632   0.85275644   -103.04356    32938.073    4.3141407    4.3141407    4.3141407    32938.073    4045.5142     12265.27    82503.433   -18453.883   -21506.569     1531.462    80.293968 
   13000    1591.9452   -104.48857    1.4404254   -103.04814   -4124.6427      4.34106      4.34106      4.34106   -4124.6427   -2538.7026    9449.7355   -19284.961    369.47646   -5285.2832   -5978.5934    81.806416 
   13100    1057.4739   -104.00393   0.95682462   -103.04711   -20828.937    4.3472091    4.3472091    4.3472091   -20828.937   -34461.433   -12098.352   -15927.024   -6148.1309   -47825.159    1113.2334    82.154542 
   13200    1276.0303    -104.1961    1.1545791   -103.04152    27482.368      4.32229      4.32229      4.32229    27482.368    23798.761    16203.395    42444.948   -8412.9112    20865.802      3650.51    80.749847 
   13300    1289.2171   -104.22402    1.1665107   -103.05751   -13298.257     4.323242     4.323242     4.323242   -13298.257   -24380.089    27370.608   -42885.291    1374.8342   -37494.039    3640.4295    80.803213 
   13400    1337.0013   -104.27114    1.2097468   -103.06139    -15631.65     4.340025     4.340025     4.340025    -15631.65   -28003.173   -27422.897    8531.1207   -5866.6627   -648.41735   -2207.6953    81.747915 
   13500    1323.7047   -104.24456    1.1977158   -103.04684   -7439.4696    4.3411043    4.3411043    4.3411043   -7439.4696   -22620.896   -7961.4328    8263.9203    3145.7837   -14689.124    1740.9247    81.808921 
   13600     1065.733   -104.01428   0.96429762   -103.04998   -19368.173    4.3356678    4.3356678    4.3356678   -19368.173   -23381.313   -4796.6698   -29926.537   -3383.7078   -22805.848   -10765.021     81.50195 
   13700    1694.1476   -104.57116    1.5329004   -103.03826    23097.607    4.3284714    4.3284714    4.3284714    23097.607    24548.046    13119.942    31624.834    9149.8153    4626.4046   -5451.3465    81.096789 
   13800    965.70282   -103.93184    0.8737882   -103.05806   -7059.7069    4.3371655    4.3371655    4.3371655   -7059.7069   -990.95734    23269.275   -43457.438    8762.0647   -24555.438   -2399.1596     81.58644 
   13900    1517.9543   -104.41792     1.373477   -103.04444    10532.604    4.3553109    4.3553109    4.3553109    10532.604    14421.648    24571.208   -7395.0445    4398.7404    9479.1962   -9165.5143    82.614728 
   14000    1009.5247   -103.94919    0.9134392   -103.03575   -14825.184    4.3529982    4.3529982    4.3529982   -14825.184   -40067.536    44295.019   -48703.034    1418.0946   -24183.009   -5673.6389    82.483192 
   14100    1668.1916    -104.5199    1.5094148   -103.01048    16356.053    4.3253853    4.3253853    4.3253853    16356.053    20995.845    27753.359    318.95437    13057.404    8146.2303   -12075.217    80.923453 
   14200    1000.4898   -103.94216   0.90526418   -103.03689    20835.391    4.3325526    4.3325526    4.3325526    20835.391   -21194.481    37014.234    46686.418   -9922.1275   -16765.005    14862.932    81.326395 
   14300    1516.9303    -104.4056    1.3725504   -103.03305   -47512.552    4.3588714    4.3588714    4.3588714   -47512.552   -59587.466   -20992.122   -61958.068    8083.0805   -15721.694   -7164.3776     82.81751 
   14400    1725.5976   -104.58103     1.561357   -103.01967   -10746.599    4.3502036    4.3502036    4.3502036   -10746.599   -24428.024   -8195.6121    383.83839   -8427.5423   -759.38868    15039.212    82.324434 
   14500    796.18922   -103.75575   0.72040874   -103.03534   -19237.887    4.3372593    4.3372593    4.3372593   -19237.887   -42867.663    9799.4879   -24645.487   -3517.1249   -28385.682    4947.0247    81.591733 
   14600    2048.2603   -104.88138     1.853309   -103.02808   -12832.517    4.3335524    4.3335524    4.3335524   -12832.517   -20354.503   -17542.326   -600.72433    -3111.603    7866.0123    583.22053    81.382713 
   14700    838.56151   -103.80704   0.75874807   -103.04829   -29013.648    4.3523963    4.3523963    4.3523963   -29013.648   -52776.261    14302.529   -48567.211    178.16701   -36571.998    14041.298    82.448979 
   14800    1439.3993   -104.33763    1.3023987   -103.03523    23513.543    4.3378721    4.3378721    4.3378721    23513.543   -17122.873    32352.251     55311.25   -3262.2825    26787.031   -20179.428    81.626321 
   14900    1100.1055   -104.03607   0.99539854   -103.04067    12551.283    4.3245253    4.3245253    4.3245253    12551.283    4334.3997    35081.724   -1762.2744    5383.2989   -27296.815    9630.1694    80.875192 
   15000    1382.9848    -104.3044    1.2513538   -103.05305   -18270.515    4.3506422    4.3506422    4.3506422   -18270.515   -17734.956   -336.05717   -36740.531    3508.4539    7694.7596    744.93297    82.349335 
   15100    1325.8192   -104.23375     1.199629   -103.03413    17787.139    4.3483585    4.3483585    4.3483585    17787.139    6140.9249   -6076.3641    53296.857    1737.3149   -10577.497   -7795.5239    82.219727 
   15200    1046.7786   -103.98102    0.9471473   -103.03387   -7636.0896    4.3331019    4.3331019    4.3331019   -7636.0896   -16140.442    3424.2052   -10192.032   -647.18288   -30377.654    22661.574    81.357336 
   15300     1690.185   -104.55401    1.5293149    -103.0247    34531.691    4.3275236    4.3275236    4.3275236    34531.691    21093.071    11821.019    70680.983    5288.3737    5061.2476   -12722.017    81.043528 
   15400    729.80579   -103.72141   0.66034362   -103.06107   -6822.1499    4.3408608    4.3408608    4.3408608   -6822.1499      16049.2    -18638.61   -17877.039   -7118.1591   -32585.107    18187.474    81.795156 
   15500     1964.142   -104.80852    1.7771969   -103.03133    -19923.78    4.3525551    4.3525551    4.3525551    -19923.78   -38873.652   -25105.747    4208.0606   -5619.0298    185.21079   -4326.7582    82.458009 
   15600    946.17742   -103.89745   0.85612121   -103.04132    7121.2755    4.3313135    4.3313135    4.3313135    7121.2755    32225.883   -3904.3624   -6957.6939    417.89978   -24352.647    13064.603    81.256638 
   15700     1206.323   -104.13716    1.0915064   -103.04565    24135.339    4.3239421    4.3239421    4.3239421    24135.339    31772.345   -5445.8431    46079.514   -10030.682   -17692.727    21318.229    80.842478 
   15800    1774.0268   -104.65525    1.6051768   -103.05007   -19277.182    4.3448647    4.3448647    4.3448647   -19277.182   -18904.928   -25067.105   -13859.511   -1390.4919   -2893.2005   -6109.8586    82.021701 
   15900     680.2003   -103.66442   0.61545952   -103.04896   -2309.2682    4.3532335    4.3532335    4.3532335   -2309.2682    47906.423   -42807.785   -12026.442   -4092.0729   -30655.485    36837.908    82.496571 
   16000    1818.5395   -104.66003    1.6454528   -103.01458    3082.7182    4.3429278    4.3429278    4.3429278    3082.7182    17995.246    13171.658   -21918.749   -2416.5885    10273.201    -9536.424    81.912057 
   16100    1024.8351    -103.9565   0.92729237    -103.0292    -20177.99    4.3242974    4.3242974    4.3242974    -20177.99   -22.413332    -21575.82   -38935.735   -9774.6582   -37029.491    21013.343    80.862407 
   16200      1558.77   -104.44168    1.4104079   -103.03127    27495.849    4.3342466    4.3342466    4.3342466    27495.849    39294.585    26450.323    16742.637   -3450.0017    18361.755    -5753.462    81.421828 
   16300       978.59   -103.93201    0.8854488   -103.04657    -37721.06    4.3486404    4.3486404    4.3486404    -37721.06    -28639.97   -10991.408   -73531.801   -3229.9947   -31228.262    20800.336    82.235718 
   16400    1438.4369   -104.32907    1.3015279   -103.02754    20548.227    4.3403809    4.3403809    4.3403809    20548.227    20323.227    2557.2815    38764.172   -18961.874    6285.5108    6822.8941    81.768029 
   16500    1281.4967   -104.19168    1.1595252   -103.03215   -22934.278    4.3386423    4.3386423    4.3386423   -22934.278   -37980.459    3177.3324   -33999.708     10436.51   -4346.5104    16452.822    81.669809 
   16600    1076.3167    -104.0187   0.97387399   -103.04482   -5229.0973    4.3336558    4.3336558    4.3336558   -5229.0973    1835.0517   -3602.0909   -13920.253   -6160.8641   -34313.169    13226.588    81.388539 
   16700    1715.7531   -104.59124    1.5524494    -103.0388    4188.6246    4.3367071    4.3367071    4.3367071    4188.6246   -12957.178   -4662.0703    30185.123    7574.6966    18670.553   -8983.5876    81.560573 
   16800    650.29591   -103.64893    0.5884014   -103.06053   -13833.561    4.3392293    4.3392293    4.3392293   -13833.561   -22918.761    22552.044   -41133.968    80.430528   -40991.799    19933.373    81.702963 
   16900    2066.2721   -104.90653    1.8696064   -103.03693    2133.3234    4.3405445    4.3405445    4.3405445    2133.3234    10718.728   -27932.996    23614.238    6798.2944    14337.452   -6207.8852    81.777276 
   17000    654.96573   -103.64879   0.59262676   -103.05616   -3232.2008      4.34186      4.34186      4.34186   -3232.2008   -39799.949    19054.022    11049.325    -2806.893   -33662.867    14686.122    81.851652 
   17100     1771.898   -104.64022    1.6032505   -103.03697    6827.4415    4.3380591    4.3380591    4.3380591    6827.4415    2736.0086   -891.62886    18637.945    8030.3293    3220.8805    6195.9934    81.636878 
   17200    988.32919   -103.93977   0.89426102    -103.0455     17489.72    4.3364634    4.3364634    4.3364634     17489.72   -7356.0081    18607.316    41217.853   -229.04651   -13977.881   -2523.9621    81.546825 
   17300     1402.223   -104.31619    1.2687609   -103.04742   -12678.535    4.3428484    4.3428484    4.3428484   -12678.535    -17459.64   -12576.785     -7999.18    8604.2537   -16169.825    20084.259    81.907566 
   17400    1462.2981   -104.36557    1.3231181   -103.04246    15574.714     4.343123     4.343123     4.343123    15574.714    185.67778    13334.571    33203.895    7743.7051   -11488.962    2096.6149      81.9231 
   17500    1006.8581   -103.96468   0.91102634   -103.05365   -16640.113    4.3385921    4.3385921    4.3385921   -16640.113    4590.3075    -1267.282   -53243.365    9343.5026   -30306.253    12942.372    81.666975 
   17600    1696.6818   -104.56606    1.5351933   -103.03086    30716.501    4.3338307    4.3338307    4.3338307    30716.501    33833.199    14521.458    43794.847    8870.2813     17233.36    -10294.97    81.398393 
   17700    725.93321   -103.70791   0.65683963   -103.05108    2659.1438    4.3367257    4.3367257    4.3367257    2659.1438    56131.525   -16843.042   -31311.052   -132.30226   -20465.329    1454.0004    81.561624 
   17800    1700.4761   -104.56905    1.5386265   -103.03042    12740.411    4.3463725    4.3463725    4.3463725    12740.411   -9210.8343    9970.6105    37461.456   -1301.6386    2766.5619    2845.6495    82.107121 
   17900    1184.7215   -104.10805    1.0719609   -103.03608   -24128.011    4.3403611    4.3403611    4.3403611   -24128.011    26853.122   -30505.856   -68731.299   -1519.2746   -14728.239    3193.3888    81.766909 
   18000    1452.4075   -104.34027    1.3141688   -103.02611    15405.615    4.3333607    4.3333607    4.3333607    15405.615    37345.692    19951.436   -11080.282    1406.4188   -19951.455    2769.8782     81.37191 
   18100    1302.4166   -104.20764    1.1784539   -103.02918    4589.7806    4.3350758    4.3350758    4.3350758    4589.7806    7812.1191    17456.342   -11499.119   -8384.9969    5122.4057   -3846.9663    81.468568 
   18200    1096.8835   -104.02983   0.99248324   -103.03735     12857.46    4.3365568    4.3365568    4.3365568     12857.46    66466.756    -10510.92   -17383.455    5540.5182   -23511.288    773.44035    81.552092 
   18300    1763.8995    -104.6249    1.5960133   -103.02889     467.2137    4.3404745    4.3404745    4.3404745     467.2137    24405.412   -25671.558    2667.7869   -531.76844    4082.3177   -6825.7742    81.773322 
   18400    852.39854   -103.81258   0.77126811   -103.04131   -2044.0161    4.3425852    4.3425852    4.3425852   -2044.0161     34705.32    12381.331   -53218.699   -2100.3876   -30515.466    50.615077     81.89267 
   18500    1794.3372     -104.646     1.623554   -103.02244    1326.8678    4.3408431    4.3408431    4.3408431    1326.8678    3546.4971   -26297.852    26731.958   -5734.2605    5720.2836    1520.4234    81.794155 
   18600    840.97929   -103.79601   0.76093573   -103.03508    21280.645    4.3283578    4.3283578    4.3283578    21280.645    109370.23   -22340.859   -23187.439    169.77784   -35.488217    4483.5748    81.090402 
   18700    1730.7917   -104.60768    1.5660567   -103.04162   -2991.6009    4.3423234    4.3423234    4.3423234   -2991.6009   -18718.129   -4984.8447    14728.171   -4967.9654   -11366.689    2767.5923     81.87786 
   18800    1067.8454   -104.00865   0.96620893   -103.04244   -8225.0708    4.3520607    4.3520607    4.3520607   -8225.0708    55915.778   -46676.586   -33914.404    6289.6742    10697.919    7741.9936    82.429912 
   18900    1597.9777   -104.47553    1.4458838   -103.02965   -2688.7035    4.3357699    4.3357699    4.3357699   -2688.7035    2633.5988    9136.8259   -19836.535   -4275.8407    -19005.62   -7877.5316    81.507705 
   19000    1195.5005   -104.12361     1.081714    -103.0419    5248.3421    4.3269652    4.3269652    4.3269652    5248.3421    54025.667    -28800.79   -9479.8507    2449.7173    17057.685    9620.3299    81.012158 
   19100    1280.8185   -104.20631    1.1589115    -103.0474    11423.783    4.3396674    4.3396674    4.3396674    11423.783    33695.613    3942.5578   -3366.8228    6314.8084   -19303.101    138.59671    81.727712 
   19200    1419.6248   -104.32203    1.2845064   -103.03752   -26564.309    4.3606072    4.3606072    4.3606072   -26564.309   -10834.635   -48239.107   -20619.186   -8007.8256    1477.5906    10313.543    82.916491 
   19300    1060.9631   -103.99478   0.95998175    -103.0348    4189.8891     4.340072     4.340072     4.340072    4189.8891    40704.492    -13101.72   -15033.105    10184.664    8274.1618    8684.5775    81.750574 
   19400    1691.8403   -104.55191    1.5308126   -103.02109    13208.554     4.317016     4.317016     4.317016    13208.554   -15019.036    33999.999    20644.701   -11750.952    11722.108     9305.252    80.454616 
   19500     1106.603   -104.05662    1.0012777   -103.05534    -21834.47    4.3446025    4.3446025    4.3446025    -21834.47    21331.231   -48457.305   -38377.335      8596.16     6477.687    11286.237    82.006851 
   19600    1149.8831   -104.07647    1.0404384   -103.03603    4638.1544    4.3533636    4.3533636    4.3533636    4638.1544    -7441.343    44397.771   -23041.965   -14755.544    22315.149    2738.2209    82.503964 
   19700    1352.6248   -104.24721    1.2238834   -103.02332   -6682.3687    4.3428848    4.3428848    4.3428848   -6682.3687    33718.386   -22460.728   -31304.765     7144.029    -10655.42    5970.3366    81.909623 
   19800    1238.0611   -104.14085    1.1202237   -103.02063    15286.473    4.3333116    4.3333116    4.3333116    15286.473    33150.533    15243.336   -2534.4487   -872.59588    36599.727     14112.94    81.369148 
   19900    1426.2273   -104.32171    1.2904804   -103.03123    7942.7438    4.3354924    4.3354924    4.3354924    7942.7438    3669.4015    39007.134   -18848.304   -5725.1271   -13113.455   -6845.4923    81.492059 
   20000    1334.9146   -104.23889    1.2078588   -103.03103   -15844.643    4.3529082    4.3529082    4.3529082   -15844.643    13142.413   -7254.6199   -53421.723    9509.0469    26917.023    20592.605    82.478077 
   20100    1441.5974   -104.32761    1.3043877   -103.02322    11930.734     4.335842     4.335842     4.335842    11930.734   -30316.556    42762.405    23346.353    1469.5722    5886.1986    5548.2245    81.511771 
   20200    1193.9692   -104.11025    1.0803284   -103.02992    8151.4861    4.3346985    4.3346985    4.3346985    8151.4861    31285.396    13952.484   -20783.421   -10332.162    -869.8928     7485.401      81.4473 
   20300    1226.3244   -104.14382    1.1096041   -103.03422    12012.261    4.3470584    4.3470584    4.3470584    12012.261   -873.51348     38975.93   -2065.6336   -15185.128    8452.1371    2870.4483    82.145999 
   20400    1151.0171   -104.08108    1.0414645   -103.03962   -1695.8041    4.3443266    4.3443266    4.3443266   -1695.8041    4566.7386   -25597.797    15943.646   -16049.495   -7102.8803    4926.2998    81.991229 
   20500    1500.8133   -104.39399    1.3579674   -103.03603   -11768.016    4.3361703    4.3361703    4.3361703   -11768.016   -13290.015    22404.487   -44418.519    3638.1674    30016.282    5293.8131    81.530291 
   20600    1170.4935   -104.09822    1.0590872   -103.03913    20621.774    4.3347394    4.3347394    4.3347394    20621.774    14185.735    8827.7983     38851.79     -13196.2   -5108.7225   -1431.8189    81.449604 
   20700    1387.5915   -104.29839     1.255522   -103.04287   -9133.6627    4.3486143    4.3486143    4.3486143   -9133.6627    12617.789   -16574.746   -23444.031    7307.2392    25986.995    10254.373    82.234239 
   20800    1350.7998   -104.26085     1.222232   -103.03861    -6594.263    4.3439314    4.3439314    4.3439314    -6594.263   -9994.4598    6021.4781   -15809.807   -19818.443    5808.2812   -22605.429    81.968854 
   20900    1156.9064   -104.07658    1.0467932   -103.02979    30804.622    4.3140931    4.3140931    4.3140931    30804.622    21110.097    37877.445    33426.323   -4434.7468    1650.7583    15276.795    80.291308 
   21000    1648.5654   -104.53716    1.4916567   -103.04551   -3679.0996    4.3335214    4.3335214    4.3335214   -3679.0996   -13934.081    16008.389   -13111.607   -6017.0922    30614.394   -16866.066    81.380966 
   21100    1191.2849   -104.11159    1.0778996   -103.03369   -38196.108     4.350694     4.350694     4.350694   -38196.108   -45134.278   -32944.301   -36509.746    -25366.02   -1931.1069   -14540.038    82.352278 
   21200    1409.5433   -104.29447    1.2753844   -103.01908    7932.5175    4.3359886    4.3359886    4.3359886    7932.5175   -17438.421    25911.938    15324.035    11439.297    25342.851    13708.297    81.520042 
   21300     1173.171   -104.09341    1.0615098    -103.0319   -17005.125    4.3344597    4.3344597    4.3344597   -17005.125   -6183.2671   -34740.353   -10091.754   -19502.751     596.7683   -24440.173    81.433839 
   21400    1535.0691   -104.42398    1.3889628   -103.03502   -917.99302    4.3317294    4.3317294    4.3317294   -917.99302   -997.81757    6457.8616   -8214.0231     8671.428     17583.92    9265.5665    81.280047 
   21500    1159.2703   -104.09407    1.0489321   -103.04514   -6641.6138    4.3397002    4.3397002    4.3397002   -6641.6138   -10891.256   -11174.517    2140.9319   -28073.711    7016.0033   -17933.793    81.729565 
   21600    1007.6795   -103.96061   0.91176959   -103.04884    12217.525    4.3323151    4.3323151    4.3323151    12217.525    12964.851    25864.809   -2177.0856   -10275.124   -2208.7863    1532.1841    81.313023 
   21700    1474.1771   -104.37064    1.3338664   -103.03678    20501.227    4.3353183    4.3353183    4.3353183    20501.227   -7412.4756     1579.073    67337.084   -8179.8625    21119.071   -4651.0032    81.482242 
   21800     860.1968   -103.83443   0.77832414    -103.0561   -26447.076    4.3338069    4.3338069    4.3338069   -26447.076   -23405.752   -31085.673   -24849.803    -23330.59   -24218.476   -22135.466    81.397051 
   21900    1922.1714   -104.78026     1.739221   -103.04104    15098.537    4.3319299    4.3319299    4.3319299    15098.537   -12961.874    26770.392    31487.092    15277.903    15422.535    13207.786    81.291334 
   22000    863.49671   -103.83428   0.78130997   -103.05297   -28052.675    4.3402254    4.3402254    4.3402254   -28052.675   -37944.519   -32044.775   -14168.732   -36671.048   -20591.946   -18122.346    81.759241 
   22100    1515.4528   -104.41267    1.3712135   -103.04146   -867.35844    4.3303687    4.3303687    4.3303687   -867.35844   -24505.022     23772.23   -1869.2835    2535.8603   -554.73911    1550.6285    81.203475 
   22200    1344.4886   -104.25926    1.2165215   -103.04274    -15935.59    4.3384454    4.3384454    4.3384454    -15935.59   -49582.164   -36815.629    38591.025   -19079.477   -3890.2548    3212.8495    81.658687 
   22300     1086.575   -104.03622   0.98315591   -103.05307    5403.1388    4.3343654    4.3343654    4.3343654    5403.1388   -23304.658    14698.468    24815.606   -9820.6335   -13310.628   -14246.758    81.428524 
   22400    1541.2764    -104.4395    1.3945793   -103.04492    6061.2644    4.3352601    4.3352601    4.3352601    6061.2644   -18130.232    12451.325      23862.7   -472.53342     9382.277   -14010.452    81.478959 
   22500    923.11937    -103.8907    0.8352578   -103.05544    3561.8631    4.3341441    4.3341441    4.3341441    3561.8631   -53710.843   -767.46401    65163.896   -14470.959   -2427.2676   -2428.6503    81.416049 
   22600    1613.5671   -104.50315    1.4599894   -103.04316    9054.3424    4.3390289    4.3390289    4.3390289    9054.3424    1538.0025    22742.943    2882.0821    1313.3643   -440.14291   -14893.344    81.691643 
   22700    1155.3328   -104.09004    1.0453694   -103.04467    -17229.12    4.3378349    4.3378349    4.3378349    -17229.12   -31967.171   -23092.906    3372.7168   -25121.928    7593.7276    5489.4795    81.624221 
   22800    1328.7584    -104.2379    1.2022885   -103.03562    27746.976    4.3355214    4.3355214    4.3355214    27746.976   -12367.204    21574.585    74033.547    7769.7162   -1488.1949   -17287.089    81.493692 
   22900    1416.8453    -104.3247    1.2819914   -103.04271   -27780.728    4.3432288    4.3432288    4.3432288   -27780.728   -34624.903   -35578.291   -13138.991   -26409.198    20550.754    14859.583    81.929087 
   23000    1240.0954   -104.16326    1.1220644   -103.04119    32606.264    4.3328703    4.3328703    4.3328703    32606.264    5896.6088    22233.521    69688.662    8621.1026   -66.576038    -7530.625    81.344287 
   23100    1185.6474   -104.12123    1.0727987   -103.04843    12237.902    4.3330098    4.3330098    4.3330098    12237.902    -39336.17    29692.996    46356.881   -10777.807    7147.7731    8706.8522    81.352145 
   23200    1425.1307   -104.34267    1.2894882   -103.05318    -22618.95    4.3399938    4.3399938    4.3399938    -22618.95   -42379.549   -10668.158   -14809.143   -4358.4919    10065.044    2077.8202    81.746154 
   23300    1450.2216   -104.36266     1.312191   -103.05047    16549.634    4.3387049    4.3387049    4.3387049    16549.634   -5715.3649    26219.235    29145.032    7845.2428    2310.8377   -12178.081    81.673346 
   23400     1063.188   -104.02351   0.96199482   -103.06152   -13332.869    4.3299868    4.3299868    4.3299868   -13332.869   -44921.093   -15848.775     20771.26   -27923.673    20652.218    7591.8621    81.181993 
   23500    1466.9485    -104.3793    1.3273258   -103.05197     8756.939    4.3295518    4.3295518    4.3295518     8756.939   -27649.035    57075.772   -3155.9205    14782.763   -16251.554   -2146.2121    81.157529 
   23600    1068.8769   -104.02751    0.9671423   -103.06037   -15128.037    4.3340817    4.3340817    4.3340817   -15128.037   -38292.471   -3919.0061    -3172.633   -29347.903    18459.928   -5761.6032    81.412538 
   23700    1621.5726   -104.51175    1.4672329   -103.04452   -1871.2231    4.3318403    4.3318403    4.3318403   -1871.2231   -20903.831    19425.002   -4134.8401   -2587.5676   -1601.2228    10330.331     81.28629 
   23800    1096.0793   -104.03825   0.99175557    -103.0465   -2566.3175    4.3335124    4.3335124    4.3335124   -2566.3175   -53716.679    10050.413    35967.313   -12410.253   -4666.2479   -669.73792    81.380457 
   23900    1181.0595    -104.1197    1.0686474   -103.05105   -13339.824    4.3297578    4.3297578    4.3297578   -13339.824   -19017.945   -14208.026   -6793.5003   -23302.458    14813.071    4341.7669    81.169113 
   24000    1730.6837   -104.60992     1.565959   -103.04396     13545.65    4.3303847    4.3303847    4.3303847     13545.65   -2538.6731    26869.372     16306.25   -825.37002   -6830.9902    13958.999    81.204379 
   24100    962.33473   -103.93372   0.87074068   -103.06298   -30248.897    4.3300855    4.3300855    4.3300855   -30248.897   -70325.624   -10638.989   -9782.0777   -33646.637    22069.515   -8994.7793    81.187544 
   24200    1414.8722   -104.33545    1.2802061   -103.05525    31963.048    4.3244502    4.3244502    4.3244502    31963.048    11549.407    40832.078    43507.658    4828.2523    1152.2334    8992.4634    80.870979 
   24300    1180.7755   -104.12915    1.0683905   -103.06076    -29002.39    4.3434068    4.3434068    4.3434068    -29002.39   -37835.829   -38078.123   -11093.218   -34734.687    19033.529    1210.3531    81.939165 
   24400     1192.629   -104.12516    1.0791158   -103.04605     3975.322    4.3334595    4.3334595    4.3334595     3975.322   -30839.602    20791.781    21973.788   -7393.0577    7025.5472   -9068.0959    81.377476 
   24500    1406.9526   -104.31524    1.2730403    -103.0422   -1125.2854    4.3306618    4.3306618    4.3306618   -1125.2854   -15381.038   -6347.6581     18352.84   -6195.6051   -4131.7256    3706.4184    81.219966 
   24600    1063.0067   -104.00895   0.96183082   -103.04712   -26459.715    4.3391302    4.3391302    4.3391302   -26459.715   -55235.351   -16310.203   -7833.5921   -39111.657    24161.658   -3103.5545    81.697365 
   24700    1674.7576   -104.55217    1.5153558   -103.03682    1543.0921    4.3287636    4.3287636    4.3287636    1543.0921    3935.0744     5496.232   -4802.0301    16532.148   -10859.057    5919.1722    81.113213 
   24800    833.32495   -103.80902   0.75400993   -103.05501   -35216.918    4.3418097    4.3418097    4.3418097   -35216.918   -61814.047   -46261.305    2424.5965   -39753.266    20194.947      11327.4     81.84881 
   24900     1734.798   -104.61387    1.5696817   -103.04419    550.49745    4.3341615    4.3341615    4.3341615    550.49745    16465.597   -33.388593   -14780.716   -3970.0298    2209.8431   -104.76017    81.417035 
   25000    1176.2176   -104.12146    1.0642664   -103.05719   -3663.4787    4.3385719    4.3385719    4.3385719   -3663.4787   -17921.217   -20715.195    27645.976   -19908.161    14452.448    18385.159    81.665834 
   25100    867.24601   -103.84228   0.78470242   -103.05757   -16075.343    4.3445859    4.3445859    4.3445859   -16075.343   -36308.667    5692.5378   -17609.898   -12416.526    17279.474   -183.32428     82.00591 
   25200    1776.9672   -104.63786    1.6078373   -103.03002    18363.279    4.3377956    4.3377956    4.3377956    18363.279    13322.933    14952.601    26814.302   -9164.5709   -7298.6242   -3890.1164    81.622003 
   25300    773.03713   -103.74578   0.69946024   -103.04632   -26638.322    4.3462315    4.3462315    4.3462315   -26638.322    -27433.32   -8232.6261   -44249.019     -20810.4    34929.632    4324.8247    82.099135 
   25400    1655.7188   -104.53215    1.4981292   -103.03402   -834.15456    4.3378118    4.3378118    4.3378118   -834.15456    -28041.89    1471.9366     24067.49    13798.459   -8428.5577   -7643.9456    81.622918 
   25500    957.15669   -103.91682   0.86605549   -103.05077    9573.0843    4.3408323    4.3408323    4.3408323    9573.0843    5875.7736    43598.639    -20755.16   -25997.109    22492.886    9747.0781    81.793542 
   25600    1467.5112   -104.37723     1.327835    -103.0494   -33311.449    4.3407895    4.3407895    4.3407895   -33311.449   -40571.165    -13281.03   -46082.152    3075.2882    23016.638   -6004.8641    81.791127 
   25700    1269.9307   -104.19357      1.14906   -103.04451      22919.9    4.3394953    4.3394953    4.3394953      22919.9    17514.893    66815.367    -15570.56    1838.2637   -2296.8002    5634.5708     81.71799 
   25800    1019.2981   -103.97531    0.9222823   -103.05303   -24121.859    4.3430328    4.3430328    4.3430328   -24121.859   -58468.716   -2152.6961   -11744.164    -28376.69    39369.986    6362.4687    81.917998 
   25900    1437.9028   -104.34169    1.3010447   -103.04065    17272.974    4.3376956    4.3376956    4.3376956    17272.974    20360.189    43996.554   -12537.822    31349.139   -4861.0952    -1645.783    81.616361 
   26000    1322.1522   -104.25254    1.1963111   -103.05623   -18608.894    4.3471397    4.3471397    4.3471397   -18608.894   -66578.759    7460.2556    3291.8208   -21332.115    19068.702   -11460.378     82.15061 
   26100    921.75235   -103.89386    0.8340209   -103.05984    14184.595    4.3449812    4.3449812    4.3449812    14184.595    8754.8485     35420.66   -1621.7254    16108.488   -338.13726   -12652.272    82.028297 
   26200    1722.0517   -104.60458    1.5581486   -103.04644   -17636.911    4.3455295    4.3455295    4.3455295   -17636.911   -12848.751    -3816.033    -36245.95   -7535.2253    5565.6504    8176.6469    82.059359 
   26300    852.70369   -103.82445   0.77154422   -103.05291    26989.461    4.3409439    4.3409439    4.3409439    26989.461    10455.437    66255.916    4257.0299   -6438.9256    12157.078   -6778.6498    81.799855 
   26400    1312.7274   -104.24335    1.1877833   -103.05557    -21036.57    4.3503998    4.3503998    4.3503998    -21036.57   -16967.759   -42886.593   -3255.3595    14756.105   -7459.2866    16674.115    82.335571 
   26500    1366.8089   -104.28343    1.2367174   -103.04671   -8217.0746    4.3427483    4.3427483    4.3427483   -8217.0746   -1678.3548    30297.595   -53270.464    -2765.528    21807.088   -4150.1657    81.901901 
   26600    1109.1347   -104.05179    1.0035684   -103.04822    18282.993    4.3434313    4.3434313    4.3434313    18282.993    7436.8354    38165.333    9246.8113    15442.666   -6490.3934    3303.9075    81.940549 
   26700    1439.8978   -104.35877    1.3028498   -103.05592   -38940.312    4.3497924    4.3497924    4.3497924   -38940.312   -36765.119   -11582.311   -68473.506    1228.2929    14239.545   -6817.6508    82.301091 
   26800     1331.943   -104.26275      1.20517   -103.05758    5431.7114    4.3367408    4.3367408    4.3367408    5431.7114   -6020.0127    16939.684     5375.463    12947.522    8210.6539   -1760.0725    81.562474 
   26900    1335.5323   -104.26462    1.2084177    -103.0562    35174.714    4.3348979    4.3348979    4.3348979    35174.714    41731.951    59084.375    4707.8154    7769.1735   -2462.0811   -6323.1856     81.45854 
   27000    1160.1152   -104.11163    1.0496966   -103.06194   -32772.906    4.3497237    4.3497237    4.3497237   -32772.906   -29634.535   -20027.633   -48656.551   -8217.3912    9798.9893    5754.3296    82.297192 
   27100    1359.4247   -104.28017     1.230036   -103.05013    8529.8337    4.3439226    4.3439226    4.3439226    8529.8337    19334.158    32078.544     -25823.2    1740.5216   -11333.455   -4010.0071    81.968355 
   27200    1617.5906   -104.51529      1.46363   -103.05166    2424.2165     4.335489     4.335489     4.335489    2424.2165    37281.141    -1619.451   -28389.041   -16875.002     20171.89   -2514.8169    81.491869 
   27300    841.77232   -103.82754   0.76165328   -103.06589    3323.2842    4.3365575    4.3365575    4.3365575    3323.2842    55783.818   -933.58237   -44880.383   -6008.7917    -7513.276   -7628.6078    81.552132 
   27400    1638.0927   -104.54085    1.4821807   -103.05866   -6878.3384    4.3491455    4.3491455    4.3491455   -6878.3384   -1238.3917   -6430.4494   -12966.174   -4507.8185    -14682.79   -6429.5505    82.264376 
   27500     1096.727   -104.04851   0.99234164   -103.05617    25228.501    4.3391385    4.3391385    4.3391385    25228.501    66597.756    7320.6192    1767.1269   -10953.986    225.05506   -1270.5181    81.697836 
   27600    1141.8005   -104.08935    1.0331251   -103.05623   -21426.971    4.3444964    4.3444964    4.3444964   -21426.971   -20310.873   -6496.8054   -37473.236    13712.993   -16813.067   -314.65217    82.000844 
   27700    1334.2024   -104.24596    1.2072144   -103.03874    21019.856     4.343844     4.343844     4.343844    21019.856     24504.41    26383.193    12171.967   -18457.823   -3367.8112    4795.3272    81.963908 
   27800    1136.5333    -104.0811    1.0283592   -103.05274   -21051.941    4.3425593    4.3425593    4.3425593   -21051.941   -11059.235   -11868.103   -40228.484     380.7234    3363.9358    2340.7277    81.891206 
   27900    1292.0093   -104.22401    1.1690372   -103.05497    -1911.362    4.3324313    4.3324313    4.3324313    -1911.362    12989.835    13578.548   -32302.469   -16266.904    -6214.864    5667.8064    81.319565 
   28000    1287.4587   -104.22521    1.1649197   -103.06029    6080.6046    4.3375118    4.3375118    4.3375118    6080.6046     46230.33   -24738.797   -3249.7195   -12943.865    5589.4579   -551.14074    81.605987 
   28100    1512.8057   -104.42337    1.3688184   -103.05455   -28709.869    4.3499121    4.3499121    4.3499121   -28709.869   -13690.479   -18176.363   -54262.765    200.10518    -7165.244   -1319.4676    82.307887 
   28200    910.77659   -103.87592    0.8240898   -103.05183    23048.329     4.328953     4.328953     4.328953    23048.329    69859.737   -19880.222    19165.472   -21301.383    15733.162    6754.9275    81.123863 
   28300    1628.3179   -104.52469    1.4733362   -103.05136    11927.715    4.3212007    4.3212007    4.3212007    11927.715    28221.119   -12678.385     20240.41   -2475.1685   -13039.157   -8831.4944    80.688813 
   28400    1354.5688   -104.29715    1.2256423    -103.0715   -1914.2479    4.3356858    4.3356858    4.3356858   -1914.2479    27291.716   -24523.544    -8510.916   -20105.452    6148.0555    9560.5751    81.502965 
   28500    992.29487   -103.96865   0.89784925    -103.0708   -11592.529    4.3523593    4.3523593    4.3523593   -11592.529   -14393.068   -41209.369    20824.852   -20730.824   -9318.1038    5500.0071    82.446882 
   28600    1596.2534   -104.48418    1.4443236   -103.03985    15813.937    4.3388786    4.3388786    4.3388786    15813.937    62335.137   -33071.948    18178.621    4723.3891    4388.4338    2079.5184    81.683154 
   28700    937.42078    -103.8944   0.84819802    -103.0462   -20440.898    4.3289085    4.3289085    4.3289085   -20440.898   -26432.678   -33975.079   -914.93664   -29290.522    13784.603    2424.1452    81.121361 
   28800    1683.1894   -104.57001    1.5229851   -103.04702   -7747.1213    4.3301029    4.3301029    4.3301029   -7747.1213   -16292.465   -9458.6951    2509.7965    19087.242    466.56303    14192.648    81.188527 
   28900    1263.4054    -104.2017    1.1431557   -103.05855    11202.335    4.3396372    4.3396372    4.3396372    11202.335    60141.574    -37920.92     11386.35   -25792.005     12843.28   -7491.0526    81.726002 
   29000    931.54185   -103.90532   0.84287864   -103.06244   -6618.5827    4.3399282    4.3399282    4.3399282   -6618.5827    6480.7446   -29421.804    3085.3113    305.48644    3485.6627    9842.2066    81.742447 
   29100    1547.9043   -104.45422    1.4005764   -103.05364   -1116.8192    4.3363604    4.3363604    4.3363604   -1116.8192    10406.717   -6952.4507   -6804.7236     12354.35   -5205.2299   -1499.4547    81.541017 
   29200    1560.1595   -104.46332    1.4116651   -103.05166   -4169.8959    4.3376582    4.3376582    4.3376582   -4169.8959    22341.209   -35860.056    1009.1591   -4403.7474    2017.7426    4794.0984    81.614246 
   29300    646.42823   -103.64688   0.58490185   -103.06198    1758.7231    4.3356206    4.3356206    4.3356206    1758.7231    45465.473   -18002.192   -22187.111    31316.148    15085.993   -2312.3572    81.499286 
   29400    1634.5173    -104.5335    1.4789456   -103.05455   -14877.317    4.3397136    4.3397136    4.3397136   -14877.317   -7088.2501    412.03555   -37955.738   -3217.0878   -42527.692    2938.2745    81.730321 
   29500    1603.9179   -104.50257    1.4512586   -103.05131   -4558.9092    4.3327154    4.3327154    4.3327154   -4558.9092    13900.211   -25685.398     -1891.54    10229.737    10362.883    6404.2302    81.335565 
   29600    663.52469   -103.66627   0.60037109    -103.0659   -9672.4979    4.3351659    4.3351659    4.3351659   -9672.4979    16397.876   -6037.8416   -39377.528    4361.4654   -18809.412    628.39453     81.47365 
   29700    1346.7494   -104.27159    1.2185671   -103.05303    20896.928    4.3424628    4.3424628    4.3424628    20896.928    53377.137    -15850.72    25164.367   -11218.729    15308.043    17100.921    81.885748 
   29800    1393.2675   -104.31403    1.2606577   -103.05337   -28472.312    4.3484781    4.3484781    4.3484781   -28472.312   -37002.326   -15907.182   -32507.429    13817.714   -16082.585   -6364.3148    82.226513 
   29900    1130.5525   -104.07241    1.0229477   -103.04946   -2635.1299    4.3305873    4.3305873    4.3305873   -2635.1299   -2584.4788    22149.342   -27470.253   -468.35706   -11804.505    10447.382    81.215777 
   30000     1325.418   -104.24861     1.199266   -103.04934    21894.136    4.3303362    4.3303362    4.3303362    21894.136    26983.494   -15111.057    53809.973     6412.056   -7967.0052   -2451.8101     81.20165 
   30100    1148.7614   -104.10999    1.0394234   -103.07057   -64.544073    4.3341047    4.3341047    4.3341047   -64.544073   -14388.743    17558.723   -3363.6117    9343.6611   -22148.522   -3138.5188    81.413832 
   30200    1643.4242   -104.56615    1.4870047   -103.07914   -12881.753    4.3366172    4.3366172    4.3366172   -12881.753   -9932.8066   -3757.9138   -24954.538    -17063.96    7429.9969    11435.664    81.555501 
   30300    1487.1555   -104.41607    1.3456095   -103.07046   -3765.0313    4.3387433    4.3387433    4.3387433   -3765.0313   -5706.3614   -29417.208    23828.476   -4491.2187   -8778.0158    1380.9282    81.675514 
   30400    784.31075     -103.786   0.70966085   -103.07634   -11388.399    4.3364445    4.3364445    4.3364445   -11388.399   -31043.885    2284.0452   -5405.3582   -9033.4489   -5630.0745    11996.869    81.545759 
   30500    1660.6283   -104.56834    1.5025714   -103.06577    1612.0131     4.329166     4.329166     4.329166    1612.0131    14754.749   -16748.093     6829.384   -14507.523    5050.9503    8471.6063    81.135835 
   30600    1424.3841   -104.35646    1.2888127   -103.06765   -4121.5018    4.3293352    4.3293352    4.3293352   -4121.5018    12000.272    6057.4505   -30422.228    9092.7292   -28793.001   -8127.6521    81.145348 
   30700    744.17147   -103.75017   0.67334199   -103.07683    7533.1861    4.3374034    4.3374034    4.3374034    7533.1861   -5817.8599   -6194.2273    34611.645   -10012.056    8896.5379    9904.3023    81.599868 
   30800    1786.4107    -104.6771    1.6163819   -103.06072   -18708.011    4.3315868    4.3315868    4.3315868   -18708.011   -12679.606   -10637.845   -32806.582    9914.1995   -27206.462   -8494.1159    81.272024 
   30900    1045.3405    -104.0103   0.94584609   -103.06445     11177.38     4.320202     4.320202     4.320202     11177.38    3104.0882    43364.174   -12936.122   -8239.7417    19561.391    3067.7749    80.632875 
   31000    1311.0761   -104.25273    1.1862892   -103.06644   -31164.622    4.3324705    4.3324705    4.3324705   -31164.622     -9951.12   -71086.625   -12456.119     856.9737    2842.5367    7400.9521    81.321772 
   31100    1496.5894   -104.40897    1.3541455   -103.05483    9844.2399    4.3339545    4.3339545    4.3339545    9844.2399    34907.559    13431.585   -18806.425    8091.0862    7110.4035   -9450.8013     81.40537 
   31200     924.7199   -103.89309     0.836706   -103.05638   -34224.999     4.343726     4.343726     4.343726   -34224.999    -32555.37   -36921.325   -33198.301    3913.8849    21840.934    12945.516    81.957232 
   31300    1499.3984   -104.40313    1.3566872   -103.04645    1653.9218    4.3161067    4.3161067    4.3161067    1653.9218    5712.2235   -37458.245    36707.787    16063.062   -165.79018   -4281.3154     80.40379 
   31400     1401.966   -104.32681    1.2685283   -103.05828    16156.827    4.3207571    4.3207571    4.3207571    16156.827    54185.421    1726.9123   -7441.8506    990.80876    21290.833   -3433.6968    80.663964 
   31500    1093.5726   -104.05312    0.9894875   -103.06363   -18573.173    4.3363487    4.3363487    4.3363487   -18573.173   -46551.147   -15865.975    6697.6018    21380.998    -5573.189    14127.665    81.540353 
   31600    1372.8006    -104.2937    1.2421388   -103.05157    9221.0362    4.3345472    4.3345472    4.3345472    9221.0362    42286.672   -24849.615    10226.051    1207.0388    9207.6855   -9144.6875    81.438773 
   31700    1245.4291   -104.17453    1.1268904   -103.04764   -9905.0018    4.3392625    4.3392625    4.3392625   -9905.0018   -7950.2679   -4751.2912   -17013.446    17209.147    5200.3083   -1573.7378    81.704838 
   31800     1367.753    -104.2876    1.2375717   -103.05003    5650.5224    4.3167025    4.3167025    4.3167025    5650.5224    2857.1273   -23578.552    37672.992    23684.507   -3953.8283    8844.3576    80.437093 
   31900    1397.1998   -104.32392    1.2642157    -103.0597     8632.525    4.3229785    4.3229785    4.3229785     8632.525    40099.125   -13888.826   -312.72433   -3665.4306    3101.5919   -28767.857    80.788439 
   32000    1253.3307   -104.19375      1.13404   -103.05971   -3664.6558    4.3339205    4.3339205    4.3339205   -3664.6558    -5963.115   -9280.6297    4249.7774    34955.978    2759.1358    6059.4127    81.403453 
   32100    1151.4777   -104.09981    1.0418812   -103.05793    6892.6866    4.3354968    4.3354968    4.3354968    6892.6866    10022.906   -23406.539    34061.693   -12905.251   -4843.5898   -8347.5899    81.492309 
   32200    1549.5346   -104.45689    1.4020515   -103.05484    -12383.25    4.3315724    4.3315724    4.3315724    -12383.25   -13116.962   -14618.764   -9414.0235    9413.3976    377.74127   -14949.303    81.271211 
   32300    1266.8409   -104.19939    1.1462643   -103.05313     28825.19    4.3194724    4.3194724    4.3194724     28825.19    9194.8118    5434.6139    71846.143    13658.305    7059.5494    3356.4134    80.592032 
   32400    900.49005   -103.87755   0.81478232   -103.06277    -32297.12    4.3395213    4.3395213    4.3395213    -32297.12   -17344.346   -41225.155   -38321.858   -32926.325    -3256.846   -18798.598    81.719458 
   32500     1590.259   -104.49141    1.4388997   -103.05251    6320.4671    4.3245231    4.3245231    4.3245231    6320.4671   -1025.6701    3589.1624    16397.909    27926.027    14587.634    5332.1634    80.875069 
   32600    1420.0899   -104.34266    1.2849272   -103.05773    3469.3287    4.3248471    4.3248471    4.3248471    3469.3287   -15689.416   -12218.965    38316.367   -20625.296   -6645.0093   -13334.723    80.893247 
   32700    893.60775   -103.87171   0.80855507   -103.06315    -17651.65    4.3353869    4.3353869    4.3353869    -17651.65    3495.5533   -8092.3086   -48358.196   -3442.4156    12347.718    844.41736     81.48611 
   32800    1485.3585   -104.39764    1.3439835   -103.05365    14269.162    4.3251892    4.3251892    4.3251892    14269.162   -17676.307   -8006.3246    68490.116    3029.7223    7031.3273   -1026.7561    80.912444 
   32900    1454.4921   -104.37832     1.316055   -103.06227   -19299.468    4.3359203    4.3359203    4.3359203   -19299.468   -11094.271   -31719.296   -15084.836   -11237.605   -4131.9336   -3080.5189    81.516187 
   33000    1106.7032   -104.06406    1.0013683   -103.06269      16104.1    4.3272292    4.3272292    4.3272292      16104.1    -7294.392   -4658.1279    60264.821    5687.2378    15156.025    8931.6208    81.026986 
   33100    1367.8572   -104.29973     1.237666   -103.06206    -18326.39    4.3281147    4.3281147    4.3281147    -18326.39   -30514.126   -9411.5469   -15053.496    -9355.553   -13025.549   -10397.394     81.07674 
   33200    1315.0044   -104.25166    1.1898437   -103.06182   -2602.1739    4.3295044    4.3295044    4.3295044   -2602.1739    1077.9297   -19611.452    10727.001    3481.0071   -1172.9368    6313.2166    81.154864 
   33300    1113.2527   -104.07259    1.0072944    -103.0653   -20827.815    4.3327673    4.3327673    4.3327673   -20827.815   -45446.647    10222.728   -27259.525   -6332.3967    10248.207    7678.7325    81.338486 
   33400    1553.6709   -104.45619    1.4057941    -103.0504    5455.1875    4.3221015    4.3221015    4.3221015    5455.1875   -25911.036    10127.581    32149.018   -4975.3722   -19137.221   -4707.9737     80.73928 
   33500    1188.7171   -104.13369    1.0755762   -103.05811   -7146.6595    4.3273918    4.3273918    4.3273918   -7146.6595    7036.5413   -18239.365   -10237.155    7729.4235    20532.805    16141.999     81.03612 
   33600    1003.3227   -103.97307   0.90782749   -103.06524   -21998.143    4.3343806    4.3343806    4.3343806   -21998.143   -60560.981    24455.166   -29888.616   -12899.293   -20540.481    1242.0268    81.429383 
   33700    1710.0963   -104.59462    1.5473311   -103.04729    24703.197    4.3243449    4.3243449    4.3243449    24703.197     18446.37     11800.56    43862.661    11002.526    8431.6402    1338.4748    80.865074 
   33800     1034.842    -103.9974   0.93634679   -103.06106   -28188.832    4.3341883    4.3341883    4.3341883   -28188.832   -21914.218   -7528.7397   -55123.539   -1922.4348   -6770.7876    9771.1191    81.418543 
   33900    1281.3333   -104.21791    1.1593773   -103.05854    4461.7165     4.327464     4.327464     4.327464    4461.7165   -23470.249    12353.417    24501.982    243.49435   -10832.781   -9176.3736    81.040178 
   34000     1958.345    -104.8225    1.7719517   -103.05055   -4345.0177    4.3297122    4.3297122    4.3297122   -4345.0177   -11201.531   -9600.3169    7766.7943    14448.848    1171.5164   -2324.4166    81.166552 
   34100    702.69522   -103.70893    0.6358134   -103.07311    13923.798    4.3271592    4.3271592    4.3271592    13923.798     3271.848    43424.716   -4925.1711   -876.54695   -24201.358    4564.7003    81.023057 
   34200    1326.2728   -104.27426    1.2000395   -103.07422    8243.6881    4.3300801    4.3300801    4.3300801    8243.6881   -14560.049    7335.5516    31955.561    8862.7335   -3942.0344   -23346.634    81.187241 
   34300    1553.1008   -104.46282    1.4052782   -103.05754    12461.209    4.3354779    4.3354779    4.3354779    12461.209   -2493.3561    19262.138    20614.845     2856.911   -5074.5955     11024.64    81.491241 
   34400    992.35661   -103.95572   0.89790511   -103.05781   -12562.565    4.3276337    4.3276337    4.3276337   -12562.565   -9321.7336     5976.109    -34342.07   -2162.5741     -3352.79   -7815.1859    81.049711 
   34500    1287.9234    -104.2284    1.1653402   -103.06306   -2584.0253    4.3292798    4.3292798    4.3292798   -2584.0253   -7189.1974    -12967.91    12405.032     31679.25    20308.102    373.00263    81.142232 
   34600    1903.0986   -104.77568    1.7219636   -103.05372    6077.6396     4.331901     4.331901     4.331901    6077.6396    10513.437   -253.02791    7972.5099   -6859.9035   -5572.5331    1880.8333    81.289711 
   34700    628.34376   -103.63576   0.56853863   -103.06722   -29238.578    4.3417843    4.3417843    4.3417843   -29238.578   -2377.8257   -34502.165   -50835.743    21997.057    12400.802   -11454.973    81.847369 
   34800    1555.3128    -104.4481    1.4072797   -103.04082    17545.854    4.3342051    4.3342051    4.3342051    17545.854    33459.281    2364.2331    16814.047   -267.98034   -2197.1166    5082.9822    81.419489 
   34900    1599.1828   -104.49547    1.4469742    -103.0485   -18677.668    4.3237863    4.3237863    4.3237863   -18677.668   -4.4214993   -39839.356   -16189.225     6206.337    1699.5241   -30585.769    80.833737 
   35000    863.99745    -103.8463   0.78176305   -103.06454    547.19125    4.3295422    4.3295422    4.3295422    547.19125     2615.047    66.986497   -1040.4597     19097.64    4952.6037    8404.9151    81.156988 
   35100    1556.6925   -104.45616    1.4085281   -103.04764   -11761.061    4.3428502    4.3428502    4.3428502   -11761.061    29638.156   -33371.285   -31550.056   -4985.9894   -5744.1598   -30032.277    81.907663 
   35200    1079.7746   -104.03108   0.97700273   -103.05407   -25748.095    4.3365284    4.3365284    4.3365284   -25748.095    -13198.32   -44341.739   -19704.227    26238.137    9370.5773   -2626.7614    81.550493 
   35300    1196.7665    -104.1339    1.0828594   -103.05104    3123.7521    4.3193616    4.3193616    4.3193616    3123.7521   -15382.167    21538.461    3214.9628    5206.3546   -10880.293    1645.2189    80.585831 
   35400    1678.9342   -104.57048    1.5191349   -103.05135   -7505.1781    4.3303105    4.3303105    4.3303105   -7505.1781   -4763.2671   -6497.8664   -11254.401    256.16391    6833.5573     -2884.16    81.200203 
   35500       919.66    -103.8928    0.8321277   -103.06067   -25823.871    4.3431107    4.3431107    4.3431107   -25823.871   -35642.413   -9687.3173   -32141.884    17460.909    2016.2664    18325.421    81.922404 
   35600    1555.4532    -104.4543    1.4074068    -103.0469    2081.8269    4.3333725    4.3333725    4.3333725    2081.8269   -4666.3954     12041.12   -1129.2435   -8696.4903   -6792.1586   -656.63035    81.372576 
   35700    1143.3178   -104.08937     1.034498   -103.05487    19655.348    4.3217138    4.3217138    4.3217138    19655.348    6432.2821    42261.445    10272.316    14153.337    10416.107    11044.393    80.717557 
   35800    1249.2296   -104.19815    1.1303292   -103.06782    829.59416    4.3242246    4.3242246    4.3242246    829.59416   -29983.882    42460.586   -9987.9208    -8187.704   -16587.331    17509.491    80.858321 
   35900    1532.1137    -104.4382    1.3862887   -103.05191    4843.9505    4.3467802    4.3467802    4.3467802    4843.9505    8450.3632    3534.8828    2546.6055    2447.6059    4597.5678   -6115.3934    82.130228 
   36000    1048.6292   -104.00183   0.94882178   -103.05301   -11169.653    4.3361544    4.3361544    4.3361544   -11169.653   -51115.296    4239.3725    13366.964    6276.6355   -14380.707    9376.2155    81.529395 
   36100     1635.577   -104.51995    1.4799044   -103.04005    17366.406    4.3220556    4.3220556    4.3220556    17366.406    23583.833    25461.856    3053.5279   -12058.377   -4996.3019   -12200.957     80.73671 
   36200    1197.6501   -104.13735     1.083659   -103.05369    25001.493    4.3276702    4.3276702    4.3276702    25001.493    2855.8266    41461.719    30686.933    16741.626   -10079.757    396.71776    81.051765 
   36300    1169.8332   -104.11816    1.0584897   -103.05967   -18734.251    4.3467461    4.3467461    4.3467461   -18734.251   -18229.483   -991.95401   -36981.315    1122.9052   -17619.922   -3580.7705      82.1283 
   36400    1442.9018   -104.35309    1.3055679   -103.04752   -474.12081    4.3341183    4.3341183    4.3341183   -474.12081    10616.576   -22019.947    9981.0086   -8066.6096    5688.8486   -2500.3167    81.414601 
   36500    1239.0553   -104.16623    1.1211232   -103.04511    17950.291    4.3206677    4.3206677    4.3206677    17950.291    1663.2256    65173.119   -12985.472    18233.283   -29551.825    128.07848    80.658957 
   36600    1450.3401   -104.35808    1.3122982   -103.04578    17410.023    4.3276854    4.3276854    4.3276854    17410.023    40870.615    7631.1917    3728.2621   -19002.964    6293.5261    2062.1481    81.052617 
   36700    899.05222   -103.86961   0.81348135   -103.05613      971.018    4.3422796    4.3422796    4.3422796      971.018   -28946.084    61788.461   -29929.323    4291.7782   -19553.717   -6588.1077    81.875382 
   36800    1688.2119   -104.56244    1.5275296   -103.03491   -7846.6477    4.3459063    4.3459063    4.3459063   -7846.6477   -187.12764   -7577.5115   -15775.304    4896.8861    -6489.817     10651.77    82.080703 
   36900    1199.5255   -104.12669    1.0853559   -103.04133   -6994.3892    4.3234785    4.3234785    4.3234785   -6994.3892   -19646.083    16343.261   -17680.346   -30482.766   -17596.329   -16915.396    80.816474 
   37000    1325.8173   -104.24268    1.1996274   -103.04306    13731.195    4.3269952    4.3269952    4.3269952    13731.195   -4953.1372    46801.495    -654.7744    9514.9662   -15049.648   -5979.4093    81.013845 
   37100    1052.8164   -104.00617   0.95261036   -103.05356   -21137.626     4.347699     4.347699     4.347699   -21137.626   -57830.334    26714.955   -32297.498   -27142.878    2884.3577   -11835.592    82.182323 
   37200    1301.2718   -104.23791     1.177418   -103.06049   -18710.208    4.3357391    4.3357391    4.3357391   -18710.208   -23792.024    19130.987   -51469.586    5069.8486   -43509.162   -18934.547    81.505973 
   37300    1763.6941   -104.63444    1.5958275   -103.03862    15019.956    4.3178877    4.3178877    4.3178877    15019.956   -17069.988    35574.855        26555   -8449.7566    19631.588    13810.106    80.503366 
   37400    555.09447   -103.56485   0.50226114   -103.06259   -8780.2687    4.3320486    4.3320486    4.3320486   -8780.2687   -24536.877    33526.041    -35329.97   -18475.554   -41768.201   -21515.753    81.298018 
   37500    1808.8156   -104.67401    1.6366543   -103.03736    5153.2679    4.3406357    4.3406357    4.3406357    5153.2679   -3268.3704    16206.572    2521.6016    -2859.958    11004.999    13395.323    81.782433 
   37600    1105.0963   -104.04349   0.99991435   -103.04358   -22544.394    4.3336124    4.3336124    4.3336124   -22544.394    -52784.41    17242.719   -32091.491    -27571.11   -30835.956   -1754.7852    81.386095 
   37700    1373.4812   -104.27892    1.2427547   -103.03616    25886.008    4.3204062    4.3204062    4.3204062    25886.008    19157.234    27730.917    30769.872      888.667   -11052.951     1790.103    80.644315 
   37800    1434.9563   -104.34309    1.2983786   -103.04472   -4.2646307    4.3249261    4.3249261    4.3249261   -4.2646307   -37857.292     43031.07   -5186.5716   -5941.0305   -8447.1298     11455.53    80.897681 
   37900    852.60275   -103.83226   0.77145289   -103.06081    5811.7459    4.3408363    4.3408363    4.3408363    5811.7459   -23820.966    31541.815    9714.3888   -18752.939   -25772.265   -1936.9735    81.793772 
   38000    1754.7192   -104.62312    1.5877068   -103.03542   -14369.734    4.3443251    4.3443251    4.3443251   -14369.734   -49908.829    12052.405   -5252.7772    5029.2397     7900.626    5817.1555    81.991148 
   38100    750.06274   -103.72151   0.67867253   -103.04284   -6576.8164    4.3286682    4.3286682    4.3286682   -6576.8164   -40063.672    25339.629   -5006.4063   -24063.254    -39889.56   -5273.0391    81.107853 
   38200    1886.0458   -104.73604    1.7065338   -103.02951    13229.907    4.3169948    4.3169948    4.3169948    13229.907    4174.9136    8603.2398    26911.567    5462.2711     15964.24   -9968.1809    80.453431 
   38300    826.80552   -103.79824   0.74811101   -103.05012   -7025.5992    4.3403256    4.3403256    4.3403256   -7025.5992   -50787.509    36591.942   -6881.2312    3393.8892   -37686.331    8254.3515    81.764904 
   38400    1753.0552   -104.62212    1.5862012   -103.03592   -12665.437    4.3424804    4.3424804    4.3424804   -12665.437   -12698.743   -23466.667   -1830.9021   -14895.919    13808.245   -6639.9352    81.886743 
   38500      912.246   -103.87146   0.82541935   -103.04604    27971.702    4.3233903    4.3233903    4.3233903    27971.702   -26966.518     65671.53    45210.094    19542.019   -24944.108    844.70218    80.811533 
   38600    1435.8855   -104.35363    1.2992194   -103.05441   -2164.6972    4.3312181    4.3312181    4.3312181   -2164.6972    2385.9952    5318.7255   -14198.812   -11881.252   -11307.739   -11109.206    81.251269 
   38700    1468.4191   -104.37922    1.3286564   -103.05056    2720.8342    4.3441552    4.3441552    4.3441552    2720.8342   -40242.012    10102.955     38301.56    11909.388   -7325.3345     4598.054    81.981526 
   38800    830.00325   -103.80982   0.75100439   -103.05881   -12905.451    4.3481064    4.3481064    4.3481064   -12905.451   -34606.113     10263.48   -14373.721    6878.5452   -35951.395   -11442.567    82.205427 
   38900    2046.6971   -104.88292    1.8518946   -103.03102   -9386.2757    4.3348373    4.3348373    4.3348373   -9386.2757   -13959.896   -24785.532    10586.601    5658.8446    1468.5687     18886.66    81.455122 
   39000    403.74784   -103.41934   0.36531953   -103.05402    2117.6997     4.331999     4.331999     4.331999    2117.6997   -35059.949    61429.359   -20016.311    24738.343   -28675.343     2590.086    81.295228 
   39100    2026.3502   -104.87007    1.8334842   -103.03659    8944.0546    4.3314923    4.3314923    4.3314923    8944.0546   -10412.472    37635.093   -390.45645   -10021.888    7999.7758    23765.687    81.266701 
   39200    750.21537   -103.73637   0.67881063   -103.05756    10006.232    4.3390761    4.3390761    4.3390761    10006.232   -31132.181    64182.969   -3032.0932    17389.428   -28672.402    8597.7407    81.694306 
   39300    1380.9532   -104.28803    1.2495154   -103.03852   -10003.856    4.3444495    4.3444495    4.3444495   -10003.856   -25034.252    4747.1869   -9724.5031     5787.418   -259.44913    3090.1656     81.99819 
   39400    1401.2737   -104.30426    1.2679019   -103.03636    7129.2924     4.329541     4.329541     4.329541    7129.2924   -23537.317    29670.298    15254.896    460.16831   -11070.827    5921.3528    81.156924 
   39500    1117.2339   -104.06039    1.0108967   -103.04949   -5697.1944    4.3239671    4.3239671    4.3239671   -5697.1944   -29795.989    10856.764    1847.6424    25090.564   -25859.257     606.6935    80.843879 
   39600    1797.1324     -104.673    1.6260831   -103.04692    5362.9646    4.3397811    4.3397811    4.3397811    5362.9646   -7085.0745   -112.31662    23286.285   -7013.4719    16253.975   -11064.205    81.734137 
   39700    660.69371   -103.65645   0.59780955   -103.05864   -14332.511    4.3454304    4.3454304    4.3454304   -14332.511   -41770.285    24717.824   -25945.073    20400.529   -37531.831    3711.4734     82.05374 
   39800    1702.5445   -104.57462    1.5404981   -103.03412    15902.546     4.334618     4.334618     4.334618    15902.546   -23676.269    20882.106    50501.802   -1314.4215    17305.048   -10367.318    81.442763 
   39900    1183.7984   -104.11557    1.0711257   -103.04445   -6398.3572    4.3234925    4.3234925    4.3234925   -6398.3572   -24856.195    35010.814   -29349.691    1019.0069   -45075.118    2964.2727    80.817259 
   40000    1251.1316   -104.18757    1.1320502   -103.05552    9849.9093    4.3229503    4.3229503    4.3229503    9849.9093   -25191.202   -12499.453    67240.383    9000.2705   -11366.253   -571.47516    80.786859 
   40100    1622.8071   -104.52163      1.46835   -103.05328   -11837.571    4.3397194    4.3397194    4.3397194   -11837.571   -26688.405     6588.602   -15412.909   -13199.131   -14617.026    1556.6082    81.730649 
   40200    1061.4997   -104.01176   0.96046721    -103.0513   -11293.426    4.3447247    4.3447247    4.3447247   -11293.426   -34518.547   -21219.712    21857.981    18168.161   -33258.688    377.58728    82.013775 
   40300     1567.629   -104.45474    1.4184237   -103.03632    10339.981    4.3357246    4.3357246    4.3357246    10339.981   -9176.8164    37094.657    3102.1031   -3991.5433    5585.4638   -2419.8692    81.505154 
   40400     1032.234   -103.98155   0.93398706   -103.04756    18189.593    4.3231582    4.3231582    4.3231582    18189.593   -32652.231    34796.426    52424.584    11770.928    -30624.97    164.25849    80.798517 
   40500    1357.8873   -104.27299     1.228645   -103.04434    1417.9041    4.3439927    4.3439927    4.3439927    1417.9041     11302.29    -8634.156    1585.5786    12838.795    5979.8812    7466.9887    81.972325 
   40600    1404.5158   -104.31168    1.2708354   -103.04085   -24871.314    4.3405665    4.3405665    4.3405665   -24871.314   -39758.339   -7874.5402   -26981.064   -319.28073   -6925.3923   -5477.1401    81.778519 
   40700    1351.3756   -104.25501     1.222753   -103.03226    12303.111    4.3269144    4.3269144    4.3269144    12303.111    14735.764   -4763.1498    26936.717    19801.732   -9899.2182   -7225.0473    81.009303 
   40800    1404.9024    -104.3073    1.2711853   -103.03611   -18848.554    4.3361312    4.3361312    4.3361312   -18848.554   -33169.551   -5986.8392   -17389.273   -7453.4535    27225.425    6837.9284    81.528083 
   40900    985.10393   -103.93348   0.89134273   -103.04214    13957.402     4.334831     4.334831     4.334831    13957.402   -15490.986    17657.761    39705.432    10785.905   -28414.399    1399.2463    81.454765 
   41000     1448.051   -104.35304     1.310227   -103.04281    4032.6706    4.3347043    4.3347043    4.3347043    4032.6706   -29271.328    43241.113   -1871.7733    8848.8362    32226.435   -2638.6196    81.447624 
   41100    1367.1486   -104.28854    1.2370248   -103.05152   -12570.929     4.340332     4.340332     4.340332   -12570.929   -37371.773    9356.6595   -9697.6729   -4747.0975   -24297.849   -4985.1119    81.765266 
   41200    1255.6216   -104.18296    1.1361128   -103.04685    10352.059    4.3323156    4.3323156    4.3323156    10352.059   -16563.873     15656.07    31963.979    6223.3521    12797.576   -4475.1012    81.313052 
   41300    1351.8993    -104.2736    1.2232269   -103.05037   -15391.164    4.3333968    4.3333968    4.3333968   -15391.164     -35800.9   -739.01459   -9633.5762   -6084.1137    7632.9233   -5895.6441    81.373945 
   41400    1411.9229   -104.32673    1.2775376   -103.04919    5063.9804    4.3361397    4.3361397    4.3361397    5063.9804   -39751.096    35970.346    18972.692   -6866.9733   -17315.112   -3576.0295    81.528562 
   41500    1282.3108   -104.21714    1.1602618   -103.05688    965.88819    4.3338435    4.3338435    4.3338435    965.88819   -27768.021    37779.217    -7113.532    5739.3985    35215.316   -86.001484    81.399113 
   41600    1280.7769   -104.20476    1.1588738   -103.04588    10289.478    4.3439897    4.3439897    4.3439897    10289.478   -28690.947     74466.34   -14906.957   -9438.4195   -25637.123    1069.4651    81.972158 
   41700    1355.8634   -104.26951    1.2268137   -103.04269    -8920.028    4.3356635    4.3356635    4.3356635    -8920.028   -7411.1545   -4662.5041   -14686.425    2787.1433    41020.637    1704.0236    81.501708 
   41800    1523.6183   -104.41343    1.3786018   -103.03483     31144.36    4.3308479    4.3308479    4.3308479     31144.36   -6026.6057    98687.771    771.91344   -5529.9411   -12829.183    1989.5915    81.230438 
   41900    1210.7253   -104.14327    1.0954897   -103.04778   -1110.3599    4.3375066    4.3375066    4.3375066   -1110.3599   -4622.8194    25541.911   -24250.171   -19873.472    31408.921    5867.3669    81.605692 
   42000     1342.705    -104.2606    1.2149077   -103.04569    12723.373    4.3404273    4.3404273    4.3404273    12723.373     5917.403    40836.873   -8584.1576    6215.8261    8041.1814   -3648.7079    81.770654 
   42100    1638.7586   -104.52845    1.4827832   -103.04567   -28671.076     4.340324     4.340324     4.340324   -28671.076   -42618.629    1975.9404   -45370.539   -13590.156    25601.272    1020.3017    81.764814 
   42200    1258.4433   -104.18972     1.138666   -103.05105    22941.612    4.3318122    4.3318122    4.3318122    22941.612   -3252.8843    66184.678    5893.0436   -5026.2352    14367.027    1977.4428    81.284709 
   42300    1171.5357   -104.11431    1.0600302   -103.05428   -1646.5725    4.3415659    4.3415659    4.3415659   -1646.5725   -20018.211    30051.525   -14973.032    13165.735    6030.3288    12648.727    81.835018 
   42400    1206.7036   -104.14024    1.0918508   -103.04839   -7426.0418    4.3406927    4.3406927    4.3406927   -7426.0418   -11764.152   -3856.6811   -6657.2926   -26961.188    26417.076    2158.2766    81.785651 
   42500    1611.1864    -104.4959    1.4578353   -103.03806    6537.1876    4.3433687    4.3433687    4.3433687    6537.1876   -23511.661    45334.026   -2210.8024    19957.431    1181.8892   -11820.549    81.937005 
   42600    933.04642   -103.89324   0.84424001     -103.049   -3254.1765    4.3359953    4.3359953    4.3359953   -3254.1765   -16384.329    10642.861    -4021.061   -9426.5169    31637.297   -6392.7512    81.520423 
   42700    1467.1807   -104.36928    1.3275359   -103.04175    12505.286    4.3436002    4.3436002    4.3436002    12505.286   -6227.7875    57558.696   -13815.052   -3146.0317   -1522.8831   -4209.6384    81.950108 
   42800    1401.7755   -104.31251    1.2683559   -103.04416   -11286.035      4.34338      4.34338      4.34338   -11286.035   -30311.485    47229.737   -50776.358    14165.039     34147.11      3803.79    81.937643 
   42900    1110.4902   -104.05188    1.0047949   -103.04709    28013.538    4.3326086    4.3326086    4.3326086    28013.538   -7153.7847    87165.609    4028.7911   -39644.528   -4478.9091   -431.44688    81.329549 
   43000    1492.7579   -104.39826    1.3506787   -103.04758   -1274.1545    4.3385902    4.3385902    4.3385902   -1274.1545   -21497.497     57560.03   -39884.996    4841.0851    21022.932    9357.0035    81.666865 
   43100    1334.1658   -104.26841    1.2071813   -103.06123   -13838.392    4.3364174    4.3364174    4.3364174   -13838.392   -50054.826    13074.558   -4534.9086   -31109.289    659.54365   -7432.5606    81.544229 
   43200    1272.7596   -104.22368    1.1516196   -103.07206   -10552.369    4.3356615    4.3356615    4.3356615   -10552.369    -25106.33     30008.05   -36558.827   -7010.5329    18374.177   -7480.7797    81.501593 
   43300    1683.0839   -104.58976    1.5228897   -103.06687   -12961.976    4.3442256    4.3442256    4.3442256   -12961.976   -46212.491    54509.894   -47183.331   -2994.8371    8750.4116   -7813.2899     81.98551 
   43400    813.60411   -103.80058    0.7361661   -103.06441     5436.364    4.3412071    4.3412071    4.3412071     5436.364   -35710.576    61855.642   -9835.9742   -35118.068    140.39263   -3190.8152    81.814733 
   43500    1159.0667   -104.11662    1.0487479   -103.06788    12749.143    4.3280653    4.3280653    4.3280653    12749.143   -13762.395    95414.396   -43404.573    13834.231    21101.227    1671.3898    81.073963 
   43600     1432.775   -104.37689    1.2964049   -103.08048    5914.3463    4.3373761    4.3373761    4.3373761    5914.3463    2649.5076    37882.366   -22788.834   -31190.522   -5713.5028    9252.0645    81.598326 
   43700    1279.6991   -104.23684    1.1578987   -103.07894   -25941.888    4.3467154    4.3467154    4.3467154   -25941.888   -45282.022    6333.7863    -38877.43    2191.7959    20693.771    2637.5165    82.126555 
   43800    1186.9724   -104.13423    1.0739976   -103.06023    16685.206    4.3397014    4.3397014    4.3397014    16685.206    21161.058    71866.795   -42972.236   -5880.1926   -11075.138    9711.3824    81.729632 
   43900    1520.4024   -104.43437     1.375692   -103.05868   -901.94986    4.3344721    4.3344721    4.3344721   -901.94986   -28554.895    53851.171   -28002.125   -6797.8869    13519.636   -1283.8927    81.434539 
   44000    1365.3804   -104.30445    1.2354249   -103.06903   -2215.9415    4.3328988    4.3328988    4.3328988   -2215.9415    20029.911    8675.2602   -35352.996    14940.365   -5211.4356   -5933.6744    81.345893 
   44100    1232.8384   -104.18425    1.1154981   -103.06875   -23018.596    4.3411046    4.3411046    4.3411046   -23018.596   -14330.577    4169.2823   -58894.492    1708.8175    9194.1728    4993.9912    81.808938 
   44200    1409.5439   -104.32785     1.275385   -103.05247    4518.8784    4.3429639    4.3429639    4.3429639    4518.8784   -8536.0958    53943.273   -31850.542   -3094.3347   -1063.8386    72.514541    81.914101 
   44300    901.31793   -103.87557   0.81553141   -103.06003   -38940.675    4.3404158    4.3404158    4.3404158   -38940.675    -15604.51   -39719.804   -61497.709     11344.83   -2919.6201    25993.155    81.770002 
   44400    1700.3487   -104.57501    1.5385112   -103.03649    23548.311    4.3303781    4.3303781    4.3303781    23548.311   -1770.8534    82108.803    -9693.015   -1321.5769    893.41152   -7305.6063    81.204005 
   44500    979.06792   -103.93759   0.88588123   -103.05171   -47171.007    4.3488752    4.3488752    4.3488752   -47171.007   -22497.692   -49066.665   -69948.665     7035.659   -26779.278    16721.636    82.249039 
   44600    1396.6094   -104.29754    1.2636816   -103.03386    1318.1572    4.3412672    4.3412672    4.3412672    1318.1572   -20572.815    35720.139   -11192.852    5156.5803    12997.284    2992.1075    81.818128 
   44700    1461.6333    -104.3557    1.3225165   -103.03319   -13946.208    4.3379849    4.3379849    4.3379849   -13946.208   -9887.4657    4329.0012   -36280.159    -14746.72    -27565.11    5408.9206    81.632693 
   44800    854.59978   -103.82997   0.77325984   -103.05671     9771.105    4.3331271    4.3331271    4.3331271     9771.105    14839.446    50307.675   -35833.806    4490.2104   -790.26002    13454.743    81.358753 
   44900    1858.1323   -104.74311    1.6812772   -103.06184   -18609.829    4.3401168    4.3401168    4.3401168   -18609.829   -32510.665    6979.5202   -30298.342   -14551.433   -9746.1713   -5812.4914    81.753102 
   45000    824.96089   -103.81469   0.74644195   -103.06825   -9281.8363    4.3421709    4.3421709    4.3421709   -9281.8363    4948.1089    13161.596   -45955.214   -11865.797   -8023.8286     10871.19    81.869234 
   45100     1764.642   -104.63628    1.5966851    -103.0396    1797.9361    4.3364554    4.3364554    4.3364554    1797.9361    18081.118     9077.283   -21764.592   -3924.8455    4902.5211    3452.3156    81.546376 
   45200    959.91906   -103.91501   0.86855494   -103.04645    7051.3858    4.3402788    4.3402788    4.3402788    7051.3858    15113.515    36242.058   -30201.416   -24853.005   -6460.2366    8306.6695     81.76226 
   45300    1467.6555    -104.3624    1.3279655   -103.03444   -10118.975    4.3436387    4.3436387    4.3436387   -10118.975    12781.253   -32446.582   -10691.598    1222.0147    14691.782    16730.323    81.952285 
   45400    1055.9149   -103.99322   0.95541402   -103.03781    8210.2236    4.3431567    4.3431567    4.3431567    8210.2236    7395.8957    27881.777   -10647.002     -6413.32   -9422.5233   -8354.5861    81.925008 
   45500    1470.5096   -104.36615     1.330548    -103.0356   -14456.825    4.3350107    4.3350107    4.3350107   -14456.825    4219.1056   -14462.774   -33126.806   -2159.1562    1588.6903    29851.314    81.464897 
   45600    1062.3039   -103.99958   0.96119493   -103.03838     19453.49    4.3377388    4.3377388    4.3377388     19453.49    3328.0695    59334.163   -4301.7619    759.35352   -2303.9716   -5987.8146    81.618799 
   45700    1277.7146   -104.19734     1.156103   -103.04124   -37720.545    4.3544151    4.3544151    4.3544151   -37720.545   -36328.524   -32467.841   -44365.269     9560.435   -11154.836    39290.382    82.563761 
   45800    1193.3762   -104.11106    1.0797919   -103.03127    17678.995    4.3397401    4.3397401    4.3397401    17678.995     69241.23    451.20424   -16655.449     26.12778   -161.41486    12564.614    81.731816 
   45900    1522.5976   -104.40269    1.3776783   -103.02501   -8821.3713    4.3281762    4.3281762    4.3281762   -8821.3713   -20453.234   -1765.3647    -4245.515    22164.771     -20651.2    6995.1085    81.080195 
   46000     1008.934    -103.9572   0.91290472    -103.0443    13483.496     4.338273     4.338273     4.338273    13483.496    87823.629   -30765.041     -16608.1   -5873.8464    5339.2791    33316.218    81.648956 
   46100    1593.8256   -104.47876    1.4421269   -103.03663   -7071.6296    4.3441919    4.3441919    4.3441919   -7071.6296   -26365.265    29338.537   -24188.161    24231.583    -8928.724   -21919.447    81.983605 
   46200    878.44304   -103.83908   0.79483372   -103.04425   -8852.2497    4.3499341    4.3499341    4.3499341   -8852.2497    64031.432    -26386.14   -64202.041   -2773.9654   -2433.5879    47420.657    82.309133 
   46300    1883.1834   -104.73092    1.7039439   -103.02697    316.50969    4.3322167    4.3322167    4.3322167    316.50969   -1404.7124    16970.274   -14616.032    14071.114    2651.8196   -15804.203    81.307483 
   46400    848.44196   -103.82099   0.76768811    -103.0533   -24094.787     4.335363     4.335363     4.335363   -24094.787   -17208.176   -36223.431   -18852.754    3818.4595   -15810.745    50585.321    81.484763 
   46500     1393.902   -104.30994    1.2612318   -103.04871    18548.829    4.3404075    4.3404075    4.3404075    18548.829      44853.8    8974.2483    1818.4369   -4566.9865    10119.666   -3058.5574    81.769535 
   46600    1384.9002   -104.30463    1.2530868   -103.05154   -29752.552    4.3438448    4.3438448    4.3438448   -29752.552     -25546.9   -34391.277   -29319.478   -575.35699    12537.794    25071.169    81.963954 
   46700    905.65012   -103.86782   0.81945126   -103.04837   -10622.958    4.3431273    4.3431273    4.3431273   -10622.958    26254.807   -9623.4751   -48500.204    -3425.125   -13265.705    28573.898    81.923344 
   46800    1691.0226    -104.5603    1.5300728   -103.03022    15427.386    4.3191327    4.3191327    4.3191327    15427.386   -3199.5668    41736.969    7744.7566   -821.46572    26143.788     3752.517    80.573018 
   46900    1054.5337   -104.01026   0.95416422    -103.0561   -23478.855    4.3388484    4.3388484    4.3388484   -23478.855    22573.426   -22250.351   -70759.641   -15169.566   -18903.226    42978.712    81.681446 
   47000    1624.1935   -104.50158    1.4696044   -103.03197   -1002.2425    4.3448908    4.3448908    4.3448908   -1002.2425    -14895.65    31359.472    -19470.55    193.83101   -1722.6311    -12591.62    82.023181 
   47100    1071.7232   -104.00945    0.9697177   -103.03973   -20690.214    4.3426035    4.3426035    4.3426035   -20690.214   -25479.737   -27726.433   -8864.4709   -7463.8688    -7885.146    44822.367    81.893708 
   47200    1254.2978   -104.17247     1.134915   -103.03756    21586.392    4.3377568    4.3377568    4.3377568    21586.392    33424.603    27607.828    3726.7451   -13176.731   -7446.6977   -19116.884    81.619813 
   47300    1528.8515   -104.42314    1.3833369    -103.0398   -1073.8104    4.3321854    4.3321854    4.3321854   -1073.8104    2039.3557   -3364.7908   -1895.9963    7108.1969    3383.6844    18373.214    81.305722 
   47400    996.56761   -103.95293   0.90171532   -103.05121   -1973.0831    4.3409268    4.3409268    4.3409268   -1973.0831    39285.698    2449.2843   -47654.231    5630.9366    -14921.42    23630.998    81.798888 
   47500    1466.3577   -104.37019    1.3267913    -103.0434     1146.344    4.3335951    4.3335951    4.3335951     1146.344    9633.2858     26169.57   -32363.823    5446.1522   -12263.084   -12303.954    81.385115 
   47600    1354.8637   -104.27436    1.2259091   -103.04845   -23407.184    4.3420405    4.3420405    4.3420405   -23407.184    16631.546   -35188.952   -51664.148     26041.12   -209.14762    39456.269    81.861858 
   47700    1634.3668   -104.51278    1.4788095   -103.03397    3295.4542    4.3362851    4.3362851    4.3362851    3295.4542    -13862.36    48636.442    -24887.72    4953.4519    -13775.89   -20871.363    81.536764 
   47800    875.86012   -103.84095   0.79249665   -103.04846     -1234.88    4.3389211    4.3389211    4.3389211     -1234.88    6355.4427   -18325.938    8265.8559     10064.43     8946.311    43176.132    81.685556 
   47900    1502.8436   -104.39499    1.3598045   -103.03519    14490.752    4.3454247    4.3454247    4.3454247    14490.752    11563.221    24748.898    7160.1362    17773.651   -12246.845   -1606.4642    82.053421 
   48000    966.72421   -103.91522   0.87471238   -103.04051    6095.0231    4.3392108    4.3392108    4.3392108    6095.0231    21998.224   -10448.049    6734.8948   -12802.015   -4580.1203    29810.475    81.701917 
   48100    1529.6662   -104.41622    1.3840741   -103.03215   -3945.7489     4.339754     4.339754     4.339754   -3945.7489    14345.827    14789.287    -40972.36    17729.329    10027.693   -1017.9507    81.732602 
   48200    1265.4353   -104.17914    1.1449924   -103.03415     26177.66    4.3348519    4.3348519    4.3348519     26177.66    28430.426     53041.78   -2939.2266   -12926.538     1249.101    12426.728    81.455949 
   48300    1046.7051   -104.00258   0.94708077    -103.0555   -25175.268    4.3525495    4.3525495    4.3525495   -25175.268    17204.947   -61711.158   -31019.593    3059.0976    15746.092   -587.82246    82.457688 
   48400    1628.1114    -104.5047    1.4731494   -103.03155    18169.648     4.341366     4.341366     4.341366    18169.648   -6393.4863    58345.337    2557.0945   -3034.4132    22140.748    -6350.977    81.823717 
   48500     955.9281   -103.90762   0.86494383   -103.04267    10010.564    4.3255501    4.3255501    4.3255501    10010.564    6930.5586    27351.176   -4250.0421   -1598.2041   -1430.6758    45453.002    80.932702 
   48600    1416.1886   -104.33779    1.2813972   -103.05639   -6591.9715     4.340205     4.340205     4.340205   -6591.9715    -27691.84      45304.7   -37388.774   -5416.1567    17552.253   -19754.286    81.758089 
   48700    1378.3101    -104.3011    1.2471239   -103.05397   -7299.9145    4.3521297    4.3521297    4.3521297   -7299.9145   -4221.7491   -16299.332   -1378.6622    -4107.586   -669.27822    21833.271     82.43383 
   48800    1273.2541   -104.19626     1.152067   -103.04419   -25838.952    4.3425696    4.3425696    4.3425696   -25838.952   -2389.9731   -44753.214   -30373.669   -5464.9329    3302.8147    -7356.375     81.89179 
   48900    1259.6067   -104.17286    1.1397186   -103.03314    31535.893    4.3212784    4.3212784    4.3212784    31535.893   -19318.924    61882.835    52043.769   -9006.6194    13391.539    1467.2966    80.693165 
   49000    1301.3221   -104.22475    1.1774635   -103.04728    1463.9682    4.3346965    4.3346965    4.3346965    1463.9682    59283.311   -23069.274   -31822.133   -5896.9998   -5238.8487      30576.8    81.447184 
   49100    1257.2662   -104.18518    1.1376009   -103.04758   -5290.5835    4.3499274    4.3499274    4.3499274   -5290.5835   -40547.359    30746.676   -6071.0679   -11991.711    19386.206   -34625.243    82.308753 
   49200    1465.2609   -104.36529    1.3257989   -103.03949    2528.6096    4.3488416    4.3488416    4.3488416    2528.6096    10938.144   -21653.283    18300.968    932.49078   -2523.4466    19097.743    82.247133 
   49300    1231.1469   -104.15012    1.1139676   -103.03615    6917.2218    4.3322043    4.3322043    4.3322043    6917.2218    820.85632    2506.4968    17424.312   -1917.0669     9732.695   -15775.985    81.306783 
   49400    1315.5922   -104.24028    1.1903754   -103.04991    884.01746    4.3331138    4.3331138    4.3331138    884.01746   -4434.0777    9070.7993   -1984.6691   -88.260831    11729.787    2159.9448    81.358003 
   49500    1742.8738    -104.6268    1.5769888   -103.04981   -3410.9478    4.3474016    4.3474016    4.3474016   -3410.9478   -11907.408   -11442.528    13117.092    715.67272   -9048.6321    8744.5926    82.165456 
   49600    589.83011   -103.59843   0.53369068   -103.06474     -8270.53    4.3543604    4.3543604    4.3543604     -8270.53   -31972.872    6887.7899    273.49237    14388.248     19914.54   -29383.296    82.560651 
   49700    1934.5138   -104.78122    1.7503887   -103.03083    2510.6951    4.3410832    4.3410832    4.3410832    2510.6951   -15089.924   -1882.1961    24504.206    19891.268   -265.52285     3058.382     81.80773 
   49800    662.74432   -103.63718   0.59966499   -103.03751    38731.569    4.3350542    4.3350542    4.3350542    38731.569    27943.966     81193.32    7057.4222   -15516.459    27329.216    -25857.87    81.467351 
   49900    1450.7863   -104.35464    1.3127019   -103.04194    -19740.63    4.3513882    4.3513882    4.3513882    -19740.63   -44578.217   -336.47284     -14307.2     39316.33    15242.183   -6264.0098    82.391705 
   50000    1207.6495   -104.12695    1.0927067   -103.03425    35860.947    4.3437529    4.3437529    4.3437529    35860.947    54407.453    66634.122   -13458.733    3796.8473    10756.094    -8289.361    81.958752 
   50100    971.57052   -103.92616   0.87909743   -103.04706   -9952.8267     4.350654     4.350654     4.350654   -9952.8267    21354.217   -49921.739   -1290.9577    2947.6187    16839.803   -3141.5232    82.350008 
   50200    1642.5938    -104.5125    1.4862534   -103.02625   -1790.6559    4.3545864    4.3545864    4.3545864   -1790.6559    20706.631    -11528.24   -14550.359   -18561.145     862.8802    16390.379     82.57351 
   50300    1263.6065   -104.16397    1.1433378   -103.02063   -25385.981    4.3598537    4.3598537    4.3598537   -25385.981   -29823.957    1840.5105   -48174.497   -13238.316    17393.017   -25915.925    82.873513 
   50400    1127.8793   -104.03597    1.0205289   -103.01544   -16628.906    4.3531769    4.3531769    4.3531769   -16628.906   -27112.473   -7566.9241   -15207.319    15737.988   -10928.072    39317.784    82.493352 
   50500    1741.3535   -104.59395    1.5756132   -103.01833   -1521.1284     4.333617     4.333617     4.333617   -1521.1284    2588.1188    7585.7743   -14737.278   -5458.9314    9687.5892    -23114.22     81.38635 
   50600     1110.929   -104.05199    1.0051919    -103.0468   -11490.505    4.3416609    4.3416609    4.3416609   -11490.505    7481.0537   -27329.166   -14623.403    9378.2238   -10593.341     9291.335    81.840393 
   50700    929.82772   -103.90004   0.84132766   -103.05871     5088.231    4.3481974    4.3481974    4.3481974     5088.231    31474.932    36718.786   -52929.025   -14033.277     1624.638    17623.705    82.210589 
   50800    1455.1091    -104.3619    1.3166133   -103.04529    11463.187    4.3551397    4.3551397    4.3551397    11463.187    15236.367    44959.055    -25805.86   -2261.9105    9077.9719   -6708.1619     82.60499 
   50900     1229.907   -104.15398    1.1128457   -103.04113   -20584.965    4.3558131    4.3558131    4.3558131   -20584.965   -29614.684     476.3047   -32616.515    19684.429    1454.7065    34200.001    82.643312 
   51000    1826.0381   -104.67754    1.6522376    -103.0253   -14465.964    4.3540909    4.3540909    4.3540909   -14465.964   -16798.156   -1410.6251    -25189.11    14536.926    9499.8625   -9983.8741    82.545326 
   51100    1149.0217   -104.07141     1.039659   -103.03175    5006.4258    4.3492446    4.3492446    4.3492446    5006.4258   -12828.473    62195.979   -34348.229    4590.0829   -5574.1075    21975.056    82.270003 
   51200    1173.0031   -104.10919    1.0613579   -103.04783   -18093.515    4.3452491    4.3452491    4.3452491   -18093.515   -22972.815   -8845.8878   -22461.843    7013.0703   -1113.7007   -5099.2683    82.043474 
   51300    1245.7021   -104.16932    1.1271374   -103.04219     47554.02    4.3330315    4.3330315    4.3330315     47554.02    58857.695    47443.397    36360.968   -16308.835   -3513.4037   -540.82847     81.35337 
   51400    1202.1256   -104.15162    1.0877085   -103.06391   -4310.0531    4.3504546    4.3504546    4.3504546   -4310.0531    29321.924   -24850.355   -17401.728    18211.245   -14016.339    17062.466    82.338682 
   51500    1144.5808   -104.07062    1.0356407   -103.03498   -13825.408    4.3703898    4.3703898    4.3703898   -13825.408    36268.301   -58964.037   -18780.489   -273.94589    2432.5001   -26042.523    83.475785 
   51600    1802.5333   -104.64454      1.63097   -103.01357   -597.93808    4.3376803    4.3376803    4.3376803   -597.93808   -18026.458     28062.42   -11829.776   -2687.8568   -6901.0835    25652.681    81.615493 
   51700    662.44668   -103.63029   0.59939567    -103.0309      28853.2    4.3292529    4.3292529    4.3292529      28853.2    81779.685   -13240.112    18020.026    5010.8668    11835.525   -20235.486    81.140724 
   51800    1605.4559   -104.48781    1.4526502   -103.03516   -10163.319     4.355893     4.355893     4.355893   -10163.319    30925.598   -24454.378   -36961.178   -24727.615    1337.4095   -6058.5982    82.647858 
   51900    986.27654   -103.92285   0.89240374   -103.03045   -604.67897    4.3608767    4.3608767    4.3608767   -604.67897    47663.884   -37276.427   -12201.495    2556.3011   -3954.2693   -1820.6075    82.931861 
   52000    1017.8973   -103.95195   0.92101489   -103.03093   -25763.651     4.346809     4.346809     4.346809   -25763.651    8531.7638   -57493.494   -28329.224   -697.74393   -165.56664   -33031.665    82.131861 
   52100    1827.8491   -104.67444    1.6538763   -103.02057    28709.212    4.3261014    4.3261014    4.3261014    28709.212    10179.267    17789.258    58159.113     6834.055   -6495.7188    10723.996    80.963651 
   52200    1094.0791   -104.05086   0.98994572   -103.06091   -50034.316    4.3570994    4.3570994    4.3570994   -50034.316   -13482.747    -86573.28   -50046.921    14076.615    2625.0798   -38383.234    82.716549 
   52300    1490.4038   -104.38176    1.3485487   -103.03321   -6386.6187    4.3592839    4.3592839    4.3592839   -6386.6187   -6758.5646   -43678.516    31277.224    1152.7741    9760.6752    8638.5675    82.841027 
   52400    1070.4319   -103.99454   0.96854927   -103.02599    13721.218    4.3463043    4.3463043    4.3463043    13721.218    25256.819   -22887.236    38794.072    7971.2411    4872.7024   -21166.155     82.10326 
   52500    1363.9882   -104.25834    1.2341652   -103.02417   -14563.903    4.3484898    4.3484898    4.3484898   -14563.903    24701.688   -58828.079   -9565.3189     3065.925    2589.2265    12638.194    82.227175 
   52600    1144.5927   -104.05893    1.0356515   -103.02328    25987.649    4.3444741    4.3444741    4.3444741    25987.649    50104.535   -16081.366    43939.779   -10640.391   -3120.1984    779.29391    81.999583 
   52700    1355.7149   -104.25987    1.2266793   -103.03319   -14319.782      4.35145      4.35145      4.35145   -14319.782    5537.5286   -34823.527   -13673.348    14986.684    3848.7088   -2561.9624    82.395213 
   52800    962.89575   -103.90718   0.87124831   -103.03593    2375.1497    4.3503602    4.3503602    4.3503602    2375.1497    18501.763   -29265.178    17888.864   -7235.3993   -10220.991    22612.494    82.333324 
   52900    1728.8198   -104.58816    1.5642725   -103.02389   -1413.6939    4.3428883    4.3428883    4.3428883   -1413.6939   -5489.6875   -20457.383    21705.989    5080.9413     15354.12   -8905.6595    81.909819 
   53000    1131.5966   -104.05933    1.0238924   -103.03544   -41326.493    4.3575492    4.3575492    4.3575492   -41326.493   -35519.848    -72024.63   -16434.999    970.35524   -12732.541    29138.384    82.742166 
   53100     1735.546   -104.59495    1.5703585   -103.02459   -6737.1744    4.3455162    4.3455162    4.3455162   -6737.1744   -36433.582   -19457.015    35679.074   -19904.055   -279.58858   -3767.0196    82.058604 
   53200    1244.2234   -104.16394    1.1257995   -103.03814   -9844.2086    4.3480492    4.3480492    4.3480492   -9844.2086    1617.5615   -24860.254   -6289.9331    15376.388   -19477.198      1579.03    82.202185 
   53300    869.53854   -103.83042   0.78677674   -103.04364   -12965.842    4.3564724    4.3564724    4.3564724   -12965.842   -8484.5823   -58101.609    27688.667   -33264.987    3187.1731    11205.007    82.680846 
   53400    1930.1527   -104.77328    1.7464427   -103.02683    4758.1539    4.3442881    4.3442881    4.3442881    4758.1539    6322.0687   -13464.772    21417.165    15470.837   -2259.2132   -6723.0196    81.989049 
   53500    628.16874   -103.61883   0.56838028   -103.05045    2558.6661    4.3470842    4.3470842    4.3470842    2558.6661     17420.08   -30035.995    20291.913   -5366.3142    4848.5236    17521.456    82.147463 
   53600    1549.5229   -104.43647    1.4020409   -103.03443    2862.0331     4.352032     4.352032     4.352032    2862.0331    14367.297   -16458.506    10677.309    -3512.048   -9222.0996   -5744.0281    82.428279 
   53700    1339.0391   -104.24485    1.2115907   -103.03326   -6064.3665    4.3542361    4.3542361    4.3542361   -6064.3665    12697.225   -35845.424    4955.0984   -5037.2331    15832.402    25258.758     82.55358 
   53800      764.353    -103.7249   0.69160266    -103.0333   -1110.6339    4.3577485    4.3577485    4.3577485   -1110.6339   -5626.4317   -42546.776    44841.306   -15269.661   -10247.898   -15554.011    82.753522 
   53900    1783.3089   -104.63357    1.6135753      -103.02   -2509.0747    4.3377542    4.3377542    4.3377542   -2509.0747    3098.2703    6734.3931   -17359.887    2535.0735    20628.009    6270.7709    81.619666 
   54000     1140.833   -104.07571    1.0322496   -103.04346   -10249.642    4.3443233    4.3443233    4.3443233   -10249.642   -34389.278   -21443.288     25083.64    -15684.36   -8007.8937    6186.4894    81.991041 
   54100    1096.3668   -104.04114   0.99201571   -103.04913   -21641.681     4.359198     4.359198     4.359198   -21641.681   -27976.324    3635.8631   -40584.582    8173.5555    7952.9552   -26838.249    82.836127 
   54200    1829.9845   -104.68722    1.6558084   -103.03141   -16051.146    4.3546779    4.3546779    4.3546779   -16051.146   -43863.714    12932.575   -17222.297   -9403.3305    2045.6413   -724.74133    82.578715 
   54300    1075.5935   -104.01013   0.97321962   -103.03691    199.81668    4.3439944    4.3439944    4.3439944    199.81668   -7377.7689    2135.4475    5841.7714   -16480.857   -3717.0934   -21058.589     81.97242 
   54400    1323.8016   -104.23901    1.1978035   -103.04121   -7469.5482    4.3406512    4.3406512    4.3406512   -7469.5482   -19070.614    25303.388   -28641.418     9378.507    12733.119   -25698.397    81.783306 
   54500    1796.7081   -104.67251    1.6256993   -103.04681   -78.881474    4.3481168    4.3481168    4.3481168   -78.881474   -17704.164    32125.315   -14657.796   -17706.694   -5748.3866    3671.1273    82.206017 
   54600    583.16639   -103.59167   0.52766121   -103.06401   -15633.869    4.3549075    4.3549075    4.3549075   -15633.869   -8510.3249   -21614.275   -16777.007    15270.118    9373.1863   -28885.601    82.591775 
   54700    1955.3009   -104.81592    1.7691974   -103.04672   -15472.236    4.3414195    4.3414195    4.3414195   -15472.236   -35100.874    3647.9277   -14963.763    935.00827    1216.0176    18274.481    81.826744 
   54800    953.10396   -103.91863   0.86238849   -103.05624    30370.613    4.3366604    4.3366604    4.3366604    30370.613    21585.687    47206.926    22319.225   -12873.079   -2767.7779   -28619.796    81.557938 
   54900    803.53463   -103.79566   0.72705502   -103.06861   -17117.939    4.3508029    4.3508029    4.3508029   -17117.939   -16170.295   -2962.9797   -32220.542    11236.463    16620.264   -2641.7225    82.358464 
   55000    1718.7084   -104.59732    1.5551235    -103.0422   -4721.6348     4.355981     4.355981     4.355981   -4721.6348    453.18127   -5899.5904   -8718.4951    4741.6655   -7978.1259     1063.132    82.652868 
   55100    913.44276   -103.87407    0.8265022   -103.04757   -13028.505    4.3555124    4.3555124    4.3555124   -13028.505   -30916.431    9371.9146   -17540.997    18136.409    18188.355   -21038.544    82.626199 
   55200    1297.7493   -104.20806    1.1742308   -103.03383    14236.427    4.3428833    4.3428833    4.3428833    14236.427   -22680.148    65496.678   -107.24887    19399.537    778.80373    12333.517    81.909538 
   55300    1557.0237   -104.45127    1.4088277   -103.04245    229.09358    4.3422268    4.3422268    4.3422268    229.09358    9972.1184   -4707.6639   -4577.1737    6113.5757    14797.061   -25186.483    81.872398 
   55400    1052.3209   -104.01052   0.95216209   -103.05835   -8423.8083    4.3569266    4.3569266    4.3569266   -8423.8083   -48004.878    23191.513   -458.06019      22652.2    1346.7724    3046.8559    82.706704 
   55500    1624.6082   -104.52745    1.4699796   -103.05747   -5751.8535      4.33945      4.33945      4.33945   -5751.8535   -3092.8678    8861.6678    -23024.36   -12624.555    10094.218     25246.23    81.715428 
   55600    1136.9432   -104.09122    1.0287301   -103.06249    52409.907    4.3271358    4.3271358    4.3271358    52409.907    26807.689    94885.988    35536.045    13819.512    4987.9939   -27679.189    81.021744 
   55700    1163.4379   -104.11979     1.052703   -103.06709   -30878.223    4.3566815    4.3566815    4.3566815   -30878.223   -42389.789   -15145.103   -35099.776    12900.209    1116.0957    26543.901    82.692752 
   55800    1455.4676    -104.3676    1.3169377   -103.05066    2558.1201    4.3457905    4.3457905    4.3457905    2558.1201    8572.6587    1935.9243   -2834.2228    -12363.82    17449.945    -1202.621    82.074144 
   55900    1244.3249    -104.1782    1.1258913   -103.05231     7335.433    4.3427647    4.3427647    4.3427647     7335.433   -9635.4847    37323.197   -5681.4133    16061.738    5937.8329    8754.7491    81.902829 
   56000    1061.4169   -104.02102   0.96039231   -103.06063   -4033.4435    4.3367899    4.3367899    4.3367899   -4033.4435    5276.8652    20442.993   -37820.188   -17491.242    8123.9575    19764.535    81.565246 
   56100     1500.408   -104.41806    1.3576007   -103.06046    16015.967    4.3422629    4.3422629    4.3422629    16015.967     19308.47    30361.862   -1622.4299   -2188.5161    7855.1594    -10390.82    81.874438 
   56200    1460.7809   -104.37487    1.3217453   -103.05313   -30756.967    4.3565586    4.3565586    4.3565586   -30756.967   -45680.003    573.40577   -47164.303    15039.349    13811.061    15615.405    82.685751 
   56300    973.49343   -103.93752   0.88083731   -103.05668    14595.726    4.3305551    4.3305551    4.3305551    14595.726    34838.636    24601.422   -15652.879   -34239.789    7831.6857    3201.3827    81.213963 
   56400    1837.5683   -104.72589    1.6626704   -103.06322    8471.6946    4.3344441    4.3344441    4.3344441    8471.6946   -3175.1895    43214.021   -14623.748     3024.435   -1098.9438     6117.551     81.43296 
   56500      917.294   -103.89917   0.82998689   -103.06919   -17672.882    4.3553433    4.3553433    4.3553433   -17672.882    11940.453   -35410.437   -29548.663   -6705.9963    7140.9256    17020.501    82.616571 
   56600    1231.4444   -104.17457    1.1142368   -103.06033   -2588.4241    4.3479658    4.3479658    4.3479658   -2588.4241   -1249.3449    21115.194   -27631.121   -23185.206    13762.445   -4802.0325    82.197455 
   56700    1650.4412   -104.54618    1.4933539   -103.05282    9356.1265    4.3352078    4.3352078    4.3352078    9356.1265     8863.004    20208.387   -1003.0119    9320.3792   -14020.469    19192.073    81.476009 
   56800    697.20142   -103.70331    0.6308425   -103.07247   -2054.3811    4.3402785    4.3402785    4.3402785   -2054.3811    45849.866    -16559.33   -35453.679   -32200.352    13499.596    5886.8488    81.762244 
   56900    1725.9675   -104.61829    1.5616917    -103.0566   -14180.893    4.3557842    4.3557842    4.3557842   -14180.893   -23229.996   -2453.5826   -16859.099     17178.02   -9124.1438   -14821.786    82.641664 
   57000     1076.496   -104.02751   0.97403618   -103.05347    12451.564    4.3441175    4.3441175    4.3441175    12451.564    31093.209    32003.622   -25742.141   -7335.0848   -710.89679    13350.352     81.97939 
   57100    1203.9791   -104.15122    1.0893856   -103.06184   -20402.542     4.335378     4.335378     4.335378   -20402.542    -22976.36   -13336.908   -24894.359   -18159.434    10944.845   -20625.361    81.485608 
   57200    1722.0316   -104.62086    1.5581304   -103.06273    4962.9739    4.3478085    4.3478085    4.3478085    4962.9739    3416.9078    50055.373   -38583.359   -5739.5189   -7001.9803    2124.2858    82.188532 
   57300    942.35318   -103.91149   0.85266096   -103.05883   -18430.438    4.3593867    4.3593867    4.3593867   -18430.438   -19615.612   -42646.809    6971.1065   -20053.493    12241.357    1702.8875    82.846886 
   57400    1417.4508   -104.32149    1.2825393   -103.03895    8367.2125    4.3412371    4.3412371    4.3412371    8367.2125   -4326.2433    70023.372   -40595.492    1292.6317   -6213.3174   -28386.921    81.816431 
   57500    1542.0873   -104.43358     1.395313   -103.03826    21659.312    4.3382646    4.3382646    4.3382646    21659.312    41894.081     455.9281    22627.926   -1621.6104    10745.508    18226.008    81.648484 
   57600    929.94085   -103.89586   0.84143003   -103.05443   -4385.2661    4.3496839    4.3496839    4.3496839   -4385.2661   -31210.784    53343.699   -35288.713    633.60255   -1112.0013   -29171.709    82.294932 
   57700    1858.0369   -104.72419    1.6811908     -103.043   -13963.324    4.3548241    4.3548241    4.3548241   -13963.324    7755.8644   -12281.287   -37364.549    13082.135    2578.5546   -4765.9875    82.587032 
   57800    1041.5906   -103.98906   0.94245304   -103.04661    29371.461     4.345472     4.345472     4.345472    29371.461    16342.883    96641.357   -24869.857   -2287.9387     3097.158   -16066.926    82.056101 
   57900    1270.9207   -104.20037    1.1499558   -103.05041   -29881.561    4.3478361    4.3478361    4.3478361   -29881.561   -16387.189   -50701.174    -22556.32     15458.73   -962.28248    -4673.376    82.190098 
   58000    1592.1684   -104.48491    1.4406274   -103.04428   -5015.8456    4.3375967    4.3375967    4.3375967   -5015.8456   -16607.814    50505.189   -48944.912   -2769.9841    11210.221     28029.48    81.610777 
   58100    1210.3312   -104.15395    1.0951331   -103.05881    3495.8544    4.3406018    4.3406018    4.3406018    3495.8544    10222.537    26211.926   -25946.899    8220.7417   -2900.4137   -26005.998    81.780513 
   58200    1093.3712   -104.04584   0.98930522   -103.05654    -29261.77    4.3512288    4.3512288    4.3512288    -29261.77   -8051.9238   -35609.553   -44123.833    15862.625    13803.355     26926.83    82.382653 
   58300     1347.013    -104.2623    1.2188057    -103.0435     16040.23    4.3457773    4.3457773    4.3457773     16040.23   -21254.064    107617.17   -38242.413   -9364.2718   -3670.6339     3354.495    82.073394 
   58400     1443.761   -104.35613    1.3063453   -103.04978   -4551.7568    4.3407045    4.3407045    4.3407045   -4551.7568    45883.963    -15700.57   -43838.663   -5855.5348    8054.5525   -499.29281     81.78632 
   58500     608.7428   -103.62402   0.55080328   -103.07322    26106.755    4.3418958    4.3418958    4.3418958    26106.755   -6502.8001    120594.13   -35771.064    8507.9163    15332.367    29902.393    81.853675 
   58600    1992.8173   -104.84945     1.803143    -103.0463   -4337.9985    4.3562932    4.3562932    4.3562932   -4337.9985    25807.564   -9250.8043   -29570.755    11807.921   -1975.6119   -6274.6392    82.670642 
   58700    482.38857   -103.48743   0.43647532   -103.05096    34073.637     4.341082     4.341082     4.341082    34073.637   -12196.846    133571.79   -19154.032   -17600.025    14620.644    30300.062    81.807662 
   58800    1856.2304   -104.72104    1.6795563   -103.04149   -22048.331    4.3431305    4.3431305    4.3431305   -22048.331   -5523.6076   -25655.465   -34965.921    23082.684   -1020.0406   -7582.9205    81.923524 
   58900    1129.7049   -104.07029    1.0221807   -103.04811    15034.821    4.3411021    4.3411021    4.3411021    15034.821   -7389.2679    93871.613   -41377.884   -4000.2743     16530.03    7162.1346    81.808795 
   59000    1218.6398   -104.15736    1.1026509   -103.05471   -22011.176    4.3490819    4.3490819    4.3490819   -22011.176   -21828.837   -11541.485   -32663.206    9894.5699    3359.7419   -1650.6108    82.260769 
   59100    1309.4141   -104.23782    1.1847854   -103.05304   -31851.221     4.351583     4.351583     4.351583   -31851.221   -5091.0177   -23008.775    -67453.87     9011.355    7952.7956   -27818.812     82.40277 
   59200    1632.1567   -104.52244    1.4768097   -103.04563      11769.5    4.3323153    4.3323153    4.3323153      11769.5    5556.5173    73282.165   -43530.184    2218.1206    9130.9081    20785.062    81.313034 
   59300    839.09828   -103.82796   0.75923375   -103.06872     13112.34    4.3357754    4.3357754    4.3357754     13112.34    6764.5813    67056.433   -34483.994    8263.3499    -4353.008   -24957.123    81.508015 
   59400    1571.9996   -104.47691    1.4223783   -103.05453   -25685.744    4.3656985    4.3656985    4.3656985   -25685.744   -31492.527    13015.477    -58580.18    1564.7447    14151.748    5618.0387     83.20726 
   59500    1396.8481   -104.30323    1.2638975   -103.03933    20320.739     4.343814     4.343814     4.343814    20320.739    25519.233    79492.286     -44049.3   -5472.0081   -4581.0959   -13189.574    81.962209 
   59600    1295.2377   -104.21578    1.1719583   -103.04383   -30132.718    4.3291783    4.3291783    4.3291783   -30132.718   -33973.293    -18348.24   -38076.622    2369.8458    13178.624   -30701.904    81.136526 
   59700    1534.8342   -104.44329    1.3887502   -103.05454   -1130.7927    4.3438395    4.3438395    4.3438395   -1130.7927    3082.5439    32635.057   -39109.979    3546.0005   -2057.1802    11451.416    81.963656 
   59800    1185.9199   -104.13052    1.0730453   -103.05747   -12603.177    4.3600734    4.3600734    4.3600734   -12603.177     -52094.2    54355.605   -40070.935    5367.3414   -1421.8886   -37494.087     82.88604 
   59900    1067.6635   -104.01272   0.96604436   -103.04668   -16887.369    4.3558739    4.3558739    4.3558739   -16887.369   -37149.817    1180.0848   -14692.375   -2851.4278   -2306.5533    20387.192    82.646775 
   60000    1782.9103   -104.64008    1.6132147   -103.02687   -3884.0371    4.3388993    4.3388993    4.3388993   -3884.0371   -3075.7524    30352.886   -38929.245   -11712.769    1911.3194   -101.42376    81.684324 
   60100      1068.06   -104.00688   0.96640313   -103.04048    21053.739    4.3391939    4.3391939    4.3391939    21053.739   -12112.737    60426.873    14847.081    1747.9244    4395.7329   -8444.8127    81.700963 
   60200    1270.9003   -104.20556    1.1499373   -103.05562   -14688.004    4.3463886    4.3463886    4.3463886   -14688.004   -21890.917    5337.6044   -27510.699   -4390.6851   -6490.5617     29114.79    82.108033 
   60300    1734.0121   -104.61286    1.5689706   -103.04389    6990.4719    4.3530068    4.3530068    4.3530068    6990.4719   -23524.651    34233.723    10262.343    2694.7786    15065.657   -10424.011    82.483684 
   60400     1162.541   -104.10255    1.0518915   -103.05065   -19846.641    4.3517179    4.3517179    4.3517179   -19846.641    -35624.63    22066.858   -45982.151   -7730.2208   -6383.0731    22701.043    82.410436 
   60500    979.94535   -103.94419   0.88667515   -103.05751    5829.5014    4.3394572    4.3394572    4.3394572    5829.5014     3594.091    8970.5234    4923.8898     17104.78    2336.1231    15079.758    81.715836 
   60600    1646.5602   -104.53305    1.4898423   -103.04321    24245.278    4.3322204    4.3322204    4.3322204    24245.278    28550.017    12206.864    31978.952   -11290.968    3401.9945     9020.483    81.307691 
   60700    1072.3839   -104.02716   0.97031548   -103.05684   -57718.789    4.3602768    4.3602768    4.3602768   -57718.789   -63313.019   -76939.633   -32903.714    11024.375   -2933.4538    24835.264    82.897641 
   60800    1477.9067   -104.37262    1.3372411   -103.03538    9856.8782    4.3418605    4.3418605    4.3418605    9856.8782    15754.176   -27476.451     41292.91    20207.652    8549.2641   -10733.711    81.851683 
   60900    1147.0038   -104.08173    1.0378332    -103.0439     12527.02    4.3331961    4.3331961    4.3331961     12527.02    4616.0029    28222.444    4742.6139   -830.84892   -3337.7494    24684.582     81.36264 
   61000    1388.7737   -104.31324    1.2565916   -103.05665   -1005.6823    4.3415503    4.3415503    4.3415503   -1005.6823   -15614.976     6737.062    5860.8666     11160.89   -7037.6933   -1961.3112    81.834137 
   61100     1325.978   -104.25715    1.1997728   -103.05738    444.94726    4.3579504    4.3579504    4.3579504    444.94726    12244.686   -8175.2833   -2734.5604   -6677.5241   -3840.0261   -10512.016    82.765022 
   61200    1646.9371   -104.53772    1.4901833   -103.04753   -16874.242    4.3467047    4.3467047    4.3467047   -16874.242   -28752.391   -6200.6484   -15669.686    7588.8449   -8589.1265    16154.132    82.125948 
   61300    730.05743   -103.71058    0.6605713   -103.05001     39777.16    4.3266107    4.3266107    4.3266107     39777.16    89860.593    11144.035    18326.852    9903.3712    9085.3116   -34417.863    80.992247 
   61400    1703.9261   -104.59899    1.5417481   -103.05724    9612.1602    4.3431224    4.3431224    4.3431224    9612.1602    17423.016    39835.077   -28421.612    -9552.526   -2887.3006   -797.72664    81.923069 
   61500    1058.4015   -104.02419   0.95766388   -103.06652   -1527.4807    4.3480574    4.3480574    4.3480574   -1527.4807   -6242.5256   -8303.2383    9963.3218     14258.98    3322.0539   -22320.198    82.202649 
   61600    1274.3441   -104.20586    1.1530533   -103.05281   -2968.0593    4.3499396    4.3499396    4.3499396   -2968.0593    1444.1963   -25922.659    15574.285   -2572.4686   -8584.0142   -11304.305    82.309448 
   61700    1631.0146   -104.51441    1.4757763   -103.03864    3726.1262     4.340738     4.340738     4.340738    3726.1262     10415.89    14564.713   -13802.225   -2365.7925    3793.2385   -6245.9382    81.788212 
   61800    725.35047   -103.71233   0.65631235   -103.05602    12816.435    4.3351107    4.3351107    4.3351107    12816.435    39147.429   -57725.108    57026.984    13936.695    1973.8091   -19363.299    81.470539 
   61900    1721.4855   -104.60664    1.5576362     -103.049   -19118.552    4.3478397    4.3478397    4.3478397   -19118.552   -10673.846   -21286.021   -25395.788   -17935.388   -5274.0721    26572.136    82.190301 
   62000    1228.0104    -104.1612    1.1111296   -103.05007    1416.2653    4.3493476    4.3493476    4.3493476    1416.2653    15798.317    -16282.42    4732.8989    1577.3188   -3754.8414    -11523.29    82.275845 
   62100    937.10858   -103.89542   0.84791553   -103.04751    3630.7936    4.3494614    4.3494614    4.3494614    3630.7936   -25652.839   -7459.7127    44004.933   -19263.188   -16860.172    944.00131    82.282305 
   62200    1399.8973   -104.30262    1.2666565   -103.03596    15317.965    4.3394586    4.3394586    4.3394586    15317.965    13497.521    16255.137    16201.236    -5060.228    3038.3416    9751.5759    81.715916 
   62300    1076.4786   -104.01761   0.97402044   -103.04359    2298.4937     4.351559     4.351559     4.351559    2298.4937   -9430.7016   -10313.357     26639.54    1234.8643   -7276.7851   -14350.853    82.401408 
   62400    1758.4022   -104.61628    1.5910393   -103.02524   -38324.915     4.357387     4.357387     4.357387   -38324.915   -28156.064    -47531.85   -39286.829   -3639.1116   -5013.8027    38884.286    82.732927 
   62500    1324.1081   -104.22242    1.1980808   -103.02434    14852.796    4.3424062    4.3424062    4.3424062    14852.796   -190.34892    24953.845    19794.891    16230.101    2825.7356   -12149.646    81.882543 
   62600    1141.5642   -104.06605    1.0329113   -103.03314    18164.743    4.3356643    4.3356643    4.3356643    18164.743    26994.932    20040.657    7458.6399    -14556.35    38.602764    -2120.157    81.501751 
   62700    1370.1362   -104.28861     1.239728   -103.04888   -2923.6269    4.3491641    4.3491641    4.3491641   -2923.6269    -17449.63     1010.899    7667.8504    5841.0993    3575.3648    13458.421    82.265434 
   62800    1456.0146   -104.36308    1.3174326   -103.04564   -13023.746    4.3536789    4.3536789    4.3536789   -13023.746   -28722.514    15583.094   -25931.817   -5965.2187   -1743.1756   -26174.736    82.521894 
   62900    906.62207   -103.86515    0.8203307   -103.04482     25111.08    4.3382954    4.3382954    4.3382954     25111.08    13734.837    46138.269    15460.134    3207.6068   -3926.6878    36329.411    81.650219 
   63000    1714.8678    -104.5977    1.5516485   -103.04605   -4756.0904    4.3398656    4.3398656    4.3398656   -4756.0904   -17818.121    26715.748   -23165.898     7433.245   -2534.7477   -19641.083    81.738911 
   63100    1281.6779   -104.21253    1.1596891   -103.05284   -12780.646    4.3462214    4.3462214    4.3462214   -12780.646   -16507.686   -5402.4284   -16431.823   -1663.0418    6951.2043    14670.648     82.09856 
   63200    1275.1236   -104.20535    1.1537586   -103.05159   -7214.5331     4.343605     4.343605     4.343605   -7214.5331   -10884.475   -4493.6954   -6265.4293     7379.141   -2949.7605    16458.924    81.950378 
   63300     1346.808   -104.26226    1.2186202   -103.04364    13312.515     4.347932     4.347932     4.347932    13312.515   -41188.746    71706.755    9419.5367   -10666.942    2070.8358    1730.0575    82.195534 
   63400    1097.6142   -104.04158   0.99314439   -103.04844   -13714.135    4.3436509    4.3436509    4.3436509   -13714.135   -46067.402   -25708.615    30633.612    2135.5162    7618.5938    40038.367    81.952977 
   63500    1246.9499   -104.17954    1.1282664   -103.05128    1760.0881     4.333098     4.333098     4.333098    1760.0881    -45372.05    61271.992   -10619.677    9727.2634   -13698.421   -11691.156    81.357116 
   63600    1449.9733   -104.36821    1.3119663   -103.05624    5192.5927    4.3466546    4.3466546    4.3466546    5192.5927   -31244.545    42747.913    4074.4097    1295.7648    2689.6407    11240.102    82.123109 
   63700    947.69277   -103.92062   0.85749233   -103.06313   -16297.945    4.3528207    4.3528207    4.3528207   -16297.945   -53317.949    20849.657   -16425.544    8460.1737   -11432.158    27662.799    82.473101 
   63800    1281.4716   -104.21486    1.1595024   -103.05536    2139.9419    4.3506585    4.3506585    4.3506585    2139.9419   -64112.829    30087.275     40445.38   -3216.4949   -18173.755    3772.2374    82.350264 
   63900    1525.2889   -104.42993    1.3801134   -103.04982    7529.4605    4.3369731    4.3369731    4.3369731    7529.4605    -11455.71    14887.524    19156.568   -1600.0536   -7480.9242    12117.812    81.575581 
   64000    801.93003   -103.79052   0.72560315   -103.06492    1577.0796    4.3354755    4.3354755    4.3354755    1577.0796    -55824.64    56304.691    4251.1873    -4704.039   -7626.5048    1359.0358    81.491105 
   64100      1557.18   -104.46241    1.4089692   -103.05344   -3251.9969    4.3470149    4.3470149    4.3470149   -3251.9969   -36244.054    29234.703   -2746.6401   -12137.297    13756.998    4623.5275    82.143534 
   64200    1360.9925   -104.28634    1.2314546   -103.05489   -1324.2775    4.3458357    4.3458357    4.3458357   -1324.2775   -52122.557   -12188.312    60338.036   -886.96798   -168.57899    23219.666    82.076702 
   64300    858.54174    -103.8418   0.77682661   -103.06497    19226.088    4.3417045    4.3417045    4.3417045    19226.088   -32647.804    83623.697      6702.37    2254.8551    16396.751    -19142.53    81.842855 
   64400    1802.0424   -104.68268    1.6305258   -103.05215    3437.2007    4.3506613    4.3506613    4.3506613    3437.2007   -38407.865    45790.857      2928.61    5225.3424   -1520.9694    4777.7154    82.350421 
   64500    1171.2235   -104.12412    1.0597477   -103.06437   -18982.345    4.3466489    4.3466489    4.3466489   -18982.345   -57157.929    7886.2715    -7675.379   -1354.9557    9300.8853    12411.757    82.122787 
   64600    1172.0581   -104.12835    1.0605028   -103.06785   -5891.2149    4.3288802    4.3288802    4.3288802   -5891.2149    -42947.22   -1855.9112    27129.487    -11535.12    4136.6151   -8242.0475    81.119767 
   64700    1832.1622   -104.73032    1.6577788   -103.07254     18036.44    4.3335082    4.3335082    4.3335082     18036.44   -21472.147    62181.111    13400.356   -3745.4454   -4490.0837    1963.8704    81.380222 
   64800    485.14158   -103.52992    0.4389663   -103.09095    20861.538    4.3576154    4.3576154    4.3576154    20861.538   -58524.518    69736.034    51373.098    -11074.05    8188.7877   -531.14768    82.745939 
   64900    1273.3912   -104.20376    1.1521911   -103.05157   -17613.901    4.3611825    4.3611825    4.3611825   -17613.901   -52619.066    28305.952   -28528.589   -9241.9264   -7321.8362     5870.931    82.949313 
   65000    1517.7498   -104.40324    1.3732919   -103.02994    35943.364    4.3288377    4.3288377    4.3288377    35943.364   -6203.4619    40528.829    73504.725   -5097.4616     5716.259   -7498.4467    81.117378 
   65100    762.21223    -103.7548   0.68966564   -103.06513   -18849.616    4.3256624    4.3256624    4.3256624   -18849.616   -55730.203   -10092.353    9273.7069    142.87701   -10067.566    4720.8447    80.939005 
   65200    1428.1909   -104.37233    1.2922571   -103.08007    2709.2572    4.3436577    4.3436577    4.3436577    2709.2572   -43328.743    61150.124   -9693.6088    4387.8503    1403.5503    -2714.055    81.953361 
   65300    1638.6995    -104.5459    1.4827298   -103.06317   -12787.084    4.3625266    4.3625266    4.3625266   -12787.084   -46805.955    20511.358   -12066.655    5231.3636    -106.3404   -6243.4494     83.02603 
   65400     922.2771    -103.8853    0.8344957   -103.05081   -21640.882    4.3544143    4.3544143    4.3544143   -21640.882    -83929.04    11979.753    7026.6401     5257.653   -5146.1508   -7016.1193    82.563719 
   65500    1576.4661   -104.45624    1.4264197   -103.02982    22477.502    4.3412737    4.3412737    4.3412737    22477.502   -21311.887    35739.582    53004.811     3605.148    8176.4559   -4850.7035    81.818495 
   65600    1096.3538   -104.04551   0.99200394   -103.05351    980.28901    4.3298421    4.3298421    4.3298421    980.28901   -67482.569   -26529.429    96952.865    10629.657   -13965.941   -3191.6234    81.173854 
   65700    1154.1735   -104.11697    1.0443205   -103.07265   -4132.6502    4.3433015    4.3433015    4.3433015   -4132.6502   -40029.339    21192.119    6439.2699   -8846.1648    19445.192   -13478.607    81.933204 
   65800    1815.1421   -104.69391    1.6423787   -103.05153   -29098.613    4.3522794    4.3522794    4.3522794   -29098.613   -69596.337   -21052.911    3353.4098    19531.141    5718.0448   -1324.4554     82.44234 
   65900    803.22292   -103.78029   0.72677297   -103.05351     14674.87    4.3372691    4.3372691    4.3372691     14674.87   -41481.783    4986.0049    80520.387   -9846.7544    9250.5627    3663.7875    81.592284 
   66000    1321.6116   -104.25131     1.195822   -103.05549    6340.9107    4.3377532    4.3377532    4.3377532    6340.9107   -53405.471    47944.977    24483.226    757.20758    26086.152    12879.627    81.619613 
   66100    1429.1143   -104.34303    1.2930926   -103.04993    13161.047    4.3440208    4.3440208    4.3440208    13161.047   -27843.109     35673.29    31652.961   -6826.8819   -6142.5882     6326.656    81.973916 
   66200    1054.3395    -104.0064   0.95398856   -103.05241   -22692.577    4.3560063    4.3560063    4.3560063   -22692.577   -74845.834    30390.925   -23622.823    -4409.046     22447.61   -8824.1739    82.654311 
   66300    1717.1266   -104.58731    1.5536923   -103.03362    -1551.275    4.3452194    4.3452194    4.3452194    -1551.275   -32137.792    12694.898    14789.069    2700.5602   -7955.2801   -17785.456    82.041792 
   66400    827.10779   -103.78738   0.74838451   -103.03899    37624.747    4.3260744    4.3260744    4.3260744    37624.747   -26142.463     23473.48    115543.22    -7109.865    18227.981    4891.4175    80.962137 
   66500    1492.4055   -104.40295    1.3503599   -103.05259   -20809.333    4.3436336    4.3436336    4.3436336   -20809.333   -43744.938     4850.828   -23533.888    4550.4723   -6271.0421    -14510.65    81.951999 
   66600    1510.3489   -104.41501    1.3665954   -103.04841    22.128487    4.3458634    4.3458634    4.3458634    22.128487   -23981.698    748.76104    23299.323   -9600.0797    903.45561    15873.928    82.078272 
   66700    706.07294   -103.69495   0.63886964   -103.05608    22961.735     4.336065     4.336065     4.336065    22961.735   -48805.838    31690.252    86000.791    811.08424    2534.8489   -10655.466    81.524353 
   66800    1584.8348   -104.49471    1.4339918   -103.06072   -3159.5649    4.3376419    4.3376419    4.3376419   -3159.5649   -14881.063    1847.6625    3554.7061   -162.15404   -17546.839    7486.3102    81.613328 
   66900    1512.8267   -104.43362    1.3688374   -103.06478    10230.471    4.3369179    4.3369179    4.3369179    10230.471   -32836.856     8039.373    55488.896   -6370.7106    15668.601    17514.438    81.572467 
   67000    572.21781   -103.59274    0.5177547   -103.07498    1652.9131     4.345567     4.345567     4.345567    1652.9131   -40294.596    38332.954    6920.3814    5081.0387   -25900.406    5400.4697    82.061481 
   67100     1882.845   -104.75174    1.7036377    -103.0481   -3976.4352    4.3459338    4.3459338    4.3459338   -3976.4352   -16659.212   -13740.539    18470.446    1967.0738    8597.8573    6725.4264    82.082265 
   67200    1032.9418   -103.99625   0.93462749   -103.06163    3806.4215    4.3415833    4.3415833    4.3415833    3806.4215   -44210.014    21135.996    34493.282    2311.8005   -12067.263   -4080.6429    81.836001 
   67300    1043.9765    -104.0061   0.94461188   -103.06149    32133.449      4.33914      4.33914      4.33914    32133.449   -20891.477    45571.688    71720.136   -1919.6826   -6652.8022    3506.1273    81.697917 
   67400     1477.892   -104.38854    1.3372278   -103.05131   -6075.7164    4.3483756    4.3483756    4.3483756   -6075.7164   -23151.328    1344.0107    3580.1682   -4023.3094   -6113.9083    31912.527    82.220698 
   67500    684.51727   -103.66977   0.61936561    -103.0504    15348.806    4.3503616    4.3503616    4.3503616    15348.806   -44805.227     51510.73    39340.915   -4998.2643   -5775.5394    5356.5424    82.333404 
   67600    1671.1424   -104.53849    1.5120847    -103.0264    3751.1889    4.3513279    4.3513279    4.3513279    3751.1889    9230.3948    12224.623   -10201.451   -14556.212   0.37783082    10656.856     82.38828 
   67700    912.63911   -103.86403   0.82577504   -103.03825    5560.7891    4.3411024    4.3411024    4.3411024    5560.7891   -33466.864    37771.796    12377.435   -2513.0806   -24856.793   -7868.5482    81.808813 
   67800    1102.4896   -104.03442   0.99755578   -103.03687    20173.052    4.3446398    4.3446398    4.3446398    20173.052    15151.974    20026.987    25340.193   -12264.778    12372.395   -9132.0934    82.008964 
   67900    1545.1612   -104.42497    1.3980943   -103.02688   -8662.1548    4.3528593    4.3528593    4.3528593   -8662.1548   -31840.216   -2290.0632    8143.8149   -10369.217   -17350.285   -6940.1037    82.475297 
   68000    1068.2079   -104.00261   0.96653693   -103.03607   -5533.3755    4.3407415    4.3407415    4.3407415   -5533.3755   -41057.289    11066.241    13390.921   -243.74227     8019.003   -4750.6956    81.788411 
   68100    1118.5489    -104.0639    1.0120865   -103.05181     13627.84    4.3329421    4.3329421    4.3329421     13627.84   -23927.111   -766.67486    65577.306   -20937.737    374.89978   -3416.7772    81.348334 
   68200    1601.3169   -104.51289    1.4489052   -103.06398   -19695.928    4.3399714    4.3399714    4.3399714   -19695.928   -53531.835    12952.793   -18508.741    1147.5919   -14241.904    8417.3147     81.74489 
   68300    826.80126   -103.81303   0.74810716   -103.06492   -16419.991    4.3553783    4.3553783    4.3553783   -16419.991   -74522.601   -12705.184    37967.813   -8760.2759     14595.67   -4224.4831    82.618565 
   68400    1565.2782    -104.4579    1.4162966   -103.04161   -25927.763    4.3475317    4.3475317    4.3475317   -25927.763    -22847.94   -47130.946   -7804.4023   -11989.372    -6777.165    13491.166    82.172837 
   68500    1225.7372   -104.15054    1.1090728   -103.04147     368.9881    4.3400939    4.3400939    4.3400939     368.9881   -53711.872    32308.976    22509.861    3774.8221    30075.431    3476.6454    81.751808 
   68600    1090.9371   -104.04409   0.98710283   -103.05699   -2223.4275    4.3388549    4.3388549    4.3388549   -2223.4275   -31168.925   -37441.288    61939.931   -19560.017    384.67005   -4080.7826    81.681817 
   68700    1398.6686   -104.33097    1.2655447   -103.06542   -10648.284    4.3503799    4.3503799    4.3503799   -10648.284   -10021.209   -28043.121    6119.4788    7876.6193   -6524.7993    317.52561     82.33444 
   68800    1293.0668   -104.22478     1.169994   -103.05479   -1804.5318    4.3480588    4.3480588    4.3480588   -1804.5318   -51013.169    1616.8799    43982.694   -16020.778    4407.2193    11097.649    82.202724 
   68900    1211.8032   -104.14076     1.096465   -103.04429   -904.00964    4.3453481    4.3453481    4.3453481   -904.00964     6032.293   -23485.967    14741.645    7082.8941    10301.303    5704.1926    82.049082 
   69000    1197.5608   -104.12567    1.0835782   -103.04209    8848.5683    4.3423052    4.3423052    4.3423052    8848.5683   -13030.435   -7465.5422    47041.682   -7832.5832    19714.032    15881.724    81.876834 
   69100    1422.9039   -104.33399    1.2874734   -103.04652    7010.0918    4.3395709    4.3395709    4.3395709    7010.0918   -17331.513    32055.957    6305.8317    14758.495    1737.4811   -7847.9495    81.722257 
   69200    1061.3476   -104.01248   0.96032963   -103.05215   -7972.6086    4.3541883    4.3541883    4.3541883   -7972.6086   -549.20462   -14345.851   -9022.7699    1249.4347   -249.84168    8622.3238    82.550863 
   69300    1481.3393   -104.37294    1.3403469    -103.0326   -13504.274     4.351807     4.351807     4.351807   -13504.274   -34883.573    20596.433   -26225.683     10485.57    16003.392    609.81113    82.415499 
   69400    1301.4254   -104.21205    1.1775571   -103.03449    5918.6816    4.3323664    4.3323664    4.3323664    5918.6816    6653.2432   -22487.119     33589.92    18195.455   -4135.9558    20781.201    81.315912 
   69500    1127.4186    -104.0758    1.0201121   -103.05569   -14088.008    4.3384849    4.3384849    4.3384849   -14088.008   -1854.1907   -2386.6896   -38023.145    954.26239    27574.571     1048.124    81.660918 
   69600    1438.3346   -104.35476    1.3014354   -103.05332    2150.9601    4.3413654    4.3413654    4.3413654    2150.9601    11126.798   -13933.303     9259.385     19306.79   -11409.614   -6099.4738    81.823684 
   69700     1206.238   -104.14348    1.0914295   -103.05205   -14505.588    4.3519644    4.3519644    4.3519644   -14505.588     33183.53   -28400.872    -48299.42   -9299.8308    169.06372    2584.9689    82.424441 
   69800     1596.216   -104.47893    1.4442898   -103.03464   -16182.682    4.3464007    4.3464007    4.3464007   -16182.682    6208.5692   -11029.487   -43727.126   -2183.3794    16874.547   -15465.107    82.108718 
   69900    975.46306   -103.91848   0.88261948   -103.03586    13892.121    4.3411071    4.3411071    4.3411071    13892.121    84855.094   -12163.326   -31015.406    6366.7041    -14476.29    16349.563    81.809076 
   70000    1583.2925   -104.46755    1.4325963   -103.03495   -15912.012    4.3430356    4.3430356    4.3430356   -15912.012   -18065.408   -25676.951   -3993.6788   -15640.635    22699.956   -21452.086    81.918155 
   70100    1072.0055   -104.00898   0.96997308   -103.03901    11446.603    4.3395701    4.3395701    4.3395701    11446.603    62958.586   -4709.8796   -23908.898    22451.678   -21066.553    16256.458    81.722212 
   70200    1289.6535    -104.2087    1.1669056    -103.0418   -2677.3936    4.3439628    4.3439628    4.3439628   -2677.3936    10475.272   -36961.435    18453.982   -14809.326   -2380.4282   -10776.867    81.970634 
   70300    1362.7111   -104.27006    1.2330097   -103.03705    11535.344    4.3372896    4.3372896    4.3372896    11535.344    46335.996    16835.869   -28565.834     17555.73   -5605.2167    -9561.601    81.593442 
   70400    1081.2934   -104.03108   0.97837699   -103.05271   -7108.5572    4.3419764    4.3419764    4.3419764   -7108.5572      20734.1   -35755.405   -6304.3658    -1064.204   -10131.008    2706.2152    81.858236 
   70500     1255.353   -104.18346    1.1358697   -103.04759    3137.8169    4.3449651    4.3449651    4.3449651    3137.8169    34163.861    -859.2777   -23891.133    7440.3664    16114.743   -19579.052     82.02739 
   70600     1636.304   -104.52389    1.4805623   -103.04333    313.15405    4.3299215    4.3299215    4.3299215    313.15405   -3128.1257    19776.497   -15708.909    19899.266   -20620.786    2321.5968    81.178324 
   70700    777.13239   -103.76463   0.70316572   -103.06146   -17256.106    4.3417921    4.3417921    4.3417921   -17256.106    29916.913   -44948.022   -36737.209    1121.6495    10008.115   -21184.177    81.847814 
   70800    1740.9029   -104.61167    1.5752055   -103.03647   -7643.1341     4.345552     4.345552     4.345552   -7643.1341    1224.9245    10636.555   -34790.882    15859.013    3829.1663   -734.97505    82.060632 
   70900    1051.7502   -103.99358   0.95164568   -103.04193   -21953.649    4.3415538    4.3415538    4.3415538   -21953.649    19612.929   -53749.375   -31724.502   -9573.4268      -2833.5   -12954.657    81.834333 
   71000    1066.2576   -104.00686   0.96477233   -103.04209    1781.5081    4.3338966    4.3338966    4.3338966    1781.5081      15849.4    1853.3933   -12358.269    5147.8269    29045.114    3256.3273    81.402106 
   71100    1506.7981   -104.40452    1.3633825   -103.04113    3092.3351    4.3363145    4.3363145    4.3363145    3092.3351    1484.6504     28863.69   -21071.335   -13999.888    -1916.384   -2963.4982    81.538423 
   71200    813.15772   -103.79306   0.73576219   -103.05729   -9805.3775    4.3489232    4.3489232    4.3489232   -9805.3775    42618.454   -8902.6375   -63131.949    531.96119    23346.774   -261.95643    82.251763 
   71300    1505.7499   -104.39848    1.3624341   -103.03605    13582.964    4.3498203    4.3498203    4.3498203    13582.964    18606.404    52238.859   -30096.371    -19372.24    17977.903   -208.85795    82.302676 
   71400    1237.7906   -104.15441    1.1199789   -103.03443    -15837.66    4.3420125    4.3420125    4.3420125    -15837.66    58515.919    -39756.11   -66272.789    17666.778    -216.5063   -12989.968    81.860274 
   71500    1315.9007   -104.22127    1.1906546   -103.03062    9767.7945    4.3408555    4.3408555    4.3408555    9767.7945    2810.1644    63023.986   -36530.767   -9613.9677     23993.77    5003.5254    81.794854 
   71600    1385.5941   -104.29111    1.2537147    -103.0374    9077.2822     4.336073     4.336073     4.336073    9077.2822    23750.015    2085.2245    1396.6069    12200.025   -10435.384   -14548.335      81.5248 
   71700    1319.6784   -104.24811    1.1940728   -103.05403   -23002.084    4.3440902    4.3440902    4.3440902   -23002.084   -6294.9801    9025.0359   -71736.309    -2788.793    8962.2237    11773.833    81.977846 
   71800    1666.5445   -104.54692    1.5079245     -103.039    3886.2818     4.345236     4.345236     4.345236    3886.2818   -28206.256    31035.387    8829.7143   -14022.545    5302.0203   -3776.5263     82.04273 
   71900    789.53467   -103.76252   0.71438757   -103.04813   -5184.8263    4.3432164    4.3432164    4.3432164   -5184.8263    40164.396   -10876.183   -44842.691    7899.4955   -781.54324    1010.2835    81.928386 
   72000    1611.3749   -104.48888    1.4580058   -103.03087     15113.78    4.3408789    4.3408789    4.3408789     15113.78   -543.02157    25220.092    20664.268   -1132.3466    4335.4458    1826.5755    81.796179 
   72100    1216.6523   -104.14044    1.1008526   -103.03959   -5742.2142    4.3378015    4.3378015    4.3378015   -5742.2142     -21895.2    37345.916   -32677.358    -1657.686   -9244.9185   -4087.3022    81.622337 
   72200    1553.2379   -104.44698    1.4054023   -103.04158   -28735.103    4.3498394    4.3498394    4.3498394   -28735.103    966.66168   -45789.189   -41382.782    8586.5005    3467.7024     26335.94    82.303759 
   72300    1122.6248   -104.04422    1.0157745   -103.02845    38806.294    4.3406049    4.3406049    4.3406049    38806.294    21748.422    66861.712    27808.747   -1833.8997   -9632.8913   -8671.4918    81.780687 
   72400    1165.6512   -104.09561    1.0547057   -103.04091   -19624.024    4.3422312    4.3422312    4.3422312   -19624.024    8607.0252   -23604.878    -43874.22    10295.452    5040.9507    14284.472    81.872645 
   72500    1660.1313   -104.53314    1.5021217   -103.03102    23902.562    4.3302171    4.3302171    4.3302171    23902.562   -31365.392    54992.055    48081.023   -10765.471    2965.7917   -7959.5985     81.19495 
   72600    867.34194   -103.83878   0.78478922   -103.05399    6984.4823    4.3365716    4.3365716    4.3365716    6984.4823    35692.505    36358.069   -51097.128    7509.2343   -14928.922   -8764.3033     81.55293 
   72700    1661.8016   -104.54651     1.503633   -103.04288    -7156.674     4.348717     4.348717     4.348717    -7156.674   -10515.104    5736.5947   -16691.512   -113.33103    9244.5241    6295.0712    82.240061 
   72800    1479.2159   -104.37484    1.3384256   -103.03641   -16897.984    4.3453642    4.3453642    4.3453642   -16897.984   -37168.348    12849.941   -26375.546   -8367.7433    3661.4813   -18173.851    82.049992 
   72900    1000.7743   -103.93574   0.90552162   -103.03022    23187.319    4.3307901    4.3307901    4.3307901    23187.319    24996.703    40095.635    4469.6185    13966.056    422.55375   -12227.361    81.227184 
   73000    1351.3084   -104.25977    1.2226923   -103.03708    3986.3463    4.3436827    4.3436827    4.3436827    3986.3463   -26017.893    40407.539   -2430.6072   -15094.909    2526.8211   -2797.0919     81.95478 
   73100    987.40983   -103.92893   0.89342916    -103.0355     936.9717     4.346871     4.346871     4.346871     936.9717    15896.622    17095.758   -30181.465   -9730.3906   -4528.1733    -17750.58    82.135379 
   73200     1852.812   -104.69474    1.6764633   -103.01828   -4980.2313    4.3376454    4.3376454    4.3376454   -4980.2313   -30552.328    26690.622   -11078.988    5463.8745   -2007.4808    17799.745    81.613525 
   73300     1126.802     -104.057    1.0195541   -103.03744   -14076.565    4.3425843    4.3425843    4.3425843   -14076.565    -5257.779    20623.732   -57595.648   -3283.0816   -7659.5249   -32633.243    81.892622 
   73400    1220.9308   -104.14199    1.1047238   -103.03726    26945.897    4.3425867    4.3425867    4.3425867    26945.897     18736.68     66301.19   -4200.1793   -9847.0374     9659.329    7119.5691    81.892758 
   73500    1424.2179   -104.32828    1.2886623   -103.03962     -17970.9     4.348219     4.348219     4.348219     -17970.9   -44457.328   -1377.6287   -8077.7431    5223.1874    10292.737    1776.7314    82.211816 
   73600    1032.3624    -103.9655   0.93410317    -103.0314    24188.789    4.3380202    4.3380202    4.3380202    24188.789    18521.593    37195.307    16849.466    919.37134    -8009.496   -22830.859    81.634685 
   73700    1681.2247   -104.54853    1.5212074   -103.02732    4209.3895    4.3439332    4.3439332    4.3439332    4209.3895    5343.5816    8047.5135   -762.92671    5511.5794    15954.784    965.03147    81.968959 
   73800    1063.6419   -104.00279   0.96240553   -103.04039    -18064.48    4.3507419    4.3507419    4.3507419    -18064.48    8613.6972   -83.263067   -62723.875   -4405.0225    1773.3529   -61076.361    82.354998 
   73900     1761.277   -104.61732    1.5936404   -103.02368    18908.535    4.3406834    4.3406834    4.3406834    18908.535    13264.259    41527.551    1933.7934    22441.446    16231.343    10377.141    81.785125 
   74000    711.14504   -103.68867   0.64345898   -103.04521   -4580.0868    4.3372776    4.3372776    4.3372776   -4580.0868    42661.148    2277.6309   -58679.039    11933.921    666.78141   -35242.296    81.592765 
   74100    1812.0888   -104.67455     1.639616   -103.03493    4389.6652    4.3406205    4.3406205    4.3406205    4389.6652    5883.0079    2644.0728    4641.9149    2116.0034   -6340.0063    1393.2659    81.781569 
   74200     882.0477   -103.84402   0.79809529   -103.04593   -750.51781    4.3493126    4.3493126    4.3493126   -750.51781    24390.857   -4708.0314   -21934.379    6245.8336    5198.3238   -33746.155     82.27386 
   74300    1331.8598   -104.24163    1.2050947   -103.03654   -14243.184    4.3427863    4.3427863    4.3427863   -14243.184   -16571.126    8558.9053   -34717.332    -7357.486   -7434.9599   -35321.142    81.904047 
   74400    1372.5641   -104.27011    1.2419248   -103.02818    28195.021    4.3325245    4.3325245    4.3325245    28195.021    20962.535    41230.635    22391.893   -5077.6819    1007.0709   -407.68875    81.324817 
   74500    1133.5835   -104.07215    1.0256901   -103.04646   -14585.481     4.334397     4.334397     4.334397   -14585.481    28382.571     -12569.3   -59569.714      3694.91    101.42829   -42839.929    81.430305 
   74600    1469.9266   -104.37031    1.3300204   -103.04029    16303.194     4.339237     4.339237     4.339237    16303.194   -25396.446    32203.686    42102.342   -11033.882   -3974.1678    19790.762    81.703397 
   74700    1109.3522   -104.05302    1.0037651   -103.04925    -13111.02    4.3429856    4.3429856    4.3429856    -13111.02    5775.9242   -27362.668   -17746.315    8177.1297     6718.529   -43319.689    81.915325 
   74800    1539.0296   -104.42707    1.3925463   -103.03453    8141.1953    4.3384594    4.3384594    4.3384594    8141.1953   -6601.5605    6891.7727    24133.374   -6443.0777   -14286.786    6299.8519    81.659481 
   74900    1348.7103   -104.25591    1.2203414   -103.03557   -27319.914    4.3458502    4.3458502    4.3458502   -27319.914   -13203.305   -23507.877   -45248.559   -15056.648    -14329.65   -20033.568    82.077524 
   75000    1271.9821   -104.18325    1.1509162   -103.03233    6729.4231    4.3417423    4.3417423    4.3417423    6729.4231    5382.1042   -20515.977    35322.142    6122.4245    -4932.948   -18947.138    81.844995 
   75100    1259.1618   -104.17765    1.1393161   -103.03833   -2622.8301    4.3407827    4.3407827    4.3407827   -2622.8301   -43425.783    34119.493    1437.7992   -15419.912     -2305.55    4359.0286     81.79074 
   75200    1303.8369   -104.22408    1.1797391   -103.04434    2114.0168    4.3331906    4.3331906    4.3331906    2114.0168    24451.156   -36959.547    18850.441    6067.4153     3064.417   -27523.759    81.362332 
   75300    1317.5708   -104.24615    1.1921658   -103.05398   -9440.2954    4.3430812    4.3430812    4.3430812   -9440.2954   -63675.369    50880.944   -15526.461   -11549.468   -1910.5702    14541.115    81.920734 
   75400     1152.755   -104.09593    1.0430369   -103.05289   -9946.3507    4.3438744    4.3438744    4.3438744   -9946.3507   -3301.1647   -47368.257    20830.369   -10905.982   -7359.1529   -10753.042    81.965632 
   75500    1362.3462   -104.27471    1.2326795   -103.04204    3128.7815    4.3407626    4.3407626    4.3407626    3128.7815   -10946.789     25427.23   -5094.0966    4716.2449    2551.4486    -18870.43    81.789604 
   75600    1223.0059   -104.15569    1.1066015   -103.04908   -17253.974     4.342317     4.342317     4.342317   -17253.974   -26860.862   -3823.7921   -21077.269   -6532.0119   -5120.7132    20925.506    81.877501 
   75700    1395.5648   -104.31217    1.2627364   -103.04944    12296.458    4.3310468    4.3310468    4.3310468    12296.458    -28700.34    1284.1196    64305.593    2064.8241    7105.4819   -11831.054    81.241632 
   75800     1098.237   -104.04676   0.99370795   -103.05305    23301.592    4.3303937    4.3303937    4.3303937    23301.592   -14292.061    38884.537    45312.299    10241.371    -10994.11    4674.2617    81.204883 
   75900    1542.2618   -104.44558    1.3954709   -103.05011    -31717.71    4.3498222    4.3498222    4.3498222    -31717.71   -14924.907   -60404.407   -19823.818   -1647.1174     3074.799   -7621.3363    82.302785 
   76000    1571.0247   -104.45973    1.4214962   -103.03823   -10844.851    4.3369389    4.3369389    4.3369389   -10844.851   -44270.084    8920.9456    2814.5862   -2519.6663    3477.6931   -15462.204    81.573652 
   76100    872.57372   -103.83228   0.78952304   -103.04276    6109.7526    4.3304166    4.3304166    4.3304166    6109.7526    12465.819   -18394.673    24258.112    3002.2453   -3525.3241    21202.645    81.206171 
   76200    1888.7578    -104.7412    1.7089878   -103.03221    8177.1637    4.3333135    4.3333135    4.3333135    8177.1637    9223.6836   -24975.281    40283.089   -2898.2389    355.63848   -5381.6988    81.369252 
   76300    983.17477   -103.94682   0.88959719   -103.05722   -22571.053    4.3442992    4.3442992    4.3442992   -22571.053   -38425.479   -320.49687   -28967.184    4918.8298   -4007.3353    18393.036    81.989677 
   76400    1516.0205   -104.41072    1.3717272   -103.03899    -6860.067    4.3501702    4.3501702    4.3501702    -6860.067    11881.757   -46512.483    14050.524   -4901.4913    8180.1349    14043.355    82.322538 
   76500    1433.2188    -104.3213    1.2968065   -103.02449    8911.1964    4.3271407    4.3271407    4.3271407    8911.1964    -13453.78   -1715.5338    41902.903   -149.78137   -19743.431     -12280.9    81.022016 
   76600    1075.2118   -104.01783   0.97287426   -103.04495    -10857.39    4.3364977    4.3364977    4.3364977    -10857.39   -15713.509    -936.9859   -15921.677   -3163.8495    16405.253    20107.895    81.548763 
   76700    1700.5042    -104.5709    1.5386519   -103.03225   -8837.1623    4.3485539    4.3485539    4.3485539   -8837.1623   -27913.695   -35742.573    37144.781    428.26162    -6553.824   -17291.611     82.23081 
   76800    1002.7189   -103.94867   0.90728118   -103.04139   -26760.863    4.3506039    4.3506039    4.3506039   -26760.863   -45893.734    200.97224   -34589.827   -4644.7351   -3731.3885    17162.088    82.347163 
   76900    1530.8008    -104.4122    1.3851008    -103.0271    14043.932     4.331219     4.331219     4.331219    14043.932   -11101.496    12175.517    41057.776    6521.0584    7959.6244     822.3155     81.25132 
   77000    1063.0368   -104.00654   0.96185803   -103.04469    6205.2547     4.335926     4.335926     4.335926    6205.2547   -7653.4175    12273.147    13996.034    3902.2147   -8830.7479   -22643.072    81.516509 
   77100    1137.1063   -104.06327    1.0288777   -103.03439   -2994.8058    4.3548515    4.3548515    4.3548515   -2994.8058   -49128.129    33631.164    6512.5478      8835.78    3392.9449    6569.3407    82.588588 
   77200    1314.9315   -104.21925    1.1897777   -103.02947   -15666.947    4.3477403    4.3477403    4.3477403   -15666.947   -40286.022   -11705.883    4991.0623    15424.958    1739.4011   -32297.809    82.184666 
   77300    1348.2147   -104.25001     1.219893   -103.03011    7473.8693     4.333996     4.333996     4.333996    7473.8693   -42633.847    61611.493    3443.9614    1604.9057   -9220.7305    24412.721    81.407709 
   77400    1274.2667    -104.1944    1.1529832   -103.04142   -6137.2353    4.3352201    4.3352201    4.3352201   -6137.2353   -13790.788   -39296.575    34675.657    12822.339     1541.943   -36176.683    81.476702 
   77500    1394.9418   -104.31552    1.2621727   -103.05334   -11157.393    4.3435639    4.3435639    4.3435639   -11157.393   -30468.285   -5426.1045    2422.2106    6009.6398   -10739.316   -15972.159    81.948054 
   77600    1481.4339   -104.38696    1.3404325   -103.04652   -1086.7165    4.3454812    4.3454812    4.3454812   -1086.7165   -36925.696    28676.559    4988.9876    4549.6456    7372.5108     6096.086    82.056621 
   77700    917.03887   -103.88184   0.82975604   -103.05209   -2612.6117    4.3367757    4.3367757    4.3367757   -2612.6117   -8108.4969   -35766.987    36037.648    4327.2018   -1740.4928   -46745.853    81.564445 
   77800    1609.4029   -104.50172    1.4562216   -103.04549    16088.031     4.331012     4.331012     4.331012    16088.031   -24311.303    55689.888    16885.509    1577.0259    11854.924    16868.213    81.239674 
   77900    1067.5468   -104.02091   0.96593876   -103.05497   -26927.623    4.3476264    4.3476264    4.3476264   -26927.623   -15379.235    -74927.66    9524.0274    1854.1342    7086.4014   -63763.992    82.178202 
   78000    1803.5918   -104.66831    1.6319278   -103.03638   -16501.882    4.3407675    4.3407675    4.3407675   -16501.882    -33028.01   -28284.733    11807.097   -2348.3433   -2403.0513    16676.775    81.789883 
   78100    1038.4686   -103.98843   0.93962825    -103.0488   -27467.492      4.34814      4.34814      4.34814   -27467.492   -15177.145   -61535.588    -5689.742    2189.9474    3066.2117   -52878.185    82.207333 
   78200    933.37245   -103.89071   0.84453501   -103.04618     22534.48    4.3353956    4.3353956    4.3353956     22534.48   -8364.9903    1029.4877    74938.944   -3602.2056    -12294.81   -28417.872    81.486597 
   78300    1697.4707   -104.58749    1.5359071   -103.05158     30.93334    4.3356588    4.3356588    4.3356588     30.93334   -35752.449    15903.392    19941.856    218.16942   -4507.3601    4827.6532     81.50144 
   78400    1039.1537   -104.00909   0.94024807   -103.06884   -14100.451    4.3556179    4.3556179    4.3556179   -14100.451   -28564.109   -47547.596    33810.354     376.3104    1773.2436    -46772.22    82.632203 
   78500    1477.3378   -104.38458    1.3367263   -103.04785    11265.795    4.3456261    4.3456261    4.3456261    11265.795   -39609.049    16619.178    56787.257   -2173.3654    74.180449    9622.6908    82.064827 
   78600    1413.0399   -104.32575    1.2785482    -103.0472   -19323.711    4.3376828    4.3376828    4.3376828   -19323.711   -19761.699   -8432.0803   -29777.353   -2099.7445    9160.5089   -33462.667    81.615636 
   78700    1585.4913   -104.48575    1.4345858   -103.05116   -808.47228    4.3382777    4.3382777    4.3382777   -808.47228   -21390.433   -21727.819    40692.835   -11198.625   -1266.0888    9620.7259    81.649221 
   78800     759.4682   -103.75532   0.68718278   -103.06813    19664.262    4.3446496    4.3446496    4.3446496    19664.262   -11509.636    26772.518    43729.905    2179.1418    11506.752    15085.418    82.009518 
   78900      1700.81   -104.58074    1.5389286   -103.04182   -33637.052    4.3540667    4.3540667    4.3540667   -33637.052   -36834.486   -36673.795   -27402.874   -9238.2359     6189.809   -16133.933    82.543947 
   79000    824.22693   -103.80109   0.74577785   -103.05531    17816.895    4.3291004    4.3291004    4.3291004    17816.895   -16656.783    84.633442    70022.835   -2634.1666    -15472.17    38653.189    81.132148 
   79100    1713.3802   -104.60862    1.5503024   -103.05832    22146.782    4.3284476    4.3284476    4.3284476    22146.782   -10348.936     45402.76     31386.52   -4588.4944    9885.7483   -8285.0028    81.095451 
   79200    1128.0211   -104.07983    1.0206572   -103.05917   -9528.1092     4.355222     4.355222     4.355222   -9528.1092   -20198.249   -38274.716    29888.637   -3171.4124   -2973.2096    25527.704     82.60967 
   79300    1232.4476   -104.15723    1.1151444   -103.04209   -6093.5542    4.3466205    4.3466205    4.3466205   -6093.5542   -3276.8604    5145.8681    -20149.67    1952.0376    2176.4299    15791.264     82.12118 
   79400    1547.2547   -104.42359    1.3999885    -103.0236    22338.161    4.3314927    4.3314927    4.3314927    22338.161    2236.4098    17644.969    47133.104   -10531.955    13395.781    -5959.474    81.266728 
   79500    898.41374   -103.86218   0.81290363   -103.04928   -3530.4358    4.3336135    4.3336135    4.3336135   -3530.4358    24327.474   -29915.235   -5003.5468      7837.75    1207.4046    52262.593    81.386152 
   79600    1732.1249    -104.6137     1.567263   -103.04644   -13926.442    4.3510422    4.3510422    4.3510422   -13926.442   -29556.246     3145.191   -15368.271   -12766.051    10547.929   -25019.862    82.372052 
   79700    982.77147   -103.93072   0.88923228   -103.04149   -14292.924    4.3504739    4.3504739    4.3504739   -14292.924   -5901.9162   -42372.623     5395.768   -181.83828    523.08042    48206.823     82.33978 
   79800    1489.0131   -104.37386    1.3472903   -103.02657    458.48574     4.327979     4.327979     4.327979    458.48574    -17018.39    15742.969    2650.8787   -1012.4448    278.30206   -5778.8933    81.069115 
   79900     1166.793   -104.09723    1.0557388   -103.04149    8045.9553    4.3316579    4.3316579    4.3316579    8045.9553    18005.367   -20975.446    27107.945   -2966.0715      6256.89    26892.263    81.276022 
   80000     1335.279   -104.25273    1.2081885   -103.04454   -28428.761    4.3473998    4.3473998    4.3473998   -28428.761   -41137.273   -12162.075   -31986.933   -1750.3759   -5123.5463    30079.343    82.165359 
   80100    1168.6044   -104.09579    1.0573779   -103.03841   -14255.926    4.3477965    4.3477965    4.3477965   -14255.926   -28098.561    4889.5906   -19558.807   -2001.9069   -11965.934   -13372.856    82.187852 
   80200    1556.0062   -104.43401    1.4079071   -103.02611   -3355.8945      4.33671      4.33671      4.33671   -3355.8945    6969.1573   -14103.501   -2933.3399   -9492.3485    919.77678     37148.94    81.560739 
   80300    978.03397   -103.92889   0.88494569   -103.04395   -12829.832    4.3337699    4.3337699    4.3337699   -12829.832   -53891.295    12640.099    2761.7005   -1252.2057    -10511.99   -8311.6529    81.394969 
   80400    1602.1023    -104.4985    1.4496158   -103.04888   -2903.3033     4.339848     4.339848     4.339848   -2903.3033    3773.0351   -28454.723    15971.778   -318.12861   -565.89482   -19909.273    81.737915 
   80500    1041.9277   -103.99715   0.94275808   -103.05439   -21059.254    4.3483073    4.3483073    4.3483073   -21059.254   -51775.577    571.71291   -11973.897   -9328.2221    1412.1622    7677.2788    82.216822 
   80600    1154.0874   -104.08619    1.0442425   -103.04195     9055.993      4.32888      4.32888      4.32888     9055.993    1684.1965    12537.653     12946.13    4883.7555    1540.1406   -27817.032    81.119755 
   80700     1754.007   -104.62693    1.5870624   -103.03986   -9503.9221    4.3441855    4.3441855    4.3441855   -9503.9221   -26264.831   -14015.757    11768.821    2504.8318    8466.1252    7457.8568    81.983243 
   80800    871.54387   -103.83707   0.78859121   -103.04847    2787.4306    4.3366537    4.3366537    4.3366537    2787.4306     18966.64    5093.0608   -15697.409   -4437.1579    2783.8488   -10995.684    81.557562 
   80900    1498.9892   -104.39753     1.356317   -103.04121    24818.071    4.3324849    4.3324849    4.3324849    24818.071   -16127.649     27266.84    63315.021    11133.574   -3202.6328   -16052.704    81.322586 
   81000    1273.5191   -104.20288    1.1523069   -103.05057   -13072.562    4.3391005    4.3391005    4.3391005   -13072.562   -4505.8495   -27724.964   -6986.8715    9594.5237     3740.289    4485.1544    81.695687 
   81100    1242.6887   -104.16937    1.1244108   -103.04496    23131.358    4.3289787    4.3289787    4.3289787    23131.358    -5970.198    39818.012     35546.26    9407.0346   -2389.3298   -36962.313    81.125307 
   81200    1350.2608   -104.26479    1.2217443   -103.04304   -30056.396    4.3495408    4.3495408    4.3495408   -30056.396   -23190.588   -54781.457   -12197.144    15739.006    2750.4751    25907.565    82.286811 
   81300    1471.4853   -104.36329    1.3314309   -103.03185    4137.2221    4.3344749    4.3344749    4.3344749    4137.2221   -16758.747    9003.1685    20167.245   -1712.1698   -5533.0391   -18544.602    81.434693 
   81400    1132.7432   -104.06229    1.0249298   -103.03736    9426.0186    4.3306858    4.3306858    4.3306858    9426.0186    3353.3188   -743.96477    25668.702    31445.368   -3270.8066    675.20687     81.22132 
   81500    1330.4721   -104.23721    1.2038391   -103.03337    6810.6506     4.338225     4.338225     4.338225    6810.6506    14348.626   -11478.928    17562.254   -7532.8943    10600.476     10574.76    81.646244 
   81600    1380.1711   -104.28571    1.2488078    -103.0369    -17535.93    4.3426214    4.3426214    4.3426214    -17535.93   -37431.642     3415.796   -18591.943    31914.864   -6246.3061   -10335.517     81.89472 
   81700    1176.0594   -104.10467    1.0641232   -103.04055    1176.1707    4.3404887    4.3404887    4.3404887    1176.1707    33070.493   -28206.067   -1335.9137    13547.473    7207.4728    33603.436    81.774119 
   81800      1299.82   -104.20657    1.1761044   -103.03047     23089.52    4.3322578    4.3322578    4.3322578     23089.52    7493.2497     55306.58    6468.7313   -3642.5493   -10012.956    -17748.43      81.3098 
   81900    1023.9291   -103.97306   0.92647253   -103.04659    -23953.77    4.3409456    4.3409456    4.3409456    -23953.77   -26403.785   -43736.669   -1720.8563    41452.057   -3243.0173    9136.0684    81.799951 
   82000    1658.7433   -104.53404    1.5008658   -103.03317    29148.364    4.3311178    4.3311178    4.3311178    29148.364    28044.435    21389.819    38010.839   -10959.157    -9506.624    2607.5128    81.245626 
   82100    762.70601   -103.74428   0.69011242   -103.05417   -27874.069    4.3402345    4.3402345    4.3402345   -27874.069   -61831.045   -58689.933    36898.771    42840.979   -5525.1432   -12381.131    81.759757 
   82200    1916.1027   -104.75982      1.73373   -103.02609    5327.2413    4.3294683    4.3294683    4.3294683    5327.2413   -15974.061    19773.153    12182.632    -12564.21    3042.5797    -2051.823    81.152835 
   82300    897.65779   -103.86314   0.81221963   -103.05092   -10076.161    4.3305948    4.3305948    4.3305948   -10076.161   -46458.405   -51790.509     68020.43    50298.064   -5159.8532   -7081.8255    81.216198 
   82400    1333.4461    -104.2544      1.20653   -103.04787    5321.1255    4.3368415    4.3368415    4.3368415    5321.1255    -25046.63   -23470.691    64480.698   -9506.9615   -4393.0718   -10367.225    81.568158 
   82500    1063.5682   -104.01485   0.96233888   -103.05251   -8407.8475    4.3351529    4.3351529    4.3351529   -8407.8475   -58379.224    -22174.62    55330.302    37342.956   -11902.056    1289.1419    81.472918 
   82600    1325.1636   -104.24304    1.1990359   -103.04401   -19086.761    4.3366006    4.3366006    4.3366006   -19086.761   -23261.013   -48188.187    14188.916   -3231.9753   -7268.0019     -10602.9    81.554567 
   82700    1686.2928   -104.55977    1.5257931   -103.03398   -927.82035    4.3232904    4.3232904    4.3232904   -927.82035   -24561.267     9685.154    12092.652    23237.465   -8644.5136    7289.9491    80.805928 
   82800    970.75279   -103.93436   0.87835753     -103.056   -4585.6591    4.3320563    4.3320563    4.3320563   -4585.6591   -47342.158   -42123.355    75708.536    6367.7172    7003.3657   -21009.419    81.298452 
   82900    1269.0019    -104.1946    1.1482196   -103.04638   -6828.0069    4.3489171    4.3489171    4.3489171   -6828.0069   -31515.204   -37655.805    48686.988    5351.7252   -1953.8004   -24034.929    82.251417 
   83000    1204.8663   -104.12057    1.0901883   -103.03038   -20352.375    4.3522006    4.3522006    4.3522006   -20352.375    -49194.06   -29942.709    18079.645    22499.214    -2138.293   -11384.424    82.437862 
   83100    1177.7864   -104.08667    1.0656859   -103.02098   -1741.7446    4.3231506    4.3231506    4.3231506   -1741.7446     5906.991   -9283.8436   -1848.3811    -25853.23    3956.0712   -41978.391     80.79809 
   83200    1571.0583   -104.44825    1.4215265   -103.02673    10471.109    4.3213129    4.3213129    4.3213129    10471.109   -14158.284    37633.079     7938.533    32643.774   -1966.4691    19196.209    80.695095 
   83300    1228.8276   -104.15135    1.1118691   -103.03948   -38267.097    4.3498585    4.3498585    4.3498585   -38267.097   -18443.312   -56298.148    -40059.83   -30584.834    1314.4051   -25596.282    82.304842 
   83400    1328.1322   -104.24287    1.2017219   -103.04115     1483.197    4.3412252    4.3412252    4.3412252     1483.197   -9183.3076    21153.933   -7521.0347    10790.236      9693.43    4354.1338    81.815756 
   83500     1259.595   -104.18383     1.139708   -103.04412    28639.451    4.3155047    4.3155047    4.3155047    28639.451   -14011.359    57265.083    42664.631   -5990.7727   -5809.7781   -8713.3636    80.370151 
   83600    972.74802   -103.95283   0.88016285   -103.07267    18839.029    4.3240571    4.3240571    4.3240571    18839.029    2761.3125    9731.2773    44024.497   -14662.102    12924.904   -27210.424    80.848929 
   83700    1809.9934   -104.68015    1.6377201   -103.04243     -3955.14    4.3535823    4.3535823    4.3535823     -3955.14   -19464.541    21018.083   -13418.962    6794.5454   -541.08232    21552.675    82.516402 
   83800    867.90629   -103.82884   0.78529985   -103.04354    1293.6005    4.3363947    4.3363947    4.3363947    1293.6005   -22550.792    8204.0802    18227.513   -37276.525    1197.0982   -22755.546    81.542951 
   83900    1812.9889   -104.66212    1.6404304   -103.02169    22008.054    4.3232558    4.3232558    4.3232558    22008.054    12507.596     52266.79    1249.7759    11909.079    11172.813   -10542.484    80.803989 
   84000    1105.0735   -104.03385   0.99989369   -103.03396    10005.595    4.3344937    4.3344937    4.3344937    10005.595   -33498.104    17085.284    46429.604   -30432.143   -15738.871   -5558.8711    81.435755 
   84100    1168.7638   -104.10234     1.057522   -103.04482    1102.3945     4.345703     4.345703     4.345703    1102.3945   -12934.364    11432.687    4808.8608   -2070.1962    14123.561   -29891.343    82.069186 
   84200    1639.4437   -104.51563    1.4834031   -103.03223    10939.614    4.3347245    4.3347245    4.3347245    10939.614    -30326.87    29097.857    34047.854   -2705.8178   -3592.1588    13037.093    81.448764 
   84300    890.09557   -103.84471   0.80537718   -103.03933    18093.165    4.3216126    4.3216126    4.3216126    18093.165    2312.8851    55256.531   -3289.9204    -23454.65   -1366.6844   -27747.118    80.711885 
   84400    1941.4196   -104.79262    1.7566373   -103.03598   -7381.4929    4.3362196    4.3362196    4.3362196   -7381.4929   -18980.031    26242.899   -29407.347     13632.04    12818.702   -2311.2971    81.533074 
   84500    1138.3023   -104.07331    1.0299599   -103.04335   -12269.257    4.3408399    4.3408399    4.3408399   -12269.257    -40975.12    12483.808   -8316.4606   -34028.965   -5970.2521   -2805.1303    81.793971 
   84600    1597.8439   -104.47715    1.4457628   -103.03139    8292.7336    4.3359112    4.3359112    4.3359112    8292.7336    -3780.527    43538.396   -14879.668    15719.227    5741.9694   -27108.447    81.515675 
   84700    1276.6236   -104.19078    1.1551158   -103.03567   -6873.0244    4.3379097    4.3379097    4.3379097   -6873.0244   -43194.958   -12564.406     35140.29   -32104.081    1231.4057    18089.629    81.628446 
   84800    1296.5737    -104.2049    1.1731671   -103.03173    17169.999    4.3280987    4.3280987    4.3280987    17169.999   -6909.0622    35005.234    23413.825    793.39825    -1385.749   -37125.753    81.075843 
   84900    1315.4908   -104.23259    1.1902838   -103.04231   -3173.5647     4.336319     4.336319     4.336319   -3173.5647   -16717.777   -24306.292    31503.375   -21357.388    5195.9727    10081.733     81.53868 
   85000    1291.0935   -104.20999    1.1682085   -103.04178     6525.853    4.3347381    4.3347381    4.3347381     6525.853   -12797.565   -2627.0726    35002.197   -16975.758   -7545.4875   -9852.5289    81.449529 
   85100     1429.288   -104.32878    1.2932498   -103.03553    13587.278    4.3397899    4.3397899    4.3397899    13587.278    6115.3086    664.74617    33981.779   -6343.4009    30.351238   -7554.1926     81.73463 
   85200    1093.8658   -104.03263    0.9897528   -103.04288   -10180.418    4.3383519    4.3383519    4.3383519   -10180.418   -25883.058   -22616.803    17958.607   -30205.349    501.84231    17640.109    81.653408 
   85300    1614.4082   -104.49128    1.4607505   -103.03053    28972.856    4.3302379    4.3302379    4.3302379    28972.856    7684.2167     40031.21    39203.142    11220.616   -12199.872    -26904.73    81.196118 
   85400    947.83568   -103.90273   0.85762164   -103.04511    -16757.02    4.3427319    4.3427319    4.3427319    -16757.02   -32415.034   -49533.341    31677.314    -48107.27    6543.8274    10916.262    81.900972 
   85500     1497.223   -104.38845    1.3547188   -103.03373    15015.755    4.3317048    4.3317048    4.3317048    15015.755   -2112.9657     17047.87    30112.362    18857.684     1942.984    8344.6468    81.278664 
   85600    1100.0262   -104.04187   0.99532679   -103.04654   -6040.6755     4.333679     4.333679     4.333679   -6040.6755   -37170.666   -21611.662    40660.301   -57729.347   -5267.3032   -2826.4354    81.389844 
   85700    1507.8492   -104.40848    1.3643336   -103.04415   -5713.3242    4.3306555    4.3306555    4.3306555   -5713.3242   -20803.799   -12754.881    16418.708     15682.78     5726.041    23357.042     81.21961 
   85800    1182.7791   -104.11707    1.0702034   -103.04687   -21633.851    4.3430406    4.3430406    4.3430406   -21633.851   -45380.172   -26841.586    7320.2045   -36874.543   -12972.909   -5070.0137    81.918439 
   85900    1236.7441     -104.155    1.1190321   -103.03597   -7828.7889    4.3419448    4.3419448    4.3419448   -7828.7889    -41296.17   -32724.549    50534.352   -12707.281     1821.224    6867.5288    81.856446 
   86000    1344.7148   -104.24956    1.2167262   -103.03283    9370.5231     4.325023     4.325023     4.325023    9370.5231   -10745.468    9588.3956    29268.642    739.75238   -5732.4952    16520.783    80.903121 
   86100    1290.9541   -104.21426    1.1680824   -103.04618   -683.22486     4.336041     4.336041     4.336041   -683.22486   -42600.267    627.05918    39923.533   -35392.766     -837.898   -26777.043    81.522995 
   86200    1471.7957    -104.3708    1.3317117   -103.03909    -10531.79    4.3383609    4.3383609    4.3383609    -10531.79   -17998.442    -20067.75    6470.8226    23195.405     4347.753    21215.529    81.653918 
   86300    967.40888   -103.92064   0.87533189   -103.04531    17614.711    4.3355575    4.3355575    4.3355575    17614.711   -27381.584      10529.4    69696.315   -44127.101    464.97465   -7796.1669     81.49573 
   86400    1909.6307   -104.76025     1.727874   -103.03238   -16679.851    4.3358898    4.3358898    4.3358898   -16679.851   -28649.416    150.66405   -21540.802    22612.289    2385.7395    1311.9226    81.514467 
   86500    637.22896   -103.62765   0.57657815   -103.05107    25627.579    4.3316872    4.3316872    4.3316872    25627.579   -29187.477    26249.533     79820.68   -44583.078   -137.81001    2514.9887    81.277673 
   86600    1820.3775   -104.68635    1.6471158   -103.03923   -5630.3119     4.339736     4.339736     4.339736   -5630.3119    -16955.22    8560.1391   -8495.8549    11446.751   -2045.5772   -11822.494    81.731586 
   86700    1061.8608   -104.01285   0.96079395   -103.05205   -4911.0229    4.3255077    4.3255077    4.3255077   -4911.0229   -51809.112   -6963.1117    44039.155   -38803.224   -2942.9409    4994.1572    80.930322 
   86800    1448.0994   -104.35036    1.3102708   -103.04009    42250.693    4.3224784    4.3224784    4.3224784    42250.693    6991.6383    47727.835    72032.605    -3400.447    3092.0885    15114.596    80.760404 
   86900    1094.0525   -104.03729   0.98992168   -103.04737   -29419.973    4.3403248    4.3403248    4.3403248   -29419.973   -57680.524   -25653.153   -4926.2424   -12167.437    1009.9999   -17064.398     81.76486 
   87000    1544.4674   -104.43776    1.3974666    -103.0403   -1195.3902    4.3369613    4.3369613    4.3369613   -1195.3902   -32613.791    6520.3702     22507.25   -27111.201    1736.5489    20064.996    81.574919 
   87100    1319.1685   -104.23329    1.1936114   -103.03968    -6655.129    4.3336841    4.3336841    4.3336841    -6655.129   -40245.029   -1320.9341    21600.576    5836.4754    2203.2588    -5418.938    81.390131 
   87200    1060.8509   -104.00878   0.95988023    -103.0489    5200.9851    4.3229745    4.3229745    4.3229745    5200.9851   -52267.006   -34450.366    102320.33   -41192.009    -6906.681   -3293.6885    80.788217 
   87300    1590.1317   -104.48259    1.4387846    -103.0438     18011.79    4.3294255    4.3294255    4.3294255     18011.79   -33806.849    68765.765    19076.454    14133.996    6451.0744   -5519.8505    81.150425 
   87400    735.71736    -103.7248   0.66569253   -103.05911   -11825.172    4.3344745    4.3344745    4.3344745   -11825.172   -73026.505   -43284.249    80835.238   -48456.378    716.67234       -16128    81.434671 
   87500    1847.2803   -104.70119    1.6714581   -103.02974    19897.037     4.332898     4.332898     4.332898    19897.037   -3763.5559    60666.676    2787.9911    13353.817    3873.0678   -5782.1891     81.34585 
   87600    1027.3042   -103.97295   0.92952643   -103.04342   -33550.155    4.3341366    4.3341366    4.3341366   -33550.155    -69571.66   -49167.555    18088.749   -46943.467    8093.7168   -3547.9748    81.415632 
   87700    1601.4626   -104.47684     1.449037    -103.0278    28020.911    4.3271781    4.3271781    4.3271781    28020.911    10014.452    49730.106    24318.173    4357.5334   -5007.3517   -16945.162    81.024119 
   87800     1103.674   -104.04189   0.99862739   -103.04326   -7305.2968    4.3317741    4.3317741    4.3317741   -7305.2968   -42490.894   -12486.566     33061.57   -31436.449    16272.137    2347.8836    81.282566 
   87900    1382.6986   -104.29423    1.2510947   -103.04313   -8196.9359    4.3350572    4.3350572    4.3350572   -8196.9359   -36260.536   -33777.235    45446.963   -9865.5507   -2492.2739   -21713.549    81.467521 
   88000    1175.7094   -104.10541    1.0638065    -103.0416    29939.098    4.3267178    4.3267178    4.3267178    29939.098     16809.29    26771.517    46236.486   -16272.004    7699.3853    14636.431    80.998266 
   88100    1371.4469   -104.29002     1.240914   -103.04911   -29061.301     4.336743     4.336743     4.336743   -29061.301   -47326.609   -33642.405   -6214.8881   -25353.933     6012.748    2165.7739    81.562598 
   88200    1589.1175   -104.47366    1.4378669    -103.0358    27373.634    4.3297428    4.3297428    4.3297428    27373.634    35258.508    53672.567   -6810.1737   -2559.8484    3114.0292    1927.1709    81.168274 
   88300    842.32274   -103.81317   0.76215132   -103.05101   -11491.611    4.3266976    4.3266976    4.3266976   -11491.611   -26757.851   -11784.674    4067.6933   -41459.389    11407.699     10310.66    80.997129 
   88400    1857.7757    -104.7179    1.6809545   -103.03694    18086.877    4.3324631    4.3324631    4.3324631    18086.877    28861.279    34658.933   -9259.5818    18258.288   -1909.0764   -12.543825     81.32136 
   88500    949.58495   -103.91496   0.85920442   -103.05576   -10550.661    4.3269657    4.3269657    4.3269657   -10550.661   -35292.036    15916.105    -12276.05   -42448.389    5393.1257    17993.071    81.012188 
   88600    1395.6426   -104.32157    1.2628068   -103.05877   -5058.3057     4.329736     4.329736     4.329736   -5058.3057   -18144.804    2859.9839    109.90278    3941.1703    13325.399    3642.3429    81.167887 
   88700    1392.5683   -104.31465    1.2600251   -103.05463    13874.506    4.3328947    4.3328947    4.3328947    13874.506   -1803.7099    58010.853   -14583.625   -17870.857   -4490.9148    7081.0362    81.345664 
   88800    804.71954   -103.79908   0.72812715   -103.07095   -8656.7674    4.3368519    4.3368519    4.3368519   -8656.7674   -50128.852    41984.317   -17825.767   -33696.003    12542.989    16970.937    81.568741 
   88900    1814.5322   -104.68485    1.6418269   -103.04302    9761.7216    4.3302477    4.3302477    4.3302477    9761.7216    16403.867    21087.403   -8206.1054    2102.0904    -3656.913    6790.7519    81.196671 
   89000    745.32474   -103.73181   0.67438549   -103.05742    -12359.34    4.3260332    4.3260332    4.3260332    -12359.34    -29381.46   -23473.872    15777.311   -36887.218    10000.278    8247.0161     80.95982 
   89100    1616.9428    -104.5041    1.4630438   -103.04105    18149.138    4.3332824    4.3332824    4.3332824    18149.138   -1068.7104    63464.733    -7948.609    285.14555    2825.9319   -3503.3095    81.367502 
   89200     1262.743   -104.18912    1.1425564   -103.04657   -197.68982    4.3336982    4.3336982    4.3336982   -197.68982   -19282.383    22565.314   -3876.0005   -16588.496    6220.6451   -16027.119    81.390925 
   89300    988.65288   -103.94464    0.8945539   -103.05009    6322.1505    4.3335658    4.3335658    4.3335658    6322.1505   -41324.072    64005.335   -3714.8116   -17422.345    12074.784    10855.286    81.383468 
   89400    1491.8807   -104.39502     1.349885   -103.04513   -2857.0511    4.3254054    4.3254054    4.3254054   -2857.0511    5693.4795   -15918.916    1654.2827     12720.31   -941.40404   -24718.603     80.92458 
   89500    974.40653   -103.93787   0.88166351   -103.05621    15178.869    4.3255666    4.3255666    4.3255666    15178.869   -33010.979    62698.124    15849.463   -37599.554     15058.42    13732.994    80.933627 
   89600    1691.3992   -104.57292    1.5304135    -103.0425   -7711.8712    4.3369821    4.3369821    4.3369821   -7711.8712   -10183.655   -710.38616   -12241.572    13881.609    8628.3597   -18404.674    81.576092 
   89700    1081.2966   -104.02856   0.97837988   -103.05018   -22328.754    4.3353562    4.3353562    4.3353562   -22328.754    -25021.66   -34247.989   -7716.6139   -34842.593    6504.1341    -5548.091    81.484378 
   89800    1510.3327   -104.41691    1.3665808   -103.05033    17210.463    4.3186017    4.3186017    4.3186017    17210.463    -20002.09    75012.379   -3378.9002   -7776.7803     19696.07    3904.4337    80.543304 
   89900    1208.4785   -104.15507    1.0934568   -103.06162    16059.027    4.3215896    4.3215896    4.3215896    16059.027    15024.007    42570.042   -9416.9698   -13364.621   -5582.8143   -18932.779    80.710599 
   90000    1392.4709   -104.31318     1.259937   -103.05325    -42674.98    4.3395698    4.3395698    4.3395698    -42674.98   -73740.459   -40580.802   -13703.678   -30299.338     25889.82    12880.919    81.722197 
   90100    1407.2968   -104.31498    1.2733518   -103.04163    13885.379    4.3280712    4.3280712    4.3280712    13885.379    5574.5709    50491.415   -14409.848    11074.089   -6673.6613   -19701.827    81.074295 
   90200      1221.57   -104.15361    1.1053023    -103.0483   -5921.0497    4.3251329    4.3251329    4.3251329   -5921.0497   -32189.172      13888.1    537.92232   -36247.795    13192.857   -17514.664    80.909286 
   90300    1449.6569   -104.35307      1.31168   -103.04139     11626.98    4.3289223    4.3289223    4.3289223     11626.98   -13141.795    21988.522    26034.214    7347.6215     2924.697   -13964.127    81.122134 
   90400    1296.9817   -104.22162    1.1735363   -103.04808   -23205.119    4.3376477    4.3376477    4.3376477   -23205.119   -14904.706   -49369.234   -5341.4179   -23577.695   -6980.5077   -26197.461    81.613656 
   90500    1375.4079   -104.28424    1.2444979   -103.03974    18767.855    4.3291147    4.3291147    4.3291147    18767.855   -6426.3212     24724.31    38005.576   -17296.497    5373.8872    8710.9105    81.132952 
   90600    1209.7073    -104.1366    1.0945686   -103.04203    23064.232    4.3162852    4.3162852    4.3162852    23064.232    9397.2521    36936.987    22858.456    5691.1088   -13901.705   -13651.753    80.413765 
   90700    1152.5738   -104.10135     1.042873   -103.05847    6855.5111    4.3245242    4.3245242    4.3245242    6855.5111   -2077.1271    4458.6736    18184.987   -42392.293   -198.91747   -4698.9665    80.875133 
   90800    1764.5495   -104.64289    1.5966015   -103.04629    824.04526    4.3375322    4.3375322    4.3375322    824.04526   -10660.077   -13353.549    26485.762    7815.3792   -10732.926   -1604.4162    81.607138 
   90900    876.89305   -103.84862   0.79343126   -103.05519   -23588.762     4.336251     4.336251     4.336251   -23588.762   -3524.8671   -38704.871   -28536.548   -35142.019   -2787.4793   -22816.031    81.534842 
   91000    1697.2643   -104.57289    1.5357204   -103.03717    18982.308    4.3202251    4.3202251    4.3202251    18982.308     -2439.97    -4656.415    64043.309    3751.0449   -3736.0561    13133.753    80.634169 
   91100    947.15795   -103.91177   0.85700842   -103.05476    24083.372    4.3164368    4.3164368    4.3164368    24083.372    15383.735    24986.686    31879.694    -14265.23   -5792.1367    -9191.308    80.422238 
   91200     1099.405   -104.06117   0.99476474    -103.0664   -9598.0326    4.3358173    4.3358173    4.3358173   -9598.0326   -8039.2004   -17581.777   -3173.1207   -26374.863    5289.9695   -709.61139    81.510381 
   91300     1755.893   -104.63634    1.5887689   -103.04757   -11816.541    4.3411014    4.3411014    4.3411014   -11816.541   -20813.059   -29349.916    14713.352    8426.1586   -3590.2523   -425.55215    81.808754 
   91400     803.7369   -103.78646   0.72723804   -103.05922   -7134.7472    4.3194137    4.3194137    4.3194137   -7134.7472    7481.0983   -20011.301   -8874.0393   -37721.145   -1502.1445   -24470.186     80.58875 
   91500    1788.2893   -104.66206    1.6180818   -103.04397    19869.012    4.3096986    4.3096986    4.3096986    19869.012    22443.815     14489.57    22673.652    23001.614   -4304.0491    8041.9869    80.046197 
   91600    1054.9767   -104.01428   0.95456513   -103.05972    5086.1251    4.3334988    4.3334988    4.3334988    5086.1251    8942.9804    954.77744    5360.6173   -11178.859   -3540.4212   -15278.494     81.37969 
   91700    1204.7347   -104.13917    1.0900693    -103.0491   -20702.235    4.3447347    4.3447347    4.3447347   -20702.235   -10120.794   -23777.708   -28208.203    -19461.66    7428.6636   -14168.749    82.014337 
   91800    1808.1803   -104.67264    1.6360795   -103.03656   -9653.3371    4.3258404    4.3258404    4.3258404   -9653.3371   -28258.991   -7011.9339    6310.9142    16843.236     1572.519    224.59335       80.949 
   91900    673.59373   -103.66511   0.60948176   -103.05563    18599.522    4.3121788    4.3121788    4.3121788    18599.522    51943.835    8772.2508   -4917.5214    -32404.14   -1174.2481   -34170.947    80.184473 
   92000    1982.7053   -104.84541    1.7939934   -103.05142    4076.5018    4.3263346    4.3263346    4.3263346    4076.5018   -4833.7174    32651.114   -15587.891    16514.446    10185.041    6398.6572    80.976745 
   92100    844.55243   -103.82395   0.76416879   -103.05978   -1102.4581    4.3399265    4.3399265    4.3399265   -1102.4581    5149.2244    9010.4488   -17467.047   -15997.647    6058.5522   -21237.973    81.742352 
   92200    1430.0896   -104.34755    1.2939751   -103.05358   -30669.175    4.3341259    4.3341259    4.3341259   -30669.175   -30554.641   -19436.043    -42016.84   -20248.989    9868.6391   -22011.767    81.415024 
   92300    1749.2701   -104.62438    1.5827764    -103.0416     33908.53    4.3111758    4.3111758    4.3111758     33908.53    32832.378    60661.484    8231.7275   -1693.0455    5366.4972     10971.81    80.128536 
   92400    776.86074   -103.77251   0.70291992   -103.06959   -16783.764    4.3223384    4.3223384    4.3223384   -16783.764   -1241.6416   -30096.668   -19012.981    -28633.16     616.5446   -31972.148    80.752557 
   92500    1494.6334   -104.41408    1.3523757    -103.0617   -11470.821    4.3286402    4.3286402    4.3286402   -11470.821   -8856.9102   -11253.353   -14302.198   -2832.2326    -4090.116    27496.601    81.106278 
   92600    1470.9489   -104.38755    1.3309455   -103.05661    6894.0254    4.3289268    4.3289268    4.3289268    6894.0254    32777.652    4771.8353   -16867.412   -12349.741    4174.8466   -10427.159    81.122388 
   92700    879.05437   -103.85961   0.79538687   -103.06422   -9073.6297    4.3251749    4.3251749    4.3251749   -9073.6297   -14428.778    13533.871   -26325.982   -24968.977    3468.4699    -9897.857    80.911645 
   92800    1461.9786   -104.38268     1.322829   -103.05985    15219.662    4.3205082    4.3205082    4.3205082    15219.662    34959.202    26874.629   -16174.846    35472.469    731.82028    24210.113    80.650022 
   92900    1507.6733   -104.42335    1.3641745   -103.05918   -26770.649    4.3396812    4.3396812    4.3396812   -26770.649   -33780.107   -7153.7078   -39378.133   -14311.043    3877.0684   -15435.347    81.728489 
   93000    1014.5237   -103.97869   0.91796236   -103.06073   -6572.3268    4.3257792    4.3257792    4.3257792   -6572.3268    1788.9588    3777.1811    -25283.12   -7440.0852    6812.0804    11300.457    80.945562 
   93100    1295.6968   -104.23106    1.1723737   -103.05868    17811.514    4.3108248    4.3108248    4.3108248    17811.514    13811.155    35731.578    3891.8088    43379.283   -2342.5128    7417.4164    80.108966 
   93200    1676.5878   -104.58532    1.5170119   -103.06831    2366.7406    4.3264678    4.3264678    4.3264678    2366.7406   -15125.206    37166.067   -14940.639   -13671.418    9432.4426   -10592.722    80.984225 
   93300    795.97361   -103.80001   0.72021365   -103.07979   -15155.061    4.3436599    4.3436599    4.3436599   -15155.061   -10869.287   -13471.386   -21124.512    28854.978   -329.49091    10449.152     81.95349 
   93400    1322.0957    -104.2515    1.1962599   -103.05524    14819.507    4.3337585    4.3337585    4.3337585    14819.507    -16930.57    57470.011    3919.0808    1582.8145    5155.4802    438.15812    81.394323 
   93500    1530.1913   -104.43742    1.3845492   -103.05287   -3304.6682    4.3163559    4.3163559    4.3163559   -3304.6682   -7870.4799   -9345.0889    7301.5642    23172.513    7373.7711   -6799.9517     80.41772 
   93600    967.14606   -103.94982   0.87509408   -103.07473     -1216.29    4.3190594    4.3190594    4.3190594     -1216.29    -42865.81    13254.888    25962.052    43192.631   -1306.4305    13461.233    80.568919 
   93700    1853.3795   -104.74428    1.6769767    -103.0673   -2842.6978    4.3369149    4.3369149    4.3369149   -2842.6978   -13960.953     40699.09    -35266.23   -22685.975    10982.572   -16984.297    81.572301 
   93800    1059.1431   -104.02516   0.95833491   -103.06682   -17366.078    4.3391303    4.3391303    4.3391303   -17366.078   -24392.743   -27476.594   -228.89697    44517.271   -7411.4439    13295.015     81.69737 
   93900    1395.1182   -104.31756    1.2623323   -103.05522    375.96384    4.3245438    4.3245438    4.3245438    375.96384   -5747.2107    30529.123    -23654.02   -17226.427    18541.549   -7557.4087    80.876231 
   94000    1369.6513   -104.28788    1.2392893   -103.04859    39641.028    4.3167321    4.3167321    4.3167321    39641.028    39699.933    68535.361    10687.789    16008.712   -3899.9733   -21983.108    80.438743 
   94100    1141.0646   -104.09509    1.0324592   -103.06263    -16730.29    4.3367612    4.3367612    4.3367612    -16730.29   -9639.4198   -22341.522   -18209.928    18989.143    13888.915    15884.503    81.563625 
   94200    1348.8288   -104.26979    1.2204487   -103.04934   -24961.918    4.3390111    4.3390111    4.3390111   -24961.918   -2647.1405   -49609.282   -22629.332   -29579.954    6792.1857   -23007.149    81.690636 
   94300    1490.8087   -104.38524     1.348915   -103.03633    28603.079    4.3193402    4.3193402    4.3193402    28603.079    27215.183    31193.686     27400.37    12674.006    1090.7653     18742.02    80.584631 
   94400    1018.9962    -103.9797   0.92200918   -103.05769   -2605.5104    4.3255115    4.3255115    4.3255115   -2605.5104   -14675.857    32274.105   -25414.779   -16685.621     9719.329    10049.315    80.930535 
   94500    1215.1216   -104.15583    1.0994676   -103.05636    9714.9739    4.3412736    4.3412736    4.3412736    9714.9739    9143.0269    6398.5446     13603.35   -27631.443   -2530.8129   -7636.9971    81.818493 
   94600    1684.0788   -104.56736    1.5237899   -103.04357   -23707.035    4.3429964    4.3429964    4.3429964   -23707.035   -14484.499   -18955.632   -37680.975    14477.757    12108.578    30960.881    81.915936 
   94700    1008.9993   -103.95654   0.91296373   -103.04357   -2236.4538    4.3263831    4.3263831    4.3263831   -2236.4538   -11205.175     -10057.6    14553.413   -31923.885   -2564.7017    -12842.59     80.97947 
   94800    1706.4046   -104.58514    1.5439907   -103.04115    12303.732    4.3220189    4.3220189    4.3220189    12303.732   -5805.5268    34732.299    7984.4251    8713.8924     4802.814    6232.4141    80.734652 
   94900    1142.3341   -104.09284    1.0336079   -103.05923    3915.5028    4.3304932    4.3304932    4.3304932    3915.5028   -7934.8552    26553.642   -6872.2779   -32120.228    2213.0247    14590.067    81.210479 
   95000    1108.4004   -104.06347     1.002904   -103.06056   -12369.149    4.3432513    4.3432513    4.3432513   -12369.149   -3395.1696   -42965.847    9253.5702   -14362.925    5077.2573   -15518.744    81.930364 
   95100     1621.728   -104.51516    1.4673736   -103.04779    7614.6059    4.3277039    4.3277039    4.3277039    7614.6059    7797.3113    4208.2988    10838.208    9526.6674    3727.8788    18983.194     81.05366 
   95200    1269.7806   -104.19562    1.1489241   -103.04669    3862.5436    4.3199007    4.3199007    4.3199007    3862.5436    6053.7637   -22080.257    27614.124   -25485.886    8339.7272   -10953.905    80.616009 
   95300    1232.8346   -104.17115    1.1154946   -103.05566   -7051.7194    4.3248006    4.3248006    4.3248006   -7051.7194     -7659.51   -33035.678     19540.03     43902.11    4361.5635    8444.0446     80.89064 
   95400    1409.1216   -104.32869    1.2750028   -103.05369    33415.958    4.3277694    4.3277694    4.3277694    33415.958    39020.573    16431.551    44795.751   -22993.686     9368.341    -8739.164    81.057338 
   95500    1239.1876    -104.1797    1.1212429   -103.05845   -27237.658    4.3370983    4.3370983    4.3370983   -27237.658    -35007.64   -55564.103    8858.7681    30011.105    465.28129    637.96281    81.582645 
   95600    1100.6321   -104.05123   0.99587502   -103.05536    22560.947    4.3242531    4.3242531    4.3242531    22560.947    20359.783    1496.8884    45826.169    18826.385    2399.2745    -6631.563    80.859922 
   95700    1695.4694   -104.58282    1.5340963   -103.04872    2464.8272    4.3237749    4.3237749    4.3237749    2464.8272   -2698.5165     6429.982     3663.016    19096.602    6677.3788   -11041.829    80.833099 
   95800    662.31779   -103.66616   0.59927906   -103.06688    887.38831    4.3308469    4.3308469    4.3308469    887.38831    12488.349   -51080.144     41253.96    38445.417    7032.4322    1509.0106    81.230379 
   95900    1942.4543   -104.79949    1.7575735   -103.04191   -14321.779    4.3307972    4.3307972    4.3307972   -14321.779   -19134.917     7170.863   -31001.283   -10541.894    14133.899   -19634.337    81.227586 
   96000    957.66127    -103.9154   0.86651204   -103.04889    2487.1301    4.3272037    4.3272037    4.3272037    2487.1301    7178.4453   -35669.698    35952.643    47047.409    1353.9986    10090.211    81.025558 
   96100    1480.6497   -104.38596    1.3397229   -103.04624    -9745.266    4.3238402    4.3238402    4.3238402    -9745.266    11413.985     -15464.5   -25185.283   -21524.727    13340.832    -17133.23    80.836763 
   96200    1161.2113   -104.10274    1.0506883   -103.05206    11794.351    4.3261148    4.3261148    4.3261148    11794.351    16069.676   -20625.207    39938.586    25191.252    -2855.816    6611.4471    80.964406 
   96300    1459.0245    -104.3741     1.320156   -103.05394   -22120.535    4.3294742    4.3294742    4.3294742   -22120.535    723.14722   -48839.759   -18244.994    10956.402    15300.604    386.31685    81.153169 
   96400    1203.1788   -104.14439    1.0886615   -103.05572    9362.8651    4.3205987    4.3205987    4.3205987    9362.8651    3986.6533    1109.7854    22992.157   -17692.202   -1413.8202   -8533.8948    80.655094 
   96500    1494.1485   -104.40367     1.351937   -103.05173   -3381.4531    4.3284092    4.3284092    4.3284092   -3381.4531   -2743.5327   -34902.338    27501.511    16444.935    5346.7091    12178.738     81.09329 
   96600    978.68549   -103.94901    0.8855352   -103.06347    2610.9718    4.3231159    4.3231159    4.3231159    2610.9718    36589.973    497.45262    -29254.51   -27573.355    1167.8037   -8958.0105    80.796145 
   96700    1469.7889   -104.38502    1.3298959   -103.05512    22394.432    4.3239609    4.3239609    4.3239609    22394.432    688.95152    9997.7362    56496.607   -11952.329    -1512.064   -4453.1385    80.843529 
   96800    1234.4695   -104.17617    1.1169739    -103.0592    8689.7222    4.3234929    4.3234929    4.3234929    8689.7222    39438.303   -1308.9186   -12060.218   -365.84307   -5832.2398     9055.688    80.817286 
   96900     1248.167   -104.19952    1.1293677   -103.07015   -11206.453    4.3248301    4.3248301    4.3248301   -11206.453   -41250.787   -12863.719    20495.148   -33098.242    909.78536   -10250.025    80.892293 
   97000    1675.5687   -104.57544    1.5160897   -103.05935    10428.426    4.3256224    4.3256224    4.3256224    10428.426    7615.0578    11380.731     12289.49    20287.699   -9130.0536    21080.443    80.936763 
   97100    1199.7234   -104.14549    1.0855349   -103.05995   -7427.7759    4.3187943    4.3187943    4.3187943   -7427.7759   -3029.0233   -29971.517    10717.212   -39022.023   -2079.5909    4704.7117    80.554081 
   97200    1115.3381   -104.06607    1.0091813   -103.05689   -3358.6748    4.3281426    4.3281426    4.3281426   -3358.6748   -15319.072   -20490.101    25733.149    20193.254   -5093.6073   -4041.2523    81.078309 
   97300    1387.1865   -104.31109    1.2551555   -103.05594    8017.4289     4.322638     4.322638     4.322638    8017.4289    26884.491    1157.9511   -3990.1553   -12557.102    5051.1204    26502.141    80.769354 
   97400    1413.2795   -104.33356     1.278765    -103.0548    4689.4487    4.3271435    4.3271435    4.3271435    4689.4487    -2532.127   -24498.144    41098.617    -13161.86    481.76585   -17945.255    81.022175 
   97500    909.45758    -103.8831   0.82289633    -103.0602     12671.59    4.3254896    4.3254896    4.3254896     12671.59   -18247.091    4547.6696    51714.191    34448.932    6115.5139    19613.474    80.929306 
   97600    1882.0928   -104.75409    1.7029571   -103.05114   -15053.416    4.3295856    4.3295856    4.3295856   -15053.416   -22277.081   -24864.644    1981.4769   -25546.932     10893.56   -8564.3046    81.159429 
   97700    838.00032   -103.81735    0.7582403   -103.05911    2505.3048    4.3245241    4.3245241    4.3245241    2505.3048   -19316.011   -16987.713    43819.639    48503.705   -5827.2957   -3045.5451    80.875126 
   97800    1376.5787   -104.30745    1.2455574   -103.06189   -9166.9998    4.3187551    4.3187551    4.3187551   -9166.9998   -11259.541    -5725.461   -10515.997   -9552.4111    12268.485    11228.599    80.551888 
   97900    1522.3167   -104.43729    1.3774242   -103.05987    3452.2948    4.3190687    4.3190687    4.3190687    3452.2948    8449.9909   -25701.022    27607.915    25533.425   -6019.1797    608.92912    80.569439 
   98000    862.21542   -103.84866   0.78015063   -103.06851   -15310.812    4.3263413    4.3263413    4.3263413   -15310.812   -36291.496   -10584.105    943.16613    23871.542    1509.9433    11895.503    80.977119 
   98100    1696.9117   -104.59111    1.5354014    -103.0557   -6817.4666    4.3251764    4.3251764    4.3251764   -6817.4666    10886.159   -15566.635   -15771.924    1756.8447   -2192.2364     19892.02    80.911729 
   98200    1255.4506   -104.19562    1.1359581   -103.05967   -3559.2914    4.3180215    4.3180215    4.3180215   -3559.2914   -6001.5775   -36702.004    32025.707    36818.394   -6504.0332   -8725.6624    80.510849 
   98300    1161.8331   -104.10483     1.051251   -103.05358    18565.427    4.3162608    4.3162608    4.3162608    18565.427    37014.981    14552.929    4128.3716   -7637.9813    -1616.263    27513.748    80.412402 
   98400    1276.3802   -104.21591    1.1548956   -103.06101   -36548.461    4.3306182    4.3306182    4.3306182   -36548.461   -25569.293   -75015.606   -9060.4857    37478.121    5580.7992   -27557.257    81.217514 
   98500    1399.3377   -104.31993    1.2661501   -103.05378    14336.295    4.3199086    4.3199086    4.3199086    14336.295    8384.9922   -15937.935    50561.828    5031.3871   -3290.8959     9475.828    80.616451 
   98600    1182.4545   -104.12565    1.0699096   -103.05574   -14396.726    4.3175373    4.3175373    4.3175373   -14396.726    -8693.376   -24775.001   -9721.8024    16071.437     14081.45   -16136.076    80.483767 
   98700    1078.7011   -104.03929   0.97603146   -103.06326   -18148.848    4.3253792    4.3253792    4.3253792   -18148.848   -5860.2044   -59676.308    11089.967    24310.547   -5260.5527   -29785.109    80.923111 
   98800    1809.8113   -104.68976    1.6375553    -103.0522    17550.858    4.3246391    4.3246391    4.3246391    17550.858    40328.363     319.6654    12004.544   -10259.969   -85.091348    6579.8238    80.881576 
   98900     553.3132   -103.56717   0.50064941   -103.06652   -27062.328    4.3284667    4.3284667    4.3284667   -27062.328    9877.7198    -73651.64   -17413.063    43716.289    61.488118   -53922.169    81.096525 
   99000    1683.1527   -104.56693     1.522952   -103.04397    17975.171    4.3203427    4.3203427    4.3203427    17975.171    9749.8252    5330.7064    38844.982   -21341.918   -4163.9883    8995.8083    80.640758 
   99100    1296.5773   -104.23178    1.1731704   -103.05861   -22696.279    4.3247451    4.3247451    4.3247451   -22696.279   -13382.091   -36867.849   -17838.896    34038.439   -1108.6439   -32291.452    80.887527 
   99200    1126.1059    -104.0816    1.0189243   -103.06268   -6359.8593    4.3265416    4.3265416    4.3265416   -6359.8593    14041.103   -39158.736    6038.0549    1690.0589   -3848.5979   -21891.483    80.988368 
   99300     1595.096   -104.49295    1.4432764   -103.04968    1817.5181    4.3256874    4.3256874    4.3256874    1817.5181   -18653.994   -8060.9204    32167.469    1923.7265    -10990.02    14375.643    80.940412 
   99400    914.51734   -103.89009   0.82747451   -103.06262   -16531.399    4.3279025    4.3279025    4.3279025   -16531.399    30429.985   -66146.953    -13877.23     31016.43    587.94795   -43263.735    81.064819 
   99500    1911.1354   -104.76818    1.7292354   -103.03894    18848.178    4.3313504    4.3313504    4.3313504    18848.178    7440.2772    14260.089    34844.167   -11952.366    14536.132    7229.5325    81.258718 
   99600    518.39502   -103.53432   0.46905471   -103.06527   -16969.571    4.3323977    4.3323977    4.3323977   -16969.571   -29890.647   -46477.475    25459.408    41263.116    1094.8441   -36708.413    81.317672 
   99700    1612.0075   -104.51303    1.4585783   -103.05445    21317.294    4.3289491    4.3289491    4.3289491    21317.294    40240.272    5156.0214    18555.588   -1576.4091    16488.984   -8427.8732    81.123643 
   99800    1375.0077   -104.30744    1.2441359    -103.0633   -14718.622    4.3329227    4.3329227    4.3329227   -14718.622   -6279.0558   -29923.433   -7953.3774    25550.363    8007.7371   -10496.427    81.347239 
   99900    623.50937   -103.62596   0.56416438   -103.06179     17023.32    4.3357504    4.3357504    4.3357504     17023.32    52859.667   -36148.201    34358.494    14748.755    5467.4021    -25236.29    81.506609 
  100000    1947.8228   -104.80115     1.762431   -103.03871   -10932.243    4.3360228    4.3360228    4.3360228   -10932.243   -19991.461   -15110.995    2305.7273   -8493.8563    1362.4138    17693.096    81.521969 
Loop time of 24.2168 on 1 procs for 100000 steps with 8 atoms

Pair  time (%) = 7.69113 (31.7595)
Kspce time (%) = 5.96431 (24.6288)
Neigh time (%) = 0.084831 (0.350298)
Comm  time (%) = 1.26641 (5.22949)
Outpt time (%) = 0.030494 (0.125921)
Other time (%) = 9.17961 (37.906)

Nlocal:    8 ave 8 max 8 min
Histogram: 1 0 0 0 0 0 0 0 0 0
Nghost:    2105 ave 2105 max 2105 min
Histogram: 1 0 0 0 0 0 0 0 0 0
Neighs:    2155 ave 2155 max 2155 min
Histogram: 1 0 0 0 0 0 0 0 0 0

Total # of neighbors = 2155
Ave neighs/atom = 269.375
Neighbor list builds = 949
Dangerous builds = 0
unfix 20
unfix 21
print "seeds:8853617"
seeds:8853617
