LAMMPS (10 Feb 2015)
# ---- initialize simulations
clear
units metal
dimension 3
boundary p p p
atom_style charge
atom_modify map array
# ---- create atoms
read_data /Users/eugeneragasa/pyflamestk_git/pypospack/tests/tests_integration/workflow/WorkflowLammpsThermalExpansion/param_2632/MgO_NaCl_unit.npt.T1900/lammps.structure
  triclinic box = (0 0 0) to (4.2565 4.2565 4.2565) with tilt (0 0 0)
  1 by 1 by 1 MPI processor grid
  reading atoms ...
  8 atoms
# ---- define interatomic potential
include potential.mod
mass 1 24.305
mass 2 15.999

group Mg type 1
4 atoms in group Mg
group O type 2
4 atoms in group O

set group Mg charge 1.63285961235
  4 settings made for charge
set group O charge -1.63285961235
  4 settings made for charge

variable R_cut equal 10.0

pair_style buck/coul/long ${R_cut}
pair_style buck/coul/long 10
pair_coeff 1 1 0.0 0.5 0.0 ${R_cut}
pair_coeff 1 1 0.0 0.5 0.0 10
pair_coeff 1 2 1437.07173936 0.281984725072 0.0 ${R_cut}
pair_coeff 1 2 1437.07173936 0.281984725072 0.0 10
pair_coeff 2 2 17907.6681412 0.158842179647 12.0518239093 ${R_cut}
pair_coeff 2 2 17907.6681412 0.158842179647 12.0518239093 10

kspace_style pppm 1.0e-5

neighbor 1.0 bin
neigh_modify every 1 delay 0 check yes
# ---- define settings
compute eng all pe/atom
compute eatoms all reduce sum c_eng
# ---- run minimization
reset_timestep 0
fix 1 all box/relax iso 0.0 vmax 0.001
thermo 10
thermo_style custom step pe lx ly lz xy xz yz press pxx pyy pzz pxy pxz pyz c_eatoms
min_style cg
minimize 1e-25 1e-25 5000 10000
PPPM initialization ...
  G vector (1/distance) = 0.352629
  grid = 8 8 8
  stencil order = 5
  estimated absolute RMS force accuracy = 3.86465e-05
  estimated relative force accuracy = 2.68385e-06
  using double precision FFTs
  3d grid and FFT values/proc = 3375 512
Neighbor list info ...
  1 neighbor list requests
  update every 1 steps, delay 0 steps, check yes
  master list distance cutoff = 11
Memory usage per processor = 4.06549 Mbytes
Step PotEng Lx Ly Lz Xy Xz Yz Press Pxx Pyy Pzz Pxy Pxz Pyz eatoms 
       0   -108.26668       4.2565       4.2565       4.2565            0            0            0     68174.25     68174.25     68174.25     68174.25 -1.8708973e-11 1.9918278e-11 -1.4539535e-10   -108.26668 
      10   -108.32672     4.299065     4.299065     4.299065            0            0            0    15974.818    15974.818    15974.818    15974.818 2.7247293e-10 7.4247233e-11 1.7340321e-10   -108.32672 
      14   -108.33064    4.3118345    4.3118345    4.3118345            0            0            0    1605.1095    1605.1095    1605.1095    1605.1095 -5.9694499e-11 -6.7982128e-11 4.9253128e-12   -108.33064 
Loop time of 0.0148859 on 1 procs for 14 steps with 8 atoms

Minimization stats:
  Stopping criterion = linesearch alpha is zero
  Energy initial, next-to-last, final = 
        -108.266678614      -108.33063925      -108.33063925
  Force two-norm initial, final = 9.8444 0.23785
  Force max component initial, final = 9.8444 0.237844
  Final line search alpha, max atom move = 1.28309e-07 3.05176e-08
  Iterations, force evaluations = 14 44

Pair  time (%) = 0.00403333 (27.0949)
Kspce time (%) = 0.0023334 (15.6753)
Neigh time (%) = 0 (0)
Comm  time (%) = 0.000444889 (2.98866)
Outpt time (%) = 1.19209e-05 (0.080082)
Other time (%) = 0.00806236 (54.1611)

Nlocal:    8 ave 8 max 8 min
Histogram: 1 0 0 0 0 0 0 0 0 0
Nghost:    2189 ave 2189 max 2189 min
Histogram: 1 0 0 0 0 0 0 0 0 0
Neighs:    2344 ave 2344 max 2344 min
Histogram: 1 0 0 0 0 0 0 0 0 0

Total # of neighbors = 2344
Ave neighs/atom = 293
Neighbor list builds = 0
Dangerous builds = 0
unfix 1
# ---- define output variables ----
variable natoms equal "count(all)"
variable tot_energy equal "c_eatoms"
variable length_x equal "lx"
variable length_y equal "ly"
variable length_z equal "lz"
variable tilt_xy equal "xy"
variable tilt_xz equal "xz"
variable tilt_yz equal "yz"
variable tot_press equal "press"
variable press_xx equal "pxx"
variable press_yy equal "pyy"
variable press_zz equal "pzz"
variable press_xy equal "pxy"
variable press_xz equal "pxz"
variable press_yz equal "pyz"

# ---- output ----
print "pypospack:output_section:begin"
pypospack:output_section:begin
print "tot_energy = ${tot_energy}"
tot_energy = -108.330639250266
print "num_atoms = ${natoms}"
num_atoms = 8
print "xx = ${length_x}"
xx = 4.3118345
print "yy = ${length_y}"
yy = 4.3118345
print "zz = ${length_z}"
zz = 4.3118345
print "xy = ${tilt_xy}"
xy = 0
print "xz = ${tilt_xz}"
xz = 0
print "yz = ${tilt_yz}"
yz = 0
print "tot_press = ${tot_press}"
tot_press = 1605.10951764203
print "pxx = ${press_xx}"
pxx = 1605.10951764176
print "pyy = ${press_yy}"
pyy = 1605.10951764198
print "pzz = ${press_zz}"
pzz = 1605.10951764233
print "pxy = ${press_xy}"
pxy = -5.96944985898881e-11
print "pxz = ${press_xz}"
pxz = -6.79821282837662e-11
print "pyz = ${press_yz}"
pyz = 4.92531279854496e-12
print "pypospack:output_section:done"
pypospack:output_section:done
print "pypospack:lammps_sim:done"
pypospack:lammps_sim:done
#------------------------------------------------------------------------------
# RUN THERMOSTAT
# running using an NPT Nose-Hoover style thermostat
#------------------------------------------------------------------------------
variable tempdamp equal 0.1
variable pressdamp equal 1.0
# set initial velocities
velocity all create 1900 8120478 mom yes dist gaussian loop all
# fix for Nose-Hoover style thermostat
fix 20 all npt temp 1900 1900 0.1 aniso 0.0 0.0 1.0 drag 1.0 couple xyz
variable boxx equal lx
variable boxy equal ly
variable boxz equal lz
variable boxp equal press
variable boxt equal temp
# calculate averages every 10000 steps
reset_timestep 0
fix 21 all ave/time 10 10 100 v_boxx v_boxy v_boxz v_boxp v_boxt file lattice.out
thermo_style custom step temp pe ke etotal press lx ly lz press pxx pyy pzz pxy pxz pyz vol
thermo_modify flush yes
thermo 100
run 100000
PPPM initialization ...
  G vector (1/distance) = 0.352078
  grid = 8 8 8
  stencil order = 5
  estimated absolute RMS force accuracy = 3.96373e-05
  estimated relative force accuracy = 2.75266e-06
  using double precision FFTs
  3d grid and FFT values/proc = 3375 512
Memory usage per processor = 3.06549 Mbytes
Step Temp PotEng KinEng TotEng Press Lx Ly Lz Press Pxx Pyy Pzz Pxy Pxz Pyz Volume 
       0         1900   -108.33065    1.7191599   -106.61149    24509.549    4.3118345    4.3118345    4.3118345    24509.549    40099.509    10922.663    22506.473    7562.9981   -7479.8288   -2390.2541    80.165268 
     100    631.65535   -106.97512   0.57153504   -106.40359    26437.965    4.3395203    4.3395203    4.3395203    26437.965    40742.295    2906.8965    35664.703   -12084.534     20139.19    951.14044    81.719399 
     200    1166.1253   -106.98391    1.0551346   -105.92878   -23115.185    4.3921102    4.3921102    4.3921102   -23115.185    5922.6118   -54053.383   -21214.783   -9322.0618   -3234.1744   -9576.6514    84.726584 
     300    1821.0981   -107.16123    1.6477678   -105.51346   -2140.8527    4.4030206    4.4030206    4.4030206   -2140.8527    45106.377   -56593.686    5064.7504    3918.5202   -4994.6059    1267.6197    85.359558 
     400    1296.2691   -106.35174    1.1728915   -105.17885    5875.6577    4.3808571    4.3808571    4.3808571    5875.6577   -25091.488    -7283.795    50002.256   -22058.762    43558.119   -6292.6775    84.077012 
     500     2104.708   -106.85483     1.904384   -104.95045    2239.1543    4.3763799    4.3763799    4.3763799    2239.1543    2609.1544   -17909.713    22018.022    359.46954   -12775.088    -22652.04    83.819494 
     600    1971.1548   -106.65589    1.7835423   -104.87235    3028.3691    4.4005367    4.4005367    4.4005367    3028.3691    25327.003    -5663.491   -10578.404   -12587.962    40119.705    3058.5899    85.215175 
     700    1631.7482   -106.29561      1.47644   -104.81917   -32958.516    4.4343325    4.4343325    4.4343325   -32958.516   -44294.094   -40685.314   -13896.141   -4149.0529   -1293.9274   -3589.0602    87.193631 
     800    2110.1478   -106.64373    1.9093061   -104.73443   -37659.759    4.4237658    4.4237658    4.4237658   -37659.759   -53537.063   -3218.6869   -56223.526    6295.5508   -13046.906    24925.999    86.571788 
     900    2042.0217    -106.5572    1.8476641   -104.70954    8700.8106    4.3989071    4.3989071    4.3989071    8700.8106   -34060.172    16528.906    43633.698   -20003.961     24007.67    5686.3071    85.120543 
    1000    2664.0763   -107.14698    2.4105123   -104.73647   -23963.846    4.4035281    4.4035281    4.4035281   -23963.846   -35111.849   -3689.9609   -33089.728   -978.12766   -29023.585    14840.906    85.389079 
    1100    1236.3012   -105.89173    1.1186313    -104.7731    5380.6106    4.4006193    4.4006193    4.4006193    5380.6106   -63824.595    72292.298    7674.1285   -17911.221    26433.219    1057.7783    85.219976 
    1200     2553.574   -107.09243    2.3105274    -104.7819   -6545.1431    4.4094341    4.4094341    4.4094341   -6545.1431   -59268.114    15164.257    24468.427   -17379.489   -8389.8801   -13599.542    85.733106 
    1300    1475.7385   -106.14252    1.3352792   -104.80725   -18604.162    4.4134675    4.4134675    4.4134675   -18604.162   -89772.966     72938.11   -38977.631   -23746.982    30301.974   -1621.5918    85.968587 
    1400    1332.5702   -106.00616    1.2057375   -104.80042    15805.589    4.4015677    4.4015677    4.4015677    15805.589   -12134.875     24582.61    34969.032   -25746.542   -4585.6719   -7819.1893    85.275086 
    1500    2299.4957   -106.86349     2.080632   -104.78286    35959.371    4.3921077    4.3921077    4.3921077    35959.371   -36621.463    89280.395    55219.181    6050.0911   -4967.9297   -34182.623    84.726435 
    1600    1785.7505   -106.43288    1.6157846    -104.8171   -3647.1028    4.4052794    4.4052794    4.4052794   -3647.1028   -44101.259   -27892.934    61052.885   -33002.736   -6518.9738    -20080.15    85.490997 
    1700    2197.9924   -106.79001    1.9887897   -104.80122   -42328.263    4.4318215    4.4318215    4.4318215   -42328.263   -56165.665   -23839.878   -46979.244   -5909.6213   -18074.865   -17957.355    87.045593 
    1800    1672.3597   -106.26547    1.5131862   -104.75229    8715.2312    4.4311327    4.4311327    4.4311327    8715.2312   -37780.059    40747.664    23178.089   -12331.831    7103.8808    7555.0916     87.00501 
    1900    1982.3223   -106.54247    1.7936469   -104.74882    4889.6825    4.4205339    4.4205339    4.4205339    4889.6825   -31906.848    18508.871    28067.024   -25815.313   -25493.373    472.76262    86.382184 
    2000    2387.8495   -106.92944    2.1605764   -104.76886   -29099.993    4.4143923    4.4143923    4.4143923   -29099.993   -97164.301    36940.038   -27075.716   -5441.4342    37677.353   -8876.1834    86.022644 
    2100    1010.9838   -105.71439   0.91475942   -104.79963    34551.136     4.407925     4.407925     4.407925    34551.136    3350.7523    95867.041    4435.6136    1156.9577   -3369.3248    -2355.766    85.645116 
    2200    2034.0957   -106.63382    1.8404925   -104.79333    7154.5352     4.415715     4.415715     4.415715    7154.5352   -26262.576    50231.971   -2505.7894    6783.3807    11764.194     -31245.9    86.099992 
    2300    1172.2329   -105.85801    1.0606609   -104.79735    21807.744     4.423138     4.423138     4.423138    21807.744   -52185.391    32092.919    85515.704   -13217.883    14003.262   -23756.839    86.534936 
    2400    1975.3207   -106.56329    1.7873117   -104.77598   -2057.5773    4.4226918    4.4226918    4.4226918   -2057.5773     29084.23   -9510.2544   -25746.707    34694.676    -9784.302    2124.9726    86.508751 
    2500    1614.8821    -106.2231    1.4611792   -104.76192    30323.446    4.4196044    4.4196044    4.4196044    30323.446    6822.1213    11376.405    72771.811   -15923.143    17679.376   -12611.565    86.327703 
    2600    2257.8385   -106.78477    2.0429397   -104.74183    3395.0625     4.425981     4.425981     4.425981    3395.0625   -29764.494    -14461.23    54410.912    2216.7107   -14067.895    87.120463    86.701901 
    2700    1999.9072    -106.5451    1.8095581   -104.73554   -33072.682      4.42782      4.42782      4.42782   -33072.682   -56026.153   -42918.695   -273.19771   -28146.058     6337.158    14354.714    86.810021 
    2800    2585.8505   -107.06819    2.3397319   -104.72845   -13923.096    4.4303478    4.4303478    4.4303478   -13923.096   -3247.4558    -55163.82    16641.987   -7581.9006   -5109.8616    1943.0746    86.958784 
    2900    2022.8916   -106.56831    1.8303548   -104.73795   -63405.792    4.4383769    4.4383769    4.4383769   -63405.792   -91974.051   -59425.825   -38817.499    -29601.11    15184.032    23648.678    87.432429 
    3000    2568.7956   -107.06177    2.3243003   -104.73747   -59686.369    4.4155906    4.4155906    4.4155906   -59686.369    -91063.32   -39483.295   -48512.492   -10990.061    6091.5403    25541.675    86.092714 
    3100    2339.6079    -106.8716    2.1169264   -104.75468     14401.53    4.3931649    4.3931649    4.3931649     14401.53    -34112.25    21552.962    55763.878   -20135.364   -2788.1424   -13985.053    84.787631 
    3200    902.92876   -105.62582   0.81698892   -104.80883    39783.821    4.4021428    4.4021428    4.4021428    39783.821   -25798.543    95970.022    49179.983   -28513.886    19024.543   -45830.079    85.308517 
    3300    1773.7048   -106.40677    1.6048854   -104.80189    8234.1188    4.4291668    4.4291668    4.4291668    8234.1188   -32249.424    30490.062    26461.718     -7224.42    4431.3299   -11297.764    86.889263 
    3400    1899.1636   -106.46774    1.7184031   -104.74934   -30716.236    4.4469925    4.4469925    4.4469925   -30716.236   -98553.719    -13325.03    19730.041   -24148.944    7472.1949    840.77867    87.942578 
    3500    2839.3118   -107.26267     2.569069    -104.6936   -51760.925     4.437968     4.437968     4.437968   -51760.925   -74078.189   -52397.527    -28807.06    7211.1965    7223.2685    34960.202    87.408264 
    3600    1763.1522   -106.28941    1.5953371   -104.69408    -35002.94    4.4151464    4.4151464    4.4151464    -35002.94   -51320.624   -16516.725   -37171.471   -41575.408    11224.855    23624.083    86.066732 
    3700    2126.9758   -106.64004    1.9245324    -104.7155    50462.815    4.3995625    4.3995625    4.3995625    50462.815    5658.9503    70106.927    75622.567     15915.34   -6289.6244   -36476.473    85.158591 
    3800     1741.201   -106.36748    1.5754752   -104.79201   -27508.564    4.4244074    4.4244074    4.4244074   -27508.564   -44523.428   -74723.806    36721.541   -22499.846    5173.3991    15250.824    86.609459 
    3900    2489.6928   -106.99794    2.2527264   -104.74521   -27365.871    4.4430493    4.4430493    4.4430493   -27365.871    22089.491   -53163.214   -51023.891    5503.4909   -5292.6343     7528.762    87.708849 
    4000    1881.2842   -106.42128    1.7022255   -104.71905   -11219.874    4.4402638    4.4402638    4.4402638   -11219.874   -58563.083    63911.671    -39008.21   -41972.213   -6929.3954    34512.483    87.543986 
    4100    2534.5341   -106.99232    2.2932997   -104.69902   -12191.523    4.4231239    4.4231239    4.4231239   -12191.523   -31755.729    54997.237   -59816.078    16503.712   -3365.8457    2779.7324    86.534108 
    4200    1754.6924    -106.2997    1.5876825   -104.71202    3882.1881    4.3898572    4.3898572    4.3898572    3882.1881   -6066.3597    23221.129   -5508.2052   -56538.211    4625.9467   -756.49483    84.596264 
    4300    2266.8212   -106.82734    2.0510675   -104.77627    18568.374    4.3972601    4.3972601    4.3972601    18568.374    8838.8171    83541.436    -36675.13   -115.69627    8485.1602    15438.979    85.024966 
    4400    1755.5206   -106.39404    1.5884319   -104.80561   -36194.324    4.4249194    4.4249194    4.4249194   -36194.324   -70051.743   -13562.668   -24968.562   -51284.302   -2417.9424   -5404.1047    86.639529 
    4500    1779.8491   -106.40482    1.6104448   -104.79437   -10872.029    4.4138698    4.4138698    4.4138698   -10872.029   -31900.187    36617.909    -37333.81    220.94696    1575.4106    2076.0326    85.992102 
    4600    2121.1924    -106.7139    1.9192995   -104.79461    30514.014    4.3814773    4.3814773    4.3814773    30514.014    19879.361    71520.136    142.54408   -11934.133   -4901.0821     1605.408    84.112724 
    4700    1743.2654   -106.43824    1.5773432    -104.8609    -636.8644    4.3924677    4.3924677    4.3924677    -636.8644    30306.243   -18695.454   -13521.382   -23487.324    1038.6898    5099.8461    84.747273 
    4800    2512.2736   -107.09897    2.2731579   -104.82582   -22123.871    4.4185938    4.4185938    4.4185938   -22123.871    3447.8082   -5267.4893   -64551.933    11688.647    -1754.925    403.32324      86.2685 
    4900     1510.526    -106.1541    1.3667557   -104.78735    13750.909    4.4125351    4.4125351    4.4125351    13750.909    5334.4013    52314.836    -16396.51   -44488.422     8137.507    1486.2576    85.914113 
    5000    2050.8414   -106.62885    1.8556444   -104.77321    13725.586    4.4054683    4.4054683    4.4054683    13725.586    62001.615    45401.962   -66226.817    2968.9916    19140.624    -2153.561    85.501995 
    5100    1734.8034   -106.35604    1.5696866   -104.78635    16187.177    4.4007326    4.4007326    4.4007326    16187.177   -27659.122    51584.815    24635.837   -36827.256     -22075.4    14371.222    85.226554 
    5200    1537.6101   -106.20535    1.3912619   -104.81409    9631.4043    4.4112859    4.4112859    4.4112859    9631.4043    12188.886    36943.202   -20237.875   -7720.9511    26202.136    -24259.43     85.84117 
    5300    1772.4553   -106.38635    1.6037548   -104.78259    7974.2983    4.4273012    4.4273012    4.4273012    7974.2983    25575.966    24500.189    -26153.26   -20753.525    2023.4832   -22315.685     86.77951 
    5400    862.93209   -105.54648   0.78079909   -104.76568    17985.622    4.4176925    4.4176925    4.4176925    17985.622   -16240.662    56812.568    13384.961   -15636.971   -11603.542    15786.487    86.215717 
    5500    2627.9173   -107.10678    2.3777948   -104.72899   -4056.3982    4.4075717    4.4075717    4.4075717   -4056.3982    11052.072   -21367.684   -1853.5816    5538.2519    9559.0504    11716.674    85.624524 
    5600    1863.2468   -106.44111    1.6859049   -104.75521   -9923.0622    4.4006104    4.4006104    4.4006104   -9923.0622   -48672.979    24715.144   -5811.3516   -48365.103     6757.627   -12134.259    85.219456 
    5700    1462.8172   -106.11478    1.3235877   -104.79119   -2158.2659    4.3940184    4.3940184    4.3940184   -2158.2659   -21311.139    11329.979    3506.3619    22268.121   -11959.357    6221.6135    84.837061 
    5800    2371.4473   -106.95525    2.1457354   -104.80951   -3323.8733    4.3933396    4.3933396    4.3933396   -3323.8733   -15434.714   -1813.6524    7276.7463    -34662.14   -1846.3452   -20815.298    84.797751 
    5900    1568.4242   -106.24946    1.4191431   -104.83031    8086.9822    4.4138135    4.4138135    4.4138135    8086.9822    45985.999   -3905.8177   -17819.234   -15998.784     3481.664    219.51413    85.988812 
    6000    1595.2739   -106.23723    1.4434373   -104.79379   -11185.604    4.4232947    4.4232947    4.4232947   -11185.604    50142.701   -14836.188   -68863.325   -17184.228   -13681.226    10194.529     86.54413 
    6100    2021.7734   -106.59292    1.8293431   -104.76358    -33468.87    4.4101252    4.4101252    4.4101252    -33468.87   -26687.743    -15414.53   -58304.336   -45223.158    25730.105    2140.3167    85.773428 
    6200    1420.6823   -106.06063    1.2854632   -104.77517   -2704.7605    4.3837104    4.3837104    4.3837104   -2704.7605   -13787.373    57140.776   -51467.684     17963.33    7412.7099     7554.839    84.241398 
    6300    2603.1101   -107.14993    2.3553487   -104.79459   -11007.522    4.3810866    4.3810866    4.3810866   -11007.522   -5078.4115   -40242.241    12298.088    -19636.58   -34283.349    9162.4205    84.090224 
    6400    1633.2376   -106.31138    1.4777877    -104.8336    5093.2821     4.404797     4.404797     4.404797    5093.2821    6444.0867     23985.25    -15149.49   -11399.502    34387.773    10075.686    85.462914 
    6500    1448.0509   -106.11174    1.3102269   -104.80151    13519.691    4.4140397    4.4140397    4.4140397    13519.691   -18327.068    92346.452    -33460.31   -2493.5293   -34427.983    6710.7858    86.002028 
    6600    1706.3053   -106.31509    1.5439009   -104.77119   -2716.5233    4.4170201    4.4170201    4.4170201   -2716.5233    27855.749    3771.9677   -39777.287   -8344.9797    13508.972    11751.987    86.176354 
    6700     1886.206   -106.44989    1.7066788   -104.74321    7663.7534    4.4104148    4.4104148    4.4104148    7663.7534   -22370.693      8413.52    36948.433    8520.9797   -13252.145   -12708.422    85.790322 
    6800    1363.3389   -105.97252    1.2335777   -104.73895    47573.457    4.3875924    4.3875924    4.3875924    47573.457    27767.363    24597.266    90355.744   -2386.8178   -26068.936    6542.6943    84.465395 
    6900    1877.8878    -106.4831    1.6991523   -104.78395    12808.899    4.3927486    4.3927486    4.3927486    12808.899    44091.093    15464.303   -21128.699   -21134.034    18872.951   -19912.872    84.763535 
    7000    2088.2069   -106.67825    1.8894535    -104.7888   -1139.8899    4.4157551    4.4157551    4.4157551   -1139.8899    -12970.69   -20090.444    29641.464    14432.677   -29519.229   -13148.227    86.102334 
    7100    1884.3538   -106.48243    1.7050029   -104.77743    -16310.45    4.4040315    4.4040315    4.4040315    -16310.45    6449.5152   -38521.022   -16859.845   -16803.137     18578.85    15243.713    85.418366 
    7200    2035.8901   -106.63625    1.8421161   -104.79414   -23913.038    4.3899985    4.3899985    4.3899985   -23913.038   -13929.653    -38933.93    -18875.53    16233.331    3074.6447   -30065.489    84.604435 
    7300    2056.6617   -106.67908    1.8609107   -104.81817    14341.812    4.3918038    4.3918038    4.3918038    14341.812    27508.305   -64064.333    79581.463    13808.275    14021.049    -1537.801    84.708852 
    7400    1830.2615   -106.49192    1.6560591   -104.83586    1262.8961      4.40282      4.40282      4.40282    1262.8961    5930.2375   -54754.545    52612.996   -7969.1974    31811.318    6870.9617    85.347893 
    7500    1462.6318   -106.15628      1.32342   -104.83286   -3229.0808    4.4081888    4.4081888    4.4081888   -3229.0808   -25287.941   -81342.831     96943.53    27271.011   -8125.6349   -33036.668    85.660491 
    7600     2382.734   -106.97945    2.1559478    -104.8235   -13789.122    4.3811269    4.3811269    4.3811269   -13789.122   -9676.6187   -33953.465    2262.7179   -2490.7874    23912.787   -11155.233    84.092546 
    7700    2029.8559    -106.6531    1.8366563   -104.81644    35828.552    4.3513501    4.3513501    4.3513501    35828.552    42014.419   -3468.3834     68939.62    19630.229     18955.28   -4216.5484    82.389539 
    7800     2177.194    -106.8291    1.9699709   -104.85913    8973.1621    4.3786335    4.3786335    4.3786335    8973.1621    578.02428    -52481.57    78823.032   -800.23947   -17075.461   -36539.593     83.94905 
    7900    1230.7364   -105.96604    1.1135961   -104.85244   -14903.232    4.3966849    4.3966849    4.3966849   -14903.232   -93064.242   -69315.063    117669.61    38621.987    10275.042    8302.2251    84.991605 
    8000    2459.4255   -107.04171    2.2253399   -104.81637   -819.18448    4.3947919    4.3947919    4.3947919   -819.18448   -20280.309    -4528.853    22351.608   -18040.543    14484.756    6439.6473     84.88187 
    8100    1528.7314   -106.20241    1.3832283   -104.81918   -39802.782    4.3988851    4.3988851    4.3988851   -39802.782   -94524.348   -23108.731   -1775.2664    27300.047    -13021.05   -20270.773    85.119265 
    8200    2282.6135   -106.85622    2.0653567   -104.79086   -23403.898    4.3853785    4.3853785    4.3853785   -23403.898   -13314.567   -44349.446    -12547.68    -1205.061    24601.045    13629.213    84.337605 
    8300    2041.6888   -106.64225     1.847363   -104.79489    24239.975    4.3761342    4.3761342    4.3761342    24239.975    10255.603     12309.42    50154.901    17714.226   -20319.841   -7632.5484    83.805382 
    8400    1677.3093   -106.34321    1.5176647   -104.82554   -14436.823    4.3875625    4.3875625    4.3875625   -14436.823   -38940.804   -15656.772    11287.108    1997.6247    132.44258   -1849.8404    84.463671 
    8500    1857.4847   -106.50025    1.6806912   -104.81956   -1370.9925    4.4027381    4.4027381    4.4027381   -1370.9925   -4919.5297   -2851.1333    3657.6855    5175.6263    7896.1347    12135.934    85.343126 
    8600    1568.3953   -106.24214     1.419117   -104.82303   -5248.7742    4.3935487    4.3935487    4.3935487   -5248.7742   -4178.9738    11983.241   -23550.589    22822.816   -19619.108    -8258.835    84.809857 
    8700    2615.1822   -107.15876    2.3662718   -104.79249    16413.412    4.3732942    4.3732942    4.3732942    16413.412   -13712.342    31428.665    31523.912   -12289.032    1886.9029   -2881.9148    83.642324 
    8800    1141.2435   -105.85854    1.0326211   -104.82592   -7422.0796    4.3784526    4.3784526    4.3784526   -7422.0796   -42525.764    10808.516    9451.0085    39702.322   -5890.9765    2708.5774    83.938643 
    8900     2806.351   -107.35325    2.5392454     -104.814   -8142.2207    4.3833551    4.3833551    4.3833551   -8142.2207   -3432.5119   -13888.194   -7105.9557   -28126.942    188.49815   -12574.397    84.220919 
    9000    1206.7077   -105.93947    1.0918545   -104.84762    -25819.82    4.4011411    4.4011411    4.4011411    -25819.82   -57895.349   -11463.981   -8100.1299    45981.987   -9986.1683    7810.4877    85.250293 
    9100    1739.9589   -106.39692    1.5743514   -104.82256   -22101.019    4.3968165    4.3968165    4.3968165   -22101.019   -64767.332    17930.559   -19466.283   -46463.498   -24309.034   -15865.753    84.999237 
    9200    2062.1384   -106.67237    1.8658661   -104.80651   -4147.4652    4.3702175    4.3702175    4.3702175   -4147.4652   -17747.363   -25744.407    31049.374    70001.396    23576.832    15500.572    83.465916 
    9300    1580.9837   -106.25834    1.4305073   -104.82783    24865.448    4.3659596    4.3659596    4.3659596    24865.448   -31788.332    41178.929    65205.749    -16682.06   -12900.663   -13647.314     83.22219 
    9400    1710.9588   -106.40921    1.5481115    -104.8611   -21093.744     4.399424     4.399424     4.399424   -21093.744   -4448.2657   -64466.406    5633.4409    35391.127    15765.897    3753.6636    85.150551 
    9500    2021.5716   -106.63968    1.8291604   -104.81052   -27634.202    4.4147243    4.4147243    4.4147243   -27634.202   -42686.812    -5298.802   -34916.991    35888.163    5013.4202   -1904.8726    86.042054 
    9600    1989.7516    -106.5797    1.8003691   -104.77933    6470.7369    4.3922826    4.3922826    4.3922826    6470.7369    20242.803    1886.4015   -2716.9941   -18817.265   -1976.5514    -13853.78    84.736559 
    9700     1829.706   -106.43535    1.6555565   -104.77979    13009.728    4.3717348    4.3717348    4.3717348    13009.728   -29469.334    13156.609    55341.909    57301.694    10557.053    12225.543    83.552879 
    9800    1818.2086   -106.44249    1.6451534   -104.79734    32266.691    4.3673834    4.3673834    4.3673834    32266.691    65657.665    10203.579     20938.83    -41709.13   -25256.843    24568.596    83.303638 
    9900    1647.8799   -106.31951    1.4910363   -104.82847    23288.649    4.3858985    4.3858985    4.3858985    23288.649    3500.6791    45177.747    21187.521    46071.415    23667.249   -13019.522    84.367604 
   10000    2175.3841   -106.77869    1.9683332   -104.81035   -11524.653     4.403122     4.403122     4.403122   -11524.653    7693.5126   -7875.3033   -34392.169   -35548.888   -22590.347    14863.282    85.365456 
   10100    1855.3418   -106.46806    1.6787523   -104.78931   -20102.537     4.401104     4.401104     4.401104   -20102.537   -34933.423    26894.747   -52268.934    14410.328    6129.9171   -184.52595    85.248138 
   10200    2395.3551   -106.93469    2.1673676   -104.76732     13745.21    4.3902553    4.3902553    4.3902553     13745.21    45817.672    30181.563   -34763.604    4739.9732   -5337.3727    22907.751     84.61928 
   10300    1174.5388   -105.87075    1.0627473     -104.808    -15200.48    4.3873958    4.3873958    4.3873958    -15200.48   -78659.572    55971.145   -22913.012   -22845.871   -35071.329    4473.8276    84.454042 
   10400    2780.2731    -107.3081    2.5156495   -104.79245   -3281.7505    4.3786092    4.3786092    4.3786092   -3281.7505   -29918.534   -1205.6153    21278.898    14258.504    3972.0563    -8693.934    83.947653 
   10500     1383.916   -106.09191    1.2521963   -104.83972   -3103.2816    4.3719135    4.3719135    4.3719135   -3103.2816   -25219.544    36725.398   -20815.699   -2800.6205   -10198.707    10576.574    83.563126 
   10600    2430.4673    -107.0385    2.1991379   -104.83937   -10453.567    4.3767581    4.3767581    4.3767581   -10453.567   -40250.421   -11481.099    20370.818   -32863.488   -11545.187   -7313.4128    83.841228 
   10700    1251.3722   -105.96678    1.1322678   -104.83451    16322.015    4.3832454    4.3832454    4.3832454    16322.015      5378.95    50552.192   -6965.0967    7123.1598     20888.51    432.66832    84.214593 
   10800    2452.3977   -107.02472    2.2189809   -104.80574   -7289.5911    4.3821719    4.3821719    4.3821719   -7289.5911   -23365.577   -9582.2155    11079.019   -50812.725   -37221.542    14395.256    84.152735 
   10900     1654.084   -106.30176      1.49665   -104.80511   -9702.8488    4.3897239    4.3897239    4.3897239   -9702.8488   -5301.4531    19913.479   -43720.572    12236.683    24659.192   -42112.569    84.588558 
   11000    1734.6839   -106.37327    1.5695785   -104.80369   -30961.078     4.383684     4.383684     4.383684   -30961.078   -46205.872   -39780.764   -6896.5978   -35244.134    109.14516    9283.3619    84.239876 
   11100     2135.319   -106.73149    1.9320815   -104.79941    12535.536    4.3712369    4.3712369    4.3712369    12535.536    27614.547    22225.691   -12233.631    -27451.83    2294.7788    -8749.523    83.524336 
   11200    1669.6261   -106.34098    1.5107127   -104.83026   -29378.323    4.3786542    4.3786542    4.3786542   -29378.323   -14989.879   -31002.685   -42142.406     1103.863    8131.1342   -22184.231    83.950241 
   11300    1868.4569   -106.49811    1.6906191   -104.80749    8513.0793    4.3822319    4.3822319    4.3822319    8513.0793   -26502.095    14679.056    37362.276   -22203.443    2914.4618     14462.58     84.15619 
   11400    1543.0159   -106.20896    1.3961532    -104.8128   -1433.6839    4.3846813    4.3846813    4.3846813   -1433.6839    10554.048     12089.37    -26944.47   -7686.0168    26865.133   -33666.228    84.297383 
   11500    2604.5403    -107.1539    2.3566428   -104.79726    -2496.229    4.3951804    4.3951804    4.3951804    -2496.229   -3785.3483    9170.6048   -12873.944    9651.5629   -1599.0993   -7666.7508    84.904386 
   11600    846.10786   -105.58448   0.76557617    -104.8189    12009.996    4.4025945    4.4025945    4.4025945    12009.996   -44835.713    62317.921    18547.779   -702.80901    40968.826     -7638.42    85.334777 
   11700    2655.1486   -107.18706    2.4024342   -104.78463   -27976.682    4.4016109    4.4016109    4.4016109   -27976.682   -3948.0274   -41777.118   -38204.899    4614.0666   -27747.974   -13603.865    85.277593 
   11800    1635.2262   -106.28098    1.4795871   -104.80139    2248.6227    4.3863536    4.3863536    4.3863536    2248.6227   -46820.294    47053.926    6512.2361   -941.40797    56717.767    688.31822    84.393874 
   11900    2226.8743   -106.81154    2.0149226   -104.79662   -3661.4918    4.3709667    4.3709667    4.3709667   -3661.4918   -475.68203   -11338.465    829.67109    15631.098   -26490.345   -26790.994    83.508846 
   12000    1695.8297   -106.35834    1.5344223   -104.82392    34199.844    4.3739949    4.3739949    4.3739949    34199.844    26316.725    51080.585    25202.223    1324.0599    35947.618    15865.977    83.682532 
   12100    2399.8078   -106.99716    2.1713965   -104.82576   -33276.387    4.3920564    4.3920564    4.3920564   -33276.387   -64165.043   -21906.583   -13757.537    -1463.785    20104.345   -21822.301    84.723466 
   12200    1874.6695   -106.52737    1.6962404   -104.83113   -22431.392     4.387683     4.387683     4.387683   -22431.392   -25333.552   -790.16308   -41170.461    9696.7552   -20601.994   -3616.4974    84.470629 
   12300    1686.2589   -106.35737    1.5257625   -104.83161    13764.803    4.3845358    4.3845358    4.3845358    13764.803    26571.702    22567.982   -7845.2747    16264.253    48708.682      8999.31    84.288994 
   12400    2070.9705   -106.69934    1.8738577   -104.82549   -15843.913    4.3812931    4.3812931    4.3812931   -15843.913   -17238.748   -35946.762     5653.771    29511.695    -18891.69   -19232.783    84.102115 
   12500    1455.6432    -106.1602    1.3170966    -104.8431    16702.159    4.3863742    4.3863742    4.3863742    16702.159    60786.031   -6979.7725     -3699.78   -29200.747    17241.294    18208.242     84.39506 
   12600    2164.2017   -106.79503    1.9582152   -104.83681   -15872.854    4.3852498    4.3852498    4.3852498   -15872.854    5127.1789   -55405.341    2659.6007    45871.291    6458.5815   -9880.9192    84.330179 
   12700    1738.7601   -106.41078    1.5732667   -104.83751   -22530.264    4.3930661    4.3930661    4.3930661   -22530.264    -53255.96    -16349.06    2014.2266    -11157.66   -20560.437    2987.4061    84.781916 
   12800     2205.432   -106.81434    1.9955212   -104.81882   -25996.678    4.3974308    4.3974308    4.3974308   -25996.678    31309.047   -78726.463   -30572.618     6068.147    4569.8455    11235.466    85.034868 
   12900    2268.2097   -106.86465    2.0523238   -104.81233   -21442.593    4.3783888    4.3783888    4.3783888   -21442.593   -38547.841   -34155.926    8375.9885    44456.397   -5397.1431   -3185.2877    83.934977 
   13000    1434.5339   -106.11525    1.2979964   -104.81725    47980.876    4.3703404    4.3703404    4.3703404    47980.876    103642.41    10083.189    30217.026   -59014.799   -12735.446    409.41808    83.472956 
   13100    1704.2836   -106.36866    1.5420716   -104.82659    13361.976    4.3890387    4.3890387    4.3890387    13361.976     2849.841   -16898.081    54134.169    29431.075   -806.03046   -5761.3956    84.548951 
   13200     1810.276    -106.4463    1.6379758   -104.80832   -24547.677    4.4080028    4.4080028    4.4080028   -24547.677   -29465.424   -2812.2869    -41365.32   -28918.131   -19088.394    283.32314    85.649648 
   13300     2178.846   -106.73509    1.9714656   -104.76362   -9921.5425    4.4145274    4.4145274    4.4145274   -9921.5425   -10861.842    6617.9494   -25520.735   -4651.8649      34935.5    11207.483    86.030538 
   13400    1307.5637   -105.94541    1.1831111    -104.7623    8801.6998     4.403464     4.403464     4.403464    8801.6998      22987.2    41003.113   -37585.213   -5905.9109    -20718.87   -2123.7501    85.385348 
   13500    1671.8498   -106.27188    1.5127248   -104.75916    42976.223    4.3913131    4.3913131    4.3913131    42976.223    113515.65    56027.571   -40614.552   -58343.449   -3768.0142   -4845.7679     84.68046 
   13600    1988.7929   -106.56645    1.7995017   -104.76695    22287.615    4.3933515    4.3933515    4.3933515    22287.615    26621.001    26602.959    13638.884    504.05359    -12271.31    3378.2593    84.798435 
   13700    1269.4632   -105.93103     1.148637   -104.78239    8828.2967    4.4002661    4.4002661    4.4002661    8828.2967   -21436.937    19479.341    28442.486   -40490.031   -3884.7431   -1273.2846    85.199457 
   13800    1935.7896   -106.53981    1.7515431   -104.78827    356.97751     4.406858     4.406858     4.406858    356.97751   -15184.935    40217.627   -23961.759   -10204.262    10872.876   -319.50042    85.582936 
   13900    1947.1707   -106.53134    1.7618409    -104.7695   -12543.873    4.4105318    4.4105318    4.4105318   -12543.873   -41466.652    23671.788   -19836.753   -17479.448   -8327.4104   -21689.366    85.797149 
   14000    1703.3295   -106.31008    1.5412083   -104.76887   -27777.257    4.4095377    4.4095377    4.4095377   -27777.257   -54722.709   -5884.4893   -22724.572   -1606.3107    37213.163    27538.024     85.73915 
   14100    2392.2857   -106.90273    2.1645903   -104.73814    21056.168    4.3970499    4.3970499    4.3970499    21056.168    12133.258    37045.564    13989.682    16503.008   -13208.163   -4953.2475    85.012771 
   14200    952.51605    -105.6411   0.86185654   -104.77925    31146.054    4.3905718    4.3905718    4.3905718    31146.054    27488.765    55028.832    10920.565   -27019.262    15491.165    15029.528    84.637581 
   14300    2572.0646   -107.10183    2.3272581   -104.77457    7760.5074    4.4102082    4.4102082    4.4102082    7760.5074    22019.941   -16918.959    18180.541     25341.97   -5623.2698    8383.1013    85.778268 
   14400    1614.7749    -106.2258    1.4610823   -104.76472   -42867.861    4.4147764    4.4147764    4.4147764   -42867.861    -42493.62   -54029.321   -32080.642   -38862.189    36052.102    6373.8955    86.045097 
   14500    2206.6191   -106.72805    1.9965953   -104.73145    -26231.29    4.3916784    4.3916784    4.3916784    -26231.29    13193.679   -33989.436   -57898.111    24996.163   -1986.8339   -724.02786    84.701593 
   14600    1958.7062    -106.5304    1.7722785   -104.75812   -5553.7484    4.3743755    4.3743755    4.3743755   -5553.7484   -31502.322   -34359.384    49200.461   -29141.457   -1461.0189    10162.293    83.704379 
   14700     1806.774   -106.44763    1.6348071   -104.81283   -28257.066    4.3777962    4.3777962    4.3777962   -28257.066   -49093.617    7892.2825   -43569.864   -16428.432     47399.74    11129.878    83.900898 
   14800    2041.5954    -106.6707    1.8472784   -104.82342   -10018.989    4.3889876    4.3889876    4.3889876   -10018.989   -27235.678   -17354.547    14533.258    11020.635   -18016.252    203.89262    84.545997 
   14900    1720.2075   -106.38484    1.5564799   -104.82836    -56999.86    4.3918586    4.3918586    4.3918586    -56999.86   -81259.303   -47234.026   -42506.251   -47151.903    38247.807   -2424.9789    84.712025 
   15000    1851.3143   -106.50451    1.6751081    -104.8294   -523.51933    4.3745229    4.3745229    4.3745229   -523.51933   -51022.183   -6069.5192    55521.144    22194.928    21275.064   -12803.451    83.712839 
   15100    2270.7107   -106.88579    2.0545867   -104.83121   -9798.6199    4.3640036    4.3640036    4.3640036   -9798.6199   -67781.847   -15337.943    53723.931   -23731.986    9869.2949    35.879722    83.110384 
   15200    1979.2094    -106.6444    1.7908303   -104.85357   -10496.534    4.3706751    4.3706751    4.3706751   -10496.534   -60747.158    11633.035     17624.52   -15703.221    45666.217    4454.2879    83.492137 
   15300    1583.3999    -106.2887    1.4326935   -104.85601   -24166.449    4.3835083    4.3835083    4.3835083   -24166.449   -50072.491   -66456.337    44029.482     20326.68    -11232.13    12031.353    84.229747 
   15400    2118.2928   -106.75112    1.9166758   -104.83444   -6720.7626    4.3718391    4.3718391    4.3718391   -6720.7626   -45610.501   -8653.4569     34101.67     -22699.5    21716.803    3890.0498     83.55886 
   15500    1422.3051    -106.1351    1.2869315   -104.84817    21016.884    4.3633842    4.3633842    4.3633842    21016.884   -39629.402   -23172.156    125852.21    22523.608    8470.0291   -10973.434    83.075001 
   15600    2273.4833   -106.91918    2.0570954   -104.86208   -28608.641    4.3669279    4.3669279    4.3669279   -28608.641    -59504.67   -53301.532    26980.279   -29485.594   -14702.888    13641.623    83.277573 
   15700     2222.439   -106.85391    2.0109096     -104.843    29307.534    4.3624762    4.3624762    4.3624762    29307.534   -24054.288    12285.612    99691.277    19528.646    3143.8339   -8781.4988    83.023151 
   15800    1362.6129   -106.10054    1.2329208   -104.86762   -37772.547    4.3741847    4.3741847    4.3741847   -37772.547   -47729.494   -57746.127   -7842.0192   -14027.728   -26250.398    11451.685    83.693429 
   15900    2646.0956   -107.22584    2.3942429   -104.83159    251.36905    4.3834345    4.3834345    4.3834345    251.36905   -51743.655    7132.3473    45365.415   -6225.0922   -3725.3045    -14357.45    84.225493 
   16000    1554.4456   -106.23357    1.4064951   -104.82707   -42949.606    4.3857844    4.3857844    4.3857844   -42949.606   -70633.424   -63456.841    5241.4476    31128.565   -6850.5379    7401.6326    84.361025 
   16100    1488.7338   -106.17304    1.3470376     -104.826    5552.9172    4.3622727    4.3622727    4.3622727    5552.9172   -36274.866     39709.63    13223.987   -29181.586    -2255.148   -3286.1941    83.011533 
   16200    2424.3988   -107.01289     2.193647   -104.81924    38015.443    4.3570198    4.3570198    4.3570198    38015.443   -22000.876    87369.686    48677.521    27807.601    15570.858      2064.81    82.712018 
   16300    1438.0265   -106.14808    1.3011566   -104.84693   -17431.581    4.3798007    4.3798007    4.3798007   -17431.581   -62575.327    5662.8657    4617.7173   -16663.184   -13044.846    16364.812    84.016205 
   16400    1564.9986   -106.25096    1.4160437   -104.83492   -5239.3645    4.3943547    4.3943547    4.3943547   -5239.3645   -65586.876    54578.451   -4709.6691    1938.4576    20636.634   -5780.5643    84.856544 
   16500    2642.0913   -107.19936    2.3906198   -104.80874    -3501.278    4.3842608    4.3842608    4.3842608    -3501.278   -67953.229   -15195.637    72645.032   -9647.9551   -5899.4528    27626.714    84.273135 
   16600     1271.054   -105.96805    1.1500763   -104.81798    6769.9213    4.3528332    4.3528332    4.3528332    6769.9213   -66725.707   -4102.8879    91138.359   -29530.398    16841.093   -4601.5058    82.473812 
   16700    1752.9987   -106.41285      1.58615    -104.8267    24166.786    4.3459881    4.3459881    4.3459881    24166.786   -36422.159    65311.078     43611.44    6459.7617   -5514.1499    12769.855    82.085341 
   16800    2275.0219   -106.90994    2.0584876   -104.85145    2523.9665    4.3778438    4.3778438    4.3778438    2523.9665   -60855.382    25030.153    43397.128   -23534.807   -5897.7301    11981.066    83.903639 
   16900    1724.0602   -106.38198    1.5599659   -104.82201    -37327.28    4.3941348    4.3941348    4.3941348    -37327.28   -100555.02    8454.8491   -19881.667    5517.2707    24784.529    1631.3305    84.843803 
   17000    1924.5492   -106.54217    1.7413726    -104.8008   -27770.273     4.367514     4.367514     4.367514   -27770.273   -45400.201    2215.8109   -40126.429   -16964.101   -46603.216     4891.237    83.311108 
   17100    2236.1794   -106.82344    2.0233422    -104.8001    24036.905    4.3408325    4.3408325    4.3408325    24036.905   -18922.275   -11812.134    102845.12   -4694.8119    23697.437   -16088.985    81.793553 
   17200    1692.3325   -106.38625     1.531258   -104.85499    16270.891    4.3492299    4.3492299    4.3492299    16270.891   -63382.011    53625.931    58568.753    10585.636   -40118.275    17817.552    82.269168 
   17300    1977.0169   -106.64698    1.7888464   -104.85814   -8911.2782    4.3855115    4.3855115    4.3855115   -8911.2782    -37704.94   -12745.548    23716.653   -11962.517   -9137.6386   -32924.376    84.345278 
   17400    1517.6785   -106.20338    1.3732274   -104.83015    -36217.92    4.3861605    4.3861605    4.3861605    -36217.92    -62101.54   -43025.462   -3526.7585    22985.531   -26776.571   -26835.274    84.382728 
   17500    2085.9534   -106.69257    1.8874145   -104.80515    2392.4504    4.3605232    4.3605232    4.3605232    2392.4504   -40804.603    42604.916    5377.0386    1722.1968   -27888.871    16409.496    82.911695 
   17600    2195.9908   -106.79203    1.9869786   -104.80506   -2653.1899    4.3602062    4.3602062    4.3602062   -2653.1899   -17092.421    2688.8719    6443.9797    8142.4329    3424.0893   -32788.633    82.893614 
   17700    1164.5132   -105.88817     1.053676    -104.8345   -9175.7602    4.3623052    4.3623052    4.3623052   -9175.7602    -46225.72   -5281.3053    23979.745    26752.829   -50052.821   -9413.4415    83.013391 
   17800     2540.611   -107.12701    2.2987982   -104.82821    10209.632    4.3709945    4.3709945    4.3709945    10209.632    3294.0173   -26796.504    54131.383   -11162.986    26304.391   -7376.2445     83.51044 
   17900    1647.3811   -106.32402    1.4905851   -104.83343   -31357.766    4.3795269    4.3795269    4.3795269   -31357.766   -44346.639   -37382.765   -12343.893    19433.649   -32686.467   -29090.395    84.000448 
   18000    1963.0612   -106.59941     1.776219    -104.8232    3437.6394    4.3623715    4.3623715    4.3623715    3437.6394   -36123.349    12495.843    33940.425   -4023.1572   -20565.682    11050.804    83.017175 
   18100    2205.0858   -106.81823     1.995208   -104.82302    10487.424    4.3575262    4.3575262    4.3575262    10487.424     18423.49   -7400.9211    20439.702    5216.5951    30936.661   -5481.0903    82.740856 
   18200    1444.4628   -106.17127    1.3069803   -104.86429   -11705.733    4.3738934    4.3738934    4.3738934   -11705.733    -66188.39    2515.8261    28555.365    10534.547   -53495.936   -7387.2234    83.676709 
   18300    2921.3675   -107.47628    2.6433147   -104.83296   -17905.529    4.3804703    4.3804703    4.3804703   -17905.529   -5139.7798   -7900.1383   -40676.668   -4181.7753    24391.382    8882.5293     84.05474 
   18400    1332.5488   -106.05786    1.2057182   -104.85214   -247.51742      4.35627      4.35627      4.35627   -247.51742   -10528.488    6381.5042    3404.4311    13476.047    -50131.21   -216.52999     82.66932 
   18500    1847.3176   -106.52698    1.6714918   -104.85549    9373.6602    4.3483435    4.3483435    4.3483435    9373.6602    18887.104   -3500.6559    12734.532   -7147.0933    -29491.94   -4627.9994    82.218878 
   18600    2458.4773   -107.06169    2.2244819   -104.83721    6708.0183    4.3617548    4.3617548    4.3617548    6708.0183     30667.08   -7913.2998   -2629.7251    2729.4927    2165.8811    17821.245    82.981968 
   18700    1172.0196   -105.90781    1.0604679   -104.84734    23913.363    4.3676593    4.3676593    4.3676593    23913.363    40114.315    47343.072   -15717.297    12384.486   -69648.114   -9253.7809    83.319425 
   18800    1821.0668   -106.49383    1.6477395   -104.84609   -13099.215     4.378264     4.378264     4.378264   -13099.215   -21789.928   -16921.484   -586.23291   -2661.3004    53822.728    6719.1731      83.9278 
   18900    2250.6201   -106.87066    2.0364084   -104.83425   -5270.5557    4.3620346    4.3620346    4.3620346   -5270.5557   -3185.7004    18975.586   -31601.552   -19361.034   -22381.218    1432.1129    82.997942 
   19000     2023.538    -106.6581    1.8309397   -104.82716    7325.1092    4.3433295    4.3433295    4.3433295    7325.1092   -7022.7627   -4243.0283    33241.119    27846.503   -17054.468   -4148.2775    81.934787 
   19100    1112.6982   -105.87945    1.0067927   -104.87266   -32502.423    4.3623875    4.3623875    4.3623875   -32502.423    -68921.48   -1974.6804    -26611.11    -11737.81    55983.758   -897.82924    83.018089 
   19200    2913.3626   -107.47071    2.6360717   -104.83464   -1913.1788    4.3751698    4.3751698    4.3751698   -1913.1788    31539.254   -41435.022    4156.2318    5250.9321   -15656.272    8068.5492    83.749988 
   19300    1268.6536   -105.98404    1.1479044   -104.83613   -13756.041    4.3862455    4.3862455    4.3862455   -13756.041   -47010.682   -27361.586    33104.145    26251.619    30902.157   -7952.0837    84.387633 
   19400    2154.2178   -106.74131    1.9491815   -104.79213   -18076.821    4.3846962    4.3846962    4.3846962   -18076.821    5.3979141   -13557.588   -40678.272   -9565.7228   -15535.657    10017.878    84.298242 
   19500    2230.2928   -106.80582    2.0180158    -104.7878    7782.5821    4.3601501    4.3601501    4.3601501    7782.5821   -7214.9679    32494.128   -1931.4141   -134.10033   -14869.021    5166.3402    82.890417 
   19600    1816.8864   -106.44806     1.643957   -104.80411    3351.1744    4.3463944    4.3463944    4.3463944    3351.1744   -51616.442    1799.4837    59870.481   -15956.318    30418.447    5652.9348    82.108364 
   19700    1666.1308   -106.34729    1.5075502   -104.83974    20457.125    4.3578127    4.3578127    4.3578127    20457.125    33632.302    63172.977   -35433.904    5606.5865   -61540.806    8536.7538    82.757177 
   19800    2513.1658   -107.10865    2.2739652   -104.83469   -8916.0693    4.3818169    4.3818169    4.3818169   -8916.0693   -9199.6443    8413.5298   -25962.093    4863.3313    46481.212    1365.3811    84.132283 
   19900    1256.4406   -105.95957    1.1368539   -104.82272   -21228.656    4.3869039    4.3869039    4.3869039   -21228.656   -21974.822    8638.6864   -50349.834   -20529.058   -52140.265     12512.19    84.425639 
   20000    1880.3948   -106.49923    1.7014208   -104.79781    9420.9464    4.3664996    4.3664996    4.3664996    9420.9464    9033.9841    63567.912   -44339.057    15795.471   -7721.0317    10609.574    83.253074 
   20100    2352.8683   -106.92374    2.1289247   -104.79482    3402.0922    4.3534093    4.3534093    4.3534093    3402.0922    34211.428     7329.349     -31334.5   -7885.7167   -11064.469   -1354.9647    82.506567 
   20200    1015.4109   -105.76599   0.91876512   -104.84723   -11166.932    4.3607795    4.3607795    4.3607795   -11166.932    -7429.174    24354.778     -50426.4   -12822.895   -62017.844    6528.2988    82.926319 
   20300    2424.0397   -107.02907    2.1933221   -104.83574   -7247.1962    4.3752472    4.3752472    4.3752472   -7247.1962   -7429.9768   -26774.175    12462.563    29506.719    25313.523    28594.809    83.754432 
   20400    1354.6327   -106.06091    1.2257001   -104.83521    7487.6227    4.3875933    4.3875933    4.3875933    7487.6227   -22491.271    44002.781    951.35869   -14018.715   -52201.923   -10165.886    84.465446 
   20500    2267.1417   -106.84771    2.0513574   -104.79635   -15905.081    4.3926931    4.3926931    4.3926931   -15905.081   -4653.3781    -45529.26    2467.3948    10132.691    12620.046    18523.735    84.760319 
   20600    1487.0451   -106.12433    1.3455096   -104.77882   -12486.679    4.3794494    4.3794494    4.3794494   -12486.679   -40431.857    41390.242   -38418.423   -1235.6845   -44958.696   -16216.605    83.995985 
   20700    1734.7032   -106.34393    1.5695959   -104.77434   -17197.813    4.3648682    4.3648682    4.3648682   -17197.813   -59197.183    -29863.67    37467.415   -29774.848     -11140.7   -11387.365    83.159796 
   20800    1807.6863   -106.42507    1.6356326   -104.78943    17669.881    4.3630937    4.3630937    4.3630937    17669.881   -9418.2231    12064.314    50363.553    7880.8969     10856.63   -8492.6916     83.05841 
   20900    1639.8412   -106.29707    1.4837627   -104.81331   -28757.606    4.3787945    4.3787945    4.3787945   -28757.606   -49088.485   -24301.279   -12883.054    -16909.29   -19670.669   -6736.1267    83.958311 
   21000    2207.0479   -106.79572    1.9969833   -104.79873   -20944.352      4.38037      4.38037      4.38037   -20944.352     -71198.2   -43191.226    51556.371    -36323.67    5912.9156    6229.0698    84.048966 
   21100    1802.1363   -106.43557    1.6306108   -104.80496    18168.814    4.3652248    4.3652248    4.3652248    18168.814    52066.353    35253.454   -32813.365   -17477.811    20831.327   -11987.262     83.18018 
   21200    1936.2791   -106.57279     1.751986   -104.82081   -7476.9906    4.3677479    4.3677479    4.3677479   -7476.9906   -9170.7643   -16434.296    3174.0889   -55137.102   -12653.493   -2564.9014    83.324493 
   21300    2276.2167   -106.87465    2.0595687   -104.81508    21222.065     4.364316     4.364316     4.364316    21222.065    13555.516    30947.225    19163.453     26613.57    24854.715    13160.609    83.128237 
   21400    1453.5332   -106.15653    1.3151874   -104.84134   -29192.583    4.3750709    4.3750709    4.3750709   -29192.583   -76747.807   -17670.125    6840.1839   -71107.272   -3250.2265   -17324.607    83.744306 
   21500    2545.2017   -107.11458     2.302952   -104.81162   -577.41516    4.3853851    4.3853851    4.3853851   -577.41516   -17135.806   -10888.616    26292.177    38078.901   -13286.815    13744.201    84.337983 
   21600    1703.4765   -106.33504    1.5413414    -104.7937   -3984.6433    4.3806101    4.3806101    4.3806101   -3984.6433    1438.5905   -31604.614    18212.094   -60234.571    12690.197   -2280.8906    84.062791 
   21700    2110.5668   -106.68587    1.9096852   -104.77619   -26486.554    4.3845607    4.3845607    4.3845607   -26486.554   -51858.327   -17609.791   -9991.5438    44958.695    2103.9569    2486.1294    84.290429 
   21800    1812.1993   -106.43459     1.639716   -104.79488   -13496.053    4.3639637    4.3639637    4.3639637   -13496.053    -9422.333   -66825.846     35760.02   -31508.364   -7290.4957    4628.1478    83.108109 
   21900    2462.9249   -107.02446    2.2285062   -104.79595    37433.095    4.3513118    4.3513118    4.3513118    37433.095    63197.445   -11123.691     60225.53   -15782.619   -9645.9468   -2953.4343    82.387365 
   22000     1538.346   -106.21589    1.3919278   -104.82396    6197.9202    4.3647377    4.3647377    4.3647377    6197.9202    14103.023    -63835.37    68326.108   -471.60332    11707.831   -8735.1442    83.152335 
   22100    1976.5743   -106.61199     1.788446   -104.82354   -23364.438    4.3797052    4.3797052    4.3797052   -23364.438   -10512.501    -76510.41    16929.596   -46856.231   -4982.0526    7370.1452    84.010705 
   22200    1994.7569   -106.60814    1.8048979   -104.80324    3904.8421    4.3727375    4.3727375    4.3727375    3904.8421    21735.476    -76650.86     66629.91    126.29381   -5676.6424    -8080.776    83.610385 
   22300    1596.0757   -106.25259    1.4441628   -104.80843   -23352.471    4.3633687    4.3633687    4.3633687   -23352.471   -19954.719   -89218.295    39115.601   -50917.769    1812.8838   -3312.1387    83.074115 
   22400    2376.5105   -106.94728    2.1503166   -104.79696    6331.3343    4.3621942    4.3621942    4.3621942    6331.3343   -7986.6921    -16603.79    43584.485    -3900.989    -5161.751    -6467.239     83.00705 
   22500     1562.925   -106.22834    1.4141674   -104.81417   -28433.724     4.372796     4.372796     4.372796   -28433.724   -81989.485   -99808.133    96496.446   -46586.692    1234.2796    -4552.495     83.61374 
   22600    2637.8557   -107.16952    2.3867873   -104.78274    4971.7501    4.3785342    4.3785342    4.3785342    4971.7501   -8981.3039   -19053.636     42950.19    15143.642    7786.8676    9591.4602    83.943337 
   22700     1280.836   -105.95902    1.1589273   -104.80009   -27150.306    4.3788313    4.3788313    4.3788313   -27150.306   -89908.386    -30058.92    38516.388   -56124.796    13455.221    -4999.557    83.960429 
   22800    2533.2528   -107.08341    2.2921403   -104.79127    11857.356    4.3597265    4.3597265    4.3597265    11857.356   -8421.8828    13970.448    30023.501     39913.07   -8686.8206   -66.823563    82.866257 
   22900    1478.0019   -106.15858    1.3373272   -104.82126    23006.898    4.3422398    4.3422398    4.3422398    23006.898   -34492.241    57322.796    46190.137   -67084.086    18123.921    8994.5186     81.87313 
   23000    2818.5854   -107.37586    2.5503153   -104.82554   -1864.5856      4.35687      4.35687      4.35687   -1864.5856   -38349.328    2518.1519     30237.42    7624.9088   -738.55892   -15679.193    82.703484 
   23100    1535.5113   -106.22568    1.3893629   -104.83632   -9807.4059    4.3689101    4.3689101    4.3689101   -9807.4059   -61302.297    18728.506    13151.574   -48480.242    4994.0962    3041.1672    83.391026 
   23200    1587.0518   -106.27552    1.4359978   -104.83952    2144.1722    4.3742679    4.3742679    4.3742679    2144.1722   -14660.816   -25021.895    46115.227     -26947.6    3218.1933    20320.449    83.698204 
   23300    2637.7772   -107.19354    2.3867162   -104.80682    1590.9942    4.3699374    4.3699374    4.3699374    1590.9942   -32283.466    -21901.67    58958.119   -17159.514   -4422.7523    -24747.45    83.449867 
   23400    1031.7419    -105.7495   0.93354178   -104.81596    9893.0482     4.359012     4.359012     4.359012    9893.0482    2517.1309   -21538.472    48700.486   -41955.084    9034.7779    10529.999    82.825523 
   23500    2456.2406   -107.02744    2.2224581   -104.80498    141.41032    4.3681787    4.3681787    4.3681787    141.41032   -27772.773   -12805.341    41002.345   -3255.7525   -17288.216    2888.8912    83.349153 
   23600     1704.619   -106.36114    1.5423751   -104.81877   -25965.888    4.3708759    4.3708759    4.3708759   -25965.888   -27588.667   -88769.243    38460.247    -70755.66    8829.3501   -17264.722    83.503642 
   23700    2382.9071   -106.95786    2.1561044   -104.80176    19135.394    4.3559998    4.3559998    4.3559998    19135.394    20961.539     38553.75   -2109.1062    19660.582   -1928.7892    13204.616     82.65394 
   23800    1266.0445   -105.97706    1.1455437   -104.83151   -19337.302      4.35702      4.35702      4.35702   -19337.302   -62969.522   -83302.365    88259.982   -54626.577   -12522.968   -20000.476    82.712029 
   23900    1829.6235   -106.49553    1.6554818   -104.84005   -4689.5852     4.358594     4.358594     4.358594   -4689.5852    11989.753    13841.774   -39900.283    8869.5508    19868.941   -11054.919    82.801702 
   24000     2183.221   -106.80732    1.9754242    -104.8319    -4877.791    4.3691005    4.3691005    4.3691005    -4877.791   -9607.6589   -13111.673    8085.9585   -17872.592   -6343.2241    10649.009    83.401933 
   24100    1669.6885   -106.34073    1.5107692   -104.82996   -22848.371    4.3784526    4.3784526    4.3784526   -22848.371   -44961.226    -63073.16    39489.272   -12283.583    5126.3347    -10507.01    83.938644 
   24200    1759.5611   -106.41122    1.5920879   -104.81914   -1530.8417    4.3666375    4.3666375    4.3666375   -1530.8417    7040.3149    2265.9209   -13898.761     12629.56    21964.462    12342.271    83.260964 
   24300    1878.3078   -106.53349    1.6995323   -104.83396   -21656.939    4.3548684    4.3548684    4.3548684   -21656.939   -34420.508   -34762.698    4212.3903   -52350.439   -13007.968    8322.1181    82.589551 
   24400    2600.5632   -107.18316    2.3530442   -104.83012     21473.61    4.3433644    4.3433644    4.3433644     21473.61    27347.354    7100.7733    29972.703    20927.158     12458.77   -10592.708    81.936762 
   24500    1143.3091   -105.90415    1.0344901   -104.86966   -10114.317    4.3586583    4.3586583    4.3586583   -10114.317   -4843.6596   -12125.603   -13373.688   -43658.944    23185.492    20792.614    82.805362 
   24600    2102.4213   -106.75382     1.902315   -104.85151   -16928.059    4.3810092    4.3810092    4.3810092   -16928.059   -22645.853   -7817.0718   -20321.252   -17294.958    -37264.63    504.40624    84.085768 
   24700    2475.2358   -107.06726    2.2396454   -104.82761    -23084.25    4.3821154    4.3821154    4.3821154    -23084.25   -45413.779   -19313.921   -4525.0497   -14905.131    24891.002    17027.585    84.149481 
   24800    1119.8298   -105.84683    1.0132455   -104.83359   -16461.483    4.3653213    4.3653213    4.3653213   -16461.483    -67034.72    20795.502   -3145.2309   -54642.438   -12072.586    10940.746    83.185696 
   24900    2509.4042   -107.07095    2.2705616   -104.80039    29419.989    4.3494102    4.3494102    4.3494102    29419.989    25577.051     60685.54    1997.3771    13107.717   -3986.7339    2780.8663    82.279398 
   25000    2185.6725   -106.81461    1.9776424   -104.83697   -25657.232    4.3595144    4.3595144    4.3595144   -25657.232    -29036.97   -48613.766    679.04061   -59796.205    9357.5951    8386.2153    82.854169 
   25100    1849.4243   -106.52016    1.6733979   -104.84676   -8624.5807    4.3648362    4.3648362    4.3648362   -8624.5807   -11132.521    7531.0377   -22272.259   -2678.5882   -18130.076    6130.3097    83.157967 
   25200    1495.4801   -106.19259    1.3531418   -104.83945    14543.764    4.3665592    4.3665592    4.3665592    14543.764    26698.326   -16064.172     32997.14   -5388.6466   -3757.5418   -20151.349    83.256484 
   25300    2141.7157   -106.77676    1.9378694   -104.83889   -33515.023    4.3679071    4.3679071    4.3679071   -33515.023   -56666.289   -41527.899   -2350.8793    -42406.97   -7139.2914    1544.5549    83.333608 
   25400     2370.684   -106.96466    2.1450447   -104.81962     14302.11    4.3540072    4.3540072    4.3540072     14302.11      31272.1    -10428.83    22063.061    13746.801    2405.8018    13924.806    82.540565 
   25500    1191.1088    -105.9167    1.0777403   -104.83896   -29398.812    4.3653331    4.3653331    4.3653331   -29398.812   -22702.027   -89750.353    24255.944   -38452.698   -3041.1472   -17277.205    83.186371 
   25600    2577.4722    -107.1457     2.332151   -104.81355   -12019.177    4.3732976    4.3732976    4.3732976   -12019.177    1985.5341   -7047.5747   -30995.491    9878.9775     -2770.46   -3346.4927    83.642517 
   25700     2105.465   -106.72766     1.905069   -104.82259   -16598.362    4.3632654    4.3632654    4.3632654   -16598.362   -35019.746   -46184.046    31408.706       -37926    5995.6788   -5169.5546    83.068217 
   25800    1629.3864   -106.31209    1.4743031   -104.83778   -35705.546    4.3514455    4.3514455    4.3514455   -35705.546   -14236.386    -64521.74   -28358.513   -8962.5714   -1027.3058    11670.558    82.394961 
   25900    2095.3603   -106.75172     1.895926   -104.85579    4591.3123    4.3564776    4.3564776    4.3564776    4591.3123    61054.784   -26231.366   -21049.481   -8513.3726   -14041.387   -3524.2965     82.68114 
   26000    2305.4061   -106.93746    2.0859799   -104.85148   -16015.686    4.3772511    4.3772511    4.3772511   -16015.686   -28136.825     -61905.4    41995.166   -16206.007   -3409.9051   -1256.3654    83.869566 
   26100    1275.6813   -105.99201    1.1542633   -104.83775   -25273.988    4.3879996    4.3879996    4.3879996   -25273.988    36728.463   -36241.478    -76308.95    20928.059   -21861.407    22063.728    84.488914 
   26200    2072.1731   -106.70263    1.8749458   -104.82768   -7015.3367    4.3696361    4.3696361    4.3696361   -7015.3367    25537.745   -3048.1123   -43535.643    -34548.38    6469.5194   -15144.425    83.432606 
   26300    2349.2528    -106.9591    2.1256533   -104.83344    13897.993    4.3361552    4.3361552    4.3361552    13897.993    20758.037   -20605.831    41541.774    20700.008   -6453.2085    12982.699     81.52944 
   26400    1097.6738    -105.8786   0.99319833   -104.88541    755.10315    4.3424224    4.3424224    4.3424224    755.10315    58053.014    6746.7945   -62534.499    16330.511   -44076.945    4369.6099     81.88346 
   26500    2639.8411   -107.26635    2.3885837   -104.87776   -17666.533    4.3719349    4.3719349    4.3719349   -17666.533    40383.218   -34771.219   -58611.598    761.98653    9411.3762   -8423.2625    83.564352 
   26600    1823.8857    -106.5175    1.6502901   -104.86721    -224.2197    4.3861152    4.3861152    4.3861152    -224.2197    22212.725   -19353.646   -3531.7387    24615.227   -29937.512    3178.8677    84.380111 
   26700    1558.6691   -106.24932    1.4103165     -104.839   -22506.121    4.3864281    4.3864281    4.3864281   -22506.121    14098.084    -47567.16   -34049.288   -15162.739   -7954.9628   -22506.001    84.398175 
   26800    2613.4629   -107.16857    2.3647162   -104.80385   -146.46188    4.3599096    4.3599096    4.3599096   -146.46188    11992.414   -18165.388    5733.5875   -20310.106    8134.8206   -4168.1891    82.876701 
   26900    1746.4939   -106.39133    1.5802644   -104.81107     24456.65    4.3488781    4.3488781    4.3488781     24456.65    49286.778    26881.989    -2798.817    9004.2763   -33929.565   -3079.6664    82.249205 
   27000     1595.079   -106.28499     1.443261   -104.84173   -40268.818    4.3714562    4.3714562    4.3714562   -40268.818   -57841.545   -91860.397    28895.487   -57339.718    19444.458   -12418.032    83.536908 
   27100    2489.9867   -107.07141    2.2529923   -104.81842    20640.697    4.3646368    4.3646368    4.3646368    20640.697     20709.61   -2261.5033    43473.984    7682.3052   -12381.229    1788.5434    83.146569 
   27200    2016.3922   -106.66118    1.8244741   -104.83671   -18503.663    4.3724783    4.3724783    4.3724783   -18503.663    6529.9652   -79434.978    17394.023   -51301.842   -18412.875   -5785.5815    83.595515 
   27300    1745.7979   -106.40823    1.5796346    -104.8286   -22157.779    4.3807803    4.3807803    4.3807803   -22157.779   -32503.118   -55935.367    21965.149    14666.775    10508.093    -4243.733     84.07259 
   27400     2080.895    -106.6858    1.8828375   -104.80297   -7823.6051    4.3675715    4.3675715    4.3675715   -7823.6051   -44606.198    7130.6806    14004.702   -32574.814   -22177.748    801.11032    83.314397 
   27500    2393.4552   -106.98137    2.1656486   -104.81573   -5564.1507    4.3654689    4.3654689    4.3654689   -5564.1507    8793.2264   -48227.454    22741.775   -8844.7368    17667.302   -9382.4455    83.194133 
   27600    1945.6368   -106.59028     1.760453   -104.82982   -6084.7741    4.3701032    4.3701032    4.3701032   -6084.7741    30440.247   -51070.491    2375.9214    20462.332   -5110.6675   -10983.029    83.459365 
   27700    1941.3396   -106.58476    1.7565648    -104.8282   -866.05122    4.3664484    4.3664484    4.3664484   -866.05122   -19015.133    2001.2045    14415.775   -26335.144   -11577.373    6479.8765    83.250147 
   27800    2032.6307   -106.65966     1.839167   -104.82049   -10839.941    4.3733122    4.3733122    4.3733122   -10839.941    19894.367   -61542.153    9127.9617    35297.483    12494.103    1343.5407    83.643358 
   27900    1763.3677   -106.41819    1.5955322   -104.82265   -13307.149    4.3769531    4.3769531    4.3769531   -13307.149    11885.046   -11009.557   -40796.938   -13969.514    -15916.47    7831.5272    83.852433 
   28000    1909.3953    -106.5547     1.727661   -104.82704   -25433.356    4.3643635    4.3643635    4.3643635   -25433.356   -66663.623   -16673.097    7036.6524    20699.858   -7080.3623   -667.76126     83.13095 
   28100    2147.6053   -106.76747    1.9431984   -104.82427    42729.388    4.3510279    4.3510279    4.3510279    42729.388    58481.169    8798.0431     60908.95    11432.991    2689.4183    6646.7777    82.371238 
   28200    1580.7146   -106.28722    1.4302638   -104.85696   -12845.467    4.3526171    4.3526171    4.3526171   -12845.467   -37852.053    9371.2945   -10055.643   -26493.979   -26994.756    1062.3564    82.461528 
   28300    1864.1071    -106.5524    1.6866833   -104.86572    9033.6257    4.3645783    4.3645783    4.3645783    9033.6257    12833.678    7758.3048    6508.8945    19652.659    19204.351   -12828.104    83.143225 
   28400    2380.9295     -107.003     2.154315   -104.84869    3415.5323    4.3640952    4.3640952    4.3640952    3415.5323   -29659.294   -28486.612    68392.503   -16519.988   -24122.762   -18358.711    83.115618 
   28500    1295.4362   -106.02118    1.1721379   -104.84904    13082.634    4.3614843    4.3614843    4.3614843    13082.634   -17679.205     30657.92    26269.187   -3381.7253    8508.6486    8114.6959    82.966535 
   28600    1834.6921   -106.50338    1.6600679   -104.84331   -11633.281    4.3687979    4.3687979    4.3687979   -11633.281    16914.444   -71452.436    19638.149   -15364.445     6410.205   -33522.529    83.384604 
   28700    2769.6605   -107.33777     2.506047   -104.83173    -4386.637    4.3580916    4.3580916    4.3580916    -4386.637   -20381.112   -36138.794    43359.995   -23905.239   -14555.599    221.73052    82.773072 
   28800    1415.6659   -106.13253    1.2809242    -104.8516    24720.431    4.3418418    4.3418418    4.3418418    24720.431    28415.944    2105.4082    43639.941    20822.954    26283.398   -21020.914    81.850622 
   28900    1547.7497   -106.26757    1.4004365   -104.86713    12904.352    4.3535161    4.3535161    4.3535161    12904.352     48456.32   -13102.205    3358.9409   -21739.516   -12538.523   -19079.307    82.512634 
   29000     2328.351   -106.95086     2.106741   -104.84412    770.34204    4.3714329    4.3714329    4.3714329    770.34204     10291.27   -12780.204    4799.9594    19510.282    131.08508     7418.408    83.535574 
   29100    1842.7985   -106.50262    1.6674028   -104.83522   -6044.5593    4.3790841    4.3790841    4.3790841   -6044.5593    60684.267   -62948.822   -15869.124    20613.017    21855.339   -16150.073    83.974969 
   29200    2237.1047   -106.83409    2.0241794   -104.80991    21465.812     4.366411     4.366411     4.366411    21465.812    6733.8123    42167.077    15496.546    14.869769   -14120.614    12004.244    83.248008 
   29300    1390.5031   -106.08463    1.2581564   -104.82647     3660.825    4.3431706    4.3431706    4.3431706     3660.825   -5664.8206    8560.2629    8087.0327    41096.316   -969.83436   -32266.448    81.925796 
   29400    2542.2001   -107.13492     2.300236   -104.83469     23363.87      4.34698      4.34698      4.34698     23363.87      54652.7    2905.9206    12532.989   -6927.8025    15084.927   -5267.0767    82.141558 
   29500    1820.8791   -106.49686    1.6475697   -104.84929    8438.3133    4.3686737    4.3686737    4.3686737    8438.3133    12350.449     1159.355    11805.136    -1660.723   -19800.146    1576.7975    83.377493 
   29600    1304.7835   -106.03152    1.1805956   -104.85092    10298.258    4.3844486    4.3844486    4.3844486    10298.258    33284.485   -9550.9383    7161.2282    23296.901    13611.035   -37460.761    84.283961 
   29700    2259.4687   -106.86162    2.0444147   -104.81721   -5384.5725     4.378988     4.378988     4.378988   -5384.5725   -30135.018    -3784.389     17765.69    -26124.11     10883.08   -1669.4938    83.969444 
   29800     1146.948   -105.85564    1.0377827   -104.81786    23137.768    4.3455576    4.3455576    4.3455576    23137.768   -16147.508   -22133.233    107694.04    33107.722   -13191.238   -19976.462    82.060951 
   29900    2531.4165    -107.1239    2.2904788   -104.83342    17761.797    4.3524521    4.3524521    4.3524521    17761.797    22851.903    19574.757    10858.731   -11334.402    1539.8056   -29810.695    82.452153 
   30000    1917.3286   -106.56708    1.7348392   -104.83224    -7763.943    4.3755095    4.3755095    4.3755095    -7763.943   -67089.977   -10790.469    54588.617    44119.165    453.92299   -7230.5249    83.769492 
   30100    1496.1051   -106.17154    1.3537073   -104.81783   -10901.438    4.3847015    4.3847015    4.3847015   -10901.438   -36884.623   -25069.181     29249.49     16442.04   -13258.277   -54747.739    84.298551 
   30200    2178.4778   -106.76111    1.9711325   -104.78998    16378.642    4.3813525    4.3813525    4.3813525    16378.642   -48065.531    28507.573    68693.885    -5047.572     3051.224   -11424.733    84.105539 
   30300    1515.9872   -106.17255    1.3716971   -104.80086    29950.181    4.3661124    4.3661124    4.3661124    29950.181   -23427.438    81824.066    31453.914    348.30925    -17740.62   -27133.961    83.230928 
   30400    1785.5311   -106.41313    1.6155861   -104.79754    37145.381    4.3594843    4.3594843    4.3594843    37145.381    10555.452     101223.7   -343.01023   -14158.336   -6435.2305   -19320.151    82.852451 
   30500    1597.9081   -106.26931    1.4458208   -104.82349    -11212.07    4.3641057    4.3641057    4.3641057    -11212.07   -46478.538   -34818.549    47660.877    30500.362   -10695.115    1090.8341    83.116218 
   30600    2384.3749   -106.97687    2.1574325   -104.81944   -8985.5582    4.3675815    4.3675815    4.3675815   -8985.5582   -68449.144     25669.64     15822.83   -16845.026   -15090.821   -19475.137    83.314973 
   30700    2162.4531   -106.77174     1.956633   -104.81511   -32812.585    4.3697585    4.3697585    4.3697585   -32812.585   -32019.772   -26319.215   -40098.767    9606.5976    21025.185    11298.605    83.439615 
   30800      1714.66   -106.36681    1.5514604   -104.81535   -31309.057     4.366336     4.366336     4.366336   -31309.057   -75174.248   -23386.472    4633.5501   -10209.759   -35368.558   -3181.6618    83.243716 
   30900    2277.4831   -106.86707    2.0607146   -104.80636    20322.537    4.3594226    4.3594226    4.3594226    20322.537    -2724.329    48323.358    15368.581   -24992.568     37722.96   -12983.493    82.848933 
   31000    1745.8726    -106.3942    1.5797022    -104.8145   -20639.891    4.3737615    4.3737615    4.3737615   -20639.891   -30640.815   -9798.2942   -21480.565    8351.3452   -19809.703    14084.127     83.66914 
   31100    1860.0144   -106.49064    1.6829802   -104.80766   -8304.7816    4.3709439    4.3709439    4.3709439   -8304.7816   -31448.846    11664.844    -5130.342   -28062.593    15261.861   -6073.8487    83.507544 
   31200    2240.7689   -106.84443    2.0274948   -104.81694   -5296.0886    4.3603872    4.3603872    4.3603872   -5296.0886   -8926.1032   -6314.8933   -647.26926   -4935.1376     36058.43   -8515.7384    82.903938 
   31300    2335.4475   -106.93235     2.113162   -104.81918   -891.85849    4.3586526    4.3586526    4.3586526   -891.85849   -12814.796   -5452.6523    15591.873    -8476.879   -5839.7484    11786.841    82.805037 
   31400     1509.324   -106.21231     1.365668   -104.84664   -9566.8921    4.3633268    4.3633268    4.3633268   -9566.8921   -42126.122    24006.698   -10581.252   -20674.745    63539.578   -10587.204    83.071726 
   31500    1990.0408   -106.64243    1.8006308    -104.8418   -26636.601    4.3746446    4.3746446    4.3746446   -26636.601    1890.6929    -60745.98   -21054.517    14538.805   -16538.849    19569.695    83.719831 
   31600    2107.0456   -106.73914    1.9064991   -104.83264    7693.7645    4.3592536    4.3592536    4.3592536    7693.7645   -23739.842   -11061.342    57882.478    5307.0365    15690.644   -4363.9454    82.839298 
   31700    1739.7756   -106.40726    1.5741855   -104.83308    34193.099    4.3453772    4.3453772    4.3453772    34193.099    11807.969    51805.365    38965.963   -3776.9535    23198.175   -10647.603    82.050726 
   31800    947.71222   -105.73469   0.85750993   -104.87718   -13948.535    4.3602383    4.3602383    4.3602383   -13948.535    5125.7298   -10183.317   -36788.018    22066.067   -40045.628    13515.088    82.895448 
   31900    2915.8575   -107.47474    2.6383291   -104.83641     12295.24     4.374865     4.374865     4.374865     12295.24   -9673.5753   -18765.803    65325.099   -254.22052    24087.793   -15077.868    83.732483 
   32000    1537.9537   -106.23962    1.3915728   -104.84804   -33143.866    4.3723054    4.3723054    4.3723054   -33143.866    7857.2285    -58383.76   -48905.068    9039.6375   -10570.632     10735.76    83.585602 
   32100      1406.02    -106.1185    1.2721964    -104.8463   -8401.3496    4.3509002    4.3509002    4.3509002   -8401.3496    24379.474   -7949.1677   -41634.355   -2822.8872    -3965.832    8835.8384     82.36399 
   32200    2349.3339   -106.96991    2.1257267   -104.84419    14958.475    4.3355264    4.3355264    4.3355264    14958.475   -29887.099    29744.198    45018.326   -204.02581    71123.201   -17990.924    81.493973 
   32300    2265.1417   -106.90911    2.0495478   -104.85957   -3359.7919    4.3473994    4.3473994    4.3473994   -3359.7919    2728.7969   -43787.134    30978.961    13167.086   -23799.378    29491.943    82.165334 
   32400    760.18907   -105.57254   0.68783505   -104.88471   -48202.932    4.3687337    4.3687337    4.3687337   -48202.932   -72739.595    12929.627    -84798.83   -3033.2509    60237.422    4108.7684    83.380927 
   32500    2424.7024   -107.04822    2.1939217    -104.8543    4264.3799    4.3656785    4.3656785    4.3656785    4264.3799   -44199.429    28211.349     28781.22    6504.9942   -15780.205   -11955.551    83.206115 
   32600    2601.7037   -107.21255    2.3540762   -104.85847    21826.903    4.3453735    4.3453735    4.3453735    21826.903   -3642.5081   -843.69992    69966.916    12192.861    28505.722    7091.7838    82.050517 
   32700    1826.3353   -106.52831    1.6525065    -104.8758    23275.109    4.3298439    4.3298439    4.3298439    23275.109    795.37899    50176.314    18853.633   -5619.4519    18573.926   -5249.5466    81.173958 
   32800    696.28513   -105.54349   0.63001342   -104.91348    6898.6864     4.338806     4.338806     4.338806    6898.6864    11689.875    12118.687   -3112.5023    21828.265   -52857.098   -1157.3177    81.679054 
   32900    2677.5722   -107.31347    2.4227236   -104.89075    4166.7801    4.3651803    4.3651803    4.3651803    4166.7801   -23096.917   -14622.033     50219.29    10159.697    6823.5765    10154.226    83.177634 
   33000    2328.1918   -106.98892    2.1065968   -104.88233   -21260.459    4.3699332    4.3699332    4.3699332   -21260.459   -23522.495   -29856.102    -10402.78   -9166.4807   -20156.147   -13979.632    83.449627 
   33100    1380.5935   -106.11904      1.24919   -104.86985   -12311.169    4.3496145    4.3496145    4.3496145   -12311.169    13055.056    -25214.52   -24774.042    35890.643   -16280.096    5581.8735    82.290992 
   33200    2116.9305   -106.75938    1.9154432   -104.84393    6645.5261    4.3386613    4.3386613    4.3386613    6645.5261   -11894.941    24919.744    6911.7754   -11267.773    49929.085   -8369.9363    81.670881 
   33300    1858.0863   -106.53273    1.6812355    -104.8515    1076.9316    4.3464584    4.3464584    4.3464584    1076.9316    -25541.98   -10858.248    39631.023    13457.378   -44802.732   -6034.7633    82.111993 
   33400    887.85966   -105.67947   0.80335408   -104.87611   -14324.017    4.3579145    4.3579145    4.3579145   -14324.017   -24919.662    8436.5766   -26488.967    10582.261     53338.43    6696.7792    82.762978 
   33500    2650.5062   -107.26035    2.3982337   -104.86212   -1361.9942    4.3607748    4.3607748    4.3607748   -1361.9942    -23726.03   -15928.047    35568.094   -7022.8684    12297.621    -10479.42    82.926052 
   33600      2618.03   -107.23248    2.3688485   -104.86363   -8658.0327    4.3490202    4.3490202    4.3490202   -8658.0327   -47473.011    2976.8276    18522.085    14913.647    13319.204   -9261.8836    82.257266 
   33700    1024.9475   -105.80927   0.92739406   -104.88187   -957.16661    4.3354441    4.3354441    4.3354441   -957.16661   -14999.881     32223.69   -20095.309    4696.0285    63405.623    9410.9612    81.489338 
   33800    1831.1704   -106.53669    1.6568815   -104.87981    8962.3289    4.3438307    4.3438307    4.3438307    8962.3289    51387.183   -26069.433    1569.2367   -9861.4341   -37914.903    8895.8114    81.963154 
   33900    2376.0586   -107.01023    2.1499078   -104.86032   -8794.0837    4.3615993    4.3615993    4.3615993   -8794.0837   -34869.959   -24005.528    32493.236    16080.199    38318.421   -11996.645    82.973097 
   34000    1920.1565   -106.58764    1.7373979   -104.85024   -30011.345    4.3691566    4.3691566    4.3691566   -30011.345   -6440.3152   -57589.065   -26004.657    6223.1688   -3598.8842    23389.285    83.405143 
   34100    1092.9104   -105.84212   0.98888832   -104.85323   -19792.873    4.3628044    4.3628044    4.3628044   -19792.873    34953.046   -61475.439   -32856.227   -2505.1765   -26264.124   -10295.409    83.041892 
   34200    2945.7437   -107.48975    2.6653708   -104.82438    15158.415    4.3410239    4.3410239    4.3410239    15158.415   -11198.969   -37057.682    93731.895    20063.623    29501.136   -1710.5212    81.804375 
   34300    1560.6062   -106.27171    1.4120693   -104.85964   -12077.981    4.3397639    4.3397639    4.3397639   -12077.981    40163.662   -59717.501   -16680.102   -1198.9084   -27155.437   -3447.4573    81.733165 
   34400     1685.102   -106.39654    1.5247157   -104.87182   -20767.803    4.3546262    4.3546262    4.3546262   -20767.803     20720.04   -38132.092   -44891.358    1454.9664   -40.137539   -1824.1656    82.575773 
   34500    2173.5297   -106.82728    1.9666554   -104.86063    -15422.59    4.3629999    4.3629999    4.3629999    -15422.59   -42945.814   -6693.1367    3371.1812   -3830.9492    54699.805    -3372.267    83.053055 
   34600    2085.3805   -106.73946    1.8868961   -104.85257   -21015.092    4.3595262    4.3595262    4.3595262   -21015.092    6608.8174   -67795.775   -1858.3189   -6357.2961   -31790.729   -8891.5901    82.854838 
   34700    1050.4233   -105.81342   0.95044503   -104.86298   -11045.144    4.3455434    4.3455434    4.3455434   -11045.144   -31579.234    38944.359   -40500.557   -3265.2922    63538.787    8676.2098    82.060143 
   34800    2372.2186   -107.00802    2.1464333   -104.86159    24628.975     4.344363     4.344363     4.344363    24628.975    13569.861    24165.479    36151.585   -3437.0068   -10900.879    -2753.765    81.993289 
   34900    2261.6453   -106.91399    2.0463842    -104.8676    11447.811    4.3512197    4.3512197    4.3512197    11447.811   -18942.145    14410.825    38874.753   -2796.5871     25074.11   -1514.5235    82.382135 
   35000    1438.2544   -106.17908    1.3013628   -104.87771   -14289.688    4.3587868    4.3587868    4.3587868   -14289.688   -7284.6958    6560.8008   -42145.168   -1570.0958    37443.566   -2401.3652     82.81269 
   35100    1882.0204   -106.55968    1.7028916   -104.85679   -7797.0278    4.3608041    4.3608041    4.3608041   -7797.0278    21192.533   -36556.185   -8027.4312     4442.805   -45961.031   -4013.8221    82.927721 
   35200    2158.0319   -106.79536    1.9526326   -104.84273   -8142.7469     4.351721     4.351721     4.351721   -8142.7469   -3876.8532   -13439.674   -7111.7137    7191.4013    44882.181    4374.9601    82.410612 
   35300    1705.9011   -106.39025    1.5435352   -104.84671   -14600.711    4.3495885    4.3495885    4.3495885   -14600.711   -5130.6086   -14514.883    -24156.64   -8057.5729   -29796.511   -6430.6455    82.289516 
   35400    1848.1551   -106.52478    1.6722496   -104.85253   -21189.893    4.3553049    4.3553049    4.3553049   -21189.893   -6825.5463   -32806.549   -23937.583    6954.7706   -2859.5075    -4392.511    82.614386 
   35500    2278.5949   -106.90877    2.0617206   -104.84705   -9141.3537    4.3560518    4.3560518    4.3560518   -9141.3537   -27281.364   -22108.534    21965.837   -15674.466    17170.326    1158.7102    82.656898 
   35600    1316.2015   -106.05383    1.1909268    -104.8629   -13744.811    4.3499059    4.3499059    4.3499059   -13744.811    32146.818   -34033.096   -39348.155    -2674.298   -34120.163   -12222.025    82.307532 
   35700    2214.1975    -106.8554    2.0034524   -104.85195   -4207.4573    4.3549078    4.3549078    4.3549078   -4207.4573    19688.999   -42872.439    10561.068    7625.9282    14470.872    2117.3522    82.591791 
   35800    1669.1936   -106.34969    1.5103215   -104.83937   -16604.345     4.369973     4.369973     4.369973   -16604.345   -45721.377   -11160.275    7068.6167   -27286.775   -1053.4808   -16580.173    83.451904 
   35900    1547.3258   -106.23069    1.4000529   -104.83064   -7432.8395    4.3706221    4.3706221    4.3706221   -7432.8395    31908.007   -30723.935    -23482.59    15403.074   -20182.867   -12052.258    83.489099 
   36000    2696.5118   -107.25422    2.4398605   -104.81436    14213.229    4.3529599    4.3529599    4.3529599    14213.229    10004.707   -17274.026    49909.005    11215.926    27564.036    5071.4224    82.481014 
   36100    1266.0304     -105.995    1.1455309   -104.84947   -1544.8874    4.3355126    4.3355126    4.3355126   -1544.8874    15414.184    5434.4208   -25483.267   -11013.906   -17503.935   -24879.734    81.493198 
   36200    1485.9114   -106.21837    1.3444838   -104.87389    22341.857    4.3373761    4.3373761    4.3373761    22341.857    51895.521   -29155.203    44285.252    37123.932     1207.833   -16858.512    81.598327 
   36300    2741.3862   -107.35144    2.4804638   -104.87098   -4766.7218    4.3611368    4.3611368    4.3611368   -4766.7218    15895.209   -3571.1724   -26624.202    14072.656   -1821.3409    17102.287    82.946705 
   36400    1337.7971   -106.06918    1.2104669   -104.85871   -27704.324      4.37961      4.37961      4.37961   -27704.324   -4852.2744   -36394.173   -41866.524    12905.502   -21746.652   -30373.082    84.005229 
   36500    2085.1033   -106.72514    1.8866453   -104.83849    -7301.379    4.3620639    4.3620639    4.3620639    -7301.379    6615.5635    -43643.26     15123.56    4693.4435      719.966   -1512.1332    82.999611 
   36600    1829.7318   -106.49376    1.6555798   -104.83818    25620.845    4.3308261    4.3308261    4.3308261    25620.845    14977.462    21475.347    40409.725   -6837.1692    3874.4713   -6238.8345    81.229209 
   36700     1484.442    -106.2185    1.3431543   -104.87534   -9932.3077    4.3338597    4.3338597    4.3338597   -9932.3077    36312.157    -20927.39   -45181.689    14628.427   -12583.521   -44347.183    81.400026 
   36800    2371.8417   -107.01665    2.1460922   -104.87056    17229.255    4.3513138    4.3513138    4.3513138    17229.255    6836.4599   -17438.318    62289.623   -2836.5334    -7449.946    29606.862    82.387479 
   36900    2012.1797   -106.68889    1.8206625   -104.86823   -18275.429    4.3666625    4.3666625    4.3666625   -18275.429    35676.785   -34926.794   -55576.278   -6050.2006   -3452.0536   -64981.343     83.26239 
   37000      1402.88   -106.12191    1.2693553   -104.85255   -17172.446    4.3611034    4.3611034    4.3611034   -17172.446    247.91926   -66712.927    14947.668   -1046.0625   -3475.8005   -4594.7261    82.944796 
   37100    2041.1025   -106.68853    1.8468324    -104.8417    334.95786    4.3378383    4.3378383    4.3378383    334.95786    18365.698   -36950.007    19589.182   -1711.1903    10948.962    7266.8896    81.624412 
   37200    2105.6178   -106.76431    1.9052072    -104.8591    12528.787    4.3275475    4.3275475    4.3275475    12528.787    68107.364   -5356.8826   -25164.121    1919.6606   -21422.513    -66206.29    81.044871 
   37300    2637.0789   -107.25338    2.3860844   -104.86729    10281.899    4.3407138    4.3407138    4.3407138    10281.899   -4388.2315    3024.1536    32209.774   -8862.8743   -22635.418    19912.251    81.786848 
   37400    905.94561   -105.70312   0.81971862    -104.8834   -19724.739    4.3627632    4.3627632    4.3627632   -19724.739    23685.766   -68367.161   -14492.823    3978.9947      21593.3   -48393.303    83.039541 
   37500    1866.7691    -106.5388    1.6890919   -104.84971   -13126.909    4.3644346    4.3644346    4.3644346   -13126.909    -11556.95   -15278.491   -12545.284     1645.065   -36505.794    11554.593    83.135012 
   37600    2503.1909   -107.10077    2.2649397   -104.83583     -9475.11    4.3540312    4.3540312    4.3540312     -9475.11   -2709.3554   -7545.9969   -18169.978   -10563.732   -8256.1624   -23181.122    82.541931 
   37700    1762.4027   -106.44114     1.594659   -104.84648   -4645.6269    4.3365659    4.3365659    4.3365659   -4645.6269   -8714.2601   -14314.442    9091.8212    4194.9064    8752.1956    -28072.35    81.552606 
   37800    1334.1986   -106.07255    1.2072109   -104.86534    10078.891    4.3311262    4.3311262    4.3311262    10078.891    5690.6544    18182.534    6363.4842   -3066.1395   -46560.756     46146.69    81.246099 
   37900    2470.8062   -107.10449    2.2356374   -104.86885   -6088.0935     4.354358     4.354358     4.354358   -6088.0935    4255.7353    -44526.42    22006.404    6546.8051      15142.3    1537.8722    82.560515 
   38000     1854.562   -106.55424    1.6780467   -104.87619   -21249.833    4.3618946    4.3618946    4.3618946   -21249.833   -52894.053   -7574.7971   -3280.6488   -253.00565   -28221.094   -6208.5586    82.989948 
   38100    1300.9637   -106.06076    1.1771393   -104.88362   -21416.742    4.3454517    4.3454517    4.3454517   -21416.742    12417.149   -30684.062   -45983.312     -8489.54   -16962.554    74194.543    82.054952 
   38200    2638.2699   -107.23231    2.3871621   -104.84515    13342.658    4.3380418    4.3380418    4.3380418    13342.658    1544.9727    -22923.08    61406.083    9088.4452    12620.718   -34167.183    81.635905 
   38300      1217.18   -105.96866      1.10133   -104.86733    -47375.22    4.3555542    4.3555542    4.3555542    -47375.22   -14501.179   -64520.964   -63103.516   -1865.3885   -36983.363      69774.4    82.628578 
   38400    1974.0785   -106.64133    1.7861877   -104.85514   -9239.4618    4.3548437    4.3548437    4.3548437   -9239.4618    19364.265   -13747.051     -33335.6   -23181.559    1705.1038    8584.6559    82.588144 
   38500    2167.7161   -106.80768    1.9613951   -104.84628    3152.0376    4.3491742    4.3491742    4.3491742    3152.0376    3741.8643   -4571.9312     10286.18    5685.4047    11591.974    10585.872    82.266006 
   38600     1274.338   -106.01295    1.1530478   -104.85991   -20119.327    4.3490028    4.3490028    4.3490028   -20119.327   -7030.5246   -14587.008    -38740.45   -6709.8309   -28426.352        55456     82.25628 
   38700    2658.0662   -107.23703    2.4050741   -104.83195    25159.818    4.3432588    4.3432588    4.3432588    25159.818    39168.684    22534.134    13776.637   -22185.969      9041.94    -26042.47    81.930786 
   38800    1307.1384   -106.03683    1.1827263    -104.8541   -16099.383     4.353786     4.353786     4.353786   -16099.383    28552.052    9716.9421   -86567.142    10586.045   -16121.044    58028.023    82.527985 
   38900    1824.6148   -106.49595    1.6509498     -104.845   -7825.1955    4.3562754    4.3562754    4.3562754   -7825.1955   -23117.336      40127.8    -40486.05   -14008.397   -31763.033    -6455.227    82.669625 
   39000    2480.8675   -107.08132    2.2447411   -104.83658    23087.298    4.3434272    4.3434272    4.3434272    23087.298    90844.509   -31412.747    9830.1314   -20942.959    16041.147    28600.882     81.94032 
   39100    1901.3517   -106.57055     1.720383   -104.85016   -13077.232    4.3444887    4.3444887    4.3444887   -13077.232    2249.3062    24605.977    -66086.98    3464.1756   -58735.362    27597.725    82.000411 
   39200    2056.3475   -106.70548    1.8606264   -104.84486    15029.164    4.3467175    4.3467175    4.3467175    15029.164    414.07018    32241.012    12432.409   -15367.903    -7232.015   -10014.619    82.126676 
   39300    1331.4671   -106.06692    1.2047395   -104.86218   -25959.982    4.3531182    4.3531182    4.3531182   -25959.982   -4824.5516   -42568.602   -30486.792    582.64176   -17037.109    55820.402    82.490015 
   39400    2249.0293   -106.89084     2.034969   -104.85587   -29820.052     4.354855     4.354855     4.354855   -29820.052   -39802.111   -12906.342   -36751.701    7835.2695   -58982.364   -6594.3513    82.588787 
   39500    2777.5916    -107.3457    2.5132232   -104.83248    15549.327    4.3524616    4.3524616    4.3524616    15549.327     65052.24   -28614.748    10210.489   -16882.494    21214.744    17042.993    82.452691 
   39600    936.13192   -105.70665   0.84703183   -104.85962   -45026.049    4.3577585    4.3577585    4.3577585   -45026.049   -49402.017   -11526.971   -74149.158    24814.821    -66204.19    37864.301    82.754094 
   39700    2031.4452    -106.6885    1.8380943   -104.85041    1307.4615    4.3508414    4.3508414    4.3508414    1307.4615   -5714.8547   -6033.5946    15670.834    13246.397    1233.5686   -16529.627    82.360649 
   39800    1989.7678   -106.65624    1.8003838   -104.85586    7291.6247    4.3579176    4.3579176    4.3579176    7291.6247     80571.31   -11702.322   -46994.114   -5166.7798   -23492.472    26625.295    82.763155 
   39900     1546.856   -106.25695    1.3996278   -104.85732   -16273.047    4.3682402    4.3682402    4.3682402   -16273.047     25616.47   -22752.611   -51683.001    21369.952   -47543.383   -17115.659    83.352674 
   40000    2401.4371   -106.99628    2.1728708   -104.82341    13681.072    4.3593278    4.3593278    4.3593278    13681.072    13077.784    26158.987    1806.4451     9879.833    20785.698    5485.4466    82.843526 
   40100    1530.3192   -106.22242     1.384665   -104.83776     -22833.5    4.3683165    4.3683165    4.3683165     -22833.5   -43481.713    29790.374   -54809.162    4672.8331   -57094.473    764.56899    83.357043 
   40200    2024.4025   -106.66417    1.8317219   -104.83245   -31003.571    4.3616069    4.3616069    4.3616069   -31003.571   -23287.053   -62277.972    -7445.688    39419.133    10370.987    -24604.69    82.973529 
   40300    2235.6157   -106.83998     2.022832   -104.81715    19851.305    4.3475501    4.3475501    4.3475501    19851.305    43026.356    28214.312   -11686.753   -23517.809    -51159.34    14516.199    82.173877 
   40400    1497.7648    -106.1929    1.3552091   -104.83769    5426.8497    4.3683171    4.3683171    4.3683171    5426.8497    51120.874   -11394.133   -23446.192    28528.578   -3402.2255   -32872.415    83.357076 
   40500    1526.0876   -106.18833    1.3808362    -104.8075   -25975.668    4.3861734    4.3861734    4.3861734   -25975.668    5223.8368   -46802.568   -36348.272    22914.975   -4164.4285    -10397.22     84.38347 
   40600    2189.1433   -106.77097    1.9807829   -104.79019   -12155.194    4.3801271    4.3801271    4.3801271   -12155.194    1253.6141    14889.633   -52608.828   -7740.5785   -48494.877   -3945.4756    84.034988 
   40700    1941.2437   -106.55367    1.7564781   -104.79719   -25568.057    4.3682633    4.3682633    4.3682633   -25568.057   -13957.462   -48968.144   -13778.564    37614.189    14855.254   -8894.1016    83.353997 
   40800    2138.4432   -106.73809    1.9349083   -104.80318   -10589.916    4.3604088    4.3604088    4.3604088   -10589.916   -26614.322    6490.8156   -11646.241    2865.0097   -40852.878    1046.1069    82.905174 
   40900    1687.6919   -106.35171    1.5270591   -104.82465     3631.631    4.3544344    4.3544344    4.3544344     3631.631    63362.114   -24267.277   -28199.944    7122.7101     23798.95    -19925.07    82.564861 
   41000    1963.2613   -106.62126    1.7764001   -104.84486    14917.445    4.3587808    4.3587808    4.3587808    14917.445    70754.012   -15864.493   -10137.184    19031.381    3374.1699    12992.385    82.812348 
   41100    2378.1051   -106.98749    2.1517595   -104.83573   -9803.5406    4.3823173    4.3823173    4.3823173   -9803.5406    45257.673   -2239.4792   -72428.816   -30376.357     -293.072   -22445.873    84.161111 
   41200    1046.7315   -105.76834    0.9471047   -104.82123   -47329.692    4.3953481    4.3953481    4.3953481   -47329.692   -55817.151   -2918.1531   -83253.773    22716.469    24963.759    -453.6991    84.914101 
   41300    2495.9089   -107.04854    2.2583508   -104.79019    15251.231    4.3638635    4.3638635    4.3638635    15251.231    17970.434     45901.67   -18118.412   -4931.9601   -8861.8387   -586.20063    83.102385 
   41400    1444.8411   -106.11592    1.3073226    -104.8086    28771.577    4.3326066    4.3326066    4.3326066    28771.577    31034.562    50888.416    4391.7528     3931.631    31409.383   -18439.546    81.329441 
   41500     1980.812   -106.62735    1.7922803   -104.83507    12336.369     4.342179     4.342179     4.342179    12336.369   -13874.962    17581.741    33302.329    38112.269   -13334.624    11632.748    81.869696 
   41600    2413.6363   -107.02943    2.1839088   -104.84552    7625.4337    4.3652409    4.3652409    4.3652409    7625.4337   -7202.9226    38729.732   -8650.5085   -23641.578   -16064.933   -23694.538    83.181098 
   41700     1600.978   -106.29106    1.4485985   -104.84246   -21778.381     4.378058     4.378058     4.378058   -21778.381   -25500.385   -24695.906   -15138.852    39730.748    20793.096    5959.8333    83.915954 
   41800    1497.1116   -106.18913    1.3546181   -104.83451   -22954.524    4.3763604    4.3763604    4.3763604   -22954.524   -37904.625   -18265.922   -12693.026   -7791.4405   -50421.514    7209.5747    83.818375 
   41900    2930.9077   -107.44741    2.6519468   -104.79546   -12067.257    4.3683561    4.3683561    4.3683561   -12067.257   -21523.888    621.93847   -15299.822    16695.057    22827.892   -13131.139     83.35931 
   42000    1151.4449   -105.87141    1.0418515   -104.82956   -14949.626    4.3607227    4.3607227    4.3607227   -14949.626   -60812.498    58667.858   -42704.238    26611.831   -30196.845    7676.8942    82.923079 
   42100    2371.8843   -106.97412    2.1461307   -104.82799   -257.37643    4.3613017    4.3613017    4.3613017   -257.37643    37757.822   -400.28358   -38129.668   -6864.2093    4069.1924   -9578.3053    82.956112 
   42200    1654.9214   -106.34422    1.4974076   -104.84681     7769.101     4.362324     4.362324     4.362324     7769.101   -35558.211    32593.909    26271.605    35660.554   -10967.053     4094.155    83.014463 
   42300    2195.0897    -106.8369    1.9861633   -104.85074   -3033.4964    4.3561105    4.3561105    4.3561105   -3033.4964   -16066.947    59038.963   -52072.505    14516.225   -19623.939   -8044.4927    82.660238 
   42400    1884.7748   -106.56212    1.7053839   -104.85673    17795.993    4.3545131    4.3545131    4.3545131    17795.993    28388.094     20465.55    4534.3355     2949.885     15550.86   -26315.278    82.569338 
   42500    1009.2274   -105.78489   0.91317016   -104.87172    -9181.552    4.3578366    4.3578366    4.3578366    -9181.552   -46367.994   -6471.8303    25295.168      34640.8   -22585.925    6316.4786    82.758539 
   42600    2998.2051   -107.55644     2.712839    -104.8436     18669.22    4.3572613    4.3572613    4.3572613     18669.22    29119.833    47661.549   -20773.723     -3417.97    -1987.125   -19049.928    82.725768 
   42700    1651.3225   -106.36605    1.4941513    -104.8719   -8297.0769    4.3640509    4.3640509    4.3640509   -8297.0769   -41921.416    9358.4571    7671.7283    25983.909   -2443.8221   -9777.1933    83.113089 
   42800    1016.3747   -105.79466   0.91963717   -104.87502   -19201.387    4.3574452    4.3574452    4.3574452   -19201.387   -8978.5828   -36263.507    -12362.07   -4857.7842   -28560.956    1833.1737    82.736245 
   42900    2349.9881   -106.98156    2.1263187   -104.85524    9504.1854    4.3581764    4.3581764    4.3581764    9504.1854    56249.852   -4760.6918   -22976.604   -3611.9842    4550.7396   -5466.1747    82.777903 
   43000    1938.8972   -106.61472    1.7543549   -104.86037   -2275.9885    4.3676278    4.3676278    4.3676278   -2275.9885   -32798.467    3131.9877    22838.514    18626.016   -35806.996   -3321.1974     83.31762 
   43100    1691.3238   -106.37243    1.5303453   -104.84209    -15062.08    4.3789884    4.3789884    4.3789884    -15062.08    42729.786   -63947.339   -23968.687   -10420.033   -2392.4674    3205.1989    83.969465 
   43200    1407.9211   -106.10213    1.2739166   -104.82821   -39322.265    4.3820384    4.3820384    4.3820384   -39322.265   -49064.218    1655.7453   -70558.323    9668.8176   -31938.713   -12411.204    84.145041 
   43300    2132.3068   -106.75021     1.929356   -104.82086   -6420.9531    4.3522131    4.3522131    4.3522131   -6420.9531   -56794.792    32650.685    4881.2472    5529.5995    -30324.03   -3011.3074     82.43857 
   43400    2152.2979   -106.77126    1.9474444   -104.82382    15175.198    4.3343103    4.3343103    4.3343103    15175.198    53309.626     9872.352   -17656.384    381.58317      12509.6   -18702.744     81.42542 
   43500    1250.4943   -106.00173    1.1314735   -104.87026   -36192.753    4.3626528    4.3626528    4.3626528   -36192.753   -56114.467    41237.711   -93701.503     288.2767   -47373.817    11675.912    83.033232 
   43600    2378.8824   -106.97837    2.1524628    -104.8259   -16864.687    4.3927932    4.3927932    4.3927932   -16864.687   -49567.658    32828.303   -33854.704    641.04467    39840.661   -5811.4315    84.766116 
   43700    1674.7774   -106.31155    1.5153737   -104.79618   -3624.3407    4.3972582    4.3972582    4.3972582   -3624.3407    29022.086    21718.793     -61613.9   -2170.7333   -42616.454    6757.4416    85.024856 
   43800    1833.8297   -106.43259    1.6592877    -104.7733   -27876.393    4.3771745    4.3771745    4.3771745   -27876.393    -19317.89    34079.927   -98391.216   -1765.9084     50754.51    8561.0348    83.865159 
   43900    2581.5301    -107.1204    2.3358227   -104.78457    29116.955    4.3378194    4.3378194    4.3378194    29116.955    25695.096    39635.525    22020.245    19265.321   -2564.9532    -8236.184    81.623347 
   44000    1754.0453   -106.41001    1.5870971   -104.82291    17402.438    4.3247518    4.3247518    4.3247518    17402.438    11071.761    51230.995   -10095.441     2235.558    4058.3315   -8452.6529      80.8879 
   44100    1902.2426   -106.60376    1.7211891   -104.88257   -3308.0415    4.3652118    4.3652118    4.3652118   -3308.0415   -3008.8538    6931.0128   -13846.284    1912.1369    47460.687     798.3902    83.179434 
   44200    1782.4975   -106.44969    1.6128412   -104.83685   -38507.417    4.3884118    4.3884118    4.3884118   -38507.417   -34025.679   -51994.449   -29502.122    28101.474   -24178.104    3608.9788    84.512731 
   44300    1972.3411    -106.6011    1.7846157   -104.81649   -32352.762    4.3606816    4.3606816    4.3606816   -32352.762   -41231.629    27742.325   -83568.982   -3001.2083     48433.33    -14316.28    82.920733 
   44400    2336.5343   -106.91575    2.1141454    -104.8016    1538.5173     4.342936     4.342936     4.342936    1538.5173    8114.9332   -5762.8744    2263.4931    17450.349    4722.6171   -15505.568    81.912522 
   44500    1226.6238   -105.94887     1.109875     -104.839    87.441616    4.3470775    4.3470775    4.3470775    87.441616    13164.278   -14859.505    1957.5518    6471.7902    29075.607    6712.3888    82.147082 
   44600    2438.5437   -107.05136    2.2064456   -104.84491   -11140.886    4.3640682    4.3640682    4.3640682   -11140.886   -16258.605     48130.27   -65294.322   -11018.437    18147.481   -4764.0804     83.11408 
   44700     1336.774   -106.05043    1.2095412   -104.84089   -37011.302     4.379347     4.379347     4.379347   -37011.302   -29021.954   -47530.771   -34481.181    37811.635   -16392.965    -3548.527    83.990094 
   44800    2195.9167   -106.80031    1.9869116   -104.81339   -9663.0294    4.3668039    4.3668039    4.3668039   -9663.0294   -25082.119    11053.711   -14960.681   -13453.074     30879.98    7624.1212     83.27048 
   44900    2287.3939   -106.88168    2.0696821     -104.812   -5406.7667    4.3560147    4.3560147    4.3560147   -5406.7667   -44210.993    61693.725   -33703.032    17212.618   -38576.205    11232.007    82.654789 
   45000    1257.3458   -105.97504    1.1376729   -104.83736   -2272.7729    4.3467274    4.3467274    4.3467274   -2272.7729   -21291.184    26714.639   -12241.773    8788.2917    11653.985   -5928.4991     82.12724 
   45100    1990.9612   -106.64144    1.8014636   -104.83998    31366.245    4.3508072    4.3508072    4.3508072    31366.245    58665.111    74580.644    -39147.02   -36550.282   -17626.166    15915.185    82.358707 
   45200    1819.1391   -106.49036    1.6459953   -104.84436   -6546.4497    4.3762745    4.3762745    4.3762745   -6546.4497    9758.9566     23712.55   -53110.856    17746.116   -18908.957    5977.8382    83.813439 
   45300    1981.4553   -106.62597    1.7928624   -104.83311   -12556.692     4.370316     4.370316     4.370316   -12556.692    34055.824   -9134.7525   -62591.148   -3635.1098    33021.547    7817.9686     83.47156 
   45400    1815.0005   -106.46327    1.6422506   -104.82102    12411.749    4.3337439    4.3337439    4.3337439    12411.749    52791.466    48975.274   -64531.492   -15823.684   -61287.577    17326.406      81.3935 
   45500    1554.3849   -106.25807    1.4064401   -104.85163    -8665.489    4.3340833    4.3340833    4.3340833    -8665.489   -40138.762    43210.659   -29068.365    40564.224    64623.442   -6193.6934    81.412624 
   45600    2804.1931   -107.38378    2.5372928   -104.84648    2952.1759    4.3524679    4.3524679    4.3524679    2952.1759    44390.402   -5200.1239    -30333.75   -5078.0573   -10086.113    2217.5525    82.453049 
   45700    1086.6933   -105.84296   0.98326294    -104.8597    -45566.09    4.3813694    4.3813694    4.3813694    -45566.09    -30601.46    24428.204   -130525.01    6867.2345    1597.9691    2593.2826    84.106508 
   45800    1835.5047   -106.49407    1.6608032   -104.83326   -32050.335    4.3771686    4.3771686    4.3771686   -32050.335   -7508.7238   -1537.6461   -87104.634    28367.135    51601.751   -7392.7321    83.864819 
   45900    2579.8419   -107.15279    2.3342952   -104.81849    51372.852    4.3293241    4.3293241    4.3293241    51372.852    59006.171    72266.055     22846.33   -8601.8895    -11697.73    7571.9486    81.144728 
   46000    1146.3596   -105.87419    1.0372503   -104.83694    20575.437    4.3217377    4.3217377    4.3217377    20575.437   -17016.752    109218.14   -30475.081    3444.3177    56030.263   -12182.131    80.718898 
   46100    2577.3499   -107.15118    2.3320404   -104.81914    7382.5751    4.3561176    4.3561176    4.3561176    7382.5751    54454.582    3079.6809   -35386.538    772.22047   -11990.675   -12685.863    82.660642 
   46200    1278.4206   -105.98585    1.1567418    -104.8291   -23785.724    4.3802565    4.3802565    4.3802565   -23785.724   -66525.919    63727.182   -68558.436    -2988.286    50221.297    1640.9359    84.042434 
   46300    2528.8674   -107.08265    2.2881724   -104.79447   -5524.7755    4.3741854    4.3741854    4.3741854   -5524.7755    -19179.53    20277.578   -17672.375    13878.237   -43716.147   -14989.063    83.693467 
   46400    1730.4282   -106.37361    1.5657278   -104.80789   -26317.309    4.3444145    4.3444145    4.3444145   -26317.309   -19322.912    95.819861   -59724.836   -478.51635    68917.434    12415.996    81.996207 
   46500    1252.9361   -105.96203    1.1336829   -104.82834   -342.01181    4.3253107    4.3253107    4.3253107   -342.01181   -16841.194    63872.727   -48057.569   -2212.2498   -31881.163   -3259.9737    80.919262 
   46600     2719.646   -107.29728    2.4607928   -104.83649   -1674.1662    4.3465274    4.3465274    4.3465274   -1674.1662   -1167.2057     -1346.26   -2509.0331     12328.91    8227.2737    6638.3261    82.115904 
   46700    1427.4822   -106.13197    1.2916159   -104.84035   -43963.747    4.3768639    4.3768639    4.3768639   -43963.747   -69472.244   -6632.8335   -55786.163    1395.9118    43522.895    18458.666     83.84731 
   46800    2139.3377   -106.74476    1.9357177   -104.80905   -4249.6141    4.3685799    4.3685799    4.3685799   -4249.6141   -7419.5226    5380.2472   -10709.567   -997.36774   -40076.828   -12655.659     83.37212 
   46900     1612.834   -106.28222    1.4593261    -104.8229   -7856.2601    4.3454773    4.3454773    4.3454773   -7856.2601   -43327.154    39952.508   -20194.135     8025.436    59597.916   -1852.0665    82.056401 
   47000    2159.5717   -106.78884    1.9540259   -104.83481    26338.929    4.3312677    4.3312677    4.3312677    26338.929   -7472.6707    25350.772    61138.686   -16031.015    14984.806    2767.2173    81.254059 
   47100    2003.4513   -106.66558    1.8127648   -104.85281    33366.619    4.3380451    4.3380451    4.3380451    33366.619    4777.9726    52892.011    42429.875    13929.066    13314.539   -37215.354    81.636086 
   47200    1415.1399   -106.14809    1.2804483   -104.86764    -15762.62     4.372803     4.372803     4.372803    -15762.62   -70982.458    33897.972   -10203.373   -14362.692    37764.676    6680.4994    83.614142 
   47300    2863.5477   -107.38769    2.5909981   -104.79669   -32733.791    4.3810909    4.3810909    4.3810909   -32733.791   -5417.8566   -35065.995    -57717.52    1121.2879   -17005.921   -28976.589    84.090472 
   47400    1412.6539   -106.07579     1.278199   -104.79759   -6625.1439    4.3489111    4.3489111    4.3489111   -6625.1439   -19202.355    17085.759   -17758.835   -3121.2387    47501.438    7986.7627    82.251076 
   47500    1917.0036   -106.53541    1.7345451   -104.80087    18860.453    4.3338798    4.3338798    4.3338798    18860.453    3135.0194    44083.389      9362.95   -23039.173   -7158.9796    7876.7911    81.401156 
   47600    2209.9362   -106.83528    1.9995967   -104.83568    29714.943    4.3324501    4.3324501    4.3324501    29714.943    48941.301    73344.826   -33141.299    16303.611    5085.6732    6636.6948    81.320623 
   47700    1873.4074   -106.57685    1.6950984   -104.88175      16861.2    4.3498468    4.3498468    4.3498468      16861.2    17919.129    54700.824   -22036.354   -18737.991    32188.857     8067.241     82.30418 
   47800    2181.1937   -106.82089    1.9735899    -104.8473   -31945.178    4.3727314    4.3727314    4.3727314   -31945.178    15291.046   -34211.253   -76915.326   -13611.466    -20774.04    28314.753    83.610036 
   47900    1345.4124   -106.06228    1.2173574   -104.84492    10748.234    4.3507476    4.3507476    4.3507476    10748.234    21716.229    69799.329   -59270.857    9214.4646    19390.522   -15018.738    82.355319 
   48000    2661.3836   -107.23136    2.4080759   -104.82328    38355.264     4.330199     4.330199     4.330199    38355.264    45141.889    42760.058    27163.845   -16930.779    4398.5088    29113.073    81.193933 
   48100    1784.3979   -106.46787    1.6145607   -104.85331   -14947.572    4.3457442    4.3457442    4.3457442   -14947.572    20866.848    15582.972   -81292.535   -7517.1348    -2033.211   -28658.699    82.071523 
   48200    1246.4772   -105.99334    1.1278388    -104.8655   -6505.7396    4.3582763    4.3582763    4.3582763   -6505.7396    33787.672    18357.894   -71662.785    4389.8368    33790.503    -24423.67    82.783595 
   48300    2921.0763   -107.47115    2.6430512   -104.82809    3428.1873    4.3658115    4.3658115    4.3658115    3428.1873    31828.704    15177.818    -36721.96   -4570.1842   -7459.5693    15896.963     83.21372 
   48400    1183.7156   -105.92992    1.0710508   -104.85887   -29358.599    4.3557233    4.3557233    4.3557233   -29358.599    -41174.27    38908.983   -85810.509   -3345.3975    32400.652   -34222.287    82.638201 
   48500     2021.576    -106.6698    1.8291645   -104.84064   -483.27932    4.3385167    4.3385167    4.3385167   -483.27932    30834.871    583.99205   -32868.701   -12323.542   -14811.123    27944.518    81.662715 
   48600    2143.7662   -106.78756    1.9397247   -104.84784    3649.5224    4.3473256    4.3473256    4.3473256    3649.5224    32130.573    23408.731   -44590.737    6052.7772     20333.24    18776.678    82.161147 
   48700    1693.8791   -106.39213    1.5326574   -104.85947   -496.77985    4.3515925    4.3515925    4.3515925   -496.77985   -31921.624    58773.901   -28342.616   -10449.788    6663.1453   -2291.6048     82.40331 
   48800    1631.4008   -106.34573    1.4761257   -104.86961   -5278.7803    4.3521913    4.3521913    4.3521913   -5278.7803    51691.304   -12816.269   -54711.375    3435.7008   -23041.009    48571.318    82.437334 
   48900    2706.6842   -107.29653    2.4490648   -104.84746   -1748.1752    4.3591165    4.3591165    4.3591165   -1748.1752   -4641.9065    16749.735   -17352.354   -13461.522    22105.001   -24370.537    82.831482 
   49000     1285.466   -106.02881    1.1631166    -104.8657    -1407.723    4.3526015    4.3526015    4.3526015    -1407.723   -22357.165    28238.982   -10104.986   -7090.6944   -38034.103    69409.433    82.460642 
   49100    1771.9853   -106.46081    1.6033295   -104.85748    29481.496    4.3461196    4.3461196    4.3461196    29481.496    50952.545    68695.469   -31203.525    4581.7155   -5308.2605   -28465.944    82.092789 
   49200    2535.4425   -107.13383    2.2941216   -104.83971    14816.222     4.353386     4.353386     4.353386    14816.222    24907.296      20047.7   -506.32989   -8881.7442   -568.93112    1556.0348    82.505241 
   49300    1382.7566    -106.0985    1.2511473   -104.84735   -11831.224    4.3641232    4.3641232    4.3641232   -11831.224    7747.8967     5376.762   -48618.332   -328.74478   -36607.554    25765.817     83.11722 
   49400    1879.4075   -106.53309    1.7005274   -104.83256   -9816.0309    4.3701633    4.3701633    4.3701633   -9816.0309   -122.69398     15561.86   -44887.259     14592.99    17884.554   -63452.553    83.462809 
   49500    2449.9402   -107.03969    2.2167574   -104.82293   -16072.381    4.3597093    4.3597093    4.3597093   -16072.381   -23606.911   -5434.8682   -19175.363    5912.0194    145.50522    30378.396    82.865277 
   49600    1804.3788   -106.47018    1.6326398   -104.83754   -684.00031    4.3372351    4.3372351    4.3372351   -684.00031    53416.729   -19030.822   -36437.908   -3857.9869   -33801.653   -34078.591     81.59037 
   49700    1710.3957   -106.40631    1.5476019    -104.8587    8836.1521    4.3382616    4.3382616    4.3382616    8836.1521    18269.659     40568.62   -32329.823    11950.879    62549.138   -23881.399     81.64831 
   49800    2938.5787   -107.51087    2.6588877   -104.85198    10881.761    4.3570941    4.3570941    4.3570941    10881.761    14071.004    3043.5701     15530.71    601.48302   -17515.081    3890.6644    82.716246 
   49900    1016.6099   -105.78871   0.91984996   -104.86886    -16954.74    4.3712359    4.3712359    4.3712359    -16954.74    34496.305   -13255.974    -72104.55   -2285.9395    34057.367   -34292.608    83.524277 
   50000    1542.7527   -106.24556     1.395915   -104.84964   -10544.186    4.3643888    4.3643888    4.3643888   -10544.186   -23576.554    20456.458   -28512.461   -6797.0782    37094.808    4701.0363    83.132398 
   50100    2741.1505   -107.30922    2.4802506   -104.82897    14379.331    4.3449634    4.3449634    4.3449634    14379.331    19183.161    20726.611     3228.222   -9351.1616   -10031.917   -12907.669     82.02729 
   50200    1383.7191   -106.12145    1.2520181   -104.86943   -5502.6938    4.3351029    4.3351029    4.3351029   -5502.6938   -41659.474    54555.191   -29403.799    2429.1158    85151.772   -28494.808    81.470094 
   50300      2330.88   -106.97767    2.1090292   -104.86864    547.98112    4.3449754    4.3449754    4.3449754    547.98112    27434.566   -537.19449   -25253.428     3594.634   -35833.048    14865.925    82.027971 
   50400      2025.63   -106.69685    1.8328326   -104.86402   -20527.452    4.3647884    4.3647884    4.3647884   -20527.452   -9032.5462    12872.118   -65421.927    1783.6321    29675.819    7886.8905     83.15523 
   50500    1686.5747   -106.37345    1.5260482    -104.8474   -27964.532    4.3693604    4.3693604    4.3693604   -27964.532   -18534.084    -21404.76   -43954.752   -3587.1337    29713.409   -44492.146    83.416814 
   50600    1887.7506   -106.54508    1.7080764     -104.837    -22596.27    4.3588839    4.3588839    4.3588839    -22596.27   -39050.128   -16079.272    -12659.41    10350.468   -26868.058    23873.401    82.818223 
   50700    2272.0895   -106.89895    2.0558343   -104.84311    2972.8318    4.3319317    4.3319317    4.3319317    2972.8318    5065.7241    23053.383   -19200.612   -7289.9806     23379.66   -8125.3681     81.29144 
   50800     2026.359   -106.70227    1.8334922   -104.86878    9105.7135    4.3286152    4.3286152    4.3286152    9105.7135    39835.657   -37481.753    24963.237    1122.0454    19754.508   -79175.996    81.104871 
   50900    2591.5927   -107.21086    2.3449275   -104.86593    16986.614    4.3472292    4.3472292    4.3472292    16986.614   -21195.308    12671.417    59483.734   -1821.8598   -15790.904    37410.872    82.155685 
   51000    596.78376   -105.43333   0.53998249   -104.89335   -22873.355     4.370446     4.370446     4.370446   -22873.355   -5878.3502   -53079.257   -9662.4588   -8754.7783    28129.608   -64843.312    83.479007 
   51100    2521.8858   -107.11992    2.2818553   -104.83806   -31330.671    4.3786154    4.3786154    4.3786154   -31330.671    -49654.94   -31832.804    -12504.27    4442.4068    18313.467    10209.763    83.948007 
   51200      2318.58   -106.93434    2.0978999   -104.83644    1568.9522    4.3453352    4.3453352    4.3453352    1568.9522    28613.166   -31528.232    7621.9224   -7057.6304   -13699.032   -45338.322    82.048349 
   51300    1596.3908   -106.28663     1.444448   -104.84218   -13529.786    4.3256068    4.3256068    4.3256068   -13529.786   -1240.3197    16019.244   -55368.281    7390.9229    53133.998   -30806.954    80.935886 
   51400    2182.6981   -106.83781    1.9749511   -104.86286    5978.0534      4.32962      4.32962      4.32962    5978.0534   -5751.0165    35748.285   -12063.108    6513.6521   -11256.453    33817.712    81.161365 
   51500    1836.4919   -106.54367    1.6616965   -104.88197   -15831.515    4.3591304    4.3591304    4.3591304   -15831.515   -23375.918   -33214.347    9095.7203    692.12684    4926.4821   -26872.599    82.832276 
   51600    1734.7833    -106.4365    1.5696684   -104.86683   -21945.868    4.3680497    4.3680497    4.3680497   -21945.868   -39759.205    7297.4867   -33375.885     2754.785    64115.601   -3197.9835    83.341768 
   51700    1883.1983   -106.55671    1.7039574   -104.85276    25345.007    4.3548664    4.3548664    4.3548664    25345.007    3982.3828      12932.1    59120.539     3659.821    -50564.24    35457.318    82.589437 
   51800    2345.5106   -106.96982    2.1222672   -104.84755    1204.4289     4.343506     4.343506     4.343506    1204.4289   -20708.986    26884.716   -2562.4436   -13484.258    29162.327    3525.4691    81.944775 
   51900    1728.6746   -106.42039    1.5641411   -104.85625    39647.312    4.3314902    4.3314902    4.3314902    39647.312    48198.474    10679.842     60063.62    1504.8048    2449.7537    8131.8353    81.266582 
   52000    942.75227   -105.74786   0.85302207   -104.89484   -36855.181    4.3599094    4.3599094    4.3599094   -36855.181     13583.24   -63380.144    -60768.64   -2250.3368   -50158.577     37624.51    82.876687 
   52100    2769.0227   -107.34503    2.5054699   -104.83956    7842.7778    4.3685199    4.3685199    4.3685199    7842.7778   -2186.0539   -23891.654    49606.042   -25662.659    22948.239   -10702.122    83.368688 
   52200    1430.7349    -106.1583     1.294559   -104.86375    10633.402     4.349807     4.349807     4.349807    10633.402    7995.6875    63406.521   -39502.001   -1932.4073   -42975.357    25509.769    82.301918 
   52300     1746.794   -106.43667    1.5805359   -104.85614   -25.305935    4.3479656    4.3479656    4.3479656   -25.305935    7666.5351    31639.937    -39382.39   -6304.4845   -14888.848     21852.39    82.197442 
   52400    1960.9343   -106.62052    1.7742946   -104.84623    15326.565    4.3563087    4.3563087    4.3563087    15326.565    5808.7842    36856.276     3314.634   -16240.287    42308.934   -13200.793    82.671526 
   52500     1241.859   -105.97125    1.1236601   -104.84759   -8688.2922    4.3741226    4.3741226    4.3741226   -8688.2922    7306.2173   -9852.4157   -23518.678   -6980.0581   -61288.885      36887.8     83.68986 
   52600    2005.4449   -106.63341    1.8145687   -104.81884    12071.508    4.3697537    4.3697537    4.3697537    12071.508     6216.841    53262.327   -23264.643   -16966.855    41229.131   -14419.494    83.439341 
   52700     1902.069   -106.53905     1.721032   -104.81802    15698.808    4.3525244    4.3525244    4.3525244    15698.808     15296.59    41522.827   -9722.9936    5857.8641     -13034.4    9488.3279    82.456265 
   52800    1629.3518   -106.31412    1.4742718   -104.83985   -10232.927    4.3490708    4.3490708    4.3490708   -10232.927    14795.558     300.2564   -45794.596    16098.404   -37626.108    44242.174    82.260136 
   52900    2497.4517   -107.08827    2.2597468   -104.82852    28296.688    4.3508388    4.3508388    4.3508388    28296.688     37728.99    39281.525    7879.5477   -3071.0506     25514.27   -19288.562    82.360502 
   53000    993.85742   -105.77796   0.89926308    -104.8787   -26438.778    4.3638955    4.3638955    4.3638955   -26438.778   -3305.3766   -26973.631   -49037.327    531.46156   -44594.509    45394.447    83.104208 
   53100    2261.8761   -106.89877     2.046593   -104.85217   -19124.082    4.3769426    4.3769426    4.3769426   -19124.082   -37970.797    15948.191   -35349.642   -3592.9746   -6219.0501    9406.0151    83.851829 
   53200    2343.9958   -106.94735    2.1208967   -104.82645    -12924.06    4.3701982    4.3701982    4.3701982    -12924.06    12184.346   -10219.595    -40736.93   -16929.843    -14230.24    26184.343    83.464806 
   53300    1531.2397   -106.20781    1.3854979   -104.82231   -34614.141    4.3591361    4.3591361    4.3591361   -34614.141   -29516.066   -11392.611   -62933.745    2370.8226   -35187.478    29660.083    82.832599 
   53400    2273.5484   -106.87543    2.0571544   -104.81827   -156.52476    4.3476222    4.3476222    4.3476222   -156.52476   -14421.852    27166.926   -13214.649   -5519.2629    65944.537   -12943.852    82.177968 
   53500    1817.6268   -106.49536     1.644627   -104.85074     13383.67    4.3480978    4.3480978    4.3480978     13383.67    46566.498   -3053.4883   -3362.0001    265.48833   -48701.753    23597.169     82.20494 
   53600    1700.6553   -106.40402    1.5387886   -104.86523     10191.27    4.3577791    4.3577791    4.3577791     10191.27    29797.326    10281.081   -9504.5965    7088.0039    17408.255    15291.711    82.755263 
   53700    2236.2888   -106.87673    2.0234411   -104.85329    4934.5896     4.371289     4.371289     4.371289    4934.5896    57753.722   -9239.6631    -33710.29    3318.7705    47864.389   -7644.1698    83.527325 
   53800    1963.1819   -106.62416    1.7763282   -104.84783   -19776.534    4.3665494    4.3665494    4.3665494   -19776.534   -17687.252   -19312.716   -22329.633   -10216.252    -56395.63    14717.415    83.255919 
   53900    1890.0203   -106.55018    1.7101301   -104.84005    21394.238    4.3485586    4.3485586    4.3485586    21394.238    47042.056    10996.106    6144.5506   -5079.7486    12333.815   -430.64371    82.231077 
   54000    1762.5379   -106.44537    1.5947813   -104.85059    12703.388    4.3470685    4.3470685    4.3470685    12703.388    84810.575   -47373.846    673.43597   -5842.7407    16148.411   -27962.808    82.146575 
   54100     1855.233   -106.53632    1.6786538   -104.85767   -195.16884    4.3500032    4.3500032    4.3500032   -195.16884    -10617.53     14151.44   -4119.4162   -6891.5393   -63997.212    24459.754    82.313056 
   54200    2370.1773   -106.99433    2.1445862   -104.84975    32107.116     4.361669     4.361669     4.361669    32107.116    96581.201    7158.4665   -7418.3184   -11218.475    25335.776   -16335.409    82.977072 
   54300    1392.9788   -106.12121    1.2603965   -104.86081     -17963.3    4.3710338    4.3710338    4.3710338     -17963.3    1546.3174   -14123.191   -41313.026   -8614.9804   -32022.255   -11590.114    83.512697 
   54400    1705.6835   -106.39477    1.5433383   -104.85144    6336.2468    4.3591466    4.3591466    4.3591466    6336.2468     28776.63    5585.2672   -15353.157    1772.1739   -30308.058    20409.441      82.8332 
   54500    2675.7734   -107.24687     2.421096   -104.82578   -3325.4234    4.3630894    4.3630894    4.3630894   -3325.4234      6276.45   -13475.838   -2776.8823   -6158.8017    4801.7881   -11448.239    83.058166 
   54600    1251.7735   -105.98366     1.132631   -104.85103    -37090.91    4.3660445    4.3660445    4.3660445    -37090.91   -28585.838    7951.9064     -90638.8    7764.9143   -63265.862    24603.068    83.227045 
   54700    2707.5208    -107.2687    2.4498217   -104.81887   -13577.882    4.3654826    4.3654826    4.3654826   -13577.882   -2006.7553   -23214.297   -15512.595    9060.5145    51660.553    10621.061    83.194916 
   54800    1315.4063   -106.02213    1.1902072   -104.83192   -30836.972    4.3663605    4.3663605    4.3663605   -30836.972   -62599.073    9172.5264    -39084.37   -9728.9613   -81103.076    9557.1356    83.245119 
   54900    1832.0998   -106.48047    1.6577224   -104.82275    7320.4479    4.3458727    4.3458727    4.3458727    7320.4479    29216.413    4560.0314   -11815.101    12022.504   -6375.0064    42560.046    82.078799 
   55000    2665.7887   -107.24357    2.4120616    -104.8315   -754.68451    4.3486595    4.3486595    4.3486595   -754.68451    -13479.27    24028.178   -12812.962    14863.985    9745.4057   -12734.049      82.2368 
   55100     1095.435   -105.85618   0.99117264   -104.86501   -40855.359    4.3606698    4.3606698    4.3606698   -40855.359   -28091.384     -11729.6   -82745.093   -3570.6097   -58123.114    52274.268    82.920062 
   55200    2460.5677   -107.07104    2.2263734   -104.84467    21403.255    4.3524801    4.3524801    4.3524801    21403.255    52050.479    18313.002   -6153.7157    15148.759    67.940372    15713.693    82.453742 
   55300    2116.6636   -106.77421    1.9152017   -104.85901   -28659.139    4.3634424    4.3634424    4.3634424   -28659.139    8175.7148   -10443.969   -83709.162   -4863.7599   -28280.523     36099.21    83.078326 
   55400    1287.6937   -106.01739    1.1651323   -104.85225   -22383.082    4.3666542    4.3666542    4.3666542   -22383.082    33889.849   -21046.672   -79992.425    12054.445   -33982.333    36022.228    83.261919 
   55500    2675.2031   -107.23855    2.4205799   -104.81797   -20317.863    4.3675513    4.3675513    4.3675513   -20317.863   -12986.897   -32451.893     -15514.8   -2417.9617    10367.286   -23060.992    83.313247 
   55600    1825.0078   -106.47312    1.6513054   -104.82182   -43296.823    4.3746237    4.3746237    4.3746237   -43296.823     20257.26   -64443.671   -85704.056    1021.0312   -48881.106    69629.387     83.71863 
   55700    2459.4521   -107.02752    2.2253639   -104.80215   -6054.8323    4.3696965    4.3696965    4.3696965   -6054.8323   -11769.928   -9613.6034    3219.0341   -1309.3002   -12694.371   -37750.728    83.436066 
   55800    1532.8882   -106.19716    1.3869894   -104.81017   -7486.2178    4.3609531    4.3609531    4.3609531   -7486.2178    20302.807   -11012.244   -31749.215    9465.4711    3391.1739     49045.62    82.936222 
   55900    1851.1665   -106.49042    1.6749744   -104.81544   -7657.6026    4.3637306    4.3637306    4.3637306   -7657.6026   -55291.585     33025.69   -706.91257   -2317.0773   -71594.383    -2873.232    83.094791 
   56000    2484.0899   -107.05257    2.2476567   -104.80491    7147.8831    4.3606034    4.3606034    4.3606034    7147.8831     23554.23   -31451.338    29340.758    -9115.371    25386.965    24648.632    82.916271 
   56100    1381.5755    -106.0829    1.2500786   -104.83282   -21297.292    4.3565809    4.3565809    4.3565809   -21297.292   -39743.795    11579.173   -35727.253    551.67562   -62381.085    22784.233    82.687021 
   56200    2271.5387   -106.87243    2.0553359   -104.81709   -4093.6352    4.3673326    4.3673326    4.3673326   -4093.6352   -55214.079   -180.86883    43114.043   -12278.337   -3873.1296   -7604.2733    83.300728 
   56300    1446.4327   -106.12182    1.3087627   -104.81306   -12701.924    4.3710981    4.3710981    4.3710981   -12701.924    1873.1753   -42020.099    2041.1521    4112.8015   -43084.453    48648.352    83.516382 
   56400    2244.6132   -106.83036    2.0309731   -104.79939   -11847.655    4.3699382    4.3699382    4.3699382   -11847.655   -23597.954    37969.417   -49914.426   -3307.8172   -20068.157   -8729.6049    83.449912 
   56500    1763.9216   -106.39443    1.5960333    -104.7984    11174.455    4.3573249    4.3573249    4.3573249    11174.455   -31881.576    42877.424    22527.518    -5203.172    -1284.752    7174.8528    82.729393 
   56600    1643.7637   -106.30759    1.4873119   -104.82028   -20734.709    4.3576136    4.3576136    4.3576136   -20734.709    -25034.81   -4581.0217   -32588.295    28982.261   -65564.721    33704.275    82.745835 
   56700     3014.518   -107.53238    2.7275992   -104.80478    11148.965    4.3630003    4.3630003    4.3630003    11148.965    -12223.68    54204.225   -8533.6519   -6690.7732    19180.196   -13291.447    83.053076 
   56800    928.03247   -105.68407   0.83970328   -104.84437   -36889.575    4.3626051    4.3626051    4.3626051   -36889.575   -61552.906    -8656.825   -40458.994    9219.8213   -66305.589    38780.965    83.030511 
   56900    2150.2311   -106.78863    1.9455743   -104.84306    641.90636    4.3552564    4.3552564    4.3552564    641.90636    10626.518   -10.580384   -8690.2181    10044.428    13853.389     12431.82    82.611627 
   57000    2183.0117    -106.8196    1.9752349   -104.84437   -2911.3836    4.3551089    4.3551089    4.3551089   -2911.3836   -48677.346    56982.092   -17038.897    6705.4765   -58861.227   -12872.424    82.603236 
   57100    1735.3857   -106.41024    1.5702134   -104.84003    2979.5991    4.3590132    4.3590132    4.3590132    2979.5991   -7729.1937    47458.847   -30790.856    15974.338    2017.3859    54833.937    82.825592 
   57200    1361.8229   -106.06615     1.232206   -104.83395    12546.624     4.360246     4.360246     4.360246    12546.624   -29014.621    57456.387    9198.1058    3890.0239   -37664.289   -27010.583    82.895883 
   57300    2248.2932   -106.85481    2.0343029   -104.82051      7181.97    4.3708482    4.3708482    4.3708482      7181.97   -18366.996    35156.495     4756.411   -4437.1195   -14108.075    7597.2013    83.502056 
   57400    2022.4339   -106.63611    1.8299407   -104.80616     737.3533    4.3779579    4.3779579    4.3779579     737.3533    23951.145    7628.2659   -29367.351     24352.03   -1377.5887    10754.914    83.910199 
   57500     1053.921   -105.76304   0.95360985   -104.80943    14304.028    4.3661696    4.3661696    4.3661696    14304.028   -10476.837    57459.475   -4070.5532     7041.939   -40316.529   -35949.623    83.234197 
   57600    2535.2489   -107.08816    2.2939465   -104.79422    40084.315    4.3610256    4.3610256    4.3610256    40084.315    34412.961    44751.864    41088.119    5252.8801    25689.191    1970.7736    82.940361 
   57700    1299.2094   -106.01974     1.175552   -104.84419   -4272.0903    4.3543396    4.3543396    4.3543396   -4272.0903   -14191.631    44634.514   -43259.154    22875.783   -54607.739   -19870.818    82.559467 
   57800    1755.5384   -106.45049    1.5884481   -104.86204    4619.4052      4.36146      4.36146      4.36146    4619.4052    47596.749    952.34117   -34690.874    13549.255    16323.825   -20926.332    82.965146 
   57900    2291.8028   -106.89907    2.0736713    -104.8254   -21152.345    4.3772627    4.3772627    4.3772627   -21152.345   -8597.9026    12684.421   -67543.554    4533.9398   -37173.618    9659.3871    83.870227 
   58000    1492.1228   -106.17155    1.3501041   -104.82145   -34977.631    4.3724379    4.3724379    4.3724379   -34977.631   -16708.163   -16233.349    -71991.38    9134.1325   -43163.872   -60408.818    83.593202 
   58100    2240.0513   -106.83356    2.0268455   -104.80672   -4511.0776    4.3573699    4.3573699    4.3573699   -4511.0776    42593.782   -8655.6347    -47471.38    2810.0512    15866.665    59059.347    82.731957 
   58200    1807.0526   -106.45471    1.6350591   -104.81965   -13189.708    4.3576607    4.3576607    4.3576607   -13189.708    30041.063    1405.0609   -71015.247    -1562.296   -24912.039   -40751.051    82.748521 
   58300    2017.0997   -106.66094    1.8251142   -104.83582   -20321.506    4.3608646    4.3608646    4.3608646   -20321.506    13482.631   -42767.047   -31680.103    22276.762   -20901.619   -19602.483    82.931174 
   58400    2536.6784   -107.11711    2.2952399   -104.82187   -16779.925    4.3718894    4.3718894    4.3718894   -16779.925    4666.0414   -29235.932   -25769.884    6111.9816   -8049.6376    15482.365    83.561742 
   58500    1068.5577   -105.80461   0.96685347   -104.83775   -42102.344    4.3749197    4.3749197    4.3749197   -42102.344    2603.5997   -20900.607   -108010.03   -810.43072   -33584.703   -61176.245    83.735624 
   58600    2708.0454   -107.26575    2.4502964   -104.81545    8884.0187    4.3573291    4.3573291    4.3573291    8884.0187   -44719.529   -3949.7802    75321.365    10590.486   -1453.3133    17186.419    82.729631 
   58700    1838.8183   -106.49695    1.6638014   -104.83315   -9290.9602    4.3542482    4.3542482    4.3542482   -9290.9602    1275.8383   -3577.2242   -25571.495   -4780.4723   -13935.664   -48091.036    82.554271 
   58800    1701.0396   -106.37977    1.5391363   -104.84064    -18268.71    4.3611136    4.3611136    4.3611136    -18268.71   -19820.475    40007.445   -74993.098   -3987.1139    4477.8144   -10885.256    82.945378 
   58900    2354.4094   -106.96695    2.1303191   -104.83663   -6764.5224    4.3614394    4.3614394    4.3614394   -6764.5224   -45145.493   -627.78497     25479.71   -10389.853     503.2763    726.26294     82.96397 
   59000    1342.1162   -106.08096    1.2143749   -104.86658   -27124.084    4.3608818    4.3608818    4.3608818   -27124.084    -25980.43    13981.503   -69373.325    4692.5735   -23608.524   -53224.826    82.932155 
   59100    2718.8086   -107.30249    2.4600351   -104.84246    2647.5939     4.370122     4.370122     4.370122    2647.5939   -35052.535    66560.315   -23564.999   -79.189719     20658.57    11207.269    83.460445 
   59200    1565.8184   -106.25466    1.4167854   -104.83787   -32452.264    4.3816842    4.3816842    4.3816842   -32452.264   -13408.694    7649.9068   -91598.005    -12341.72    -18148.54   -26128.412    84.124641 
   59300    1588.4899   -106.26613     1.437299   -104.82883   -7485.2844    4.3655236    4.3655236    4.3655236   -7485.2844   -38092.612     35395.02   -19758.261    5964.7956   -26431.674   -3999.8511    83.197258 
   59400    2696.9692   -107.25821    2.4402744   -104.81793    24524.012    4.3428494    4.3428494    4.3428494    24524.012   -2031.4945    30988.826    44614.704    5778.8108    7266.6298   -874.39253    81.907618 
   59500    1709.0213   -106.40361    1.5463584   -104.85725    3618.9516    4.3495858    4.3495858    4.3495858    3618.9516   -10469.603    103535.95   -82209.494   -5692.9687   -39787.495   -20008.201    82.289362 
   59600    1985.0967   -106.65598    1.7961572   -104.85982   -21491.987    4.3691142    4.3691142    4.3691142   -21491.987   -57289.778    -30187.06    23000.877    25430.729   -335.66318    28630.754    83.402717 
   59700    2215.2737   -106.84064    2.0044262   -104.83622   -9104.4488    4.3725921    4.3725921    4.3725921   -9104.4488   -47722.329    36241.949   -15832.966   -27101.738   -7602.3793   -29960.291    83.602044 
   59800    1794.6961   -106.45832    1.6238787   -104.83444   -33605.129    4.3657894    4.3657894    4.3657894   -33605.129   -38661.077     28612.77    -90767.08    11984.466   -43331.629    30816.867    83.212456 
   59900    1795.6033   -106.45964    1.6246996   -104.83495    4113.6122    4.3475977    4.3475977    4.3475977    4113.6122   -37864.862    31157.584    19048.114   -10393.876    11980.404     4896.647    82.176579 
   60000    1765.1537   -106.44792    1.5971481   -104.85077   -8608.5676    4.3443465    4.3443465    4.3443465   -8608.5676   -12393.651     22381.24   -35813.292    -16055.25   -42410.436    7683.5041    81.992357 
   60100    2065.1056   -106.73314     1.868551   -104.86459   -11616.541    4.3617643    4.3617643    4.3617643   -11616.541    17252.153   -14264.731   -37837.045    10947.611   -25368.788    15584.141     82.98251 
   60200    1726.8061   -106.41175    1.5624505    -104.8493   -12694.733    4.3754348    4.3754348    4.3754348   -12694.733   -16071.861   -46014.627    24002.289   -17892.595   -12888.288   -5387.5907    83.765206 
   60300    1411.0099   -106.11368    1.2767114   -104.83697   -12442.961    4.3728287    4.3728287    4.3728287   -12442.961   -3429.6791   -4907.0434   -28992.161    339.59305   -44970.638    26218.574    83.615616 
   60400    2621.6465   -107.18582    2.3721209    -104.8137    6120.5954    4.3638031    4.3638031    4.3638031    6120.5954    11691.262   -13272.509    19943.032    1280.4373    16770.206   -19042.211    83.098932 
   60500    1563.0097    -106.2639     1.414244   -104.84965   -6754.8996    4.3441919    4.3441919    4.3441919   -6754.8996   -40539.968   -15574.419    35849.688   -6259.0645   -54702.782    11116.343    81.983604 
   60600     1324.489   -106.06925    1.1984255   -104.87082    16411.025    4.3348607    4.3348607    4.3348607    16411.025    2872.8281    25104.058    21256.187   -3155.6232    14486.457    26391.585    81.456443 
   60700    2834.9931   -107.43696    2.5651613    -104.8718    6560.5681     4.358169     4.358169     4.358169    6560.5681   -5863.3197    20799.154      4745.87    4895.7148    9743.5894   -16297.347    82.777479 
   60800    1742.5295   -106.44775    1.5766773   -104.87108   -14399.306    4.3711326    4.3711326    4.3711326   -14399.306   -32145.086   -33381.962    22329.131   -20033.071   -33446.301    14058.824    83.518356 
   60900     1386.423   -106.11433    1.2544647   -104.85986   -22953.868    4.3662493    4.3662493    4.3662493   -22953.868   -53476.843    26829.259   -42214.021    12929.387    48091.925    12854.133     83.23876 
   61000    2709.5699    -107.2922    2.4516758   -104.84053    14529.964    4.3524548    4.3524548    4.3524548    14529.964    19725.845    8916.6981    14947.348    13076.049   -13116.761   -8306.8216    82.452308 
   61100    1968.7422   -106.64034    1.7813594   -104.85898    16418.156    4.3427791    4.3427791    4.3427791    16418.156    -20491.86     66693.75    3052.5775   -5768.3651    25008.606    31512.522    81.903645 
   61200    1412.3588   -106.15302    1.2779319   -104.87509   -14427.246    4.3537168    4.3537168    4.3537168   -14427.246   -71755.671    22694.325    5779.6089    27561.081    16681.592   -13373.033    82.524048 
   61300    2490.4121   -107.10822    2.2533772   -104.85484   -9775.8397    4.3591656    4.3591656    4.3591656   -9775.8397   -16240.634    6129.0809   -19215.966    -7031.269   -19405.297    1946.4811    82.834278 
   61400    1999.6868    -106.6704    1.8093586   -104.86104    -672.4229    4.3594171    4.3594171    4.3594171    -672.4229   -28928.518    24427.197    2484.0517    19304.321    25413.784    29150.495     82.84862 
   61500    1433.8041   -106.16519    1.2973361   -104.86786    -20512.07    4.3583333    4.3583333    4.3583333    -20512.07   -63651.022    3807.4538    -1692.642    17422.806    7780.2286   -15503.447    82.786845 
   61600    1776.6259   -106.46216    1.6075284   -104.85463   -1834.0445    4.3506296    4.3506296    4.3506296   -1834.0445    15432.688     15273.73   -36208.551   -10109.803   -41799.535     33480.34    82.348624 
   61700    2325.3286   -106.95525    2.1040062   -104.85125    1954.2883    4.3496862    4.3496862    4.3496862    1954.2883   -20147.601    41276.821   -15266.355    18828.936    36737.856    20358.165    82.295064 
   61800     1731.203    -106.4229    1.5664289   -104.85647     2327.767    4.3511558    4.3511558    4.3511558     2327.767   -38920.762     52868.35   -6964.2874    4134.1584     -4923.22    7705.3278    82.378507 
   61900    1345.0032    -106.0813    1.2169871   -104.86431   -78.786055    4.3599586    4.3599586    4.3599586   -78.786055   -17026.698   -8960.8564    25751.196   -13576.304   -23929.814    40147.019    82.879496 
   62000    2416.4897   -107.02994    2.1864906   -104.84345   -14398.849    4.3620069    4.3620069    4.3620069   -14398.849   -55098.361    12460.954   -559.13914    24898.612    44443.662   -8181.3268    82.996362 
   62100    1725.9216   -106.41481    1.5616502   -104.85316   -11134.573    4.3491528    4.3491528    4.3491528   -11134.573   -8799.1001    8571.6733   -33176.294    5330.4497   -19462.307    45817.026    82.264792 
   62200    1558.6431   -106.26957     1.410293   -104.85928    11420.055    4.3421409    4.3421409    4.3421409    11420.055   -1338.8303    44691.317   -9092.3211   -8017.9903   -17366.245    28759.017    81.867538 
   62300    2118.2085   -106.77562    1.9165995   -104.85902   -1271.0014     4.353491     4.353491     4.353491   -1271.0014   -16761.432    10747.612    2200.8161    22208.193    28293.269    -25616.05    82.511211 
   62400    1712.6815   -106.40496    1.5496702   -104.85529   -24663.659    4.3669626    4.3669626    4.3669626   -24663.659    -8616.318   -8896.3754   -56478.283    6697.5164   -33318.567    61687.827    83.279558 
   62500    2192.6428    -106.8127    1.9839493   -104.82875   -25731.188    4.3741516    4.3741516    4.3741516   -25731.188   -72186.373   -13833.976    8826.7867    7156.4275   -5457.7632   -15175.714    83.691526 
   62600    1344.7745   -106.04703    1.2167802   -104.83025   -18453.488    4.3652032    4.3652032    4.3652032   -18453.488   -16721.276   -50663.696     12024.51    31979.065     8575.822    22315.802    83.178941 
   62700    1806.5223   -106.47275    1.6345794   -104.83817   -8574.5858     4.342299     4.342299     4.342299   -8574.5858    2901.7736    9893.8675   -38519.399   -15273.771   -54746.993    37111.002    81.876482 
   62800    2533.4494   -107.13847    2.2923182   -104.84615     18397.53    4.3400414    4.3400414    4.3400414     18397.53   -29517.056    9537.5387    75172.109    26154.118    4846.1296   -14767.834    81.748845 
   62900    1657.1003   -106.37309    1.4993792   -104.87371   -27248.572     4.351176     4.351176     4.351176   -27248.572   -27706.857   -33958.952   -20079.906    26501.281   -18624.043    64309.346    82.379654 
   63000    1818.4759   -106.52064    1.6453952   -104.87524   -11769.026    4.3592344    4.3592344    4.3592344   -11769.026   -8665.3801    14328.066   -40969.764   -14883.477   -17731.023   -6566.8979    82.838201 
   63100    1547.7457   -106.26785    1.4004329   -104.86742   -38526.437    4.3646248    4.3646248    4.3646248   -38526.437   -79133.684   -26820.231   -9625.3972    32490.895    39551.583    9927.7408    83.145883 
   63200    1915.7331   -106.59148    1.7333956   -104.85809   -627.86977    4.3476267    4.3476267    4.3476267   -627.86977   -18165.041    15241.089    1040.3429    5766.9403   -19563.861    46439.171    82.178224 
   63300    2357.8628    -106.9852    2.1334438   -104.85176    19642.674    4.3451914    4.3451914    4.3451914    19642.674   -11931.789    79339.234   -8479.4236   -5479.5229    29440.741    -30148.16    82.040204 
   63400    1276.9257   -106.02636    1.1553892   -104.87097   -20707.129    4.3578477    4.3578477    4.3578477   -20707.129   -8759.1885   -40631.589   -12730.609    35156.844    23689.105    44518.139    82.759176 
   63500    2313.9406   -106.94041    2.0937021   -104.84671   -17166.806    4.3662702    4.3662702    4.3662702   -17166.806    19849.861   -16396.539   -54953.741    -8831.058     2203.025   -13735.538    83.239955 
   63600    1856.0858   -106.52326    1.6794255   -104.84383   -18471.696    4.3655875    4.3655875    4.3655875   -18471.696   -9067.1852    10230.472   -56578.376    5588.0208    32198.906   -17954.115    83.200913 
   63700    2209.9284   -106.83288    1.9995896   -104.83329   -9565.3168    4.3545909    4.3545909    4.3545909   -9565.3168    15481.376   -21272.325   -22905.002    34927.691    4990.1722    39109.115    82.573765 
   63800    1480.7615   -106.17968    1.3398241   -104.83986   -1277.3201      4.34797      4.34797      4.34797   -1277.3201    65251.506    16470.998   -85554.465   -16524.705     10240.22   -65537.496    82.197689 
   63900    2184.7644   -106.81513    1.9768208   -104.83831   -2370.7904    4.3596092    4.3596092    4.3596092   -2370.7904   -21597.142    46025.007   -31540.237    30417.951    25228.901    15002.691    82.859569 
   64000    2163.3497   -106.79965    1.9574443    -104.8422   -34418.462    4.3692864    4.3692864    4.3692864   -34418.462   -4107.0246    -48590.43   -50557.931    15166.859   -4729.5529   -28860.893    83.412577 
   64100    1787.6183   -106.45287    1.6174746   -104.83539    5640.7753    4.3595147    4.3595147    4.3595147    5640.7753    34143.747    29262.276   -46483.698   -18363.069    15844.568   -16862.353     82.85418 
   64200    1688.4019   -106.36648    1.5277015   -104.83878   -5730.8224    4.3499945    4.3499945    4.3499945   -5730.8224   -17890.809    12106.897   -11408.555    45963.917    3373.5364   -9926.9275     82.31256 
   64300    1833.9433   -106.51833    1.6593904   -104.85894   -22020.769    4.3488237    4.3488237    4.3488237   -22020.769    35269.431   -53964.191   -47367.547    4752.2089   -937.39704   -50133.408     82.24612 
   64400    2735.8565   -107.33105    2.4754605   -104.85559    19659.718    4.3496206    4.3496206    4.3496206    19659.718    32505.357    18022.841    8450.9552      237.561    6191.6937    26376.925    82.291341 
   64500    622.68609     -105.459   0.56341946   -104.89558    -28868.23    4.3659053    4.3659053    4.3659053    -28868.23   -25506.029   -55483.366   -5615.2947    30864.432    1498.4466   -72344.784    83.219086 
   64600    2582.9575    -107.1839    2.3371143   -104.84678   -22079.666    4.3709672    4.3709672    4.3709672   -22079.666   -4800.9686   -31194.626   -30243.404   -16966.865    10493.747    -14662.39    83.508875 
   64700    2311.3332   -106.92724    2.0913428    -104.8359   -17149.644    4.3620847    4.3620847    4.3620847   -17149.644   -3274.7841   -30532.352   -17641.794    33258.908   -1206.4091   -21706.616    83.000799 
   64800    784.60839   -105.56434   0.70993016   -104.85441   -26391.937    4.3534039    4.3534039    4.3534039   -26391.937   -45386.175   -18525.722   -15263.913    13195.579    5917.4141    -62195.67    82.506254 
   64900    2552.3545   -107.14475     2.309424   -104.83532    1591.3333    4.3527859    4.3527859    4.3527859    1591.3333   -4563.4937    19845.774    -10508.28   -15498.484    19419.045    23410.717    82.471124 
   65000    1837.3706   -106.51793    1.6624915   -104.85544   -27021.425    4.3580887    4.3580887    4.3580887   -27021.425    71116.546   -85328.896   -66851.926    27703.125    150.39831   -78402.685    82.772905 
   65100    1975.9227   -106.63477    1.7878564   -104.84691    5141.4999      4.34856      4.34856      4.34856    5141.4999   -4472.9082    17788.251    2109.1574   -5024.2796    5585.6871    11517.686    82.231154 
   65200     1376.589   -106.10757    1.2455666     -104.862   -12756.713    4.3560215    4.3560215    4.3560215   -12756.713    56047.595   -23591.482   -70726.252   -4415.7988    14852.499   -40108.525    82.655174 
   65300    1872.9179   -106.54023    1.6946554   -104.84557   -20162.411    4.3723563    4.3723563    4.3723563   -20162.411    41878.343   -55022.042   -47343.535     20858.39   -15184.436   -22839.412    83.588518 
   65400    2195.1398   -106.80877    1.9862086   -104.82256    7559.9343    4.3616736    4.3616736    4.3616736    7559.9343    1182.8627    -18217.84     39714.78    5251.1559    11341.602   -15704.059    82.977335 
   65500    1645.3602   -106.32448    1.4887565   -104.83572   -3409.5713    4.3536365    4.3536365    4.3536365   -3409.5713    59845.813   -32089.271   -37985.256    3476.2997   -11315.617   -50792.913    82.519482 
   65600    2322.7401   -106.93129    2.1016641   -104.82962   -2961.5106     4.357296     4.357296     4.357296   -2961.5106    -10405.74   -23351.032     24872.24    23109.886   -26228.529    39259.651    82.727748 
   65700    1637.9249    -106.3211    1.4820289   -104.83907    4737.6591    4.3646266    4.3646266    4.3646266    4737.6591    44199.355   -57184.121    27197.743    4011.5813    6569.2577   -61426.054    83.145987 
   65800    2000.0564   -106.63763    1.8096931   -104.82793   -16419.374    4.3703131    4.3703131    4.3703131   -16419.374   -1481.4795   -34064.653   -13711.989    3754.4024    8161.8961    33191.873    83.471395 
   65900    2128.4625   -106.75017    1.9258776   -104.82429     -3639.53    4.3553446    4.3553446    4.3553446     -3639.53    49337.272   -28370.532    -31885.33    34599.861   -13236.998   -7879.5528    82.616647 
   66000    2088.0697   -106.70427    1.8893294   -104.81494    3732.9148    4.3498299    4.3498299    4.3498299    3732.9148    1725.3856   -6365.0119    15838.371    -34892.18    25374.149   -6967.9325     82.30322 
   66100    1314.5103   -106.02332    1.1893966   -104.83392    -6588.473     4.354318     4.354318     4.354318    -6588.473    7892.3561    6975.5923   -34633.367       7439.3    13471.074    29252.731     82.55824 
   66200    2201.2668   -106.81203    1.9917525   -104.82027    24163.654    4.3605345    4.3605345    4.3605345    24163.654    48382.885     24028.22    79.857125   -13540.952   -7192.5685   -5298.4957    82.912343 
   66300    1770.7089   -106.42774    1.6021746   -104.82556   -36521.215    4.3737525    4.3737525    4.3737525   -36521.215   -66031.572    9862.5421   -53394.614   -28097.795    39502.652    18246.689    83.668619 
   66400     2431.977   -107.01308    2.2005039   -104.81258    718.76867    4.3623618    4.3623618    4.3623618    718.76867    23563.168    28782.742   -50189.604    9484.0427   -19050.452    47516.232    83.016622 
   66500    1602.9632   -106.27038    1.4503948   -104.81999    35328.808     4.339656     4.339656     4.339656    35328.808    22017.488    31124.653    52844.283    -41885.99    29938.493   -24660.883    81.727068 
   66600    1798.0562   -106.46453     1.626919   -104.83762     9389.595    4.3451237    4.3451237    4.3451237     9389.595    12001.594    52847.428   -36680.238     462.1935    22317.094    48974.843    82.036369 
   66700     2032.861   -106.67744    1.8393753   -104.83807    10691.247    4.3654619    4.3654619    4.3654619    10691.247    13756.085    10509.935    7807.7218   -20405.638   -11052.205   -14568.327     83.19373 
   66800    1900.6007    -106.5449    1.7197035    -104.8252   -13042.732    4.3747955    4.3747955    4.3747955   -13042.732   -46631.968    24535.012   -17031.239   -9529.6451    35617.376    2462.8003    83.728493 
   66900    2388.0576   -106.97489    2.1607647   -104.81413   -11103.482    4.3740626    4.3740626    4.3740626   -11103.482   -332.70858   -6357.5045   -26620.234    10015.601   -11707.036    30947.787     83.68642 
   67000    911.35231   -105.66688   0.82461072   -104.84227   -4161.8125    4.3507171    4.3507171    4.3507171   -4161.8125   -48184.254    37360.611   -1661.7944   -34265.498    11865.461   -22068.325    82.353591 
   67100    2616.1924    -107.1893    2.3671859   -104.82211    41504.904    4.3373418    4.3373418    4.3373418    41504.904    22283.421    69075.096    33156.195    39514.315    25242.732    7056.2678    81.596387 
   67200    1748.3833   -106.42597     1.581974     -104.844   -13233.529    4.3673183    4.3673183    4.3673183   -13233.529   -45041.854    20453.232   -15111.965   -39867.712   -34682.329   -4571.8157    83.299911 
   67300    1450.6967   -106.13681    1.3126209   -104.82419   -33424.717    4.3765626    4.3765626    4.3765626   -33424.717   -51633.438   -4823.1718   -43817.541   -1599.1522    35970.207   -12471.076    83.829996 
   67400    2342.3552   -106.91908    2.1194122   -104.79967    19760.541    4.3651172    4.3651172    4.3651172    19760.541     19667.22    17971.605    21642.797    7920.8817   -24374.002    20225.207    83.174026 
   67500    1315.3528   -106.00897    1.1901588   -104.81881    4148.8206    4.3599121    4.3599121    4.3599121    4148.8206   -11668.741    21976.512    2138.6904   -24880.437    16996.934   -1570.7274    82.876844 
   67600    2118.9326   -106.73668    1.9172548   -104.81942    7590.0387    4.3547027    4.3547027    4.3547027    7590.0387    52401.101   -8391.9942    -21238.99    14764.972    5729.6137      31268.4    82.580125 
   67700    1750.9023   -106.41303    1.5842532   -104.82878    2903.1324    4.3733898    4.3733898    4.3733898    2903.1324   -11692.001   -18560.739    38962.137    -19686.54   -7719.1854    10110.992    83.647807 
   67800    1412.4359   -106.09347    1.2780017   -104.81547   -38044.672    4.3785317    4.3785317    4.3785317   -38044.672   -54475.518   -8360.4415   -51298.058   -15861.446    46475.786    17160.391    83.943194 
   67900    2189.4634   -106.78195    1.9810725   -104.80087    16758.833    4.3480847    4.3480847    4.3480847    16758.833    30743.352    11296.529    8236.6193    15232.438   -18967.588    33619.219    82.204197 
   68000    1583.1219   -106.25928     1.432442   -104.82684    2766.2983    4.3422016    4.3422016    4.3422016    2766.2983   -63804.463    45148.056    26955.302   -39904.067    38520.773   -1097.3336    81.870974 
   68100    2121.4602   -106.76326    1.9195418   -104.84372    117.39594    4.3481217    4.3481217    4.3481217    117.39594    7287.3763    34505.223   -41440.411    20919.305    12568.404    33593.471    82.206293 
   68200    1658.8768   -106.35345    1.5009866   -104.85247    -1670.288    4.3670104    4.3670104    4.3670104    -1670.288    8216.7706    12539.874   -25767.509   -18226.418     5033.937    7547.9336    83.282296 
   68300    1392.9514   -106.10899    1.2603717   -104.84861   -57835.638    4.3765708    4.3765708    4.3765708   -57835.638   -98749.107   -24168.605   -50589.203   -25324.254    62947.809    5907.1384    83.830466 
   68400    2694.2059   -107.24876    2.4377742   -104.81098    41492.568    4.3459495    4.3459495    4.3459495    41492.568    80107.332    49004.305    -4633.933    24782.735   -32857.444    11724.576    82.083151 
   68500    1018.7961   -105.77302   0.92182809   -104.85119   -34299.098    4.3427068    4.3427068    4.3427068   -34299.098   -80399.032    17761.622   -40259.883   -38466.859    58363.243    -5935.483    81.899554 
   68600    2587.0954   -107.18177    2.3408583   -104.84092   -8324.5064     4.349269     4.349269     4.349269   -8324.5064    19807.403    2108.0511   -46888.973   -9172.0223    12088.225    -15377.52    82.271386 
   68700    1470.0742   -106.18132     1.330154   -104.85117   -10405.072    4.3653514    4.3653514    4.3653514   -10405.072   -27985.641    21129.803   -24359.378    7587.2234   -18424.959    9182.8697    83.187415 
   68800       1947.7   -106.58632    1.7623199     -104.824   -26633.682    4.3745445    4.3745445    4.3745445   -26633.682   -50390.332   -6534.2862   -22976.427   -31026.331    34476.881    -21349.75    83.714081 
   68900    2101.6878    -106.7212    1.9016513   -104.81955   -15185.125     4.360553     4.360553     4.360553   -15185.125    17849.455   -23290.402   -40114.429    35181.227   -29435.715   -9949.6673    82.913395 
   69000    2033.6899   -106.65763    1.8401253    -104.8175    26330.347    4.3374548    4.3374548    4.3374548    26330.347    31880.184    35589.474    11521.382   -6196.7728    30556.332    9345.3394    81.602767 
   69100    1973.8826   -106.61633    1.7860105   -104.83032    3745.9515    4.3374228    4.3374228    4.3374228    3745.9515    42195.799   -986.30959   -29971.635    18267.406   -12258.313   -45851.173    81.600963 
   69200    1496.2842   -106.20995    1.3538694   -104.85608   -16190.454    4.3534696    4.3534696    4.3534696   -16190.454   -9388.0495   -6786.9843   -32396.328    32458.729   -12717.436    10723.996    82.509993 
   69300    2721.5701    -107.2904    2.4625338   -104.82787     3502.822    4.3692358    4.3692358    4.3692358     3502.822     41364.29   -7988.4362   -22867.388   -13317.566    11336.482   -23313.466    83.409677 
   69400    1187.9972   -105.90595    1.0749249   -104.83103   -36857.925    4.3753827    4.3753827    4.3753827   -36857.925   -22803.982   -65589.132   -22180.662    42008.387   -19922.044   -32195.535    83.762213 
   69500    2401.9797   -106.97125    2.1733618   -104.79789    8838.5625     4.354411     4.354411     4.354411    8838.5625   -21964.497    35277.748    13202.437    5491.0603   -13653.211    16509.655    82.563528 
   69600    1694.0171   -106.35067    1.5327823   -104.81789    19408.365    4.3338818    4.3338818    4.3338818    19408.365    56643.266   -20123.188    21705.015   -19360.849    5982.3572   -42825.492    81.401269 
   69700    2028.6474   -106.67345    1.8355628   -104.83789    5562.7737    4.3375239    4.3375239    4.3375239    5562.7737   -9815.0051    6721.2831    19782.043     44416.77   -41312.392    11060.242    81.606669 
   69800    2170.5975   -106.80585    1.9640022   -104.84185    10752.858    4.3587435    4.3587435    4.3587435    10752.858     17769.96   -18559.575     33048.19   -16936.276    18981.851   -17965.781    82.810219 
   69900    1480.1291   -106.16648    1.3392519   -104.82723   -40146.811    4.3820772    4.3820772    4.3820772   -40146.811   -65029.402    -47172.04   -8238.9901    31146.556   -23413.351   -9226.8316    84.147279 
   70000    2546.5473   -107.09795    2.3041695   -104.79378   -16663.985    4.3644059    4.3644059    4.3644059   -16663.985   -36165.943   -8324.4838   -5501.5288   -7858.0425   -8168.1487   -4262.6153    83.133375 
   70100    1194.5844   -105.88787    1.0808851   -104.80699    5542.1724    4.3333995    4.3333995    4.3333995    5542.1724    16206.352   -17587.202    18007.367   -5542.2506    15878.336   -18602.907    81.374099 
   70200    3202.7499   -107.70246    2.8979154   -104.80455    27210.392    4.3335468    4.3335468    4.3335468    27210.392    12660.111    12029.745     56941.32    17062.997   -14936.989    12336.451    81.382398 
   70300    1169.4721   -105.91349    1.0581629   -104.85533   -22197.098    4.3522702    4.3522702    4.3522702   -22197.098   -52077.475   -44895.842    30382.024   -39589.881    8676.4072   -25841.751    82.441815 
   70400    2054.0431   -106.69921    1.8585414   -104.84067   -7685.2478    4.3691684    4.3691684    4.3691684   -7685.2478   -30438.938     14373.48   -6990.2846    8436.2186    11280.374    4914.6749    83.405821 
   70500    1902.5059   -106.54684    1.7214273   -104.82541   -22859.934    4.3676463    4.3676463    4.3676463   -22859.934   -54831.524   -41984.574    28236.295    -32492.23   -53147.858   -10415.009    83.318683 
   70600    2337.7123   -106.91423    2.1152112   -104.79902    5392.8878    4.3478083    4.3478083    4.3478083    5392.8878   -8230.5462   -31877.586    56286.796     -23186.8    25865.426   -13087.066     82.18852 
   70700    2026.8629   -106.64834    1.8339482   -104.81439    13417.933    4.3391171    4.3391171    4.3391171    13417.933   -48326.293    61831.724    26748.369   -6043.5921   -50033.093     14914.06    81.696624 
   70800    1196.5149   -105.93125    1.0826318   -104.84862   -9162.4978    4.3441145    4.3441145    4.3441145   -9162.4978   -36881.511   -55171.056    64565.073    -48796.37   -1044.9079   -17261.226    81.979223 
   70900    2755.8117   -107.32735    2.4935164   -104.83383    4105.0952    4.3520418    4.3520418    4.3520418    4105.0952   -7885.5318    23562.511   -3361.6936    10825.258    4734.5935   -2396.7742    82.428836 
   71000    1527.1936   -106.22131    1.3818369   -104.83947    12533.409    4.3622521    4.3622521    4.3622521    12533.409   -17329.876    -1136.875    56066.979   -43297.951   -23406.281   -7747.5943     83.01036 
   71100    1822.7555   -106.45994    1.6492675   -104.81067    622.35454     4.365808     4.365808     4.365808    622.35454   -37543.891   -6163.1268    45574.082    4470.3727    27777.458   -12712.096    83.213523 
   71200    2023.0301   -106.62615    1.8304801   -104.79567    -8098.144    4.3574657    4.3574657    4.3574657    -8098.144   -68838.371    50193.013   -5649.0741    -32481.78    -4842.552    7432.1882    82.737411 
   71300    1329.9156   -106.02072    1.2033355   -104.81738   -8163.5305    4.3450184    4.3450184    4.3450184   -8163.5305    1252.6803   -50931.671    25188.399   -43047.472   -1603.4418   -13061.499    82.030406 
   71400    2283.0708   -106.88521    2.0657704   -104.81944     25398.77    4.3322122    4.3322122    4.3322122     25398.77   -17956.869    79680.883    14472.297    25335.297    45125.225    4165.1388    81.307231 
   71500    1804.8767   -106.48163    1.6330903   -104.84854   -8022.9236    4.3461497    4.3461497    4.3461497   -8022.9236   -55833.561   -54173.639    85938.429   -80005.144   -11821.169    2798.7481    82.094496 
   71600     2289.844   -106.89105     2.071899   -104.81915   -15298.255     4.365724     4.365724     4.365724   -15298.255   -35730.793    20628.796   -30792.766    34841.925    41048.872   -1693.3064    83.208715 
   71700    1426.2554   -106.11367    1.2905059   -104.82316    -28559.12    4.3606874    4.3606874    4.3606874    -28559.12   -73168.395   -18325.808    5816.8415   -84336.891    9125.7391    3076.6318    82.921062 
   71800    2454.9309   -107.01561    2.2212731   -104.79434   -9180.0066    4.3531491    4.3531491    4.3531491   -9180.0066   -37488.521    24131.386   -14182.885    11461.071    6007.4882   -4323.8909    82.491772 
   71900    1172.8837   -105.87457    1.0612499   -104.81332   -9632.0101    4.3529986    4.3529986    4.3529986   -9632.0101   -71211.678    37182.453    5133.1943   -47023.623    32643.905   -13558.856    82.483218 
   72000    2263.7859    -106.8599    2.0483211   -104.81158    17016.166    4.3557441    4.3557441    4.3557441    17016.166    2146.8995   -3229.9526    52131.552     -38155.5   -7177.4491   -15288.485    82.639383 
   72100    1825.4072   -106.46743    1.6516668   -104.81576    14824.709    4.3547155    4.3547155    4.3547155    14824.709   -39543.768    41755.535     42262.36   -15322.964    23325.951   -4972.2539    82.580854 
   72200    1368.0954   -106.06803    1.2378815   -104.83015   -27004.791    4.3552139    4.3552139    4.3552139   -27004.791   -50162.179   -65123.142    34270.947   -81473.702    5939.9457   -4597.6743    82.609208 
   72300     2411.993   -106.99408     2.182422   -104.81166     38408.13    4.3433276    4.3433276    4.3433276     38408.13    36724.154    56955.795     21544.44    20277.643    440.13969   -10905.442     81.93468 
   72400    1427.5427   -106.13881    1.2916706   -104.84714   -349.39064    4.3462813    4.3462813    4.3462813   -349.39064   -28619.693   -34554.663    62126.184   -103049.22    19225.087    8543.5562    82.101955 
   72500    2840.4644   -107.38164    2.5701119   -104.81153     14755.99    4.3626785    4.3626785    4.3626785     14755.99    49349.987    21448.886   -26530.903    28775.222    -9240.743   -10618.767      83.0347 
   72600    813.40803   -105.56985   0.73598868   -104.83386   -3492.0996    4.3656072    4.3656072    4.3656072   -3492.0996   -2496.8859   -20929.717    12950.304   -102189.51    24264.505   -4303.2492    83.202037 
   72700    3015.3662   -107.52823    2.7283667   -104.79986   -818.76121    4.3694401    4.3694401    4.3694401   -818.76121    29654.907   -13066.925   -19044.265    28986.693    16952.378   -2292.5487     83.42138 
   72800     1356.164   -106.04453    1.2270857   -104.81744   -10666.929     4.352091     4.352091     4.352091   -10666.929    3452.0667   -80580.656    45127.803   -85078.323   -8314.3375   -4820.5621    82.431631 
   72900    2053.8763   -106.65691    1.8583904   -104.79852    23047.424     4.343141     4.343141     4.343141    23047.424    27549.933    26664.976    14927.362     5686.343    19147.918   -7203.1368    81.924121 
   73000    1885.9259   -106.51455    1.7064254   -104.80812   -22632.223    4.3564778    4.3564778    4.3564778   -22632.223   -57227.665   -46976.513     36307.51   -72154.898   -3669.5024   -535.51235    82.681153 
   73100    2202.6466   -106.79287    1.9930009   -104.79987    134.12015    4.3483653    4.3483653    4.3483653    134.12015    7641.9913   -17235.789    9996.1585   -18120.431    11757.163    171.89353    82.220112 
   73200     1545.484    -106.2116    1.3983864   -104.81322   -21296.434    4.3636057    4.3636057    4.3636057   -21296.434   -87332.525    4629.7957    18813.428   -42352.399     28087.86    8458.8454    83.087655 
   73300    1815.5638   -106.44911    1.6427603   -104.80635    -18798.09    4.3673939    4.3673939    4.3673939    -18798.09   -66187.908   -39643.733     49437.37   -61881.603   -26475.177   -6172.6547    83.304234 
   73400    2018.3013   -106.61861    1.8262014   -104.79241    28138.402     4.343549     4.343549     4.343549    28138.402    23456.021     55587.81    5371.3754   -3571.7047    10033.199    5167.8597    81.947209 
   73500    1545.1129   -106.20974    1.3980506   -104.81169   -10563.052    4.3486079    4.3486079    4.3486079   -10563.052   -78452.411   -11683.478    58446.734   -83995.032    9533.0284    8719.7533    82.233872 
   73600    2669.1772   -107.19958    2.4151276   -104.78445    8510.6963    4.3637443    4.3637443    4.3637443    8510.6963     4617.967    19984.646    929.47582    18207.593    4030.4504    615.97959    83.095572 
   73700    846.98119   -105.58941   0.76636638   -104.82305   -17741.894    4.3653409    4.3653409    4.3653409   -17741.894   -55629.861     13273.82    -10869.64   -91470.447    25787.725    11709.957    83.186813 
   73800    2844.0532   -107.37047    2.5733591   -104.79711    4922.5037    4.3537902    4.3537902    4.3537902    4922.5037    7665.5055    27564.738   -20462.733    30447.986   -19703.053   -2040.4472    82.528221 
   73900    1161.7348   -105.87515     1.051162   -104.82399    6823.1275    4.3333164    4.3333164    4.3333164    6823.1275   -40070.485   -19549.501    80089.368   -103997.75    11649.143    7406.7616    81.369417 
   74000    2503.3621   -107.08481    2.2650946   -104.81972    33588.239     4.342438     4.342438     4.342438    33588.239    40050.966    41559.688    19154.064    13561.161    14803.887    1225.3074    81.884347 
   74100    1746.4745   -106.40956    1.5802468   -104.82931   -27364.636    4.3701758    4.3701758    4.3701758   -27364.636   -17023.226   -86788.351    21717.669   -95182.492   -7478.0135    8566.3967    83.463525 
   74200     1764.167   -106.40145    1.5962554   -104.80519    578.69986    4.3627214    4.3627214    4.3627214    578.69986    4290.6893    27410.879   -29965.469   -4438.5425    35933.675   -11320.405    83.037149 
   74300     1731.948   -106.36167     1.567103   -104.79457    17530.349    4.3504718    4.3504718    4.3504718    17530.349   -930.86268   -21028.336    74550.245   -44522.793    2623.5157    13887.754    82.339659 
   74400    1914.9396   -106.53592    1.7326776   -104.80324    -1891.992     4.356803     4.356803     4.356803    -1891.992   -32602.557    1592.9456    25333.635   -30644.644    24898.601    -1540.089     82.69967 
   74500    1955.8406   -106.57218    1.7696857   -104.80249    -703.6769    4.3607814    4.3607814    4.3607814    -703.6769   -25780.756     30300.63   -6630.9046    623.75077    38392.381    5665.9693    82.926424 
   74600    1919.4512   -106.53442    1.7367597   -104.79766   -13244.177    4.3679513    4.3679513    4.3679513   -13244.177   -28005.453   -21262.921    9535.8442   -45536.432   -1843.6961    5217.5032    83.336138 
   74700    1697.3644   -106.33932     1.535811   -104.80351    -36247.63    4.3645482    4.3645482    4.3645482    -36247.63   -81819.966    40193.662   -67116.587    26621.444    82168.859   -5941.9838    83.141503 
   74800    2277.2541   -106.85454    2.0605074   -104.79403    27742.507     4.339826     4.339826     4.339826    27742.507    61879.874   -11301.662    32649.309   -26945.287   -44104.186    15117.556    81.736672 
   74900     1419.363   -106.12023    1.2842694   -104.83596   -37517.604    4.3466237    4.3466237    4.3466237   -37517.604   -78600.128    40753.954   -74706.639   -8137.9974    115812.49    14116.855    82.121358 
   75000    2459.6262   -107.03376    2.2255215   -104.80824     10236.36      4.36057      4.36057      4.36057     10236.36    13962.908   -193.58382    16939.756      13599.8   -27062.755   -8003.6588    82.914368 
   75100    965.86364   -105.70673   0.87393372    -104.8328   -21012.753    4.3713786    4.3713786    4.3713786   -21012.753   -88700.558    28394.141   -2731.8414   -20292.983    79756.239    6925.6571     83.53246 
   75200    2731.1723   -107.27502    2.4712221    -104.8038    -16612.44    4.3666767    4.3666767    4.3666767    -16612.44   -31101.186   -25422.178    6686.0424     191.3586    5035.7843   -6094.4906    83.263204 
   75300    1410.6225   -106.09402    1.2763609   -104.81766    32744.004    4.3309504    4.3309504    4.3309504    32744.004    9109.6808    84677.858    4444.4742   -9742.3738     65547.61    8167.8771    81.236206 
   75400    1918.0339   -106.56587    1.7354773   -104.83039    15246.926    4.3344971    4.3344971    4.3344971    15246.926   -19839.517    39768.343    25811.953   -14824.009    28825.584    -620.7588    81.435944 
   75500     2062.928   -106.69655    1.8665806   -104.82997   -12078.584    4.3627365    4.3627365    4.3627365   -12078.584    9974.6984   -22291.657   -23918.794     16855.26    32961.447   -3410.3654    83.038012 
   75600    1598.8954   -106.27193    1.4467141   -104.82522   -4786.8518    4.3650885    4.3650885    4.3650885   -4786.8518   -13563.165    37163.875   -37961.266   -2459.1798    57835.556    19094.624    83.172387 
   75700     2039.441   -106.65357     1.845329   -104.80824    29751.069    4.3501486    4.3501486    4.3501486    29751.069    13842.257    32701.002    42709.949   -13915.134   -17007.601     -6996.04     82.32131 
   75800    1490.8096   -106.17796    1.3489158   -104.82904   -21780.217    4.3483882    4.3483882    4.3483882   -21780.217   -45096.388    23751.878    -43996.14    19233.023    80229.147    2640.3524    82.221412 
   75900    2614.8567   -107.17401    2.3659773   -104.80803    28622.285    4.3430462    4.3430462    4.3430462    28622.285    37013.842    46777.369    2075.6452   -12155.307    -25191.39    9424.2947    81.918759 
   76000    1153.8172   -105.88219     1.043998   -104.83819     -9917.46    4.3556868    4.3556868    4.3556868     -9917.46   -71354.168    21404.703    20197.086    16619.919    77450.298   -11108.718    82.636121 
   76100    2202.7327   -106.80428    1.9930789    -104.8112   -16150.228    4.3721041    4.3721041    4.3721041   -16150.228   -9407.0971   -31755.874   -7287.7124    3379.3824   -18144.723    4174.7983    83.574056 
   76200    1859.3965   -106.49143     1.682421   -104.80901    5559.4962    4.3585446    4.3585446    4.3585446    5559.4962    649.96223    35558.583   -19530.057    561.11087    37673.463    11656.327    82.798882 
   76300    1906.2309   -106.52788    1.7247978   -104.80308     16083.93    4.3492923    4.3492923    4.3492923     16083.93    3504.5423    54379.236   -9631.9878    18985.543    25450.869   -4666.1244    82.272709 
   76400    2026.6853   -106.64653    1.8337874   -104.81274     3620.601    4.3489299    4.3489299    4.3489299     3620.601    3058.1188     18777.79   -10974.106   -28098.915   -21176.041    20991.303    82.252141 
   76500    1863.9455   -106.50923     1.686537   -104.82269    12171.405    4.3548125    4.3548125    4.3548125    12171.405    29764.919    48391.279   -41641.983    16763.338    69878.956   -54.940852    82.586369 
   76600    2160.6351   -106.76439     1.954988    -104.8094   -16634.653    4.3724468    4.3724468    4.3724468   -16634.653   -11503.718    5819.7523   -44219.992   -10895.211    -28477.06    16808.134    83.593711 
   76700    1172.5699   -105.87812    1.0609659   -104.81715    -8087.097    4.3727556    4.3727556    4.3727556    -8087.097   -5706.8435    47724.024   -66278.472   -22766.417    60342.644    17905.621    83.611425 
   76800    3139.5715   -107.62319    2.8407503   -104.78244   -1957.2486     4.365135     4.365135     4.365135   -1957.2486     38248.58   -9900.1309   -34220.195   -2991.5189   -19114.803   -16229.854    83.175044 
   76900    965.45629   -105.69182   0.87356514   -104.81825   -35709.782    4.3567555    4.3567555    4.3567555   -35709.782   -24930.036     25678.04   -107877.35   -12306.347     67954.78    13930.686    82.696964 
   77000    2358.2124    -106.9521    2.1337601   -104.81834   -6780.4431    4.3480688    4.3480688    4.3480688   -6780.4431   -13756.029   -20576.501      13991.2   -17776.981    -11910.98    2923.0323    82.203293 
   77100    1912.8426     -106.563    1.7307802   -104.83222   -33948.906    4.3541379    4.3541379    4.3541379   -33948.906   -9650.7896   -34104.958   -58090.969    5506.3555     40137.72   -367.64353    82.547996 
   77200    1828.8515   -106.49795    1.6547833   -104.84317   -10098.297    4.3540856    4.3540856    4.3540856   -10098.297   -22596.817    40138.923   -47836.998   -17640.519    44409.158    19235.547    82.545021 
   77300    2237.0336   -106.85441     2.024115   -104.83029    2317.0995    4.3559755    4.3559755    4.3559755    2317.0995   -339.62802    2439.8537    4851.0727   -7255.7759   -14785.193   -9957.3292    82.652554 
   77400    925.50131   -105.68655   0.83741304   -104.84914   -45006.715    4.3609407    4.3609407    4.3609407   -45006.715   -22125.745   -16111.149   -96783.251    13299.647    82736.381    17454.219    82.935516 
   77500    3092.7209   -107.61321    2.7983589   -104.81486    12961.141    4.3513945    4.3513945    4.3513945    12961.141    26643.771    5048.6186     7191.033   -12599.962   -38419.839    5785.7197    82.392064 
   77600      1335.27   -106.05432    1.2081803   -104.84614   -629.37521    4.3469121    4.3469121    4.3469121   -629.37521    12220.468    52578.315   -66686.908    4907.5728    58863.506    16763.291    82.137708 
   77700    2306.5265   -106.92322    2.0869936   -104.83622    7971.5384     4.351118     4.351118     4.351118    7971.5384    60767.311   -5891.7581   -30960.938     8079.525   -3057.7677    8996.9795    82.376355 
   77800    1555.3123   -106.24495    1.4072792   -104.83767   -13497.166    4.3591043    4.3591043    4.3591043   -13497.166   -15667.324    40891.789   -65715.963   -8318.0725    33582.095    4892.6848    82.830785 
   77900    1860.8634   -106.51811    1.6837484   -104.83437    1469.0153    4.3611001    4.3611001    4.3611001    1469.0153    23165.678    53231.939   -71990.571   -1951.7127    15492.496    10118.507    82.944609 
   78000    2817.1013   -107.36958    2.5489724   -104.82061   -1872.2652    4.3543088    4.3543088    4.3543088   -1872.2652    41324.845   -1461.2758   -45480.365   -19199.979    23775.978    1973.7616    82.557715 
   78100    665.45184   -105.45389   0.60211481   -104.85178   -2725.8037    4.3490889    4.3490889    4.3490889   -2725.8037   -4080.5877    91442.556    -95539.38    11929.037    28700.256    9356.2103    82.261168 
   78200    2639.4015   -107.22432     2.388186   -104.83614   -13117.335    4.3510919    4.3510919    4.3510919   -13117.335   -5194.8572   -11047.119   -23110.028   -1456.7125   -43140.629    7008.7966    82.374877 
   78300     2220.245   -106.85349    2.0089243   -104.84456   -4018.0134    4.3514747    4.3514747    4.3514747   -4018.0134    11209.365     21033.34   -44296.745   -84.581994    46399.819   -6388.2814    82.396617 
   78400    1394.1918   -106.11734     1.261494   -104.85585   -19591.757    4.3533924    4.3533924    4.3533924   -19591.757   -18400.449    21000.407   -61375.228     4218.039    -63124.28    13725.663    82.505603 
   78500    2014.5006    -106.6619    1.8227625   -104.83913   -1928.0036    4.3600292    4.3600292    4.3600292   -1928.0036    42141.043   -49455.613    1530.5589    19131.176    18752.045    -11535.78    82.883519 
   78600    1828.7322   -106.49013    1.6546754   -104.83546   -3609.9177    4.3662378    4.3662378    4.3662378   -3609.9177    32664.171     18492.26   -61986.184   -4266.6909   -55805.719    6659.6624    83.238099 
   78700    2244.2959   -106.85041    2.0306861   -104.81973   -6206.6006    4.3664177    4.3664177    4.3664177   -6206.6006   -3123.7468   -6607.6122   -8888.4428    11015.125   -9815.9581   -5607.8519    83.248387 
   78800     1388.517   -106.07049    1.2563593   -104.81413   -7897.8315    4.3632725    4.3632725    4.3632725   -7897.8315   -14157.296   -19559.003    10022.805   -6964.2876    -39659.79   -10629.335    83.068622 
   78900    1847.0012   -106.47599    1.6712055   -104.80479     3357.931    4.3612422    4.3612422    4.3612422     3357.931    10181.363    54286.345   -54393.915   -7350.8169   -17046.716    16549.176    82.952715 
   79000    2404.2745   -106.97359    2.1754381   -104.79816   -5355.9394    4.3660566    4.3660566    4.3660566   -5355.9394    10130.976   -16414.836   -9783.9584   -613.26085   -4086.3344   -16531.302    83.227738 
   79100    1458.2886   -106.15021    1.3194902   -104.83072   -25500.996    4.3622792    4.3622792    4.3622792   -25500.996   -45066.334    26228.283   -57664.936    545.67404   -32387.569   -6016.1707    83.011905 
   79200    2116.3258   -106.73886    1.9148961   -104.82397    9118.2857    4.3486983    4.3486983    4.3486983    9118.2857   -4367.0976   -1256.4168    32978.371   -18367.677    26692.743    22054.075       82.239 
   79300     1876.605   -106.54019    1.6979916    -104.8422    7056.8758    4.3507232    4.3507232    4.3507232    7056.8758   -3460.8697    24581.175      50.3219    10345.338   -41013.285   -34631.389    82.353938 
   79400    1518.6994   -106.22818    1.3741512   -104.85403   -33735.376    4.3677316    4.3677316    4.3677316   -33735.376    -52288.92   -51714.648    2797.4395    8591.7302    18182.069    24752.554    83.323563 
   79500    2163.3904   -106.78991    1.9574811   -104.83243   -25234.581    4.3690989    4.3690989    4.3690989   -25234.581   -37661.859   -47218.984    9177.1005   -33782.076   -4472.6104   -13786.638    83.401839 
   79600    2550.7931   -107.12741    2.3080112    -104.8194   -10597.008    4.3604073    4.3604073    4.3604073   -10597.008    14634.712   -8404.2993   -38021.435    30427.417   -4796.7211   -2806.9749    82.905086 
   79700    493.30785   -105.29776   0.44635531   -104.85141   -7828.6554    4.3442029    4.3442029    4.3442029   -7828.6554    2714.4645   -38074.039    11873.608     -26570.7    13255.578    36097.323    81.984226 
   79800      2726.14   -107.30049    2.4666688   -104.83382    27694.608    4.3439924    4.3439924    4.3439924    27694.608    76850.328     6958.215   -724.71888   -5686.3276    -4806.093   -16735.236    81.972312 
   79900    2112.0096   -106.76425    1.9109907   -104.85326   -12651.423    4.3599268    4.3599268    4.3599268   -12651.423    20313.072   -35523.774   -22743.568   -10136.665    6868.2157    26477.886    82.877681 
   80000    1491.6969   -106.20731    1.3497187   -104.85759    2396.4806    4.3613553    4.3613553    4.3613553    2396.4806    36699.771   -39559.575    10049.246   -35084.449    8821.4698    1626.6373    82.959169 
   80100    1813.5741   -106.49096    1.6409599      -104.85   -6650.0725    4.3537939    4.3537939    4.3537939   -6650.0725    41121.711   -8615.4877    -52456.44    12607.076   -42372.763   -23145.816    82.528436 
   80200     2044.985   -106.69754    1.8503454   -104.84719    15073.142    4.3441468    4.3441468    4.3441468    15073.142    51751.137   -35595.732     29064.02   -19477.023    12828.593    29466.102    81.981051 
   80300    2109.2678   -106.76477    1.9085099   -104.85626    12018.027    4.3456378    4.3456378    4.3456378    12018.027    22976.556   -10037.796    23115.321   -9870.9066   -15890.705   -18693.586     82.06549 
   80400    1713.2213   -106.41818    1.5501586   -104.86802    3341.1112     4.356087     4.356087     4.356087    3341.1112    13459.866   -11390.402    7953.8693    9292.0769   -33828.142   -11981.764    82.658903 
   80500     1708.835    -106.4133    1.5461898   -104.86711   -9735.8433    4.3589248    4.3589248    4.3589248   -9735.8433   -8525.9314   -54532.943    33851.345   -36666.435    25823.257    22971.073    82.820551 
   80600    2229.8517   -106.87718    2.0176167   -104.85957    10012.394     4.351568     4.351568     4.351568    10012.394   -3530.5329    8482.5522    25085.162    9360.1661   -17096.915   -9771.9552    82.401919 
   80700    1705.8338   -106.41251    1.5434742   -104.86904   -5043.7324     4.351979     4.351979     4.351979   -5043.7324   -5630.8698    -5428.978   -4071.3494   -12197.204   -7950.2372   -8993.8789    82.425269 
   80800    1642.1085   -106.36037    1.4858143   -104.87456   -21301.453    4.3563474    4.3563474    4.3563474   -21301.453   -34531.836    -44412.49    15039.966   -39510.653    19911.618    41985.043    82.673728 
   80900    2947.2018    -107.5127    2.6666901   -104.84601     14811.08    4.3560419    4.3560419    4.3560419     14811.08    2141.1951    21374.985    20917.061    14750.701   -18098.638   -20643.076    82.656333 
   81000    824.12433   -105.62522   0.74568501   -104.87954   -26638.626    4.3623947    4.3623947    4.3623947   -26638.626   -35808.208   -14662.414   -29445.257   -50712.012    22908.484    23862.981    83.018499 
   81100    2125.1003   -106.77789    1.9228354   -104.85505   -16398.324    4.3622665    4.3622665    4.3622665   -16398.324    18746.337   -20237.006   -47704.303    8394.9256   -18099.477    12392.125    83.011179 
   81200    2572.9961   -107.17179    2.3281009   -104.84369    1020.2775    4.3558826    4.3558826    4.3558826    1020.2775   -3213.7647    11032.079   -4757.4817   -27019.428    738.17114   -2698.0955    82.647266 
   81300    1492.1664   -106.22547    1.3501435   -104.87532   -13090.759    4.3445902    4.3445902    4.3445902   -13090.759    16325.579    -28418.08   -27179.776   -41140.485    14005.673    33102.921    82.006158 
   81400    1484.8816   -106.22401    1.3435521   -104.88046    9609.7012     4.336397     4.336397     4.336397    9609.7012    60145.716    23321.169   -54637.782    12857.577   -20876.839   -10188.708    81.543082 
   81500    2180.8366   -106.86559    1.9732668   -104.89232    9866.5829    4.3549834    4.3549834    4.3549834    9866.5829    3848.2733    23934.374    1817.1017   -16641.668   -10470.693   -9504.6437    82.596096 
   81600    2119.8502    -106.7864     1.918085   -104.86832    170.54523    4.3784357    4.3784357    4.3784357    170.54523    41331.922   -10746.224   -30074.062   -16574.247   -869.20571    21653.687    83.937673 
   81700    1580.4122   -106.26907    1.4299902   -104.83908   -24065.217     4.382022     4.382022     4.382022   -24065.217     8099.593   -27743.985   -52551.259    8405.9698   -22066.464   -28047.065    84.144098 
   81800    1620.8922   -106.31137    1.4666174   -104.84475   -9150.4989    4.3497298    4.3497298    4.3497298   -9150.4989   -18504.909   -39444.119    30497.531   -22963.989    13189.442    22885.804    82.297537 
   81900     2394.034   -107.00061    2.1661722   -104.83444    49143.788    4.3192938    4.3192938    4.3192938    49143.788    71776.106    2265.3086     73389.95   -9493.5104    7513.1187    19645.373    80.582036 
   82000    2564.8452   -107.18764    2.3207259   -104.86691    17135.507    4.3346507    4.3346507    4.3346507    17135.507    32879.115   -11231.845    29759.249    8733.4142    7730.4577   -16866.795    81.444604 
   82100    544.47502   -105.40487   0.49265244   -104.91222   -4628.6259    4.3681967    4.3681967    4.3681967   -4628.6259   -17993.508   -51869.694    55977.324   -18895.801    41632.926    39368.494    83.350184 
   82200    2840.9592   -107.41324    2.5705596   -104.84269   -6068.8804    4.3880936    4.3880936    4.3880936   -6068.8804    42637.684   -26094.846   -34749.479    11782.187   -18548.438    124.32429    84.494347 
   82300    2091.9793   -106.74685    1.8928668   -104.85398    -1428.371    4.3579517    4.3579517    4.3579517    -1428.371    24862.087   -42566.686    13419.487       -29208    9257.6376    19462.439    82.765097 
   82400    852.37283   -105.61483   0.77124485   -104.84358    24417.027    4.3254189    4.3254189    4.3254189    24417.027    39528.662     4789.989    28932.431    10782.817    16589.374    29311.643    80.925335 
   82500    2623.8082   -107.22717    2.3740768   -104.85309    16236.043    4.3342404    4.3342404    4.3342404    16236.043    27302.877    7209.0891    14196.162    8621.7957   -39447.516   -13838.461    81.421478 
   82600     2355.783   -107.00332     2.131562   -104.87175    564.38405    4.3569885    4.3569885    4.3569885    564.38405    51370.466   -42243.134   -7434.1804   -14271.791    10725.013    49797.061    82.710233 
   82700    1000.8149   -105.78566   0.90555832    -104.8801   -40215.594    4.3758521    4.3758521    4.3758521   -40215.594   -63611.633   -44172.475   -12862.675    15994.434   -1267.4606   -20691.398    83.789171 
   82800    1832.0686   -106.52132    1.6576942   -104.86363   -29363.524    4.3626804    4.3626804    4.3626804   -29363.524    -44049.43   -30297.858   -13743.284     -528.288   -34532.416    6737.3327    83.034808 
   82900    2942.6712   -107.49783    2.6625907   -104.83523    27286.983    4.3358287    4.3358287    4.3358287    27286.983    68881.956   -1881.0165     14860.01    2430.4839    15894.132    14209.514    81.511022 
   83000    952.78039   -105.73703   0.86209572   -104.87493   -25461.586    4.3412239    4.3412239    4.3412239   -25461.586   -37647.919   -45004.316    6267.4749    18607.106   -18081.843   -28409.433     81.81568 
   83100    1782.4999   -106.49469    1.6128434   -104.88185   -10620.771    4.3568201    4.3568201    4.3568201   -10620.771   -41486.264   -15275.133    24899.084   -10976.595   -27160.771    1642.7479    82.700641 
   83200    2539.2806    -107.1668    2.2975944    -104.8692    -7139.273    4.3655415    4.3655415    4.3655415    -7139.273    27493.258   -21027.199   -27883.878    10172.313    46711.199   -17188.474    83.198281 
   83300    1610.9725   -106.32986    1.4576418   -104.87222   -6463.5185    4.3550398    4.3550398    4.3550398   -6463.5185    20632.938    -30679.62    -9343.873   -1431.4761   -27851.067   -20266.379    82.599302 
   83400     1456.272   -106.18084    1.3176655   -104.86318    5075.5455     4.345486     4.345486     4.345486    5075.5455   -769.61327    16129.653   -133.40313   -11546.947    22547.655    21486.494    82.056892 
   83500    1811.4225   -106.51358    1.6390131   -104.87456   -18074.222    4.3454847    4.3454847    4.3454847   -18074.222    19090.821   -10578.499   -62734.988    13900.384    55205.408   -46018.604    82.056822 
   83600    2757.5184    -107.3584    2.4950606   -104.86334    28972.671    4.3394544    4.3394544    4.3394544    28972.671    79825.151   -9654.1754    16747.037   -6978.9114   -14868.879   -16815.108    81.715676 
   83700     1371.946   -106.13293    1.2413656   -104.89156   -18966.102    4.3606212    4.3606212    4.3606212   -18966.102   -32433.552    29742.681   -54207.436   -6527.3952    51528.783   -432.55761    82.917287 
   83800    1293.9931   -106.05215    1.1708322   -104.88131   -38271.049    4.3683296    4.3683296    4.3683296   -38271.049   -3634.3439   -10437.652   -100741.15    16687.367    748.69715   -54987.833    83.357789 
   83900    2716.8203   -107.30347    2.4582361   -104.84524    11054.899    4.3559181    4.3559181    4.3559181    11054.899    26526.987   -8550.4789     15188.19   -21554.829   -7776.4159    26579.872    82.649287 
   84000    1515.4304   -106.23263    1.3711933   -104.86143   -18884.337    4.3499832    4.3499832    4.3499832   -18884.337     48696.97   -42213.155   -63136.827     6511.703    28407.651   -71229.852    82.311921 
   84100    1986.1693   -106.65634    1.7971277   -104.85921   -363.13922    4.3494926    4.3494926    4.3494926   -363.13922    14657.322   -12851.247   -2895.4929     810.0015   -25697.984    5626.9081    82.284076 
   84200    2099.2824   -106.75621    1.8994748   -104.85674   -11765.866    4.3593919    4.3593919    4.3593919   -11765.866    25467.709   -42083.036    -18682.27    -5306.005   -4854.2565    23369.001    82.847179 
   84300    1579.3203   -106.29376    1.4290022   -104.86476   -16032.713    4.3602123    4.3602123    4.3602123   -16032.713    31868.762   -57024.304   -22942.597    15171.925    18081.478   -78683.892    82.893962 
   84400    2265.0718   -106.89296    2.0494846   -104.84347    6190.2877    4.3615387    4.3615387    4.3615387    6190.2877    16907.697   -12529.843    14193.009    -4638.875   -6820.6305    32945.565    82.969639 
   84500    1818.0181    -106.4901    1.6449809   -104.84512   -26272.088     4.369277     4.369277     4.369277   -26272.088    25543.004   -55046.644   -49312.625    5721.5183    11104.923    -34474.02    83.412038 
   84600    1607.6935   -106.29988    1.4546749   -104.84521   -15541.934    4.3631085    4.3631085    4.3631085   -15541.934   -36238.716   -17785.414      7398.33    10061.687    46398.022   -33421.671    83.059257 
   84700     2418.754   -107.02765    2.1885395   -104.83911    22570.079    4.3467007    4.3467007    4.3467007    22570.079    50688.754   -6153.8558    23175.338    -2502.114   -14200.197    26358.241    82.125723 
   84800    1273.3084   -106.02065    1.1521162   -104.86854    19825.075     4.340692     4.340692     4.340692    19825.075    28383.032    27292.229    3799.9637    12171.902    24323.359   -34156.362    81.785613 
   84900    1883.9221   -106.58175    1.7046123   -104.87714    24281.075    4.3646893    4.3646893    4.3646893    24281.075     7048.759    66959.444   -1164.9765    1780.1791     21637.69   -6726.2314    83.149569 
   85000     2365.912   -106.96269    2.1407269   -104.82196   -38447.141    4.3977309    4.3977309    4.3977309   -38447.141   -43099.286   -43370.115   -28872.021   -11856.057    5285.9837   -11851.177    85.052279 
   85100    1275.3848   -105.95908     1.153995   -104.80509   -44729.914    4.3839002    4.3839002    4.3839002   -44729.914   -37495.357   -2365.0262   -94329.358    12040.617    25992.126   -23399.487    84.252342 
   85200    2459.5718    -107.0271    2.2254723   -104.80163    19566.687    4.3371648    4.3371648    4.3371648    19566.687    24122.736   -3189.6031    37766.927   -8177.4776   -26967.144    41268.881      81.5864 
   85300    1832.3642   -106.48951    1.6579616   -104.83155     14346.56    4.3106784    4.3106784    4.3106784     14346.56     24880.74    14826.954    3331.9875    2841.8645     55711.33   -15019.631    80.100805 
   85400     1760.718   -106.48168    1.5931346   -104.88854    21687.009    4.3336971    4.3336971    4.3336971    21687.009    61616.065    2339.6941    1105.2675    -1045.746    1393.6926   -31254.832    81.390865 
   85500    2063.3183   -106.74344    1.8669337    -104.8765   -31810.351    4.3796521    4.3796521    4.3796521   -31810.351    10548.308   -42244.782   -63734.581    -11409.94   -12867.146     60456.88    84.007648 
   85600    1410.7701   -106.11652    1.2764945   -104.84002   -23815.598    4.3855846    4.3855846    4.3855846   -23815.598    38632.447   -27788.743     -82290.5    6887.0156    40069.598   -60727.597    84.349496 
   85700    2589.2532   -107.15014    2.3428107   -104.80733    19882.537    4.3590524    4.3590524    4.3590524    19882.537    53030.312    18746.416   -12129.118    12955.482   -10745.843    15030.064    82.827829 
   85800    1549.1226    -106.2417    1.4016787   -104.84002    20006.938    4.3327048    4.3327048    4.3327048    20006.938    36393.712    66421.664   -42794.561    61.908262     10426.67   -13117.343     81.33497 
   85900    967.48002    -105.7623   0.87539626    -104.8869   -3504.9261    4.3289981    4.3289981    4.3289981   -3504.9261    38725.338    19647.948   -68888.065    3888.9581    27780.017   -68323.902    81.126397 
   86000     2711.501   -107.33056    2.4534231   -104.87714    19574.158    4.3536311    4.3536311    4.3536311    19574.158     18643.22    20481.772    19597.483    10333.017   -14326.896    31588.553    82.519176 
   86100    1927.5548   -106.61923    1.7440921   -104.87513   -17188.724    4.3705044    4.3705044    4.3705044   -17188.724    12232.008    7951.8001   -71749.981    1600.7883    29039.203   -50161.339    83.482356 
   86200    1606.3028   -106.31193    1.4534165   -104.85851   -24794.903    4.3660078    4.3660078    4.3660078   -24794.903    5695.3962   -37712.144   -42367.961    1924.1894    11647.832    21152.606    83.224946 
   86300    2137.8697   -106.77416    1.9343894   -104.83977   -1943.1898    4.3448134    4.3448134    4.3448134   -1943.1898    17832.494   -11027.257   -12634.806    17183.597    -2167.673    54990.395    82.018793 
   86400    2287.5994   -106.90322     2.069868   -104.83335    17115.062    4.3375653    4.3375653    4.3375653    17115.062    16812.636    60037.788   -25505.238    9265.7597    39608.614   -27448.264    81.609002 
   86500    1175.4427   -105.92323    1.0635652   -104.85966   -9908.0243    4.3584071    4.3584071    4.3584071   -9908.0243    50530.852    3764.7549    -84019.68   -1011.0999   -9267.3975    78896.274     82.79105 
   86600     2007.579   -106.64055    1.8164997   -104.82405   -3443.5015    4.3771162    4.3771162    4.3771162   -3443.5015   -14562.673    43546.623   -39314.455    19098.258    17501.171   -23837.281    83.861807 
   86700    1483.8353   -106.15961    1.3426054     -104.817   -13108.232     4.376245     4.376245     4.376245   -13108.232    37640.472   -32562.628    -44402.54    5706.2515    28900.459    62643.709    83.811745 
   86800    2653.4403   -107.18745    2.4008886   -104.78657    13207.399    4.3569269    4.3569269    4.3569269    13207.399   -1972.3341    19343.469    22251.061    2904.2462   -7040.2427   -11004.574    82.706725 
   86900    948.42245   -105.67837   0.85815256   -104.82022   -8743.5425    4.3390826    4.3390826    4.3390826   -8743.5425   -15712.564    27010.395   -37528.459    14759.344    13920.216    54682.489    81.694676 
   87000    2461.3717   -107.06803    2.2271008   -104.84093    7261.7692    4.3474294    4.3474294    4.3474294    7261.7692   -741.89038    17490.781    5036.4171     -8066.98    19647.416    12537.824    82.167033 
   87100    2247.7261   -106.87517    2.0337899   -104.84138   -21170.966    4.3787351    4.3787351    4.3787351   -21170.966    4912.9118   -28520.723   -39905.087    6839.4768   -13395.483    24235.139    83.954894 
   87200    1338.1653   -106.01595    1.2108001   -104.80515   -31190.881    4.3899611    4.3899611    4.3899611   -31190.881   -12594.367   -16764.472   -64213.805    3583.2334    19216.465    22652.028    84.602268 
   87300    2013.0549   -106.59813    1.8214544   -104.77668   -25329.593    4.3694301    4.3694301    4.3694301   -25329.593    6850.0638   -64659.561   -18179.283   -16655.428     5625.938    31073.393    83.420807 
   87400    1910.8924   -106.50653    1.7290156   -104.77751    9995.6514    4.3350142    4.3350142    4.3350142    9995.6514     63035.22   -2704.9766   -30343.289     9369.694    4577.0374    54183.163    81.465093 
   87500    1873.4569   -106.48366    1.6951432   -104.78852    13449.133    4.3302184    4.3302184    4.3302184    13449.133   -9672.7632     68140.36   -18120.198   -88.404067    34326.328   -2382.2115    81.195023 
   87600     1495.627   -106.19192    1.3532748   -104.83864   -39836.927    4.3643153    4.3643153    4.3643153   -39836.927    26361.606   -83091.049   -62781.338   -18410.598   -6437.5158    76430.897    83.128196 
   87700     2476.528   -107.04525    2.2408146   -104.80444   -6065.4256    4.3752928    4.3752928    4.3752928   -6065.4256   -66558.487    61449.116   -13086.906    14196.038    20684.472   -27139.705    83.757049 
   87800    1251.2816   -105.94478    1.1321859    -104.8126   -10312.268    4.3661235    4.3661235    4.3661235   -10312.268    -6438.516   -25634.565    1136.2763   -2502.5877    5049.9279     87077.43     83.23156 
   87900    3010.0551   -107.51686    2.7235611    -104.7933    4624.0111    4.3522898    4.3522898    4.3522898    4624.0111   -17645.231   -1331.9661    32849.231    1899.5083    129.24583   -29247.732    82.442931 
   88000     1358.757   -106.05114    1.2294319    -104.8217     -15455.6    4.3452027    4.3452027    4.3452027     -15455.6    17750.038   -25367.791   -38749.045    4980.3591    22484.952    80189.893    82.040843 
   88100    2447.3757   -107.03204     2.214437    -104.8176   -1895.7812    4.3596006    4.3596006    4.3596006   -1895.7812    -21133.97    13274.016    2172.6108    3505.6503    1488.4464   -8452.3496    82.859082 
   88200    1518.3006   -106.19928    1.3737903   -104.82549   -28752.242    4.3708659    4.3708659    4.3708659   -28752.242    46342.089   -66912.736    -65686.08    -3823.793    3332.2022    18373.262    83.503069 
   88300    1917.6024    -106.5489    1.7350869   -104.81381    13253.639    4.3554456    4.3554456    4.3554456    13253.639   -3650.6957     49460.65   -6049.0383    1594.9065    27940.244    35075.169    82.622395 
   88400    1969.7083   -106.60695    1.7822334   -104.82472   -679.64779     4.352323     4.352323     4.352323   -679.64779    41543.033   -5097.4881   -38484.488   -7607.9849   -1601.3825   -25505.672    82.444817 
   88500    1603.0212   -106.27474    1.4504473    -104.8243    8255.6483    4.3542984    4.3542984    4.3542984    8255.6483    52315.044    -254.8996   -27293.199    -879.1497    3732.6417    34954.123    82.557127 
   88600    2022.2222   -106.64252    1.8297491   -104.81277    19174.477    4.3540298    4.3540298    4.3540298    19174.477   -31289.472    86298.313     2514.591   -5620.1241    38633.405    -13082.32    82.541848 
   88700    1996.6629   -106.63234    1.8066225   -104.82572   -26786.815      4.36186      4.36186      4.36186   -26786.815    19220.065    -37978.59    -61601.92   -7042.8261   -12586.947    10948.037    82.987972 
   88800    1486.4464   -106.18878    1.3449679   -104.84381   -1816.1991    4.3476567    4.3476567    4.3476567   -1816.1991   -43854.871     25149.05    13257.224    6402.7055    63832.731    17190.165    82.179921 
   88900     2551.177   -107.13539    2.3083585   -104.82703    17995.584    4.3385746    4.3385746    4.3385746    17995.584    10270.511    30429.349    13286.892    3584.8036   -5417.3482   -7474.5016    81.665987 
   89000    1370.3332   -106.09429    1.2399063   -104.85438    -17451.72    4.3496957    4.3496957    4.3496957    -17451.72    10554.163    9914.8724   -72824.196    6114.1927    57289.412    5716.2284      82.2956 
   89100    2162.5264   -106.79988    1.9566994   -104.84318   -13053.707    4.3610137    4.3610137    4.3610137   -13053.707   -29460.072    25351.948   -35052.998    4909.7201    14301.091   -5880.5886    82.939679 
   89200    2188.3559   -106.79635    1.9800704   -104.81628    -29925.45    4.3693804    4.3693804    4.3693804    -29925.45   -26954.527   -4726.8428    -58094.98    8948.6049    6188.0248    -9091.191    83.417961 
   89300    1499.1252   -106.16301      1.35644   -104.80657   -29875.613    4.3593318    4.3593318    4.3593318   -29875.613   -34702.571    4963.2065   -59887.476    10883.756     70555.94    182.55075    82.843756 
   89400    2347.6141   -106.91832    2.1241706   -104.79415   -1608.8263    4.3428815    4.3428815    4.3428815   -1608.8263   -27444.868    21110.449    1507.9396    13879.627   -61306.142    4079.2101    81.909437 
   89500    1703.0261   -106.36111    1.5409338   -104.82018   -2156.9684    4.3447914    4.3447914    4.3447914   -2156.9684   -29168.633    42516.072   -19818.344   -735.86267    85884.132     4756.757     82.01755 
   89600     2101.276   -106.72427    1.9012787   -104.82299   -5929.4017    4.3531687    4.3531687    4.3531687   -5929.4017   -11612.367   -9841.1971    3665.3586   -2146.0584   -43549.245    18165.584    82.492886 
   89700     1824.689   -106.48823    1.6510169   -104.83722   -23657.752    4.3574755    4.3574755    4.3574755   -23657.752    -69314.54    38327.896   -39986.613    24498.178    14784.556   -24160.231     82.73797 
   89800    1770.4285   -106.44479    1.6019209   -104.84287   -3246.5173    4.3488759    4.3488759    4.3488759   -3246.5173   -18109.557   -36182.438    44552.443   -9747.4968    47465.567     57150.28    82.249079 
   89900    2428.2354   -107.04306    2.1971184   -104.84594    9151.7794    4.3421668    4.3421668    4.3421668    9151.7794     2358.109   -963.41485    26060.644    -3229.978   -29971.054    6583.0449    81.869002 
   90000     1239.317    -105.9886    1.1213601   -104.86724    29146.125    4.3417266    4.3417266    4.3417266    29146.125   -36880.914     30090.17    94229.119    21417.871    33631.118    22907.395     81.84411 
   90100    1839.7598   -106.53848    1.6646533   -104.87383   -13868.943    4.3627267    4.3627267    4.3627267   -13868.943   -21758.836   -25606.716     5758.725   -30423.863    13168.131    59458.199    83.037452 
   90200    2559.6931   -107.14971    2.3160641   -104.83365    4158.5873    4.3678553    4.3678553    4.3678553    4158.5873   -35114.082   -2178.3674    49768.211    13736.918    2177.1618   -23081.827    83.330643 
   90300    919.25186   -105.69515    0.8317584   -104.86339    -21985.89    4.3451314    4.3451314    4.3451314    -21985.89      8235.13   -22590.137   -51602.663     2146.786     31931.66    69158.674    82.036805 
   90400    2210.2885    -106.8587    1.9999155   -104.85879    10762.864    4.3263809    4.3263809    4.3263809    10762.864   -3506.3359    24473.102    11321.826   -39858.146   -8950.3853   -4290.4333    80.979344 
   90500    2426.1821   -107.06972    2.1952606   -104.87446    16213.227    4.3337304    4.3337304    4.3337304    16213.227    9717.7674    31773.343    7148.5698    24174.043   -20.705361    19300.317    81.392742 
   90600    987.54824   -105.78222    0.8935544   -104.88867   -31340.278    4.3617357    4.3617357    4.3617357   -31340.278   -1330.1756   -29427.081   -63263.578    -30637.81    38298.477    47490.846    82.980882 
   90700    2559.9689    -107.1386    2.3163136   -104.82228   -18086.007    4.3747431    4.3747431    4.3747431   -18086.007   -49058.874    30134.285   -35333.431   -3452.1519   -46852.513   -18418.263    83.725486 
   90800    1402.7317   -106.07981    1.2692212   -104.81059   -51261.587    4.3755134    4.3755134    4.3755134   -51261.587   -32189.875   -38354.915   -83239.969    -7223.128    32374.724    75479.498    83.769718 
   90900    1891.8094    -106.5229    1.7117489   -104.81115    357.44543    4.3428519    4.3428519    4.3428519    357.44543   -19049.619   -1283.5076    21405.463   -34370.881     25723.33    -29263.11     81.90776 
   91000    2244.6798   -106.84819    2.0310335   -104.81716    19839.845    4.3212473    4.3212473    4.3212473    19839.845    26992.068    42401.451   -9873.9842    28390.768   -28312.862    32280.088    80.691419 
   91100    2091.9413   -106.74327    1.8928325   -104.85044    6636.1833    4.3374927    4.3374927    4.3374927    6636.1833    2456.3893     10993.16    6459.0007    -38622.51    19106.999    26739.911    81.604907 
   91200    1538.3257   -106.26498    1.3919094   -104.87307   -2950.7121    4.3530465    4.3530465    4.3530465   -2950.7121   -31378.553   -15195.531    37721.947   -24011.399    4416.2427   -33164.173    82.485939 
   91300    2226.1332   -106.87003    2.0142521   -104.85578   -10676.734    4.3650362    4.3650362    4.3650362   -10676.734   -37780.261    20680.271   -14930.214    29986.409   -16595.053    31626.138    83.169396 
   91400    1806.7566   -106.47866    1.6347914   -104.84387   -26245.194    4.3579249    4.3579249    4.3579249   -26245.194   -35877.107   -44523.521    1665.0465   -71024.631   -4934.3227   -22876.997    82.763573 
   91500    1576.6147   -106.26698    1.4265541   -104.84043   -7284.5995    4.3395687    4.3395687    4.3395687   -7284.5995   -29241.578   -14009.954    21397.733    46997.224    6566.8892   -17165.406    81.722134 
   91600    2145.0409   -106.78455     1.940878   -104.84367   -506.99971    4.3396389    4.3396389    4.3396389   -506.99971   -55538.982    44854.099    9163.8834   -2939.7947    -34149.18    9504.2231    81.726099 
   91700    2165.8568   -106.80704    1.9597128   -104.84732    17922.535    4.3486948    4.3486948    4.3486948    17922.535   -2684.8778    19048.389    37404.095    -4916.658    9749.2708   -30373.076    82.238806 
   91800    1121.9469    -105.8763    1.0151611   -104.86114   -10279.687    4.3664367    4.3664367    4.3664367   -10279.687   -63597.121     14154.61     18603.45    63440.798    -30034.27   -531.60584    83.249478 
   91900    2596.2121   -107.16905    2.3491072   -104.81995   -9689.4516    4.3655377    4.3655377    4.3655377   -9689.4516   -33136.425    14485.499   -10417.429   -16184.294    2536.8681   -8487.0639    83.198065 
   92000    1803.2262   -106.45888     1.631597   -104.82729    13565.283    4.3423258    4.3423258    4.3423258    13565.283    11252.653    7985.5308    21457.666    41413.643   -11253.633   -38973.005       81.878 
   92100     1817.112   -106.48384    1.6441611   -104.83968   -6837.2403    4.3398842    4.3398842    4.3398842   -6837.2403   -40243.514    37865.165   -18133.372   -3219.6472   -40405.693   -4050.7764    81.739961 
   92200    2784.2819   -107.35674    2.5192768   -104.83746    7297.1673    4.3443538    4.3443538    4.3443538    7297.1673    17728.987   -7842.6104    12005.125   -7044.2821    39540.935   -12212.626     81.99277 
   92300    1136.3211    -105.8958    1.0281672   -104.86763    12977.118    4.3545561    4.3545561    4.3545561    12977.118    31834.604   -950.45954    8047.2089    16631.927   -62254.975   -32898.778    82.571784 
   92400    2108.1556   -106.75592    1.9075035   -104.84841    -15248.85    4.3629759    4.3629759    4.3629759    -15248.85   -44790.633    16976.237   -17932.153   -2015.6625   -13802.496    1753.6197    83.051685 
   92500    1996.7771   -106.65485    1.8067259   -104.84812    30590.599    4.3420189    4.3420189    4.3420189    30590.599    51022.504    9003.5526    31745.741    3466.4333    12616.071   -5477.6021    81.860638 
   92600    1066.5234   -105.85021   0.96501276    -104.8852   -23158.708     4.337427     4.337427     4.337427   -23158.708   -68751.001    32031.423   -32756.548    11405.083   -93500.171   -20163.036    81.601201 
   92700    3190.1993   -107.74346    2.8865594    -104.8569    27976.766    4.3410976    4.3410976    4.3410976    27976.766    61370.564    3680.1943    18879.541     517.7257    29277.994     3634.136    81.808541 
   92800     1264.298    -106.0325    1.1439634   -104.88854    11114.813    4.3547244    4.3547244    4.3547244    11114.813   -12541.576    53260.945   -7374.9301    7730.3189   -86191.522   -12988.347    82.581362 
   92900    1350.1336   -106.07417    1.2216292   -104.85254   -27960.126    4.3775242    4.3775242    4.3775242   -27960.126   -61704.956   -21938.512   -236.90872     46092.15    19396.228   -24412.232    83.885262 
   93000    2220.5272   -106.82361    2.0091797   -104.81443   -4606.7911     4.357605     4.357605     4.357605   -4606.7911   -38217.445    50878.545   -26481.473   -9158.2172   -28333.187    3675.9186    82.745345 
   93100    1879.1564    -106.5056    1.7003002    -104.8053   -5456.6687    4.3396645    4.3396645    4.3396645   -5456.6687   -22552.443    14906.382   -8723.9452     26139.98   -41304.613   -13231.202    81.727547 
   93200     1696.095   -106.36261    1.5346624   -104.82795   -6661.3652    4.3453596    4.3453596    4.3453596   -6661.3652    -26673.14   -8410.0513    15099.096    21980.175    43833.991   -6904.1925    82.049734 
   93300    2146.6258   -106.77938    1.9423122   -104.83707    17483.443    4.3527153    4.3527153    4.3527153    17483.443    11890.859    53146.892   -12587.421   -15269.996   -19675.164    10345.035    82.467113 
   93400    1193.0292   -105.92945    1.0794779   -104.84997   -25951.433    4.3669519    4.3669519    4.3669519   -25951.433   -44439.579   -11599.656   -21815.064    60971.177    16023.294   -10927.197    83.278944 
   93500    2337.6053   -106.95721    2.1151144    -104.8421   -8317.6027    4.3531629    4.3531629    4.3531629   -8317.6027   -20451.389    30146.722   -34648.141   -34430.335    54629.077   -11625.443    82.492553 
   93600    2097.3088   -106.72903    1.8976891   -104.83134    49606.974    4.3323034    4.3323034    4.3323034    49606.974     27035.69    70338.566    51446.668    38620.542   -17624.758    9121.1705    81.312366 
   93700    1326.6652   -106.05817    1.2003946   -104.85777   -19755.766    4.3448923    4.3448923    4.3448923   -19755.766   -49201.109    40778.029   -50844.219    24186.864    79629.763   -18939.177    82.023265 
   93800    2398.1765    -106.9995    2.1699205   -104.82958   -5426.3989    4.3623367    4.3623367    4.3623367   -5426.3989   -11000.304   -6359.2516    1080.3588   -3259.0097   -14202.316    3904.4924    83.015184 
   93900    1565.5475   -106.25265    1.4165403   -104.83611   -35583.399    4.3645328    4.3645328    4.3645328   -35583.399   -82689.995   -12875.545   -11184.659    48320.532    49986.845    57.381119    83.140626 
   94000    2155.7498   -106.78487    1.9505678    -104.8343    3641.7752    4.3539354    4.3539354    4.3539354    3641.7752    24852.017    39724.892   -53651.583   -13544.114    41084.535    -18921.47    82.536481 
   94100    2486.8355    -107.0804     2.250141   -104.83025    4593.4458    4.3408314    4.3408314    4.3408314    4593.4458   -27781.779    23183.182    18378.935    34873.474    4269.1321   -8835.3739    81.793493 
   94200    977.28356   -105.74935    0.8842667   -104.86508    23797.411     4.339725     4.339725     4.339725    23797.411    -11035.94    71940.075    10488.098    10140.477    80940.891   -377.93544    81.730968 
   94300    2696.1844   -107.28054    2.4395643   -104.84098     18242.35    4.3628511    4.3628511    4.3628511     18242.35     14624.29    24255.788    15846.971   -8669.1999   -38172.661    -10884.47    83.044554 
   94400    1506.8607   -106.20478    1.3634392   -104.84134   -23760.261    4.3768077    4.3768077    4.3768077   -23760.261   -18321.195    29682.165   -82641.753     10140.22    85160.631    4419.9131    83.844077 
   94500    2500.0462   -107.06436    2.2620943   -104.80227   -10553.953    4.3700213    4.3700213    4.3700213   -10553.953   -27144.117   -9310.2274    4792.4838     4269.684   -21520.088    1792.1006    83.454672 
   94600    1783.9906   -106.41858    1.6141922   -104.80439   -1041.3193    4.3523434    4.3523434    4.3523434   -1041.3193    831.35698    49894.949   -53850.264   -8276.6752    19965.747   -5760.3161    82.445975 
   94700    1775.9288   -106.43186    1.6068977   -104.82496   -2274.5145    4.3356682    4.3356682    4.3356682   -2274.5145   -6683.1871    22269.721   -22410.078    44463.249    36654.054    15788.578    81.501974 
   94800    2393.0695    -107.0062    2.1652995    -104.8409    28447.958    4.3341822    4.3341822    4.3341822    28447.958    44955.985    28119.404    12268.485    3641.4897   -24398.147   -4633.9643    81.418198 
   94900    1461.6922   -106.19757    1.3225699     -104.875   -27481.211    4.3576042    4.3576042    4.3576042   -27481.211    -41635.73    1503.3099   -42311.213    18113.508    41563.128   -8981.6028      82.7453 
   95000    1866.6854   -106.55816    1.6890162   -104.86914   -21662.687    4.3459872    4.3459872    4.3459872   -21662.687    16064.494   -65806.977   -15245.579    42223.683    -1466.276    47855.698     82.08529 
   95100    1935.2423   -106.60865    1.7510479    -104.8576    20908.843    4.3348717    4.3348717    4.3348717    20908.843    52218.397     9687.204    820.92745   -25785.359    28509.868   -11008.986    81.457063 
   95200    1506.1612   -106.22983    1.3628063   -104.86703    -23474.11    4.3468604    4.3468604    4.3468604    -23474.11    15699.345   -22618.822   -63502.853     7362.657    41280.233    22135.047    82.134778 
   95300    1881.7584   -106.56424    1.7026545   -104.86158    6511.5814     4.343204     4.343204     4.343204    6511.5814     80191.71   -28528.906    -32128.06    15575.117   -10225.969    50865.047    81.927686 
   95400    2740.5718   -107.32809     2.479727   -104.84836    3678.7954    4.3543252    4.3543252    4.3543252    3678.7954    326.71737    43621.385   -32911.717   -19606.961    29238.755   -17077.982    82.558649 
   95500    1003.5834   -105.79819   0.90806334   -104.89013   -27458.163    4.3486681    4.3486681    4.3486681   -27458.163    31056.147    -34472.26   -78958.376    16318.197    394.34378    81484.973    82.237291 
   95600    1700.3233   -106.41696    1.5384883   -104.87847    39150.374    4.3316651    4.3316651    4.3316651    39150.374     23477.91    92363.745    1609.4687    24620.968   -14776.305   -32405.259    81.276432 
   95700    2533.8905   -107.15816    2.2927173   -104.86545     3553.248    4.3460928    4.3460928    4.3460928     3553.248    40159.348   -13430.591   -16069.013   -19977.382    13079.423    42020.652    82.091271 
   95800    1352.8434    -106.0891    1.2240812   -104.86502    24200.143    4.3539897    4.3539897    4.3539897    24200.143    59046.966    36763.633   -23210.169    34012.166   -7729.3796   -2220.9958    82.539568 
   95900    1602.9297   -106.31174    1.4503645   -104.86138   -15044.848    4.3708818    4.3708818    4.3708818   -15044.848   -10814.437    13325.726   -47645.833   -7899.4797   -22014.607   -21323.396    83.503981 
   96000    2924.6867   -107.47099     2.646318   -104.82467    4777.9903     4.362355     4.362355     4.362355    4777.9903    19759.438    4929.5335       -10355    8938.7055     9304.331    12866.505    83.016232 
   96100    1533.3783   -106.23479    1.3874329   -104.84735   -1598.4752    4.3288423    4.3288423    4.3288423   -1598.4752    10737.211    11293.609   -26826.246    33237.969   -22198.208   -44804.643    81.117637 
   96200    1724.5878   -106.42287    1.5604433   -104.86243   -6311.5706    4.3267959    4.3267959    4.3267959   -6311.5706      35006.7   -5685.5405   -48255.872   -12900.475   -12853.793    19964.044    81.002653 
   96300    2122.4032   -106.78908     1.920395   -104.86868    6510.6886    4.3395259    4.3395259    4.3395259    6510.6886     17829.63    19419.055    -17716.62    27182.816     9276.058    36306.027    81.719719 
   96400    2036.7056   -106.71243     1.842854   -104.86957   -18927.339    4.3661031    4.3661031    4.3661031   -18927.339    -28134.99   -4310.3552   -24336.671    2755.1258   -31442.233   -33228.965    83.230395 
   96500    1408.4321   -106.12014     1.274379   -104.84576   -55389.115    4.3756995    4.3756995    4.3756995   -55389.115    22638.911   -85065.785   -103740.47   -10933.231    4781.7047    45733.187     83.78041 
   96600    2725.2499   -107.29018    2.4658634   -104.82432    22480.456    4.3362418    4.3362418    4.3362418    22480.456   -9010.0082    82951.862   -6500.4856    20167.413    28062.184   -9763.4853    81.534325 
   96700     1444.136   -106.14604    1.3066846   -104.83936    12643.484     4.317083     4.317083     4.317083    12643.484    57934.806   -31004.419    11000.066   -10236.917   -12984.228    35254.358    80.458363 
   96800    1699.1984   -106.40321    1.5374704   -104.86574   -16467.431    4.3350745    4.3350745    4.3350745   -16467.431    18127.181   -15954.148   -51575.325   -13156.385    20874.249    14289.839    81.468497 
   96900    2261.4911   -106.91328    2.0462447   -104.86704    18031.334    4.3537069    4.3537069    4.3537069    18031.334    16241.013    16160.123    21692.866    19377.658     32317.29   -5258.5636    82.523487 
   97000    1992.1549   -106.66772    1.8025437   -104.86518   -12962.425    4.3654381    4.3654381    4.3654381   -12962.425    27636.644   -53273.386   -13250.533   -24432.865   -5244.5638    35140.892    83.192374 
   97100    1437.2648   -106.17583    1.3004674   -104.87536   -24631.727    4.3427052    4.3427052    4.3427052   -24631.727   -21034.763    20944.176   -73804.594   -515.87816    56811.382   -21268.414     81.89946 
   97200     2353.236   -106.97538    2.1292574   -104.84612    47134.607    4.3186322    4.3186322    4.3186322    47134.607    74774.866    23354.888    43274.066    17899.405   -7047.7602    2459.9974    80.545011 
   97300    1966.4922   -106.65004    1.7793235   -104.87072   -4119.3681    4.3373231    4.3373231    4.3373231   -4119.3681   -10782.428   -26883.509    25307.832   -67145.798     16571.41    6779.5804    81.595332 
   97400    2055.4964   -106.72414    1.8598564   -104.86428    2152.4042    4.3491675    4.3491675    4.3491675    2152.4042    63384.789   -11865.221   -45062.355     19832.78    24993.323   -18692.639    82.265627 
   97500    1183.2031   -105.94725    1.0705871   -104.87666   -42145.427    4.3553136    4.3553136    4.3553136   -42145.427   -68958.627   -55021.241   -2456.4118   -33046.776   -24042.328   -5878.3641    82.614882 
   97600    2198.0921   -106.85712      1.98888   -104.86824   -9941.7495    4.3434688    4.3434688    4.3434688   -9941.7495   -3928.2522   -40895.024    14998.027   -40939.779    4548.9787    9027.7953    81.942672 
   97700      2535.38   -107.14367    2.2940651    -104.8496    24383.666    4.3302992    4.3302992    4.3302992    24383.666    73493.358   -18676.409     18334.05   -7528.3438   -14936.519   -14300.527    81.199565 
   97800     1268.292   -106.01792    1.1475773   -104.87035   -16444.552    4.3430095    4.3430095    4.3430095   -16444.552   -60353.222   -63130.895    74150.461   -59998.285   -15099.996    502.38132    81.916678 
   97900    2113.5107   -106.74921    1.9123489   -104.83686    5871.6356    4.3504206    4.3504206    4.3504206    5871.6356    33473.952    19827.413   -35686.458    27837.785    26727.394    8080.7296    82.336754 
   98000    1644.5597   -106.32596    1.4880322   -104.83793   -20370.326    4.3626174    4.3626174    4.3626174   -20370.326   -12667.825   -42347.813   -6095.3387   -79668.568    -3448.303   -10531.013    83.031213 
   98100    2388.5382   -106.99138    2.1611996   -104.83018   -20914.962    4.3558549    4.3558549    4.3558549   -20914.962   -17641.921   -19969.574   -25133.391    8149.9255    670.54682     6319.021     82.64569 
   98200    1369.2768   -106.09372    1.2389504   -104.85477     6213.694    4.3207233    4.3207233    4.3207233     6213.694   -10663.618    35119.981    -5815.281    -15063.32    55929.233    27705.476     80.66207 
   98300    2023.5715   -106.69335    1.8309701   -104.86238    6719.0945    4.3226938    4.3226938    4.3226938    6719.0945   -2022.0629   -22869.467    45048.813   -53472.623    -12574.31   -32682.148    80.772483 
   98400    1921.7105   -106.59776    1.7388041   -104.85896   -6038.7855    4.3478932    4.3478932    4.3478932   -6038.7855   -9000.0475    70243.371    -79359.68    13464.799    37827.188   -14923.973    82.193338 
   98500    1710.4734   -106.38995    1.5476723   -104.84228   -18571.122    4.3621473    4.3621473    4.3621473   -18571.122   -2864.1472   -25718.839   -27130.381   -39192.518    20474.139    19535.779    83.004376 
   98600     2110.194   -106.73686    1.9093479   -104.82752   -29629.162    4.3602271    4.3602271    4.3602271   -29629.162    10057.115   -37413.956   -61530.644    6813.3391    4286.5316   -58745.301    82.894807 
   98700    2227.2535    -106.8477    2.0152657   -104.83244   -3630.4648    4.3355367    4.3355367    4.3355367   -3630.4648   -29742.589    54310.837   -35459.642   -4502.4862    56934.694    13874.793    81.494557 
   98800    1630.1556   -106.31541     1.474999   -104.84041    14295.215    4.3232166    4.3232166    4.3232166    14295.215    58860.365   -24493.648    8518.9296   -36995.408   -22058.982   -46607.526    80.801789 
   98900    1825.4258   -106.51174    1.6516836   -104.86006   -25067.508    4.3450177    4.3450177    4.3450177   -25067.508   -14604.257    3135.7389   -63734.005    18516.542    42822.947   -24726.325    82.030364 
   99000    2200.0951   -106.82844    1.9906923   -104.83775   -2596.5392     4.359392     4.359392     4.359392   -2596.5392   -25996.228   -9203.5838    27410.194    13148.429    16032.818   -5152.5933    82.847188 
   99100     2045.482   -106.67752    1.8507951   -104.82672   -5217.9135    4.3624144    4.3624144    4.3624144   -5217.9135    21225.237   -36991.255    112.27711   -37378.168   -12430.795   -32642.911    83.019622 
   99200     1314.908    -106.0184    1.1897564   -104.82865   -24705.275     4.360087     4.360087     4.360087   -24705.275   -76242.504   -11062.548    13189.228    54850.849    36276.086    7823.2253     82.88682 
   99300    2571.0029   -107.13982    2.3262974   -104.81352    21351.962    4.3429805    4.3429805    4.3429805    21351.962    8179.2601    2715.7184    53160.907   -1742.8338     -10718.5   -33714.448     81.91504 
   99400    1897.7273   -106.55466    1.7171036   -104.83756    27429.738      4.33796      4.33796      4.33796    27429.738   -15265.126    64986.644    32567.696    26491.227    38007.816   -2917.5746    81.631282 
   99500    1576.4833   -106.27497    1.4264352   -104.84854   -18731.697    4.3477823    4.3477823    4.3477823   -18731.697    -45502.82    6757.3275   -17449.598     40364.73    -6334.445   -3878.8023    82.187044 
   99600    2084.5834   -106.73333    1.8861749   -104.84716    8795.6049    4.3412907    4.3412907    4.3412907    8795.6049    7896.3565    37071.449   -18580.991   -30429.654   -11444.448   -35422.362    81.819461 
   99700    1528.9766    -106.2412    1.3834502   -104.85775    6238.4894    4.3476824    4.3476824    4.3476824    6238.4894   -38190.122    45632.254    11273.336    46392.351    45778.039    2514.4202    82.181378 
   99800    2247.5508   -106.87335    2.0336312   -104.83972   -13398.339    4.3597825    4.3597825    4.3597825   -13398.339    8154.3181   -51177.345    2828.0089    12861.432   -14548.132   -24767.542    82.869451 
   99900    1791.5495   -106.45183    1.6210317    -104.8308    5325.8494    4.3519694    4.3519694    4.3519694    5325.8494     18044.55    9693.7892   -11760.791   -2922.1644    35378.382   -15008.725    82.424723 
  100000    1440.4647   -106.13678    1.3033627   -104.83342   -6131.6249    4.3520584    4.3520584    4.3520584   -6131.6249   -19335.137   -21244.676    22184.938    42358.464     16981.11   -9507.8444    82.429778 
Loop time of 22.008 on 1 procs for 100000 steps with 8 atoms

Pair  time (%) = 6.75171 (30.6785)
Kspce time (%) = 5.29151 (24.0436)
Neigh time (%) = 0.263278 (1.19629)
Comm  time (%) = 1.02893 (4.67528)
Outpt time (%) = 0.0244281 (0.110997)
Other time (%) = 8.64811 (39.2954)

Nlocal:    8 ave 8 max 8 min
Histogram: 1 0 0 0 0 0 0 0 0 0
Nghost:    1948 ave 1948 max 1948 min
Histogram: 1 0 0 0 0 0 0 0 0 0
Neighs:    2150 ave 2150 max 2150 min
Histogram: 1 0 0 0 0 0 0 0 0 0

Total # of neighbors = 2150
Ave neighs/atom = 268.75
Neighbor list builds = 3224
Dangerous builds = 0
unfix 20
unfix 21
print "seeds:8120478"
seeds:8120478
