LAMMPS (10 Feb 2015)
# ---- initialize simulations
clear
units metal
dimension 3
boundary p p p
atom_style charge
atom_modify map array
# ---- create atoms
read_data /Users/eugeneragasa/pyflamestk_git/pypospack/tests/tests_integration/workflow/WorkflowLammpsThermalExpansion/param_3867/MgO_NaCl_unit.npt.T1700/lammps.structure
  triclinic box = (0 0 0) to (4.2565 4.2565 4.2565) with tilt (0 0 0)
  1 by 1 by 1 MPI processor grid
  reading atoms ...
  8 atoms
# ---- define interatomic potential
include potential.mod
mass 1 24.305
mass 2 15.999

group Mg type 1
4 atoms in group Mg
group O type 2
4 atoms in group O

set group Mg charge 1.73479148785
  4 settings made for charge
set group O charge -1.73479148785
  4 settings made for charge

variable R_cut equal 10.0

pair_style buck/coul/long ${R_cut}
pair_style buck/coul/long 10
pair_coeff 1 1 0.0 0.5 0.0 ${R_cut}
pair_coeff 1 1 0.0 0.5 0.0 10
pair_coeff 1 2 1225.32983502 0.291530354982 0.0 ${R_cut}
pair_coeff 1 2 1225.32983502 0.291530354982 0.0 10
pair_coeff 2 2 16858.6500597 0.120403294253 7.45918898041 ${R_cut}
pair_coeff 2 2 16858.6500597 0.120403294253 7.45918898041 10

kspace_style pppm 1.0e-5

neighbor 1.0 bin
neigh_modify every 1 delay 0 check yes
# ---- define settings
compute eng all pe/atom
compute eatoms all reduce sum c_eng
# ---- run minimization
reset_timestep 0
fix 1 all box/relax iso 0.0 vmax 0.001
thermo 10
thermo_style custom step pe lx ly lz xy xz yz press pxx pyy pzz pxy pxz pyz c_eatoms
min_style cg
minimize 1e-25 1e-25 5000 10000
PPPM initialization ...
  G vector (1/distance) = 0.3534
  grid = 8 8 8
  stencil order = 5
  estimated absolute RMS force accuracy = 4.23269e-05
  estimated relative force accuracy = 2.93944e-06
  using double precision FFTs
  3d grid and FFT values/proc = 3375 512
Neighbor list info ...
  1 neighbor list requests
  update every 1 steps, delay 0 steps, check yes
  master list distance cutoff = 11
Memory usage per processor = 4.06549 Mbytes
Step PotEng Lx Ly Lz Xy Xz Yz Press Pxx Pyy Pzz Pxy Pxz Pyz eatoms 
       0   -122.62677       4.2565       4.2565       4.2565            0            0            0    18600.794    18600.794    18600.794    18600.794 4.9707872e-11 4.7042733e-11 1.8950886e-10   -122.62677 
       5   -122.63132    4.2712858    4.2712858    4.2712858            0            0            0   -6.7076035   -6.7076035   -6.7076035   -6.7076035 9.5134085e-11 4.9732958e-12 8.6603347e-11   -122.63132 
Loop time of 0.00742006 on 1 procs for 5 steps with 8 atoms

Minimization stats:
  Stopping criterion = linesearch alpha is zero
  Energy initial, next-to-last, final = 
        -122.626768711     -122.631316441     -122.631316441
  Force two-norm initial, final = 2.68597 0.0019334
  Force max component initial, final = 2.68596 0.000975322
  Final line search alpha, max atom move = 0.00390625 3.80985e-06
  Iterations, force evaluations = 5 22

Pair  time (%) = 0.00203443 (27.4179)
Kspce time (%) = 0.00118971 (16.0337)
Neigh time (%) = 0 (0)
Comm  time (%) = 0.000232458 (3.13283)
Outpt time (%) = 0 (0)
Other time (%) = 0.00396347 (53.4156)

Nlocal:    8 ave 8 max 8 min
Histogram: 1 0 0 0 0 0 0 0 0 0
Nghost:    2189 ave 2189 max 2189 min
Histogram: 1 0 0 0 0 0 0 0 0 0
Neighs:    2344 ave 2344 max 2344 min
Histogram: 1 0 0 0 0 0 0 0 0 0

Total # of neighbors = 2344
Ave neighs/atom = 293
Neighbor list builds = 0
Dangerous builds = 0
unfix 1
# ---- define output variables ----
variable natoms equal "count(all)"
variable tot_energy equal "c_eatoms"
variable length_x equal "lx"
variable length_y equal "ly"
variable length_z equal "lz"
variable tilt_xy equal "xy"
variable tilt_xz equal "xz"
variable tilt_yz equal "yz"
variable tot_press equal "press"
variable press_xx equal "pxx"
variable press_yy equal "pyy"
variable press_zz equal "pzz"
variable press_xy equal "pxy"
variable press_xz equal "pxz"
variable press_yz equal "pyz"

# ---- output ----
print "pypospack:output_section:begin"
pypospack:output_section:begin
print "tot_energy = ${tot_energy}"
tot_energy = -122.631316441343
print "num_atoms = ${natoms}"
num_atoms = 8
print "xx = ${length_x}"
xx = 4.27128583299446
print "yy = ${length_y}"
yy = 4.27128583299446
print "zz = ${length_z}"
zz = 4.27128583299446
print "xy = ${tilt_xy}"
xy = 0
print "xz = ${tilt_xz}"
xz = 0
print "yz = ${tilt_yz}"
yz = 0
print "tot_press = ${tot_press}"
tot_press = -6.70760353710228
print "pxx = ${press_xx}"
pxx = -6.70760353705429
print "pyy = ${press_yy}"
pyy = -6.70760353725253
print "pzz = ${press_zz}"
pzz = -6.70760353700002
print "pxy = ${press_xy}"
pxy = 9.51340852761742e-11
print "pxz = ${press_xz}"
pxz = 4.97329584958765e-12
print "pyz = ${press_yz}"
pyz = 8.66033470907354e-11
print "pypospack:output_section:done"
pypospack:output_section:done
print "pypospack:lammps_sim:done"
pypospack:lammps_sim:done
#------------------------------------------------------------------------------
# RUN THERMOSTAT
# running using an NPT Nose-Hoover style thermostat
#------------------------------------------------------------------------------
variable tempdamp equal 0.1
variable pressdamp equal 1.0
# set initial velocities
velocity all create 1700 8350109 mom yes dist gaussian loop all
# fix for Nose-Hoover style thermostat
fix 20 all npt temp 1700 1700 0.1 aniso 0.0 0.0 1.0 drag 1.0 couple xyz
variable boxx equal lx
variable boxy equal ly
variable boxz equal lz
variable boxp equal press
variable boxt equal temp
# calculate averages every 10000 steps
reset_timestep 0
fix 21 all ave/time 10 10 100 v_boxx v_boxy v_boxz v_boxp v_boxt file lattice.out
thermo_style custom step temp pe ke etotal press lx ly lz press pxx pyy pzz pxy pxz pyz vol
thermo_modify flush yes
thermo 100
run 100000
PPPM initialization ...
  G vector (1/distance) = 0.353246
  grid = 8 8 8
  stencil order = 5
  estimated absolute RMS force accuracy = 4.26311e-05
  estimated relative force accuracy = 2.96057e-06
  using double precision FFTs
  3d grid and FFT values/proc = 3375 512
Memory usage per processor = 3.06549 Mbytes
Step Temp PotEng KinEng TotEng Press Lx Ly Lz Press Pxx Pyy Pzz Pxy Pxz Pyz Volume 
       0         1700   -122.63132    1.5381957   -121.09312    21076.786    4.2712858    4.2712858    4.2712858    21076.786    15002.378    25809.843    22418.137   -13858.502    -366.4381    7905.9112    77.924838 
     100    844.14605   -121.66415   0.76380108   -120.90034    37116.369    4.3004654    4.3004654    4.3004654    37116.369    18880.813    38720.468    53747.825    8984.8172    5387.4817    2970.8148     79.53282 
     200    1219.1141    -121.5883      1.10308   -120.48522   -45390.467    4.3464175    4.3464175    4.3464175   -45390.467   -70228.551   -57304.799   -8638.0526    14205.358     11019.58    13434.108    82.109675 
     300    1335.8882   -121.30529    1.2087397   -120.09655   -13713.322    4.3441115    4.3441115    4.3441115   -13713.322   -7899.2722   -4445.8879   -28794.807    253.50527     7304.624   -4537.7725    81.979053 
     400    2150.4821   -121.74076    1.9458014   -119.79496    36220.481    4.3074902    4.3074902    4.3074902    36220.481    15393.508    53113.481    40154.455    1704.8691   -13815.609   -28473.869    79.923208 
     500    1966.7838   -121.40843    1.7795873   -119.62884    25231.042    4.3144022    4.3144022    4.3144022    25231.042    21060.787    34696.577    19935.761    2078.0534     -768.783    19212.779    80.308567 
     600    1117.4748    -120.5615    1.0111147   -119.55038   -29482.897    4.3582113    4.3582113    4.3582113   -29482.897   -61337.613    36115.283   -63226.362    9900.4614    18103.343   -11743.284    82.779888 
     700    1672.2942   -121.00379    1.5131269   -119.49066    -48957.12    4.3559124    4.3559124    4.3559124    -48957.12   -45564.951   -42368.178   -58938.232    7607.5313   -5375.8492    3204.1762    82.648962 
     800     2109.432   -121.37498    1.9086584   -119.46632    23621.978    4.3187997    4.3187997    4.3187997    23621.978    41358.495    41816.788   -12309.349   -8628.9047   -10323.064    7213.3372    80.554384 
     900    1812.1728   -121.16899     1.639692   -119.52929    -5159.486     4.331639     4.331639     4.331639    -5159.486   -25561.195    28002.084   -17919.347    9291.6949    26091.087    1608.5641    81.274962 
    1000    1477.9659    -120.8736    1.3372946   -119.53631     -31304.6    4.3560413    4.3560413    4.3560413     -31304.6   -44937.075    24162.537   -73139.263    3514.2843     22754.64    12453.211    82.656299 
    1100    1540.1604   -120.91109    1.3935695   -119.51752     -1003.92    4.3471041    4.3471041    4.3471041     -1003.92    25276.266    24170.989   -52459.015    1781.0431   -2046.8595    9604.0428    82.148594 
    1200    2037.4131   -121.34532    1.8434942   -119.50182     10372.45    4.3315129    4.3315129    4.3315129     10372.45    21474.037    28867.254   -19223.939   -8704.1916   -10547.242    2244.9276    81.267861 
    1300    1977.0123   -121.30876    1.7888423   -119.51992   -16922.014    4.3407287    4.3407287    4.3407287   -16922.014      22192.1   -22956.715   -50001.426   -1414.6995    477.85391    29349.765    81.787686 
    1400    1462.1279   -120.84106    1.3229641    -119.5181   -11692.637    4.3510519    4.3510519    4.3510519   -11692.637   -18269.977    28757.271   -45565.203    10648.252    20742.114    24366.842    82.372606 
    1500    1472.4851   -120.83455    1.3323355   -119.50222    20895.019    4.3440661    4.3440661    4.3440661    20895.019    4294.8217    50511.672    7878.5622   -29513.141    7318.0057   -78.785351    81.976481 
    1600    2082.9465   -121.36783    1.8846938   -119.48313   -3472.0904    4.3437801    4.3437801    4.3437801   -3472.0904     11711.26    5504.6079   -27632.139    6006.8356   -4927.9566   -3146.6359    81.960292 
    1700    1104.6095   -120.48563   0.99947385   -119.48616    126.00554    4.3520991    4.3520991    4.3520991    126.00554    26995.069     31774.16   -58391.212    15053.412    12575.294   -6386.2837    82.432091 
    1800    1678.0789   -120.99795    1.5183611   -119.47959   -35260.291    4.3436527    4.3436527    4.3436527   -35260.291    1563.5804   -49042.325   -58302.128    4268.1446   -3117.3285    21954.293    81.953079 
    1900    1626.5427    -120.9538      1.47173   -119.48207    30632.957     4.317686     4.317686     4.317686    30632.957    26651.329    52350.305    12897.236   -6677.1109   -6734.3384    5035.6065     80.49208 
    2000    1960.9201   -121.29105    1.7742817   -119.51677   -18605.212    4.3276188    4.3276188    4.3276188   -18605.212   -18830.794   -35291.714   -1693.1293    13107.153    13490.145    -8457.755    81.048874 
    2100    870.44511   -120.31693   0.78759702   -119.52934   -25753.737    4.3565365    4.3565365    4.3565365   -25753.737    35607.275   -57135.004    -55733.48    40972.548    8291.4256    10814.754    82.684495 
    2200    1951.9854   -121.26125    1.7661974   -119.49506    -38882.01     4.347348     4.347348     4.347348    -38882.01   -10727.442   -46824.888   -59093.698    3773.4043     19784.04    23417.451    82.162417 
    2300    1460.8869   -120.80575    1.3218411    -119.4839    37045.205    4.3318963    4.3318963    4.3318963    37045.205    40420.763     48002.71    22712.141   -7332.6863    1452.3263     4985.713    81.289445 
    2400    1736.1011   -121.07029    1.5708608   -119.49943   -17481.676    4.3366557    4.3366557    4.3366557   -17481.676    11553.334   -51556.419   -12441.942        41321   -5499.1664   -13236.025    81.557672 
    2500    1293.3603   -120.67415    1.1702596   -119.50389    10970.359    4.3384135    4.3384135    4.3384135    10970.359    9136.1814   -12756.117    36531.012    8022.9128    19416.698    24244.135    81.656891 
    2600    1511.5354   -120.88529     1.367669   -119.51762   -13338.166    4.3558351    4.3558351    4.3558351   -13338.166    11188.687   -56531.972    5328.7867    -5052.799    6931.3058     7835.992    82.644562 
    2700    1926.8949   -121.23328     1.743495   -119.48979   -33666.747    4.3562269    4.3562269    4.3562269   -33666.747    -38092.34   -47923.717   -14984.184    21395.788     5864.881   -6820.6466    82.666868 
    2800    1462.9137   -120.79839     1.323675   -119.47472    60450.057    4.3163184    4.3163184    4.3163184    60450.057    105077.39   -30229.006    106501.79    16433.148   -10417.275    2583.2796    80.415622 
    2900    1787.7354   -121.15615    1.6175805   -119.53857     1005.714    4.3235506    4.3235506    4.3235506     1005.714     33597.96   -4862.3859   -25718.432   -863.02129   -2200.3723   -1801.6276    80.820522 
    3000    1436.1294   -120.85717    1.2994401   -119.55773   -50282.528    4.3689624    4.3689624    4.3689624   -50282.528   -25708.425    -18374.92   -106764.24    5560.3351    -10023.64    18223.867    83.394025 
    3100    1280.6766   -120.66215    1.1587831   -119.50337   -35053.097    4.3709494    4.3709494    4.3709494   -35053.097   -30824.494    -21888.71   -52446.088    33874.092   -13638.058    1845.9875    83.507859 
    3200    1479.7748   -120.78895    1.3389313   -119.45002   -3183.0772     4.344564     4.344564     4.344564   -3183.0772    18785.858   -18312.881   -10022.208    23133.781    3712.4803   -7319.9412    82.004671 
    3300    1535.2582   -120.85862    1.3891339   -119.46949    6631.6083    4.3410387    4.3410387    4.3410387    6631.6083   -6341.6735    64098.131   -37861.632   -988.53251    1808.5017    10222.438    81.805213 
    3400    1560.2376   -120.90925    1.4117358   -119.49751   -30395.329    4.3521142    4.3521142    4.3521142   -30395.329   -17490.257   -16750.003   -56945.727    4829.2915    294.19559    7067.1337    82.432951 
    3500    1181.0346   -120.56711     1.068625   -119.49849    17354.448    4.3482251    4.3482251    4.3482251    17354.448    23666.351    8803.2348    19593.759    26233.673    6291.3682   -13157.005    82.212158 
    3600    1521.0963   -120.89325    1.3763199   -119.51693   -20423.672    4.3609878    4.3609878    4.3609878   -20423.672   -36026.915   -12443.478   -12800.623    8216.1793   -6023.1003    17925.725    82.938204 
    3700    1278.8495   -120.65499    1.1571299   -119.49786    7087.6155    4.3613639    4.3613639    4.3613639    7087.6155    42242.982   -20986.785    6.6492129   -13211.509    5971.4152   -1364.6636    82.959663 
    3800    2027.2798   -121.31326    1.8343254   -119.47894   -32967.833    4.3527647    4.3527647    4.3527647   -32967.833   -58813.947   -55683.291    15593.741     22417.66    14358.641   -7975.5861     82.46992 
    3900    1089.3268   -120.49755   0.98564574   -119.51191   -17176.654    4.3577872    4.3577872    4.3577872   -17176.654    18416.207   -39430.777   -30515.391    14098.876   -10749.588    18661.879    82.755728 
    4000    1419.2506   -120.79321    1.2841677   -119.50904   -7328.3494    4.3463428    4.3463428    4.3463428   -7328.3494   -40424.985     15380.39    3059.5464    3373.0268   -20953.204    21028.387     82.10544 
    4100    1633.4569   -120.98122    1.4779861   -119.50324    22639.027    4.3408245    4.3408245    4.3408245    22639.027    21018.305     59949.18   -13050.405    2905.0974    13520.528   -17714.413    81.793102 
    4200    1221.0286    -120.6235    1.1048124   -119.51869    6889.6902    4.3686116    4.3686116    4.3686116    6889.6902    15136.046    6279.4408   -746.41627    9943.8356    18786.052    -14325.39    83.373933 
    4300    1326.3841   -120.68233    1.2001402   -119.48219    459.69344    4.3676967    4.3676967    4.3676967    459.69344   -6917.0676     8689.914   -393.76602    25394.697    18950.672   -3838.2628    83.321562 
    4400    1381.0383   -120.71649    1.2495924    -119.4669    15070.264    4.3534085    4.3534085    4.3534085    15070.264    49415.597    28216.861   -32421.666   -9158.0835    11407.522    11558.453    82.506519 
    4500    1747.3316   -121.06702    1.5810224     -119.486   -19146.653    4.3620491    4.3620491    4.3620491   -19146.653   -11095.354    11768.505   -58113.111    22552.751    684.91259   -11982.081     82.99877 
    4600    1485.2603   -120.83133    1.3438947   -119.48744    14538.737    4.3541285    4.3541285    4.3541285    14538.737   -4709.2628    13323.177    35002.298    18518.791    11884.392   -2270.2752    82.547461 
    4700    1461.7859    -120.8269    1.3226546   -119.50424    1851.0817    4.3565264    4.3565264    4.3565264    1851.0817    22039.037    23203.506   -39689.298   -10991.516   -8887.8944    5156.9627    82.683921 
    4800    1503.3873   -120.85869    1.3602964    -119.4984   -41550.166    4.3826509    4.3826509    4.3826509   -41550.166    1163.9604   -60034.517   -65779.941   -5325.5211    3575.8457   -2495.7435     84.18033 
    4900    1749.6429   -121.03072    1.5831136   -119.44761   -33182.032    4.3812303    4.3812303    4.3812303   -33182.032   -23734.995   -49838.935   -25972.166    8209.9749    1309.6131   -9237.5248    84.098499 
    5000    1812.6585    -121.0673    1.6401315   -119.42717   -235.63039    4.3623186    4.3623186    4.3623186   -235.63039    27922.902    22091.268   -50721.061   -8657.6287   -5763.0341   -2524.1025    83.014155 
    5100    1465.7064   -120.80406    1.3262019   -119.47786    166.94627    4.3662011    4.3662011    4.3662011    166.94627   -27609.022    4879.1168    23230.744    15522.685   -32789.676   -14629.564    83.235999 
    5200    1375.3841   -120.72461    1.2444765   -119.48013    4968.7291    4.3785936    4.3785936    4.3785936    4968.7291   -3423.5182    25855.803    -7526.098    18694.868    -11894.68   -10391.069    83.946756 
    5300      1684.94   -120.98413    1.5245691   -119.45956   -13540.608    4.3796112    4.3796112    4.3796112   -13540.608   -26912.305   -8692.8842   -5016.6351    3234.9959    4521.8735   -18363.645    84.005297 
    5400     1399.632   -120.73779    1.2664164   -119.47137   -4069.9086    4.3669681    4.3669681    4.3669681   -4069.9086    36040.765   -41304.065    -6946.425    17822.499    13387.118   -640.13571    83.279876 
    5500    1932.2794   -121.22234     1.748367   -119.47397    7990.4775    4.3401794    4.3401794    4.3401794    7990.4775    3409.5657   -36845.132    57406.999    17683.369   -2139.5382    5881.6216     81.75664 
    5600    1826.2769    -121.1472    1.6524538   -119.49475    31255.773    4.3408637    4.3408637    4.3408637    31255.773    64193.147   -18052.667    47626.837    7864.1586       2224.6   -875.50454    81.795321 
    5700    1681.8811   -121.03683    1.5218013   -119.51503   -55631.153    4.3800502    4.3800502    4.3800502   -55631.153    7260.7955    -89573.08   -84581.174   -21004.384    4794.7935   -8129.8044    84.030559 
    5800    1805.7906   -121.10989    1.6339173   -119.47597   -70139.538    4.3780328    4.3780328    4.3780328   -70139.538    -53247.97   -88795.458   -68375.184   -3607.9934    1342.9867    2648.4261    83.914505 
    5900     1393.737   -120.72302    1.2610826   -119.46194    55781.716    4.3248919    4.3248919    4.3248919    55781.716    145365.24   -27900.541    49880.453    46203.476   -5271.6934    6643.1811    80.895761 
    6000    2001.0548   -121.31884    1.8105965   -119.50824    44939.685    4.3138029    4.3138029    4.3138029    44939.685    96652.958    44198.254   -6032.1587   -39898.329   -7944.2939    1640.5767    80.275107 
    6100    1624.3735    -121.0577    1.4697673   -119.58793   -16341.518    4.3650181    4.3650181    4.3650181   -16341.518    21947.066   -23881.269   -47090.352   -11405.622   -13731.801    981.67998    83.168364 
    6200    2008.7933   -121.32774    1.8175984   -119.51014   -50083.491    4.3849593    4.3849593    4.3849593   -50083.491    -30262.26   -62925.239   -57062.976    13386.029    4754.4419   -1956.7665     84.31342 
    6300     1856.576   -121.14355     1.679869   -119.46369    18305.454    4.3513568    4.3513568    4.3513568    18305.454    100931.58   -42443.444   -3571.7691   -4557.6729    14355.014   -10506.042    82.389924 
    6400    1853.8519   -121.14508    1.6774041   -119.46768    34861.283    4.3323035    4.3323035    4.3323035    34861.283    38535.115    40836.748    25211.987   -6771.9616    5292.0957   -15356.541    81.312372 
    6500    1776.2909   -121.11546    1.6072254   -119.50823    17721.274    4.3417365    4.3417365    4.3417365    17721.274    53518.305   -20104.174    19749.692    -7151.281   -8383.1587    10782.709    81.844668 
    6600    1876.8091   -121.24336    1.6981763   -119.54518   -15534.864    4.3645738    4.3645738    4.3645738   -15534.864    -53372.42   -31195.046    37962.873    594.68562    3484.7009    3830.9113    83.142971 
    6700    1731.4173    -121.0916    1.5666228   -119.52498   -10177.051    4.3636721    4.3636721    4.3636721   -10177.051    3563.5885   -7517.3108   -26577.431    10455.207    6491.3857   -7787.4155    83.091449 
    6800     2170.192   -121.44224    1.9636353   -119.47861    40332.701     4.324362     4.324362     4.324362    40332.701    16564.567    56382.654     48050.88    15800.094   -1244.5278    -5471.942    80.866033 
    6900    1631.8373   -121.01728    1.4765207   -119.54076    25700.454    4.3377456    4.3377456    4.3377456    25700.454    13266.973    43645.557    20188.831    9867.5684     8105.537     8521.672    81.619181 
    7000    1151.2763   -120.57571     1.041699   -119.53401   -31966.006    4.3874007    4.3874007    4.3874007   -31966.006   -50855.247    2483.2571   -47526.028     1315.789    2987.1609    15841.616    84.454328 
    7100    2046.0833   -121.31608    1.8513392   -119.46474     -39267.7     4.373529     4.373529     4.373529     -39267.7    -38258.79   -43000.997   -36543.312   -7671.2907   -1995.3783   -19651.138    83.655795 
    7200    1907.5698   -121.14553    1.7260092   -119.41952    32749.807    4.3243036    4.3243036    4.3243036    32749.807    7996.3931     73377.12    16875.907   -922.62808    9672.0839   -5356.4224    80.862754 
    7300    1604.3723   -120.94104    1.4516697   -119.48937    20504.463    4.3337167    4.3337167    4.3337167    20504.463   -18300.371    53332.328    26481.433    5454.5515    19021.452   -153.72217    81.391969 
    7400    2023.4112   -121.34618     1.830825   -119.51536   -35254.029    4.3703673    4.3703673    4.3703673   -35254.029     -67637.7    17548.045   -55672.431    -8586.797    -6369.454   -10230.519    83.474499 
    7500    2211.9061   -121.48688    2.0013791    -119.4855   -5876.2492    4.3681419    4.3681419    4.3681419   -5876.2492   -20913.758   -10192.134    13477.145     9190.582    4876.2337    19289.895    83.347044 
    7600    1496.9985   -120.83067    1.3545157   -119.47616    24950.948    4.3693268    4.3693268    4.3693268    24950.948    3377.2055   -3855.0544    75330.694    7051.1746   -6226.0621   -14461.974    83.414891 
    7700    1300.3745   -120.63506    1.1766062   -119.45846    9931.5827    4.3634173    4.3634173    4.3634173    9931.5827   -31789.684    114452.37   -52867.936    6783.0485   -23834.704   -26678.515    83.076893 
    7800    2450.6568   -121.65806    2.2174058   -119.44065   -9214.1593    4.3253896    4.3253896    4.3253896   -9214.1593   -9177.1408    -8380.374   -10084.963   -6777.9323   -14433.002   -1952.2949    80.923695 
    7900    1660.4139    -121.0065    1.5023774   -119.50413     57701.69    4.3249208    4.3249208    4.3249208     57701.69   -5154.1478    96926.319    81332.898     -9842.13    11564.519   -24246.634    80.897383 
    8000    1588.9997   -120.98292    1.4377603   -119.54516   -33385.283    4.3839262    4.3839262    4.3839262   -33385.283   -70851.668   -12064.994   -17239.186   -365.73964   -35564.448    8260.6534    84.253842 
    8100    2093.7464   -121.36637    1.8944658   -119.47191    -48261.15    4.3744461    4.3744461    4.3744461    -48261.15   -42128.504   -32050.617   -70604.329    6216.3382   -21833.208    14234.348    83.708432 
    8200    2247.6413   -121.46564    2.0337131   -119.43192    51844.637    4.3056928    4.3056928    4.3056928    51844.637     30685.63    48511.084    76337.198     22389.36    19549.305   -32817.863      79.8232 
    8300    1224.8463   -120.62912    1.1082667   -119.52085    56405.384    4.3195353    4.3195353    4.3195353    56405.384    52066.231    69631.126    47518.795    6430.6813   -13246.587   -23667.957    80.595552 
    8400    1816.4507   -121.15802    1.6435628   -119.51446   -60147.345    4.3701327    4.3701327    4.3701327   -60147.345   -80012.683   -15567.908   -84861.443   -634.49395   -36699.746   -3466.0226    83.461058 
    8500    1632.7928   -120.94843    1.4773852   -119.47105    29508.265    4.3522753    4.3522753    4.3522753    29508.265   -29452.538     74679.31    43298.024   -9493.6022   -11828.419   -28870.492    82.442104 
    8600    2263.1188   -121.50653    2.0477175   -119.45882    10388.214    4.3347678    4.3347678    4.3347678    10388.214   -5851.9655   -11365.589    48382.198   -16808.017    7754.6098    -17052.55    81.451206 
    8700    1296.0622   -120.67097    1.1727043   -119.49827   -3955.0398    4.3456655    4.3456655    4.3456655   -3955.0398   -7939.2982    22254.383   -26180.204     7389.924   -20382.506     10698.95     82.06706 
    8800    1083.7931   -120.47108   0.98063874   -119.49044    -147.2389    4.3517697    4.3517697    4.3517697    -147.2389   -7941.6736    25651.685   -18151.728   -545.63405   -35997.696   -8995.8802    82.413376 
    8900    2285.6628   -121.54327    2.0681158   -119.47516    -18830.46    4.3478126    4.3478126    4.3478126    -18830.46   -42206.472   -21402.792    7117.8842    3432.7041    3818.3969    19269.284    82.188763 
    9000    2219.0123   -121.49431    2.0078089    -119.4865   -28972.207    4.3536066    4.3536066    4.3536066   -28972.207   -50310.679    -55841.03    19235.088    24052.687    -3855.408    8678.5301    82.517781 
    9100    1191.0063   -120.57528    1.0776475   -119.49763    4102.1206    4.3472653    4.3472653    4.3472653    4102.1206   -32727.345    29338.444    15695.263     18918.13    -25792.79   -14004.745    82.157733 
    9200    1551.6341   -120.88878    1.4039512   -119.48483    17644.265    4.3332522    4.3332522    4.3332522    17644.265    19439.928    44444.007    -10951.14   -13962.704   -17475.332    7016.8798    81.365798 
    9300    2255.0106   -121.54446     2.040381   -119.50408   -8098.8637    4.3532723    4.3532723    4.3532723   -8098.8637   -29610.434   -1239.8638    6553.7062   -12132.581    3597.4581    9130.9583    82.498774 
    9400    1744.6807   -121.07785    1.5786237   -119.49922    -51783.34    4.3761625    4.3761625    4.3761625    -51783.34   -61429.095   -63866.874    -30054.05    14786.168   -16604.621   -7646.4662    83.807007 
    9500    1376.5449   -120.73199    1.2455267   -119.48647   -28247.448    4.3507886    4.3507886    4.3507886   -28247.448   -15242.601   -13170.315   -56329.429     31049.75   -32899.801    16397.251    82.357652 
    9600    2205.0314   -121.46374    1.9951587   -119.46858    8340.0202     4.321331     4.321331     4.321331    8340.0202    15673.401   -10996.349    20343.009   -7138.2504    122.89274    722.87698    80.696109 
    9700    1865.7817   -121.21969    1.6881985   -119.53149    547.91083    4.3511405    4.3511405    4.3511405    547.91083    21192.987    -52573.51    33024.255    8117.5021   -4645.7555    13376.553    82.377637 
    9800    1868.4871   -121.19219    1.6906464   -119.50154   -38863.829     4.369251     4.369251     4.369251   -38863.829   -31681.412   -26552.217   -58357.859    10909.313   -18371.136   -1945.7489     83.41055 
    9900    1732.6853   -121.04519    1.5677701   -119.47742    26112.389    4.3301907    4.3301907    4.3301907    26112.389    51891.568    -748.6671    27194.266   -12508.861   -7166.0871    3937.1694    81.193464 
   10000    1646.4618   -120.99376    1.4897532     -119.504    19077.834    4.3251296    4.3251296    4.3251296    19077.834    34810.033    13935.941    8487.5277   -981.01072   -4831.5891    1314.4799      80.9091 
   10100    1516.5476   -120.90745    1.3722041   -119.53525    11718.144    4.3603932    4.3603932    4.3603932    11718.144    106435.77   -25399.384   -45881.958    8639.2516   -3987.3674   -4647.5756    82.904281 
   10200    2413.5532   -121.68667    2.1838337   -119.50284   -56642.595    4.3786403    4.3786403    4.3786403   -56642.595   -71555.925   -55567.242   -42804.619   -13408.581    3018.2206   -12948.805    83.949444 
   10300    989.11563   -120.39021   0.89497261   -119.49524   -39.017026    4.3515232    4.3515232    4.3515232   -39.017026    100666.44   -53533.673   -47249.823    4231.7573   -2535.2796   -2177.0843    82.399375 
   10400    1681.6084   -121.02029    1.5215547   -119.49873   -6563.0311     4.319912     4.319912     4.319912   -6563.0311    54234.296   -44546.517   -29376.872    845.74911    5041.4503   -1779.4458    80.616642 
   10500    2566.5566   -121.86064    2.3222743   -119.53836   -10373.451    4.3244678    4.3244678    4.3244678   -10373.451     4921.069   -46771.836    10730.415   -2632.8451   -10945.651   -8429.5386    80.871967 
   10600    1783.7538   -121.18264     1.613978   -119.56866   -11812.586     4.360845     4.360845     4.360845   -11812.586    42517.335   -55560.741   -22394.352   -4511.4048    16557.961     7387.819    82.930052 
   10700    1050.8733    -120.4796   0.95085222   -119.52875   -30821.218    4.3787844    4.3787844    4.3787844   -30821.218   -34887.421   -28805.886   -28770.347     -2191.53    35019.638   -1403.8044    83.957731 
   10800    1308.2522   -120.66864    1.1837341    -119.4849   -28145.028    4.3477348    4.3477348    4.3477348   -28145.028   -20280.596   -19785.325   -44369.164    11594.661   -29609.882   -18933.368    82.184352 
   10900    1719.9918   -121.01869    1.5562848   -119.46241    41711.392    4.3206181    4.3206181    4.3206181    41711.392    26139.963    2788.0134    96206.198   -6019.8905   -13543.922   -13238.583    80.656179 
   11000    2209.0382     -121.512    1.9987842   -119.51322   -4773.8707     4.348203     4.348203     4.348203   -4773.8707   -34094.113   -29468.905    49241.406   -3506.3914    13967.242   -8129.1725    82.210907 
   11100    1853.6337   -121.17859    1.6772067   -119.50138   -36706.077    4.3751314    4.3751314    4.3751314   -36706.077   -23777.673   -90293.288    3952.7306   -1948.3536   -9944.9236   -15047.578     83.74778 
   11200    1001.9466   -120.38333   0.90658232   -119.47675    -7626.127    4.3676941    4.3676941    4.3676941    -7626.127   -32187.947   -28962.822    38272.388    8055.2368    855.76591     -30259.5    83.321416 
   11300    1519.6925   -120.83352    1.3750498   -119.45847    1055.9971     4.342737     4.342737     4.342737    1055.9971    11774.992   -16453.779    7846.7784    8996.8773    8766.7982   -6214.5723     81.90126 
   11400    2057.3585   -121.33509    1.8615412   -119.47355    12004.552    4.3308672    4.3308672    4.3308672    12004.552    32404.572   -45500.798    49109.883    1096.4891    31013.287   -6329.6091    81.231526 
   11500    1974.7296   -121.30262    1.7867768   -119.51584   -31369.469    4.3497212    4.3497212    4.3497212   -31369.469   -32972.351   -63307.748    2171.6919   -5511.7769   -25973.666   -4071.8738    82.297047 
   11600    956.00467   -120.37341   0.86501311    -119.5084    -43292.04    4.3715479    4.3715479    4.3715479    -43292.04   -25740.864   -49643.638   -54491.619   -10481.607    -13180.32   -2431.0829    83.542167 
   11700    1404.4714   -120.75603    1.2707952   -119.48523   -29107.326    4.3528611    4.3528611    4.3528611   -29107.326   -5944.0635   -36404.739   -44973.177   -9263.7104    24773.509   -7008.0751      82.4754 
   11800     1485.933    -120.8226    1.3445034    -119.4781    58019.471    4.3238116    4.3238116    4.3238116    58019.471    37548.071    21515.363    114994.98   -11701.159    9438.6307   -2840.8766    80.835156 
   11900    2351.2732   -121.62722    2.1274814   -119.49974    15829.541    4.3264704    4.3264704    4.3264704    15829.541    301.13191   -2294.2308    49481.721   -4030.0416   -11699.814   -2462.1345     80.98437 
   12000    1565.9268   -120.94757    1.4168835   -119.53069   -14069.148    4.3468751    4.3468751    4.3468751   -14069.148      2239.45   -52764.857     8317.962   -1640.6148    2364.3622    5418.1711     82.13561 
   12100    941.80302   -120.39239   0.85216317   -119.54023   -53252.473    4.3489755    4.3489755    4.3489755   -53252.473   -43351.523   -86338.371   -30067.524    3926.3791    6929.4565    2210.4649    82.254728 
   12200    1030.3803   -120.46306   0.93230972   -119.53075     17069.27    4.3210568    4.3210568    4.3210568     17069.27    16585.615   -53719.177    88341.371   -617.30156   -13848.049    1681.3397    80.680752 
   12300    1549.7596   -120.95854     1.402255   -119.55628    16774.142    4.3312108    4.3312108    4.3312108    16774.142     18042.41   -14487.452    46767.466    9812.4252   -23435.303   -14890.756    81.250857 
   12400    2021.8804   -121.36892    1.8294398   -119.53948    -21177.77    4.3523068    4.3523068    4.3523068    -21177.77   -64867.504    -60295.15    61629.345    5968.5942   -9737.4802   -4385.7206    82.443895 
   12500    1901.2425    -121.2327    1.7202842   -119.51242    2285.3514    4.3434786    4.3434786    4.3434786    2285.3514   -31387.855   -60128.065    98371.974   -14711.102    12651.815   -10831.323    81.943229 
   12600     1434.382   -120.81376     1.297859    -119.5159   -38282.009    4.3467007    4.3467007    4.3467007   -38282.009   -58649.549   -40709.279     -15487.2   -8204.9344   -4188.5346   -8263.6821    82.125724 
   12700    1021.6137   -120.44293   0.92437755   -119.51855   -29523.866    4.3480697    4.3480697    4.3480697   -29523.866   -39796.249   -69389.348        20614    7114.9604   -18783.588    17943.997    82.203345 
   12800    1466.2629    -120.8449    1.3267055    -119.5182   -5518.4717    4.3397025    4.3397025    4.3397025   -5518.4717   -11105.587   -45598.158    40148.329    9495.0101   -6377.4051    9108.4876    81.729692 
   12900    2088.8854   -121.39972    1.8900674   -119.50966    25327.446    4.3253585    4.3253585    4.3253585    25327.446    23753.932   -3432.1532    55660.559    4585.2341   -14227.823   -1998.5327    80.921948 
   13000     2053.373   -121.39738    1.8579351   -119.53945    2413.7217    4.3387522    4.3387522    4.3387522    2413.7217   -6256.9199   -21257.637    34755.721    8268.6843   -751.41183    19105.569    81.676017 
   13100    1461.9872   -120.84568    1.3228367   -119.52284   -52774.552    4.3714553    4.3714553    4.3714553   -52774.552   -86107.602   -40932.031   -31284.024    6698.4393   -32098.821    12988.506    83.536855 
   13200    1641.2892   -120.96494     1.485073   -119.47986    -24332.98    4.3626405    4.3626405    4.3626405    -24332.98   -32587.343   -37927.218   -2484.3784   -4982.3656   -9333.2345    2335.9921    83.032534 
   13300    2166.9355    -121.4288    1.9606888   -119.46811   -5305.6589    4.3312118    4.3312118    4.3312118   -5305.6589    11457.989   -48774.465    21399.499     1758.038    13021.752   -22062.188    81.250916 
   13400    2283.3875   -121.55383     2.066057   -119.48778    24945.138    4.3121378    4.3121378    4.3121378    24945.138   -9560.2413   -6815.6311    91211.287   -444.12567   -3308.2831    11912.615    80.182187 
   13500    1903.7553    -121.2677    1.7225578   -119.54514   -15133.469    4.3392388    4.3392388    4.3392388   -15133.469   -2665.3282   -55512.386    12777.308    -1993.286   -6768.1861    12686.153    81.703497 
   13600    1101.5058   -120.53611   0.99666562   -119.53945    -29386.68    4.3565072    4.3565072    4.3565072    -29386.68   -26039.215   -86320.206     24199.38   -515.41873   -9955.0294   -54498.178    82.682827 
   13700    1367.4378   -120.75324    1.2372865   -119.51595    517.33943    4.3342416    4.3342416    4.3342416    517.33943   -12105.063   -48631.402    62288.484    244.60581    7912.8166   -32558.145    81.421548 
   13800    2131.5218   -121.43348    1.9286457   -119.50484     28829.18    4.3176034    4.3176034    4.3176034     28829.18   -21090.157    2471.7132    105105.98    6662.3579    5295.4331    13286.466    80.487461 
   13900     2504.003    -121.7931    2.2656745   -119.52743    10633.297    4.3234344    4.3234344    4.3234344    10633.297    15589.861   -24962.746    41272.776    2735.7578    1591.7482    8225.5716    80.814005 
   14000    1589.8647   -120.98573     1.438543   -119.54719    699.66286    4.3429835    4.3429835    4.3429835    699.66286   -36891.642   -43715.541    82706.171    4798.5342   -6413.6448   -11341.841     81.91521 
   14100    1391.7879   -120.79282    1.2593189    -119.5335   -47703.755    4.3484893    4.3484893    4.3484893   -47703.755   -57878.935   -58467.119   -26765.211     27839.22    20359.089   -36292.734    82.227146 
   14200    1831.0916   -121.17412    1.6568102   -119.51731   -6869.8983    4.3229895    4.3229895    4.3229895   -6869.8983   -10606.299   -49139.675    39136.279    6855.1242   -2631.3105    32922.088    80.789057 
   14300    2058.2335   -121.37425    1.8623329   -119.51192    15648.862    4.3267882    4.3267882    4.3267882    15648.862    53403.599   -19305.764    12848.751    4940.8451    15816.031   -3471.3483    81.002216 
   14400    1979.6767   -121.30337    1.7912531   -119.51211   -19772.619    4.3434922    4.3434922    4.3434922   -19772.619   -25226.495   -34608.848    517.48557   -11627.114    9444.2626   -26161.835    81.943994 
   14500      1640.66   -120.99129    1.4845037   -119.50679   -19716.888    4.3360692    4.3360692    4.3360692   -19716.888    5085.0524   -46490.232   -17745.485   -710.76526    5316.4341     9310.893     81.52459 
   14600    1070.0268   -120.49284   0.96818272   -119.52466    29901.365    4.3402474    4.3402474    4.3402474    29901.365    43772.828   -16576.881     62508.15    14900.325    14927.823    30862.504    81.760484 
   14700    2019.7398   -121.33393     1.827503   -119.50642   -24838.637    4.3482417    4.3482417    4.3482417   -24838.637   -35954.202   -33238.334   -5323.3751   -9350.4874   -19432.362    16928.707    82.213101 
   14800    2359.1856   -121.63062    2.1346407   -119.49598    4145.8921    4.3189245    4.3189245    4.3189245    4145.8921    1024.4935    4039.6923    7373.4906     1215.366    8419.8134   -16461.767    80.561367 
   14900    1443.8802   -120.82865    1.3064532    -119.5222    60654.686    4.3107614    4.3107614    4.3107614    60654.686    86827.946    31201.906    63934.205    13031.704    36830.713    7477.8979    80.105432 
   15000    1728.7326   -121.11067    1.5641936   -119.54648   -52500.223    4.3544996    4.3544996    4.3544996   -52500.223   -64907.854   -47338.845   -45253.971    1794.5722    347.59728    6546.8938     82.56857 
   15100    1986.1318   -121.30173    1.7970938   -119.50463    -36776.01    4.3497926    4.3497926    4.3497926    -36776.01   -17215.419    -59970.08   -33142.533   -11290.682   -21390.162   -10330.914    82.301104 
   15200    1515.7769   -120.84869    1.3715068   -119.47718    47227.039    4.3266449    4.3266449    4.3266449    47227.039    84520.575    19399.504    37761.037   -9685.9075    32425.476    2088.5691    80.994172 
   15300    1761.7175   -121.08625     1.594039   -119.49221   -11230.541    4.3403434    4.3403434    4.3403434   -11230.541    -19024.22    32266.772   -46934.174    12385.453    28953.676    17957.261    81.765908 
   15400    2291.4847   -121.56228    2.0733836   -119.48889   -8269.9686    4.3344012    4.3344012    4.3344012   -8269.9686    22213.095   -21545.911    -25477.09   -11623.277   -10639.222    554.51506    81.430539 
   15500    1733.3244   -121.07705    1.5683484    -119.5087    13655.401    4.3302832    4.3302832    4.3302832    13655.401    34913.646     18557.78   -12505.222   -13809.472    10599.022    1187.4107    81.198665 
   15600    925.34527   -120.36499   0.83727184   -119.52772    4241.7712    4.3514354    4.3514354    4.3514354    4241.7712   -22325.684     51846.91   -16795.912    3447.9753    26096.512   -15446.304    82.394383 
   15700    1721.5924   -121.03653    1.5577329    -119.4788   -6286.3583    4.3615108    4.3615108    4.3615108   -6286.3583    43265.045   -13840.425   -48283.695    9502.0573   -12809.739   -11156.929    82.968047 
   15800    1536.4919   -120.84929    1.3902501   -119.45904    37949.093     4.343111     4.343111     4.343111    37949.093    73179.951    89307.793   -48640.466   -15575.141    3583.0576    9430.7282    81.922421 
   15900    969.14567   -120.34791   0.87690337     -119.471    19992.839     4.335778     4.335778     4.335778    19992.839    71149.984    63074.054   -74245.523   -34556.486    47838.991    16543.618    81.508162 
   16000    1952.4238   -121.23714    1.7665941   -119.47055   -24513.982    4.3405773    4.3405773    4.3405773   -24513.982   -3550.1771   -18043.548   -51948.221   -3505.9386    4770.4837   -6367.6897    81.779131 
   16100    2018.3183   -121.30417    1.8262168   -119.47795   -8080.7869     4.337792     4.337792     4.337792   -8080.7869   -4860.4981   -1471.1091   -17910.753    2348.2096   -8865.9678   -9996.0646    81.621798 
   16200    1281.0135   -120.64813    1.1590879   -119.48904   -12378.119    4.3347184    4.3347184    4.3347184   -12378.119    -61603.76    45308.701   -20839.298     1847.897    58347.951    2547.4505    81.448419 
   16300    1636.4289   -120.96953    1.4806753   -119.48885    16978.965    4.3289322    4.3289322    4.3289322    16978.965    73758.535    2073.2197   -24894.861   -8010.7944    26578.562   -6855.3777    81.122689 
   16400    2009.9203   -121.33274    1.8186181   -119.51412    3354.1935    4.3406686    4.3406686    4.3406686    3354.1935    4632.6683    18202.326   -12772.414    1255.6439   -16243.235     1286.334    81.784292 
   16500     1311.995   -120.69675    1.1871207   -119.50963   -2185.1691     4.357125     4.357125     4.357125   -2185.1691    20448.094    40022.644   -67026.245    23885.895     13930.85    6627.9676    82.718003 
   16600    1730.7222   -121.03627    1.5659939   -119.47028     -49740.7     4.359689     4.359689     4.359689     -49740.7   -64778.897    3097.0735   -87540.277    5525.3259    29472.924    3453.4984     82.86412 
   16700    2163.2342   -121.40323    1.9573397   -119.44589    15379.831    4.3352126    4.3352126    4.3352126    15379.831   -1960.3904    47672.601    427.28348   -6111.0214    5024.1248   -14656.394    81.476283 
   16800    2079.4266   -121.35492    1.8815089   -119.47341   -165.02099    4.3385137    4.3385137    4.3385137   -165.02099   -48377.396    40932.159    6950.1744    17350.655    9265.3232    26513.844    81.662545 
   16900    1039.3415   -120.43404   0.94041802   -119.49362    -10197.17    4.3526311    4.3526311    4.3526311    -10197.17   -77586.824    257.50271    46737.811    18473.584    30190.009    35810.212    82.462328 
   17000    1528.8707   -120.86048    1.3833543   -119.47712    17083.612    4.3407911    4.3407911    4.3407911    17083.612   -41952.804    100499.85    -7296.205   -12174.832    655.62783    6950.7898    81.791216 
   17100    1899.0518   -121.19489     1.718302   -119.47659    44913.284     4.336413     4.336413     4.336413    44913.284    9694.9235    44967.849    80077.079   -2611.3891    8925.5096   -6902.9365    81.543982 
   17200    1307.2133   -120.67199    1.1827941    -119.4892    8293.3091     4.358597     4.358597     4.358597    8293.3091    4901.7299    64556.628   -44578.431    -9944.713    29096.023    26760.626    82.801873 
   17300    1907.2307   -121.19997    1.7257024   -119.47427     -45078.1    4.3587001    4.3587001    4.3587001     -45078.1   -72743.345   -48573.623   -13917.334     262.2984    9011.1771     14200.82    82.807744 
   17400    1806.9935   -121.11205    1.6350057   -119.47704    29259.991    4.3202315    4.3202315    4.3202315    29259.991    12762.743   -29517.816    104535.05   -19011.822   -6264.7038    8300.3359    80.634531 
   17500    2225.3941   -121.49036    2.0135833   -119.47678     48104.64    4.2995241    4.2995241    4.2995241     48104.64    57768.749    47642.173    38902.997    8008.4613    8548.7115    12784.676    79.480606 
   17600    1239.0373    -120.6626     1.121107   -119.54149    24847.529    4.3385272    4.3385272    4.3385272    24847.529    7848.9752   -9717.7611    76411.374   -10147.802    29480.112    -2553.095    81.663306 
   17700    1728.9593   -121.06693    1.5643987   -119.50253   -49186.421    4.3722465    4.3722465    4.3722465   -49186.421   -82964.086    -89475.55    24880.373   -15790.007   -6812.0674    2770.5093     83.58222 
   17800    1708.2886   -120.99636    1.5456954   -119.45067    -1247.894    4.3539692    4.3539692    4.3539692    -1247.894    23981.537   -9471.9484   -18253.271    20284.939    -5673.471    8331.0259    82.538404 
   17900    1903.5765   -121.15763     1.722396   -119.43523    6870.1871    4.3240761    4.3240761    4.3240761    6870.1871   -16928.539    20983.069    16556.032   -27153.073    20897.239   -5876.9971    80.849992 
   18000    1296.5721   -120.64743    1.1731657   -119.47426    42771.164    4.3132269    4.3132269    4.3132269    42771.164    45305.828    33212.218    49795.445   -21384.894    2362.9376    8941.2692    80.242957 
   18100    1611.6788   -120.98541    1.4582809   -119.52713   -20602.715    4.3343996    4.3343996    4.3343996   -20602.715   -60489.481    11257.878   -12576.543    1746.7306   -25814.996   -9537.4716    81.430453 
   18200    1626.3659   -120.98617      1.47157    -119.5146   -17770.254     4.354259     4.354259     4.354259   -17770.254   -34849.494    8757.1477   -27218.416    9848.8154   -27838.835   -6883.7356    82.554883 
   18300    1718.4047   -121.03047    1.5548486   -119.47562    17603.451    4.3443801    4.3443801    4.3443801    17603.451   -12612.223    27782.817    37639.759   -1756.2341    6460.7018   -1350.4959     81.99426 
   18400    1144.0326   -120.50345    1.0351447    -119.4683    14167.231    4.3379091    4.3379091    4.3379091    14167.231    9145.0721    3216.3347    30140.286   -27476.181   -8704.0721    -4993.564    81.628409 
   18500    1385.0044   -120.73068    1.2531811    -119.4775   -14424.299    4.3369323    4.3369323    4.3369323   -14424.299    -4966.791    21026.676   -59332.781    2043.5861   -35640.303     335.0659    81.573281 
   18600    2012.7581   -121.30408    1.8211858    -119.4829    14055.831    4.3197972    4.3197972    4.3197972    14055.831    48905.821    26916.052   -33654.381    -16137.26    7107.1912    6929.4804    80.610217 
   18700    1613.9819    -120.9813    1.4603647   -119.52093    26529.767    4.3313074    4.3313074    4.3313074    26529.767    33881.446    56714.052   -11006.197   -21565.098    7446.8487   -2555.1536    81.256298 
   18800    1333.8269   -120.71976    1.2068746   -119.51288   -39503.152     4.358499     4.358499     4.358499   -39503.152   -88788.818    13146.598   -42867.238    64.470132   -30170.179   -1707.9552    82.796287 
   18900    1457.1242   -120.79938    1.3184366   -119.48094   -10294.807    4.3433893    4.3433893    4.3433893   -10294.807     15640.89   -9779.1042   -36746.207    10926.045   -16303.066    10663.834    81.938171 
   19000    2163.6443   -121.41801    1.9577109   -119.46029     3058.752    4.3105003    4.3105003    4.3105003     3058.752    26867.177    16704.506   -34395.427   -340.59373    24874.895    22850.122    80.090875 
   19100    1811.8867    -121.1431    1.6394332   -119.50367     30548.15    4.3112567    4.3112567    4.3112567     30548.15    50504.477    33190.928    7949.0448   -30469.973   -12317.518   -7295.2614    80.133044 
   19200    1507.8226   -120.91204    1.3643096   -119.54773   -14332.858     4.339994     4.339994     4.339994   -14332.858    36116.352   -42555.603   -36559.324    3725.4881   -31742.984     5604.517    81.746167 
   19300    1857.3465   -121.21133    1.6805662   -119.53076   -31633.021    4.3369253    4.3369253    4.3369253   -31633.021   -22100.692   -38257.292   -34541.077    4979.7127    4260.4406    36032.887    81.572885 
   19400    1810.4342   -121.15472    1.6381189    -119.5166    45503.685    4.3009986    4.3009986    4.3009986    45503.685    101113.55    28097.532    7299.9719    -6201.252    30565.834    3569.7595    79.562405 
   19500    2075.3872   -121.40993     1.877854   -119.53207    16542.741    4.3040924    4.3040924    4.3040924    16542.741   -3446.1639    71297.642   -18223.255    12095.295    7617.3473   -14091.445    79.734224 
   19600     1447.614   -120.86336    1.3098316   -119.55353   -25869.535    4.3358732    4.3358732    4.3358732   -25869.535    -6196.524   -14634.907   -56777.173   -2294.9449   -22641.783    48467.756    81.513531 
   19700    1181.1809   -120.58721    1.0687573   -119.51845   -6358.1785    4.3533255    4.3533255    4.3533255   -6358.1785    28382.302   -5091.5022   -42365.336   -7903.8101   -12269.003    21943.743    82.501802 
   19800    1815.6767   -121.13139    1.6428625   -119.48853    16815.994    4.3377124    4.3377124    4.3377124    16815.994    69169.897   -3937.9052   -14784.009   -4639.2945    15567.199    -12555.64    81.617309 
   19900    1896.1922   -121.20258    1.7157145   -119.48686    24314.439    4.3049119    4.3049119    4.3049119    24314.439    94541.109    18557.938   -40155.731    676.46559    5715.6909    39426.442    79.779777 
   20000    1539.5414   -120.92206    1.3930095   -119.52905   -11526.159    4.3157212    4.3157212    4.3157212   -11526.159    23194.921   -6187.5561   -51585.842    -1132.234   -34429.729    24492.461     80.38225 
   20100    1954.4639   -121.28997      1.76844   -119.52153   -42033.339    4.3504201    4.3504201    4.3504201   -42033.339   -62731.417   -36033.234   -27335.365   -15566.848   -30310.829   -9663.5176    82.336724 
   20200    1791.7905   -121.11749    1.6212497   -119.49624   -25366.948    4.3534922    4.3534922    4.3534922   -25366.948    9732.2164   -48810.648   -37022.411   -7153.4107   -1473.3795    28457.384    82.511279 
   20300    1867.9721   -121.17702    1.6901804   -119.48683    7077.3608    4.3197337    4.3197337    4.3197337    7077.3608    89508.996   -5925.3567   -62351.557   -5265.0942    179.81601    39549.498    80.606658 
   20400    1766.0654   -121.09211    1.5979731   -119.49414    40400.348    4.3097889    4.3097889    4.3097889    40400.348    91833.183    76280.838   -46912.976    14162.917    -33164.22   -18225.143    80.051225 
   20500    1703.0941   -121.06705    1.5409953   -119.52606   -33338.929    4.3438339    4.3438339    4.3438339   -33338.929   -2283.3434    -6048.396   -91685.046    9621.6123   -12866.789    18547.389    81.963339 
   20600    1779.3337   -121.09825    1.6099786   -119.48827   -32022.598    4.3493603    4.3493603    4.3493603   -32022.598    36759.398   -49210.547   -83616.644    2542.7993    16523.624    51849.715    82.276565 
   20700    2020.9446   -121.30741    1.8285932   -119.47881    426.53406    4.3158888    4.3158888    4.3158888    426.53406    50557.315   -7990.5334   -41287.179    16088.437   -26565.419   -26648.963    80.391611 
   20800    1328.7606   -120.70755    1.2022905   -119.50526    8820.6807    4.3031636    4.3031636    4.3031636    8820.6807    28453.049    54231.854    -56222.86   -8763.9903   -25078.676    -8382.992    79.682612 
   20900    1561.4253   -120.94249    1.4128104   -119.52968    15358.349    4.3228987    4.3228987    4.3228987    15358.349    83418.479    4096.6443   -41440.076    16339.182    15291.985    31681.611    80.783967 
   21000    1963.9336   -121.28087    1.7770084   -119.50386   -2834.5073    4.3462879    4.3462879    4.3462879   -2834.5073    36979.621   -6192.6525    -39290.49   -5634.9254    17602.995   -7191.8806     82.10233 
   21100    1794.5067   -121.11109    1.6237073   -119.48739   -23993.951    4.3367443    4.3367443    4.3367443   -23993.951    40503.521   -57802.326   -54683.048   -16611.224   -8168.8057   -36458.821    81.562672 
   21200    1620.9727   -120.94714    1.4666902   -119.48045    13597.539    4.3137385    4.3137385    4.3137385    13597.539    28305.593    36529.491   -24042.466    1259.7792    11911.216    9848.7169    80.271514 
   21300    2346.7805   -121.61682    2.1234164    -119.4934   -18849.002    4.3182057    4.3182057    4.3182057   -18849.002   -6368.6643   -29710.427   -20467.913   -14497.464    9905.2727    10319.537    80.521152 
   21400    1581.7624   -120.93843    1.4312119   -119.50722   -33057.181    4.3405015    4.3405015    4.3405015   -33057.181   -23064.986    -30366.07   -45740.488    5917.7988    3548.5098    -58469.69    81.774844 
   21500    1517.2389   -120.86057    1.3728297   -119.48774   -39497.104    4.3468715    4.3468715    4.3468715   -39497.104   -29452.121   -54972.789   -34066.403   -212.59697   -4629.6749   -9993.3678    82.135407 
   21600    1610.4081    -120.9314    1.4571311   -119.47426    1306.7854    4.3423667    4.3423667    4.3423667    1306.7854    45739.829   -6708.2626   -35111.211   -6437.3825   -7200.7271    39705.723    81.880312 
   21700    1811.7178     -121.105    1.6392803   -119.46572   -18831.423    4.3332435    4.3332435    4.3332435   -18831.423    29735.925   -49586.922   -36643.271    17706.384     12135.48   -42585.063    81.365311 
   21800    1146.9334   -120.51535    1.0377694   -119.47758    7915.4758    4.3237471    4.3237471    4.3237471    7915.4758    30828.485    19516.242   -26598.299   -3531.9159   -10004.686   -29848.167    80.831541 
   21900    1645.2521   -120.99105    1.4886587   -119.50239   -34711.014    4.3281943    4.3281943    4.3281943   -34711.014   -26044.438   -15206.512   -62882.091    6138.0102   -13276.144    53994.613    81.081217 
   22000     1474.059   -120.83695    1.3337596   -119.50319    19062.017    4.3255464    4.3255464    4.3255464    19062.017    31739.732    29148.492    -3702.172   -5811.1622    92.440954    11147.257    80.932492 
   22100    2335.3684   -121.60922    2.1130904   -119.49613   -5913.2353    4.3190384    4.3190384    4.3190384   -5913.2353    -8580.685   -5168.6683   -3990.3525    -13664.05    12693.999   -50157.497    80.567743 
   22200    1224.8964    -120.6285     1.108312   -119.52018   -11857.095    4.3284022    4.3284022    4.3284022   -11857.095   -20020.425    16480.403   -32031.265    79.350665   -7774.9336     5471.123      81.0929 
   22300    1434.9954   -120.81858     1.298414   -119.52017   -28617.823    4.3328008    4.3328008    4.3328008   -28617.823   -52559.747    -144.2075   -33149.513   -17636.492   -22026.785    24910.127    81.340372 
   22400    2004.3482   -121.32158    1.8135764   -119.50801    22980.544    4.3365683    4.3365683    4.3365683    22980.544    15174.386    19879.799    33887.448    4188.3514    8013.5066    8454.8375    81.552743 
   22500     2543.085   -121.79653    2.3010367   -119.49549   -14382.994    4.3367939    4.3367939    4.3367939   -14382.994    -14023.76   -33377.943    4252.7194   -12487.817    -2658.947   -3398.8536    81.565473 
   22600     1313.849   -120.69617    1.1887982   -119.50737   -12139.536    4.3170087    4.3170087    4.3170087   -12139.536   -37282.795    14376.835   -13512.647   -22737.746   -33934.991    25019.852    80.454211 
   22700    1323.9555   -120.71419    1.1979428   -119.51624   -16178.729    4.3032436    4.3032436    4.3032436   -16178.729    18419.717   -17575.906   -49379.998    11717.199   -27974.518    37148.367    79.687056 
   22800    1829.5097   -121.20308    1.6553789    -119.5477     7275.376    4.3253822    4.3253822    4.3253822     7275.376    34779.672   -1749.9044    -11203.64   -11343.532    27346.055   -10469.063    80.923278 
   22900    1896.9293   -121.23161    1.7163815   -119.51523   -47198.573     4.364475     4.364475     4.364475   -47198.573   -52340.287   -29617.407   -59638.025    -6610.499    -5017.087   -10109.073    83.137323 
   23000    1335.1448    -120.7084    1.2080671   -119.50034   -54518.703    4.3380753    4.3380753    4.3380753   -54518.703   -37882.977   -52360.389   -73312.742    -21081.38   -27916.871    42052.617    81.637796 
   23100    1402.9402   -120.72671    1.2694098    -119.4573    53953.018    4.2773003    4.2773003    4.2773003    53953.018    33412.789    99205.326     29240.94   -25954.291    580.24989    25002.844    78.254484 
   23200    2582.3598   -121.84875    2.3365734   -119.51218    24647.654    4.3012825    4.3012825    4.3012825    24647.654    31881.592    34929.253    7132.1177    2949.7699    13613.233   -19436.138     79.57816 
   23300    1919.4257   -121.24064    1.7367367   -119.50391    -27855.02    4.3505287    4.3505287    4.3505287    -27855.02   -33072.973    10489.268   -60981.355    18913.068   -5486.3528   -1045.5091     82.34289 
   23400    973.82606   -120.37529   0.88113829   -119.49416   -12534.897    4.3399214    4.3399214    4.3399214   -12534.897   -16277.422   -13888.927   -7438.3425    -1865.674   -15831.273    38180.348    81.742065 
   23500    1673.4351   -120.99572    1.5141592   -119.48156     3475.723    4.3123059    4.3123059    4.3123059     3475.723    2393.4778   -2196.6201    10230.311   -19308.251   -11594.438    18945.941    80.191561 
   23600    2447.5935   -121.70882    2.2146341   -119.49418    9128.9183      4.31097      4.31097      4.31097    9128.9183   -24147.838    44917.298    6617.2943     18102.01    5069.2479   -9624.5088    80.117057 
   23700    1544.4626   -120.92766    1.3974622    -119.5302   -20122.335    4.3388848    4.3388848    4.3388848   -20122.335   -15566.415   -27177.124   -17623.465    14945.554    -15343.64   -6679.0567    81.683503 
   23800    1076.7895   -120.48594   0.97430175   -119.51164    -34766.33    4.3505382    4.3505382    4.3505382    -34766.33   -41080.618   -24671.496   -38546.877     -19102.1   -22440.731    21271.013    82.343432 
   23900    1983.2014   -121.27621    1.7944423   -119.48177   -2783.9275    4.3304496    4.3304496    4.3304496   -2783.9275   -14899.103    5228.6916    1318.6288    6091.2337    -6450.069    6154.1967    81.208028 
   24000    2137.1411   -121.41456    1.9337301   -119.48083    9328.8116    4.3299726    4.3299726    4.3299726    9328.8116   -27705.246    11201.354    44490.327    28380.671    3451.1462   -9925.7382    81.181197 
   24100    1697.4691   -121.02261    1.5359057    -119.4867    -31254.86    4.3411701    4.3411701    4.3411701    -31254.86   -50205.453   -60279.914    16720.788   -18247.645   -20620.034    14259.899    81.812641 
   24200    1292.6226    -120.6593    1.1695921   -119.48971   -523.93429    4.3264978    4.3264978    4.3264978   -523.93429   -17863.532   -9886.4408     26178.17   -25079.008   -44325.648     27535.92    80.985908 
   24300    1876.2924   -121.18669    1.6977088   -119.48898    13612.293    4.3236013    4.3236013    4.3236013    13612.293   -7586.3893    13567.536    34855.733   -10883.104   -9751.8994   -5591.6769    80.823363 
   24400    1980.2426   -121.28495    1.7917651   -119.49319    -176.7779    4.3310239    4.3310239    4.3310239    -176.7779   -2243.8752   -41427.247    43140.789    10542.271    5343.2804   -17962.372    81.240342 
   24500    1040.3852   -120.44083   0.94136241   -119.49947    11207.093    4.3295135    4.3295135    4.3295135    11207.093    50400.387    12532.285   -29311.394    -12945.14   -44996.499     8279.918    81.155377 
   24600    1177.7529   -120.55722    1.0656555   -119.49156   -8201.2323    4.3407939    4.3407939    4.3407939   -8201.2323    42549.079   -19686.563   -47466.214   -39584.706    -32417.83    15762.185    81.791372 
   24700    1957.6774   -121.24549    1.7713476   -119.47415   -16422.385    4.3414467    4.3414467    4.3414467   -16422.385    19456.902   -46200.368   -22523.687   -6762.3311    12806.315    9336.2092    81.828282 
   24800     1722.221   -121.03112    1.5583018   -119.47281   -6863.0782    4.3260208    4.3260208    4.3260208   -6863.0782     8142.283   -26319.724   -2411.7937     5830.995   -24592.376   -12834.809    80.959127 
   24900    1111.1728   -120.49916    1.0054125   -119.49375   -13491.759    4.3201258    4.3201258    4.3201258   -13491.759   -35350.361   -9637.6931    4512.7756   -14155.296   -31761.662     7825.641    80.628614 
   25000    1408.1552   -120.77641    1.2741284   -119.50228    849.25108    4.3324664    4.3324664    4.3324664    849.25108   -16361.041   -12008.536     30917.33   -20317.278    4224.4585    36030.296    81.321545 
   25100    2031.5796   -121.32361    1.8382159    -119.4854   -23470.869    4.3417056    4.3417056    4.3417056   -23470.869   -18854.012   -58396.871    6838.2753    6382.7274   -1820.4473    9851.1165    81.842919 
   25200    1678.1529   -121.00121     1.518428   -119.48278   -1786.6051    4.3259199    4.3259199    4.3259199   -1786.6051   -50321.745   -37786.266    82748.196    14846.411   -7222.4262   -581.14199    80.953462 
   25300    1210.7185   -120.58834    1.0954836   -119.49286    16207.769    4.3101864    4.3101864    4.3101864    16207.769    33724.977   -43082.879     57981.21   -15668.222   -35821.233    16936.379    80.073381 
   25400    1434.8839   -120.81653    1.2983131   -119.51822    499.72519    4.3139241    4.3139241    4.3139241    499.72519    39632.425   -73731.744    35598.495   -17764.271    11420.113    31075.907    80.281876 
   25500    1940.2352   -121.27795    1.7555656   -119.52238    6644.7156    4.3270717    4.3270717    4.3270717    6644.7156    38637.907   -42258.988    23555.227    16278.582   -1763.3833    7862.1801    81.018138 
   25600    2207.7272    -121.5016    1.9975979     -119.504    8437.7357    4.3345511    4.3345511    4.3345511    8437.7357    38941.859   -21804.503    8175.8506    10644.043   -38892.008   -18601.371    81.438991 
   25700    990.10271   -120.40751   0.89586574   -119.51164    1309.5665    4.3284684    4.3284684    4.3284684    1309.5665    55190.373   -48440.309   -2821.3648   -35167.228    4516.9093    28309.546     81.09662 
   25800    1548.9558   -120.90086    1.4015277   -119.49934    7034.5284    4.3110997    4.3110997    4.3110997    7034.5284    60425.726   -32662.523   -6659.6183   -24375.812   -6654.4381    25108.208     80.12429 
   25900    2353.6659   -121.63219    2.1296464   -119.50254    22108.682    4.3208069    4.3208069    4.3208069    22108.682    52299.345    16070.749   -2044.0467    14258.918     7841.448    -7156.016    80.666753 
   26000    1781.7557   -121.12009      1.61217   -119.50792   -24808.568     4.338797     4.338797     4.338797   -24808.568   -22487.234   -16505.813   -35432.658    29434.564   -4372.6198     21178.56    81.678547 
   26100    1262.1625   -120.64795    1.1420312   -119.50592   -5382.3059    4.3172748    4.3172748    4.3172748   -5382.3059    16319.323   -9122.7428   -23343.498   -10579.075   -15862.812    38050.192     80.46909 
   26200    2213.1143   -121.49643    2.0024723   -119.49396    33799.841    4.3033665    4.3033665    4.3033665    33799.841    61042.136    46978.531   -6621.1438   -27440.492    12194.674    3926.6298    79.693885 
   26300    2126.1631   -121.43779    1.9237971   -119.51399   -9193.8893    4.3206487    4.3206487    4.3206487   -9193.8893   -2739.2934    7869.9711   -32712.346    11333.882    3794.3109   -2248.4409    80.657892 
   26400    934.86267   -120.36679   0.84588339    -119.5209    20953.159    4.3329515    4.3329515    4.3329515    20953.159     68318.83    4316.7054    -9776.059    26513.873   -12892.768    19983.482    81.348865 
   26500    2262.6783   -121.53189    2.0473189   -119.48457   -5256.4282    4.3451902    4.3451902    4.3451902   -5256.4282    25809.694    11095.287   -52674.265    5953.6416   -11601.449    5033.4321    82.040139 
   26600    1900.5034   -121.20114    1.7196154   -119.48153   -15314.853    4.3328772    4.3328772    4.3328772   -15314.853   -3529.9154    9205.0298   -51619.673   -13895.397    31630.978   -19832.287    81.344677 
   26700     1365.983   -120.71147    1.2359701    -119.4755    8678.6403     4.294214     4.294214     4.294214    8678.6403    19930.844    44560.413   -38455.336   -836.94012   -2799.8621    6072.5219     79.18648 
   26800    2242.4931   -121.52452    2.0290549   -119.49547    18216.711    4.2967167    4.2967167    4.2967167    18216.711    31221.258    17638.342    5790.5342    20952.074   -16717.848    24589.466    79.325014 
   26900    1931.8742   -121.26045    1.7480004   -119.51245   -27431.338    4.3443882    4.3443882    4.3443882   -27431.338    21560.586   -51448.675   -52405.926   -13921.512    11430.729   -28091.928    81.994716 
   27000    1168.5352    -120.5374    1.0573152   -119.48009   -47395.526     4.356732     4.356732     4.356732   -47395.526    6786.4282   -84589.707   -64383.298    6215.7907    19583.675   -10414.324    82.695627 
   27100    2292.8468   -121.53917     2.074616   -119.46455   -6909.8435    4.3071814    4.3071814    4.3071814   -6909.8435    9164.1176   -16261.045   -13632.603    10055.642    3010.2789    13219.318    79.906018 
   27200    2134.4417   -121.38212    1.9312877   -119.45084    54773.649    4.2700507    4.2700507    4.2700507    54773.649    96735.637    23111.254    44474.056     2001.173   -14525.907   -40284.678    77.857254 
   27300     1150.006   -120.56533    1.0405496   -119.52478   -24438.578    4.3021037    4.3021037    4.3021037   -24438.578    30389.405   -65168.346   -38536.794   -16163.401    18255.231   -40829.861    79.623749 
   27400    1405.1076    -120.7803    1.2713709   -119.50893   -59112.492    4.3410722    4.3410722    4.3410722   -59112.492   -83209.629   -48128.333   -45999.513   -38216.619    2311.6823     27354.36    81.807107 
   27500    1871.9253   -121.16965    1.6937574   -119.47589   -37942.517    4.3325817    4.3325817    4.3325817   -37942.517   -21401.841   -83552.402   -8873.3069    18004.377   -2535.4152   -12703.242    81.328038 
   27600    1154.9488   -120.52046    1.0450219   -119.47544   -8843.2158    4.3028256    4.3028256    4.3028256   -8843.2158    29172.577   -70164.693    14462.469      17696.1    8104.8763   -59563.677    79.663842 
   27700    1724.3793    -121.0472    1.5602546   -119.48694    15819.678    4.2941333    4.2941333    4.2941333    15819.678     31753.07   -9246.5063    24952.471   -9709.3052    7775.2374    19330.196    79.182016 
   27800    2050.8283   -121.35888    1.8556325   -119.50325    1596.6807    4.3128958    4.3128958    4.3128958    1596.6807    22403.985   -45242.156    27628.213   -9379.2532    16958.256   -9340.2558    80.224477 
   27900    883.76751   -120.31416   0.79965142   -119.51451   -20610.699    4.3308264    4.3308264    4.3308264   -20610.699    62437.378   -87802.665   -36466.811    31443.209   -11579.059   -52292.984     81.22923 
   28000    1363.5598    -120.7291    1.2337776   -119.49532   -13023.321    4.3256927    4.3256927    4.3256927   -13023.321    9273.4441   -31773.754   -16569.654     22271.84   -3021.4984    14104.483    80.940708 
   28100      2169.14   -121.43755    1.9626835   -119.47487    30226.052    4.3054475    4.3054475    4.3054475    30226.052    48443.142   -16993.336    59228.351   -21062.523    1357.3619    24576.831    79.809557 
   28200    1348.7901   -120.72029    1.2204136   -119.49987    26391.443    4.2975607    4.2975607    4.2975607    26391.443    49886.555    12856.545    16431.229    12378.854   -3212.8445   -36586.859    79.371769 
   28300    768.92305   -120.22665   0.69573773   -119.53091    4066.1014    4.3149153    4.3149153    4.3149153    4066.1014   -9523.1542   -11880.852    33602.311    42584.109    3985.0865    -39314.83    80.337225 
   28400    1979.6917   -121.29717    1.7912666    -119.5059   -9411.3412    4.3313592    4.3313592    4.3313592   -9411.3412   -2695.4636   -39143.759    13605.199   -844.62697   -8719.2821   -1901.2966    81.259214 
   28500    1458.5786   -120.80681    1.3197526   -119.48706    34904.275    4.3318251    4.3318251    4.3318251    34904.275    37546.123    11580.883    55585.818    958.39509   -6379.1078    7744.1242    81.285435 
   28600    600.74255   -120.02467   0.54356449   -119.48111    559.65177    4.3383937    4.3383937    4.3383937    559.65177   -32282.194   -90430.605    124391.75    37973.531    13447.194   -39227.987     81.65577 
   28700      1865.16   -121.13565     1.687636   -119.44802   -13699.745    4.3356971    4.3356971    4.3356971   -13699.745   -35675.948   -53065.983    47642.697   -17589.101   -7148.4418   -15041.504    81.503602 
   28800    1857.6389   -121.13411    1.6808307   -119.45328    12532.237    4.3143866    4.3143866    4.3143866    12532.237    12705.518    -10738.03    35629.223    16725.155    8244.5683    6480.6887    80.307699 
   28900    1100.9908   -120.49062    0.9961996   -119.49442   -10795.439    4.3155878    4.3155878    4.3155878   -10795.439    1507.9643   -46860.846    12966.564    53116.411    11814.483     -6532.81    80.374795 
   29000    1814.0736   -121.13608    1.6414119   -119.49467   -14604.996    4.3315735    4.3315735    4.3315735   -14604.996    9917.9434   -63832.757    10099.824   -7654.7234   -133.24006   -37834.448    81.271272 
   29100    1965.2947   -121.25505      1.77824   -119.47681   -11467.714    4.3420584    4.3420584    4.3420584   -11467.714   -2726.1451   -51512.114    19835.118    12115.528   -4189.7731    15276.374    81.862874 
   29200    1017.4668   -120.38446   0.92062532   -119.46383    5466.1296    4.3419424    4.3419424    4.3419424    5466.1296   -13083.068   -9707.4784    39188.935    33615.199    25665.938   -2764.7456    81.856312 
   29300     1841.116   -121.10482    1.6658804   -119.43894    9000.8389    4.3265516    4.3265516    4.3265516    9000.8389    2681.2682   -19583.216    43904.464   -17192.004   -1185.0074   -4335.2218    80.988933 
   29400    1714.2054   -120.99734     1.551049    -119.4463     25924.15    4.2995623    4.2995623    4.2995623     25924.15    3915.3529     -24442.4    98299.498    29478.279   -6092.1349   -5766.7121    79.482724 
   29500    913.36133   -120.33585   0.82642852   -119.50942    13039.126    4.3075197    4.3075197    4.3075197    13039.126   -40336.732   -35329.247    114783.36    41077.813    27889.778    6534.4722    79.924847 
   29600    1701.7392    -121.0565    1.5397694   -119.51673   -54003.294    4.3362592    4.3362592    4.3362592   -54003.294   -58406.729   -44652.943   -58950.209   -5742.4343    43925.035   -16050.326    81.535303 
   29700     1484.036   -120.84719     1.342787    -119.5044   -7754.0725    4.3206076    4.3206076    4.3206076   -7754.0725    11235.282   -35182.805     685.3058    2268.1099    -2787.438    907.11086    80.655593 
   29800    1458.4327   -120.81115    1.3196206   -119.49153    14432.746    4.2961243    4.2961243    4.2961243    14432.746   -6035.0539   -36776.738    86110.029     36687.59   -9388.5968   -12556.368     79.29221 
   29900    2076.0972   -121.38637    1.8784963   -119.50788   -18904.279    4.3101406    4.3101406    4.3101406   -18904.279   -39204.925   -27855.864    10347.951    11803.906    10824.912    18070.492    80.070824 
   30000    1509.2048   -120.87994    1.3655602   -119.51438    2581.8608    4.3252363    4.3252363    4.3252363    2581.8608    3705.8765   -26062.202    30101.907   -14048.774    18467.482    27221.505    80.915091 
   30100    1311.3076   -120.70491    1.1864987   -119.51841   -29288.199    4.3292671    4.3292671    4.3292671   -29288.199   -38174.199   -62386.758    12696.361    8618.1203   -7518.7186    2125.8699     81.14152 
   30200    1727.2175   -121.07561    1.5628226   -119.51278   -17876.067    4.3277811    4.3277811    4.3277811   -17876.067    -63002.76   -8516.3864    17890.946    16653.262   -29784.372   -5365.8555    81.057997 
   30300    2158.3849    -121.4607     1.952952   -119.50775    16268.356    4.3054141    4.3054141    4.3054141    16268.356   -13402.881    32699.342    29508.607   -5121.2196    2976.3557    12382.011    79.807697 
   30400    1576.4672   -120.93331    1.4264206   -119.50689    62926.479    4.2850288    4.2850288    4.2850288    62926.479    35739.641    72360.358    80679.437    -7393.871    4729.0597    17579.059    78.679438 
   30500    1318.5335    -120.7559    1.1930369   -119.56286   -3115.9572    4.3232784    4.3232784    4.3232784   -3115.9572   -39439.713    25140.828    4951.0138    21925.259   -19038.409   -8394.9045    80.805254 
   30600    2035.9321   -121.33715    1.8421541   -119.49499    -22298.41    4.3557029    4.3557029    4.3557029    -22298.41   -91977.118    18039.867    7042.0226    12136.811    2902.8987   -7979.9892    82.637041 
   30700    1813.9209   -121.10344    1.6412737   -119.46217    9911.7572    4.3306481    4.3306481    4.3306481    9911.7572    -9465.562    33304.885    5895.9487   -9624.3291    22077.643    20051.846    81.219196 
   30800    1665.8819    -120.9525    1.5073249   -119.44517    21263.982    4.3078966    4.3078966    4.3078966    21263.982    75496.893   -9462.4975   -2242.4506     7447.856   -16590.175    18698.271     79.94583 
   30900    2080.3526   -121.34716    1.8823467   -119.46481    12815.751    4.3104034    4.3104034    4.3104034    12815.751   -9379.0469    18742.179     29084.12    4033.9123     6027.453   -8345.3972    80.085472 
   31000    1761.2261   -121.08421    1.5935944   -119.49062    17754.262    4.3152383    4.3152383    4.3152383    17754.262   -7117.1093    34542.733    25837.162   -18790.782    52531.931   -831.47848    80.355269 
   31100    1338.1966   -120.72223    1.2108284    -119.5114    592.28651    4.3264747    4.3264747    4.3264747    592.28651    34558.193   -22596.391   -10184.942   -5778.8044    12748.023    16209.899    80.984611 
   31200     2045.787   -121.35032    1.8510711   -119.49925    -25427.14    4.3230901    4.3230901    4.3230901    -25427.14    -11872.21   -47844.745   -16564.465     5990.726   -10267.867    33203.951    80.794697 
   31300    1612.2981    -120.9551    1.4588412   -119.49625    35746.389    4.2975183    4.2975183    4.2975183    35746.389    46955.173     53185.32    7098.6734    14910.206    41630.915    5060.5781    79.369422 
   31400    1568.2289   -120.93166    1.4189664   -119.51269   -9385.7205    4.3068499    4.3068499    4.3068499   -9385.7205   -32674.719    1851.4191    2666.1388   -27892.617     67610.48   -3562.6493    79.887568 
   31500    1436.6656   -120.80325    1.2999252   -119.50332   -13028.978    4.3262998    4.3262998    4.3262998   -13028.978   -12575.887   -51607.035    25095.989   -29211.161   -6129.7516    20074.828    80.974793 
   31600    1998.6109   -121.29177    1.8083851   -119.48339   -2130.2258    4.3189709    4.3189709    4.3189709   -2130.2258    -3395.749   -15483.278     12488.35    22554.521    4980.2458   -834.05242    80.563965 
   31700    1335.7144   -120.70058    1.2085824   -119.49199   -34119.968    4.3189361    4.3189361    4.3189361   -34119.968   -55723.192   -11721.322    -34915.39   -8597.4307    52866.486   -3019.0784    80.562018 
   31800    1147.2484   -120.54293    1.0380545   -119.50487   -40759.927    4.3099948    4.3099948    4.3099948   -40759.927   -39021.645   -79257.385   -4000.7518   -59470.132    18908.599    9128.6406    80.062703 
   31900    1631.1876   -120.98005    1.4759328   -119.50412    17348.816    4.3030176    4.3030176    4.3030176    17348.816    87584.896   -34904.375   -634.07381   -14478.101   -13313.641     20813.47    79.674503 
   32000    1880.7051   -121.20391    1.7017015   -119.50221   -2917.7499    4.3113011    4.3113011    4.3113011   -2917.7499    2855.0218   -3535.4235   -8072.8479    16615.238    17486.702    13556.349     80.13552 
   32100    1082.2595   -120.49414   0.97925111   -119.51489   -8047.7845    4.3216624    4.3216624    4.3216624   -8047.7845    3075.1166    -35531.44    8312.9697   -15713.128    34672.496   -1942.7391    80.714676 
   32200    1616.7952   -120.95347    1.4629102   -119.49056   -40920.648    4.3379988    4.3379988    4.3379988   -40920.648   -15442.287   -94025.344   -13294.311   -33049.625    -5020.535    10483.521    81.633474 
   32300    1707.8186   -121.00982    1.5452701   -119.46455   -10958.503    4.3238077    4.3238077    4.3238077   -10958.503    19192.124   -23281.607   -28786.026    28516.026   -18149.067   -4246.4111     80.83494 
   32400    1074.2724   -120.43653   0.97202423   -119.46451   -21659.892    4.3094597    4.3094597    4.3094597   -21659.892   -30457.601    14974.206   -49496.281    15171.456    28497.719   -7902.7612    80.032885 
   32500    2070.3474   -121.34851    1.8732938   -119.47522   -23326.996    4.3216427    4.3216427    4.3216427   -23326.996   -8223.6308   -25887.875   -35869.482   -4612.3217    5688.5027    1527.0858    80.713575 
   32600    1938.5688   -121.22354    1.7540578   -119.46948   -21384.544    4.3339446    4.3339446    4.3339446   -21384.544    21728.125   -58150.949   -27730.806        10828   -11390.994    26631.271    81.404809 
   32700    944.80112   -120.33055   0.85487591   -119.47567   -14427.067    4.3262175    4.3262175    4.3262175   -14427.067   -20565.873   -17364.979   -5350.3485    35342.422    17608.326     14846.02    80.970168 
   32800    1306.6322   -120.65609    1.1822683   -119.47382    14362.105    4.3170998    4.3170998    4.3170998    14362.105    47952.347    19027.592   -23893.623    3358.2857    32348.651    2971.4455    80.459301 
   32900    2090.3156   -121.35899    1.8913615   -119.46762    -6285.302     4.330686     4.330686     4.330686    -6285.302    49538.728   -48094.007   -20300.626   -18373.543   -1752.2215    8031.4428    81.221328 
   33000     1289.531   -120.63529    1.1667948    -119.4685   -20066.461    4.3342307    4.3342307    4.3342307   -20066.461    9711.7328   -51775.659   -18135.456    12899.883    6712.3702    9323.6005    81.420933 
   33100    1318.5576   -120.66629    1.1930586   -119.47323   -4302.5297    4.3145248    4.3145248    4.3145248   -4302.5297   -25088.354    34759.151   -22578.387     22203.66     25068.14   -4647.0219    80.315415 
   33200    2241.0106   -121.49866    2.0277135   -119.47094    25780.719    4.3010734    4.3010734    4.3010734    25780.719    11898.762    45192.174     20251.22   -4132.4681    5929.5355   -8049.3601    79.566558 
   33300    1859.9067    -121.1811    1.6828827   -119.49822    8335.1923    4.3046923    4.3046923    4.3046923    8335.1923   -17708.849    2727.8795    39986.546    848.05444   -10880.689    307.88763    79.767567 
   33400    1070.3715   -120.48289   0.96849467   -119.51439   -4223.6756    4.3181516    4.3181516    4.3181516   -4223.6756   -81821.619    59918.886    9231.7063    11349.423    30924.451    -6347.747    80.518127 
   33500    2043.4549   -121.34822    1.8489609   -119.49926    587.11808    4.3199438    4.3199438    4.3199438    587.11808   -23291.426    67421.793   -42369.013    12027.593    28596.838   -1504.8991    80.618424 
   33600    2037.5675   -121.33886    1.8436339   -119.49523    17689.534    4.3080927    4.3080927    4.3080927    17689.534     17424.64    34828.017    815.94509   -20753.078    -33403.65   -15969.417    79.956746 
   33700     1527.126   -120.89654    1.3817757   -119.51477   -15614.175    4.3064518    4.3064518    4.3064518   -15614.175   -45616.463   -4165.3766     2939.313   -6200.9902    3586.2191    4617.7134     79.86542 
   33800    1545.0723   -120.91039    1.3980139   -119.51237   -10862.539    4.3165113    4.3165113    4.3165113   -10862.539   -51237.841   -2145.5062    20795.729    26851.592     34176.16    10156.966    80.426402 
   33900    2123.7394   -121.41637    1.9216041   -119.49476   -22245.568    4.3263863    4.3263863    4.3263863   -22245.568   -31902.856    30376.363   -65210.212    3612.9602   -34449.682   -4277.0231    80.979647 
   34000    1614.9839   -120.96448    1.4612714   -119.50321   -35680.684    4.3177287    4.3177287    4.3177287   -35680.684    -53485.81    6299.6259   -59855.867   -11000.771   -46868.422   -12010.882     80.49447 
   34100    1858.1125   -121.17211    1.6812592   -119.49085     18469.31    4.2935325    4.2935325    4.2935325     18469.31   -23352.598   -3275.2844    82035.811    1289.0301    19180.986   -12269.201    79.148785 
   34200    1921.4948   -121.24481    1.7386089    -119.5062     6297.501    4.3092951    4.3092951    4.3092951     6297.501    -36749.84    50499.198    5143.1446    20334.811   -22966.041    12326.137    80.023713 
   34300    1673.7988   -121.01742    1.5144883   -119.50293    -34057.63    4.3302476    4.3302476    4.3302476    -34057.63   -63244.389    21483.245   -60411.744   -2747.9098   -52327.271    8106.1196    81.196664 
   34400    2107.9581   -121.38836    1.9073248   -119.48104    10010.721    4.3138838    4.3138838    4.3138838    10010.721   -27652.914    7009.4434    50675.634    10431.281    962.40321   -1630.2397    80.279623 
   34500    1769.5207   -121.08401    1.6010995   -119.48291    10136.138    4.3087696    4.3087696    4.3087696    10136.138    -35736.08    34793.769    31350.724    33774.797   -3534.3542   -10971.262    79.994442 
   34600    1611.1165   -120.95747    1.4577721    -119.4997   -21918.236    4.3185306    4.3185306    4.3185306   -21918.236   -43752.719   -5887.2565   -16114.733   -10143.921   -24231.573    4094.1788    80.539331 
   34700    2142.0295   -121.43286    1.9381533   -119.49471   -5726.8852    4.3082858    4.3082858    4.3082858   -5726.8852   -6087.6967   -2650.2134   -8442.7455   -6145.9149   -18427.365    34537.908    79.967498 
   34800    1586.8212   -120.94245    1.4357892   -119.50666    7574.2216    4.3120362    4.3120362    4.3120362    7574.2216     8382.384   -17937.919      32278.2     40717.68    13895.886   -8316.6702    80.176517 
   34900    1645.5538   -120.98236    1.4889316   -119.49343   -39673.179    4.3322103    4.3322103    4.3322103   -39673.179   -73205.044   -58778.532     12964.04   -5747.6506    4512.3936   -6096.7756    81.307123 
   35000    1856.9956   -121.16121    1.6802486   -119.48096   -31145.381    4.3202403    4.3202403    4.3202403   -31145.381   -23446.956   -45115.599   -24873.586   -22732.809   -22949.181    15878.463    80.635022 
   35100    1159.2271   -120.53375     1.048893   -119.48485    5864.4337    4.3049526    4.3049526    4.3049526    5864.4337    46930.147   -44165.564    14828.718    50884.935    3043.3135    13121.093    79.782039 
   35200    1679.3946   -121.01495    1.5195515    -119.4954   -2210.3548    4.3091321    4.3091321    4.3091321   -2210.3548    -11253.02   -9206.4963    13828.452    33962.202    3570.4099   -8372.1877    80.014631 
   35300    1918.6306   -121.23559    1.7360173   -119.49958     13898.26    4.3142419    4.3142419    4.3142419     13898.26    44866.721   -10751.279    7579.3368   -38344.104    11369.811    867.85429     80.29962 
   35400    1340.1502    -120.7229     1.212596   -119.51031   -3639.9952    4.3198111    4.3198111    4.3198111   -3639.9952    62927.796   -76985.784    3138.0016    6019.3203    7760.6949     40150.24    80.610992 
   35500    1363.4542    -120.7406     1.233682   -119.50692   -17838.106    4.3147506    4.3147506    4.3147506   -17838.106   -37803.591   -29686.592    13975.864     46004.81   -1758.3173     14709.68    80.328026 
   35600    1788.9943    -121.1145    1.6187197   -119.49578    25624.881    4.2988407    4.2988407    4.2988407    25624.881    3304.5332    38717.636    34852.475     7931.194   -27462.947   -30662.914    79.442712 
   35700    1802.2595   -121.14247    1.6307222   -119.51175   -7077.5805    4.3143101    4.3143101    4.3143101   -7077.5805   -950.54285   -32134.146    11851.947   -11664.719   -14411.441     18639.95    80.303427 
   35800    1490.7007   -120.84735    1.3488173   -119.49853   -28382.666    4.3334327    4.3334327    4.3334327   -28382.666   -28120.165   -60531.526    3503.6943    20594.788    13129.549    42839.189    81.375966 
   35900    2119.5506    -121.3938    1.9178139   -119.47599   -25369.903    4.3256581    4.3256581    4.3256581   -25369.903       -62950    -8492.392   -4667.3162    7673.8146   -28555.652   -6332.4931    80.938764 
   36000    1523.9899   -120.86476    1.3789381   -119.48582    -18752.12    4.3109843    4.3109843    4.3109843    -18752.12   -41140.011     12264.62   -27380.969   -14913.675   -45637.788   -18372.115    80.117856 
   36100     1600.017   -120.94813     1.447729    -119.5004   -14667.199    4.3054101    4.3054101    4.3054101   -14667.199    2712.8738   -38592.712   -8121.7577   -7008.6586    1373.1787     28046.65    79.807477 
   36200    2256.1938   -121.54689    2.0414516   -119.50544   -13198.751    4.3162245    4.3162245    4.3162245   -13198.751   -13463.849   -10977.792   -15154.612    7137.1672   -4347.8613    28416.416    80.410373 
   36300     1787.299   -121.11935    1.6171857   -119.50217   -5892.1079     4.319042     4.319042     4.319042   -5892.1079   -62490.856     48502.57   -3688.0378    4539.7952   -36260.219   -15696.924    80.567943 
   36400    1106.6616   -120.50669    1.0013307   -119.50536    14779.036    4.3198164    4.3198164    4.3198164    14779.036   -24646.662    29165.412    39818.358   -2727.1422   -20289.928   -4583.2581     80.61129 
   36500    2339.9476   -121.59741    2.1172338   -119.48018   -10471.014     4.325286     4.325286     4.325286   -10471.014   -2986.2293   -1928.2152   -26498.596    10981.756    12462.482      22140.2    80.917879 
   36600    1632.3289   -120.95724    1.4769655   -119.48028    23488.321    4.3070924    4.3070924    4.3070924    23488.321   -43297.028    25802.827    87959.165    11804.473   -22644.152    514.60313    79.901065 
   36700    1287.1807   -120.66558    1.1646682   -119.50091   -5688.4292    4.2972086    4.2972086    4.2972086   -5688.4292   -38699.642    43679.077   -22044.723   -14625.519   -39983.274   -9870.8862    79.352264 
   36800    1960.8758   -121.28873    1.7742417   -119.51448    4524.5916    4.3155732    4.3155732    4.3155732    4524.5916      6007.78     7824.006   -258.01128    -5782.315    9046.4848   -4208.2014    80.373975 
   36900    2026.2874   -121.33051    1.8334274   -119.49708    -17659.44    4.3404665    4.3404665    4.3404665    -17659.44   -44699.724   -25358.691    17080.096    16579.095    13580.185    16385.296    81.772869 
   37000    1207.9436   -120.58119    1.0929728   -119.48821   -31969.466    4.3325066    4.3325066    4.3325066   -31969.466   -64318.119   -15215.281   -16374.998    7564.6373   -28027.326    180.48187    81.323808 
   37100    1212.4113   -120.57733    1.0970152   -119.48031    15934.751    4.3018015    4.3018015    4.3018015    15934.751    21706.837    10921.367    15176.047   -2507.8451   -12502.908   -44129.268    79.606971 
   37200    1873.3824   -121.17389    1.6950757   -119.47882    27520.103    4.2964682    4.2964682    4.2964682    27520.103    15430.634   -2804.7226    69934.396    11889.129    19822.683   -2253.9697     79.31125 
   37300    1594.5778   -120.94754    1.4428075   -119.50474   -22256.986    4.3115821    4.3115821    4.3115821   -22256.986   -35335.655   -31088.676   -346.62753    25100.957   -7343.3124    39973.874    80.151191 
   37400    1105.7976   -120.51712    1.0005489   -119.51657   -8190.4247    4.3221237    4.3221237    4.3221237   -8190.4247   -13081.564    345.72568   -11835.436   -1617.0488   -18740.387   -10087.868    80.740526 
   37500    2160.9261   -121.44984    1.9552514   -119.49458   -18458.186    4.3171357    4.3171357    4.3171357   -18458.186   -13805.238    -29365.84    -12203.48   -7408.6486   -6037.2972   -12848.033    80.461313 
   37600    1418.2174   -120.78824    1.2832329     -119.505    26105.486    4.2982429    4.2982429    4.2982429    26105.486    29870.439    -2486.252    50932.271    16316.407     9900.592    24782.911    79.409572 
   37700    901.41154   -120.33528   0.81561611   -119.51966    12314.319    4.2977632    4.2977632    4.2977632    12314.319    30660.484   -35239.383    41521.854    10444.168    -26329.36    33059.145    79.382989 
   37800    1841.5399   -121.17303     1.666264   -119.50676   -6120.7736    4.3227977    4.3227977    4.3227977   -6120.7736   -4710.7897   -19148.409    5496.8777   -16665.742   -22404.005   -12599.136    80.778306 
   37900    1784.5435   -121.09368    1.6146925   -119.47899   -8018.3474    4.3313726    4.3313726    4.3313726   -8018.3474    27323.021    -66946.19    15568.127    1521.6051    12474.087   -860.91533    81.259968 
   38000    906.73736   -120.29805   0.82043502   -119.47762    3808.8265    4.3276714    4.3276714    4.3276714    3808.8265    14459.063    8267.5333   -11300.117    30401.165   -13758.577    53990.467    81.051831 
   38100    1892.1275   -121.18781    1.7120367   -119.47577   -9212.4806    4.3211047    4.3211047    4.3211047   -9212.4806   -26878.985    15909.327   -16667.784   -674.24969    -20427.07    2607.8875    80.683432 
   38200    2401.8207    -121.6492    2.1732179   -119.47598    35798.264    4.2924545    4.2924545    4.2924545    35798.264     26476.31    51170.798    29747.683    -8873.253   -3984.4543   -13063.128    79.089187 
   38300    1534.5576   -120.89827    1.3884999   -119.50977    31914.043    4.2866422    4.2866422    4.2866422    31914.043    50695.061    3570.6969     41476.37    22871.666    5755.8855     41934.48    78.768341 
   38400    1083.4993   -120.51325   0.98037293   -119.53288   -28214.166    4.3188472    4.3188472    4.3188472   -28214.166   -39937.236    -56969.69    12264.428    33156.849    -17023.91    22403.266    80.557045 
   38500    2156.7793   -121.45406    1.9514992   -119.50256   -15860.243    4.3190393    4.3190393    4.3190393   -15860.243   -23383.131    -9071.986   -15125.614   -11813.503   -24744.111   -16050.638    80.567791 
   38600    1994.6151   -121.29542    1.8047697   -119.49065    32568.235    4.3069112    4.3069112    4.3069112    32568.235    81026.485   -9294.6618    25972.884   -7709.3473   -615.25678    13352.632    79.890983 
   38700    1318.3323    -120.7012    1.1928548   -119.50835   -16590.168      4.31679      4.31679      4.31679   -16590.168   -22366.386   -68357.463    40953.344    63889.858    5458.0683    45729.882    80.441983 
   38800    1903.4728   -121.21269    1.7223022   -119.49038    17550.892    4.3070563    4.3070563    4.3070563    17550.892    16035.075    17982.567    18635.034    37873.446   -10585.225    11618.069    79.899053 
   38900    2272.1484   -121.54019    2.0558876    -119.4843    45771.161    4.3070736    4.3070736    4.3070736    45771.161    98734.027    28269.045    10310.412   -26164.203   -7979.7544   -5900.3064    79.900017 
   39000    1582.9497   -120.93108    1.4322862   -119.49879    -26531.01    4.3328009    4.3328009    4.3328009    -26531.01   -33901.397   -52402.127    6710.4946    25413.183    20282.728    21964.132    81.340378 
   39100    1927.7058   -121.23483    1.7442287    -119.4906    1683.7608    4.3141845    4.3141845    4.3141845    1683.7608    5723.3539   -2350.0863     1678.015    34789.924    6361.9736    7244.6687    80.296412 
   39200    2001.8114   -121.28612     1.811281   -119.47484    44402.038    4.2854491    4.2854491    4.2854491    44402.038     15870.35    60266.978    57068.786   -11144.852   -44171.236   -11597.543    78.702591 
   39300    1794.6386   -121.13287    1.6238267   -119.50904   -16224.166    4.3094733    4.3094733    4.3094733   -16224.166   -29870.579   -2549.5425   -16252.376   -9749.0591   -18212.734    16830.081     80.03364 
   39400    2133.9332   -121.42352    1.9308276   -119.49269   -10028.975    4.3238689    4.3238689    4.3238689   -10028.975   -4542.7565   -13822.305   -11721.864    22715.084    31937.565    19291.003    80.838368 
   39500    2009.5396   -121.29841    1.8182737   -119.48014    38890.325    4.3071434    4.3071434    4.3071434    38890.325    17215.172    63269.462    36186.343    11314.382     -23746.8    2153.3985    79.903902 
   39600    1328.2334   -120.69459    1.2018135   -119.49277    17915.582    4.3098752    4.3098752    4.3098752    17915.582    24993.666    17094.154    11658.927   -18625.238   -43860.646   -9210.6719    80.056034 
   39700    1652.5854   -120.98543     1.495294   -119.49013   -21835.761    4.3201505    4.3201505    4.3201505   -21835.761   -2521.6058   -34076.099   -28909.578    -12320.68    35698.062    17161.348    80.629994 
   39800    2026.4852    -121.3166    1.8336064   -119.48299    38469.498    4.2942474    4.2942474    4.2942474    38469.498    40094.805    51720.292    23593.397    7452.6958    7362.0117     7929.439    79.188332 
   39900    1333.2418   -120.71634    1.2063452   -119.50999    15984.936    4.2993736    4.2993736    4.2993736    15984.936    7209.8827     21956.25    18788.674   -1219.1883   -65722.566   -10369.809    79.472261 
   40000    1162.4405   -120.55193    1.0518006   -119.50013   -48673.095    4.3307585    4.3307585    4.3307585   -48673.095   -56140.896   -70230.141    -19648.25   -40826.105    -7807.029   -3418.5076    81.225408 
   40100    2174.8859   -121.43571    1.9678825   -119.46783   -4879.7484    4.3128851    4.3128851    4.3128851   -4879.7484   -20957.726   -17095.274    23413.755   -1813.7093    23838.339    15000.513    80.223883 
   40200    1444.2721   -120.77773    1.3068077   -119.47092    -7137.853    4.3075139    4.3075139    4.3075139    -7137.853   -46754.182    33491.915    -8151.292     7181.249   -71795.732   -5163.2054    79.924523 
   40300    1458.2796   -120.80045     1.319482   -119.48097   -48085.255    4.3197867    4.3197867    4.3197867   -48085.255   -52593.654   -43926.392   -47735.719   -23263.519   -35132.219   -7575.9544    80.609629 
   40400    2281.0112   -121.53983    2.0639069   -119.47592    12359.836    4.2982679    4.2982679    4.2982679    12359.836    712.95193    4840.9572    31525.599   -28451.632    20927.492   -6535.4589    79.410958 
   40500    1869.1362   -121.19066    1.6912337   -119.49942    24085.182    4.2996938    4.2996938    4.2996938    24085.182   -31596.814    96177.074    7675.2872    2535.1232   -65490.047    6961.3347    79.490016 
   40600    1842.3289   -121.16546    1.6669779   -119.49848   -30843.592    4.3213075    4.3213075    4.3213075   -30843.592   -45650.504   -3207.4367   -43672.834   -3852.8049   -38731.134    9566.8851    80.694794 
   40700    1704.3866   -121.03427    1.5421648    -119.4921   -10032.714    4.3062396    4.3062396    4.3062396   -10032.714    -21365.63   -18883.357    10150.845    -37700.69     19568.08   -21404.422    79.853614 
   40800    1901.9551   -121.21059    1.7209289   -119.48966    20787.915    4.3028504    4.3028504    4.3028504    20787.915   -4557.8555    54602.994    12318.607   -9283.8718   -14059.441   -1368.1501    79.665215 
   40900    1960.7071   -121.25249    1.7740889    -119.4784   -19382.743    4.3288326    4.3288326    4.3288326   -19382.743   -12511.216     8000.578    -53637.59   -1153.2142   -33146.084    11166.727    81.117093 
   41000    1639.4888   -120.96459    1.4834439   -119.48115   -23863.178    4.3159232    4.3159232    4.3159232   -23863.178   -26055.659   -45353.712   -180.16071   -32872.962   -5499.4958   -8464.2017    80.393537 
   41100    1844.6888   -121.13721    1.6691132    -119.4681     33316.48    4.2961189    4.2961189    4.2961189     33316.48    27990.495    20877.546    51081.398   -19457.027    -1076.528   -11615.809    79.291909 
   41200     1856.776   -121.15862      1.68005   -119.47857   -4329.6661    4.3077756    4.3077756    4.3077756   -4329.6661    -21984.91    49339.928   -40344.017    6762.9647   -21145.568    3801.1083    79.939091 
   41300    1290.6991   -120.66414    1.1678517   -119.49629    5686.4605    4.3117492    4.3117492    4.3117492    5686.4605    44860.945   -17378.846   -10422.717    7814.1713   -20426.182    17627.205    80.160512 
   41400    1986.3683   -121.29457    1.7973078   -119.49726   -122.55872    4.3183463    4.3183463    4.3183463   -122.55872    1369.1713   -35909.384    34172.537   -40400.032    3614.9173    1900.6724    80.529015 
   41500    1989.6587   -121.29832     1.800285   -119.49804    1499.3427     4.306252     4.306252     4.306252    1499.3427     13210.91     14384.69   -23097.572    -18080.61    24186.347    -16706.27    79.854302 
   41600    586.94496   -120.03951   0.53108014   -119.50843    43718.378      4.29099      4.29099      4.29099    43718.378    69039.655     71761.47   -9645.9899    27484.306   -5436.0098   -7858.8576    79.008261 
   41700    1762.7018   -121.11166    1.5949297   -119.51673   -12419.199    4.3132572    4.3132572    4.3132572   -12419.199   -14110.676   -21864.437   -1282.4836    1528.5107   -10850.949    3287.8111    80.244646 
   41800    2435.7349   -121.69207    2.2039041   -119.48817    4159.0996     4.317917     4.317917     4.317917    4159.0996    58776.202   -43249.547   -3049.3559   -11231.241    8568.4096   -10342.806    80.505004 
   41900    838.60221   -120.26204    0.7587849   -119.50325    14983.756     4.312069     4.312069     4.312069    14983.756    50658.276   -97.622499   -5609.3844    10526.091    3812.3412   -12567.978    80.178348 
   42000    1494.7702   -120.84377    1.3524995   -119.49127   -19064.253    4.3208717    4.3208717    4.3208717   -19064.253   -32749.641   -2344.3553   -22098.764     3978.588   -4915.9177    6844.1578    80.670382 
   42100    2241.8491   -121.50179    2.0284722   -119.47331     16113.94    4.3071391    4.3071391    4.3071391     16113.94    35397.674   -6828.5326    19772.678   -15165.053   -10753.341    1760.9659    79.903666 
   42200    1192.0632    -120.5683    1.0786038   -119.48969    12653.264    4.3007471    4.3007471    4.3007471    12653.264    43325.853   -3971.6834   -1394.3761   -16327.922    14937.067   -20726.249    79.548447 
   42300    1932.9732   -121.23558    1.7489948   -119.48659   -21930.273    4.3180735    4.3180735    4.3180735   -21930.273   -13645.874   -3389.3116   -48755.634     2159.093    3283.4696   -21422.839    80.513756 
   42400    2435.9747   -121.67781    2.2041211   -119.47369   -10704.762    4.3185476    4.3185476    4.3185476   -10704.762   -26563.068   -5355.7947   -195.42331    13428.685   -20384.604   -2984.6641    80.540279 
   42500    1261.0559   -120.62865    1.1410299   -119.48762    379.49953    4.3047567    4.3047567    4.3047567    379.49953    16511.857   -9025.6291   -6347.7294   -7950.8889    6999.3305    3872.9795    79.771144 
   42600    2031.0459   -121.32935     1.837733   -119.49162   -11846.135    4.3060977    4.3060977    4.3060977   -11846.135   -23311.639    13526.102   -25752.867   -8717.8609    16898.324    751.57802    79.845718 
   42700    2283.3668   -121.54939    2.0660383   -119.48335    9117.4999    4.3158853    4.3158853    4.3158853    9117.4999   -43541.972    43381.526    27512.946     18766.44   -4134.8329     4010.419    80.391417 
   42800    1100.1907   -120.48999   0.99547568   -119.49451   -4779.7124    4.3164679    4.3164679    4.3164679   -4779.7124   -30713.989    -43090.95    59465.802    25251.647   -656.58275    7231.6784    80.423976 
   42900    2013.3045   -121.30548    1.8216803    -119.4838   -13571.448    4.3130299    4.3130299    4.3130299   -13571.448   -20155.071   -8664.9116   -11894.362   -19616.276   -12342.468    8688.5021    80.231958 
   43000    2400.0413   -121.64811    2.1716078    -119.4765    21521.857    4.3051443    4.3051443    4.3051443    21521.857   -37853.184    48486.084    53932.671     20325.05    1263.8051   -548.59346    79.792698 
   43100    1195.4911    -120.5874    1.0817055   -119.50569   -28635.853    4.3149771    4.3149771    4.3149771   -28635.853   -75127.439   -49677.705    38897.583    71970.393   -348.19233    12103.958    80.340676 
   43200     1756.058   -121.07799    1.5889182   -119.48907   -24941.351    4.3228564    4.3228564    4.3228564   -24941.351   -49825.859   -19771.451    -5226.743   -13482.279   -19788.845    33638.245    80.781597 
   43300     2468.502   -121.70133    2.2335525   -119.46778   -5768.2459    4.3190715    4.3190715    4.3190715   -5768.2459   -41256.809    31182.847   -7230.7759    6820.1509   -6410.8828   -7359.2962    80.569594 
   43400    1402.5526   -120.75664    1.2690591   -119.48758   -29033.667    4.3144293    4.3144293    4.3144293   -29033.667    -71781.17   -32663.374    17343.544    74297.121    3691.3315   -8950.8062    80.310083 
   43500    1566.2619   -120.91215    1.4171867   -119.49496   -7877.4383    4.3021422    4.3021422    4.3021422   -7877.4383   -25113.318   -29099.313    30580.316    4615.5456    4795.8437    8345.3538    79.625885 
   43600    2499.2148   -121.75544    2.2613421    -119.4941    30867.928    4.3049169    4.3049169    4.3049169    30867.928    18609.799    38059.457    35934.529   -24307.634   -6683.1577    4758.0999    79.780054 
   43700    1654.1609   -121.00045    1.4967196   -119.50373   -28930.976    4.3264712    4.3264712    4.3264712   -28930.976   -36462.676   -63633.612     13303.36    58507.122   -9861.2923   -4258.6393    80.984415 
   43800    989.59305   -120.39517   0.89540459   -119.49977    -5500.251    4.3244255    4.3244255    4.3244255    -5500.251   -14614.074   -61445.285    59558.607    31882.057   -2754.3227   -4288.9111    80.869594 
   43900    2810.4425    -122.0001    2.5429474   -119.45715    13831.128    4.3092607    4.3092607    4.3092607    13831.128    6163.6483    25562.528    9767.2088   -28865.151   -8300.3478    11106.142    80.021797 
   44000    1487.0116   -120.82383    1.3454794   -119.47835   -26130.305    4.3147635    4.3147635    4.3147635   -26130.305   -55224.402   -73145.898    49979.386    64661.917   -9828.6606   -7102.5107    80.328745 
   44100    1171.4011   -120.54813    1.0599084   -119.48822    -40812.22    4.3172179    4.3172179    4.3172179    -40812.22   -35314.878   -85306.701   -1815.0804    45535.845   -1815.8797   -25268.281    80.465905 
   44200    2423.7669   -121.66652    2.1930753   -119.47345    -5571.899    4.3199051    4.3199051    4.3199051    -5571.899   -15393.614     23469.61   -24791.693   -17427.929   -13897.065    4510.8554    80.616257 
   44300    1692.0325   -121.00924    1.5309865   -119.47825   -25613.006    4.3272666    4.3272666    4.3272666   -25613.006   -77523.188   -50795.311    51479.481    71550.196    860.28803    11387.223     81.02909 
   44400    1633.4237   -120.95462    1.4779561   -119.47667   -11363.296    4.3046299    4.3046299    4.3046299   -11363.296   -39862.424   -14054.722     19827.26     41399.16    10422.807    -4973.449    79.764099 
   44500    1974.2472   -121.26472    1.7863404   -119.47838    26694.438     4.302001     4.302001     4.302001    26694.438    9480.0679    50518.048    20085.199   -31531.383   -1765.1096   -32906.684    79.618045 
   44600    1219.8362    -120.5984    1.1037334   -119.49466   -40672.777    4.3245832    4.3245832    4.3245832   -40672.777   -82129.969   -92895.097    53006.734    76639.934   -4816.5188    759.47926    80.878443 
   44700    1542.3305   -120.87548     1.395533   -119.47995   -25433.947    4.3141728    4.3141728    4.3141728   -25433.947   -66357.076   -38753.816    28809.052    67526.569    18651.466    8570.8593    80.295761 
   44800    2553.4429   -121.77903    2.3104088   -119.46862    17198.186    4.3057637    4.3057637    4.3057637    17198.186    34648.107    12056.859    4889.5903   -24917.212    5422.9787    5607.0892    79.827142 
   44900    990.19704   -120.39688   0.89595109   -119.50093   -22527.639    4.3181301    4.3181301    4.3181301   -22527.639   -64105.875     -98419.8    94942.757    78981.892    1547.6656   -10148.566    80.516922 
   45000    1190.8033   -120.56515    1.0774638   -119.48768   -8693.8956     4.307868     4.307868     4.307868   -8693.8956   -44865.187   -60409.475    79192.975    60174.487    8803.1255   -11672.542    79.944239 
   45100    2082.7989   -121.36425    1.8845602   -119.47969    18313.389    4.3150106    4.3150106    4.3150106    18313.389    55986.774   -7666.8334    6620.2275   -27556.504    2029.7441    11342.909    80.342548 
   45200    1162.0957   -120.54328    1.0514886   -119.49179   -30988.747     4.333378     4.333378     4.333378   -30988.747   -46301.266   -79873.086    33208.109    76311.161    11709.784    8562.6298    81.372887 
   45300     1496.419   -120.83106    1.3539914   -119.47707    4206.5474    4.3143528    4.3143528    4.3143528    4206.5474   -23322.137   -25895.124    61836.903    65855.813    7171.3857   -10845.638    80.305809 
   45400    2214.2644   -121.46621    2.0035129   -119.46269    21430.688    4.3114251    4.3114251    4.3114251    21430.688    60921.033    18850.912   -15479.882   -16898.776   -9861.0957   -1148.7213    80.142434 
   45500    843.32154   -120.25312   0.76305506   -119.49006   -23675.237    4.3373266    4.3373266    4.3373266   -23675.237   -29831.874   -59799.706    18605.869    70155.757   -539.10726     4154.894     81.59553 
   45600    1443.4625   -120.77655    1.3060752   -119.47047   -14363.641    4.3320577    4.3320577    4.3320577   -14363.641   -28466.055   -1791.3487   -12833.519    58548.771    9981.9875    15651.022    81.298529 
   45700    2178.4392   -121.41604    1.9710976   -119.44494     22641.55     4.313611     4.313611     4.313611     22641.55    46736.544    25928.579   -4740.4731   -19287.679    458.24471   -20190.526    80.264394 
   45800    1202.6527   -120.55767    1.0881855   -119.46949   -27612.335    4.3204168    4.3204168    4.3204168   -27612.335   -5511.4415   -92835.729    15510.164    60961.601   -4878.0008   -19107.097    80.644907 
   45900    1563.0071   -120.87947    1.4142417   -119.46523   -15929.098    4.3278705    4.3278705    4.3278705   -15929.098   -21892.236   -40191.512    14296.454    41107.348   -2189.2722    26787.382    81.063017 
   46000    1916.3161   -121.19011    1.7339231   -119.45618   -10037.232    4.3263067    4.3263067    4.3263067   -10037.232   -3697.2797   -3945.9061   -22468.509   -19692.949    13575.275   -37856.534    80.975181 
   46100    1320.4748   -120.67122    1.1947933   -119.47643   -21245.855    4.3183185    4.3183185    4.3183185   -21245.855   -16349.911   -51865.587    4477.9322    29945.502    1163.4979   -29154.184     80.52746 
   46200    1140.2147   -120.53192    1.0316902   -119.50023   -17952.278    4.3082016    4.3082016    4.3082016   -17952.278   -25605.259   -60931.745    32680.169    70996.216   -8225.3555    36208.857    79.962809 
   46300    2142.2982   -121.43954    1.9383965   -119.50114    4085.3098    4.3020152    4.3020152    4.3020152    4085.3098    3599.3507    7435.0633    1221.5155    6722.9918   -8585.6003    9729.3435    79.618838 
   46400    1730.7257   -121.07949     1.565997   -119.51349     22981.72    4.3110462    4.3110462    4.3110462     22981.72    56232.673    12948.199   -235.71051   -6575.1591    2937.1399   -22196.838     80.12131 
   46500    1118.4055   -120.52706    1.0119568    -119.5151   -1723.0121    4.3269851    4.3269851    4.3269851   -1723.0121     22474.55   -41597.191    13953.605    63965.551   -1560.1479   -4685.2616    81.013275 
   46600     1729.112   -121.04143    1.5645369   -119.47689    10339.441    4.3392662    4.3392662    4.3392662    10339.441    32688.666   -9580.5217    7910.1797    26983.429   -12230.399     9045.381    81.705049 
   46700    1720.8296    -120.9996    1.5570428   -119.44255   -11276.871    4.3449639    4.3449639    4.3449639   -11276.871    8990.1066   -43162.508    341.79014   -20459.133   -5542.1959   -21155.678    82.027321 
   46800     1179.095   -120.50877      1.06687    -119.4419   -16832.571    4.3278221    4.3278221    4.3278221   -16832.571   -57584.023   -33677.376    40763.687    39615.001      14820.2   -21337.786    81.060299 
   46900    2206.7255   -121.43848    1.9966916   -119.44179    13425.706    4.2981637    4.2981637    4.2981637    13425.706   -5008.6749    12181.387    33104.405    24176.882   -7298.2005    10102.488    79.405182 
   47000    1921.5893   -121.20586    1.7386944   -119.46717    27622.328    4.2941191    4.2941191    4.2941191    27622.328    40935.724   -4061.8531    45993.113   -16328.266   -19004.701   -18010.737    79.181232 
   47100    1361.7385   -120.73708    1.2321296   -119.50495    554.07287     4.318489     4.318489     4.318489    554.07287    5563.2986   -52479.454    48578.374     10037.45    5066.4994   -35908.766    80.537001 
   47200    2100.1796   -121.37197    1.9002866   -119.47168   -7656.0021    4.3389665    4.3389665    4.3389665   -7656.0021   -32711.008   -10507.277    20250.279    33074.193    20715.153    5459.4033    81.688118 
   47300    1703.3382   -120.99298    1.5412162   -119.45177    -3633.271    4.3324107    4.3324107    4.3324107    -3633.271   -2663.4891   -34630.616    26394.292   -12718.856    -7774.239   -9402.6999    81.318406 
   47400    1110.6982   -120.46195    1.0049831   -119.45696   -9299.2198    4.3176916    4.3176916    4.3176916   -9299.2198    22678.448    -66626.02    16049.913   -9412.6608   -17015.822   -44784.463    80.492396 
   47500    2329.2987   -121.56264    2.1075984   -119.45504   -434.19565    4.3045753    4.3045753    4.3045753   -434.19565    7574.4949   -31029.418    22152.336    21597.761   -3505.0313    2851.9172    79.761063 
   47600    1943.4764   -121.24191    1.7584983   -119.48341    17423.501    4.3007268    4.3007268    4.3007268    17423.501    10153.506    44859.238    -2742.241   -708.81162    29004.815    10912.197    79.547321 
   47700    937.24955   -120.36405   0.84804308   -119.51601   -31866.245    4.3173856    4.3173856    4.3173856   -31866.245    4681.7981   -29264.755   -71015.778   -16547.607    7539.3003   -23684.805    80.475281 
   47800    2052.9616   -121.34523    1.8575628   -119.48767   -6275.8184    4.3204433    4.3204433    4.3204433   -6275.8184    8483.5373   -21391.304   -5919.6882   -23020.339   -19212.265   -7130.5764    80.646392 
   47900    2167.5658   -121.43615    1.9612591   -119.47489   -14498.141    4.3162262    4.3162262    4.3162262   -14498.141   -18041.979    945.82107   -26398.265    3292.3169     37251.08    3186.5635    80.410466 
   48000    1038.7546   -120.42681   0.93988703   -119.48692   -11049.389    4.3108469    4.3108469    4.3108469   -11049.389    30885.428   -4204.8349    -59828.76    6790.7439    16531.087   -11633.795    80.110198 
   48100    2207.4872   -121.47241    1.9973808   -119.47503    10886.588    4.3151694    4.3151694    4.3151694    10886.588    35733.511   -26871.058    23797.313   -11294.107   -8239.7354    -2882.858    80.351419 
   48200    2045.7272   -121.32867    1.8510169   -119.47765    5111.8968    4.3253561    4.3253561    4.3253561    5111.8968    2277.4469   -2711.6237    15769.867    16800.914    7574.2199    9176.1454    80.921814 
   48300    743.38232   -120.17085   0.67262794   -119.49822   -13336.987    4.3197371    4.3197371    4.3197371   -13336.987   -39577.289    37853.559   -38287.232    15941.844    20190.745    3198.8169    80.606849 
   48400    1569.0866   -120.91708    1.4197425   -119.49734   -5726.9812    4.3068246    4.3068246    4.3068246   -5726.9812   -3681.4784      21014.7   -34514.165   -7745.9863   -13486.737    13318.444    79.886162 
   48500    2357.6348   -121.62109    2.1332375   -119.48785     41468.55    4.2972048    4.2972048    4.2972048     41468.55    19426.696     29671.59    75307.363   -16862.465   -13586.935    3777.0836    79.352052 
   48600    1227.2325   -120.63376    1.1104258   -119.52333   -5771.9389    4.3230256    4.3230256    4.3230256   -5771.9389   -7089.2372    44412.099   -54638.679    722.71922    38933.117   -9595.3036     80.79108 
   48700    1468.0891   -120.81508    1.3283579   -119.48673   -34156.205    4.3427014    4.3427014    4.3427014   -34156.205   -504.75662   -10475.372   -91488.485    18323.252    4682.7112    4629.8605    81.899248 
   48800    2209.4242   -121.45557    1.9991335   -119.45644    -8882.383    4.3239175    4.3239175    4.3239175    -8882.383   -11962.897   -50506.459    35822.207   -30385.532   -15832.023    3384.3126    80.841096 
   48900    1336.3175   -120.68147    1.2091282   -119.47235     10906.23    4.2986019    4.2986019    4.2986019     10906.23    -7737.646    16989.428    23466.906   -26631.267     40313.81   -5152.0327    79.429471 
   49000     1213.728   -120.59523    1.0982066   -119.49703    19127.319    4.2913975    4.2913975    4.2913975    19127.319    19620.082    19275.713    18486.161    16883.471    34078.594   -6326.4899    79.030775 
   49100    2223.2445    -121.5254    2.0116383   -119.51376   -3520.0333    4.3100045    4.3100045    4.3100045   -3520.0333    19500.002   -38012.681    7952.5791   -3181.1069   -24614.019    724.10193    80.063239 
   49200    1701.6847   -121.04815    1.5397201   -119.50843   -6648.4866    4.3248761    4.3248761    4.3248761   -6648.4866   -25124.506    4091.9704    1087.0761   -13552.552    37734.943    9515.0632    80.894874 
   49300    1055.4819   -120.44449   0.95502223   -119.48946    6114.2536    4.3192705    4.3192705    4.3192705    6114.2536   -19870.096    50964.561   -12751.704   -12412.941    71146.132    24337.122     80.58073 
   49400    2272.5403   -121.51871    2.0562422   -119.46246   -3954.0652    4.3177999    4.3177999    4.3177999   -3954.0652   -10673.716    11354.591    -12543.07    10852.007   -28086.716   -9842.5124    80.498455 
   49500    1499.3075   -120.84201    1.3566049   -119.48541   -20389.895    4.3081461    4.3081461    4.3081461   -20389.895   -47165.859     30512.75   -44516.576    17194.461    39321.189   -11497.982    79.959723 
   49600      1044.52   -120.45029   0.94510361   -119.50519    -1938.955    4.2918448    4.2918448    4.2918448    -1938.955   -61363.372    75357.965   -19811.458   -5821.5425    90857.521   -15790.493    79.055486 
   49700    2114.3404   -121.42442    1.9130996   -119.51132    11010.183    4.3051662    4.3051662    4.3051662    11010.183   -18196.064   -13851.205    65077.818    -29090.15   -21314.048    3607.7298    79.793913 
   49800    2037.6336   -121.34651    1.8436937   -119.50282   -15217.675    4.3148424    4.3148424    4.3148424   -15217.675   -19805.003    1397.1907   -27245.214    -9741.351     28328.33    13908.795    80.333153 
   49900    1442.0144   -120.81172    1.3047649   -119.50696   -2345.0464     4.307027     4.307027     4.307027   -2345.0464   -42784.419    63404.969   -27655.689    10875.775    90910.526   -12288.001    79.897425 
   50000    1850.3192   -121.17574    1.6742077   -119.50153   -8126.8622    4.3033592    4.3033592    4.3033592   -8126.8622   -36533.588    239.67968    11913.322   -18165.731    2513.3333    9520.3803    79.693482 
   50100    1542.5863   -120.90587    1.3957645   -119.51011   -12146.941    4.3015682    4.3015682    4.3015682   -12146.941   -33056.306   -529.21117   -2855.3048   -14954.853   -28696.145   -5422.2711    79.594019 
   50200    1737.3254   -121.08487    1.5719685    -119.5129    1210.1945    4.3030151    4.3030151    4.3030151    1210.1945   -34397.067    73570.065   -35542.414    -11966.92    26047.233   -2143.2567    79.674363 
   50300    2294.3523    -121.5789    2.0759781   -119.50292    1533.5137    4.3086881    4.3086881    4.3086881    1533.5137   -33623.582    60277.779   -22053.656    22622.155    24171.625    10059.636    79.989903 
   50400    1175.9476   -120.58663    1.0640221   -119.52261   -10258.844    4.3017868    4.3017868    4.3017868   -10258.844   -70851.098   -11022.545     51097.11    6969.7259   -15130.172    -15252.76    79.606154 
   50500    938.32773   -120.38298   0.84901865   -119.53396   -16689.583    4.2972312    4.2972312    4.2972312   -16689.583   -95422.101    21598.537    23754.815    -22258.75   -28848.701   -1464.2951    79.353512 
   50600    2662.2515   -121.92823    2.4088611   -119.51937    5853.0544    4.3033644    4.3033644    4.3033644    5853.0544   -26489.615    45743.109   -1694.3305   -12060.003   -2836.5759    9755.5567    79.693767 
   50700     2290.884   -121.58509    2.0728399   -119.51225    5772.3614    4.3131252    4.3131252    4.3131252    5772.3614   -48640.906    66976.291   -1018.3006    13269.014    17796.403     1742.189    80.237282 
   50800    1145.4519   -120.54765     1.036429   -119.51122   -21855.677      4.31443      4.31443      4.31443   -21855.677   -100931.76    13094.097    22270.634   -9872.7675   -13022.102   -8242.8183    80.310119 
   50900       1763.3   -121.09274    1.5954709   -119.49727   -8341.9106    4.3043034    4.3043034    4.3043034   -8341.9106   -70486.305    17531.497    27929.076    -12050.91   -12600.186    -6718.474     79.74595 
   51000    1773.6415   -121.10593    1.6048281    -119.5011    -234.5924    4.2998858    4.2998858    4.2998858    -234.5924   -43796.193     75866.19   -32773.774    9139.5185      57482.4    16202.915    79.500663 
   51100    1770.9205    -121.1112    1.6023661   -119.50883   -6665.4156    4.2999739    4.2999739    4.2999739   -6665.4156   -44122.377    57789.673   -33663.543   -10153.465    44102.934    11278.794    79.505552 
   51200    2224.8074   -121.52197    2.0130525   -119.50892    -11360.56    4.3035262    4.3035262    4.3035262    -11360.56   -43655.486   -18688.284    28262.089   -18168.906   -21722.769   -5771.2429    79.702761 
   51300    1175.1586   -120.58757    1.0633082   -119.52426   -32415.528    4.3189611    4.3189611    4.3189611   -32415.528   -103902.02     6146.698    508.74072    -11169.88    50100.364     6394.818     80.56342 
   51400    1135.2116    -120.5455    1.0271633   -119.51834   -19632.905     4.317242     4.317242     4.317242   -19632.905   -83370.095    69857.363   -45385.983    15449.795    65247.794    12429.124    80.467256 
   51500    2132.1428   -121.42975    1.9292076   -119.50054    13153.364    4.2943643    4.2943643    4.2943643    13153.364    2312.1932    37316.719   -168.82104   -11158.367   -31302.732    17669.743    79.194797 
   51600    1844.6073   -121.17779    1.6690394   -119.50875    21117.947     4.294529     4.294529     4.294529    21117.947   -13228.777    66819.008    9763.6118   -4977.3187   -11845.129   -19151.438    79.203907 
   51700    1799.8206    -121.1428    1.6285155   -119.51428    963.85858    4.3153602    4.3153602    4.3153602    963.85858   -55165.813    37255.928    20801.461    6743.9119     52234.77   -19941.921    80.362077 
   51800    1759.1436   -121.10083    1.5917101   -119.50912     5888.977    4.3098461    4.3098461    4.3098461     5888.977   -4819.2323    24257.638   -1771.4743    3974.0155   -14577.375   -3010.2479    80.054413 
   51900    1195.0942   -120.59102    1.0813464   -119.50968    5348.3764    4.3031393    4.3031393    4.3031393    5348.3764   -2924.7414    33696.031    -14726.16    6053.9006   -57979.082    19988.117    79.681263 
   52000    1913.9869   -121.23582    1.7318155     -119.504     -8820.12    4.3130623    4.3130623    4.3130623     -8820.12   -6574.2417   -18958.573   -927.54581   -17489.638    8659.1839   -7104.6157    80.233769 
   52100    2015.1445     -121.324    1.8233451   -119.50065    2430.6139    4.3076737    4.3076737    4.3076737    2430.6139     1582.716   -19376.492    25085.617   -22538.409   -3272.2509   -20287.176    79.933419 
   52200    1746.8183   -121.08394    1.5805579   -119.50338    9698.6134    4.3036653    4.3036653    4.3036653    9698.6134     13055.41    12579.256    3461.1743    288.79773   -65501.299    10363.602    79.710488 
   52300    1585.7811    -120.9412    1.4348481   -119.50635   -18470.047    4.3128933    4.3128933    4.3128933   -18470.047    1660.8475    -38621.58   -18449.407   -3770.5918   -21259.428    15638.988    80.224337 
   52400    1434.0637   -120.80426     1.297571   -119.50669   -704.85937    4.3048744    4.3048744    4.3048744   -704.85937    57855.383   -63693.387    3723.4256   -6904.0791    25335.485   -11310.926    79.777691 
   52500    1975.4509   -121.28738    1.7874295   -119.49995    25153.332    4.3028807    4.3028807    4.3028807    25153.332    35232.948   -1798.2004    42025.248    -4557.753   -7693.9052   -33971.061    79.666897 
   52600    1873.9023   -121.19644    1.6955462   -119.50089   -12262.283    4.3186393    4.3186393    4.3186393   -12262.283    6385.3738   -29553.591   -13618.632    16111.746   -12946.001    38084.057    80.545411 
   52700    1344.0914   -120.71924    1.2161621   -119.50308   -18142.525    4.3118393    4.3118393    4.3118393   -18142.525    15980.434   -67531.857   -2876.1516    27972.381   -6997.5515    57540.565    80.165538 
   52800    2293.9912   -121.56603    2.0756515   -119.49038    25121.263    4.2918631    4.2918631    4.2918631    25121.263    42120.652    3302.9251    29940.211   -7689.9236    3612.1766   -28520.165    79.056498 
   52900     2114.231   -121.42147    1.9130006   -119.50847   -3196.3442     4.302882     4.302882     4.302882   -3196.3442    2835.3664    21021.454   -33445.853   -12632.559    23986.517   -3931.5846    79.666969 
   53000    1042.3941   -120.46978   0.94318005    -119.5266   -41535.526    4.3149984    4.3149984    4.3149984   -41535.526   -14494.317   -35485.429   -74626.831    16129.499   -861.69985    69756.245    80.341865 
   53100     1731.623   -121.08668    1.5668089   -119.51987    3998.0401    4.3092787    4.3092787    4.3092787    3998.0401    -18559.76    34415.833   -3861.9529     31457.69   -16037.513    16682.972    80.022803 
   53200    2814.3919   -122.04098     2.546521   -119.49445   -4115.9439    4.3142356    4.3142356    4.3142356   -4115.9439    3427.9292     455.9519   -16231.713   -4150.8009    3180.7128   -15531.871    80.299264 
   53300     1382.294   -120.75151    1.2507286   -119.50079   -21379.355    4.3204404    4.3204404    4.3204404   -21379.355    35216.609   -47462.539   -51892.135   -4856.5272   -773.60671    67101.952    80.646226 
   53400    1309.1692    -120.6726    1.1845638   -119.48804    -2294.968    4.3158262    4.3158262    4.3158262    -2294.968    12419.283   -36615.047     17310.86    27386.713   -2962.2905    35986.464    80.388112 
   53500    2391.5608   -121.64376    2.1639345   -119.47982    6973.4231    4.2998488    4.2998488    4.2998488    6973.4231    2114.3254   -15358.109    34164.053    3757.3721    5442.3238   -37877.443    79.498611 
   53600    1308.7242   -120.68684    1.1841611   -119.50268    18908.536    4.2872274    4.2872274    4.2872274    18908.536    72244.283   -65010.805    49492.131   -14885.833    2691.6384    36592.766    78.800606 
   53700    1299.3956   -120.71129    1.1757205   -119.53557   -17215.434    4.3003537    4.3003537    4.3003537   -17215.434     73201.74    -94541.37    -30306.67     1944.584   -2672.1467    70345.205     79.52662 
   53800    2512.7051   -121.78126    2.2735484   -119.50772    9655.5664    4.3115798    4.3115798    4.3115798    9655.5664    13585.187   -25605.166    40986.679    3025.8928    13056.214    -13405.55    80.151064 
   53900      2016.08   -121.33101    1.8241916   -119.50682    -9260.432    4.3184974    4.3184974    4.3184974    -9260.432    16447.488   -52408.216    8179.4321   -1026.8815    11758.868    28507.163     80.53747 
   54000    738.68512   -120.18826   0.66837782   -119.51988   -33281.981    4.3140799    4.3140799    4.3140799   -33281.981    45767.179   -113526.68    -32086.44   -11819.636    546.76267    63698.815    80.290571 
   54100     1531.251   -120.88728    1.3855081   -119.50177    4416.1435    4.2870239    4.2870239    4.2870239    4416.1435    47128.056   -43024.444    9144.8179   -3986.9621   -151.70248   -27596.024    78.789385 
   54200    1772.5903   -121.11087    1.6038769     -119.507    18983.475    4.2889189    4.2889189    4.2889189    18983.475    29121.103   -13739.614    41568.936    26541.792   -14425.743    -20006.75    78.893913 
   54300    1477.8253    -120.8546    1.3371673   -119.51743   -40455.372    4.3190939    4.3190939    4.3190939   -40455.372   -5784.7636   -79217.672   -36363.681    19245.071    7539.0152    68663.202    80.570848 
   54400    1638.5978    -120.9837    1.4826377   -119.50107    -24397.85    4.3183117    4.3183117    4.3183117    -24397.85    5635.2696   -53417.698   -25411.122   -20997.262    13231.265    26873.858    80.527083 
   54500    1903.3327   -121.21638    1.7221754    -119.4942      9815.01    4.3014969    4.3014969    4.3014969      9815.01    19790.956   -15870.748    25524.822   -5984.6842   -13712.197   -31045.195    79.590061 
   54600      1612.73   -120.96929     1.459232   -119.51006   -7422.6758    4.2948035    4.2948035    4.2948035   -7422.6758   -8431.2894   -35655.999    21819.261    55270.059   -4118.5304    10234.295    79.219096 
   54700    1577.2172   -120.94602    1.4270993   -119.51892    10724.026    4.2942682    4.2942682    4.2942682    10724.026    15376.362    1246.7488    15548.967    33271.325    5196.7215    35334.052    79.189482 
   54800    2009.1961   -121.33855    1.8179628   -119.52059    6158.9588    4.3093427    4.3093427    4.3093427    6158.9588    28979.491   -23706.828    13204.214   -43532.386    19790.165    18945.854    80.026369 
   54900    1993.7956   -121.30557    1.8040281   -119.50154   -7097.0219      4.32083      4.32083      4.32083   -7097.0219   -16907.022   -26611.797    22227.753    10717.305   -3897.3632   -8392.2205    80.668045 
   55000    1738.1923   -121.06132    1.5727529   -119.48856    -12700.25    4.3167799    4.3167799    4.3167799    -12700.25   -3354.4629    -21867.64   -12878.646    47133.437    -12752.86    19146.748     80.44142 
   55100    1428.6309    -120.7803    1.2926552   -119.48765   -18021.852    4.3121264    4.3121264    4.3121264   -18021.852    6259.7013   -18602.503   -41722.754   -9644.3611    25613.163    25764.381    80.181551 
   55200    1741.6946   -121.06777    1.5759219   -119.49185   -7680.7937    4.3040745    4.3040745    4.3040745   -7680.7937    8256.5724   -618.64305   -30680.311   -35830.819      7153.65    -15590.67    79.733229 
   55300    1938.2383   -121.26111    1.7537588   -119.50735    16891.256    4.2974834    4.2974834    4.2974834    16891.256    26822.614    39220.298   -15369.144    4922.8643   -25702.645   -33517.647    79.367483 
   55400    1886.4253   -121.22388    1.7068772     -119.517    30517.895     4.294916     4.294916     4.294916    30517.895    23297.613    83887.648   -15631.575    14511.217    8051.3442    18812.989    79.225323 
   55500     1353.959      -120.76    1.2250905   -119.53491    9138.8796    4.3042823    4.3042823    4.3042823    9138.8796    7172.1426    48193.958   -27949.462   -7905.5199    35275.472     48675.76    79.744774 
   55600    1112.6808   -120.53135     1.006777   -119.52457   -1351.5696    4.3169305    4.3169305    4.3169305   -1351.5696    19318.489   -16780.048   -6593.1503   -12660.708   -209.87909   -26000.166    80.449839 
   55700    1646.7157   -120.98665     1.489983   -119.49666    4301.9025    4.3116731    4.3116731    4.3116731    4301.9025    4747.3192   -18301.407    26459.795   -167.42511   -6892.0176   -31253.935    80.156268 
   55800    1576.9651   -120.91992    1.4268711   -119.49305   -1634.6203    4.3045372    4.3045372    4.3045372   -1634.6203   -4777.2613    20622.261   -20748.861    18613.744     29626.74    28755.531    79.758943 
   55900     1513.002    -120.8706     1.368996    -119.5016    2236.0563    4.2973078    4.2973078    4.2973078    2236.0563    1837.1732    7796.7396    -2925.744   -19734.934    21047.629    27672.417    79.357757 
   56000    1394.7841   -120.77628      1.26203   -119.51425    30890.381    4.2923794    4.2923794    4.2923794    30890.381   -2983.1171    28384.494    67269.767   -46741.098   -12860.191   -10064.059    79.085033 
   56100    1587.7202   -120.96317    1.4366026   -119.52656   -60.358406    4.3071935    4.3071935    4.3071935   -60.358406   -18245.021   -21335.724     39399.67    32312.595    7727.7647   -16576.447     79.90669 
   56200     1871.498   -121.20765    1.6933707   -119.51428    3799.2744    4.3103079    4.3103079    4.3103079    3799.2744   -9223.7461   -5078.8728    25700.442     48510.88    21899.592    9500.0352    80.080151 
   56300    2518.4541   -121.77779    2.2787502   -119.49904    22118.738    4.3020853    4.3020853    4.3020853    22118.738   -15942.135    45002.184    37296.165   -27151.082   -17428.778    9687.2991    79.622726 
   56400    1497.8153    -120.8734    1.3552548   -119.51814   -8782.2758    4.3096985    4.3096985    4.3096985   -8782.2758   -48821.245   -18465.614    40940.032    10633.983   -24363.938   -16787.278     80.04619 
   56500    1413.8866   -120.78986    1.2793143   -119.51055   -12054.335    4.3115867    4.3115867    4.3115867   -12054.335   -58925.615   -16324.735    39087.347    70016.238    9122.6302   -18212.632    80.151449 
   56600    2121.8255   -121.42214    1.9198723   -119.50227     16612.28    4.3008138    4.3008138    4.3008138     16612.28   -27357.668    66234.909    10959.598    16548.304   -3508.5776    8983.0504    79.552149 
   56700    2030.4095   -121.34118    1.8371572   -119.50402     15963.71    4.2936871    4.2936871    4.2936871     15963.71   -7275.4688     72686.23    -17519.63   -6794.4961   -20879.841     23085.08    79.157335 
   56800    1215.3411   -120.62464    1.0996661   -119.52498   -24787.377     4.307547     4.307547     4.307547   -24787.377   -47914.183   -29867.839    3419.8913    68569.739   -13650.614   -2157.6414    79.926367 
   56900    1602.1547   -120.96294    1.4496632   -119.51328    -21385.46    4.3160258    4.3160258    4.3160258    -21385.46   -50827.682   -31883.474    18554.777     52875.91    4890.4836   -16698.138    80.399266 
   57000    1947.8543   -121.25342    1.7624595   -119.49096    10745.402    4.3099395    4.3099395    4.3099395    10745.402    30154.055    39992.406   -37910.254   -21335.345   -9085.1306    16211.031     80.05962 
   57100    828.76772   -120.25274   0.74988645   -119.50286   -8134.2339    4.3192889    4.3192889    4.3192889   -8134.2339    21580.025   -10700.043   -35282.684    30097.494    -31961.82    29789.968    80.581763 
   57200    1783.1521   -121.08799    1.6134335   -119.47456   -19987.321    4.3242723    4.3242723    4.3242723   -19987.321   -34352.541   -30831.914     5222.493    41027.315    2991.7535   -5359.7569    80.860996 
   57300    2424.4416   -121.64239    2.1936857   -119.44871    7238.9856    4.3209635    4.3209635    4.3209635    7238.9856    5888.2878    19976.872   -4148.2028   -12908.471    4986.5817    15831.715    80.675523 
   57400    1027.3951   -120.39564   0.92960871   -119.46603   -6184.8136    4.3278992    4.3278992    4.3278992   -6184.8136    749.29634   -17400.706   -1903.0307    27416.904   -20057.343    44943.513     81.06463 
   57500    1744.6141   -121.04893    1.5785635   -119.47036   -7302.1088    4.3162699    4.3162699    4.3162699   -7302.1088    -26436.71   -4022.4843    8552.8678    44665.106   -6946.0603   -14580.885    80.412912 
   57600    2548.2967   -121.78001    2.3057524   -119.47426    34931.819    4.2851827    4.2851827    4.2851827    34931.819    19426.798    53634.165    31734.496    1684.3721    17245.816   -17418.422    78.687915 
   57700    1756.9505    -121.0995    1.5897257   -119.50978    35040.196    4.2812148    4.2812148    4.2812148    35040.196    38908.493     20054.78    46157.315   -15417.938    4389.9484    42201.179    78.469528 
   57800    1041.8021   -120.48647   0.94264445   -119.54382   -25722.703    4.3102176    4.3102176    4.3102176   -25722.703   -52706.393   -30818.054    6356.3386    34563.056    -33929.22    43805.399    80.075117 
   57900    1747.6789   -121.10028    1.5813366   -119.51895   -7420.5986    4.3182248    4.3182248    4.3182248   -7420.5986   -60296.289    16828.594    21205.899    29994.368   -19554.586   -13913.674    80.522222 
   58000     1967.293   -121.26593    1.7800481   -119.48588    19096.841    4.3158505    4.3158505    4.3158505    19096.841    40949.836   -10704.697    27045.384    657.97035      14610.5    11539.252    80.389473 
   58100    851.94007   -120.25851   0.77085328   -119.48765   -8546.5375    4.3306477    4.3306477    4.3306477   -8546.5375    35005.247   -59718.153   -926.70602     29111.91    -2985.973     43903.12    81.219173 
   58200    1799.1069   -121.07446    1.6278697   -119.44659   -19269.143    4.3271837    4.3271837    4.3271837   -19269.143   -21872.125   -41347.716    5412.4106    39937.917   -17118.387   -16864.062    81.024435 
   58300    1876.1785   -121.13181    1.6976057    -119.4342     17150.63    4.2983061    4.2983061    4.2983061     17150.63    55781.548   -31438.967     27109.31    2277.8478    12784.921    31082.697    79.413078 
   58400    1080.5025   -120.45049   0.97766141   -119.47283   -27053.351    4.3053469    4.3053469    4.3053469   -27053.351    45543.718   -98316.175   -28387.596    3148.7769    10573.029    61017.525    79.803961 
   58500    2382.8464   -121.62304    2.1560495   -119.46699   -25200.816    4.3162591    4.3162591    4.3162591   -25200.816   -13860.838    -57559.26     -4182.35    12104.724    8071.2151   -24598.184    80.412309 
   58600    2281.4661   -121.53312    2.0643185    -119.4688   -1320.2845    4.3148147    4.3148147    4.3148147   -1320.2845    20273.888   -37118.217    12883.475   -8108.3337     10710.16    26356.887    80.331608 
   58700    1100.3943    -120.4743   0.99565988   -119.47864   -24595.313    4.3220244    4.3220244    4.3220244   -24595.313    34992.172   -63489.337   -45288.776   -8117.5612    13360.783    60722.766    80.734964 
   58800    1901.9344   -121.18667    1.7209102   -119.46576    3762.7828    4.3159882    4.3159882    4.3159882    3762.7828    32651.632   -10789.086   -10574.197    12038.086    18773.031   -31741.445    80.397168 
   58900    2037.1745   -121.30251    1.8432783   -119.45923    20069.208    4.3072346    4.3072346    4.3072346    20069.208     44644.99    7878.3865    7684.2465    11354.917   -524.76954    20738.225    79.908978 
   59000    969.10365   -120.35331   0.87686535   -119.47644    -7762.615    4.3154662    4.3154662    4.3154662    -7762.615    25737.057   -19904.217   -29120.685    7860.6766    1391.5072    71454.904    80.367998 
   59100    1765.0587   -121.06628    1.5970622   -119.46922    4661.5089    4.3084564    4.3084564    4.3084564    4661.5089   -11602.882    21650.381    3937.0276   -9329.6755    21181.356   -24362.826    79.977001 
   59200    1771.3313   -121.07283    1.6027378    -119.4701    27810.398    4.2967959    4.2967959    4.2967959    27810.398    20876.452    29814.122    32740.622    -4886.469    9414.2907    5445.3436    79.329401 
   59300    836.96899   -120.25998   0.75730713   -119.50267   -32366.335    4.3083943    4.3083943    4.3083943   -32366.335    2140.4986   -46569.764    -52669.74    20402.594   -23356.445    88402.407    79.973542 
   59400    1514.2722   -120.86846    1.3701453   -119.49831   -15728.603    4.2999684    4.2999684    4.2999684   -15728.603   -32521.486    6405.7525   -21070.076    6600.6379   -6709.9514     8810.794    79.505249 
   59500       2095.8    -121.3824    1.8963239   -119.48607     10633.68    4.2930791    4.2930791    4.2930791     10633.68    14557.009    23681.966   -6337.9353   -11604.178    21732.499   -2969.9318    79.123715 
   59600    920.74843   -120.34042   0.83311253   -119.50731   -32389.209    4.3186487    4.3186487    4.3186487   -32389.209    52915.207   -71723.333   -78359.502    8137.5323   -5464.9972    106146.61    80.545935 
   59700    2039.8909   -121.31312    1.8457362   -119.46738    -26327.83    4.3202142    4.3202142    4.3202142    -26327.83   -33865.645   -27410.144     -17707.7    16467.615   -7335.0805     11264.21     80.63356 
   59800     2038.226   -121.29143    1.8442297    -119.4472   -6913.8525    4.3109163    4.3109163    4.3109163   -6913.8525    12172.032   -11110.339   -21803.251    4840.4325    5549.9788    14425.657    80.114068 
   59900    981.50867   -120.34727   0.88808967   -119.45918    -33185.91    4.3209262    4.3209262    4.3209262    -33185.91    71346.019   -81382.158   -89521.591   -13068.306    11499.716    93766.795    80.673434 
   60000    2761.8494   -121.93592    2.4989794   -119.43694   -6823.0904    4.3154664    4.3154664    4.3154664   -6823.0904   -6047.9013    16327.441   -30748.811   -3384.1282   -6697.3048   -37128.271    80.368013 
   60100     1784.145   -121.07201    1.6143319   -119.45767   -2417.0048    4.3033189    4.3033189    4.3033189   -2417.0048    19274.054   -30170.479    3645.4111    -3210.582   -6143.7833    53375.208     79.69124 
   60200     951.3526   -120.35476   0.86080383   -119.49396   -5945.4946    4.3031077    4.3031077    4.3031077   -5945.4946    34876.041   -43893.907   -8818.6184   -10385.113     11819.35    108851.09     79.67951 
   60300    2428.8069   -121.68198    2.1976355   -119.48435    8579.2093    4.3027992    4.3027992    4.3027992    8579.2093   -27046.979    11666.619    41117.988    3639.1611   -3821.3457   -26456.327    79.662371 
   60400    1566.4098   -120.92135    1.4173205   -119.50403    3598.5961    4.2973879    4.2973879    4.2973879    3598.5961     15387.33   -29817.924    25226.382    6015.8844   -4485.7075    27992.284    79.362194 
   60500    448.97813   -119.92706   0.40624485   -119.52081   -22534.973    4.3055945    4.3055945    4.3055945   -22534.973    42130.059   -57550.503   -52184.476    39.529297    4084.6423    94472.819    79.817731 
   60600    2324.8524   -121.59063    2.1035753   -119.48705   -6757.3098    4.3101361    4.3101361    4.3101361   -6757.3098   -34417.726   -16653.291    30799.087    3924.4086   -8010.8944   -24700.809    80.070577 
   60700    1803.4296   -121.12251     1.631781   -119.49073   -1150.3338    4.3068751    4.3068751    4.3068751   -1150.3338   -1295.7531    1361.7796    -3517.028   -2563.3956    947.74217    40725.688     79.88897 
   60800    933.96576    -120.3477   0.84507184   -119.50262   -14583.133     4.298923     4.298923     4.298923   -14583.133    46961.457   -79752.051   -10958.805   -787.77265     7082.669    115232.18    79.447276 
   60900    2279.8093   -121.55357    2.0628193   -119.49075    15614.446    4.2933415    4.2933415    4.2933415    15614.446     8871.069    8909.0447    29063.223    3978.4503   -4448.0517   -23579.647    79.138223 
   61000    1745.9554   -121.08358    1.5797771    -119.5038    3665.2841    4.3074388    4.3074388    4.3074388    3665.2841    38133.212    1928.7505    -29066.11   -12139.155   -8322.8048    10629.317    79.920345 
   61100    826.48849   -120.25621   0.74782415   -119.50839   -15073.446    4.3148419    4.3148419    4.3148419   -15073.446    56310.451   -53227.109   -48303.679    9064.7181   -9363.9361    106719.63    80.333127 
   61200    2432.2516   -121.67491    2.2007523   -119.47416    12421.587    4.3091723    4.3091723    4.3091723    12421.587    -6780.271     22976.29    21068.743    5513.9397    5295.6044   -15622.407    80.016873 
   61300    1803.7672    -121.1083    1.6320865   -119.47621   -1936.7417    4.3119303    4.3119303    4.3119303   -1936.7417    44766.323   -29196.247   -21380.301   -1127.5236    9080.7693    35055.891     80.17061 
   61400    872.27464   -120.26864   0.78925242   -119.47939   -19049.559    4.3161199    4.3161199    4.3161199   -19049.559    102288.66   -90858.472   -68578.867    6445.8651    5024.8874    96151.845    80.404526 
   61500    2627.1155    -121.8205    2.3770693   -119.44343   -893.75906    4.3101947    4.3101947    4.3101947   -893.75906    5763.2643   -5304.0936   -3140.4479   -7797.6143    11283.909   -37858.396    80.073844 
   61600    1221.7554   -120.57508    1.1054699   -119.46961     -13362.3    4.3123881    4.3123881    4.3123881     -13362.3     38506.33   -43864.525   -34728.704    2596.0508    7102.1259    73790.903    80.196149 
   61700     1334.883   -120.68185    1.2078302   -119.47402   -19207.871    4.3088491    4.3088491    4.3088491   -19207.871    57912.116   -67608.895   -47926.833   -838.90501    8377.8447     92868.29    79.998873 
   61800    2535.1024   -121.74954     2.293814   -119.45572    18818.173    4.3011076    4.3011076    4.3011076    18818.173    -9168.927    12301.978    53321.469    125.35104   -15741.908   -44945.689    79.568453 
   61900    1170.8237   -120.54681    1.0593859   -119.48743   -23671.297    4.3127744    4.3127744    4.3127744   -23671.297    49024.087   -72907.035   -47130.943    5271.4886   -414.53401    53563.961    80.217701 
   62000    1253.6317   -120.61285    1.1343123   -119.47853   -24970.557    4.3189942    4.3189942    4.3189942   -24970.557    63342.275   -82948.661   -55305.285    5564.4916     10660.26    76426.475    80.565267 
   62100    2567.5914   -121.77505    2.3232106   -119.45184     7361.029    4.3050053    4.3050053    4.3050053     7361.029   -13615.004     7473.307    28224.784    1835.2403   -14044.309   -26091.336    79.784965 
   62200    1143.7818   -120.52132    1.0349178    -119.4864   -15583.892    4.2961001    4.2961001    4.2961001   -15583.892    36584.283   -43709.599   -39626.358    5244.6655    -23444.75    71828.281    79.290868 
   62300    1285.5241    -120.6632    1.1631692   -119.50003   -1570.0325    4.3018042    4.3018042    4.3018042   -1570.0325    60684.873   -65806.657    411.68673    -4185.899    8236.2402    62583.438    79.607118 
   62400    3063.2688   -122.23533      2.77171   -119.46362    10859.108    4.3116057    4.3116057    4.3116057    10859.108    16740.346    1004.9305    14832.047   -919.68343    8138.3534   -33013.389    80.152505 
   62500    1367.0745   -120.72462    1.2369577   -119.48766     3947.923    4.3125713    4.3125713    4.3125713     3947.923    17959.416   -17666.827     11551.18   -14018.089   -3222.6414    70528.606    80.206369 
   62600    1589.6969   -120.91867    1.4383912   -119.48028   -15998.313    4.3187081    4.3187081    4.3187081   -15998.313    28596.668    -36117.24   -40474.367   -4097.2654   -17086.146    45977.251    80.549262 
   62700    2803.9216   -121.98598    2.5370472   -119.44893    3541.8898    4.3161984    4.3161984    4.3161984    3541.8898    23102.987   -10518.749   -1958.5694   -12177.211     1396.133   -22638.797    80.408916 
   62800    1331.6991   -120.66585    1.2049493    -119.4609    10569.898    4.3048642    4.3048642    4.3048642    10569.898    74381.348    544.99404   -43216.648    2019.8196   -2689.8215    91193.521    79.777124 
   62900    1848.8989   -121.13182    1.6729226    -119.4589    9621.0224    4.3079374    4.3079374    4.3079374    9621.0224    50503.344    20283.877   -41924.153    5521.2109   -16182.284    25918.469    79.948102 
   63000     2281.222   -121.52112    2.0640976   -119.45702    14372.636    4.3142357    4.3142357    4.3142357    14372.636    27443.366      33911.5   -18236.959   -2922.4369    -17619.61    -6865.156    80.299272 
   63100    1542.5103   -120.87298    1.3956957   -119.47728   -16636.251    4.3192618    4.3192618    4.3192618   -16636.251     44049.56   -45636.548   -48321.766    9335.3624    8122.7074    96376.937    80.580243 
   63200    2030.6458   -121.31282     1.837371   -119.47545   -19896.211    4.3127902    4.3127902    4.3127902   -19896.211   -13957.656    -18551.86   -27179.118    16672.372    -12754.39     32484.49    80.218587 
   63300    1979.2838   -121.26724    1.7908976   -119.47634    13708.328    4.2915479    4.2915479    4.2915479    13708.328   -22508.618    67413.347   -3779.7451    919.64739   -41949.729   -15845.841    79.039084 
   63400    1093.3466   -120.49081   0.98928298   -119.50153    5668.6065    4.2890279    4.2890279    4.2890279    5668.6065    44321.301    7503.5739   -34819.056    4198.3417   -6570.6167    83051.846    78.899931 
   63500    1682.0665    -121.0317    1.5219691   -119.50973    -18348.42     4.310238     4.310238     4.310238    -18348.42    8280.3214   -23726.895   -39598.685   -5686.5169    16850.172    47664.565    80.076255 
   63600    2325.1478   -121.59255    2.1038426   -119.48871   -19464.268    4.3202859    4.3202859    4.3202859   -19464.268   -46857.913    1548.2825   -13083.173    1648.1217   -16535.156    -39445.29    80.637577 
   63700    829.73814   -120.25786   0.75076451    -119.5071   -27716.051    4.3110815    4.3110815    4.3110815   -27716.051    28183.898   -45966.422   -65365.629    7442.0721   -15077.009    71658.061    80.123279 
   63800    1443.0235   -120.80094     1.305678   -119.49526    4658.6503    4.2944182    4.2944182    4.2944182    4658.6503    54557.921   -31111.778   -9470.1917   -3190.3298   -3885.0663    69173.629    79.197777 
   63900    2823.2044   -122.03051    2.5544947   -119.47601    17726.455    4.2967022    4.2967022    4.2967022    17726.455   -5861.3177    16718.059    42322.623   -1824.7749   -939.63335   -35469.715     79.32421 
   64000    1117.9185   -120.51782    1.0115162   -119.50631   -13163.792     4.314059     4.314059     4.314059   -13163.792    45770.208   -71512.574    -13749.01    880.01956    8145.4188    65552.385    80.289404 
   64100    1391.3253   -120.74774    1.2589004   -119.48884   -23113.671     4.320396     4.320396     4.320396   -23113.671    30124.739   -63099.014   -36366.738     11373.63    -22182.55    57927.702    80.643742 
   64200    2562.4961   -121.77773    2.3186003   -119.45913   -5704.1616    4.3071306    4.3071306    4.3071306   -5704.1616   -23008.771    12972.003   -7075.7178   -4162.7512    7029.4699    -28408.37    79.903191 
   64300      1168.45   -120.54152    1.0572381   -119.48428   -16986.431    4.2960854    4.2960854    4.2960854   -16986.431     5212.775    -49775.57   -6396.4987    -4967.504    32915.421    56497.261    79.290055 
   64400    1279.8896   -120.66529     1.158071   -119.50722   -14990.969    4.2951074    4.2951074    4.2951074   -14990.969    37090.054   -44145.386   -37917.574    18764.778   -13958.224     79533.02    79.235918 
   64500    2502.3317    -121.7616    2.2641623   -119.49744    5680.6306    4.3041293    4.3041293    4.3041293    5680.6306   -21817.445    29007.781    9851.5563   -2529.8987   -1815.0967   -27378.295     79.73627 
   64600      1609.27    -120.9699    1.4561013    -119.5138   -16526.463    4.3067116    4.3067116    4.3067116   -16526.463   -27237.696   -14814.565   -7527.1269   -15143.853    10968.851    29558.501    79.879871 
   64700    617.05744   -120.07715   0.55832654   -119.51883   -6134.6035    4.3052366    4.3052366    4.3052366   -6134.6035    4539.1574    2704.1125    -25647.08   -10502.239    13455.153      79962.6     79.79783 
   64800    2346.0028   -121.60994    2.1227126   -119.48723    -17976.74    4.3110922    4.3110922    4.3110922    -17976.74   -32556.498   -26830.643    5456.9217    21547.999    2552.2123    -11093.26    80.123873 
   64900     1405.304   -120.75867    1.2715486   -119.48713    16412.747    4.3102988    4.3102988    4.3102988    16412.747    12575.629    12474.917    24187.696    576.98604    -7793.831    23503.914    80.079644 
   65000    598.42713    -120.0249   0.54146944   -119.48343   -21883.404    4.3227396    4.3227396    4.3227396   -21883.404    2610.3384   -34226.133   -34034.417   -31115.476    19113.408    73704.843    80.775048 
   65100     2510.203   -121.72173    2.2712845   -119.45045   -10193.337    4.3180356    4.3180356    4.3180356   -10193.337    -15447.69   -7055.4735   -8076.8476    3950.5966    5756.3053   -28434.183    80.511636 
   65200    1757.2997   -121.05025    1.5900417   -119.46021    11851.553    4.2998084    4.2998084    4.2998084    11851.553    31591.615    21774.065   -17811.021    11852.148   -9682.7988    45096.871    79.496373 
   65300    906.36359   -120.31107   0.82009682   -119.49097   -14733.153    4.2966673    4.2966673    4.2966673   -14733.153    14372.282   -33807.321   -24764.421   -24762.493    13562.606    90632.954    79.322279 
   65400    2216.9198   -121.49901    2.0059156    -119.4931    9410.9091    4.2971695    4.2971695    4.2971695    9410.9091   -9686.0072     25340.75    12577.984   -27719.252   -2468.8795    -13735.23    79.350093 
   65500    2051.6243   -121.35581    1.8563528   -119.49946      14992.3    4.3032399    4.3032399    4.3032399      14992.3     67660.44   -41747.346    19063.806   -3162.1329   -4625.2916    26748.637    79.686851 
   65600    1038.4124   -120.45328   0.93957736   -119.51371   -17732.725    4.3159499    4.3159499    4.3159499   -17732.725    72047.274   -97623.479    -27621.97    16491.349    8926.4328    84177.336    80.395025 
   65700    2373.0569   -121.63579    2.1471918    -119.4886   -10794.592    4.3040574    4.3040574    4.3040574   -10794.592   -6849.8801   -21290.604   -4243.2936    17259.838    7609.2399   -16408.167    79.732277 
   65800    2087.7629    -121.3713    1.8890518   -119.48225    25606.402    4.2853928    4.2853928    4.2853928    25606.402    30364.794    8748.9236    37705.488   -4142.9927       9483.7    18750.206    78.699486 
   65900    1063.7084   -120.47328   0.96246572   -119.51082   -26293.176    4.2958985    4.2958985    4.2958985   -26293.176    60288.622   -74885.019   -64283.133     7934.841    -7502.137    112081.98    79.279708 
   66000    1724.0035   -121.06085    1.5599146   -119.50093    -6398.963    4.3009632    4.3009632    4.3009632    -6398.963     8670.095   -22442.162   -5424.8215    12030.125   -5952.9835    8371.1957    79.560439 
   66100    1815.6691   -121.14141    1.6428556   -119.49855   -9965.7303    4.3084374    4.3084374    4.3084374   -9965.7303   -30010.818    9665.6153   -9551.9878    7171.3578    11110.559   -12971.655    79.975942 
   66200    607.81065   -120.05948   0.54995985   -119.50952   -50135.177    4.3162867    4.3162867    4.3162867   -50135.177     12718.99   -44556.581   -118567.94    -1544.696    12421.873    108648.49    80.413851 
   66300    1676.5909    -121.0176    1.5170147   -119.50059   -1344.4927    4.2859879    4.2859879    4.2859879   -1344.4927    20655.479    3002.3491   -27691.306   -10308.438    7249.2543    35709.546    78.732281 
   66400    2146.6898   -121.43272      1.94237   -119.49035    19483.147    4.2773597    4.2773597    4.2773597    19483.147    19614.104    13462.948    25372.389    22567.685   -7263.8993   -15543.152    78.257743 
   66500     753.2968    -120.1975   0.68159878    -119.5159   -41677.465     4.309261     4.309261     4.309261   -41677.465    31959.925   -74139.094   -82853.227    10161.052    -3150.959    107136.29    80.021814 
   66600    1741.4518   -121.07877    1.5757022   -119.50306   -29159.761    4.3062571    4.3062571    4.3062571   -29159.761    22988.306   -55285.153   -55182.436   -12181.123    5507.4673    49991.249    79.854589 
   66700    2352.7512   -121.61484    2.1288187   -119.48602    5861.9827    4.2985803    4.2985803    4.2985803    5861.9827    16040.295    3853.6168   -2307.9633     9934.838   -6602.3827   -24192.462    79.428273 
   66800    848.66166   -120.28613    0.7678869   -119.51825   -49738.983     4.305881     4.305881     4.305881   -49738.983     40851.61   -91111.387   -98957.172    10794.088   -7785.2764    99768.884    79.833668 
   66900    975.53153   -120.40435   0.88268143   -119.52167    458.85768    4.2901763    4.2901763    4.2901763    458.85768    49279.392   -4284.6816   -43618.138    151.81636    622.70195    68011.773    78.963326 
   67000    2607.1974   -121.85216     2.359047   -119.49311      17563.4    4.2944621    4.2944621    4.2944621      17563.4    38853.691    17534.691   -3698.1828    -10466.63    6068.5003    -25024.41    79.200206 
   67100    1240.1249   -120.62691    1.1220911   -119.50482    -38118.75    4.3193752    4.3193752    4.3193752    -38118.75    42579.814   -67975.713    -88960.35   -9654.6824    864.65764    87154.335    80.586591 
   67200    1267.6889    -120.6383    1.1470316   -119.49127   -5416.0553    4.3040066    4.3040066    4.3040066   -5416.0553    55490.218   -27491.974   -44246.409    14715.772   -13581.178     51478.13    79.729454 
   67300    2089.3664   -121.35961    1.8905026   -119.46911    23747.964    4.2883818    4.2883818    4.2883818    23747.964    33558.909    32168.225    5516.7583    14306.015   -6420.6688    -41262.24    78.864276 
   67400    936.55309   -120.34719   0.84741292   -119.49977   -34385.619    4.3029329    4.3029329    4.3029329   -34385.619    29401.288   -63962.733   -68595.411   -4031.5835    6376.5994    86413.479    79.669801 
   67500    1584.3277   -120.93084     1.433533   -119.49731     -13780.4    4.3020797    4.3020797    4.3020797     -13780.4    12369.857   -38945.217   -14765.839   -5568.9987    1893.6119    66228.613    79.622415 
   67600    2443.7705   -121.69678    2.2111749   -119.48561    15490.337    4.3046775    4.3046775    4.3046775    15490.337    2804.6593    28620.919    15045.432   -3355.3308   -7253.6161   -29040.991    79.766745 
   67700    1042.3168   -120.44228    0.9431101   -119.49917   -35760.489    4.3197163    4.3197163    4.3197163   -35760.489    20393.702   -59420.262   -68254.906    7314.1235   -7681.4886    80493.457    80.605687 
   67800    1400.4352   -120.74518    1.2671432   -119.47804   -6159.7679    4.3135494    4.3135494    4.3135494   -6159.7679    16326.141   -19710.743   -15094.701    -7479.443    4926.4862    48986.774    80.260955 
   67900    2554.8676   -121.76637    2.3116979   -119.45467    2353.8837    4.3109417    4.3109417    4.3109417    2353.8837    6600.7488   -5983.1485    6444.0509   -35759.855    6897.7789   -23159.691    80.115483 
   68000    987.46791   -120.38109   0.89348172    -119.4876   -21032.573     4.305728     4.305728     4.305728   -21032.573     78982.89    -66502.87   -75577.739   -9521.1479   -14286.224     95329.37    79.825154 
   68100    1695.9905   -121.01898    1.5345678   -119.48441    12851.991    4.2948114    4.2948114    4.2948114    12851.991    60235.278   -9966.8289   -11712.475    1398.4628   -3250.9061     41948.39    79.219535 
   68200    2717.5877   -121.93173    2.4589305    -119.4728    413.08167    4.3099068    4.3099068    4.3099068    413.08167    6038.3142   -9500.4409    4701.3718    7322.0318   -11657.686   -13785.462    80.057799 
   68300     985.1463   -120.38345   0.89138108   -119.49207   -38011.372    4.3210548    4.3210548    4.3210548   -38011.372     44365.76   -105366.68     -53033.2   -10001.868    6466.6141    107615.04    80.680639 
   68400    1695.9523   -121.00935    1.5345332   -119.47481    1671.0523    4.3041368    4.3041368    4.3041368    1671.0523    27247.235   -19101.888   -3132.1901    605.86492   -11061.715    22155.832    79.736691 
   68500    2038.4087    -121.3048     1.844395    -119.4604     4784.441    4.3023595    4.3023595    4.3023595     4784.441    12420.569    5146.5997   -3213.8454   -327.01811   -582.36303   -2377.7956    79.637954 
   68600    951.83139   -120.34606   0.86123705   -119.48482   -15272.015    4.3068864    4.3068864    4.3068864   -15272.015    48606.263   -59989.562   -34432.744     13923.34   -5029.4302     100577.9    79.889603 
   68700    2306.5957   -121.56475    2.0870562   -119.47769    6940.1764    4.3072475    4.3072475    4.3072475    6940.1764   -56.313851    11735.572    9141.2708   -2884.9273   -166.64809    1062.3527    79.909696 
   68800    1905.9646   -121.20191    1.7245568   -119.47735     4351.176    4.3132231    4.3132231    4.3132231     4351.176    32745.579   -10168.249   -9523.8021   -5856.6135    -7777.046    25574.081    80.242744 
   68900    1096.7908   -120.47422   0.99239933   -119.48182   -14753.597    4.3127587    4.3127587    4.3127587   -14753.597    46196.081   -44391.577   -46065.297   -4976.0011    3019.6922    104030.09    80.216825 
   69000    2477.6163   -121.69673    2.2417993   -119.45493    10636.779    4.3042803    4.3042803    4.3042803    10636.779    -11571.09    34061.057    9420.3708     23299.36   -7193.4701   -19598.966    79.744667 
   69100    1358.2168    -120.7019    1.2289431   -119.47295   -7660.3273    4.3106937    4.3106937    4.3106937   -7660.3273    36589.051   -49292.431   -10277.602    9638.3041    8379.3916    51871.551    80.101655 
   69200    1429.2891   -120.77243    1.2932508   -119.47918   -29648.397    4.3144648    4.3144648    4.3144648   -29648.397    32182.641   -87109.915   -34017.917    1218.1951   -6074.4664    79579.947    80.312065 
   69300    2366.4223   -121.60766    2.1411886   -119.46647    11863.737    4.2954575    4.2954575    4.2954575    11863.737    2701.1509    14493.941    18396.118   -10318.726    12024.469   -25166.062    79.255295 
   69400    845.58705   -120.26142   0.76510493   -119.49632    1452.6442    4.2980389    4.2980389    4.2980389    1452.6442    75548.616   -52203.649   -18987.034    4490.1202    1695.4273    52967.577    79.398269 
   69500    1432.8018   -120.78672    1.2964292   -119.49029   -31632.447    4.3183338    4.3183338    4.3183338   -31632.447    52098.126   -102500.59   -44494.874     4853.848    8310.6011    65055.788    80.528319 
   69600    2332.2435   -121.57013    2.1102629   -119.45987   -7815.4675    4.3107407    4.3107407    4.3107407   -7815.4675    8158.2403   -28149.964   -3454.6789   -1876.6506    -17771.12   -24088.435    80.104276 
   69700    862.32649    -120.2557   0.78025113   -119.47545   -7581.6742    4.2995559    4.2995559    4.2995559   -7581.6742    55640.042   -33728.852   -44656.212   -2035.7496   -10179.221    29864.099     79.48237 
   69800    1862.0651   -121.15914    1.6848356   -119.47431    -11869.68    4.3106121    4.3106121    4.3106121    -11869.68    54908.852   -51315.469   -39202.423    1594.2439    12020.709    39037.067    80.097107 
   69900    2382.9133   -121.61789      2.15611   -119.46178   -17340.211    4.3168164    4.3168164    4.3168164   -17340.211   -677.26983    -32108.46   -19234.905   -3186.3405   -6175.3171   -20900.294    80.443458 
   70000    715.63446   -120.13946    0.6475211   -119.49194   -20460.226    4.3028925    4.3028925    4.3028925   -20460.226   -4105.3824   -10281.481   -46993.814   -16417.685   -25573.433    8796.1493    79.667553 
   70100     1675.364    -121.0036    1.5159045    -119.4877     8707.578    4.2965452    4.2965452    4.2965452     8707.578    36195.354    4789.8048   -14862.425    5418.8829   -1766.0778    34145.039    79.315517 
   70200     2269.948   -121.53129    2.0538967   -119.47739     1318.261    4.3114467    4.3114467    4.3114467     1318.261    4198.1079   -3084.6434    2841.3186    24632.943     9920.443   -8148.9211    80.143642 
   70300    992.85566   -120.39371   0.89835667   -119.49535   -5620.2991     4.306888     4.306888     4.306888   -5620.2991    5699.4532   -8383.5691   -14176.781    6901.0922   -27644.631   -5326.8405    79.889692 
   70400    1833.7245   -121.14708    1.6591924   -119.48789    28029.044    4.3021142    4.3021142    4.3021142    28029.044    55108.298    45997.022    -17018.19   -13996.791   -6949.9844   -5548.4816    79.624334 
   70500    2515.8766    -121.7479     2.276418   -119.47148    555.60226    4.3122953    4.3122953    4.3122953    555.60226   -12973.727    8564.7011    6075.8323   -5556.2634    6507.5612   -3299.8434    80.190975 
   70600    1126.1963   -120.51271    1.0190061   -119.49371     617.1321    4.3035439    4.3035439    4.3035439     617.1321    2435.7991    13414.488   -13998.891    30742.127   -13467.416    2992.9104    79.703743 
   70700    1792.6911   -121.11115    1.6220646   -119.48909    12881.691     4.299492     4.299492     4.299492    12881.691    21300.491    32642.051   -15297.469    11561.677   -20130.015    2298.5263    79.478822 
   70800       2276.4   -121.53935    2.0597345   -119.47962   -2252.2816    4.3050376    4.3050376    4.3050376   -2252.2816   -34198.585    12113.584    15328.157   -43413.005    2911.9255   -1577.6221    79.786762 
   70900    970.67772   -120.37749    0.8782896    -119.4992   -16814.925    4.3030637    4.3030637    4.3030637   -16814.925   -44947.025   -17678.035    12180.286   -22086.995    9868.5303    9556.9305    79.677065 
   71000    2189.3154   -121.47113    1.9809386   -119.49019    335.96679    4.3058091    4.3058091    4.3058091    335.96679    11461.335   -2988.6914   -7464.7435    32342.899   -9913.0427   -79.283091    79.829665 
   71100    2224.1696   -121.48624    2.0124754   -119.47377    -10732.47    4.3148329    4.3148329    4.3148329    -10732.47   -44624.532   -2638.9685     15066.09   -35357.254   -1033.9463   -8658.8864    80.332622 
   71200    825.44181   -120.23482   0.74687709   -119.48795   -8703.2146    4.3030947    4.3030947    4.3030947   -8703.2146   -35848.305   -13956.868    23695.529   -51073.341    20149.406     13008.24    79.678788 
   71300    2260.1853   -121.51783    2.0450631   -119.47276    17674.016    4.3009357    4.3009357    4.3009357    17674.016    28481.121    24587.735   -46.807886    27267.539     12218.65   -4217.8952    79.558915 
   71400    2101.5494   -121.37362    1.9015261    -119.4721    148.88524    4.3115253    4.3115253    4.3115253    148.88524   -32642.066    11285.529    21803.193    -19974.52   -3561.6962   -1269.0988    80.148026 
   71500    582.81057   -120.02445   0.52733925   -119.49711   -11236.101      4.30679      4.30679      4.30679   -11236.101    -21379.43   -20199.865    7870.9931    -70198.33   -4024.2461   -3394.4794    79.884237 
   71600    2014.1763   -121.30555     1.822469   -119.48308    7791.9009    4.3031811    4.3031811    4.3031811    7791.9009    45891.135   -9790.3412   -12725.091    -11393.65    9649.8886   -1020.6208    79.683585 
   71700    2212.7392   -121.48349     2.002133   -119.48136   -3617.6105    4.3039945    4.3039945    4.3039945   -3617.6105     -2698.02   -4062.7525    -4092.059    16565.926   -3050.1242    3943.0823    79.728779 
   71800    524.69411   -119.98693   0.47475425   -119.51218   -9453.4521    4.2999524    4.2999524    4.2999524   -9453.4521   -18765.186   -29226.041    19630.871   -50119.688   -9748.9799   -7717.4852    79.504362 
   71900    1611.6927   -120.96753    1.4582934   -119.50924   -6531.1791    4.3067248    4.3067248    4.3067248   -6531.1791   -36042.323    22735.916   -6287.1311   -47406.143   -3406.4796   -3113.1638    79.880611 
   72000    2418.0533    -121.6752    2.1879054   -119.48729    9930.0181    4.3081983    4.3081983    4.3081983    9930.0181   -14782.699    43196.463    1376.2905    36385.123     8500.283    3121.4438    79.962628 
   72100    965.42551   -120.37378   0.87353729   -119.50024   -1812.4231    4.3051551    4.3051551    4.3051551   -1812.4231   -29952.569   -4687.8069    29203.107    243.86099   -6062.1036   -6123.7991    79.793296 
   72200    1967.1813   -121.26162     1.779947   -119.48168   -13790.963    4.3118407    4.3118407    4.3118407   -13790.963    -67269.09   -21818.689    47714.891   -45669.466   -13951.053    3077.7053    80.165613 
   72300    2604.9704   -121.82224     2.357032   -119.46521   -2095.4861    4.3129859    4.3129859    4.3129859   -2095.4861   -15832.508    7697.6861    1848.3639    16206.756    15417.692   -7087.5609    80.229503 
   72400    1233.3494   -120.59964    1.1159604   -119.48368   -19161.964    4.3096397    4.3096397    4.3096397   -19161.964   -8453.4041     -48693.1   -339.38898    19927.989    19404.502    -9103.833    80.042911 
   72500    2270.6465   -121.53067    2.0545286   -119.47614    7194.0731     4.294943     4.294943     4.294943    7194.0731   -32949.592   -5392.5965    59924.407   -29244.662    8317.6266    1648.3259     79.22682 
   72600    2378.8224   -121.63485    2.1524085   -119.48244    12276.612    4.2987212    4.2987212    4.2987212    12276.612    25028.055    17050.103   -5248.3211   -9625.8514   -6033.9691    881.72332    79.436088 
   72700    1196.7597   -120.58876    1.0828533    -119.5059   -23342.177    4.3113423    4.3113423    4.3113423   -23342.177   -373.51941   -35107.985   -34545.025    26422.962    11710.697   -602.56749    80.137821 
   72800    2250.9601   -121.52448     2.036716   -119.48776    7507.8617    4.3075518    4.3075518    4.3075518    7507.8617   -170.74614   -6887.2415    29581.573    22071.984     12458.86   -3278.9189    79.926634 
   72900    2469.7709   -121.71076    2.2347006   -119.47605    12173.372    4.3067253    4.3067253    4.3067253    12173.372    43648.552   -1574.9071   -5553.5295   -10208.734   -21337.559    7078.2151    79.880634 
   73000    1057.9337   -120.45315   0.95724061   -119.49591   -7580.2882    4.3053149    4.3053149    4.3053149   -7580.2882    28579.098   -27235.444   -24084.518    4653.8575    6.1388249    410.09786    79.802179 
   73100    2164.1637   -121.43976    1.9581808   -119.48158     8536.324    4.3028514    4.3028514    4.3028514     8536.324    42890.123   -34963.002    17681.851    3886.8964     5180.409   -2889.5494    79.665273 
   73200    2271.4937   -121.53272    2.0552952   -119.47742   -7146.1328    4.3148253    4.3148253    4.3148253   -7146.1328    21174.015   -43156.905    544.49207   -7489.8699    519.95305    10743.356    80.332196 
   73300    663.43607   -120.08992    0.6002909   -119.48963   -32991.267    4.3207276    4.3207276    4.3207276   -32991.267     3302.093   -64917.007   -37358.888   -17200.616   -5291.8663    9593.4372    80.662311 
   73400    1859.2467   -121.15814    1.6822855   -119.47586    1392.9872    4.3122014    4.3122014    4.3122014    1392.9872    44315.901   -28750.151   -11386.788   -9727.7333   -3291.4182   -12147.477    80.185732 
   73500     2269.502   -121.52747    2.0534931   -119.47398   -8270.2274    4.3053754    4.3053754    4.3053754   -8270.2274    26947.055   -31561.919   -20195.819    8049.6523    1631.4103    13010.686    79.805548 
   73600    868.88092   -120.29204   0.78618172   -119.50586    -4941.383    4.2896673    4.2896673    4.2896673    -4941.383    76547.727   -42455.945   -48915.931    1646.9927   -2310.9409    29142.936    78.935219 
   73700    1499.4986   -120.86794    1.3567779   -119.51116    17989.566    4.2937689    4.2937689    4.2937689    17989.566    76308.105   -13792.784   -8546.6231   -14116.284   -15231.349    1752.4561    79.161862 
   73800    2393.0312   -121.66304     2.165265   -119.49778   -19035.867    4.3170168    4.3170168    4.3170168   -19035.867   -236.39782   -55279.985   -1591.2175    12646.454   -1195.8102    2107.1912    80.454663 
   73900    789.61784   -120.22872   0.71446281   -119.51426   -7183.3593    4.3097065    4.3097065    4.3097065   -7183.3593    65132.699   -64519.136   -22163.642    24793.973    6205.1773    33400.478    80.046637 
   74000    1258.0812   -120.63464    1.1383383    -119.4963    13696.617    4.3007567    4.3007567    4.3007567    13696.617    60434.201   -30469.063    11124.712    16289.225   -965.71302    3406.0711    79.548982 
   74100    2361.4519   -121.61229    2.1366913    -119.4756    44.698352    4.3106389    4.3106389    4.3106389    44.698352   -13086.999   -27536.724    40757.818   -21574.236    7020.2167   -12488.328      80.0986 
   74200    1214.7999   -120.59016    1.0991765   -119.49099    4189.1483    4.3063339    4.3063339    4.3063339    4189.1483    15369.626   -32908.579    30106.398   -6267.0684    10810.477    26347.391    79.858862 
   74300    1322.7987   -120.68935    1.1968961   -119.49245    471.64644    4.3118506    4.3118506    4.3118506    471.64644    17364.036   -15587.979   -361.11819    29300.952    6001.6741    16262.307    80.166168 
   74400     2177.428   -121.45001    1.9701826   -119.47982   -11986.308    4.3127502    4.3127502    4.3127502   -11986.308   -31341.843   -21916.153    17299.073    -28249.39    10660.525   -14934.294    80.216354 
   74500    1310.6777   -120.68215    1.1859287   -119.49622    37014.699    4.2883561    4.2883561    4.2883561    37014.699    21756.811   -631.82125    89919.109   -55457.262    320.64409    8941.6269     78.86286 
   74600    1599.7258   -120.95316    1.4474655   -119.50569    10539.556     4.291764     4.291764     4.291764    10539.556    37491.421   -6973.8027    1101.0501    5895.8648    9373.4652    53075.926    79.051026 
   74700    2276.2691   -121.55736    2.0596161   -119.49774   -14154.197    4.3119065    4.3119065    4.3119065   -14154.197   -5188.6981   -30614.273     -6659.62    4278.2303   -3244.2104    9363.6759    80.169286 
   74800    2003.4457   -121.30395    1.8127598   -119.49119    6389.0607    4.3093552    4.3093552    4.3093552    6389.0607   -20513.051    -23400.82    63081.053   -63528.603   -4067.5281   -10053.022    80.027064 
   74900    1465.0246   -120.81763     1.325585   -119.49204    10479.566    4.3086568    4.3086568    4.3086568    10479.566    27566.597    6970.7749   -3098.6743   -28394.425    7229.8551    59487.992    79.988162 
   75000    2248.2835   -121.51126    2.0342941   -119.47697   -2473.1737    4.3197432    4.3197432    4.3197432   -2473.1737    15581.595    17444.085   -40445.201    23417.691   -13998.909    26220.464    80.607192 
   75100    2106.5873   -121.37119    1.9060845    -119.4651   -9317.4432    4.3165671    4.3165671    4.3165671   -9317.4432   -56792.794    11741.386    17099.078    -58015.49    6719.0877    -18474.23     80.42952 
   75200    1286.7294   -120.64391    1.1642598   -119.47965   -12191.252    4.3038865    4.3038865    4.3038865   -12191.252    1931.0012   -39721.093    1216.3341   -53915.989    8357.0074    51536.326    79.722777 
   75300    1908.7849   -121.21641    1.7271087    -119.4893   -5101.3859    4.2970793    4.2970793    4.2970793   -5101.3859    37185.357   -13031.316   -39458.199    14171.557   -2986.6094    61020.542    79.345098 
   75400    2698.5266   -121.93456    2.4416836   -119.49288    8251.5374    4.2989397    4.2989397    4.2989397    8251.5374   -11308.888    28760.468    7303.0315   -4546.9972   -4490.4638    -22172.51    79.448198 
   75500    1370.1933   -120.75945    1.2397797   -119.51967   -13794.301    4.3074745    4.3074745    4.3074745   -13794.301   -20073.096   -46225.388    24915.582   -51166.376   -2659.9223    27856.773    79.922334 
   75600    878.55007   -120.31291   0.79493056   -119.51798   -17995.976    4.3139642    4.3139642    4.3139642   -17995.976    8777.6102   -35663.492   -27102.046   -36747.852    4087.2763    81003.189    80.284112 
   75700    2728.2131   -121.96216    2.4685446   -119.49362   -762.69074    4.3106189    4.3106189    4.3106189   -762.69074   -1896.3808    12495.974   -12887.665    4745.7803   -10297.925   -13954.228    80.097486 
   75800    2067.1332   -121.36848    1.8703856    -119.4981    24718.458    4.2951164    4.2951164    4.2951164    24718.458    35356.902    45574.479   -6776.0072   -5257.9325   -467.82037    22908.116    79.236415 
   75900    651.28175   -120.10986   0.58929341   -119.52056    673.04514     4.299033     4.299033     4.299033    673.04514    38093.418    -59553.67    23479.388    -51709.64    7762.7931    78222.931    79.453375 
   76000    2223.6263   -121.50503    2.0119838   -119.49305    -10861.22    4.3183065    4.3183065    4.3183065    -10861.22   -31377.633   -12023.571    10817.545   -33565.653    724.79468   -10775.812    80.526789 
   76100    2523.7735   -121.76069    2.2835633   -119.47712   -3.4333545    4.3154394    4.3154394    4.3154394   -3.4333545   -1124.7431    24727.095   -23612.652    18778.889   -4527.3738     11612.18    80.366501 
   76200    1058.3841   -120.45081   0.95764816   -119.49316   -15468.218     4.298234     4.298234     4.298234   -15468.218    29387.709   -63032.997   -12759.365   -24390.485    1434.1248    84578.726     79.40908 
   76300    1402.9973   -120.76574    1.2694615   -119.49628   -7926.4239    4.2951749    4.2951749    4.2951749   -7926.4239   -26057.961   -55499.541     57778.23   -71209.728   -2055.1775    14590.095    79.239649 
   76400    2327.1154   -121.58766    2.1056229   -119.48204   -4643.0626     4.303292     4.303292     4.303292   -4643.0626   -19322.081   -4668.2209    10061.115   -5642.6478   -18380.672   -12481.677    79.689749 
   76500    1371.7305   -120.73769    1.2411706   -119.49652   -18611.114    4.3079373    4.3079373    4.3079373   -18611.114    38171.926   -58092.545   -35912.723    6875.4358   -463.75998    70320.803    79.948096 
   76600     980.1586   -120.38966    0.8868681   -119.50279   -21550.676    4.3048962    4.3048962    4.3048962   -21550.676   -16495.466   -92391.955    44235.394    -61834.18   -3684.5376    28200.205    79.778904 
   76700    1840.2054   -121.15346    1.6650565    -119.4884    -8558.204     4.303013     4.303013     4.303013    -8558.204   -28885.204   -43912.628     47123.22   -48695.418    5139.2071    -15617.75    79.674249 
   76800    1553.5607   -120.89613    1.4056944   -119.49044    8885.3761    4.3012283    4.3012283    4.3012283    8885.3761    44294.574    -8501.412   -9137.0333    29913.406   -3039.8637    46974.249    79.575151 
   76900    1072.9909   -120.47514   0.97086467   -119.50428   -1294.5977    4.3033899    4.3033899    4.3033899   -1294.5977    15495.309   -37870.988    18491.886   -4787.0194    -4245.263    45745.556    79.695185 
   77000    1867.6363   -121.18191    1.6898766   -119.49203   -7059.1322    4.3087459    4.3087459    4.3087459   -7059.1322   -13492.415   -53551.402     45866.42   -45456.251    5145.2499   -17205.527    79.993124 
   77100    1837.3588   -121.15025    1.6624808   -119.48777   -6133.4773    4.3043282    4.3043282    4.3043282   -6133.4773    33507.179   -54471.915    2564.3036   -5315.5133    4062.1975    32532.954    79.747328 
   77200    931.97433     -120.346   0.84326996   -119.50273   -13633.856      4.30284      4.30284      4.30284   -13633.856    44177.995   -75222.426   -9857.1379    30592.829    14624.023    61867.426     79.66464 
   77300    2031.4677   -121.33297    1.8381147   -119.49486   -11023.464    4.3048559    4.3048559    4.3048559   -11023.464   -13255.058   -47981.814    28166.479    12978.469    -7750.766   -18963.279    79.776661 
   77400    2214.6407   -121.49152    2.0038535   -119.48767   -3364.4303    4.3083417    4.3083417    4.3083417   -3364.4303    29978.246   -40925.568    854.03108   -9395.7503   -3039.0739    16746.623    79.970615 
   77500    1086.1706    -120.4816   0.98279002   -119.49881   -27861.342    4.3133486    4.3133486    4.3133486   -27861.342    30986.083   -71615.427   -42954.681    10121.675    2876.3865    84053.977    80.249749 
   77600    1822.9434   -121.13427    1.6494375   -119.48483   -7783.8672    4.3075877    4.3075877    4.3075877   -7783.8672    516.50977   -26224.838    2356.7266     23274.13    12673.491   -18035.955    79.928633 
   77700    1777.9378   -121.09201    1.6087155    -119.4833    5248.5876    4.3010636    4.3010636    4.3010636    5248.5876    44587.296   -32487.031    3645.4981    9040.6063    3823.1994    6022.1008    79.566011 
   77800    1442.5024   -120.79784    1.3052065   -119.49263   -21909.799    4.3062175    4.3062175    4.3062175   -21909.799    52582.024   -62741.434   -55569.987   -7730.6283   -12243.694    83211.387    79.852383 
   77900     1812.206   -121.11766    1.6397221   -119.47794   -1180.7585    4.3121851    4.3121851    4.3121851   -1180.7585    1318.3493   -10237.713    5377.0886    12968.635     17512.02   -4227.4801    80.184826 
   78000    1618.4119   -120.93737    1.4643731   -119.47299   -8752.8954    4.3210646    4.3210646    4.3210646   -8752.8954    4612.7047   -42568.047    11696.656    30040.476    23365.843   -8707.8027    80.681186 
   78100    1166.9567   -120.52438    1.0558869    -119.4685   -26002.637    4.3249854    4.3249854    4.3249854   -26002.637    52469.374   -87570.778   -42906.508   -2200.4462    3336.6922    80417.275    80.901011 
   78200    2174.0111   -121.41555    1.9670909   -119.44846    192.64611    4.3082251    4.3082251    4.3082251    192.64611    46721.599   -20886.189   -25257.471   -7448.4215    2732.3618   -11360.853    79.964117 
   78300    1924.8137   -121.20198    1.7416119   -119.46037    10628.888     4.294207     4.294207     4.294207    10628.888    41821.436   -4763.8473   -5170.9238    17483.911    12654.196   -37995.313    79.186093 
   78400    1306.5002    -120.6778    1.1821489   -119.49565   -1144.4408    4.3011694    4.3011694    4.3011694   -1144.4408    51650.451   -21664.886   -33418.887     6871.853    9270.9735    80264.835    79.571886 
   78500    2296.7235    -121.5675    2.0781237   -119.48937   -8646.0842    4.3205917    4.3205917    4.3205917   -8646.0842    16851.629   -17983.632    -24806.25   -416.68922   -602.34657     25979.55      80.6547 
   78600    2178.2599   -121.44636    1.9709353   -119.47543    -17526.12    4.3238414    4.3238414    4.3238414    -17526.12    -7453.425   -2738.4741   -42386.462   -1715.3556   -18114.668   -49405.401    80.836831 
   78700    1397.7156   -120.74933    1.2646824   -119.48464   -4192.3724    4.3020682    4.3020682    4.3020682   -4192.3724    31171.015   -3363.6708   -40384.462    3353.3853   -281.55686    37916.044    79.621776 
   78800    2203.6219   -121.47268    1.9938834    -119.4788    21954.015    4.2883254    4.2883254    4.2883254    21954.015    31769.093    13337.091    20755.859    20921.471    3958.0585    41028.976    78.861169 
   78900    2090.5865   -121.38413    1.8916066   -119.49252    3816.5948    4.3100532    4.3100532    4.3100532    3816.5948   -24071.017    14040.244    21480.558   -5422.7136    -38250.35   -30161.919    80.065955 
   79000    1268.3756   -120.62858    1.1476529   -119.48092   -18904.964    4.3304495    4.3304495    4.3304495   -18904.964    4378.8768   -39981.833   -21111.934   -9074.3502   -29944.915    14046.717     81.20802 
   79100     2025.584   -121.29609     1.832791    -119.4633    4190.7754    4.3172845    4.3172845    4.3172845    4190.7754    27078.221    3897.0778   -18402.973     7655.462    5613.4829    49397.683    80.469629 
   79200    2235.0505   -121.47727    2.0223206   -119.45495    9786.8851    4.3039761    4.3039761    4.3039761    9786.8851    -39323.55    59716.387    8967.8191   -15028.092   -18538.411   -12527.684    79.727756 
   79300     1336.725    -120.6871    1.2094968    -119.4776   -2861.0138    4.2996424    4.2996424    4.2996424   -2861.0138   -29408.129    33030.748    -12205.66   -26363.217   -19641.952    2433.1335    79.487164 
   79400    1451.1625   -120.80475    1.3130423   -119.49171    4270.8632    4.3076591    4.3076591    4.3076591    4270.8632    15059.052    29530.049   -31776.512   -10830.705    12558.016    47630.722    79.932608 
   79500     2152.963   -121.43577    1.9480462   -119.48772   -17191.217     4.314416     4.314416     4.314416   -17191.217   -43541.293   -17429.881     9397.522    17349.373   -422.14184    6363.8738    80.309342 
   79600    1362.8703   -120.73104    1.2331537   -119.49788    4056.0219    4.3009055    4.3009055    4.3009055    4056.0219    -58033.42    35730.729    34470.756    29262.882   -29250.269   -6772.5155    79.557239 
   79700     1800.872   -121.12616    1.6294668    -119.4967   -3243.2696    4.2935272    4.2935272    4.2935272   -3243.2696    1146.3535    7965.8488   -18842.011   -13021.371    -15160.16    13440.098    79.148495 
   79800    2003.0803   -121.31358    1.8124291   -119.50115   -6264.6204    4.3016169    4.3016169    4.3016169   -6264.6204    -488.3871   -45976.405    27670.931    -1024.498    8732.0442    12866.737    79.596722 
   79900    1349.1885    -120.7297    1.2207741   -119.50892   -17349.678    4.3086476    4.3086476    4.3086476   -17349.678   -68974.441   -21373.771    38299.177    43678.948   -6848.0428   -6742.8181    79.987646 
   80000    1147.7873   -120.54091    1.0385421   -119.50237    -16015.36    4.3056346    4.3056346    4.3056346    -16015.36   -54883.293    18970.697   -12133.485    25985.901    -19390.62   -468.34679    79.819962 
   80100    1919.9631   -121.23071    1.7372229   -119.49349   -17161.019    4.3041042    4.3041042    4.3041042   -17161.019   -16874.188   -39597.284    4988.4153   -28986.786   -6074.1906     7827.221    79.734878 
   80200    1790.5009   -121.11907    1.6200828   -119.49898   -14730.902    4.3043121    4.3043121    4.3043121   -14730.902   -56575.907   -23604.058     35987.26   -41464.519   -1607.8763    9750.1062    79.746433 
   80300      1808.97   -121.13922    1.6367941   -119.50243   -3115.7825     4.300265     4.300265     4.300265   -3115.7825   -44179.509    40796.021   -5963.8598    5680.1786   -17075.495     2711.686    79.521698 
   80400    1836.1866   -121.16789    1.6614202   -119.50647    -4062.018    4.3034279    4.3034279    4.3034279    -4062.018    1663.9009    3994.6803   -17844.635   -2767.1354    -18587.59   -17822.198    79.697294 
   80500    1542.2356   -120.90634    1.3954472   -119.51089   -3332.4436    4.3016891    4.3016891    4.3016891   -3332.4436   -5490.2304   -39895.277    35388.177   -79820.406    1664.9608    -9416.429    79.600732 
   80600    1836.0946    -121.1683     1.661337   -119.50696    28102.472    4.3039578    4.3039578    4.3039578    28102.472    44316.182    18601.383    21389.852   -37257.325   -4707.1344    2563.0164     79.72674 
   80700    2142.5906   -121.43983     1.938661   -119.50117    15052.449    4.3141666    4.3141666    4.3141666    15052.449    39907.514    26895.372   -21645.541    27381.863    -20131.57   -6353.6742    80.295413 
   80800    1224.6239   -120.61189    1.1080654   -119.50382    3573.9861     4.313852     4.313852     4.313852    3573.9861   -12362.061    -18989.28    42073.299   -53043.207    -5581.481   -15600.079     80.27785 
   80900    1904.2798   -121.21189    1.7230324   -119.48885    12542.974    4.3071366    4.3071366    4.3071366    12542.974   -18468.164    20154.829    35942.258   -41122.731    9457.5959   -4155.8307    79.903527 
   81000    2509.7516   -121.75188     2.270876   -119.48101    14669.332    4.3008039    4.3008039    4.3008039    14669.332   -10450.202    39012.833    15445.365    27775.677   -12517.883    10606.006    79.551599 
   81100    1752.2722   -121.09004    1.5854927   -119.50454    -46.22591    4.2953487    4.2953487    4.2953487    -46.22591   -29795.342    15480.283    14176.382   -19676.047   -22544.074   -20995.997    79.249271 
   81200    943.86578    -120.3782   0.85402959   -119.52417   -18972.352    4.2969094    4.2969094    4.2969094   -18972.352   -29534.621   -25054.867   -2327.5683   -70940.928    4907.2848   -36541.763    79.335687 
   81300    1838.9857   -121.18407    1.6639529   -119.52012   -9603.8194    4.3019161    4.3019161    4.3019161   -9603.8194    8177.3408   -18978.877   -18009.922   -7705.8944    17419.342    34141.156    79.613333 
   81400    2254.2229   -121.54857    2.0396682    -119.5089   -2652.3015    4.3071319    4.3071319    4.3071319   -2652.3015    18594.939   -7425.4967   -19126.347    21120.273    1227.3908    21712.837     79.90326 
   81500    1465.0863   -120.84604    1.3256409   -119.52039   -18670.521    4.3002743    4.3002743    4.3002743   -18670.521   -17384.911    -53251.61    14624.958   -60642.542   -2031.7008   -38583.877    79.522217 
   81600    1249.2822   -120.64895    1.1303767   -119.51857    6952.5431    4.2887817    4.2887817    4.2887817    6952.5431    12800.164   -19525.408    27582.873   -51114.055   -12498.712   -18461.834    78.886342 
   81700    2071.5434   -121.38584     1.874376   -119.51146   -715.28174    4.3023216    4.3023216    4.3023216   -715.28174    3137.4983    10497.128   -15780.471    22511.169    11048.074    31767.298    79.635848 
   81800      1385.39   -120.75872      1.25353   -119.50519   -9618.3927    4.3132083    4.3132083    4.3132083   -9618.3927   -22627.919   -26999.018    20771.759   -44633.573    21661.223    24189.461    80.241919 
   81900    1114.4099   -120.51061    1.0083415   -119.50227    11334.433    4.2998819    4.2998819    4.2998819    11334.433    -23159.19   -3378.9386    60541.428   -69485.502    162.64871   -8601.7851    79.500451 
   82000    2178.7992   -121.46101    1.9714233   -119.48959    13299.633    4.2986774    4.2986774    4.2986774    13299.633     9152.948    10278.706    20467.245    29270.933   -3212.8752   -17625.326    79.433661 
   82100     1286.519   -120.66727    1.1640694    -119.5032     11475.09    4.3015654    4.3015654    4.3015654     11475.09   -2315.3369   -31728.291    68468.896   -31062.185    7698.4641    4601.7999    79.593865 
   82200    836.11196   -120.26328   0.75653167   -119.50675    19517.988    4.3094795    4.3094795    4.3094795    19517.988    -11954.96   -37283.618    107792.54   -75488.595    21684.991    14493.692    80.033989 
   82300    2692.7153   -121.89147    2.4364254   -119.45504   -15659.373    4.3280379    4.3280379    4.3280379   -15659.373   -8048.3627    -43072.37    4142.6129    24384.028   -13743.399   -14519.813    81.072424 
   82400    1364.6113   -120.69898     1.234729   -119.46425   -12061.806    4.3196604    4.3196604    4.3196604   -12061.806   -26316.893   -48317.884    38449.358    -62846.87   -4782.9584    5742.6145    80.602555 
   82500    678.59185    -120.0796   0.61400417    -119.4656    4575.9058    4.2995928    4.2995928    4.2995928    4575.9058   -29719.103     -33110.5    76557.321   -76412.359    18612.023    22442.169    79.484417 
   82600    2142.3787   -121.39799    1.9384693   -119.45952    12432.264    4.2946155    4.2946155    4.2946155    12432.264    15502.921    19432.218    2361.6536    39492.515   -4780.5971    -9895.251    79.208697 
   82700    1572.6875   -120.91219    1.4230007   -119.48919   -10986.828    4.3004779    4.3004779    4.3004779   -10986.828   -37848.491   -27335.548    32223.554   -46355.421   -493.61809   -15363.895     79.53351 
   82800    1157.7351   -120.55869    1.0475431   -119.51115   -4508.0891    4.2987968    4.2987968    4.2987968   -4508.0891   -36737.186   -37609.822     60822.74   -78716.701    6728.8654   -312.99917    79.440276 
   82900    2080.7159   -121.38305    1.8826755   -119.50038    7902.6637    4.2980759    4.2980759    4.2980759    7902.6637    10338.548    24240.794   -10871.351    16656.827    8709.1531    31187.453    79.400321 
   83000     1619.384   -120.97186    1.4652526   -119.50661   -10767.577     4.303418     4.303418     4.303418   -10767.577   -15912.922   -3004.1425   -13385.666   -23488.249    17782.053    29816.159    79.696745 
   83100    1332.9676   -120.72083    1.2060971   -119.51473   -21417.403    4.3000725    4.3000725    4.3000725   -21417.403   -64146.713   -38790.666    38685.171   -86537.562   -12495.105   -18572.889    79.511021 
   83200    2178.4849   -121.47136    1.9711389   -119.50022   -1275.7452     4.289546     4.289546     4.289546   -1275.7452    4049.2283   -10508.881     2632.417   -9729.4962    -12723.42    2095.8399    78.928524 
   83300    1838.9139   -121.17501    1.6638879   -119.51112   -727.01485    4.2941959    4.2941959    4.2941959   -727.01485    41977.233   -15525.668    -28632.61    11356.826    10574.046    48713.267    79.185479 
   83400    1189.6113    -120.5938    1.0763853   -119.51741    -17174.06     4.309357     4.309357     4.309357    -17174.06   -27458.926   -20942.405   -3120.8481   -72176.985    11371.733    22167.562     80.02716 
   83500    2395.2675   -121.66309    2.1672883    -119.4958    -10142.34    4.3065301    4.3065301    4.3065301    -10142.34   -33225.776    9335.2039   -6536.4477   -34042.521     7581.509   -16999.335    79.869773 
   83600    2217.9561   -121.50052    2.0068533   -119.49367    14201.548     4.296817     4.296817     4.296817    14201.548    49479.957    28499.788   -35375.101    26370.589   -3975.5359    6674.0187    79.330569 
   83700    833.52563   -120.26507   0.75419151   -119.51088    -14218.88    4.3035534    4.3035534    4.3035534    -14218.88    13718.911   -20175.801   -36199.749   -49430.199     15471.94     50695.98    79.704268 
   83800    1952.6459    -121.2602    1.7667951   -119.49341   -9369.5996    4.3038053    4.3038053    4.3038053   -9369.5996   -23039.831    17937.985   -23006.953   -35949.783     2404.208     5337.655    79.718266 
   83900    2354.5212   -121.61142    2.1304202     -119.481   -7297.4664    4.3089726    4.3089726    4.3089726   -7297.4664    5322.6316    21136.581   -48351.611    30192.414   -14587.194    10521.635     80.00575 
   84000     1373.356   -120.74139    1.2426413   -119.49875   -25456.843    4.3079347    4.3079347    4.3079347   -25456.843    24974.557   -46200.569   -55144.517   -20683.597   -3121.2568    50594.167    79.947953 
   84100    1584.3922   -120.93297    1.4335914   -119.49938    12001.419    4.2889731    4.2889731    4.2889731    12001.419    27370.258    9524.4683   -890.46998   -60005.962     10435.34    22397.205    78.896907 
   84200      2427.64   -121.69094    2.1965797   -119.49436    16561.057    4.2887418    4.2887418    4.2887418    16561.057    2944.5374    38738.408    8000.2262    22949.111   -4602.0413   -14453.415    78.884143 
   84300    1590.9973    -120.9519    1.4395678   -119.51233   -9741.1952    4.3076058    4.3076058    4.3076058   -9741.1952    5141.4508   -6952.3846   -27412.652    45450.259   -20825.105    4972.3171    79.929638 
   84400    1464.5463   -120.82911    1.3251523   -119.50396   -13210.551    4.3103718    4.3103718    4.3103718   -13210.551    25958.886   -42840.085   -22750.455   -36445.678   -1300.5626    51000.292    80.083713 
   84500    2386.2628   -121.64377    2.1591407   -119.48463   -4073.2399    4.3031385    4.3031385    4.3031385   -4073.2399   -9527.8537   -12760.604    10068.738   -25051.043    4662.4129    5083.3953    79.681222 
   84600     1793.696   -121.11926    1.6229739   -119.49629   -20265.082    4.2972254    4.2972254    4.2972254   -20265.082   -22941.254   -29864.271   -7989.7208    45495.742    3986.6164   -25835.441    79.353194 
   84700    1326.2129   -120.71042    1.1999853   -119.51044   -753.42655    4.2886925    4.2886925    4.2886925   -753.42655    19781.826   -4188.4022   -17853.703    27675.939    -23039.29    47387.552     78.88142 
   84800    2248.9772   -121.54601    2.0349218   -119.51109    180.12708    4.3004125    4.3004125    4.3004125    180.12708    5818.0075    19240.612   -24518.238   -17507.006   -9082.6633    36839.626    79.529886 
   84900    2139.2254   -121.43673    1.9356161   -119.50112   -19373.648    4.3111773    4.3111773    4.3111773   -19373.648   -43965.437    9371.7668   -23527.273    12205.546    36327.699   -25219.746    80.128619 
   85000    1314.1051   -120.69547    1.1890299   -119.50644    -4296.593    4.2997528    4.2997528    4.2997528    -4296.593   -19445.069    13845.876   -7290.5856    45501.053    -136.9152   -3909.4228    79.493291 
   85100    2028.0068   -121.32957    1.8349832   -119.49459    1072.9195    4.2976684    4.2976684    4.2976684    1072.9195    41020.384   -28847.422   -8954.2035    4779.4771    -11462.14    40644.846    79.377735 
   85200    1841.1893   -121.16149    1.6659468   -119.49555   -11191.245    4.2987303    4.2987303    4.2987303   -11191.245   -13578.579   -6224.9313   -13770.226   -33031.445    33495.666    9522.4496     79.43659 
   85300    1006.0351   -120.42189   0.91028166   -119.51161   -12208.389    4.2965075    4.2965075    4.2965075   -12208.389   -26492.652   -16839.793    6707.2774   -12695.629    29314.264    -9296.117    79.313428 
   85400     1929.624   -121.25174    1.7459644   -119.50578    -5631.656    4.3050233    4.3050233    4.3050233    -5631.656    15060.217   -35951.126    3995.9416    24439.723   -1481.5382   -1124.0041    79.785967 
   85500    1956.0376    -121.2728    1.7698639   -119.50294   -8292.4846     4.302115     4.302115     4.302115   -8292.4846   -5149.4865   -14067.094   -5660.8738    383.39096   -12963.343   -7905.1624    79.624379 
   85600    685.91373   -120.13836   0.62062916   -119.51773   -6918.4965    4.2891879    4.2891879    4.2891879   -6918.4965   -47501.783     27336.51   -590.21619   -49617.234    27335.496    10734.458    78.908761 
   85700    1602.1709   -120.96895    1.4496779   -119.51928   -5298.1382    4.2940307    4.2940307    4.2940307   -5298.1382   -29926.503    1491.8387    12540.249   -29385.011    23001.627   -11711.562    79.176344 
   85800    2454.4022   -121.72291    2.2207947   -119.50211   -1930.7998    4.3059299    4.3059299    4.3059299   -1930.7998    15220.006   -25443.068    4430.6623    24104.085   -6963.3525   -24241.236    79.836386 
   85900    1586.7829   -120.94643    1.4357545   -119.51068   -8095.7042    4.3033682    4.3033682    4.3033682   -8095.7042   -19354.392   -7455.8233     2523.103    19088.977   -7814.3552   -5056.2286    79.693979 
   86000    2061.6371   -121.36914    1.8654125   -119.50373    774.58237    4.2943382    4.2943382    4.2943382    774.58237   -35761.939    36859.098    1226.5875   -31634.514    19616.231   -2477.6747    79.193353 
   86100    2314.6207   -121.59462    2.0943174    -119.5003    7591.4613    4.2927637    4.2927637    4.2927637    7591.4613    22720.787   -12905.786    12959.383    2216.0758    10899.512    5401.0623    79.106277 
   86200    1095.1794   -120.50834   0.99094134   -119.51739   -10852.862    4.3008281    4.3008281    4.3008281   -10852.862   -11274.672   -41715.473    20431.558    72459.297   -10551.986    -9217.589    79.552946 
   86300    2008.4689   -121.32305    1.8173049   -119.50574   -1686.2651    4.3093212    4.3093212    4.3093212   -1686.2651   -31167.812    38658.784   -12549.767    3289.0277      -5398.8    -13997.13    80.025171 
   86400    2578.1292   -121.81784    2.3327455    -119.4851   -4592.8928    4.3094448    4.3094448    4.3094448   -4592.8928   -17642.015    16888.622   -13025.285   -17353.136   -4692.3494    6492.5425    80.032053 
   86500    1383.3554   -120.75166    1.2516891   -119.49997   -7713.7259    4.2964748    4.2964748    4.2964748   -7713.7259   -3311.8729   -50790.103    30960.798    65645.951    8160.4183   -771.14184    79.311617 
   86600    1610.8781   -120.96064    1.4575563   -119.50308    8361.9628    4.2906312    4.2906312    4.2906312    8361.9628    50884.286   -28761.489    2963.0905    37032.947   -10742.631    -10659.59    78.988446 
   86700    2355.3226   -121.62276    2.1311453   -119.49162    1471.6337    4.2978489    4.2978489    4.2978489    1471.6337    11162.003    5552.7018   -12299.803   -30927.068   -20228.384   -4852.7269    79.387738 
   86800    1113.6138    -120.5175    1.0076211   -119.50988   -2545.6317    4.3013095    4.3013095    4.3013095   -2545.6317    15552.811     -64800.3    41610.594    1740.7276    3133.4262   -1263.5146    79.579658 
   86900    1141.5478   -120.54585    1.0328965   -119.51295   -22543.477    4.3004719    4.3004719    4.3004719   -22543.477   -6152.6111   -96975.016    35497.198    56548.277   -101.15189    9507.8076     79.53318 
   87000    2160.5214   -121.45193    1.9548851   -119.49705   -2969.3737    4.2954705    4.2954705    4.2954705   -2969.3737    27754.021   -11712.763   -24949.379    6120.0378    11585.118    4426.8232    79.256014 
   87100    1503.7854   -120.86752    1.3606567   -119.50687   -5832.4777    4.2938896    4.2938896    4.2938896   -5832.4777    25683.872   -37505.984   -5675.3208   -12006.264    2535.7331   -6140.6511    79.168539 
   87200    794.04941   -120.23557   0.71847259    -119.5171   -9263.1785    4.2933294    4.2933294    4.2933294   -9263.1785   -4268.4727    -87917.81    64396.748    33110.545    -12483.23   -3789.6323    79.137556 
   87300    1673.0602   -121.02083      1.51382   -119.50701   -5654.9295    4.2974473    4.2974473    4.2974473   -5654.9295    4863.0601   -52720.163    30892.315    13371.615    7564.8998    139.49328    79.365487 
   87400     1849.929   -121.17229    1.6738546   -119.49843   -11415.437    4.3082259    4.3082259    4.3082259   -11415.437    4318.1301   -14036.652   -24527.789   -10564.148    12114.722    10780.212    79.964165 
   87500    1465.0481   -120.82544    1.3256063   -119.49983   -16497.237    4.3053094    4.3053094    4.3053094   -16497.237   -8440.4019   -62388.786    21337.478    39004.902    5627.5238   -8049.3122    79.801876 
   87600    1667.1348   -121.00005    1.5084586   -119.49159    647.25158    4.2915459    4.2915459    4.2915459    647.25158   -15238.018   -56152.492    73332.265     52287.93   -2947.9322   -14009.092    79.038972 
   87700    2162.1233   -121.44648    1.9563346   -119.49015    4980.4648    4.2959756    4.2959756    4.2959756    4980.4648    1813.7264    17351.863    -4224.195   -26032.919    1249.3918     4610.447    79.283973 
   87800    1516.0493   -120.86912    1.3717533   -119.49737   -19339.517    4.3089283    4.3089283    4.3089283   -19339.517   -30268.725   -10201.416    -17548.41    29801.156    20646.542    5036.6269    80.003282 
   87900    1399.4419   -120.76691    1.2662444   -119.50067   -11986.662    4.3029811    4.3029811    4.3029811   -11986.662   -49724.328   -25106.138     38870.48    95673.954    4750.7052    10182.395    79.672474 
   88000    2662.3558   -121.89337    2.4089555   -119.48441    15100.359    4.2964897    4.2964897    4.2964897    15100.359    7605.4154    52341.276   -14645.613   -17471.508   -907.02745    1228.6038    79.312445 
   88100    1592.1006   -120.93707    1.4405661    -119.4965   -11664.459    4.3068017    4.3068017    4.3068017   -11664.459    -26737.42    20717.245   -28973.201     30445.88   -3688.8407    8390.0439    79.884888 
   88200    639.03396   -120.08776   0.57821135   -119.50954   -21913.402    4.3045598    4.3045598    4.3045598   -21913.402   -55059.534   -28135.111    17454.438    107516.76     1813.122    11056.714    79.760201 
   88300    2083.6064   -121.37314    1.8852908   -119.48785    12428.448    4.2949389    4.2949389    4.2949389    12428.448    35428.675    11179.206   -9322.5373   -20967.642    8495.0608   -6884.7496    79.226594 
   88400    1865.4856    -121.1818    1.6879306   -119.49387   -616.58302    4.3016235    4.3016235    4.3016235   -616.58302    6872.6023   -24603.448    15881.096   -10714.485   -3781.8884    2051.5263     79.59709 
   88500    705.81943   -120.15226   0.63864025   -119.51362    -19274.58    4.3069272    4.3069272    4.3069272    -19274.58   -40499.072   -77996.782    60672.115    95054.404   -5135.2443    4572.5355     79.89187 
   88600    2411.9023   -121.67386    2.1823399   -119.49152    6604.6069    4.3026526    4.3026526    4.3026526    6604.6069    21541.283    -17361.69    15634.227    10300.206   -3324.6545    7054.8298    79.654232 
   88700    2562.5698   -121.80746     2.318667   -119.48879   -257.84642    4.3056303    4.3056303    4.3056303   -257.84642    19951.562    -25451.69    4726.5893    9956.5456    24121.248   -13231.308     79.81972 
   88800    1201.2726   -120.59869    1.0869367   -119.51175   -14318.432     4.297188     4.297188     4.297188   -14318.432   -39676.731   -61976.147     58697.58    97688.763   -384.18123    592.03836    79.351122 
   88900    2031.3038   -121.33896    1.8379664   -119.50099     16440.58     4.286784     4.286784     4.286784     16440.58     18155.04    -18524.41    49691.111    2720.2218    -25466.67    12280.093    78.776158 
   89000    2174.1721    -121.4685    1.9672366   -119.50127    -2331.347    4.3042266    4.3042266    4.3042266    -2331.347   -4317.7363   -931.81216   -1744.4926   -25421.374    17767.802   -3052.7124    79.741682 
   89100    978.26175   -120.38726   0.88515179    -119.5021   -9457.3121    4.3139973    4.3139973    4.3139973   -9457.3121   -33029.449   -18209.167     22866.68     63579.64     30035.63   -11136.898    80.285961 
   89200    1995.4207   -121.27869    1.8054986   -119.47319    7089.9711    4.3054869    4.3054869    4.3054869    7089.9711    13804.376   -7806.9174    15272.454    17711.569   -14313.761   -3593.8905     79.81175 
   89300    1764.2412   -121.06674    1.5963225   -119.47041   -23516.896    4.3128322    4.3128322    4.3128322   -23516.896   -16165.256   -1227.5581   -53157.875   -25625.796   -10857.317    13366.577    80.220929 
   89400    1094.1334   -120.46946   0.98999493   -119.47947   -21431.656    4.3093323    4.3093323    4.3093323   -21431.656   -5044.0598    1244.4846   -60495.391    25688.958    35757.729   -17818.435    80.025789 
   89500    2027.3047   -121.30671    1.8343479   -119.47237    21518.921    4.2866027    4.2866027    4.2866027    21518.921    23392.094    22331.518     18833.15    24156.641    7424.0232   -3031.3309    78.766162 
   89600    1381.2197    -120.7512    1.2497566   -119.50145   -10683.678    4.2929948    4.2929948    4.2929948   -10683.678    16768.599   -1750.7384   -47068.893   -8262.5796   -42979.523      37136.8    79.119053 
   89700    970.33448    -120.3957   0.87797903   -119.51772   -31279.599    4.3029012    4.3029012    4.3029012   -31279.599    1439.2148   -13198.041    -82079.97   -21326.059    2260.0691    9497.8632    79.668037 
   89800    2089.6097   -121.39375    1.8907228   -119.50302    18730.803    4.2977478    4.2977478    4.2977478    18730.803    41001.707     19112.78   -3922.0783   -9487.5789    38099.936   -13523.491    79.382137 
   89900    1914.3004   -121.23864    1.7320992   -119.50654   -5778.2022    4.3058986    4.3058986    4.3058986   -5778.2022    37638.945   -28268.901    -26704.65     11970.13    -10901.32    25645.355    79.834647 
   90000    764.87952   -120.20767   0.69207907   -119.51559   -16284.488    4.3028258    4.3028258    4.3028258   -16284.488    56081.307   -45402.811   -59531.961    97.801104   -33399.427    34355.992     79.66385 
   90100    2183.6326   -121.46768    1.9757967   -119.49188    19093.751    4.2934617    4.2934617    4.2934617    19093.751    21491.991    5773.8386    30015.422   -13933.578   -657.46944   -15930.048    79.144872 
   90200    2205.7524   -121.49129    1.9958112   -119.49548   -5021.4203    4.3075469    4.3075469    4.3075469   -5021.4203     9629.094   -38176.921    13483.567    13600.003    17692.531     15016.44    79.926362 
   90300    790.86857   -120.21799    0.7155945    -119.5024   -10900.814    4.3138372    4.3138372    4.3138372   -10900.814    30846.835   -73092.947    9543.6683    30211.374   -16942.225    54968.005     80.27702 
   90400    2458.0841   -121.69514    2.2241262   -119.47101    16206.949    4.3067114    4.3067114    4.3067114    16206.949    33727.159   -11389.361     26283.05   -9772.3372    -13535.81    1555.3399    79.879862 
   90500    2520.0399   -121.74869     2.280185   -119.46851    985.93719    4.3071068    4.3071068    4.3071068    985.93719   -917.37541   -14039.776    17914.963    -11257.44     4241.766    14046.407    79.901865 
   90600    935.54654   -120.33555   0.84650217   -119.48905    1508.1693    4.3085608    4.3085608    4.3085608    1508.1693    40338.725   -42960.156    7145.9391     28682.45   -1250.0289    51679.918    79.982814 
   90700    2487.8318   -121.72338    2.2510425   -119.47233    2355.9151    4.3104976    4.3104976    4.3104976    2355.9151   -3293.4591   -12757.137    23118.341     25335.99   -16471.503   -6265.1591    80.090727 
   90800    2428.6254   -121.67454    2.1974713   -119.47707   -8907.3754    4.3036966    4.3036966    4.3036966   -8907.3754   -13836.233   -29796.771    16910.878   -31392.766    8961.3002   -22989.886    79.712226 
   90900    929.31412   -120.34163   0.84086295   -119.50077    3845.6335    4.2920134    4.2920134    4.2920134    3845.6335    30609.198   -42862.334    23790.036   -14672.911    14897.105    42281.616    79.064805 
   91000    2458.2823   -121.71644    2.2243055   -119.49214    13325.969    4.3000438    4.3000438    4.3000438    13325.969    15134.573   -10215.688    35059.023    11571.856   -388.87489    28824.604     79.50943 
   91100    2406.7958   -121.66267    2.1777194   -119.48495   -13320.994    4.3145415    4.3145415    4.3145415   -13320.994   -27666.963   -41351.289    29055.271   -6207.0056   -2961.2267   -23232.316    80.316349 
   91200    817.45827   -120.24377   0.73965342   -119.50411   -12818.073    4.3019226    4.3019226    4.3019226   -12818.073    13831.359   -78607.446    26321.868   -26383.901   -920.04787    8004.9923    79.613694 
   91300    2049.6169   -121.34315    1.8545364   -119.48862    13778.841    4.2946407    4.2946407    4.2946407    13778.841    31573.373   -5687.7173    15450.868   -14797.328    5200.4815     27683.71    79.210092 
   91400    1978.1233   -121.27137    1.7898475   -119.48152   -4674.7309    4.3061243    4.3061243    4.3061243   -4674.7309   -47457.882   -13105.067    46538.756    34485.828   -4555.7862   -14985.777      79.8472 
   91500     835.5654   -120.25237   0.75603714   -119.49633   -34271.155    4.3069283    4.3069283    4.3069283   -34271.155    -49979.78   -42699.529   -10134.157    9526.7142   -11893.385   -11819.484    79.891931 
   91600    1899.4915   -121.19514    1.7186998   -119.47644   -1609.8341    4.3033224    4.3033224    4.3033224   -1609.8341    10107.018    21095.766   -36032.287   -27961.226   -832.47756    8150.2332    79.691435 
   91700    1499.6226   -120.83844      1.35689   -119.48155   -24882.749    4.3084634    4.3084634    4.3084634   -24882.749   -55415.067    9755.4818   -28988.663    41505.225    18216.937    4071.1907    79.977392 
   91800    717.94194   -120.14638   0.64960896   -119.49677   -22397.529    4.2984851    4.2984851    4.2984851   -22397.529   -43066.435    -10175.31   -13950.843    48843.943    4827.4213   -2037.4942       79.423 
   91900    2055.6871    -121.3466    1.8600288   -119.48658    13848.865    4.2992012    4.2992012    4.2992012    13848.865    55678.331    29206.448   -43338.184    -13385.17   -3032.8063   -12427.138    79.462701 
   92000    2058.1661   -121.35323    1.8622719   -119.49096   -23480.963    4.3101492    4.3101492    4.3101492   -23480.963    -25507.35   -1643.0234   -43292.516    1673.1899    15860.025    5334.2275    80.071306 
   92100    717.33125   -120.15742   0.64905639   -119.50836    -373.3609    4.2980391    4.2980391    4.2980391    -373.3609    -19172.64    11585.705    6466.8517    60917.719    22832.879   -4452.1266    79.398276 
   92200    2068.0232   -121.37087    1.8711909   -119.49968    15822.081    4.3026774    4.3026774    4.3026774    15822.081   -2171.0493    31583.838    18053.453    23593.146   -6541.5667    3487.3861    79.655609 
   92300    2521.6601   -121.76393    2.2816511   -119.48228   -11427.109    4.3139317    4.3139317    4.3139317   -11427.109   -20697.247   -12179.855   -1404.2243   -21377.429   -7132.2239    -5783.083    80.282296 
   92400    894.57563    -120.3076   0.80943083   -119.49817    6262.3026    4.3009224    4.3009224    4.3009224    6262.3026   -47630.632    27706.122    38711.418    38686.826    16746.238   -61.582321    79.558179 
   92500     1816.455   -121.13775    1.6435667   -119.49419    8361.7816    4.3052205    4.3052205    4.3052205    8361.7816   -27587.397    16765.099    35907.643    43010.313    14311.125    4047.4995    79.796934 
   92600     2519.265   -121.76022    2.2794839   -119.48074    22769.479    4.3047052    4.3047052    4.3047052    22769.479    18247.744    36024.247    14036.446   -24258.189   -25522.713   -900.72913    79.768283 
   92700    857.87799   -120.27801   0.77622603   -119.50179    24081.563    4.3007766    4.3007766    4.3007766    24081.563   -13712.908    50800.413    35157.183    23271.836   -27570.824     2340.496    79.550084 
   92800     1564.094   -120.90756    1.4152251   -119.49233   -12057.833    4.3180618    4.3180618    4.3180618   -12057.833   -36588.075   -12900.785    13315.362    44177.363    11384.695   -5940.1198    80.513104 
   92900    2465.0977   -121.70079    2.2304722   -119.47032     16337.22    4.3069046    4.3069046    4.3069046     16337.22    39150.425    36611.438   -26750.203   -24103.476   -15063.043    -8134.516    79.890612 
   93000    1188.6023   -120.56601    1.0754723   -119.49054    1314.1225    4.2915661    4.2915661    4.2915661    1314.1225   -40981.451    76880.171   -31956.353   -3465.2596   -48486.956    127.55985    79.040089 
   93100     1130.802   -120.53033    1.0231734   -119.50715   -20498.372    4.2972008    4.2972008    4.2972008   -20498.372   -60922.779    8710.5686   -9282.9045    37066.828   -5104.5488   -7344.2452    79.351829 
   93200    2389.4566    -121.6492    2.1620306   -119.48716    8556.4841    4.2970254    4.2970254    4.2970254    8556.4841     26117.45    19857.781   -20305.779    23546.572    3461.5015    1703.0156    79.342114 
   93300    1340.9724   -120.72214      1.21334    -119.5088   -16875.698    4.3134039    4.3134039    4.3134039   -16875.698   -39338.176     80854.07   -92142.989   -11431.339   -49491.043   -920.19502    80.252835 
   93400    1139.8138   -120.52619    1.0313275   -119.49486    -40536.41     4.319938     4.319938     4.319938    -40536.41   -71564.627    12522.089   -62566.693    18417.772   -21691.185   -496.07914    80.618097 
   93500    2384.0333   -121.62706    2.1571234   -119.46994    18255.785    4.2950259    4.2950259    4.2950259    18255.785    55677.207    273.96773   -1183.8212    23403.764    13148.035    100.02672    79.231408 
   93600    1594.2252   -120.93043    1.4424885   -119.48795      9310.04     4.289905     4.289905     4.289905      9310.04    14155.151    63204.231   -49429.262   -13115.951   -67339.148   -1222.7074    78.948346 
   93700    1253.1555    -120.6408    1.1338814   -119.50692   -23752.852    4.3042728    4.3042728    4.3042728   -23752.852   -32110.691    21969.749   -61117.613   -9189.5531   -42307.715    8490.6887    79.744245 
   93800    2223.0146   -121.50484    2.0114303   -119.49341   -9265.6749    4.3129688    4.3129688    4.3129688   -9265.6749    7162.9582   -31615.292   -3344.6907    15118.591     41108.12    1348.7924    80.228553 
   93900    1757.8072   -121.08564    1.5905009   -119.49514   -17182.475    4.3117063    4.3117063    4.3117063   -17182.475   -34191.558    14370.633   -31726.501    3451.6136    -53837.52   -19640.062    80.158116 
   94000    1488.5666   -120.83878    1.3468863   -119.49189    2018.2553    4.2947648    4.2947648    4.2947648    2018.2553     -10098.1    48128.979   -31976.113   -5327.3078   -74802.266   -9335.7288    79.216957 
   94100    2301.8869    -121.5645    2.0827957   -119.48171     30789.45    4.2940266    4.2940266    4.2940266     30789.45    45203.266    10380.625    36784.458   -12390.705    46182.235    5449.9834    79.176115 
   94200    1677.9979   -121.01553    1.5182878   -119.49724   -9331.9556    4.3078172    4.3078172    4.3078172   -9331.9556   -54502.012    13007.958    13498.187   -14516.237   -25959.658    7957.2204    79.941408 
   94300    1299.0949    -120.6783    1.1754484   -119.50286    6626.3982    4.3039627    4.3039627    4.3039627    6626.3982    -1890.213    39573.283   -17803.875   -5651.1935   -76937.755   -6041.7751    79.727016 
   94400    2651.3042   -121.87273    2.3989558   -119.47377    17731.154    4.3106104    4.3106104    4.3106104    17731.154    19483.955   -4416.8972    38126.404    7476.2245    32090.321    6231.9321    80.097014 
   94500    1522.7269   -120.85749    1.3777953    -119.4797   -22881.632    4.3196041    4.3196041    4.3196041   -22881.632   -78093.298    4750.6418    4697.7619   -9882.6047   -46684.783    5468.0095    80.599406 
   94600    1491.7271   -120.82806     1.349746   -119.47831    -12485.17    4.3014595    4.3014595    4.3014595    -12485.17   -61636.881    35373.232    -11191.86   -11259.447   -67355.031   -6795.9745    79.587986 
   94700    2880.0666   -122.06653    2.6059448   -119.46059     37624.53    4.2872005    4.2872005    4.2872005     37624.53    35915.745    23117.752    53840.092    14486.658    29512.143   -3661.7321     78.79912 
   94800    1889.8758   -121.20887    1.7099994   -119.49887   -9191.4177    4.3018413    4.3018413    4.3018413   -9191.4177   -49764.961    31805.805   -9615.0965    15603.652   -48616.379    12239.759    79.609181 
   94900    1120.0574   -120.53094    1.0134514   -119.51749   -15336.406     4.307089     4.307089     4.307089   -15336.406   -45353.409    30339.873   -30995.681   -21758.514   -85007.731    1333.9032    79.900874 
   95000    2465.5153   -121.72812    2.2308501   -119.49727    18139.302    4.3072368    4.3072368    4.3072368    18139.302    26289.964   -17196.581    45324.523   -27503.966    19572.502    2774.5055    79.909101 
   95100    2224.7358   -121.51038    2.0129877   -119.49739   -2543.5016    4.3078608    4.3078608    4.3078608   -2543.5016   -18414.249   -5048.7421    15832.486    4311.4678   -12868.186    3818.6932    79.943838 
   95200    895.52631   -120.32563   0.81029103   -119.51534    4064.0802    4.2940948    4.2940948    4.2940948    4064.0802   -49677.119    61229.404    639.95524    10651.626    -91727.46     839.8664    79.179889 
   95300    1912.5719   -121.23896    1.7305353   -119.50842    7177.1978    4.2976337    4.2976337    4.2976337    7177.1978   -3380.1488   -23864.492    48776.234    4945.0351    -9647.468    15685.979    79.375815 
   95400    2309.5927   -121.58031     2.089768   -119.49054   -17347.398    4.3171293    4.3171293    4.3171293   -17347.398   -23575.476   -32703.813     4237.097   -13413.103   -3149.0212   -1648.9262    80.460951 
   95500    905.06114   -120.32284   0.81891834   -119.50392   -30513.695    4.3131809    4.3131809    4.3131809   -30513.695   -56502.346    38381.655   -73420.395   -1966.9016   -100048.34   -379.37981    80.240388 
   95600    1499.2287   -120.84581    1.3565336   -119.48928      19389.3    4.2939278    4.2939278    4.2939278      19389.3    16593.367    35781.703    5792.8314    20410.694   -4843.9976    5206.8033     79.17065 
   95700    2353.0441   -121.60594    2.1290837   -119.47685    11077.126    4.2951001    4.2951001    4.2951001    11077.126    2772.1753    7427.5613    23031.641    9968.2851    12665.591   -4807.7708    79.235513 
   95800    1425.9901   -120.78817    1.2902658    -119.4979    9029.0162    4.3003474    4.3003474    4.3003474    9029.0162   -8393.3511    59537.454   -24057.055   -6797.5099   -93716.369    3870.5888     79.52627 
   95900    2094.0638   -121.38759    1.8947529   -119.49284    10453.411     4.305643     4.305643     4.305643    10453.411   -3199.5373    26621.239    7938.5311   -9371.2059   -23632.348    -12588.86    79.820426 
   96000     1922.001   -121.22963    1.7390669   -119.49056   -2482.9394    4.3129674    4.3129674    4.3129674   -2482.9394   -16455.344    9434.9983   -428.47289    21150.582     26402.09   -9253.3999    80.228475 
   96100    1234.0079   -120.61265    1.1165563   -119.49609   -14301.551    4.3030293    4.3030293    4.3030293   -14301.551   -41649.538    64660.033   -65915.148    14335.867   -67594.671    2146.5355    79.675154 
   96200    2050.0454   -121.33642    1.8549241    -119.4815    38328.162    4.2940707    4.2940707    4.2940707    38328.162    17751.843    61714.509    35518.134   -7444.4181   -39483.597    6205.0286    79.178556 
   96300    2086.3237   -121.37454    1.8877495   -119.48679    2617.8859    4.3070647    4.3070647    4.3070647    2617.8859   -13480.378     8829.813    12504.222    163.97287    27568.764    9194.2222    79.899524 
   96400    983.31888   -120.38857   0.88972758   -119.49884   -18338.272     4.311441     4.311441     4.311441   -18338.272    -48168.86    17266.652   -24112.609    6898.1582   -31914.932   -14035.999    80.143323 
   96500    1866.2687   -121.16785    1.6886392   -119.47922    13630.957    4.3020393    4.3020393    4.3020393    13630.957    12587.511    31802.675   -3497.3142    3636.6879   -33675.785    14789.146    79.620176 
   96600    1958.6734   -121.24904    1.7722489   -119.47679    4111.0032    4.3032467    4.3032467    4.3032467    4111.0032   -6347.1442   -5447.0894    24127.243   -26613.545    13511.868     25952.96    79.687228 
   96700    996.99569    -120.3989   0.90210265   -119.49679   -24776.373    4.3045067    4.3045067    4.3045067   -24776.373   -67165.453   -29985.293    22821.627   -13655.562   -5296.0529   -1832.2526    79.757251 
   96800    2052.5246   -121.33917    1.8571674     -119.482    13380.825    4.2973918    4.2973918    4.2973918    13380.825    793.26322    8182.6859    31166.524    17374.226   -21137.151    594.79962    79.362413 
   96900    1821.2446   -121.13573    1.6479004   -119.48783     7048.656     4.306679     4.306679     4.306679     7048.656    12183.956   -25525.947    34487.959   -14924.545    516.45935    4323.6053    79.878058 
   97000     694.5849   -120.12779   0.62847501   -119.49931   -23224.874    4.3142277    4.3142277    4.3142277   -23224.874   -31026.008   -41206.086    2557.4721   -27072.088    28374.119    11248.642    80.298825 
   97100    2255.7413   -121.51106    2.0410422   -119.47001    12100.467    4.3063431    4.3063431    4.3063431    12100.467   -4496.3156    7288.2767    33509.439      5719.98     6295.589   -5953.2869     79.85937 
   97200    1892.4896   -121.18931    1.7123643   -119.47694   -9839.0486    4.3073905    4.3073905    4.3073905   -9839.0486   -16583.858   -42134.529    29201.241   -4379.8226   -8524.3594    12133.504    79.917654 
   97300    836.90292   -120.25807   0.75724735   -119.50083   -19009.951    4.3028855    4.3028855    4.3028855   -19009.951   -27629.161   -72237.225    42836.533   -46643.596    14639.232     15129.43    79.667167 
   97400    2282.4516   -121.55571    2.0652102    -119.4905    21957.607    4.2960688    4.2960688    4.2960688    21957.607   -8232.1666    19476.549    54628.439    -18878.44    14587.321    1885.1174    79.289138 
   97500    2379.3853   -121.64677    2.1529178   -119.49385   -3879.6544    4.3027901    4.3027901    4.3027901   -3879.6544   -30566.736   -2006.0715    20933.844    35390.474    -7232.217   -5859.3168    79.661867 
   97600    1154.3655   -120.55021    1.0444941   -119.50572   -17120.398    4.3077057    4.3077057    4.3077057   -17120.398   -15942.251   -45606.577    10187.633    -9410.279   -13451.806    886.40233    79.935199 
   97700    2481.7886   -121.73159    2.2455745   -119.48601    4231.7212    4.3048994    4.3048994    4.3048994    4231.7212     808.2652    4846.1651    7040.7334   -24116.931    4186.0024    27119.436    79.779079 
   97800    2122.8373    -121.4068    1.9207878   -119.48601    -9198.905    4.3092071    4.3092071    4.3092071    -9198.905   -42209.279    1765.8577    12846.706    32543.043    4540.6974   -10766.117    80.018811 
   97900    1423.6025   -120.78181    1.2881055    -119.4937   -14919.739    4.3039919    4.3039919    4.3039919   -14919.739   -23547.144   -16110.563   -5101.5103    30966.383   -18781.878   -11383.873    79.728634 
   98000    2503.9232   -121.74764    2.2656023   -119.48204    28538.732    4.2950378    4.2950378    4.2950378    28538.732    32833.991    36044.224    16737.982   -30485.853   -13665.626   -2912.2432    79.232063 
   98100    2020.2305   -121.32069     1.827947   -119.49275   -942.53958     4.306144     4.306144     4.306144   -942.53958   -20893.742   -1099.3381    19165.461    23255.303    31387.876    2341.5576    79.848295 
   98200    965.75498   -120.38194   0.87383541    -119.5081   -26125.675    4.3115581    4.3115581    4.3115581   -26125.675   -45522.523   -18098.666   -14755.836      58007.5     26952.93    2262.1663    80.149853 
   98300     2182.243   -121.46842    1.9745393   -119.49389    18957.257    4.3018453    4.3018453    4.3018453    18957.257    5500.7052    47624.357    3746.7097    772.40537   -17762.524   -7360.8351    79.609401 
   98400    2185.7187   -121.46451    1.9776842   -119.48683    5147.9143    4.3056276    4.3056276    4.3056276    5147.9143   -10288.426   -308.62767    26040.797    2079.7593    1577.0934    5951.9291    79.819571 
   98500    427.83141    -119.8953   0.38711085   -119.50819     -22808.3    4.3112815    4.3112815    4.3112815     -22808.3   -69134.663   -21644.936      22354.7    39301.465    54725.537    9063.7808     80.13443 
   98600    1619.5196    -120.9569    1.4653753   -119.49153   -5106.3545    4.3104968    4.3104968    4.3104968   -5106.3545   -30665.989    12496.784    2850.1413    17499.619    22996.787    6990.1632    80.090677 
   98700    2304.0774   -121.56004    2.0847777   -119.47526    13995.699    4.3080346    4.3080346    4.3080346    13995.699   -5951.1399    44597.032    3341.2056   -22363.281   -14479.018    7536.6883    79.953514 
   98800    692.71042   -120.12639   0.62677895   -119.49961   -9568.2644     4.304737     4.304737     4.304737   -9568.2644   -66810.648   -1801.3299    39907.185    31317.045    23011.306   -990.00216    79.770052 
   98900    1304.0238   -120.67157    1.1799082   -119.49166   -10131.248    4.3059727    4.3059727    4.3059727   -10131.248   -45347.868   -19060.966    34015.091    37067.789    37305.023    6001.2517    79.838768 
   99000    2230.6153    -121.4929    2.0183076   -119.47459   -1226.5332    4.3119221    4.3119221    4.3119221   -1226.5332   -29668.331     19773.43    6215.3008   -27319.918   -27713.701    11141.577    80.170154 
   99100    932.65648   -120.33524   0.84388718   -119.49135   -3623.3913     4.312436     4.312436     4.312436   -3623.3913   -65873.275   -12975.833    67978.935      12776.5   -34438.688    7411.5797    80.198822 
   99200    1391.2152   -120.74559    1.2588008   -119.48679   -1148.8531    4.3062091    4.3062091    4.3062091   -1148.8531   -58626.934   -19092.536    74272.911    42816.395    21296.996    1938.2834    79.851918 
   99300    2296.8851   -121.54983    2.0782699   -119.47156    4340.7147    4.3099623    4.3099623    4.3099623    4340.7147   -33307.944    1624.5398    44705.548   -13478.144    1946.3904    7028.5686    80.060891 
   99400    887.67096    -120.3017   0.80318334   -119.49852   -12159.457    4.3176124    4.3176124    4.3176124   -12159.457   -97762.183   -1323.0325    62606.845    1251.7972   -48937.187    4855.7468    80.487968 
   99500    1360.8713   -120.71836     1.231345   -119.48702     2199.175    4.3131481    4.3131481    4.3131481     2199.175   -65945.252    15631.371    56911.407    31410.489   -22055.038   -1906.8561     80.23856 
   99600    2560.1752   -121.78257    2.3165003   -119.46607    22668.361    4.3052864    4.3052864    4.3052864    22668.361   -15012.846    38355.524    44662.406   -11126.962    20457.002    4801.0234    79.800597 
   99700    1370.2177   -120.73538    1.2398018   -119.49558    7271.6765    4.3052921    4.3052921    4.3052921    7271.6765   -73331.035    51876.261    43269.804    3786.3491   -3031.9779     1628.667    79.800917 
   99800    1344.4598   -120.71508    1.2164955   -119.49859   -10754.843    4.3145024    4.3145024    4.3145024   -10754.843   -74520.559    2979.7249    39276.306    43527.772   -42771.442   -2494.4049    80.314167 
   99900     2378.953   -121.62683    2.1525267    -119.4743   -938.04344    4.3117472    4.3117472    4.3117472   -938.04344    -39457.93    39965.762   -3321.9626   -3003.1429    12869.406    11541.933    80.160399 
  100000    1425.3041   -120.77588    1.2896451   -119.48624    12414.246    4.3005188    4.3005188    4.3005188    12414.246   -45215.503    60306.913    22151.328   -4612.0189    50895.855    8578.8939    79.535784 
Loop time of 22.0168 on 1 procs for 100000 steps with 8 atoms

Pair  time (%) = 6.8275 (31.0104)
Kspce time (%) = 5.26894 (23.9314)
Neigh time (%) = 0.163048 (0.740559)
Comm  time (%) = 1.10145 (5.00276)
Outpt time (%) = 0.0244365 (0.11099)
Other time (%) = 8.63146 (39.2039)

Nlocal:    8 ave 8 max 8 min
Histogram: 1 0 0 0 0 0 0 0 0 0
Nghost:    2189 ave 2189 max 2189 min
Histogram: 1 0 0 0 0 0 0 0 0 0
Neighs:    2212 ave 2212 max 2212 min
Histogram: 1 0 0 0 0 0 0 0 0 0

Total # of neighbors = 2212
Ave neighs/atom = 276.5
Neighbor list builds = 1897
Dangerous builds = 0
unfix 20
unfix 21
print "seeds:8350109"
seeds:8350109
