LAMMPS (16 Mar 2018)
# ---- initialize simulations
clear
units metal
dimension 3
boundary p p p
atom_style charge
atom_modify map array
# ---- create atoms
read_data /home/manuelesp/repos/pypospack/dev/MgO_iterative_sampler/rank_0/MgO_NaCl.lmps_min_all/lammps.structure
  triclinic box = (0 0 0) to (4.2565 4.2565 4.2565) with tilt (0 0 0)
  1 by 1 by 1 MPI processor grid
  reading atoms ...
  8 atoms
# ---- define interatomic potential
include potential.mod
mass 1 24.305
mass 2 15.999

group Mg type 1
4 atoms in group Mg
group O type 2
4 atoms in group O

set group Mg charge 2.467095066210368
  4 settings made for charge
set group O charge -2.467095066210368
  4 settings made for charge

variable R_cut equal 10.0

pair_style buck/coul/long ${R_cut}
pair_style buck/coul/long 10
pair_coeff 1 1 0.0 0.5 0.0 ${R_cut}
pair_coeff 1 1 0.0 0.5 0.0 10
pair_coeff 1 2 935.4807786808233 0.3084619384680258 0.0 ${R_cut}
pair_coeff 1 2 935.4807786808233 0.3084619384680258 0.0 10
pair_coeff 2 2 12266.368986574063 0.11126335340408924 33.77611037763418 ${R_cut}
pair_coeff 2 2 12266.368986574063 0.11126335340408924 33.77611037763418 10

kspace_style pppm 1.0e-5

neighbor 1.0 bin
neigh_modify every 1 delay 0 check yes
# ---- define settings
compute eng all pe/atom
compute eatoms all reduce sum c_eng
# ---- run minimization
reset_timestep 0
fix 1 all box/relax aniso 0.0 vmax 0.001
thermo 10
thermo_style custom step pe xhi xlo yhi ylo zhi xy xz yz press pxx pyy pzz pxy pxz pyz c_eatoms
min_style cg
minimize 1e-25 1e-25 5000 10000
PPPM initialization ...
  using 12-bit tables for long-range coulomb (../kspace.cpp:321)
  G vector (1/distance) = 0.361586
  grid = 9 9 9
  stencil order = 5
  estimated absolute RMS force accuracy = 5.09539e-05
  estimated relative force accuracy = 3.53856e-06
  using double precision FFTs
  3d grid and FFT values/proc = 4096 729
Neighbor list info ...
  update every 1 steps, delay 0 steps, check yes
  max neighbors/atom: 2000, page size: 100000
  master list distance cutoff = 11
  ghost atom cutoff = 11
  binsize = 5.5, bins = 1 1 1
  1 neighbor lists, perpetual/occasional/extra = 1 0 0
  (1) pair buck/coul/long, perpetual
      attributes: half, newton on
      pair build: half/bin/newton/tri
      stencil: half/bin/3d/newton/tri
      bin: standard
Per MPI rank memory allocation (min/avg/max) = 4.994 | 4.994 | 4.994 Mbytes
Step PotEng Xhi Xlo Yhi Ylo Zhi Xy Xz Yz Press Pxx Pyy Pzz Pxy Pxz Pyz c_eatoms 
       0   -266.32012       4.2565            0       4.2565            0       4.2565            0            0            0   -948031.58   -948031.58   -948031.58   -948031.58 2.7571011e-10 2.6034611e-10 -3.7477605e-10   -266.32012 
      10   -267.66419    4.2352175    0.0212825    4.2352175    0.0212825    4.2352175            0            0            0      -931370      -931370      -931370      -931370 -3.3975685e-10 -8.070887e-10 -7.9552182e-10   -267.66419 
      20   -268.95427     4.213935     0.042565     4.213935     0.042565     4.213935            0            0            0   -909398.05   -909398.05   -909398.05   -909398.05 4.2100032e-10 -9.2701324e-11 4.7051002e-10   -268.95427 
      30   -270.18425    4.1926525    0.0638475    4.1926525    0.0638475    4.1926525            0            0            0    -881424.4    -881424.4    -881424.4    -881424.4 5.3339608e-10 1.6539877e-10 -4.4613078e-10   -270.18425 
      40     -271.347      4.17137      0.08513      4.17137      0.08513      4.17137            0            0            0   -846672.78   -846672.78   -846672.78   -846672.78 8.0858322e-12 -2.407736e-11 3.8551997e-10     -271.347 
      50   -272.43652    4.1500875    0.1064125    4.1500875    0.1064125    4.1500875            0            0            0   -804286.66   -804286.66   -804286.66   -804286.66 1.9303774e-10 5.3722217e-11 -7.2731958e-10   -272.43652 
      60   -273.44195     4.128805     0.127695     4.128805     0.127695     4.128805            0            0            0   -753265.53   -753265.53   -753265.53   -753265.53 7.6367513e-10 -2.0037487e-10 -7.9047997e-10   -273.44195 
      70   -274.35633    4.1075225    0.1489775    4.1075225    0.1489775    4.1075225            0            0            0   -692655.34   -692655.34   -692655.34   -692655.34 8.7264627e-11 -6.401258e-10 1.0221622e-10   -274.35633 
      80   -275.17331      4.08624      0.17026      4.08624      0.17026      4.08624            0            0            0   -621119.91   -621119.91   -621119.91   -621119.91 4.4445746e-10 -4.4615472e-10 -1.3844221e-09   -275.17331 
      90   -275.87497    4.0649575    0.1915425    4.0649575    0.1915425    4.0649575            0            0            0   -537233.12   -537233.12   -537233.12   -537233.12 -1.1487449e-09 3.3833218e-10 -1.1401647e-10   -275.87497 
     100   -276.45459     4.043675     0.212825     4.043675     0.212825     4.043675            0            0            0   -439677.38   -439677.38   -439677.38   -439677.38 -3.6957356e-10 -9.7535744e-10 -2.8212514e-10   -276.45459 
     110   -276.89961    4.0223925    0.2341075    4.0223925    0.2341075    4.0223925            0            0            0   -326590.28   -326590.28   -326590.28   -326590.28 -7.2934144e-10 5.4113902e-10 -8.3827048e-10   -276.89961 
     120   -277.19738      4.00111      0.25539      4.00111      0.25539      4.00111            0            0            0   -196152.43   -196152.43   -196152.43   -196152.43 -2.2430614e-09 2.6098188e-10 6.1567071e-10   -277.19738 
     130   -277.33449    3.9798275    0.2766725    3.9798275    0.2766725    3.9798275            0            0            0   -46505.177   -46505.177   -46505.177   -46505.177 -2.3957064e-09 5.5067961e-10 4.6225259e-10   -277.33449 
     135   -277.34162    3.9737635   0.28273653    3.9737635   0.28273653    3.9737635            0            0            0    69.498012    69.498012    69.498012    69.498012 -1.5571677e-09 -1.8694488e-09 -5.6674078e-10   -277.34162 
Loop time of 0.240613 on 1 procs for 135 steps with 8 atoms

52.8% CPU use with 1 MPI tasks x no OpenMP threads

Minimization stats:
  Stopping criterion = linesearch alpha is zero
  Energy initial, next-to-last, final = 
        -266.320115016     -277.341616672     -277.341616672
  Force two-norm initial, final = 79.0371 0.004634
  Force max component initial, final = 45.6321 0.00251541
  Final line search alpha, max atom move = 0.000388232 9.76562e-07
  Iterations, force evaluations = 135 157

MPI task timing breakdown:
Section |  min time  |  avg time  |  max time  |%varavg| %total
---------------------------------------------------------------
Pair    | 0.054835   | 0.054835   | 0.054835   |   0.0 | 22.79
Kspace  | 0.044611   | 0.044611   | 0.044611   |   0.0 | 18.54
Neigh   | 0.00011992 | 0.00011992 | 0.00011992 |   0.0 |  0.05
Comm    | 0.0020013  | 0.0020013  | 0.0020013  |   0.0 |  0.83
Output  | 0.00025439 | 0.00025439 | 0.00025439 |   0.0 |  0.11
Modify  | 0          | 0          | 0          |   0.0 |  0.00
Other   |            | 0.1388     |            |       | 57.68

Nlocal:    8 ave 8 max 8 min
Histogram: 1 0 0 0 0 0 0 0 0 0
Nghost:    2189 ave 2189 max 2189 min
Histogram: 1 0 0 0 0 0 0 0 0 0
Neighs:    2952 ave 2952 max 2952 min
Histogram: 1 0 0 0 0 0 0 0 0 0

Total # of neighbors = 2952
Ave neighs/atom = 369
Neighbor list builds = 1
Dangerous builds = 0
# ---- define output variables ----
variable natoms equal "count(all)"
variable tot_energy equal "c_eatoms"
variable a11 equal "xhi-xlo"
variable a22 equal "yhi-ylo"
variable a33 equal "zhi-zlo"
variable tilt_xy equal "xy"
variable tilt_xz equal "xz"
variable tilt_yz equal "yz"
variable tot_press equal "press"
variable press_xx equal "pxx"
variable press_yy equal "pyy"
variable press_zz equal "pzz"
variable press_xy equal "pxy"
variable press_xz equal "pxz"
variable press_yz equal "pyz"

# ---- output ----
print "pypospack:output_section:begin"
pypospack:output_section:begin
print "tot_energy = ${tot_energy}"
tot_energy = -277.34161667184
print "num_atoms = ${natoms}"
num_atoms = 8
print "a11 = ${a11}"
a11 = 3.69102694895393
print "a22 = ${a22}"
a22 = 3.69102694895393
print "a33 = ${a33}"
a33 = 3.69102694895394
print "a12 = ${tilt_xy}"
a12 = 0
print "a13 = ${tilt_xz}"
a13 = 0
print "a23 = ${tilt_yz}"
a23 = 0
print "tot_press = ${tot_press}"
tot_press = 69.4980120115695
print "pxx = ${press_xx}"
pxx = 69.4980120141542
print "pyy = ${press_yy}"
pyy = 69.4980120319062
print "pzz = ${press_zz}"
pzz = 69.4980119886482
print "pxy = ${press_xy}"
pxy = -1.55716766414234e-09
print "pxz = ${press_xz}"
pxz = -1.86944875710039e-09
print "pyz = ${press_yz}"
pyz = -5.66740777301929e-10
print "pypospack:output_section:done"
pypospack:output_section:done
print "pypospack:lammps_sim:done"
pypospack:lammps_sim:done
Total wall time: 0:00:00
