LAMMPS (10 Feb 2015)
# ---- initialize simulations
clear
units metal
dimension 3
boundary p p p
atom_style charge
atom_modify map array
# ---- create atoms
read_data /Users/eugeneragasa/pyflamestk_git/pypospack/tests/tests_integration/workflow/WorkflowLammpsThermalExpansion/param_7495/MgO_NaCl_unit.npt.T1600/lammps.structure
  triclinic box = (0 0 0) to (4.2565 4.2565 4.2565) with tilt (0 0 0)
  1 by 1 by 1 MPI processor grid
  reading atoms ...
  8 atoms
# ---- define interatomic potential
include potential.mod
mass 1 24.305
mass 2 15.999

group Mg type 1
4 atoms in group Mg
group O type 2
4 atoms in group O

set group Mg charge 1.61805343549
  4 settings made for charge
set group O charge -1.61805343549
  4 settings made for charge

variable R_cut equal 10.0

pair_style buck/coul/long ${R_cut}
pair_style buck/coul/long 10
pair_coeff 1 1 0.0 0.5 0.0 ${R_cut}
pair_coeff 1 1 0.0 0.5 0.0 10
pair_coeff 1 2 1411.7842896 0.281421547192 0.0 ${R_cut}
pair_coeff 1 2 1411.7842896 0.281421547192 0.0 10
pair_coeff 2 2 12275.1016291 0.0833185517679 22.1397903537 ${R_cut}
pair_coeff 2 2 12275.1016291 0.0833185517679 22.1397903537 10

kspace_style pppm 1.0e-5

neighbor 1.0 bin
neigh_modify every 1 delay 0 check yes
# ---- define settings
compute eng all pe/atom
compute eatoms all reduce sum c_eng
# ---- run minimization
reset_timestep 0
fix 1 all box/relax iso 0.0 vmax 0.001
thermo 10
thermo_style custom step pe lx ly lz xy xz yz press pxx pyy pzz pxy pxz pyz c_eatoms
min_style cg
minimize 1e-25 1e-25 5000 10000
PPPM initialization ...
  G vector (1/distance) = 0.352505
  grid = 8 8 8
  stencil order = 5
  estimated absolute RMS force accuracy = 3.81397e-05
  estimated relative force accuracy = 2.64865e-06
  using double precision FFTs
  3d grid and FFT values/proc = 3375 512
Neighbor list info ...
  1 neighbor list requests
  update every 1 steps, delay 0 steps, check yes
  master list distance cutoff = 11
Memory usage per processor = 4.06549 Mbytes
Step PotEng Lx Ly Lz Xy Xz Yz Press Pxx Pyy Pzz Pxy Pxz Pyz eatoms 
       0   -106.97328       4.2565       4.2565       4.2565            0            0            0    38192.574    38192.574    38192.574    38192.574 8.7875882e-11 -6.3416216e-11 -7.5192229e-11   -106.97328 
       9   -106.99342    4.2893301    4.2893301    4.2893301            0            0            0     -3.54441     -3.54441     -3.54441     -3.54441 -1.7895043e-11 -1.1181496e-10 -2.9549514e-11   -106.99342 
Loop time of 0.00899696 on 1 procs for 9 steps with 8 atoms

Minimization stats:
  Stopping criterion = linesearch alpha is zero
  Energy initial, next-to-last, final = 
        -106.973281584     -106.993416645     -106.993416645
  Force two-norm initial, final = 5.51503 0.00172663
  Force max component initial, final = 5.51503 0.00051974
  Final line search alpha, max atom move = 0.00390625 2.03024e-06
  Iterations, force evaluations = 9 26

Pair  time (%) = 0.00245428 (27.279)
Kspce time (%) = 0.00142407 (15.8284)
Neigh time (%) = 0 (0)
Comm  time (%) = 0.000272512 (3.02894)
Outpt time (%) = 0 (0)
Other time (%) = 0.0048461 (53.8637)

Nlocal:    8 ave 8 max 8 min
Histogram: 1 0 0 0 0 0 0 0 0 0
Nghost:    2189 ave 2189 max 2189 min
Histogram: 1 0 0 0 0 0 0 0 0 0
Neighs:    2344 ave 2344 max 2344 min
Histogram: 1 0 0 0 0 0 0 0 0 0

Total # of neighbors = 2344
Ave neighs/atom = 293
Neighbor list builds = 0
Dangerous builds = 0
unfix 1
# ---- define output variables ----
variable natoms equal "count(all)"
variable tot_energy equal "c_eatoms"
variable length_x equal "lx"
variable length_y equal "ly"
variable length_z equal "lz"
variable tilt_xy equal "xy"
variable tilt_xz equal "xz"
variable tilt_yz equal "yz"
variable tot_press equal "press"
variable press_xx equal "pxx"
variable press_yy equal "pyy"
variable press_zz equal "pzz"
variable press_xy equal "pxy"
variable press_xz equal "pxz"
variable press_yz equal "pyz"

# ---- output ----
print "pypospack:output_section:begin"
pypospack:output_section:begin
print "tot_energy = ${tot_energy}"
tot_energy = -106.993416644887
print "num_atoms = ${natoms}"
num_atoms = 8
print "xx = ${length_x}"
xx = 4.28933011317114
print "yy = ${length_y}"
yy = 4.28933011317114
print "zz = ${length_z}"
zz = 4.28933011317114
print "xy = ${tilt_xy}"
xy = 0
print "xz = ${tilt_xz}"
xz = 0
print "yz = ${tilt_yz}"
yz = 0
print "tot_press = ${tot_press}"
tot_press = -3.54441004469774
print "pxx = ${press_xx}"
pxx = -3.5444100447524
print "pyy = ${press_yy}"
pyy = -3.54441004470836
print "pzz = ${press_zz}"
pzz = -3.54441004463246
print "pxy = ${press_xy}"
pxy = -1.78950429729069e-11
print "pxz = ${press_xz}"
pxz = -1.1181495634962e-10
print "pyz = ${press_yz}"
pyz = -2.95495135207349e-11
print "pypospack:output_section:done"
pypospack:output_section:done
print "pypospack:lammps_sim:done"
pypospack:lammps_sim:done
#------------------------------------------------------------------------------
# RUN THERMOSTAT
# running using an NPT Nose-Hoover style thermostat
#------------------------------------------------------------------------------
variable tempdamp equal 0.1
variable pressdamp equal 1.0
# set initial velocities
velocity all create 1600 4418541 mom yes dist gaussian loop all
# fix for Nose-Hoover style thermostat
fix 20 all npt temp 1600 1600 0.1 aniso 0.0 0.0 1.0 drag 1.0 couple xyz
variable boxx equal lx
variable boxy equal ly
variable boxz equal lz
variable boxp equal press
variable boxt equal temp
# calculate averages every 10000 steps
reset_timestep 0
fix 21 all ave/time 10 10 100 v_boxx v_boxy v_boxz v_boxp v_boxt file lattice.out
thermo_style custom step temp pe ke etotal press lx ly lz press pxx pyy pzz pxy pxz pyz vol
thermo_modify flush yes
thermo 100
run 100000
PPPM initialization ...
  G vector (1/distance) = 0.352181
  grid = 8 8 8
  stencil order = 5
  estimated absolute RMS force accuracy = 3.87093e-05
  estimated relative force accuracy = 2.68821e-06
  using double precision FFTs
  3d grid and FFT values/proc = 3375 512
Memory usage per processor = 3.06549 Mbytes
Step Temp PotEng KinEng TotEng Press Lx Ly Lz Press Pxx Pyy Pzz Pxy Pxz Pyz Volume 
       0         1600   -106.99342    1.4477136   -105.54571    19589.881    4.2893301    4.2893301    4.2893301    19589.881    14650.144    22215.675    21903.823   -5288.1677   -7620.2601    103.87911    78.916609 
     100    598.32246   -105.92461   0.54137474   -105.38324    27398.445    4.3237069    4.3237069    4.3237069    27398.445    10393.872     55673.35    16128.113    2838.3653    5489.2665    1749.7877    80.829288 
     200    905.74045   -105.78697     0.819533   -104.96744   -29420.126    4.3786972    4.3786972    4.3786972   -29420.126   -62083.405   -1386.5246    -24790.45    1547.7192   -8690.6119    2905.6219    83.952715 
     300    1680.8213   -106.15311    1.5208424   -104.63227   -33664.711    4.3828433    4.3828433    4.3828433   -33664.711   -57626.316   -13700.764   -29667.052    6643.7338    8043.5908   -2280.0604    84.191419 
     400    885.22788   -105.14188   0.80097279   -104.34091    41310.114    4.3513384    4.3513384    4.3513384    41310.114   -26724.388    67116.372    83538.359    5340.5946     8402.434   -11788.825    82.388874 
     500    1612.5848   -105.65031    1.4591006   -104.19121    20345.157      4.35719      4.35719      4.35719    20345.157   -61203.284    50288.734    71950.022   -393.45372    4261.4182    -15700.47    82.721707 
     600    1863.4551   -105.81647    1.6860934   -104.13038   -44472.549    4.3886895    4.3886895    4.3886895   -44472.549   -44845.899   -14285.186   -74286.563   -3603.2558    4819.2466    10551.827    84.528772 
     700    1487.5918   -105.42151    1.3460043   -104.07551    4771.8512    4.3909047    4.3909047    4.3909047    4771.8512   -53412.264    67338.839    388.97866    8282.3749   -2750.3979   -6575.2397    84.656838 
     800    1323.2328      -105.24    1.1972888   -104.04271   -17635.053    4.3732864    4.3732864    4.3732864   -17635.053   -44954.196    29848.874   -37799.837    804.31286   -3658.4112    4441.7128    83.641876 
     900    1644.7199   -105.51727    1.4881771   -104.02909    10117.055    4.3599161    4.3599161    4.3599161    10117.055    27058.768    5478.0622    -2185.666    313.36581   -8899.8495    2268.3683     82.87707 
    1000    1551.0771   -105.45888    1.4034471   -104.05543    37145.674    4.3710361    4.3710361    4.3710361    37145.674   -7650.3453     52010.41    67076.958   -17685.417    13993.656    10712.019    83.512828 
    1100     1454.038   -105.39281    1.3156441   -104.07717   -13675.589    4.3918628    4.3918628    4.3918628   -13675.589   -57873.838    19762.974   -2915.9024   -1958.4683    373.89119   -9800.9589    84.712263 
    1200    2111.5787   -105.96151    1.9106008   -104.05091   -18296.531    4.3908868    4.3908868    4.3908868   -18296.531   -43189.129    5068.0345   -16768.499   -3122.4338   -3209.2284    -2306.645      84.6558 
    1300    1288.6559   -105.22712     1.166003   -104.06111   -2551.2377    4.3730689    4.3730689    4.3730689   -2551.2377   -52924.416    61672.548   -16401.845    2314.5334    3268.9575    8591.8732    83.629396 
    1400    1224.4962    -105.1825    1.1079499   -104.07455    12969.749    4.3492835    4.3492835    4.3492835    12969.749   -56441.772    17497.258    77853.762   -957.20642    6691.6172   -3020.5683    82.272206 
    1500    1467.9644   -105.44981     1.328245   -104.12156    35905.452    4.3619574    4.3619574    4.3619574    35905.452   -37523.301    43754.194    101485.46    1587.9246   -6150.9277    5038.7809    82.993535 
    1600    1564.8265   -105.51884    1.4158879   -104.10296   -37502.013    4.4004039    4.4004039    4.4004039   -37502.013   -43362.348   -14535.869   -54607.822    10599.136    1463.9517   -4715.4913    85.207461 
    1700    1518.0347   -105.42627    1.3735497   -104.05272   -11853.488    4.3935522    4.3935522    4.3935522   -11853.488   -82996.353    64704.461   -17268.572   -14173.551   -4734.2519    19227.815    84.810062 
    1800    1697.4823   -105.57827    1.5359177   -104.04235    14959.921    4.3575754    4.3575754    4.3575754    14959.921     -29249.3    20038.679    54090.385    5146.8478   -3327.5411   -4172.7938     82.74366 
    1900    1661.3551   -105.58889     1.503229   -104.08566   -8438.5006    4.3609016    4.3609016    4.3609016   -8438.5006   -47401.806    6500.7281    15585.577   -16.217034   -795.26134   -14.096338    82.933282 
    2000    1233.5048   -105.20495     1.116101   -104.08885    14950.141    4.3882757    4.3882757    4.3882757    14950.141   -53189.954    80111.405    17928.971   -408.86252   -7599.1221   -1993.8137    84.504867 
    2100    1523.2418   -105.43788    1.3782612   -104.05962   -15158.105    4.4009712    4.4009712    4.4009712   -15158.105    -64806.23    19983.186   -651.27119   -5320.0502    8363.0429   -7768.2425     85.24042 
    2200    1873.4381   -105.71939    1.6951262   -104.02426    -23716.42    4.3784112    4.3784112    4.3784112    -23716.42    -51818.72   -18907.748   -422.79283     3135.582    3076.7034    1037.7715    83.936266 
    2300    1313.8262   -105.23942    1.1887775   -104.05065    7585.7831    4.3605782    4.3605782    4.3605782    7585.7831   -46111.983    63259.372    5609.9602   -743.19915   -8587.7071   -2542.4059    82.914836 
    2400    1472.2026   -105.42006    1.3320798   -104.08798    43420.946    4.3518806    4.3518806    4.3518806    43420.946   -35815.909    65014.911    101063.83    1905.4126    531.50774    15387.446    82.419676 
    2500    1846.4911   -105.78798    1.6707439   -104.11723   -17567.824    4.3765303    4.3765303    4.3765303   -17567.824   -71782.843    27295.517   -8216.1477     3312.925   -2650.3332     16853.14    83.828137 
    2600    1626.8851   -105.56894    1.4720398    -104.0969   -5439.5278     4.382489     4.382489     4.382489   -5439.5278   -67244.007    13167.297    37758.126   -3139.9079   -1827.4928    2868.6449    84.171002 
    2700    1836.4889   -105.74315    1.6616937   -104.08146   -18567.454    4.3790871    4.3790871    4.3790871   -18567.454   -55190.029   -10672.416    10160.083    -3349.106   -3355.9234    14658.371    83.975143 
    2800    1367.9156   -105.31268    1.2377188   -104.07497    7170.0169    4.3793901    4.3793901    4.3793901    7170.0169   -66734.886    -1779.095    90024.031     -5014.73    12835.205    1872.3562    83.992575 
    2900    1643.3854   -105.55125    1.4869697   -104.06428   -27065.255    4.3760681    4.3760681    4.3760681   -27065.255   -48983.327   -12170.591   -20041.845    3342.4332   -5713.8267    96.303028    83.801583 
    3000    1986.0284   -105.85436    1.7970003   -104.05736    6513.0184    4.3698367    4.3698367    4.3698367    6513.0184   -2348.2215    20050.357      1836.92   -7792.4747    13828.142   -9279.4926    83.444098 
    3100    2164.7165   -106.03011    1.9586809   -104.07143    -24755.92    4.3697539    4.3697539    4.3697539    -24755.92   -62292.289   -41002.843    29027.372    1395.4802    1417.4741    14155.482    83.439352 
    3200    1111.3893    -105.0979    1.0056084   -104.09229   -28192.305    4.3820512    4.3820512    4.3820512   -28192.305     -54459.6   -24518.221    -5599.095    5710.8446    2175.4045     2108.347    84.145781 
    3300    1663.1614   -105.57707    1.5048634   -104.07221    25489.791    4.3813021    4.3813021    4.3813021    25489.791    35127.951   -9535.4296    50876.853   -378.15002   -544.45685    887.30135    84.102632 
    3400     1467.695   -105.38331    1.3280012   -104.05531     -16461.2    4.3844243    4.3844243    4.3844243     -16461.2   -33513.708    25099.303   -40969.196    5580.5339    3402.5283    13330.213    84.282564 
    3500    1618.3711   -105.49946    1.4643362   -104.03513    5757.8101    4.3825016    4.3825016    4.3825016    5757.8101    1087.2768   -37781.521    53967.674    18857.699    16370.258   -9536.0849    84.171731 
    3600    1512.9619   -105.41119    1.3689597   -104.04223     15956.62    4.3856235    4.3856235    4.3856235     15956.62    76669.769     13262.29   -42062.198    4186.3804   -1936.9213   -3610.6601    84.351736 
    3700     1856.766   -105.73288    1.6800409   -104.05284   -24892.085    4.3800886    4.3800886    4.3800886   -24892.085   -47641.052   -42958.713     15923.51    7478.9904    4167.2559   -337.93051    84.032774 
    3800    1457.6147   -105.37326    1.3188804   -104.05438     5883.507    4.3769266    4.3769266    4.3769266     5883.507    17653.073    50030.422   -50032.973    -12203.82    4120.7356   -16645.874    83.850913 
    3900    1442.9178   -105.35998    1.3055824    -104.0544    31191.166    4.3691846    4.3691846    4.3691846    31191.166    80603.789    23333.309   -10363.599   -6424.3702   -19683.013    14244.027    83.406748 
    4000    1749.6126   -105.63807    1.5830862   -104.05499   -14462.378    4.3791114    4.3791114    4.3791114   -14462.378   -37307.289   -18653.797    12573.952    5186.1698    11032.284   -12862.276    83.976538 
    4100    1799.7865   -105.66024    1.6284847   -104.03176   -27241.625    4.3849172    4.3849172    4.3849172   -27241.625   -5618.6496   -25080.761   -51025.465   -11725.988   -6103.0785    16920.235    84.310991 
    4200    1105.7035   -105.01496    1.0004638    -104.0145    28573.475    4.3883359    4.3883359    4.3883359    28573.475    57304.227   -20903.213    49319.412   -5118.9888    17092.822   -978.55606    84.508342 
    4300    2164.7081   -105.95326    1.9586734   -103.99459   -18264.747    4.3826125    4.3826125    4.3826125   -18264.747   -19520.167   -55080.269    19806.195   -1694.2254   -4215.0371    8096.7325    84.178119 
    4400    1205.0128   -105.10878    1.0903209   -104.01846      31791.4    4.3668889    4.3668889    4.3668889      31791.4    51753.093   -48603.067    92224.173    4838.1742    23513.859   -10001.389    83.275346 
    4500    1580.1726   -105.48132    1.4297734   -104.05154    12174.241    4.3694047    4.3694047    4.3694047    12174.241    23385.058   -22389.168    35526.834    1050.4733   -6748.4511    11782.371     83.41935 
    4600    1852.9946   -105.75027    1.6766285   -104.07364   -16250.617    4.3818501    4.3818501    4.3818501   -16250.617    20093.187   -79550.742    10705.704    5245.8641    19917.225     7561.188    84.134196 
    4700      1453.09   -105.36793    1.3147864   -104.05315     10121.03    4.3859818    4.3859818    4.3859818     10121.03    77415.956   -48017.573    964.70577   -3014.2152   -13750.493    1990.4351    84.372417 
    4800    1007.8314   -104.95148   0.91190703   -104.03957    4133.4165    4.3835644    4.3835644    4.3835644    4133.4165    43482.643   -16545.339   -14537.055   -1516.9111   -5204.3726    446.44222    84.232979 
    4900    2272.7727   -106.07257    2.0564525   -104.01612   -11023.318    4.3793786    4.3793786    4.3793786   -11023.318    50092.251   -64884.299   -18277.907    3484.8821    15168.586    1817.5321    83.991912 
    5000    1320.3931   -105.22449    1.1947195   -104.02977    13313.157    4.3737875    4.3737875    4.3737875    13313.157    31868.359    -37574.96    45646.072   -2174.3134   -9148.5615    3775.7836    83.670628 
    5100    1256.8383    -105.2189    1.1372137   -104.08169    19916.706    4.3843595    4.3843595    4.3843595    19916.706    54008.345   -33068.595    38810.368    10144.968   -13346.704   -5503.9564    84.278825 
    5200     2138.906   -106.02836    1.9353271   -104.09303   -44673.623    4.4068977    4.4068977    4.4068977   -44673.623   -17867.109   -84298.828   -31854.932   -8593.3538    17031.941   -4396.8454    85.585244 
    5300    1874.2649   -105.76185    1.6958743   -104.06597   -31796.137    4.3934371    4.3934371    4.3934371   -31796.137    33634.226    -89169.18   -39853.459    7739.6662    9868.4628   -5727.5094    84.803392 
    5400    1483.7683   -105.41521    1.3425448   -104.07266    2421.2575    4.3642788    4.3642788    4.3642788    2421.2575    32421.675   -2253.3151   -22904.587   -4986.3615   -10092.426   -454.94788     83.12611 
    5500    1512.3067   -105.44691    1.3683669   -104.07854    43243.117    4.3532377    4.3532377    4.3532377    43243.117    47505.453   -28997.466    111221.36    24.401896    2600.3149    4645.9728    82.496807 
    5600    1311.9796   -105.31824    1.1871067   -104.13113     16960.31    4.3893381    4.3893381    4.3893381     16960.31    17800.879    -20945.07    54025.121   -75.601371    1744.1595      11013.9    84.566254 
    5700    1775.5549   -105.68382    1.6065594   -104.07726   -53658.522    4.4149319    4.4149319    4.4149319   -53658.522   -54242.637   -25222.918   -81510.013   -4655.2381    12731.943   -6027.3724    86.054192 
    5800    2153.6059   -105.98208    1.9486278   -104.03346   -54309.949     4.394651     4.394651     4.394651   -54309.949   -61480.193   -71432.987   -30016.667   -6388.8411     15139.39   -8673.5833    84.873705 
    5900    900.04673   -104.85565   0.81438119   -104.04127    53971.729    4.3589541    4.3589541    4.3589541    53971.729    105326.19    5663.4857    50925.505    1469.1162    4781.1309   -6893.0735    82.822226 
    6000    2225.0282   -106.08459    2.0132522   -104.07133   -5561.5762    4.3588486    4.3588486    4.3588486   -5561.5762   -26775.302   -24616.771    34707.344   -5832.2721   -15857.266    8155.8848    82.816212 
    6100    1195.2575   -105.19917    1.0814941   -104.11767   -3293.8663    4.3977987    4.3977987    4.3977987   -3293.8663    49944.265   -18459.569   -41366.294   -9505.6345   -1026.1246   -10041.933    85.056214 
    6200    1735.7977   -105.64012    1.5705862   -104.06954   -21558.402    4.4107488    4.4107488    4.4107488   -21558.402   -56444.942   -67312.137    59081.874    -4478.245    6177.2712    2663.8586    85.809819 
    6300    2299.1762   -106.10194     2.080343   -104.02159   -40364.049    4.3814943    4.3814943    4.3814943   -40364.049   -41962.906   -46932.633   -32196.607    -13558.12    8739.1159    19.672155    84.113702 
    6400    848.10593   -104.79446   0.76738407   -104.02707     36005.73    4.3672596    4.3672596    4.3672596     36005.73     55744.19    15499.298    36773.702    700.09068   -15809.203    7498.5862    83.296554 
    6500     1954.751   -105.81754    1.7686998   -104.04884   -14932.275    4.3839053    4.3839053    4.3839053   -14932.275   -30015.646   -71554.573    56773.394   -8070.2452     1883.059    8545.2445    84.252632 
    6600    2201.4405    -106.0387    1.9919097   -104.04679   -49010.796     4.408147     4.408147     4.408147   -49010.796   -71771.681   -41351.687    -33909.02   -11174.773    25399.096   -7275.1905    85.658056 
    6700    1088.8136   -104.98667   0.98518143   -104.00149    11635.648    4.3999326    4.3999326    4.3999326    11635.648    13534.768   -42819.412     64191.59    2427.5618   -14546.303    5559.0277    85.180085 
    6800    1626.8658   -105.46035    1.4720223   -103.98833   -17329.922    4.3832513    4.3832513    4.3832513   -17329.922    46117.739   -58024.635   -40082.869   -11860.547    11507.735   -4466.4132    84.214932 
    6900    2272.7211    -106.0684    2.0564058   -104.01199   -21301.215    4.3739892    4.3739892    4.3739892   -21301.215    -7218.356   -19285.704   -37399.584    1054.2766    5234.9602   -1277.7019    83.682206 
    7000    979.26994   -104.94224   0.88606402   -104.05617    33064.805     4.383909     4.383909     4.383909    33064.805    24081.178   -46294.219    121407.46    6078.7518    19739.072    14941.175    84.252847 
    7100    1358.2567   -105.28483    1.2289792   -104.05586    14169.672    4.3938256    4.3938256    4.3938256    14169.672    19674.073   -20601.168    43436.111    13883.732   -8680.5044    3843.4161    84.825896 
    7200    2115.7774   -105.96704    1.9143998   -104.05264   -10754.301    4.3986629    4.3986629    4.3986629   -10754.301    20343.973   -39753.677   -12853.199    1930.4512    18860.584   -12665.018    85.106362 
    7300     1400.832   -105.30683    1.2675022   -104.03933   -8171.0813     4.387688     4.387688     4.387688   -8171.0813     3881.932   -60248.478    31853.302    1211.8076   -23024.435   -7060.4828    84.470918 
    7400    1533.1753    -105.4318    1.3872492   -104.04455    6274.8597    4.3686693    4.3686693    4.3686693    6274.8597    52269.511   -48807.524    15362.593    3966.7758    6050.6682   -5408.5435    83.377237 
    7500     1852.056   -105.75683    1.6757792   -104.08105    10015.084    4.3782499    4.3782499    4.3782499    10015.084    55497.347   -46941.483    21489.387    1018.9188    6756.5765    6148.6439    83.926987 
    7600    1382.1997   -105.32926    1.2506433   -104.07862   -25250.154    4.4024696    4.4024696    4.4024696   -25250.154   -39211.052    -74714.57    38175.158    9856.0869   -7963.7529   -12007.102    85.327514 
    7700    1819.0322   -105.68198    1.6458985   -104.03608   -39208.749     4.403744     4.403744     4.403744   -39208.749   -13799.547    -73854.36    -29972.34    3484.4306    5306.2903   -11491.604    85.401636 
    7800    2231.6461   -106.02791    2.0192403   -104.00867   -3717.3958    4.3611114    4.3611114    4.3611114   -3717.3958   -4702.2041   -45521.522    39071.538    25.531336    5631.8198    6294.1543    82.945253 
    7900    1692.0028   -105.58774    1.5309597   -104.05678    11721.509    4.3516914    4.3516914    4.3516914    11721.509    40323.484   -22511.753    17352.797    10945.743    18605.308    3518.5392    82.408928 
    8000    1350.6012   -105.32595    1.2220523    -104.1039    7950.0662     4.393544     4.393544     4.393544    7950.0662    29206.582   -54194.889    48838.505    2056.6798   -14643.765    2631.9221    84.809585 
    8100    1092.8986   -105.04421   0.98887763   -104.05533   -24351.015    4.4102803    4.4102803    4.4102803   -24351.015    17748.013   -81635.276   -9165.7822    12814.609    -6617.395    2047.7104    85.782474 
    8200    2229.9451    -106.0303    2.0177012    -104.0126   -16465.885    4.3785079    4.3785079    4.3785079   -16465.885    19391.664   -62263.298   -6526.0209   -3681.4176    21128.675   -8420.0711    83.941825 
    8300    1526.7947   -105.40493    1.3814759   -104.02346    32594.628    4.3504354    4.3504354    4.3504354    32594.628    74551.156   -29176.221    52408.948    22090.307    1158.4515     2358.349    82.337595 
    8400    1844.2819     -105.758     1.668745   -104.08925   -584.42817    4.3618031    4.3618031    4.3618031   -584.42817    64692.738   -40978.077   -25467.945    730.37713    12308.528   -7978.6645    82.984725 
    8500    1380.3359   -105.35025    1.2489569   -104.10129    13703.325    4.3942244    4.3942244    4.3942244    13703.325    37016.038   -73970.678    78064.614    10871.303    7646.8128    2519.7029    84.848991 
    8600    1392.8308    -105.3212    1.2602626   -104.06094   -42609.239    4.3922921    4.3922921    4.3922921   -42609.239   -8085.4701   -73943.181   -45799.068    18910.695    4823.6419   -11929.613    84.737109 
    8700    1798.9378   -105.64032    1.6277167    -104.0126    28589.312    4.3527144    4.3527144    4.3527144    28589.312    76630.404    -18355.54    27493.071   -2216.9591    15824.191   -2776.8714    82.467059 
    8800    1509.3118   -105.41466     1.365657   -104.04901    4111.5707    4.3626052    4.3626052    4.3626052    4111.5707    15692.906   -55632.417    52274.224    12309.785    4209.3251     6278.296    83.030517 
    8900    1550.7609    -105.4874    1.4031611   -104.08424   -13211.073    4.3823127    4.3823127    4.3823127   -13211.073     30895.95   -55836.379   -14692.792    -2413.044     17353.09   -634.22471    84.160844 
    9000    1988.1849   -105.88122    1.7989515   -104.08226   -13387.121    4.3910776    4.3910776    4.3910776   -13387.121    11476.998    -72779.07    21140.709    4259.2949   -8668.2002    2735.1032    84.666837 
    9100    1177.1385   -105.11557    1.0650997   -104.05047    25841.394    4.3711923    4.3711923    4.3711923    25841.394    51775.466   -47359.493    73108.209    1584.8481    2991.9173    335.50609    83.521778 
    9200    1827.5861   -105.69209    1.6536383   -104.03845   -14912.165     4.364483     4.364483     4.364483   -14912.165   -5254.9416   -53179.252    13697.698   -2094.1851    35496.443   -2817.0525    83.137781 
    9300    1727.5902   -105.62038    1.5631599   -104.05722    11788.103    4.3828979    4.3828979    4.3828979    11788.103    38118.943   -78102.237    75347.603    7699.2379   -22030.464    1123.1611    84.194564 
    9400    1194.3818   -105.14153    1.0807018   -104.06083   -1633.4699    4.3876249    4.3876249    4.3876249   -1633.4699    31254.865   -74071.766    37916.491   -2046.4765    172.79191   -12362.065    84.467273 
    9500    1598.9061   -105.50759    1.4467239   -104.06087    921.44438    4.3644019    4.3644019    4.3644019    921.44438    -33746.59   -59972.635    96483.558   -3902.1914   -7541.4483   -1569.2194    83.133144 
    9600     2050.255   -105.92064    1.8551138   -104.06553    -15533.99    4.3518712    4.3518712    4.3518712    -15533.99   -50011.844   -39675.758    43085.633    3604.4205    8175.6577     857.7789    82.419142 
    9700    990.98687    -105.0044   0.89666575   -104.10774    22683.118    4.3653639    4.3653639    4.3653639    22683.118    15167.679   -61638.561    114520.24    4481.3048   -5388.2855    3230.0722     83.18813 
    9800    2019.2836   -105.92502    1.8270903   -104.09793   -14852.884     4.391026     4.391026     4.391026   -14852.884    11336.118   -82926.369    27031.597   -5469.5206     827.0016   -2291.5398     84.66385 
    9900    1689.4756   -105.59023     1.528673   -104.06155   -57015.872    4.3851339    4.3851339    4.3851339   -57015.872   -65846.046   -77037.641   -28163.929    7409.3628    17375.234   -9763.0364    84.323492 
   10000    1484.2837   -105.38507    1.3430111   -104.04206    12331.781    4.3534468    4.3534468    4.3534468    12331.781    2724.8476    -36822.23    71092.726    4088.3099    10950.083   -6296.1651    82.508698 
   10100    1657.0405   -105.56259    1.4993251   -104.06327    28629.703     4.353986     4.353986     4.353986    28629.703     70737.96   -44489.848    59640.997   -470.78303   -50809.662   -3987.7363    82.539359 
   10200    1957.2784   -105.86311    1.7709866   -104.09212   -15439.199    4.3757184    4.3757184    4.3757184   -15439.199   -57697.511   -34318.977    45698.893   -4351.6051    32276.539    -11798.33    83.781496 
   10300    1702.6612   -105.61525    1.5406037   -104.07464   -35993.208    4.3950587    4.3950587    4.3950587   -35993.208   -52744.582   -75690.935    20455.893    5217.9101    883.49968   -3973.8733    84.897333 
   10400    1396.2106   -105.31254    1.2633207   -104.04922    -20962.72    4.3963471    4.3963471    4.3963471    -20962.72   -25414.045   -64643.597    27169.482   -397.52661    18264.251     -12464.6    84.972014 
   10500    1178.7857   -105.08906    1.0665901   -104.02247    20680.199    4.3761389    4.3761389    4.3761389    20680.199    15128.802    -10875.98    57787.774    -3365.403      35905.1   -8631.6739    83.805647 
   10600    1956.3882   -105.77681    1.7701811   -104.00662    14640.946    4.3675997    4.3675997    4.3675997    14640.946    57679.918   -12998.818    -758.2625    3698.7033   -9727.5237   -8520.7952    83.316012 
   10700    1310.7438   -105.22036    1.1859886   -104.03437   -30266.168    4.3845442    4.3845442    4.3845442   -30266.168     23750.37   -55715.608   -58833.267   -2695.2644     33814.18    5070.3171    84.289476 
   10800    1550.6727   -105.43454    1.4030813   -104.03146    10996.719    4.3906004    4.3906004    4.3906004    10996.719    16015.687   -39197.246    56171.715   -772.44232   -39457.366    73.061329    84.639237 
   10900    1677.8314    -105.5493    1.5181371   -104.03116    15606.111     4.385926     4.385926     4.385926    15606.111     2383.469    5589.6504    38845.213    8286.8581   -5745.7663    11403.807    84.369192 
   11000    1682.3361   -105.55898    1.5222131   -104.03677   -1094.6114    4.3808563    4.3808563    4.3808563   -1094.6114   -18111.364   -22270.657    37098.186    2025.7457    4780.1792    -5127.502    84.076965 
   11100     1838.305   -105.71013     1.663337   -104.04679   -13444.902    4.3875147    4.3875147    4.3875147   -13444.902   -7412.4743     17015.14    -49937.37   -3823.2625   -4702.0991   -11546.108    84.460912 
   11200    1496.3525   -105.39641    1.3539312   -104.04248    5693.6453     4.392502     4.392502     4.392502    5693.6453   -37473.946   -4495.0711    59049.953   -13172.336    14189.859   -6525.9939    84.749258 
   11300    1754.8924   -105.60594    1.5878635   -104.01808   -16244.937    4.3910945    4.3910945    4.3910945   -16244.937   -23573.691    18044.547   -43205.667    2731.5824   -8023.1828    -5034.268    84.667817 
   11400     1153.902   -105.06689    1.0440748   -104.02281    18192.026    4.3718032    4.3718032    4.3718032    18192.026    5593.8541    61871.463   -12889.239    28337.576    11670.329    2690.1622    83.556804 
   11500    1892.4516   -105.76096      1.71233   -104.04863    22164.943    4.3670761    4.3670761    4.3670761    22164.943   -13193.348   -5121.2781    84809.454   -4836.4616   -15955.716     20936.03    83.286051 
   11600    1745.3626   -105.66434    1.5792407    -104.0851     -23285.2    4.3929425    4.3929425    4.3929425     -23285.2   -3735.2247   -33877.196   -32243.179    8582.7584   -1419.0591   -6909.0142     84.77476 
   11700    1142.1491   -105.08611    1.0334405   -104.05267    17800.212    4.4044568    4.4044568    4.4044568    17800.212   -50446.636    58409.729    45437.542    5209.4022   -8679.7222    30897.938    85.443114 
   11800    1802.7845   -105.66251    1.6311973   -104.03131   -745.65569    4.3930312    4.3930312    4.3930312   -745.65569     29573.85   -21065.448    -10745.37   -3210.1061   -6811.5315    -6842.724    84.779892 
   11900    2105.4112    -105.9368    1.9050203   -104.03178   -22391.436    4.3695629    4.3695629    4.3695629   -22391.436   -36554.126   -31295.112    674.92846   -6179.5804    14668.106    18217.377    83.428411 
   12000    1132.9153   -105.09444    1.0250856   -104.06935    42110.052    4.3749351    4.3749351    4.3749351    42110.052    53268.158    46459.035    26602.962   -269.62446   -11259.991   -8071.7664    83.736509 
   12100    1600.8873   -105.53414    1.4485165   -104.08562   -5528.5269      4.40099      4.40099      4.40099   -5528.5269   -45597.315   -15805.916     44817.65   -13229.427    19831.546   -5816.0178    85.241512 
   12200    1660.3299   -105.54006    1.5023014   -104.03775   -22436.456    4.4195707    4.4195707    4.4195707   -22436.456   -36947.021    -52384.75    22022.402    480.28004   -3810.0881   -23631.572    86.325732 
   12300    889.40848   -104.79864   0.80475548   -103.99389    2257.3737    4.4063077    4.4063077    4.4063077    2257.3737   -48084.217    40650.377    14205.962   -257.62076    4093.9959   -32453.958    85.550875 
   12400    2390.4665   -106.13762    2.1629443   -103.97468   -18150.383    4.3703009    4.3703009    4.3703009   -18150.383   -40259.017     6339.968     -20532.1   -6695.5458    2139.2152    3316.0712    83.470695 
   12500    1689.7423    -105.5629    1.5289144   -104.03399   -1564.5888    4.3535656    4.3535656    4.3535656   -1564.5888     8360.141   -11274.518   -1779.3892   -7784.3304    3709.6604    -3999.151    82.515449 
   12600    1483.3899   -105.44792    1.3422024   -104.10572   -2677.3138    4.3789937    4.3789937    4.3789937   -2677.3138     -9126.64    179.81034    914.88821   -3650.9278    10596.765     15938.56    83.969771 
   12700     1584.675   -105.50816    1.4338472   -104.07431   -10125.283    4.4028514    4.4028514    4.4028514   -10125.283    27132.143   -7340.7457   -50167.247   -5889.8037    2016.4336    9835.4349    85.349714 
   12800    1155.0198    -105.0765    1.0450862   -104.03142   -6065.1848    4.3963869    4.3963869    4.3963869   -6065.1848    17994.114   -47645.454    11455.786    598.22476   -12856.218      17457.1    84.974321 
   12900    1942.8938   -105.76427    1.7579712    -104.0063    4095.5847    4.3613174    4.3613174    4.3613174    4095.5847    31998.048   -30355.794    10644.501   -13287.592   -5647.8782   -4019.5883    82.957007 
   13000    1446.6616   -105.35451    1.3089698   -104.04554    42140.551    4.3591447    4.3591447    4.3591447    42140.551    42572.392    11748.395    72100.866   -15071.505    16611.125    7375.1133     82.83309 
   13100    1862.8397   -105.74874    1.6855365    -104.0632   -14145.369    4.3871249    4.3871249    4.3871249   -14145.369   -30034.805   -51535.414    39134.113    9588.8118   -716.55519    7960.9434    84.438399 
   13200    1518.8967   -105.41682    1.3743297   -104.04249    -27804.68    4.3917921    4.3917921    4.3917921    -27804.68   -28534.012    5438.1944   -60318.223   -530.19459    22662.907   -15596.506    84.708176 
   13300     1662.336   -105.52219    1.5041166   -104.01807    16032.003    4.3733173    4.3733173    4.3733173    16032.003    35778.716   -27210.718    39528.009   -7387.3706   -6091.3218    2754.2741    83.643648 
   13400     1574.615   -105.45271    1.4247448   -104.02796    2159.0996    4.3687935    4.3687935    4.3687935    2159.0996   -9595.2898      12098.4    3974.1884   -15780.952    24223.628    23641.633    83.384353 
   13500    1026.1015   -104.96052   0.92843819   -104.03209    6742.8938    4.3713938    4.3713938    4.3713938    6742.8938    27930.747   -17986.928    10284.862    8571.3718    14223.928    6704.6669    83.533329 
   13600    2168.9559   -105.99096    1.9625169   -104.02844    -15776.66    4.3842573    4.3842573    4.3842573    -15776.66   -10352.374   -54676.005      17698.4   -2359.4484   -5804.6056   -11319.848    84.272931 
   13700    1515.9912   -105.40616    1.3717007   -104.03446   -8716.3954    4.3832159    4.3832159    4.3832159   -8716.3954   -50179.491    556.61857    23473.686   -4222.8479    9598.1994   -1016.3046    84.212891 
   13800    1625.9978   -105.50398     1.471237   -104.03274    11155.173    4.3778471    4.3778471    4.3778471    11155.173   -33879.406   -11647.561    78992.484    2267.1524   -28421.083    13438.781    83.903828 
   13900    1458.5831   -105.36556    1.3197567    -104.0458     24627.62    4.3658795    4.3658795    4.3658795     24627.62    49390.803   -22738.256    47230.315    11654.842    4823.2939    12103.035     83.21761 
   14000     1714.616   -105.63359    1.5514206   -104.08217    5949.8407     4.367028     4.367028     4.367028    5949.8407   -29774.621   -37004.625    84628.768    6900.7245    13840.325   -13860.398    83.283302 
   14100    1729.7061   -105.64237    1.5650745    -104.0773   -19814.113    4.3889344    4.3889344    4.3889344   -19814.113   -15146.049    -44639.04     342.7481    3632.3267   -22512.673   -1754.7088    84.542925 
   14200    832.34728    -104.8133   0.75312531   -104.06018   -9666.7765    4.3829016    4.3829016    4.3829016   -9666.7765    49283.699   -39752.135   -38531.893    11014.887   -7934.8345   -12662.415    84.194781 
   14300    2068.6452    -105.9051    1.8717536   -104.03335    8712.0784    4.3632119    4.3632119    4.3632119    8712.0784   -12696.755   -36855.226    75688.216   -4080.4429    9816.6386    6926.4279    83.065161 
   14400    2130.5839   -105.98278    1.9277971   -104.05498   -6579.7915    4.3685306    4.3685306    4.3685306   -6579.7915     2983.812   -36556.462    13833.275   -334.81281   -8957.5351    -8025.831    83.369301 
   14500    1104.3664   -105.06729    0.9992539   -104.06804    7495.2607    4.3779717    4.3779717    4.3779717    7495.2607    19447.152   -64538.633    67577.264     922.4519   -8958.4311   -7385.5742    83.910992 
   14600    1519.6232   -105.43628     1.374987   -104.06129    6648.5851    4.3819884    4.3819884    4.3819884    6648.5851     -40173.7   -37126.393    97245.848   -2836.6962   -1806.5114    4799.7046    84.142163 
   14700    1466.6878   -105.38428      1.32709   -104.05719    11093.427    4.3740976    4.3740976    4.3740976    11093.427    42012.362   -10041.276    1309.1935    10181.701    1591.7729    2380.3658    83.688426 
   14800    1542.0853   -105.43486    1.3953112   -104.03955   -28663.858    4.3720387    4.3720387    4.3720387   -28663.858   -8098.7855   -31584.705   -46308.083    4063.0736   -12011.858    14236.618    83.570304 
   14900    1744.2635   -105.60867    1.5782463   -104.03043    8413.6037    4.3710094    4.3710094    4.3710094    8413.6037    5324.8883   -33720.779    53636.702    7497.7596    19165.541   -3566.7129    83.511298 
   15000    1811.9587    -105.6868    1.6394984    -104.0473   -27795.787    4.3829462    4.3829462    4.3829462   -27795.787   -31035.047   -41400.046   -10952.268    4068.2701    11394.889    790.10459    84.197349 
   15100    1318.0957   -105.22554    1.1926407    -104.0329    4812.2434    4.3785923    4.3785923    4.3785923    4812.2434    8483.7731   -59253.943      65206.9   -8579.6507   -8300.0334   -5243.0773    83.946679 
   15200    1814.9493   -105.67396    1.6422043   -104.03176    15090.626    4.3607751    4.3607751    4.3607751    15090.626     64930.71    -43425.17    23766.338   -8542.6344   -34887.935    14586.183    82.926067 
   15300    1514.8702   -105.44579    1.3706864    -104.0751     27046.84    4.3702741    4.3702741    4.3702741     27046.84     26518.87   -9248.5056    63870.155     10950.28    18505.211   -4549.0747     83.46916 
   15400     1481.235   -105.39753    1.3402525   -104.05728   -29311.346    4.3915606    4.3915606    4.3915606   -29311.346    7959.8201   -65979.416   -29914.442   -15282.447   -3742.4123    18681.667    84.694781 
   15500    1851.4721   -105.71236    1.6752508   -104.03711   -21525.625    4.3706698    4.3706698    4.3706698   -21525.625   -16641.343   -32521.606   -15413.927    -8518.615    15981.415   -5031.5463    83.491831 
   15600    1620.3897   -105.51147    1.4661626   -104.04531    24735.379    4.3486935    4.3486935    4.3486935    24735.379    72432.025   -20346.963    22121.075    5544.8898    13757.897    8308.4768    82.238732 
   15700    1995.0874   -105.87077     1.805197   -104.06557   -11196.533    4.3652568    4.3652568    4.3652568   -11196.533   -4456.9822   -46228.072    17095.456    465.00526   -7889.2512    11677.804    83.182006 
   15800    820.74222   -104.80852   0.74262481    -104.0659    10262.234    4.3753056    4.3753056    4.3753056    10262.234    45660.211   -10823.078   -4050.4317    22013.408    13057.337   -7436.5193    83.757781 
   15900     2387.305   -106.19628    2.1600837    -104.0362   -13812.983    4.3770041    4.3770041    4.3770041   -13812.983   -7728.6336   -52056.126    18345.812    791.52348    3011.1964    12194.969    83.855365 
   16000    1496.0331   -105.38542    1.3536422   -104.03178    3180.9183    4.3736892    4.3736892    4.3736892    3180.9183   -1368.2553   -27092.671    38003.681    14443.299    14972.914    5116.3668     83.66499 
   16100     1445.163   -105.34476    1.3076139   -104.03715   -8560.2449    4.3780625    4.3780625    4.3780625   -8560.2449    18959.274    -36333.71   -8306.2989     5502.018     5428.339   -11831.082    83.916212 
   16200    2282.3036   -106.08774    2.0650762   -104.02266   -12857.187    4.3652336    4.3652336    4.3652336   -12857.187   -24857.554   -29583.678    15869.671     17663.86   -28382.679   -5348.7401    83.180683 
   16300    1074.6877   -104.99936   0.97239998   -104.02696    44942.418     4.352997     4.352997     4.352997    44942.418    63581.873   -10339.506    81584.888    -3461.274    5653.6736   -2862.8502    82.483123 
   16400    2224.9351    -106.0625     2.013168   -104.04933   -41750.111    4.3836459    4.3836459    4.3836459   -41750.111   -47365.172   -40169.502    -37715.66    8904.8323   -17363.194   -4320.5564     84.23768 
   16500    1442.1885   -105.33625    1.3049225   -104.03133   -493.35373    4.3961558    4.3961558    4.3961558   -493.35373     29733.16   -53488.549    22275.328     15765.81    10863.516   -3185.7593    84.960924 
   16600    1459.4832    -105.3321     1.320571   -104.01153   -120.93619    4.3791482    4.3791482    4.3791482   -120.93619   -4530.9942   -18910.471    23078.656    -4444.356    5843.0866    8397.4314    83.978657 
   16700     1606.496   -105.46361    1.4535914   -104.01002    20041.042    4.3442274    4.3442274    4.3442274    20041.042    9813.3259    5516.1909     44793.61    19452.519    13816.759   -750.76812    81.985612 
   16800    2029.8069   -105.89557    1.8366119   -104.05895    15977.166    4.3513106    4.3513106    4.3513106    15977.166    25194.286   -4669.8899    27407.103   -4605.4935   -249.39492   -1176.0249      82.3873 
   16900    1649.5725   -105.55998    1.4925679   -104.06741   -26742.012    4.3841282    4.3841282    4.3841282   -26742.012    817.00287   -54152.011   -26891.028    38849.394    6204.4096    7524.7316     84.26549 
   17000    1271.6356   -105.18346    1.1506026   -104.03286   -1726.0943    4.3875514    4.3875514    4.3875514   -1726.0943   -2287.3248    18310.538   -21201.497   -14514.073     16899.02   -6502.9918     84.46303 
   17100    1598.9588     -105.465    1.4467716   -104.01823    5387.3827     4.361072     4.361072     4.361072    5387.3827    1725.4979   -48319.215    62755.866     30557.86   -2057.5974    15320.246    82.943005 
   17200    1911.6902   -105.74735    1.7297375   -104.01761    17446.226    4.3389817    4.3389817    4.3389817    17446.226   -17358.002    31988.921     37707.76    -15832.92    31136.617   -5895.4926    81.688976 
   17300     1317.093   -105.25664    1.1917335   -104.06491    9078.6541    4.3517242    4.3517242    4.3517242    9078.6541    2480.8682   -34206.908    58962.002    24772.969   -12220.185   -1065.6736    82.410795 
   17400    1443.1442   -105.36411    1.3057872   -104.05833   -1739.4609    4.3763795    4.3763795    4.3763795   -1739.4609   -25358.033   -18906.982    39046.632   -1424.1608   -5363.0296   -4751.3074    83.819473 
   17500    1798.7093   -105.66351      1.62751     -104.036   -25675.336    4.3701309    4.3701309    4.3701309   -25675.336   -69803.797   -26764.384    19542.173    12943.538    12492.393   -3158.3359     83.46095 
   17600    1746.8917   -105.61803    1.5806243   -104.03741    680.85278    4.3550685    4.3550685    4.3550685    680.85278   -27811.418   -23726.239    53580.215    14540.042   -8263.7161    15927.404    82.600936 
   17700    1341.5282   -105.26349    1.2138429   -104.04965    18015.429    4.3548797    4.3548797    4.3548797    18015.429   -34681.437    -13795.25    102522.97    847.47451    25449.062    8115.3438    82.590194 
   17800    1269.6791   -105.21444    1.1488323   -104.06561    -28835.82    4.3567728    4.3567728    4.3567728    -28835.82   -67244.008   -35140.394    15876.941    30415.197   -1344.4201    9313.5441     82.69795 
   17900    2024.1774    -105.8797    1.8315183   -104.04818   -9312.9451    4.3492203    4.3492203    4.3492203   -9312.9451    1187.3802   -26029.516   -3096.6994   -15304.895    20703.438    9235.6947     82.26862 
   18000    1840.3878   -105.70562    1.6652215   -104.04039   -21344.207    4.3526166    4.3526166    4.3526166   -21344.207   -17722.105   -26811.327   -19499.188    33694.886    11038.298    9985.6889    82.461501 
   18100    1220.0107   -105.14565    1.1038913   -104.04176    16234.987    4.3616292    4.3616292    4.3616292    16234.987    65777.135   -9319.2015    -7752.972   -5570.9193    4147.9819    10403.661      82.9748 
   18200    1857.7245   -105.72215    1.6809082   -104.04124   -33978.879    4.3553099    4.3553099    4.3553099   -33978.879   -67480.088   -31660.649    -2795.901    22517.421    21377.562    -3935.811    82.614675 
   18300    1689.9589   -105.57245    1.5291103   -104.04334    30353.062    4.3448012    4.3448012    4.3448012    30353.062    40883.785    34977.808    15197.593    6509.6093    13044.511   -8171.6655    82.018102 
   18400     1419.334   -105.34072    1.2842432   -104.05648    4293.2994    4.3522192    4.3522192    4.3522192    4293.2994   -43685.355    71085.126   -14519.874    4549.4048    11490.138   -7424.7114    82.438916 
   18500    1140.8625   -105.10213    1.0322764   -104.06985    2407.6913    4.3602948    4.3602948    4.3602948    2407.6913   -64029.735    19122.226    52130.583    17991.105   -1454.8004   -19969.458    82.898667 
   18600    2171.7905   -106.01116    1.9650817   -104.04608     7819.145    4.3554448    4.3554448    4.3554448     7819.145   -21419.937    25273.335    19604.037   -6464.5788   -233.08106   -3911.0808    82.622347 
   18700    789.81504   -104.75556   0.71464125   -104.04092    29176.776    4.3448931    4.3448931    4.3448931    29176.776    27327.235   -2743.0715    62946.165    32636.133    15021.381   -7506.8038    82.023311 
   18800    2008.6161   -105.85777    1.8174381   -104.04033   -2346.4312    4.3534424    4.3534424    4.3534424   -2346.4312   -2427.4544    1254.1556   -5865.9949   -14991.297   -8388.2971    24.797713    82.508448 
   18900    1897.1188   -105.77357    1.7165529   -104.05702   -10759.804    4.3553331    4.3553331    4.3553331   -10759.804   -12954.024   -26834.378    7508.9908    17181.638    21840.564   -202.07247    82.615995 
   19000    1264.8491   -105.19631     1.144462   -104.05185    12784.589    4.3448015    4.3448015    4.3448015    12784.589    51913.048     4489.192   -18048.473    19310.293    384.06675   -4808.7082     82.01812 
   19100    1476.1997   -105.39852    1.3356965   -104.06283   -18813.047    4.3600561    4.3600561    4.3600561   -18813.047   -38866.677   -4947.8543   -12624.608   -6274.4881    2916.2591    8202.1944    82.885055 
   19200    1798.5002   -105.67493    1.6273208   -104.04761   -29281.528    4.3665355    4.3665355    4.3665355   -29281.528   -69315.389    10092.349   -28621.544    19696.206   -8392.8662   -2751.5009    83.255125 
   19300    1494.5227   -105.38793    1.3522755   -104.03566    7582.1957    4.3536526    4.3536526    4.3536526    7582.1957     29533.69    17637.437   -24424.541   -233.61904   -893.60947   -5526.4345    82.520396 
   19400     775.2907   -104.74957   0.70149932   -104.04807    16353.029    4.3442783    4.3442783    4.3442783    16353.029    45433.534    15034.064   -11408.511    18104.994    5617.3767   -9263.3875    81.988498 
   19500     2113.608   -105.96834    1.9124369    -104.0559    2469.7829    4.3518018    4.3518018    4.3518018    2469.7829   -20803.106     29959.82   -1747.3649   -8117.8738    15241.943    2240.0055    82.415203 
   19600    1527.7637    -105.4408    1.3823527   -104.05845   -9745.9389    4.3586413    4.3586413    4.3586413   -9745.9389    24747.054   -19621.188   -34363.682    13495.057   -5627.4802    6106.0416    82.804395 
   19700    1226.9677   -105.15572    1.1101861   -104.04554   -20254.285    4.3634891    4.3634891    4.3634891   -20254.285   -19793.959    5374.2499   -46343.147    31433.461    19453.204   -3649.5155    83.080997 
   19800    2283.0404    -106.0885    2.0657429   -104.02276    3809.1862    4.3436706    4.3436706    4.3436706    3809.1862    15927.249   -28532.246    24032.556   -6659.1899   -4219.4266    4165.4717    81.954094 
   19900    1322.5251   -105.23639    1.1966485   -104.03974    7003.4121    4.3365976    4.3365976    4.3365976    7003.4121    39295.044   -21341.052    3056.2449     31207.33    2750.5079    2107.8431    81.554398 
   20000    1414.0233   -105.32444     1.279438     -104.045     15410.76    4.3535006    4.3535006    4.3535006     15410.76    37357.381    17523.463    -8648.564   -5756.7153   -8823.7127    744.34932    82.511758 
   20100    2056.6229   -105.89856    1.8608756   -104.03769   -36192.654    4.3617936    4.3617936    4.3617936   -36192.654   -31104.844   -56000.871   -21472.246    21302.603     5197.468   -9094.0512    82.984185 
   20200    1796.7935   -105.64629    1.6257766   -104.02051    4572.7736    4.3604532    4.3604532    4.3604532    4572.7736     29928.43    -11706.41   -4503.6983   -5474.4495    -374.2485    7859.1283    82.907706 
   20300    1347.4968   -105.23399    1.2192434   -104.01475    5568.0317    4.3487676    4.3487676    4.3487676    5568.0317     38972.92    -12230.48   -10038.345    14014.576   -20498.016   -4326.0371    82.242936 
   20400    1913.3767   -105.77327    1.7312634     -104.042    7231.0857    4.3448133    4.3448133    4.3448133    7231.0857    9782.5705   -6095.8589    18006.545   -236.28696   -5114.2603    1691.0541    82.018792 
   20500    1843.6347   -105.72051    1.6681594   -104.05235   -6031.8196     4.355291     4.355291     4.355291   -6031.8196    31929.578    -21353.37   -28671.667    4167.9938   -8317.2148    9085.9889    82.613595 
   20600    1253.7921   -105.17817    1.1344574   -104.04371   -23415.959    4.3560238    4.3560238    4.3560238   -23415.959    12413.364   -53730.964   -28930.276    22346.634    5779.4559   -2357.5507    82.655307 
   20700    1628.1105   -105.50384    1.4731486   -104.03069    1448.3616    4.3524428    4.3524428    4.3524428    1448.3616    40193.876    -26971.76   -8877.0307   -10720.403   -4772.4627     9758.129    82.451623 
   20800    2046.5167   -105.88887    1.8517313   -104.03714    -23440.47    4.3461188    4.3461188    4.3461188    -23440.47   -21541.978    -63383.85    14604.417    36889.221   -13039.127   -1842.8052    82.092747 
   20900    1507.3458   -105.41153    1.3638781   -104.04765    38597.361    4.3428982    4.3428982    4.3428982    38597.361    57024.833   -27493.501    86260.752    -6265.882   -2314.3491    4072.4845    81.910382 
   21000    1527.9074   -105.44658    1.3824827   -104.06409   -37828.951    4.3584728    4.3584728    4.3584728   -37828.951   -26396.778   -51110.743   -35979.333    12139.251    7385.5868    3707.2676    82.794792 
   21100    1770.1714   -105.65839    1.6016883    -104.0567    6006.6659    4.3590514    4.3590514    4.3590514    6006.6659    9415.7161   -38127.456    46731.738    7514.5975   -15940.291   -18900.328    82.827772 
   21200    1840.0157   -105.71269    1.6648849   -104.04781   -25559.218    4.3612442    4.3612442    4.3612442   -25559.218   -38033.047   -27901.876    -10742.73   -9507.3714   -5821.8018   -2847.3965    82.952831 
   21300    1484.9214   -105.38584    1.3435881   -104.04225   -3646.7869    4.3529111    4.3529111    4.3529111   -3646.7869    5755.3934   -41621.109    24925.355    15890.849   -5935.0742   -8896.6923    82.478239 
   21400    1508.8209    -105.4125    1.3652128   -104.04729    7070.2627    4.3556227    4.3556227    4.3556227    7070.2627    30155.366   -16757.263     7812.685   -21500.807    -30066.03   -3177.9395    82.632475 
   21500    1893.6279   -105.75504    1.7133943   -104.04165    3992.9096     4.349167     4.349167     4.349167    3992.9096    40684.849   -34420.005    5713.8844    13769.655    10468.675   -1069.6187    82.265597 
   21600     1340.726   -105.26709    1.2131171   -104.05397   -5410.8981    4.3504297    4.3504297    4.3504297   -5410.8981   -22265.091   -4234.9564    10267.353   -5941.9631   -24110.297    2972.7911    82.337271 
   21700    1397.4033   -105.32074    1.2643999   -104.05634    8424.2665    4.3567531    4.3567531    4.3567531    8424.2665    77084.363   -24466.922   -27344.641    5224.6802   -11930.088   -6355.3641    82.696828 
   21800    1810.4658   -105.68719    1.6381475   -104.04905   -6746.5727     4.356868     4.356868     4.356868   -6746.5727   -155.79946   -22875.186    2791.2678    16141.078   -4420.5513   -4277.1518    82.703368 
   21900    1225.3721   -105.15954    1.1087425    -104.0508   -11270.361    4.3514562    4.3514562    4.3514562   -11270.361     9933.305    -31701.99   -12042.398   -19137.669   -14512.498    724.47838    82.395566 
   22000    1775.0793   -105.65803     1.606129    -104.0519   -16507.379    4.3508793    4.3508793    4.3508793   -16507.379    36034.366   -33309.624   -52246.878    20381.847   -6226.1319   -3921.7764    82.362802 
   22100    1714.7729   -105.61092    1.5515625   -104.05935   -10710.844    4.3580614    4.3580614    4.3580614   -10710.844    32877.015   -56436.462   -8573.0868   -26718.748   -25065.463   -6123.8955    82.771348 
   22200    1571.5785   -105.48041    1.4219973   -104.05842   -22015.061    4.3619204    4.3619204    4.3619204   -22015.061    3097.3513   -52857.122   -16285.412   -3025.2799    14876.317   -12446.271    82.991424 
   22300    1653.3464   -105.54041    1.4959826   -104.04442    2709.8206    4.3431325    4.3431325    4.3431325    2709.8206    41696.881    2848.7785   -36416.197    1327.7235    8625.1993    10187.974     81.92364 
   22400    1349.4819   -105.27711    1.2210396   -104.05607    29016.218    4.3356488    4.3356488    4.3356488    29016.218    71705.704    8648.4361    6694.5137   -27158.841   -20544.215   -11014.391    81.500878 
   22500    2283.3477   -106.12558     2.066021   -104.05956   -9534.6062    4.3569986    4.3569986    4.3569986   -9534.6062     27355.21   -36544.763   -19414.265    7443.2555   -3739.7745    -757.9662     82.71081 
   22600    891.12824   -104.88155   0.80631156   -104.07524      -7643.4    4.3603917    4.3603917    4.3603917      -7643.4    18048.772   -24425.069   -16553.903   -15071.896   -28223.911   -6637.8416    82.904194 
   22700    1947.9761   -105.81898    1.7625698   -104.05641   -3817.0334    4.3423104    4.3423104    4.3423104   -3817.0334    27112.934   -8434.2568   -30129.777   -8829.1707   -11111.724     5261.322    81.877125 
   22800    1632.2408   -105.53378    1.4768858    -104.0569    22337.288     4.341622     4.341622     4.341622    22337.288     73188.34   -41265.211    35088.736   -1853.0915   -4460.0757     14096.56    81.838195 
   22900    1278.5097   -105.22455    1.1568224   -104.06773   -3679.9576    4.3552964    4.3552964    4.3552964   -3679.9576    17438.794   -25906.331   -2572.3361   -20756.721   -11266.517   -5438.3291    82.613904 
   23000    2121.3261   -105.96234    1.9194204   -104.04292   -3933.0643    4.3535633    4.3535633    4.3535633   -3933.0643    7847.5115    14293.125   -33939.829    10795.757    14427.563    3773.5378    82.515319 
   23100    1125.2862    -105.0772    1.0181826   -104.05901   -22185.119    4.3532904    4.3532904    4.3532904   -22185.119   -10469.263    -36193.91   -19892.183   -21566.167   -22181.271    1490.6304    82.499806 
   23200    2034.7073   -105.89569    1.8410459   -104.05464    3358.9691    4.3535169    4.3535169    4.3535169    3358.9691    49980.355   -14862.433   -25041.015   -12814.638    1240.2745    13228.261    82.512683 
   23300      1443.93   -105.36051    1.3064982   -104.05401    5631.5551    4.3505839    4.3505839    4.3505839    5631.5551   -22303.857    48459.735   -9261.2121    -15497.44   -3604.5968    -10396.47    82.346028 
   23400    966.60326   -104.92748   0.87460294   -104.05288   -18046.039    4.3516446    4.3516446    4.3516446   -18046.039    35793.105    -45603.97   -44327.252   -15384.251   -36651.971   -609.33471    82.406268 
   23500    1988.2734   -105.83525    1.7990316   -104.03622    17318.343    4.3467201    4.3467201    4.3467201    17318.343    16467.789    11106.749     24380.49   -17663.797    2630.0955    938.83256    82.126824 
   23600    1606.1337   -105.51543    1.4532635   -104.06217   -7636.2682    4.3567783    4.3567783    4.3567783   -7636.2682   -14149.386    29019.826   -37779.245   -20613.646   -28699.604    -25080.14     82.69826 
   23700    1809.8058   -105.67375    1.6375503    -104.0362   -6709.9563    4.3630527    4.3630527    4.3630527   -6709.9563   -12724.963     13669.76   -21074.666    946.91152    2131.0291    3563.1677    83.056069 
   23800    670.53625   -104.64344   0.60671529   -104.03673    12015.793    4.3493187    4.3493187    4.3493187    12015.793   -10520.943    3240.0258    43328.295   -18984.979     6061.742   -10527.684    82.274203 
   23900    2164.7889   -105.99561    1.9587465   -104.03686   -9768.3084    4.3393677    4.3393677    4.3393677   -9768.3084   -3506.5873   -7999.3692   -17798.969   -6547.0514    -30509.93   -18448.935    81.710782 
   24000    2014.6624   -105.88445    1.8229089   -104.06154    15725.512    4.3496222    4.3496222    4.3496222    15725.512   -7848.5046    35218.729    19806.312    9318.7886     1063.854   -10738.466    82.291431 
   24100     811.7497   -104.81643   0.73448819   -104.08194    17195.928      4.36458      4.36458      4.36458    17195.928    59356.402   -7670.9882   -97.629303   -27627.372   -33334.253    13952.006    83.143321 
   24200    2030.3594   -105.88315    1.8371118   -104.04604   -33048.415     4.376816     4.376816     4.376816   -33048.415   -4720.2326   -33196.905   -61228.107    11167.706    10248.245   -12774.712    83.844557 
   24300    1595.7665   -105.49075    1.4438831   -104.04687    39182.697    4.3352883    4.3352883    4.3352883    39182.697    74456.355    39709.296    3382.4409   -26061.771    -25325.53    -15703.94    81.480553 
   24400    1369.0796   -105.28362     1.238772   -104.04484    40491.987    4.3180461    4.3180461    4.3180461    40491.987    1496.6622    45188.184    74791.114   -3667.9241   -5183.6381    6460.6413    80.512226 
   24500    2065.0786   -105.93316    1.8685265   -104.06463   -9917.9207    4.3497491    4.3497491    4.3497491   -9917.9207    2721.9854   -11098.292   -21377.456    14312.231     1641.589     7611.821    82.298635 
   24600     1053.227   -105.01674   0.95298191   -104.06376   -1061.9898    4.3720682    4.3720682    4.3720682   -1061.9898   -20308.737    14479.033    2643.7355   -20658.262   -23511.255   -10031.081    83.571997 
   24700    2421.7831   -106.21668    2.1912802    -104.0254   -15984.502    4.3729982    4.3729982    4.3729982   -15984.502   -47220.106   -7022.0184    6288.6191    4194.4639    6733.8002     12431.82    83.625342 
   24800    681.67743   -104.66579   0.61679606   -104.04899   -7425.3889    4.3442786    4.3442786    4.3442786   -7425.3889    248.80678    35797.178   -58322.152   -15669.421   -57518.708    6018.7828    81.988513 
   24900    1600.5931   -105.47812    1.4482503   -104.02987    55454.066    4.3148188    4.3148188    4.3148188    55454.066    34498.919     128754.6    3108.6821   -17864.636    10222.121   -849.53889    80.331837 
   25000    1443.3788   -105.40667    1.3059994   -104.10067   -4729.7916    4.3589824    4.3589824    4.3589824   -4729.7916    -19420.08    62010.537   -56779.832   -6200.5841   -32896.721   -4166.4154     82.82384 
   25100    2075.1961   -105.92566    1.8776811   -104.04798   -48395.751    4.3871538    4.3871538    4.3871538   -48395.751   -50323.166   -28794.754   -66069.335   -15765.935   -3210.1745   -22603.249    84.440068 
   25200    1119.8858     -105.049    1.0132962   -104.03571    18986.922    4.3553665    4.3553665    4.3553665    18986.922   -623.08182    20493.561    37090.288   -8612.8074   -25503.908   -3211.9159    82.617892 
   25300    1606.1821   -105.47539    1.4533074   -104.02208     30153.39    4.3347564    4.3347564    4.3347564     30153.39    11473.975    61371.512    17614.683   -16670.192   -2784.7812    -9410.759    81.450563 
   25400    1812.8726   -105.69395    1.6403252   -104.05363    1650.1541     4.357783     4.357783     4.357783    1650.1541   -15011.553    19073.797    888.21804     4961.981   -6070.3995   -14808.782    82.755488 
   25500    1379.3518   -105.30438    1.2480665   -104.05631    19258.847     4.373401     4.373401     4.373401    19258.847   -32539.169     66578.71    23736.999   -8934.4415   -11108.811    10493.758    83.648451 
   25600    1735.2655   -105.59724    1.5701047   -104.02713   -7873.3358    4.3666204    4.3666204    4.3666204   -7873.3358   -9404.9057   -9563.5449   -4651.5567   -832.14474    12742.381    14618.046    83.259983 
   25700    1116.6267   -105.02961    1.0103473   -104.01927    7991.9826    4.3569746    4.3569746    4.3569746    7991.9826   -13192.268    9961.2857     27206.93   -3816.8964   -31202.234   -12569.568    82.709439 
   25800     2170.359   -105.98971    1.9637864   -104.02592   -10951.062    4.3546655    4.3546655    4.3546655   -10951.062    -35039.89    3920.8276    -1734.124   -6326.2104    7464.9739    9929.7432    82.578008 
   25900    1421.4799   -105.33305    1.2861849   -104.04686   -12301.078    4.3621424    4.3621424    4.3621424   -12301.078    -29505.42    15553.099   -22950.913    13846.286   -30762.066   -6918.0647    83.004093 
   26000    1358.7909   -105.27532    1.2294626   -104.04586    6964.4381    4.3607991    4.3607991    4.3607991    6964.4381   -32924.106    48813.295    5004.1253   -27021.554    469.01418    7558.9388    82.927435 
   26100     1594.882    -105.4926    1.4430827   -104.04952   -16191.091    4.3610373    4.3610373    4.3610373   -16191.091   -43689.504    22204.045   -27087.813   -10033.304   -42048.315   -3241.5892    82.941026 
   26200     1994.323   -105.84029    1.8045053   -104.03579    8776.7822    4.3482918    4.3482918    4.3482918    8776.7822   -25177.203     49819.37    1688.1796   -2963.8687   -8935.1388    5109.9979    82.215944 
   26300    1514.9365   -105.42916    1.3707464   -104.05841   -30375.019    4.3625247    4.3625247    4.3625247   -30375.019   -41308.697   -27402.998   -22413.362   -13919.015   -18688.807   -5737.7867    83.025918 
   26400    1516.2169   -105.41627    1.3719049   -104.04437    4541.5411    4.3723187    4.3723187    4.3723187    4541.5411   -11775.715   -9500.6266    34900.965    6096.2053   -23280.798    -3750.993    83.586363 
   26500    2182.4454   -106.00025    1.9747224   -104.02553   -11942.906    4.3607972    4.3607972    4.3607972   -11942.906   -26069.753   -1324.3748     -8434.59   -22272.412    7064.6167    -14403.83    82.927329 
   26600    819.25949   -104.77558    0.7412832    -104.0343    12978.532    4.3519194    4.3519194    4.3519194    12978.532   -8799.3575    7304.3473    40430.606    9346.2604   -38488.441   -225.83548    82.421885 
   26700    2186.7446     -106.012    1.9786125   -104.03339   -14118.097    4.3512969    4.3512969    4.3512969   -14118.097   -24182.386   -32696.607    14524.703   -22009.709    15351.415   -7511.0673    82.386516 
   26800    1522.7194   -105.43716    1.3777885   -104.05937    -22203.89    4.3658519    4.3658519    4.3658519    -22203.89   -30557.771     19133.04    -55186.94   -795.16275   -43213.353    14271.773    83.216032 
   26900    1642.7257   -105.52194    1.4863727   -104.03557   -4404.7146    4.3667978    4.3667978    4.3667978   -4404.7146   -39250.745   -28666.158     54702.76   -13376.053    6744.5604   -1120.0653    83.270129 
   27000    1606.4804   -105.48928    1.4535772    -104.0357   -7904.2537    4.3487187    4.3487187    4.3487187   -7904.2537   -43894.847     29730.38   -9548.2933   -10860.825   -41985.471    808.40538    82.240162 
   27100    2041.3049   -105.88707    1.8470156   -104.04006    13818.348    4.3469986    4.3469986    4.3469986    13818.348    811.31778    5669.9293    34973.798   -11280.362   -3494.7349   -14757.886    82.142609 
   27200    1235.1566   -105.17889    1.1175956   -104.06129   -10357.372    4.3600046    4.3600046    4.3600046   -10357.372   -55539.917    51990.083    -27522.28   -21454.893   -15162.216   -3173.5382    82.882117 
   27300    2014.1798   -105.86746    1.8224722   -104.04499   -18517.915    4.3677384    4.3677384    4.3677384   -18517.915   -22289.113   -21724.095   -11540.537   -5814.4656   -22661.357   -13078.996    83.323951 
   27400    1300.4095    -105.2194    1.1766378   -104.04277   -4773.8689    4.3679474    4.3679474    4.3679474   -4773.8689   -47763.434    48906.887   -15465.059   -7214.0399    -7.233013    2536.4293    83.335915 
   27500    1556.3439   -105.45222    1.4082127   -104.04401   -10804.959    4.3548764    4.3548764    4.3548764   -10804.959   -57864.751    30295.318   -4845.4428   -10607.098   -23133.617   -24198.872    82.590008 
   27600    2093.5307   -105.95202    1.8942706   -104.05775   -1720.5246    4.3509646    4.3509646    4.3509646   -1720.5246   -29260.289   -12837.888    36936.603    19578.098    8898.6093     10914.89    82.367647 
   27700    1233.0153   -105.18641    1.1156581   -104.07076    5785.2194    4.3709915    4.3709915    4.3709915    5785.2194   -63511.905    50586.534    30281.029   -2540.5358   -19956.842    9256.5631    83.510271 
   27800    2082.2024   -105.92782    1.8840205    -104.0438   -27013.141    4.3888669    4.3888669    4.3888669   -27013.141   -62354.513   -39543.926    20859.016    18153.546    9482.8811    16592.249    84.539025 
   27900     1569.601   -105.45829     1.420208   -104.03808   -16166.542    4.3737042    4.3737042    4.3737042   -16166.542   -69548.938    68118.307   -47068.995   -14875.974   -21472.102   -8735.2775     83.66585 
   28000     1531.569   -105.42376    1.3857958   -104.03796    30449.112    4.3538026    4.3538026    4.3538026    30449.112   -5731.5803     78023.56    19055.354    16700.081    6679.3489    21834.636    82.528928 
   28100    1058.8367    -105.0312   0.95805769   -104.07315    21521.286    4.3607208    4.3607208    4.3607208    21521.286   -11042.421    -11471.86     87078.14   -3858.7985   -43948.322   -418.98006    82.922971 
   28200    1903.0221   -105.78178    1.7218944   -104.05988    8835.5613    4.3775546    4.3775546    4.3775546    8835.5613    -17619.16    38032.664    6093.1794   -11230.116    3603.6062   -21768.073    83.887009 
   28300    1184.8476   -105.12431     1.072075   -104.05223   -12752.862    4.3739936    4.3739936    4.3739936   -12752.862   -57259.246    16778.621    2222.0384    10902.431   -22149.249     1720.379    83.682458 
   28400    1607.7409   -105.49285    1.4547177   -104.03813    37738.867    4.3565333    4.3565333    4.3565333    37738.867   -9870.3188    59073.735    64013.185    -2840.837   -12288.462   -9362.1063    82.684312 
   28500    1350.9328    -105.2792    1.2223524   -104.05685    25041.906    4.3510471    4.3510471    4.3510471    25041.906    19889.798    70301.651   -15065.733    8110.6155   -23069.798    6882.9449    82.372331 
   28600    1531.6029   -105.46089    1.3858265   -104.07506    3702.5231    4.3796612    4.3796612    4.3796612    3702.5231   -25974.511    43836.344   -6754.2636   -16724.587   -2690.5125   -18079.602    84.008177 
   28700    1711.0787   -105.58999      1.54822   -104.04177   -36997.889    4.3994626    4.3994626    4.3994626   -36997.889     -71118.1    21933.704   -61809.271   -14322.377   -16703.002    4266.1062    85.152792 
   28800    1773.4994    -105.6061    1.6046996    -104.0014   -5105.2316    4.3777786    4.3777786    4.3777786   -5105.2316   -24210.315    81252.587   -72357.967   -8231.8559    3108.7726   -9861.9958    83.899888 
   28900    1879.6336   -105.69235    1.7007319   -103.99162   -26761.425    4.3649496    4.3649496    4.3649496   -26761.425   -67353.347     27873.89   -40804.817    1013.6869   -4319.5786   -7278.7817    83.164446 
   29000    1648.8304   -105.50928    1.4918964   -104.01739    14462.299    4.3768855    4.3768855    4.3768855    14462.299   -51862.227    134565.31   -39316.184    3878.6491    5375.8507   -1968.0595     83.84855 
   29100    2031.7537   -105.86509    1.8383734   -104.02671   -50307.334    4.3991882    4.3991882    4.3991882   -50307.334   -35001.832   -29307.254   -86612.914    16971.497    -7170.042     17282.54    85.136859 
   29200    1669.1901   -105.50843    1.5103183   -103.99811   -8482.8083    4.3899105    4.3899105    4.3899105   -8482.8083   -32357.942    69236.746   -62327.229    16089.681    13828.262    13820.573    84.599345 
   29300    1448.5948   -105.32104     1.310719   -104.01032    13399.817    4.3604241    4.3604241    4.3604241    13399.817    -23705.15    78601.415   -14696.814   -18893.264   -22867.374    9111.3945    82.906045 
   29400    1631.8046   -105.52261    1.4764911   -104.04612    27814.209    4.3572382    4.3572382    4.3572382    27814.209    49027.513    56260.645    -21845.53      18954.1   -7783.0422   -7965.5298    82.724453 
   29500    1874.6071   -105.76391    1.6961839   -104.06772    -34977.19    4.3838656    4.3838656    4.3838656    -34977.19   -55907.928   -17856.697   -31166.944    4699.3168   -5852.7804   -6539.3281    84.250346 
   29600    1006.7031   -104.97083   0.91088612   -104.05994    19480.725    4.3847906    4.3847906    4.3847906    19480.725    26799.847    102749.52   -71107.187   -21.703147   -1657.5775   -1121.1541    84.303686 
   29700    1830.2474   -105.70117    1.6560463   -104.04512   -10026.091    4.3779691    4.3779691    4.3779691   -10026.091   -3492.7832   -11243.428   -15342.061     8900.496    5650.0847   -22604.691    83.910844 
   29800    1577.5477   -105.47267    1.4273983   -104.04527    3599.9839    4.3741643    4.3741643    4.3741643    3599.9839    11764.582    20333.262   -21297.892   -14439.387   -4764.0758    16912.986    83.692257 
   29900    1379.2062   -105.29382    1.2479347   -104.04588    8752.4675    4.3831373    4.3831373    4.3831373    8752.4675   -18032.819    60361.605   -16071.383    17969.877    21337.413   -5005.9161    84.208361 
   30000    1723.6978   -105.61394     1.559638    -104.0543    -37428.43    4.3922915    4.3922915    4.3922915    -37428.43   -58185.996     8573.475   -62672.768   -1081.5918   -19455.475    1144.5533    84.737073 
   30100    2078.7303   -105.90247    1.8808788   -104.02159    -12859.68    4.3930996    4.3930996    4.3930996    -12859.68     16159.35   -55927.832    1189.4424    3048.3096    4025.4934   -4833.8979     84.78385 
   30200    1203.1505   -105.09593    1.0886359   -104.00729    19113.709    4.3958448    4.3958448    4.3958448    19113.709    24010.674   -17161.289    50491.742   -2642.2309    5168.3776    4751.3832    84.942892 
   30300    1655.1963   -105.47746    1.4976564    -103.9798   -22829.252    4.4046065    4.4046065    4.4046065   -22829.252   -23715.177   -20592.395   -24180.183   -14878.175   -16155.286    4750.3622    85.451828 
   30400    1362.5882   -105.20217    1.2328984   -103.96927    21059.208    4.3875981    4.3875981    4.3875981    21059.208    59373.324    -6699.071    10503.371   -12324.581    -380.8054    4804.0953    84.465724 
   30500    1715.4379   -105.53759    1.5521643   -103.98543    19081.054    4.3752352    4.3752352    4.3752352    19081.054    62365.333   -107.91865   -5014.2511   -29278.706   -10162.519   -1377.1589    83.753738 
   30600    1062.4079    -104.9803   0.96128897   -104.01901    30933.823    4.3877765    4.3877765    4.3877765    30933.823    55355.364   -71107.595     108553.7   -367.41903   -18987.118   -5713.9944    84.476028 
   30700      1891.74   -105.73839    1.7116861    -104.0267   -21395.167    4.3970629    4.3970629    4.3970629   -21395.167    7877.3183   -37338.535   -34724.286   -12663.874   -22417.594    8349.3408    85.013526 
   30800    1312.6652   -105.20155     1.187727   -104.01383    16622.275    4.3872965    4.3872965    4.3872965    16622.275    26315.587   -9596.7136    33147.951    11562.701    8472.0852   -11669.116     84.44831 
   30900    1630.7261   -105.48646    1.4755153   -104.01095    -931.6206    4.3805872    4.3805872    4.3805872    -931.6206   -43746.113   -9600.1364    50551.388    3953.3288   -2024.2558   -11930.123    84.061472 
   31000    1993.6628   -105.82702     1.803908   -104.02312   -4821.7834    4.3880184    4.3880184    4.3880184   -4821.7834    -49937.32   -10186.837    45658.806    16889.856   -2688.7241    3978.3494    84.490003 
   31100     1538.278   -105.39931    1.3918663   -104.00744   -40596.399    4.4054646    4.4054646    4.4054646   -40596.399   -78764.459   -2690.9343   -40333.805    10277.906   -16858.842    3742.2844    85.501777 
   31200    1646.6448   -105.46268    1.4899188   -103.97276   -11183.719    4.3878273    4.3878273    4.3878273   -11183.719   -30474.938    44331.815   -47408.034   -79.527287   -9785.3561    3413.9382    84.478966 
   31300    2479.8483   -106.21589    2.2438188   -103.97207    -44228.23    4.3682823    4.3682823    4.3682823    -44228.23   -65301.131   -34849.058   -32534.501    20338.383    -1960.474    1320.9571    83.355084 
   31400    1188.9039   -105.09017    1.0757452   -104.01442     1021.109    4.3696581    4.3696581    4.3696581     1021.109    36555.417    30370.077   -63862.166   -23485.088   -35154.214    2290.9994    83.433867 
   31500    1874.6789   -105.71692    1.6962489   -104.02067   -835.69964    4.3720728    4.3720728    4.3720728   -835.69964    11193.032   -1988.3173   -11711.814   -9038.0913     25104.25   -12554.381    83.572262 
   31600    1434.9759   -105.32382    1.2983963   -104.02542    17916.822    4.3676603    4.3676603    4.3676603    17916.822    45648.441    21279.036   -13177.011    7973.8752   -26322.348   -5087.0811     83.31948 
   31700    1543.8297   -105.43659    1.3968895    -104.0397    3585.3771    4.3821382    4.3821382    4.3821382    3585.3771    16958.605    7114.6939   -13317.168   -18825.494     27114.63    -4832.245    84.150793 
   31800    1410.3992   -105.29536    1.2761588   -104.01921     3018.004    4.3960034    4.3960034    4.3960034     3018.004   -8044.0265   -25409.777    42507.816    160.41802    9612.5005   -10297.736    84.952087 
   31900    1340.7286   -105.20182    1.2131194    -103.9887    2481.2446     4.396723     4.396723     4.396723    2481.2446   -3708.1306    21683.797   -10531.933    3209.4276    221.55664     5477.487    84.993811 
   32000    1167.0123   -105.02634    1.0559372   -103.97041    39729.045    4.3768615    4.3768615    4.3768615    39729.045    32275.256   -28573.715    115485.59    395.00179    34476.436   -11917.198     83.84717 
   32100    1416.7482   -105.28429    1.2819035   -104.00239    15874.308    4.3779499    4.3779499    4.3779499    15874.308    111175.13   -35542.006   -28010.197    8858.9846    3134.8076   -15147.788    83.909735 
   32200    1301.0853   -105.20494    1.1772493   -104.02769    10810.283    4.3899478    4.3899478    4.3899478    10810.283    13441.046   -18177.691    37167.495   -5771.1641    17038.375    11557.808    84.601503 
   32300    1854.8701   -105.69976    1.6783254   -104.02143   -36232.176    4.3821366    4.3821366    4.3821366   -36232.176   -56409.814   -43703.409   -8583.3044   -9359.5162   -6249.9396    -18223.81    84.150698 
   32400    1640.3119   -105.51916    1.4841887   -104.03497   -27053.589    4.3685748    4.3685748    4.3685748   -27053.589   -18339.678    -41616.34   -21204.749     28433.91   -30308.369    6819.0307    83.371829 
   32500    1314.2544   -105.24513     1.189165   -104.05596    35761.821    4.3558373    4.3558373    4.3558373    35761.821    79992.918   -54198.279    81490.824    -7514.696    7698.5017    2584.2795    82.644689 
   32600    1371.8098   -105.33327    1.2412424   -104.09203    12123.981    4.3673216    4.3673216    4.3673216    12123.981    100554.03   -38112.044   -26070.041    15162.022    1624.7657    3994.2256    83.300101 
   32700    1326.2242   -105.27737    1.1999955   -104.07737    5134.9081    4.3906707    4.3906707    4.3906707    5134.9081    6308.5015    -67338.95    76435.173    3326.2129   -4555.5385    498.16004    84.643305 
   32800    1719.9378   -105.58753    1.5562359    -104.0313    15901.915    4.3821818    4.3821818    4.3821818    15901.915    57042.483   -39316.254    29979.517   -2056.7984    9572.4764   -625.11263    84.153306 
   32900    1396.7406   -105.29183    1.2638003   -104.02803     15343.29    4.3588777    4.3588777    4.3588777     15343.29    14183.553   -32211.319    64057.634    32537.773   -17414.256    1018.8961    82.817869 
   33000     1946.299   -105.80382    1.7610522   -104.04277    10251.395     4.358412     4.358412     4.358412    10251.395    36661.591   -36053.834    30146.427   -9047.1636    4070.2536    8737.2339    82.791326 
   33100    1895.8035   -105.78854    1.7153629   -104.07317   -27516.891    4.3877439    4.3877439    4.3877439   -27516.891    22354.163   -76822.561   -28082.274    25194.085   -3206.0933    3015.1049    84.474144 
   33200     1222.306   -105.15575    1.1059681   -104.04978     12217.21     4.390088     4.390088     4.390088     12217.21      78502.4   -53068.791    11218.022    1966.8614    9985.9898    -5311.112    84.609604 
   33300    1385.0699   -105.29129    1.2532404   -104.03805    7016.6422    4.3738685    4.3738685    4.3738685    7016.6422    37335.253   -41381.687    25096.361    2446.7302    4806.2613    1103.9511     83.67528 
   33400    2463.0968   -106.26914    2.2286618   -104.04048   -24928.713    4.3671173    4.3671173    4.3671173   -24928.713   -12814.309   -60220.904   -1750.9273    5368.9518    23096.984     1246.509    83.288411 
   33500    1141.4384     -105.086    1.0327974    -104.0532    35711.217    4.3718879    4.3718879    4.3718879    35711.217    53117.352   -16141.378    70157.676    -6739.679    14061.695     636.8919    83.561659 
   33600    1733.7148   -105.60414    1.5687016   -104.03544   -18272.631    4.3950288    4.3950288    4.3950288   -18272.631    25448.271   -32731.839   -47534.325    -3331.955    20505.455   -10633.698      84.8956 
   33700    1533.8072   -105.39816     1.387821   -104.01034   -1025.9397    4.3950615    4.3950615    4.3950615   -1025.9397    29656.876    -75931.09    43196.395   -6585.5211    -24664.66    619.61789    84.897495 
   33800     1495.385   -105.36476    1.3530558    -104.0117   -18202.098    4.3746673    4.3746673    4.3746673   -18202.098   -29341.562   -33296.784    8032.0512    14014.834    14652.585   -7457.1382    83.721134 
   33900    999.50149   -104.91389   0.90436995   -104.00952    56659.544    4.3526196    4.3526196    4.3526196    56659.544    91805.955    3323.5591    74849.116    -18471.06   -16830.898    -307.7554    82.461675 
   34000    2283.8714   -106.11519    2.0664948    -104.0487   -31151.652    4.3616461    4.3616461    4.3616461   -31151.652   -6931.9805   -65631.503   -20891.474    3849.6535   -7008.2566    197.47404    82.975767 
   34100     1410.466   -105.34295    1.2762193   -104.06673    5068.4881    4.3866055    4.3866055    4.3866055    5068.4881    49182.032   -35784.757    1808.1898    -16252.44    16663.639   -12878.059    84.408415 
   34200    1281.6713    -105.2017    1.1596831   -104.04201   -25310.691     4.399142     4.399142     4.399142   -25310.691   -31436.115   -52072.397    7576.4386   -7909.4428   -1652.8496   -3745.8809    85.134178 
   34300    2218.9114   -106.00081    2.0077176   -103.99309   -14595.802    4.3809016    4.3809016    4.3809016   -14595.802   -8166.7819   -42684.555    7063.9321    3992.1754    4607.6908    -4774.842    84.079574 
   34400    1479.1923   -105.33298    1.3384042   -103.99458    33170.438    4.3512409    4.3512409    4.3512409    33170.438     43632.69   -17276.098    73154.722   -6658.9373    -19306.39   -3317.2535    82.383337 
   34500    1500.1191   -105.40463    1.3573393   -104.04729    6717.3605    4.3689384    4.3689384    4.3689384    6717.3605    18299.876    28149.189   -26296.984    7169.7102   -15365.564   -8156.3954     83.39265 
   34600    1906.7331   -105.75425    1.7252522     -104.029   -11922.954    4.4000334    4.4000334    4.4000334   -11922.954   -4933.2992   -42190.438    11354.875    5358.8283    -19127.39    3092.5808    85.185941 
   34700    1159.4768   -105.04693     1.049119   -103.99781    539.26911    4.4065864    4.4065864    4.4065864    539.26911    1633.8367    -8812.045    8796.0156    9462.0261   -7785.8903   -17334.051    85.567109 
   34800    1449.4186   -105.28786    1.3114644    -103.9764    13413.114    4.3874439    4.3874439    4.3874439    13413.114    22812.023    70098.118     -52670.8    14909.977    -10373.26    30404.919    84.456823 
   34900    1483.8618   -105.33276    1.3426293   -103.99013     15547.74    4.3617344    4.3617344    4.3617344     15547.74   -3191.3758    27305.755     22528.84    13685.514   -17446.108   -8718.3104    82.980805 
   35000    1819.1221   -105.68884    1.6459799   -104.04286   -772.63399    4.3719194    4.3719194    4.3719194   -772.63399   -30171.414    3095.6266    24757.885    8710.1288   -3095.8257   -3658.6088    83.563462 
   35100    1347.3468   -105.27412    1.2191077   -104.05501   -20448.838    4.4027857    4.4027857    4.4027857   -20448.838   -59661.047    32421.749   -34107.216    13079.588   -2408.9036   -868.65271    85.345894 
   35200    1652.6216    -105.5248    1.4953267   -104.02948   -20860.399    4.3961514    4.3961514    4.3961514   -20860.399   -60152.843   -7494.3262    5065.9724     17244.94    8142.4933   -17589.758    84.960668 
   35300    1491.1125   -105.37048      1.34919   -104.02129       9930.5    4.3726018    4.3726018    4.3726018       9930.5   -4208.6655    18772.213    15227.952    8377.0735    553.17179    35364.905    83.602601 
   35400    1463.2011   -105.36924    1.3239351    -104.0453   -5827.8516    4.3609121    4.3609121    4.3609121   -5827.8516    13170.459   -35602.462    4948.4482    16219.787   -6668.9437    4038.9749    82.933884 
   35500    1770.2775   -105.67739    1.6017843   -104.07561    17446.864    4.3751502    4.3751502    4.3751502    17446.864   -32142.295   -1795.6495    86278.536    18198.484    7314.4151   -20845.118    83.748857 
   35600    1194.4392   -105.14292    1.0807537   -104.06217   -22558.372    4.4000115    4.4000115    4.4000115   -22558.372    32054.544   -64552.397   -35177.263    2907.2715     5893.705   -15853.332    85.184667 
   35700    1702.3317    -105.5301    1.5403055    -103.9898   -12779.405    4.3969315    4.3969315    4.3969315   -12779.405    50598.966   -24952.452   -63984.729    8382.0113    1382.4918    726.73584    85.005906 
   35800    1519.8207   -105.34513    1.3751657   -103.96996   -23667.115    4.3862197    4.3862197    4.3862197   -23667.115   -38837.049   -55871.285     23706.99   -7784.8595    3638.3554    4192.7077    84.386144 
   35900    1810.8473   -105.61891    1.6384927   -103.98042    1757.6158     4.376333     4.376333     4.376333    1757.6158    11483.877    15709.819   -21920.849    12123.472   -8798.4968   -16306.158    83.816799 
   36000    1568.9937   -105.42682    1.4196584   -104.00716    12887.407    4.3800885    4.3800885    4.3800885    12887.407   -6256.4044    8445.7629    36472.864   -5216.0768   -5417.9225    11885.314    84.032763 
   36100    1523.6012   -105.39775    1.3785864   -104.01916   -19480.265    4.3887272    4.3887272    4.3887272   -19480.265    16263.693     -50824.9   -23879.587    -4279.926    5801.9993    4232.3824    84.530952 
   36200     1631.692   -105.49481    1.4763892   -104.01842     23088.88    4.3853362    4.3853362    4.3853362     23088.88   -23072.968   -19865.557    112205.17    1271.9445    -20190.41    3269.6056    84.335164 
   36300    1141.7053   -105.06845     1.033039   -104.03541    15710.626    4.3785642    4.3785642    4.3785642    15710.626   -2730.0696    11255.046    38606.903   -8502.4414    5503.2461    20265.307    83.945063 
   36400       1835.6   -105.68952    1.6608895   -104.02863    2146.1259    4.3720785    4.3720785    4.3720785    2146.1259   -16353.088    21515.896      1275.57    2062.4295    4081.0321    10884.943     83.57259 
   36500    1450.4455   -105.35466    1.3123935   -104.04227    20728.771     4.375615     4.375615     4.375615    20728.771   -20964.273   -10026.073     93176.66   -5554.5034   -16520.638    6919.9521    83.775554 
   36600    1590.9453   -105.48143    1.4395208   -104.04191   -16970.372    4.3924111    4.3924111    4.3924111   -16970.372   -8123.6854   -16195.576   -26591.854    15148.371    20455.962    6683.0713    84.743994 
   36700    1279.6747   -105.18808    1.1578765    -104.0302   -7050.8704    4.3828983    4.3828983    4.3828983   -7050.8704   -77743.342   -7833.5164    64424.247   -7762.8832    1761.4787   -2385.8638    84.194586 
   36800    1918.5815   -105.76183    1.7359729   -104.02586   -3010.9344     4.351353     4.351353     4.351353   -3010.9344    15190.938   -23788.183   -435.55845    5321.6485   -2470.7511    32040.511    82.389706 
   36900    1985.8957   -105.85622    1.7968802   -104.05934    5333.4189    4.3531014    4.3531014    4.3531014    5333.4189   -25919.959    9443.0396    32477.176   -15737.365   -8717.5855   -5625.1579    82.489058 
   37000    1634.3994   -105.56712    1.4788389   -104.08828   -18953.312    4.3819886    4.3819886    4.3819886   -18953.312   -55512.582   -57543.302    56195.949   -3278.6643    -5201.312   -908.72209    84.142174 
   37100    1496.4478   -105.41012    1.3540174   -104.05611   -25322.222    4.3891918    4.3891918    4.3891918   -25322.222    -11574.52   -32433.681   -31958.464   -670.60022    4026.0504    1752.5836    84.557803 
   37200    1689.5998   -105.53672    1.5287854   -104.00794     33146.51    4.3575445    4.3575445    4.3575445     33146.51    10365.583    27277.855    61796.093   -1953.8635   -6616.9428    22142.582    82.741903 
   37300    1563.6183   -105.43291    1.4147947   -104.01812     6449.613     4.353194     4.353194     4.353194     6449.613   -6560.8304   -6309.6777    32219.347   -6064.6799   -14221.642    2228.9372    82.494326 
   37400     1668.061   -105.55297    1.5092966   -104.04367   -29252.278    4.3668706    4.3668706    4.3668706   -29252.278   -55640.375   -47933.382    15816.923    -15497.64    71.271814   -22803.108    83.274295 
   37500    1762.3023   -105.63839    1.5945681   -104.04382    27432.134    4.3690628    4.3690628    4.3690628    27432.134   -27556.202    61628.035    48224.568     18670.01   -5970.3595    33685.544    83.399774 
   37600    1140.9006   -105.09078    1.0323109   -104.05847   -41040.847    4.3817095    4.3817095    4.3817095   -41040.847   -52104.672   -88402.563    17384.696   -21698.778    4571.1718   -29958.716    84.126097 
   37700    1848.8659   -105.72288    1.6728927   -104.04999   -6925.9904    4.3558028    4.3558028    4.3558028   -6925.9904   -33579.395   -10068.013    22869.437    11082.609    893.50438   -10863.355    82.642726 
   37800    1547.9511   -105.46381    1.4006187    -104.0632    18705.741    4.3532511    4.3532511    4.3532511    18705.741   -10391.221   -208.34005    66716.783    -2149.755   -2685.5417   -5447.5053     82.49757 
   37900    1663.0749   -105.56303    1.5047851   -104.05825   -26602.259    4.3729981    4.3729981    4.3729981   -26602.259   -49998.426    125.19144   -29933.542    12320.801    2241.4335   -16700.517    83.625335 
   38000    1851.5415   -105.70097    1.6753136   -104.02566   -13380.447    4.3836281    4.3836281    4.3836281   -13380.447   -32550.749   -25125.946    17535.354    1403.8832    13188.672    11891.722    84.236652 
   38100    1653.8752   -105.51435     1.496461   -104.01789   -8789.8558    4.3817348    4.3817348    4.3817348   -8789.8558   -20456.578    23941.593   -29854.583    21694.333    5511.3273    6997.1301    84.127554 
   38200    1780.8376   -105.62523    1.6113393   -104.01389   -2819.9135    4.3759603    4.3759603    4.3759603   -2819.9135   -9281.3376   -5882.4445    6704.0417    27931.288    15022.565    9295.5721    83.795388 
   38300    1634.6199   -105.50422    1.4790384   -104.02518   -15017.978    4.3781089    4.3781089    4.3781089   -15017.978    -5914.111    11445.271   -50585.095   -10110.702    6287.5794    17385.387    83.918879 
   38400    1307.2483   -105.21095    1.1828257   -104.02812     15794.22    4.3701784    4.3701784    4.3701784     15794.22   -9550.8295    50533.813    6399.6777    26018.792    6691.3282   -5592.0379    83.463672 
   38500    2457.0376   -106.24464    2.2231793   -104.02146   -24091.485    4.3704186    4.3704186    4.3704186   -24091.485   -9981.1467   -56735.045   -5558.2638    -18484.02   -14084.013   -4785.4979     83.47744 
   38600    1050.6659   -104.99068   0.95066461   -104.04002    -30819.06    4.3778612    4.3778612    4.3778612    -30819.06   -14245.292   -42214.264   -35997.624    8063.7076    4760.9866   -17684.598    83.904634 
   38700    2587.2536   -106.34329    2.3410015   -104.00229   -27457.406    4.3738321    4.3738321    4.3738321   -27457.406   -30218.594   -9129.9618   -43023.663    8067.3235    5064.8117   -17036.805    83.673187 
   38800    1555.4649   -105.41603    1.4074173   -104.00861   -13645.715    4.3826337    4.3826337    4.3826337   -13645.715    11398.209   -35546.786   -16788.567    10714.175    4534.8982   -8134.1099    84.179342 
   38900    977.23491   -104.90405   0.88422268   -104.01982   -20741.507    4.3793944    4.3793944    4.3793944   -20741.507   -23935.235    8386.5814   -46675.867    14828.773   -1857.9622   -29615.862    83.992825 
   39000    2476.0954    -106.2412    2.2404231   -104.00077     2493.318    4.3577813    4.3577813    4.3577813     2493.318     3036.873    31563.647   -27120.566   -651.28692    984.43716    7346.0596    82.755391 
   39100    1101.5986   -105.03819   0.99674957   -104.04144    4295.1276    4.3636464    4.3636464    4.3636464    4295.1276   -6852.1699     16509.72    3227.8322    455.10038   -10508.541   -7405.3625    83.089978 
   39200    1374.0832   -105.29064    1.2432993   -104.04734   -12291.548    4.3852915    4.3852915    4.3852915   -12291.548    20031.478   -32778.824   -24127.298   -12250.442    4873.7534    310.35298    84.332583 
   39300    2285.6312   -106.08393    2.0680871   -104.01584   -32785.583    4.3827312    4.3827312    4.3827312   -32785.583   -32438.509   -63151.066   -2767.1736    27225.983   -204.97533    5238.9425    84.184961 
   39400     1006.338   -104.93191   0.91055581   -104.02136   -13696.927     4.375564     4.375564     4.375564   -13696.927    22926.751   -65905.665    1888.1321   -3194.6037    9621.8908   -11724.437    83.772626 
   39500    1539.3433   -105.41796    1.3928302   -104.02513    23044.502    4.3722254    4.3722254    4.3722254    23044.502    3989.5281    66763.533    -1619.555   -46516.768    4338.6824    22094.536    83.581012 
   39600    1801.4096   -105.68361    1.6299533   -104.05366   -34493.109    4.3867547    4.3867547    4.3867547   -34493.109   -12046.877   -54608.636   -36823.814    19178.986    12482.463    2708.8009    84.417026 
   39700    1075.8038   -105.02124    0.9734099   -104.04783    -7087.901    4.3869529    4.3869529    4.3869529    -7087.901    5114.3284   -26941.437    563.40519   -25627.833    20347.719    7187.5263    84.428472 
   39800    1473.5505   -105.34586    1.3332995   -104.01256    39587.173    4.3606193    4.3606193    4.3606193    39587.173    41034.477    18363.843      59363.2   -5965.2743   -3704.5628   -17325.258    82.917178 
   39900    1393.9565   -105.30236    1.2612811   -104.04108    1394.1335    4.3618155    4.3618155    4.3618155    1394.1335   -44459.695   -57403.905       106046    8556.2213    15096.951   -2074.9164    82.985433 
   40000    1303.0658   -105.23409    1.1790414   -104.05505    5519.9688    4.3890961    4.3890961    4.3890961    5519.9688    9827.7511   -27725.487    34457.642   -14204.827   -9430.6275    20872.183    84.552267 
   40100    1272.8479    -105.1786    1.1516995    -104.0269    18282.318    4.3914474    4.3914474    4.3914474    18282.318    55057.333   -44186.598    43976.219   -3220.8511    2446.4679    -4209.325    84.688228 
   40200    1809.3288    -105.6358    1.6371187   -103.99868   -7084.7578    4.3835687    4.3835687    4.3835687   -7084.7578   -34912.324    10007.048    3651.0022   -10379.871    14078.884    12831.829    84.233232 
   40300     2069.206   -105.87627     1.872261   -104.00401   -17467.696    4.3602238    4.3602238    4.3602238   -17467.696   -2335.4042   -50026.475   -41.207282    9242.0567    8788.3267   -18601.447     82.89462 
   40400    1396.4668   -105.29322    1.2635525   -104.02966     44006.41    4.3488189    4.3488189    4.3488189     44006.41    68064.539   -9645.8356    73600.525   -9976.4888   -17077.281    14136.176    82.245846 
   40500    1198.9813   -105.16012    1.0848635   -104.07526    7563.2889    4.3794372    4.3794372    4.3794372    7563.2889   -33897.805     6161.236    50426.436   -3273.6319    -7761.173     17686.19    83.995284 
   40600    1926.4616   -105.77573    1.7431029   -104.03263   -25510.152     4.384715     4.384715     4.384715   -25510.152   -787.80823   -69310.974   -6431.6738     6876.529   -9847.5402    8409.3415    84.299328 
   40700    1351.6551    -105.2426    1.2230059   -104.01959   -18543.542    4.3780302    4.3780302    4.3780302   -18543.542    59408.394    -68568.21   -46470.809    8700.6223    3448.8747    28820.185    83.914356 
   40800    2061.7843   -105.88294    1.8655458   -104.01739   -15923.457    4.3654897    4.3654897    4.3654897   -15923.457    8750.5251   -33758.041   -22762.855   -8844.9952    22894.254   -11226.094    83.195322 
   40900    1521.0336   -105.41706    1.3762631    -104.0408    24100.862    4.3672776    4.3672776    4.3672776    24100.862    119681.55   -23054.095   -24324.872    7981.2522    2498.5352    14970.318    83.297581 
   41000     1576.856   -105.47434    1.4267725   -104.04757    15682.854    4.3740312    4.3740312    4.3740312    15682.854    39119.283    6504.5502    1424.7277   -4848.3724    15232.388   -8550.0978    83.684614 
   41100    1761.5937   -105.63844     1.593927   -104.04451   -5466.3215    4.3752222    4.3752222    4.3752222   -5466.3215   -16935.485   -63100.915    63637.436   -1418.7746    15707.539     21835.95    83.752996 
   41200      1620.05   -105.49247    1.4658553   -104.02661    17447.559    4.3751511    4.3751511    4.3751511    17447.559     13453.86   -45900.222     84789.04   -11471.005    18252.125    13015.168    83.748909 
   41300    1466.8152   -105.35485    1.3272052   -104.02765   -15499.789    4.3807615    4.3807615    4.3807615   -15499.789   -36082.404   -35523.261    25106.298    -6727.074   -2262.2872    11317.955    84.071507 
   41400     1218.992   -105.12372    1.1029696   -104.02075    14291.765    4.3903875    4.3903875    4.3903875    14291.765    940.30143    23049.489    18885.505   -5962.7819    6861.1321    38786.047    84.626925 
   41500    1263.9816   -105.14699    1.1436772   -104.00332     20040.69    4.3825827    4.3825827    4.3825827     20040.69   -1839.4093    2352.3991     59609.08   -20131.391    2717.3565    24136.275    84.176401 
   41600    1546.7799   -105.40663    1.3995589   -104.00707    6735.9028    4.3832877    4.3832877    4.3832877    6735.9028    7419.5476   -39712.204    52500.365    2790.8756   -12191.515    12945.363    84.217032 
   41700     2273.927   -106.06533    2.0574969   -104.00783   -31405.543    4.3964365    4.3964365    4.3964365   -31405.543    -34291.97   -38734.998   -21189.661     -2569.74    21017.647    1716.9373    84.977198 
   41800    1537.8708   -105.39262    1.3914978   -104.00112   -30257.715    4.3955193    4.3955193    4.3955193   -30257.715   -13365.143   -53412.881   -23995.123    7735.4933   -21208.191    2858.3557    84.924023 
   41900     1833.432   -105.66175    1.6589278   -104.00283    366.70733    4.3639712    4.3639712    4.3639712    366.70733    -11193.67   -33038.229     45332.02    -6580.437    9233.0424    3645.9184    83.108533 
   42000    1980.9905   -105.82863    1.7924418   -104.03619    14044.799     4.343745     4.343745     4.343745    14044.799    25369.669    14024.077    2740.6519   -4254.1983    12318.446   -10373.729    81.958307 
   42100      1324.94   -105.27625    1.1988335   -104.07741    15009.639    4.3704571    4.3704571    4.3704571    15009.639    20092.046   -8073.6266    33010.497     17806.14   -3440.2246   -5972.2919    83.479641 
   42200    1381.5419   -105.28538    1.2500481   -104.03533   -20650.037    4.4071732    4.4071732    4.4071732   -20650.037   -13924.006   -30445.893   -17580.213   -12368.021    6850.6382   -4216.0566    85.601298 
   42300    1691.5135   -105.50476    1.5305169   -103.97424   -26339.449    4.3900172    4.3900172    4.3900172   -26339.449   -19701.878   -49167.982   -10148.487    5352.7672   -18535.468    -9007.708    84.605512 
   42400    1867.2681   -105.64948    1.6895434   -103.95994    4099.7297    4.3590331    4.3590331    4.3590331    4099.7297    47567.776   -45387.863    10119.276    5606.4428    12215.984   -10840.413    82.826729 
   42500    1852.6443   -105.68724    1.6763115   -104.01092   -19685.186    4.3620771    4.3620771    4.3620771   -19685.186   -11551.758    -36917.81   -10585.989    4654.5919   -16048.385   -4759.0787    83.000368 
   42600     2348.005    -106.1399    2.1245243   -104.01537   -34279.985    4.3762608    4.3762608    4.3762608   -34279.985   -15694.177   -47254.867    -39890.91    1153.8206   -11475.958   -18263.172    83.812651 
   42700    1450.3154   -105.32437    1.3122759    -104.0121   -29617.828    4.3994941    4.3994941    4.3994941   -29617.828   -36138.553   -51671.432   -1043.4986     3211.281    8244.4758   -3998.8626    85.154618 
   42800    1322.8224    -105.1916    1.1969175   -103.99468   -38014.485    4.3860068    4.3860068    4.3860068   -38014.485   -46015.962   -12835.211   -55192.281    20554.501   -46421.932    14584.693    84.373856 
   42900    2294.7387   -106.04776    2.0763278   -103.97143    16362.595    4.3317881    4.3317881    4.3317881    16362.595    49082.425    30876.909   -30871.549   -2685.6938    13981.862   -10949.189    81.283355 
   43000    1495.9675    -105.3986    1.3535829   -104.04502   -1356.6524    4.3415668    4.3415668    4.3415668   -1356.6524    17001.189     17773.73   -38844.875    3163.2522    -33240.99    3602.7114    81.835073 
   43100    1215.3573   -105.16473    1.0996808   -104.06504   -19701.472    4.3808242    4.3808242    4.3808242   -19701.472   -5636.9801   -11782.041   -41685.393   -16081.254    2094.6801    15288.437    84.075115 
   43200    1466.9408   -105.36632    1.3273188     -104.039   -749.63623    4.3868479    4.3868479    4.3868479   -749.63623    15263.491      655.666   -18168.066    2938.3615     22474.98   -14848.952    84.422406 
   43300    1359.0372   -105.25428    1.2296854   -104.02459   -2134.8076    4.3631149    4.3631149    4.3631149   -2134.8076    11881.897   -20679.221     2392.901    1933.9597    -12541.29    23004.445     83.05962 
   43400     1469.182   -105.35163    1.3293467   -104.02229    27264.555     4.354111     4.354111     4.354111    27264.555    97515.876   -44910.015    29187.805   -11921.428    13971.556   -20467.251    82.546468 
   43500    1773.1145   -105.64219    1.6043513   -104.03784   -32825.972    4.3608428    4.3608428    4.3608428   -32825.972   -9327.8015   -22775.656   -66374.458    9900.7918   -4930.7541    26163.569    82.929929 
   43600    1503.1819    -105.4031    1.3601106   -104.04299   -19984.782    4.3625112    4.3625112    4.3625112   -19984.782   -8509.2773   -28444.003   -23001.065   -16325.117   -11195.662    3544.7922    83.025152 
   43700    1868.8529   -105.72922    1.6909774   -104.03824    -28955.04    4.3694982    4.3694982    4.3694982    -28955.04     19025.85   -69087.673   -36803.297     7864.868     10089.92    123.25389     83.42471 
   43800    1484.2322   -105.38008    1.3429645   -104.03711   -27230.765    4.3642997    4.3642997    4.3642997   -27230.765   -31881.827   -37698.784   -12111.684    5922.4216    -25727.09    10518.548    83.127306 
   43900    1405.9043    -105.3084    1.2720918   -104.03631    27640.455    4.3492042    4.3492042    4.3492042    27640.455    81920.461    6948.4842   -5947.5815   -30099.234    11347.474   -13807.321    82.267708 
   44000    1977.0683   -105.83805     1.788893   -104.04916   -10908.323    4.3487975    4.3487975    4.3487975   -10908.323    21636.379   -48399.534   -5961.8148     7515.106    1070.7505     25875.17    82.244632 
   44100    1023.0864   -104.99008   0.92571005   -104.06437     24469.65    4.3550596    4.3550596    4.3550596     24469.65    65913.174    22053.977   -14558.202   -28485.264    559.45834   -7677.4386    82.600431 
   44200    2270.0216   -106.10522    2.0539632   -104.05126   -23868.635    4.3757737    4.3757737    4.3757737   -23868.635   -10531.674   -31169.104   -29905.127    977.79519    10840.473    4070.9708    83.784669 
   44300    1653.5504   -105.52065    1.4961671   -104.02448   -24842.456    4.3771324    4.3771324    4.3771324   -24842.456    11168.544   -48850.167   -36845.746   -28658.123   -11201.519    2445.4003    83.862741 
   44400    1166.9066   -105.07536    1.0558416   -104.01952    12023.596    4.3427549    4.3427549    4.3427549    12023.596    42401.513    16242.054    -22572.78   -25686.379   -5732.3778   -5582.5004    81.902271 
   44500    1966.2334   -105.81583    1.7790893   -104.03674    45973.401    4.3212184    4.3212184    4.3212184    45973.401    111544.39    34558.524   -8182.7106     3615.129    12312.615   -3886.6034    80.689802 
   44600    1399.9394   -105.36486    1.2666946   -104.09816   -28086.129    4.3473264    4.3473264    4.3473264   -28086.129   -7315.1238   -48699.805    -28243.46   -48489.691   -6532.1501    -12933.53    82.161196 
   44700    1244.6414   -105.19845    1.1261777   -104.07227   -28775.391    4.3672237    4.3672237    4.3672237   -28775.391    19477.995   -47987.503   -57816.666    7347.5271     14629.95   -629.22436    83.294497 
   44800    2157.0113   -105.99802    1.9517092   -104.04631     -15625.6    4.3466071    4.3466071    4.3466071     -15625.6    9683.2205   -20390.437   -36169.584   -15834.775    7768.6778    -3595.615    82.120416 
   44900    1520.9888   -105.43775    1.3762227   -104.06153   -2172.3527     4.337007     4.337007     4.337007   -2172.3527    14554.765    1407.2631   -22479.086   -23503.786   -1618.4016   -7771.9321    81.577495 
   45000    1442.9568   -105.37901    1.3056176   -104.07339    585.47539    4.3371257    4.3371257    4.3371257    585.47539    19671.998    31196.744   -49112.316    8523.0211     16660.99    3581.4604    81.584192 
   45100    1530.2536   -105.45896    1.3846056   -104.07436   -6935.9983    4.3612281    4.3612281    4.3612281   -6935.9983    59710.322   -37701.773   -42816.544   -14868.473   -3313.6263   -1561.6769    82.951914 
   45200    1956.7587   -105.82996    1.7705164   -104.05945   -31444.292    4.3531521    4.3531521    4.3531521   -31444.292   -40157.733   -542.63389   -53632.508     23003.98    3541.2751    7609.6079    82.491943 
   45300    977.36184    -104.9453   0.88433754   -104.06096    16333.064    4.3374275    4.3374275    4.3374275    16333.064    67078.444    20466.706   -38545.957   -7516.4039   -6549.6963   -13995.447    81.601227 
   45400    1743.4779   -105.63191    1.5775354   -104.05437     7522.956    4.3430542    4.3430542    4.3430542     7522.956    64749.398   -4662.2057   -37518.325     24343.56    6038.5943    12314.841    81.919211 
   45500      1766.41   -105.66917    1.5982849   -104.07088   -24887.023    4.3471473    4.3471473    4.3471473   -24887.023   -22943.311    28849.442   -80567.199   -7554.1059   -395.38869     1264.469    82.151041 
   45600    1425.9212    -105.3549    1.2902035   -104.06469    14404.881    4.3501722    4.3501722    4.3501722    14404.881    70336.105    26423.139     -53544.6    15135.081   -4157.9098    1690.4249    82.322648 
   45700    1541.7353   -105.46097    1.3949945   -104.06598    3659.7668    4.3513266    4.3513266    4.3513266    3659.7668    71233.131     -28366.5    -31887.33    14676.404    3781.4572    791.66279    82.388208 
   45800    1334.4479   -105.28504    1.2074365    -104.0776   -21905.142     4.348686     4.348686     4.348686   -21905.142   -24246.525     48284.47    -89753.37    539.95046   -2645.1941    7855.1133    82.238304 
   45900    1765.0623   -105.66799    1.5970654   -104.07092    -79.99716    4.3283132    4.3283132    4.3283132    -79.99716    76002.333   -28206.601   -48035.724    8961.7372    7828.5594    20321.744    81.087899 
   46000    1655.1407   -105.57652    1.4976061   -104.07892    3993.0588    4.3284478    4.3284478    4.3284478    3993.0588    9089.2327    27424.091   -24534.147    8870.8285   -2054.9331   -6832.7042    81.095462 
   46100     1443.903   -105.38198    1.3064738   -104.07551   -36309.029    4.3491907    4.3491907    4.3491907   -36309.029   -24546.138    9146.2334   -93527.183    5961.0526   -2476.8771    28250.512     82.26694 
   46200    1552.7872   -105.45924    1.4049944   -104.05424   -2188.7051    4.3441932    4.3441932    4.3441932   -2188.7051   -25789.689    38894.263    -19670.69    -11196.95    2051.1311   -13634.584     81.98368 
   46300    1559.7866   -105.46738    1.4113277   -104.05606    11565.823    4.3293989    4.3293989    4.3293989    11565.823   -42328.446    105856.02   -28830.106     17306.02   -13284.865    7350.5091    81.148933 
   46400    1842.4688   -105.74335    1.6671045   -104.07624    36584.777    4.3304377    4.3304377    4.3304377    36584.777        25402    124512.76   -40160.426   -17099.692    6070.0617     4593.374     81.20736 
   46500    1228.4661   -105.23703     1.111542   -104.12549   -42883.443    4.3595819    4.3595819    4.3595819   -42883.443   -86428.352    2915.7407   -45137.717    10411.208   -5823.9628   -16313.817    82.858012 
   46600    2112.9575   -105.99477    1.9118484   -104.08292   -14100.789    4.3691232    4.3691232    4.3691232   -14100.789   -30591.815    33230.951   -44941.504   -5976.3182    2540.8305   -1081.4844    83.403231 
   46700    1622.4695   -105.53513    1.4680445   -104.06708    -13633.47    4.3595824    4.3595824    4.3595824    -13633.47   -4133.0876    11127.735   -47895.058    11414.616   -13942.767   -5005.2293    82.858042 
   46800     979.6257   -104.95759   0.88638592    -104.0712    17164.585    4.3457383    4.3457383    4.3457383    17164.585   -45883.257    104192.69   -6815.6745    28593.755    7408.6857   -6119.2216    82.071185 
   46900    1837.4598   -105.74683    1.6625723   -104.08425    35477.138    4.3412803    4.3412803    4.3412803    35477.138    34151.998    88325.741   -16046.325   -1549.1049   -4363.8506    -2441.909    81.818873 
   47000    1937.1196   -105.86637    1.7527466   -104.11362   -41135.077    4.3627574    4.3627574    4.3627574   -41135.077   -64178.385    -21364.31   -37862.537    26069.347    2842.5227    657.22733    83.039206 
   47100    855.60791   -104.86209   0.77417201   -104.08791      14671.3    4.3709148    4.3709148    4.3709148      14671.3   -2345.5309    92060.539   -45701.107     13821.54   -6519.7401    17438.817    83.505876 
   47200    2113.5148   -105.96289    1.9123526   -104.05054   -17411.321    4.3518358    4.3518358    4.3518358   -17411.321   -9350.5112    8548.8415   -51432.292   -4392.4034   -5883.7275    11467.423    82.417134 
   47300    1902.4843   -105.78116    1.7214078   -104.05975   -7092.1891    4.3458192    4.3458192    4.3458192   -7092.1891   -19623.424    18694.573   -20347.716    3935.9686     7492.631   -4657.4663    82.075767 
   47400    1011.3622   -105.01247    0.9151018   -104.09737    19202.526    4.3537817    4.3537817    4.3537817    19202.526    40628.602    77884.149   -60905.174   -4739.0489   -2444.1907    21189.826    82.527738 
   47500    1968.1726   -105.87562    1.7808439   -104.09477    -29134.33    4.3696668    4.3696668    4.3696668    -29134.33   -48835.004    17005.863    -55573.85   -15519.899    15191.496   -9077.7839    83.434366 
   47600    1519.0011   -105.44929    1.3744242   -104.07487    4159.2432    4.3662394    4.3662394    4.3662394    4159.2432   -7064.8755    63660.715    -44118.11    20884.772    1839.2602    13516.739    83.238188 
   47700    1498.4891     -105.424    1.3558644   -104.06813   -16379.827    4.3510243    4.3510243    4.3510243   -16379.827   -4648.8168    17924.545   -62415.208    -6262.545   -275.63675   -23247.466    82.371038 
   47800    1521.0067   -105.45134    1.3762388    -104.0751    33631.215    4.3525718    4.3525718    4.3525718    33631.215    15256.682    123230.91   -37593.944     19913.22    7444.1402    11905.154    82.458953 
   47900    1684.6364   -105.60277    1.5242944   -104.07847   -16036.431    4.3741667    4.3741667    4.3741667   -16036.431    36080.159   -27838.914    -56350.54    18669.181     696.4694    7662.4172    83.692392 
   48000     1207.549   -105.15851    1.0926158    -104.0659   -8695.8449    4.3793657    4.3793657    4.3793657   -8695.8449   -30650.325     64375.78    -59812.99   -10801.695    3853.5918   -12476.131     83.99117 
   48100     2593.277   -106.38428    2.3464515   -104.03783   -12293.389    4.3578843    4.3578843    4.3578843   -12293.389    15967.196   -5960.9872   -46886.375    12020.456    1079.7729    14886.443    82.761261 
   48200    967.81687   -104.93818   0.87570104   -104.06248    41773.438    4.3453074    4.3453074    4.3453074    41773.438    68744.719    100094.61   -43519.018   -5522.1592    11918.324   -14522.273    82.046776 
   48300    2156.7807   -106.03401    1.9515005   -104.08251   -35327.615    4.3755675    4.3755675    4.3755675   -35327.615    -30554.17   -28054.117   -47374.558    11821.071   -794.56161    1300.4542    83.772827 
   48400    1564.7603   -105.46281     1.415828   -104.04698    966.45481    4.3922112    4.3922112    4.3922112    966.45481    52822.966    27047.568   -76971.169     28130.56    11022.746   -9085.0405    84.732425 
   48500    1292.7126   -105.18508    1.1696735   -104.01541    5815.3296    4.3731139    4.3731139    4.3731139    5815.3296    53843.871    3940.3049   -40338.187   -2460.0493   -1676.0842   -8382.4208    83.631977 
   48600    1680.6309   -105.53603    1.5206701   -104.01536    21012.935    4.3547353    4.3547353    4.3547353    21012.935    31988.794    29916.668    1133.3439    13214.745   -2781.5857   -3080.2817    82.581978 
   48700    1590.1574   -105.48641    1.4388079    -104.0476    22854.073    4.3621493    4.3621493    4.3621493    22854.073    46558.302    59773.864   -37769.948     18460.17    16203.947   -9488.2846    83.004488 
   48800    1355.3849   -105.29607    1.2263807   -104.06969   -24290.889    4.3849121    4.3849121    4.3849121   -24290.889   -38061.518   -1762.3333   -33048.817   -32643.572   -4484.0126   -7313.2514    84.310695 
   48900    1697.8483   -105.57289    1.5362488   -104.03664   -4375.8308    4.3837036    4.3837036    4.3837036   -4375.8308   -36879.683    89556.126   -65803.935   -5586.0386   -709.53955    -12349.43    84.241007 
   49000    1892.4316   -105.73369    1.7123119   -104.02138   -44830.285    4.3756756    4.3756756    4.3756756   -44830.285   -44163.176   -33967.492   -56360.186   -8149.3202   -9256.8778    -11638.43    83.779035 
   49100    1798.9322   -105.64761    1.6277117    -104.0199    10394.604    4.3767517    4.3767517    4.3767517    10394.604   -32669.435    83282.188   -19428.942    5371.0362    925.72852    3048.6095    83.840863 
   49200    1492.3383   -105.39151     1.350299   -104.04121   -8264.7273    4.3737228    4.3737228    4.3737228   -8264.7273   -27263.717    26513.702   -24044.167   -12724.478    8341.0571    6059.2414    83.666916 
   49300    1871.3508   -105.75608    1.6932376   -104.06285   -5871.9399    4.3658424    4.3658424    4.3658424   -5871.9399   -30172.688    34899.183   -22342.315    2355.8927   -6168.8959    682.19578    83.215488 
   49400    1519.0116   -105.44192    1.3744337   -104.06749   -3799.3406    4.3825585    4.3825585    4.3825585   -3799.3406   -8074.4045    28592.561   -31916.178    -4825.297    17877.639   -15860.405    84.175006 
   49500    1134.4901   -105.08103    1.0265105   -104.05452   -15836.592    4.3751934    4.3751934    4.3751934   -15836.592   -12359.209    -42722.47    7571.9025   -15688.161   -1978.7117   -15400.446    83.751343 
   49600     1975.793   -105.80848     1.787739   -104.02074    23604.129    4.3666762    4.3666762    4.3666762    23604.129    42619.443    47896.657   -19703.711    16088.326    18473.667    13970.883    83.263174 
   49700    1516.8964   -105.40022    1.3725197    -104.0277   -48601.529    4.3838689    4.3838689    4.3838689   -48601.529    -50064.45   -60135.309   -35604.828   -50796.899    11218.827   -14430.423    84.250536 
   49800    1385.4668   -105.26646    1.2535995   -104.01286    21685.446    4.3719622    4.3719622    4.3719622    21685.446     16918.16    63269.157   -15130.978   -9005.4552    -12480.99    7020.4841    83.565917 
   49900    1683.1068   -105.53251    1.5229104    -104.0096    34091.991    4.3603844    4.3603844    4.3603844    34091.991    41584.646    62319.977   -1628.6488     -44929.1    2166.2097   -10355.288    82.903777 
   50000    1169.7792   -105.09771    1.0584408   -104.03927    191.42731    4.3823302    4.3823302    4.3823302    191.42731   -29598.374    63798.892   -33626.235   -16482.751    2160.9061   -19375.335    84.161854 
   50100    2153.1164   -105.94972     1.948185   -104.00153    -23466.42    4.3905861    4.3905861    4.3905861    -23466.42   -3498.6482   -23708.149   -43192.462   -11854.346    17973.658   -6782.8818    84.638411 
   50200    1325.3099   -105.20291    1.1991683   -104.00374    10371.936    4.3699738    4.3699738    4.3699738    10371.936    6718.7873     64769.29    -40372.27   -18284.958   -6103.7787   -23807.263    83.451949 
   50300    1700.2948   -105.55532    1.5384625   -104.01686    17648.174    4.3676741    4.3676741    4.3676741    17648.174    17393.959    40991.172   -5440.6087     31234.17    8719.9299   -6448.3652    83.320274 
   50400    1091.6399    -105.0313    0.9877387   -104.04356    11793.383    4.3748109    4.3748109    4.3748109    11793.383    60696.435   -16143.678   -9172.6067   -18218.122   -12179.545    1619.6246    83.729378 
   50500    1388.2372   -105.29388    1.2561062   -104.03778    10144.395    4.3796405    4.3796405    4.3796405    10144.395   -10852.544    52012.636   -10726.907   -17038.808   -1291.8681    28042.288    84.006983 
   50600    1889.8395    -105.7247    1.7099665   -104.01473    1070.7008    4.3762888    4.3762888    4.3762888    1070.7008    56420.279   -13547.244   -39660.932    -3310.788   -10086.925    1957.7258     83.81426 
   50700    1545.4213   -105.42276    1.3983296   -104.02443   -43025.063    4.3731237    4.3731237    4.3731237   -43025.063   -43896.076   -32884.141   -52294.971   -31915.737   -17556.716   -10120.603     83.63254 
   50800    1546.5116   -105.41824    1.3993162   -104.01892    14064.465    4.3632631    4.3632631    4.3632631    14064.465   -5540.0928    49015.329   -1281.8406    16333.403     11606.65      5894.59    83.068088 
   50900    1970.3353    -105.8192    1.7828008    -104.0364    1271.3167    4.3657128    4.3657128    4.3657128    1271.3167    2528.7756    -2502.226    3787.4005   -14181.657   -17631.713    -20333.83    83.208078 
   51000      1134.05   -105.08338    1.0261122   -104.05726   -1093.1834    4.3859771    4.3859771    4.3859771   -1093.1834   -41860.988    47428.177   -8846.7397    11477.201    7971.5073   -1134.1978    84.372145 
   51100    1488.5589   -105.36983    1.3468794   -104.02295    13403.189    4.3785578    4.3785578    4.3785578    13403.189    26525.656   -42377.835    56061.747   -15060.592    6637.3049    9060.7823    83.944695 
   51200    1866.5927   -105.71161    1.6889323   -104.02268   -26566.526    4.3664028    4.3664028    4.3664028   -26566.526      11359.1   -44072.196   -46986.483   -2873.8369    277.21934   -27075.671    83.247539 
   51300    1597.5316    -105.4848    1.4454802   -104.03931   -5914.0689    4.3746606    4.3746606    4.3746606   -5914.0689   -11754.961   -24330.019    18342.773    4799.4754    2534.2499    10126.279    83.720749 
   51400    1466.7529   -105.35159    1.3271489   -104.02444   -5028.2133    4.3794955    4.3794955    4.3794955   -5028.2133    22246.204    -47483.37    10152.526   -30013.832    886.26954   -11651.193    83.998642 
   51500    1699.5857   -105.56222    1.5378208   -104.02439   -12639.088    4.3674782    4.3674782    4.3674782   -12639.088   -28692.811     12981.89   -22206.342   -4623.3494   -11290.252    3593.9473    83.309061 
   51600     1882.272   -105.73992    1.7031193    -104.0368    18090.585     4.360031     4.360031     4.360031    18090.585    84910.945   -36785.667    6146.4774   -7706.4623     18993.62   -8904.1865    82.883624 
   51700     1394.246   -105.33558    1.2615431   -104.07404   -18608.489    4.3870016    4.3870016    4.3870016   -18608.489    16866.256     -56198.7   -16493.022    770.00898   -30473.525   -7232.9512    84.431281 
   51800    1454.3579   -105.35585    1.3159336   -104.03992   -40319.887    4.3909531    4.3909531    4.3909531   -40319.887   -34921.144   -50262.585    -35775.93   -13672.751   -31688.861    2339.6476    84.659636 
   51900    1703.2351   -105.54201    1.5411229   -104.00088    20426.829    4.3631598    4.3631598    4.3631598    20426.829   -18958.479   -14045.023    94283.989    19204.473    1666.0798   -13100.158    83.062186 
   52000    1408.7157   -105.30179    1.2746356   -104.02715    -9253.731    4.3614681    4.3614681    4.3614681    -9253.731    3230.8852   -15715.156   -15276.922   -2046.4945   -16895.495    12524.222    82.965607 
   52100    1844.3491    -105.7042    1.6688058   -104.03539    671.59374     4.364031     4.364031     4.364031    671.59374    3270.7595   -47917.176    46661.198    3561.2595    13248.691    -14019.17     83.11195 
   52200    1192.7439   -105.13318    1.0792198   -104.05396    19089.699     4.368311     4.368311     4.368311    19089.699    31938.766   -44984.551    70314.883    17729.955   -21642.821    12463.102    83.356726 
   52300    1577.9614   -105.49232    1.4277727   -104.06455   -20450.318    4.3688997    4.3688997    4.3688997   -20450.318   -37323.463   -14590.417   -9437.0755    11623.076    27675.197   -15009.304    83.390434 
   52400    1170.7683   -105.11441    1.0593357   -104.05508    24378.203    4.3549777    4.3549777    4.3549777    24378.203    69895.744   -61301.625     64540.49    40541.846   -15042.142    5718.6787    82.595769 
   52500    1993.5445   -105.85657     1.803801   -104.05277   -5408.2994    4.3616538    4.3616538    4.3616538   -5408.2994   -8441.8422   -6568.1227   -1214.9333    -10303.46    16554.608   -4823.4287    82.976207 
   52600    1548.0539   -105.46518    1.4007117   -104.06447   -31551.157    4.3638195    4.3638195    4.3638195   -31551.157   -28721.129   -67728.165    1795.8243    35127.968    17357.174   -7947.7944    83.099869 
   52700    1810.6074   -105.69392    1.6382756   -104.05564    19460.219    4.3645311    4.3645311    4.3645311    19460.219    84932.551   -36463.026    9911.1326   -3597.5179   -852.93161    12361.433    83.140525 
   52800    1212.3183   -105.15317    1.0969311   -104.05624   -2003.9122    4.3665892    4.3665892    4.3665892   -2003.9122   -21944.159   -12351.005    28283.428    8179.1366   -5934.7495   -5928.4858    83.258201 
   52900     1378.798   -105.27441    1.2475654   -104.02684    24210.771     4.367288     4.367288     4.367288    24210.771    89837.227   -31782.546    14577.633   -237.65636    -14130.08    14046.846    83.298177 
   53000    2360.5071   -106.15067    2.1358364   -104.01483   -57826.505    4.3806756    4.3806756    4.3806756   -57826.505   -39195.102   -82102.927   -52181.487    22505.372    2223.3756   -5798.6032    84.066563 
   53100    1386.7852   -105.26595    1.2547924   -104.01115   -7264.6746    4.3739483    4.3739483    4.3739483   -7264.6746    37344.333   -68723.666    9585.3096    19171.806    5690.5777    3010.3493    83.679859 
   53200    1693.7163   -105.53508    1.5325101   -104.00257    15169.292      4.36193      4.36193      4.36193    15169.292    77996.673   -42933.263    10444.465   -13959.943   -32417.523    8444.3945    82.991973 
   53300    1543.9762   -105.41849    1.3970221   -104.02147    3554.3368    4.3605804    4.3605804    4.3605804    3554.3368   -4662.6077   -18089.143    33414.761    15826.884    13356.994    7568.8937    82.914958 
   53400     1414.459   -105.31573    1.2798322    -104.0359    34809.497    4.3702428    4.3702428    4.3702428    34809.497    118837.73   -6886.5798   -7522.6565   -3214.2452   -20585.417   -2854.7368    83.467363 
   53500    1492.6475   -105.38291    1.3505788   -104.03233    7239.1195    4.3876502    4.3876502    4.3876502    7239.1195   -29984.376   -8350.1694    60051.904    12104.204   -4284.3022   -3154.0001    84.468733 
   53600    1924.1103   -105.74865    1.7409754   -104.00768   -28910.882     4.380152     4.380152     4.380152   -28910.882   -25649.183   -23339.655   -37743.809   -23644.007   -1706.2866    5409.8989    84.036419 
   53700    1271.5095   -105.15409    1.1504885   -104.00361     52798.87    4.3533857    4.3533857    4.3533857     52798.87     49786.29    66900.952    41709.368    21626.308   -26105.498   -17337.375    82.505222 
   53800    1635.3225   -105.51758    1.4796742    -104.0379    13988.977    4.3586188    4.3586188    4.3586188    13988.977    57902.288   -36521.503    20586.145   -3999.9992     10702.86    16951.164    82.803112 
   53900    1580.0525   -105.47875    1.4296647   -104.04908    3686.2132    4.3717357    4.3717357    4.3717357    3686.2132    -6776.853    42672.111   -24836.618    1276.3177   -15239.399   -14767.793    83.552931 
   54000    1770.4311   -105.64002    1.6019233    -104.0381   -8802.0471    4.3853586    4.3853586    4.3853586   -8802.0471    4985.4119   -57752.403     26360.85    6363.7062    1647.8194    5206.8178    84.336455 
   54100    1513.6138   -105.40342    1.3695496   -104.03387   -3057.8235    4.3736628    4.3736628    4.3736628   -3057.8235   -6115.7257      20362.4   -23420.145    4817.4421   -26893.642    4507.5164    83.663474 
   54200    1464.3868   -105.36005    1.3250079   -104.03504    26330.667    4.3555159    4.3555159    4.3555159    26330.667    20520.517   -12636.849    71108.334    4253.3811    -16713.17   -9316.8013    82.626395 
   54300    1848.5207   -105.72958    1.6725804     -104.057    236.71544    4.3653324    4.3653324    4.3653324    236.71544   -7794.3099    -2858.939    11363.395    -1212.464    6477.3955    10944.252    83.186328 
   54400    1418.7323   -105.33406    1.2836988   -104.05037   -10381.144    4.4002981    4.4002981    4.4002981   -10381.144    2360.0241   -69918.634    36415.179   -10883.579   -13840.801   -12429.731    85.201316 
   54500    1930.6593   -105.74225    1.7469011   -103.99535   -41279.548    4.3997155    4.3997155    4.3997155   -41279.548    27141.333   -79744.702   -71235.275    -16279.28    16034.195    11806.707     85.16748 
   54600    1227.1289   -105.09512    1.1103321   -103.98479    29906.742     4.365962     4.365962     4.365962    29906.742    32862.594   -2967.0402    59824.672     2454.784   -1043.3122   -11284.884    83.222329 
   54700    2123.3143   -105.92195    1.9212194   -104.00073   -9275.4521    4.3496747    4.3496747    4.3496747   -9275.4521    2725.4532   -32868.335    2316.5255   -16408.709    4325.8374    23390.286    82.294409 
   54800    1593.9799   -105.48723    1.4422665   -104.04496    3362.1463    4.3688625    4.3688625    4.3688625    3362.1463    14114.465    -20016.54    15988.513   -3211.5676   -2576.2743   -12296.532      83.3883 
   54900    1364.7925   -105.27943    1.2348929   -104.04454   -22459.551     4.395311     4.395311     4.395311   -22459.551   -26169.598   -18236.449   -22972.607    6232.9367   -9760.4553    4639.1237    84.911953 
   55000    2155.0353   -105.96888    1.9499212   -104.01895    -20461.18     4.376148     4.376148     4.376148    -20461.18    31896.236   -49563.029   -43716.746    -22919.94    2188.8737   -10053.995    83.806174 
   55100    1216.6315   -105.11961    1.1008338   -104.01878    38308.479    4.3503538    4.3503538    4.3503538    38308.479     66246.03   -9070.2253    57749.632   -5920.7838   -38572.898   -13448.741     82.33296 
   55200    1862.1336   -105.72787    1.6848976   -104.04297    8384.6725    4.3638779    4.3638779    4.3638779    8384.6725    22763.327    -11965.85     14356.54   -24068.217    3163.4323    7558.8015    83.103205 
   55300    1473.7254   -105.37565    1.3334578   -104.04219   -10481.414    4.3840132    4.3840132    4.3840132   -10481.414    8637.5239   -33496.992   -6584.7727    7758.5632   -6311.8642   -22701.386    84.258854 
   55400    1101.9714     -105.022   0.99708685   -104.02491    14446.441    4.3838456    4.3838456    4.3838456    14446.441     10854.21    22268.531    10216.582   -1128.6262    15428.637    8106.5396    84.249193 
   55500    1821.4071   -105.64232    1.6480474   -103.99427   -6070.7788    4.3688053    4.3688053    4.3688053   -6070.7788    8339.8079    22878.071   -49430.216    7454.9551   -6417.2474    5140.1201    83.385026 
   55600    1337.3823   -105.21432    1.2100916   -104.00423    13829.672    4.3666305    4.3666305    4.3666305    13829.672   -21621.342    84409.155   -21298.796    9204.9416   -17120.518   -26049.063     83.26056 
   55700    1491.4228   -105.35958    1.3494707   -104.01011    1249.0339    4.3761052    4.3761052    4.3761052    1249.0339   -31085.182    3992.0117    30840.272    390.90567   -2340.3718    9928.2977    83.803711 
   55800    1440.1056   -105.31543    1.3030378   -104.01239    150.24819    4.3887687    4.3887687    4.3887687    150.24819   -10215.493    69160.624   -58494.387    17863.183   -13577.652    -14653.34    84.533351 
   55900    1750.2637   -105.59372    1.5836753   -104.01004   -17443.136    4.3772895    4.3772895    4.3772895   -17443.136   -27998.922    28652.717   -52983.204    4664.6967    -5660.341    23854.205    83.871772 
   56000     2124.526     -105.931    1.9223158   -104.00869    -18652.91    4.3569293    4.3569293    4.3569293    -18652.91   -34893.005    16997.306   -38063.033   -2968.4291   -18881.863   -15827.643    82.706859 
   56100    1521.3216   -105.40212    1.3765238    -104.0256    24095.108    4.3555658    4.3555658    4.3555658    24095.108    34881.981    64799.624   -27396.281    10847.218   -657.21262    21131.612    82.629236 
   56200    1722.4923   -105.59721    1.5585472   -104.03866   -31053.169    4.3601076    4.3601076    4.3601076   -31053.169   -46759.435    9324.4631   -55724.536   -21042.996   -16109.136   -6305.4622    82.887992 
   56300    1637.2171   -105.51623    1.4813884   -104.03485    17916.687     4.365664     4.365664     4.365664    17916.687     9363.715     77157.72   -32771.372    13977.959     5259.408   -662.46166    83.205285 
   56400    1811.9733   -105.66759    1.6395115   -104.02808    -42230.53    4.3736308    4.3736308    4.3736308    -42230.53   -44519.994   -38187.858   -43983.739    -7617.039   -15057.239     11674.33    83.661638 
   56500    1146.8438   -105.06825    1.0376884   -104.03056     5075.353    4.3589565    4.3589565    4.3589565     5075.353   -13215.971     53330.16   -24888.131   -13194.063   -2478.9935    4962.9945    82.822362 
   56600    2055.8105   -105.89706    1.8601405   -104.03692    9773.2118    4.3547387    4.3547387    4.3547387    9773.2118   -5589.0546    20379.706    14528.984    2105.6092    7150.2535   -13401.261     82.58217 
   56700    1484.3972   -105.38981    1.3431138   -104.04669   -21170.049    4.3669769    4.3669769    4.3669769   -21170.049   -46427.012    10872.757   -27955.891   -31555.683   -10348.053    997.44947    83.280379 
   56800    1349.4903    -105.2578    1.2210472   -104.03676    19872.654    4.3638945    4.3638945    4.3638945    19872.654   -15638.995    922.64618     74334.31   -4508.7185    12398.604   -11900.996    83.104152 
   56900    2166.5046   -105.98713    1.9602989   -104.02683    -31355.98    4.3803158    4.3803158    4.3803158    -31355.98   -67616.662   -19238.766   -7212.5114    7360.7384   -9703.4551   -1870.4515    84.045849 
   57000    1474.7382   -105.34914    1.3343742   -104.01476   -12348.267    4.3668981    4.3668981    4.3668981   -12348.267   -47473.728    22846.058   -12417.132   -490.37453    11612.462   -9604.7336    83.275868 
   57100    1817.1487   -105.64491    1.6441944   -104.00072    34976.613    4.3541785    4.3541785    4.3541785    34976.613   -15296.787    22525.062    97701.565    12617.493    -316.2929    9737.8227    82.550306 
   57200     1406.148   -105.29698    1.2723122   -104.02466   -9804.5731    4.3718499    4.3718499    4.3718499   -9804.5731   -11667.747    4199.3232   -21945.295   -4343.9047    1314.5818    19.117581    83.559482 
   57300    1757.6097   -105.60802    1.5903222    -104.0177   -24326.976    4.3791866    4.3791866    4.3791866   -24326.976   -74776.982   -45000.889    46796.943    18877.705   -2470.5428    956.92256     83.98087 
   57400    2076.5416   -105.90107    1.8788985   -104.02217   -2517.0829    4.3705314    4.3705314    4.3705314   -2517.0829   -46145.242    11564.007    27029.987    -380.6891    1572.1011    15899.744    83.483899 
   57500    1094.4958   -105.03408    0.9903228   -104.04375    -11171.25    4.3668685    4.3668685    4.3668685    -11171.25   -28041.825   -3375.8217   -2096.1036    7028.0086    15382.641   -10280.228    83.274174 
   57600    1825.4338   -105.67894    1.6516909   -104.02724     25366.26    4.3658253    4.3658253    4.3658253     25366.26     1074.837   -24642.447    99666.391    7332.5128    9974.1614    6644.6254     83.21451 
   57700    1522.1037   -105.41309    1.3772314   -104.03585   -30490.834    4.3806692    4.3806692    4.3806692   -30490.834   -53142.526    -46900.48    8570.5054    8847.2676    8292.6667   -34890.403    84.066195 
   57800    1932.9717   -105.75207    1.7489934   -104.00307   -44160.217    4.3852234    4.3852234    4.3852234   -44160.217   -39538.512   -62689.321   -30252.819    25484.311   -403.46532   -9020.3101    84.328657 
   57900    2022.7903   -105.81573    1.8302631   -103.98546    11043.779    4.3617674    4.3617674    4.3617674    11043.779     9958.922   -20762.245    43934.661    3438.6037    5360.0298   -1746.9059    82.982687 
   58000    1408.2722   -105.29204    1.2742342   -104.01781    -22212.57    4.3587013    4.3587013    4.3587013    -22212.57   -38292.454   -45639.544    17294.287    21894.128   -6529.4382   -26216.788    82.807814 
   58100    1846.9101   -105.69304     1.671123   -104.02192    226.53954    4.3686128    4.3686128    4.3686128    226.53954   -21666.826    -43711.18    66057.624   -15382.935      16211.8   -11922.682    83.374004 
   58200    1135.5476   -105.06651    1.0274673   -104.03904   -19312.678    4.3745417    4.3745417    4.3745417   -19312.678   -40516.956   -35588.912    18167.833    33270.674   -8048.5712   -8102.6751    83.713918 
   58300    1295.5922   -105.20119     1.172279   -104.02892   -10474.147    4.3599556    4.3599556    4.3599556   -10474.147   -43489.655   -24225.234    36292.448   -42233.739    7117.1677   -7253.0721    82.879322 
   58400    2059.7298    -105.8821    1.8636868   -104.01841    15493.117    4.3432755    4.3432755    4.3432755    15493.117   -19030.726    12556.137    52953.939    5423.9297    -3651.293    1198.9885    81.931729 
   58500    944.32205   -104.91199   0.85444243   -104.05755   -8885.6302    4.3511853    4.3511853    4.3511853   -8885.6302    -6111.388    5021.8092   -25567.312   -13356.905   -998.76404    3116.2722     82.38018 
   58600    1802.4287   -105.68733    1.6308753   -104.05645    -23282.96    4.3614477    4.3614477    4.3614477    -23282.96   -22978.655   -28867.109   -18003.115   -22901.496    624.83899   -8029.9536    82.964446 
   58700    2087.7688   -105.93223    1.8890571   -104.04317   -10450.405    4.3719892    4.3719892    4.3719892   -10450.405   -50657.989    15253.399    4053.3761   -4544.4996   -507.03225    15696.514    83.567467 
   58800    482.23968   -104.48011   0.43634059   -104.04377   -11695.185    4.3664449    4.3664449    4.3664449   -11695.185   -73045.322    25234.766    12725.002   -33434.814   -16529.084   -12003.095    83.249946 
   58900    2047.5755   -105.85686    1.8526893   -104.00417     28691.49    4.3444792    4.3444792    4.3444792     28691.49   -14243.085    71379.665     28937.89    8913.4848   -5967.6239     5881.346    81.999873 
   59000    1722.9629   -105.60124     1.558973   -104.04226   -27821.871    4.3482617    4.3482617    4.3482617   -27821.871    -52912.97   -36620.902    6068.2587   -50250.506    11189.119   -21339.521    82.214234 
   59100    1192.7654   -105.14377    1.0792392   -104.06453   -5474.1746    4.3525908    4.3525908    4.3525908   -5474.1746   -46703.069    40900.859   -10620.314    21003.307    1138.3468   -12308.902    82.460037 
   59200    2039.1178   -105.90044    1.8450367    -104.0554     1291.163    4.3554759    4.3554759    4.3554759     1291.163    21912.865    4001.0479   -22040.423   -4722.8074   -5273.7162   -4832.9323    82.624119 
   59300    1372.9206   -105.30595    1.2422474   -104.06371   -19693.613    4.3650307    4.3650307    4.3650307   -19693.613   -61277.221    27784.888   -25588.506   -6062.4013    13457.723    -9441.413     83.16908 
   59400    1432.5849   -105.34672     1.296233   -104.05048   -2772.9693    4.3616488    4.3616488    4.3616488   -2772.9693   -16622.532    24252.727   -15949.103    18407.508   -1218.1265   -7218.1828    82.975922 
   59500    2262.0417   -106.08652    2.0467428   -104.03978   -10954.569      4.34211      4.34211      4.34211   -10954.569   -16854.241   -5941.5964   -10067.869   -15285.817    -4245.125    8540.2873    81.865789 
   59600    791.40513   -104.78346      0.71608   -104.06738    15474.928    4.3378081    4.3378081    4.3378081    15474.928    2412.4241    52244.956   -8232.5947    25892.573    17084.659   -14719.559     81.62271 
   59700    2194.4595   -106.05552    1.9855931   -104.06993   -14943.247    4.3590303    4.3590303    4.3590303   -14943.247   -27764.209   -18836.947    1771.4157    4598.1669    4496.5446    7412.3359    82.826566 
   59800    1328.5461   -105.26531    1.2020964   -104.06321    12757.228    4.3704348    4.3704348    4.3704348    12757.228   -7608.9448     86806.71   -40926.082    3591.6218    4341.5192   -1720.3154    83.478368 
   59900    1799.3986   -105.68093    1.6281337   -104.05279   -43695.051    4.3622166    4.3622166    4.3622166   -43695.051   -67122.778   -34214.052   -29748.323     39808.33    -4224.837    -12971.99     83.00833 
   60000    1582.3417   -105.47893     1.431736    -104.0472    38284.772    4.3390307    4.3390307    4.3390307    38284.772    17150.728     118668.9    -20965.31   -8674.5184    5817.2409    11378.779    81.691743 
   60100    1524.1966   -105.45103    1.3791251   -104.07191   -2016.4149    4.3423223    4.3423223    4.3423223   -2016.4149   -16122.347     1345.474    8727.6284     40184.79   -613.15113   -8902.2786    81.877797 
   60200    1601.4997   -105.51208    1.4490706   -104.06301   -11519.553    4.3646481    4.3646481    4.3646481   -11519.553    -22875.71    21783.614   -33466.564   -10817.905    3767.3902   -6706.1961    83.147215 
   60300    1335.5049   -105.25054    1.2083929   -104.04214    11822.467    4.3652118    4.3652118    4.3652118    11822.467   -8410.9713     68521.04   -24642.666   -5542.5745   -163.20013    2284.1293    83.179433 
   60400    1514.4012   -105.40518    1.3702621   -104.03492   -30051.923    4.3621528    4.3621528    4.3621528   -30051.923   -65393.539   -26633.247    1871.0187   -9536.4494    3568.1569   -2622.3793    83.004686 
   60500    1935.0008    -105.7763    1.7508294   -104.02547   -14684.281    4.3499574    4.3499574    4.3499574   -14684.281   -29630.839    22431.734   -36853.738   -21086.206   -294.45589    16971.556    82.310454 
   60600    1707.6692   -105.59155     1.545135   -104.04642   -12419.735    4.3578061    4.3578061    4.3578061   -12419.735   -7030.7026   -1892.2144   -28336.288    13970.922    4338.8962    9799.7131    82.756803 
   60700    1435.4856   -105.36065    1.2988575   -104.06179   -36025.136    4.3689067    4.3689067    4.3689067   -36025.136   -55744.482   -69350.168    17019.244   -41761.463    7467.0124   -3436.2366    83.390831 
   60800    1860.4018    -105.7174    1.6833306   -104.03407    15508.732    4.3577739    4.3577739    4.3577739    15508.732   -29887.949    84258.679   -7844.5349   -4307.9897   -10425.928    42043.572    82.754971 
   60900    1367.9729   -105.28521    1.2377706   -104.04744    22829.823    4.3591806    4.3591806    4.3591806    22829.823    15741.313     18526.62    34221.536   -10891.119    4677.8396   -12451.164    82.835136 
   61000    1453.8133   -105.35067    1.3154409   -104.03523   -13057.176      4.37154      4.37154      4.37154   -13057.176    4041.2857   -3573.8565   -39638.956   -5239.6515    7459.4378    46681.834    83.541711 
   61100    2064.9702   -105.88023    1.8684284    -104.0118   -8524.4778    4.3616761    4.3616761    4.3616761   -8524.4778   -15891.557    22635.368   -32317.244   -12809.051   -934.35126    9983.0238     82.97748 
   61200    1204.0765   -105.11591    1.0894737   -104.02643    8981.6633    4.3534318    4.3534318    4.3534318    8981.6633   -22537.225    24841.202    24641.013   -11949.264   -2772.4653    14810.165    82.507845 
   61300    2017.0802   -105.85925    1.8250965   -104.03415    -6539.344    4.3579463    4.3579463    4.3579463    -6539.344    27340.453     12577.13   -59535.615    10344.608    12028.572    26985.015    82.764794 
   61400    1223.7362   -105.15553    1.1072623   -104.04827    21269.569    4.3653545    4.3653545    4.3653545    21269.569    7102.8957    18831.725    37874.086   -15361.204    1651.3707   -5192.2417     83.18759 
   61500    1692.4392   -105.57279    1.5313545   -104.04143    -21110.79    4.3744783    4.3744783    4.3744783    -21110.79    13038.822   -55990.206   -20380.985    7802.1595   -8251.2016    26842.333     83.71028 
   61600     1899.547   -105.74564      1.71875   -104.02689   -3314.5947    4.3687538    4.3687538    4.3687538   -3314.5947     2154.045    9688.0019   -21785.831    12087.644   -4514.7192   -13240.594    83.382076 
   61700    1670.5045   -105.54087    1.5115076   -104.02936    5324.3801    4.3491039    4.3491039    4.3491039    5324.3801    28918.728    12405.629   -25351.216   -7477.2397   -6064.8113    47020.714    82.262014 
   61800    1619.8679   -105.51469    1.4656905     -104.049    21625.152    4.3567707    4.3567707    4.3567707    21625.152    44555.618    33001.699   -12681.861   -1536.5833   -2287.2907   -29312.214    82.697827 
   61900    1888.8656    -105.7471    1.7090853   -104.03801   -10076.367    4.3685424    4.3685424    4.3685424   -10076.367   -1402.5359   -6566.5505   -22260.016   -10237.186   -3656.5779    24470.879    83.369974 
   62000    1388.8046   -105.29423    1.2566195   -104.03761    12302.478     4.372005     4.372005     4.372005    12302.478    27780.768    43956.056    -34829.39    2383.3991   -1276.2335   -25766.853    83.568374 
   62100    1870.2125   -105.71192    1.6922076   -104.01971   -1895.0757    4.3747137    4.3747137    4.3747137   -1895.0757    18571.634   -36149.302    11892.441   -684.91009   -5209.8119    7455.3051    83.723796 
   62200    1274.8214   -105.16738    1.1534852    -104.0139    52929.052    4.3497796    4.3497796    4.3497796    52929.052    52682.225    136670.28   -30565.353   -19128.875   -4148.2951   -15079.655    82.300364 
   62300    1491.4263   -105.40203    1.3494738   -104.05255    1833.8958    4.3609283    4.3609283    4.3609283    1833.8958    18801.738   -38672.288    25372.237    6235.2737    14117.384   -24877.487    82.934806 
   62400    1684.7579   -105.56317    1.5244043   -104.03877    16693.861    4.3775387    4.3775387    4.3775387    16693.861    1392.0751    114447.69    -65758.18   -3897.4552     413.6714   -1159.6687    83.886096 
   62500    1589.7125   -105.47055    1.4384053   -104.03214   -34765.062    4.3787122    4.3787122    4.3787122   -34765.062   -5697.8692    -47977.13   -50620.188    6160.5118    561.40511   -37502.569    83.953576 
   62600    1746.1044   -105.59646     1.579912   -104.01654     11294.46    4.3606458    4.3606458    4.3606458     11294.46   -29893.213    57598.936    6177.6558   -10399.369   -8899.4411    23622.674    82.918689 
   62700    1766.2059   -105.62581    1.5981002   -104.02771    7088.6541     4.346825     4.346825     4.346825    7088.6541    56133.593    21602.249    -56469.88    3506.9959    9566.7411   -46291.473    82.132771 
   62800    1268.6281   -105.22165    1.1478813   -104.07377    13857.694    4.3666871    4.3666871    4.3666871    13857.694   -16228.684    64133.035   -6331.2694   -6239.5027   -6741.1422    2467.6459      83.2638 
   62900     1558.656   -105.47702    1.4103047   -104.06672   -11268.767    4.3849024    4.3849024    4.3849024   -11268.767   -42835.626   -30551.377    39580.701     3719.484   -10325.303   -30735.264    84.310138 
   63000    1941.1259   -105.79614    1.7563715   -104.03976   -46314.335     4.382093     4.382093     4.382093   -46314.335   -63522.327   -71535.882   -3884.7953    904.98165   -7264.3129   -30100.978    84.148189 
   63100    1207.9663   -105.12627    1.0929933   -104.03328     27132.88    4.3477206    4.3477206    4.3477206     27132.88    -37387.17    17154.253    101631.56   -20738.749   -2975.9927    1374.7422    82.183547 
   63200     2113.989   -105.96706    1.9127817   -104.05428    5868.9368     4.342599     4.342599     4.342599    5868.9368   -7345.1356    14558.898    10393.048    9705.8461    1369.6342   -2190.8824    81.893453 
   63300    1526.7428   -105.44323    1.3814289    -104.0618   -57844.386    4.3798752    4.3798752    4.3798752   -57844.386   -82157.332    -88914.37    -2461.455   -14310.406   -6210.1129    19280.363    84.020492 
   63400    2172.3081   -105.97577      1.96555   -104.01022   -20647.756    4.3855458    4.3855458    4.3855458   -20647.756   -35017.657   -29895.216    2969.6067   -7659.5059   -1865.6276    18921.947    84.347253 
   63500    1164.6674   -105.06716    1.0538155   -104.01335   -6519.4217    4.3642822    4.3642822    4.3642822   -6519.4217   -67557.471   -19472.302    67471.508   -8238.6113   -17483.739   -1713.0569    83.126303 
   63600    1681.5311   -105.54657    1.5214847   -104.02508    19609.013    4.3372997    4.3372997    4.3372997    19609.013    -37261.26    42590.354    53497.943    878.85164    3748.2526    17927.238    81.594016 
   63700    1656.8021   -105.57536    1.4991093   -104.07625    33406.782    4.3491479    4.3491479    4.3491479    33406.782   -53995.687    103905.06    50310.975   -15346.565   -5644.8438   -18929.858    82.264513 
   63800    1550.3374    -105.4882    1.4027779   -104.08543   -24694.324    4.3819917    4.3819917    4.3819917   -24694.324   -81861.818   -6643.0077    14421.853   -5054.1591    4795.0153      619.125    84.142351 
   63900    1763.3847   -105.64978    1.5955476   -104.05423   -30306.409    4.3771231    4.3771231    4.3771231   -30306.409   -29003.122   -24337.076   -37579.031    5461.4539    1843.2466    20168.966    83.862209 
   64000    1499.3566   -105.39047    1.3566494   -104.03382    30472.835    4.3421855    4.3421855    4.3421855    30472.835   -46093.166    56259.525    81252.144   -8649.5538    7371.5373   -6444.8754    81.870063 
   64100    1630.6851   -105.52867    1.4754781    -104.0532   -5223.2234    4.3486269    4.3486269    4.3486269   -5223.2234    -53239.24    31250.753    6318.8179    3250.7243   -19092.979    10761.588     82.23495 
   64200    1993.5849   -105.85357    1.8038375   -104.04973    -15234.17    4.3631246    4.3631246    4.3631246    -15234.17     -52107.6    12904.626   -6499.5352   -1253.1016   -9582.7864   -10016.414    83.060177 
   64300    1197.5203    -105.1396    1.0835415   -104.05606   -20046.352    4.3788441    4.3788441    4.3788441   -20046.352   -79670.107   -7186.7414    26717.792    18809.099    5063.5195    -2675.589    83.961166 
   64400    1736.6352   -105.59769     1.571344   -104.02634      17328.1     4.364799     4.364799     4.364799      17328.1   -71212.935    104598.86    18598.371   -7834.7005   -4491.2154    20613.388    83.155841 
   64500    1505.5982   -105.40604    1.3622969   -104.04375   -19961.534    4.3485932    4.3485932    4.3485932   -19961.534   -86352.548    15965.748    10502.198     17682.86    -1814.867    -11741.81    82.233042 
   64600    1437.1221   -105.38947    1.3003383   -104.08914   -5873.0509    4.3505019    4.3505019    4.3505019   -5873.0509    -63554.41    71402.272   -25467.015    3026.6213   -12765.682   -11193.403    82.341371 
   64700    1727.9695   -105.64923    1.5635031   -104.08573    26410.547    4.3552093    4.3552093    4.3552093    26410.547   -58153.906    134294.98    3090.5644    274.11852    10000.137    13200.341    82.608946 
   64800     1257.379    -105.2297    1.1377029     -104.092   -3156.3477     4.360088     4.360088     4.360088   -3156.3477   -87685.338    23281.483    54934.813    6300.3185   -9170.9621   -10260.587    82.886877 
   64900    1688.0513   -105.60256    1.5273843   -104.07518   -7746.8266    4.3668097    4.3668097    4.3668097   -7746.8266   -68876.259    75675.373   -30039.593   -5835.0475    17899.415    263.42783    83.270813 
   65000    2127.3236   -105.99343    1.9248471   -104.06858   -1912.6573    4.3492608    4.3492608    4.3492608   -1912.6573   -58178.204    21832.182    30608.049     4403.554   -13859.197   -14650.869    82.270922 
   65100    477.64323    -104.5255   0.43218163   -104.09331    26866.027     4.340158     4.340158     4.340158    26866.027   -80369.975    83601.836    77366.222   -10728.633    24729.653    5942.8338    81.755433 
   65200    2289.6443   -106.15622    2.0717182    -104.0845    6084.4041    4.3568228    4.3568228    4.3568228    6084.4041   -49157.998    54512.339    12898.872    5211.1602    -4282.359   -14685.391    82.700796 
   65300    1821.3135    -105.7304    1.6479627   -104.08243   -28522.204    4.3704635    4.3704635    4.3704635   -28522.204   -68848.644    -13967.04   -2750.9282   -16767.891    9970.5025   -5401.5203    83.480009 
   65400    982.61099    -104.9609   0.88908708   -104.07181    7945.9544    4.3514264    4.3514264    4.3514264    7945.9544    -57814.14    55442.136    26209.868     1249.601    2335.6114   -12252.547    82.393873 
   65500    2380.2431   -106.21919     2.153694    -104.0655    4099.0362    4.3447227    4.3447227    4.3447227    4099.0362   -43487.972    57787.059   -2001.9787    9498.4251   -13738.217    24734.747    82.013661 
   65600    1783.4264   -105.69936    1.6136817   -104.08568    28402.973     4.344892     4.344892     4.344892    28402.973   -46088.851    47123.562    84174.207   -5904.6499     9110.383    6764.4193    82.023246 
   65700    906.12011   -104.93312   0.81987652   -104.11324    -11941.64    4.3652173    4.3652173    4.3652173    -11941.64   -89904.609    25967.619     28112.07    8606.3423   -28740.087     4663.214    83.179748 
   65800    2115.5473   -105.96546    1.9141917   -104.05126    2276.4423    4.3695945    4.3695945    4.3695945    2276.4423   -60733.801   -17689.435    85252.563    1167.7205     439.0782   -5075.1039    83.430226 
   65900    1939.1629   -105.79117    1.7545954   -104.03657   -29629.242     4.347376     4.347376     4.347376   -29629.242   -84578.102   -5142.5104    832.88717    10560.292   -19298.111   -8554.2533    82.164008 
   66000    1273.6324   -105.20545    1.1524093   -104.05304    10372.092     4.342646     4.342646     4.342646    10372.092   -64713.684    13505.988    82323.971   -929.22942    9761.4569   -11857.421    81.896113 
   66100    2081.5418    -105.9504    1.8834228   -104.06698   -12231.174    4.3645415    4.3645415    4.3645415   -12231.174   -43420.087    4693.1852    2033.3803   -3509.0154    -13634.85    17220.035    83.141125 
   66200    1235.2472   -105.18145    1.1176777   -104.06377   -41094.915    4.3724817    4.3724817    4.3724817   -41094.915   -88461.166   -40027.476    5203.8978   -6836.1443   -14611.228    6001.1066    83.595714 
   66300    1533.8934   -105.43023     1.387899   -104.04233    16058.764    4.3441172    4.3441172    4.3441172    16058.764   -43835.654    93705.395     -1693.45   -4681.8053    9394.6312    18942.013    81.979377 
   66400    2420.8674   -106.23951    2.1904517   -104.04905    4214.5309    4.3371786    4.3371786    4.3371786    4214.5309   -31015.312    15061.209    28597.696    5534.6125   -7606.2965    2933.8545    81.587179 
   66500    940.41263   -104.94375   0.85090511   -104.09284    2176.6998    4.3482836    4.3482836    4.3482836    2176.6998   -83689.306     75544.84    14674.566   -7712.4955    10048.056    17243.539    82.215479 
   66600    1679.7159   -105.60144    1.5198423    -104.0816   -6173.8648    4.3685324    4.3685324    4.3685324   -6173.8648   -56276.678   -2270.9647    40026.048   -2667.8337    -4664.389    17040.697    83.369403 
   66700    1922.5956   -105.80116    1.7396049   -104.06155   -23496.822    4.3662083    4.3662083    4.3662083   -23496.822   -73598.947    23713.564   -20605.083    560.83695    20340.424   -4933.1781    83.236413 
   66800    1213.8969   -105.15918    1.0983594   -104.06082   -7332.8209    4.3467704    4.3467704    4.3467704   -7332.8209   -66016.695    51057.623   -7039.3904   -9187.9645    1596.9455    11810.619    82.129674 
   66900    2189.0048   -106.04778    1.9806576   -104.06713    7208.0946    4.3450317    4.3450317    4.3450317    7208.0946   -22403.736    22147.861    21880.159   -12156.792    1170.5691    2984.8578    82.031161 
   67000    1412.2582   -105.37284    1.2778409     -104.095   -1228.3816    4.3674276    4.3674276    4.3674276   -1228.3816   -52580.432      77872.1   -28976.813   -23390.773    680.76753   -10271.049    83.306168 
   67100    1231.9222    -105.1895    1.1146691   -104.07483    -28758.81    4.3712661    4.3712661    4.3712661    -28758.81   -56325.825    9951.3119   -39901.916     5801.891    -18249.43    28694.759    83.526009 
   67200    2218.9045   -106.03725    2.0077115   -104.02954    1168.4691    4.3556708    4.3556708    4.3556708    1168.4691   -51964.554    60039.541   -4569.5794     -13319.7    4126.5221    20948.974    82.635211 
   67300    1221.0337   -105.14615     1.104817   -104.04133   -24275.188    4.3582658    4.3582658    4.3582658   -24275.188   -55476.241    4839.3544   -22188.677   -1101.7876   -33449.558     21615.41    82.782994 
   67400    1592.8924   -105.47707    1.4412825   -104.03578     8544.257    4.3556355    4.3556355    4.3556355     8544.257   -37951.534    69562.783   -5978.4781   -20651.471    3912.6697    9892.4969    82.633206 
   67500    1311.4083   -105.23977    1.1865898   -104.05318    16270.975    4.3507275    4.3507275    4.3507275    16270.975   -66035.419    53332.851    61515.492    2153.8719   -31307.635   -25145.458    82.354183 
   67600    1443.4533    -105.3661    1.3060669   -104.06003    7656.9695    4.3489056    4.3489056    4.3489056    7656.9695   -46799.477   -4537.4546     74307.84   -417.52422     3889.428    23394.108    82.250763 
   67700     1598.352   -105.49458    1.4462225   -104.04835   -432.32838    4.3519906    4.3519906    4.3519906   -432.32838   -42083.451    32504.186    8282.2806   -1445.1376   -28159.365    3432.7363    82.425927 
   67800    1781.3225   -105.65241     1.611778   -104.04063   -29202.489    4.3513379    4.3513379    4.3513379   -29202.489   -63229.532   -9879.8585   -14498.076    469.90169     2032.072   -288.16635    82.388848 
   67900    1710.4154   -105.59136    1.5476198   -104.04375     1646.041    4.3438553    4.3438553    4.3438553     1646.041   -10941.975    26681.917   -10801.819   -4370.8715   -18481.259    24497.158    81.964548 
   68000    1577.4227   -105.48096    1.4272852   -104.05368   -1909.4184    4.3493791    4.3493791    4.3493791   -1909.4184   -51283.465    40314.693    5240.5167    17839.915   -8376.3446   -13497.153    82.277634 
   68100    1677.6897   -105.58187    1.5180089   -104.06386   -30009.625    4.3581517    4.3581517    4.3581517   -30009.625   -44825.813   -24665.942   -20537.119     4030.302    226.00069    8022.4788    82.776492 
   68200    1701.5483   -105.58906    1.5395966   -104.04947    8328.1812    4.3633135    4.3633135    4.3633135    8328.1812    -49321.02    40674.276    33631.287    13670.809   -24400.918    6323.6568    83.070963 
   68300     1213.858   -105.14567    1.0983242   -104.04735    -3143.057    4.3466392    4.3466392    4.3466392    -3143.057   -37499.948   -6970.0665    35040.843    23633.928    22225.248   -9994.8098    82.122238 
   68400    1816.3783   -105.67938    1.6434973   -104.03588    15431.051    4.3415072    4.3415072    4.3415072    15431.051   -25740.328    42548.354    29485.128    -3606.389   -24961.804    17187.363    81.831701 
   68500    1460.7346   -105.36941    1.3217034   -104.04771   -4047.7936    4.3555675    4.3555675    4.3555675   -4047.7936   -49712.901    -15021.19    52590.709    44020.984    3964.5373   -13310.894    82.629332 
   68600    1478.9159   -105.38398    1.3381541   -104.04582     2077.265     4.362426     4.362426     4.362426     2077.265   -4228.7087   -23474.908    33935.411   -10776.918   -310.10808    31460.572    83.020284 
   68700    1474.6482   -105.36817    1.3342927   -104.03388   -6005.0912    4.3595649    4.3595649    4.3595649   -6005.0912   -26102.592   -54748.235    62835.554    21132.689   -7513.7816    6340.1824    82.857045 
   68800    1736.6107   -105.60979    1.5713218   -104.03846   -32149.689    4.3472753    4.3472753    4.3472753   -32149.689   -27136.175    -40084.89   -29228.001   -9054.1353    19233.268    1357.4705    82.158296 
   68900    1637.0779   -105.52611    1.4812625   -104.04485    18084.866     4.335981     4.335981     4.335981    18084.866    45524.187   -49148.853    57879.265    22681.744   -14478.822    -4.700549    81.519613 
   69000    1482.1318   -105.41671     1.341064   -104.07564   -6040.2854    4.3546701    4.3546701    4.3546701   -6040.2854   -39181.705   -39476.655    60537.504   -4981.0365    13594.894   -14981.442    82.578272 
   69100    1912.2028   -105.78023    1.7302013   -104.05003   -38317.713    4.3653948    4.3653948    4.3653948   -38317.713   -48994.394   -48392.727   -17566.017    14798.015    11238.213   -19296.456    83.189896 
   69200    1831.6745   -105.70218    1.6573376   -104.04484   -483.98849    4.3450699    4.3450699    4.3450699   -483.98849   -20608.443    -15524.05    34680.527    7928.5017   -4963.2794     -10311.8     82.03332 
   69300    1595.5522   -105.50055    1.4436892   -104.05686    21367.793    4.3380641    4.3380641    4.3380641    21367.793    9024.4356   -37061.529    92140.474    6932.8327    812.38046     6555.156    81.637161 
   69400    1135.6626   -105.10299    1.0275714   -104.07542    18857.526    4.3502595    4.3502595    4.3502595    18857.526    -32853.42   -1578.9514     91004.95    15787.209   -8120.5151   -3441.4975    82.327608 
   69500     1928.131   -105.81228    1.7446134   -104.06767   -23862.745    4.3609541    4.3609541    4.3609541   -23862.745    -18751.81   -31318.875    -21517.55   -5028.3393   -24309.616   -6912.7051    82.936281 
   69600    1446.7517   -105.36638    1.3090514   -104.05733   -9388.6617    4.3537703    4.3537703    4.3537703   -9388.6617   -17221.723   -25647.571    14703.309    26789.219    10274.595   -10220.138    82.527092 
   69700    1618.3261   -105.50785    1.4642955   -104.04355     15966.97    4.3477977    4.3477977    4.3477977     15966.97   -18475.482    13894.106    52482.287   -14624.277   -24729.627   -1954.5343     82.18792 
   69800    922.55033   -104.89708   0.83474292   -104.06234   -3650.9295    4.3434992    4.3434992    4.3434992   -3650.9295   -36456.394   -57000.556    82504.162    32773.326    7453.6321   -17676.733     81.94439 
   69900    2171.9884   -106.01929    1.9652608   -104.05403    14374.484     4.335574     4.335574     4.335574    14374.484    20370.611    4889.0925    17863.749    -7427.741    -11254.43    582.32951    81.496661 
   70000    1262.1892   -105.21782    1.1420553   -104.07576    -6071.152    4.3419683    4.3419683    4.3419683    -6071.152   -25250.343   -25537.178    32574.065     18044.56    -15010.47   -24658.084    81.857777 
   70100    1426.7654   -105.35246    1.2909673   -104.06149    12677.519    4.3552799    4.3552799    4.3552799    12677.519     17467.91   -775.67323     21340.32    6895.5574    121.47194   -1352.6224    82.612964 
   70200    1699.7466   -105.59241    1.5379665   -104.05444   -34101.722    4.3492238    4.3492238    4.3492238   -34101.722   -29146.233   -46793.048   -26365.884    -1268.062   -27511.669   -12760.418    82.268822 
   70300    1549.2809   -105.44721    1.4018219   -104.04538    17526.247    4.3297319    4.3297319    4.3297319    17526.247    28099.826   -30825.592    55304.508    23810.472   -845.66039   -11442.054    81.167658 
   70400    1726.3336   -105.61505    1.5620229   -104.05303     12286.22    4.3406718    4.3406718    4.3406718     12286.22    1258.3069    21293.998    14306.355   -24624.785   -4820.1566    3099.8348    81.784469 
   70500    909.79954   -104.87606   0.82320575   -104.05285   -10093.867    4.3591968    4.3591968    4.3591968   -10093.867    7058.7023   -46374.328    9034.0262    26980.012   -3804.2089    -32247.47    82.836058 
   70600    2084.2481   -105.91741    1.8858714   -104.03154   -15245.074    4.3490321    4.3490321    4.3490321   -15245.074   -41436.186   -7645.8884    3346.8529   -14951.662    12639.947    22285.392    82.257945 
   70700    1497.7997   -105.39261    1.3552406   -104.03737     3930.585    4.3377741    4.3377741    4.3377741     3930.585    22499.049   -21118.671    10411.377    12931.678   -7295.1674   -14641.016    81.620787 
   70800    1148.7001   -105.09633     1.039368   -104.05697    12260.622    4.3405963    4.3405963    4.3405963    12260.622    16796.945   -8166.1844    28151.105    9983.0428    8830.9814    12097.768    81.780203 
   70900    1984.2357    -105.8592    1.7953782   -104.06382   -18687.368    4.3529228    4.3529228    4.3529228   -18687.368   -44380.975    6081.6233   -17762.753   -7523.7259    22742.055    47.224353    82.478909 
   71000    1346.6122   -105.27698     1.218443   -104.05854    798.06892    4.3593335    4.3593335    4.3593335    798.06892    24967.111   -21472.778   -1100.1259    24993.549   -10195.416    -6728.061    82.843851 
   71100    1514.0287   -105.41648     1.369925   -104.04656    -9741.895    4.3577212    4.3577212    4.3577212    -9741.895   -55632.814    57701.728   -31294.598     3269.822    35483.903   -3849.5518    82.751968 
   71200     1623.486   -105.50259    1.4689643   -104.03363    21100.953    4.3436397    4.3436397    4.3436397    21100.953   -2400.3722    46514.107    19189.124    19262.994   -24012.384    3612.9216    81.952344 
   71300    1592.6129   -105.48238    1.4410296   -104.04135   -6634.3587     4.350158     4.350158     4.350158   -6634.3587   -27939.253    17543.934    -9507.757    9969.7199    42820.248   -21007.296    82.321843 
   71400    1454.6307     -105.353    1.3161805   -104.03682   -6769.0543    4.3564275    4.3564275    4.3564275   -6769.0543   -54693.752    19768.446    14618.144    7599.2432   -33731.417   -4655.0413    82.678288 
   71500    1637.0822   -105.51654    1.4812664   -104.03527    8216.7153    4.3503075    4.3503075    4.3503075    8216.7153   -12911.945    8897.7869    28664.304    9876.8833    21399.017   -8480.5877    82.330332 
   71600    1893.8378   -105.75584    1.7135842   -104.04226   -44362.766    4.3616615    4.3616615    4.3616615   -44362.766   -66245.668   -2150.6644   -64691.965   -4315.3611   -16683.949   -4301.2914    82.976643 
   71700    1311.9762   -105.22651    1.1871037    -104.0394    6718.8606    4.3507305    4.3507305    4.3507305    6718.8606   -43723.252    20564.843    43314.991    28393.404   -13730.444    875.69408    82.354351 
   71800    1927.3416   -105.78174    1.7438992   -104.03784    9189.0636     4.335652     4.335652     4.335652    9189.0636    1068.5152    14577.206     11921.47    -5676.713   -135.76152    11420.256    81.501061 
   71900     1736.761   -105.63141    1.5714579   -104.05996   -36018.672    4.3479943    4.3479943    4.3479943   -36018.672   -58201.758   -12244.535   -37609.723    22485.374    -37607.47     16487.24    82.199067 
   72000    2094.3194   -105.93427    1.8949842   -104.03929   -9201.6038    4.3634372    4.3634372    4.3634372   -9201.6038   -11485.931   -4998.3849   -11120.496    6096.6788   -3079.5471     12398.61    83.078031 
   72100    1358.3386   -105.25786    1.2290533   -104.02881   -55266.665    4.3741528    4.3741528    4.3741528   -55266.665   -68072.613   -13629.003   -84098.378    1662.1071   -51670.426   -15101.071    83.691595 
   72200    2065.4545   -105.88532    1.8688666   -104.01646   -18243.001    4.3546248    4.3546248    4.3546248   -18243.001    10364.584    -45215.91   -19877.678    32642.717    1597.8211    8329.6053    82.575693 
   72300    1680.8611   -105.53641    1.5208784   -104.01553    10946.064    4.3365752    4.3365752    4.3365752    10946.064    -24608.75    88488.552   -31041.612   -10173.381   -37172.025   -9018.9392    81.553131 
   72400    1175.1179   -105.11554    1.0632713   -104.05226    18129.738    4.3552073    4.3552073    4.3552073    18129.738    23305.095    4286.3727    26797.747    18045.005     2683.542     922.9701    82.608835 
   72500    1928.9341   -105.76688    1.7453402   -104.02154   -12767.725    4.3782836    4.3782836    4.3782836   -12767.725    19998.051   -45344.946    -12956.28   -9776.7597    7843.4085   -6601.0796    83.928928 
   72600    947.02067   -104.87751    0.8568842   -104.02063    -3700.046    4.3676613    4.3676613    4.3676613    -3700.046   -3201.8453    7603.8719   -15502.165    11216.807   -27269.557   -13860.317    83.319539 
   72700    1581.1232   -105.43071    1.4306335   -104.00008    45786.784    4.3389722    4.3389722    4.3389722    45786.784    94113.134    25394.607    17852.611   -213.04778    31139.966    13181.966     81.68844 
   72800    1433.5893   -105.32881    1.2971417   -104.03167     11719.96    4.3385353    4.3385353    4.3385353     11719.96    25002.979   -7744.4896    17901.389    7728.7214   -30913.079   -14536.616    81.663768 
   72900    1451.2229   -105.36765     1.313097   -104.05455   -16863.506    4.3607983    4.3607983    4.3607983   -16863.506   -7178.3798   -28051.467   -15360.672    10280.725    5778.0137    4698.3609     82.92739 
   73000    1764.1129   -105.62555    1.5962064   -104.02934   -6546.8684    4.3524255    4.3524255    4.3524255   -6546.8684   -23650.776    33313.977   -29303.806    6169.5255   -17558.607    12372.556    82.450642 
   73100     1391.587   -105.29435    1.2591371   -104.03522    6173.0145    4.3460368    4.3460368    4.3460368    6173.0145    21223.742   -30979.386    28274.688    14698.315   -35760.092   -25512.827    82.088096 
   73200    1844.6463   -105.69755    1.6690747   -104.02848    9742.2774    4.3608457    4.3608457    4.3608457    9742.2774    75921.458   -32978.064   -13716.563    11186.222   -11494.338    10699.424    82.930093 
   73300    996.32376   -104.93254   0.90149467   -104.03105    13740.858    4.3598601    4.3598601    4.3598601    13740.858     40543.31    34279.884   -33600.621   -17466.186   -37404.781   -17795.405    82.873877 
   73400    1791.9964   -105.63532     1.621436   -104.01389    3219.5487     4.367246     4.367246     4.367246    3219.5487   -3200.1382   -15495.306     28354.09    26922.759   -6229.8645    7876.7943    83.295776 
   73500    1148.7344   -105.07122     1.039399   -104.03182   -19051.172    4.3414085    4.3414085    4.3414085   -19051.172    10111.748   -2558.2035   -64707.059    -5343.714   -48923.712   -22927.177    81.826122 
   73600     1858.833   -105.70281    1.6819112    -104.0209    33083.681    4.3136324    4.3136324    4.3136324    33083.681    20457.543    42146.402    36647.099   -1581.9663    5755.9444   -16375.298    80.265589 
   73700    1228.5558    -105.1764    1.1116231   -104.06478   -1720.7549    4.3511041    4.3511041    4.3511041   -1720.7549    58549.995    -33451.42    -30260.84    4338.1877   -11830.665   -10886.562    82.375569 
   73800    1330.6585   -105.24757    1.2040078   -104.04356   -46236.254    4.3656077    4.3656077    4.3656077   -46236.254   -30353.289    -40186.96   -68168.513   -5811.0654   -7157.7004   -40556.226     83.20207 
   73900    1862.5812   -105.69939    1.6853026   -104.01409    7044.5954    4.3426525    4.3426525    4.3426525    7044.5954    45900.949    1146.9264   -25914.089    14972.376    11471.695    31271.274    81.896482 
   74000     1197.236   -105.11243    1.0832843   -104.02915     -11141.1    4.3356694    4.3356694    4.3356694     -11141.1    13360.619   -5318.1205   -41465.797   -12115.087   -30145.223   -48271.664    81.502038 
   74100    2038.7773   -105.87469    1.8447286   -104.02996    15174.964    4.3397088    4.3397088    4.3397088    15174.964    25234.375    38420.222   -18129.705   -2490.7271    23678.184    20854.046    81.730053 
   74200     1002.978   -104.95273   0.90751559   -104.04521   -20740.585     4.354391     4.354391     4.354391   -20740.585    29809.767   -12875.514   -79156.008    2856.0238   -43114.512   -26464.228    82.562391 
   74300    2155.7275   -105.97647    1.9505476   -104.02592   -10097.224    4.3458857    4.3458857    4.3458857   -10097.224   -13077.394    12521.247   -29735.524   -14244.819    30.916412   -1477.9647    82.079535 
   74400    1190.4385   -105.10925    1.0771338   -104.03211    32337.602    4.3354159    4.3354159    4.3354159    32337.602    86480.901    44817.971   -34286.065   -4071.6832   -6300.5983   -5272.1847    81.487746 
   74500    1707.2463   -105.58558    1.5447524   -104.04083   -32728.143    4.3421338    4.3421338    4.3421338   -32728.143    -20843.25    449.40948   -77790.588   -7648.5157   -33383.808   -27346.759    81.867139 
   74600    1765.5435   -105.63748    1.5975009   -104.03997    17610.332    4.3391721    4.3391721    4.3391721    17610.332    80280.165   -28820.976    1371.8054    1384.0455    22955.296     7395.415    81.699729 
   74700    1361.3366   -105.28761     1.231766   -104.05584   -5729.2689    4.3455858    4.3455858    4.3455858   -5729.2689   -1513.1679    45907.685   -61582.324   -1894.8751   -25773.875   -45580.926    82.062546 
   74800    2089.7307    -105.9266    1.8908323   -104.03577   -13865.296    4.3448569    4.3448569    4.3448569   -13865.296     9153.782   -1960.3273   -48789.343   -8254.7658    9905.0372    20812.006    82.021261 
   74900    1079.0137   -105.02557   0.97631429   -104.04925    35115.236    4.3243559    4.3243559    4.3243559    35115.236     65984.81    51472.502   -12111.605    12331.494   -4233.4504   -53776.261    80.865689 
   75000    2296.9688   -106.13073    2.0783456   -104.05238    3715.7567    4.3339521    4.3339521    4.3339521    3715.7567    679.80409    35214.619   -24747.153   -7317.6212   -6306.6772    18313.113    81.405233 
   75100    1289.1764    -105.2282    1.1664739   -104.06172     11636.06    4.3457493    4.3457493    4.3457493     11636.06     17039.64    42903.705   -25035.164    262.38075     7206.058   -45389.086     82.07181 
   75200    1672.1564   -105.55962    1.5130022   -104.04662    6030.0457    4.3557353    4.3557353    4.3557353    6030.0457    42536.559    22771.536   -47217.957    5518.7627   -14048.866    13787.442    82.638886 
   75300    1639.8793   -105.51842    1.4837972   -104.03463   -4445.4388    4.3445083    4.3445083    4.3445083   -4445.4388    25846.053    -3831.794   -35350.576   -10941.314    10854.266    -22938.44    82.001517 
   75400    1797.4185   -105.64947    1.6263421   -104.02313    29074.025    4.3232148    4.3232148    4.3232148    29074.025     54827.29    41319.212   -8924.4285    9509.8589   -10942.478   -7261.2778    80.801687 
   75500    1231.2089   -105.16296    1.1140237   -104.04893    10649.967    4.3346856    4.3346856    4.3346856    10649.967    41099.686    16079.474   -25229.259   -13721.037    10416.209    6976.9872    81.446573 
   75600    1853.8728    -105.7301    1.6774231   -104.05268   -21072.733    4.3440194    4.3440194    4.3440194   -21072.733   -2476.3766    -33044.09   -27697.733   -1322.8167   -2147.7686   -25409.491    81.973836 
   75700    1819.9372   -105.69363    1.6467174   -104.04691    4451.6227     4.351558     4.351558     4.351558    4451.6227    23584.391     6900.711   -17130.234    9226.0343   -16144.248     15776.26     82.40135 
   75800    1299.6365   -105.21709    1.1759384   -104.04115   -13155.279    4.3479194    4.3479194    4.3479194   -13155.279    35884.542   -15983.984   -59366.394    12149.974    35492.021   -28080.673     82.19482 
   75900    2006.1495   -105.83916    1.8152062   -104.02396    12967.134    4.3384225    4.3384225    4.3384225    12967.134    6973.7343    6739.8274    25187.841    1697.0164   -35172.893    13791.549    81.657399 
   76000    1261.3127   -105.18108    1.1412623   -104.03982    5868.0535    4.3426817    4.3426817    4.3426817    5868.0535    59477.136    23267.132   -65140.107    6069.6235    30299.911   -24846.802    81.898134 
   76100    1898.4073   -105.74655    1.7177188   -104.02883   -13809.778    4.3485409    4.3485409    4.3485409   -13809.778    24236.752   -40656.278   -25009.808    1351.1941   -9237.1065    2233.8814    82.230074 
   76200    1361.4127   -105.26492    1.2318348   -104.03309    19888.514    4.3509293    4.3509293    4.3509293    19888.514     64265.91    31307.244   -35907.613    9469.4482    34214.072    -6176.896     82.36564 
   76300    1492.4482   -105.38331    1.3503985   -104.03292   -24633.585    4.3525983    4.3525983    4.3525983   -24633.585   -15025.116   -18379.348    -40496.29    8783.5853    14990.291   -30015.871    82.460464 
   76400    1550.2775   -105.42525    1.4027236   -104.02252     30633.29    4.3355087    4.3355087    4.3355087     30633.29    56168.692    57852.956   -22121.778   -999.68282    12355.792    18587.959    81.492977 
   76500    1555.5891   -105.45057    1.4075297   -104.04304   -5093.4502    4.3353098    4.3353098    4.3353098   -5093.4502   -12482.795    15368.947   -18166.503    19498.167    39978.023   -17117.765    81.481763 
   76600    1626.6129   -105.51358    1.4717936   -104.04178    10814.167    4.3495718    4.3495718    4.3495718    10814.167    7940.8453    34444.504   -9942.8491    5299.9278   -6973.0323    10668.567    82.288569 
   76700    1142.3913   -105.08335    1.0336596   -104.04969   -8766.2094    4.3580148    4.3580148    4.3580148   -8766.2094    29220.957    25414.108   -80933.693    17494.376    53823.256    4350.9109    82.768693 
   76800    2075.3222   -105.90374    1.8777952   -104.02594    35167.533    4.3421024    4.3421024    4.3421024    35167.533     34781.16    56090.183    14631.257   -6336.7482   -12695.369    8.5870935    81.865362 
   76900    1106.4526   -105.05395    1.0011416   -104.05281    11376.577    4.3335389    4.3335389    4.3335389    11376.577    38346.801    24519.568   -28736.639     985.5859    61438.313    9555.8144    81.381949 
   77000    2067.6351   -105.90919    1.8708397   -104.03835    9011.0315    4.3540016    4.3540016    4.3540016    9011.0315    40101.992     15236.95   -28305.848   -2809.7768   -27749.734   -1451.6279    82.540247 
   77100    1321.7709   -105.23313    1.1959661   -104.03716   -12603.764    4.3608779    4.3608779    4.3608779   -12603.764   -20112.317    34947.077   -52646.052    3401.5163    61269.824    11776.965    82.931929 
   77200    1837.3532   -105.69229    1.6624758   -104.02981   -12959.444    4.3580084    4.3580084    4.3580084   -12959.444    10219.634   -20046.997   -29050.968    9085.5233   -22421.678   -8785.2651    82.768327 
   77300    1073.1387    -105.0085   0.97099847    -104.0375    28011.822    4.3405803    4.3405803    4.3405803    28011.822    49876.548    53933.844   -19774.925    11864.508     45615.57   -1734.4573    81.779297 
   77400    1961.5762   -105.80972    1.7748754   -104.03484   -13801.993    4.3501936    4.3501936    4.3501936   -13801.993   -28199.126    16944.301   -30151.154    9862.2138   -13741.139   -9464.6192    82.323868 
   77500    1428.9357   -105.32357    1.2929311   -104.03064    12570.718    4.3550476    4.3550476    4.3550476    12570.718    25484.128    16483.812   -4255.7854   -11570.914    9066.3218   -4400.3102    82.599747 
   77600     984.9267   -104.93209   0.89118237    -104.0409    7852.5031     4.350191     4.350191     4.350191    7852.5031     45507.86    21475.783   -43426.134   -3431.9482    16102.682   -10748.463    82.323719 
   77700    1913.4734   -105.77149     1.731351   -104.04014    10246.083      4.34836      4.34836      4.34836    10246.083    31023.663     23983.29   -24268.705   -14910.749   -15733.263    -18220.39     82.21981 
   77800    1356.8449   -105.27986    1.2277018   -104.05216   -17489.069    4.3533102    4.3533102    4.3533102   -17489.069   -30927.923   -1035.1353   -20504.148    10721.043    43082.597    8186.9971     82.50093 
   77900    1596.5736   -105.48351    1.4446134    -104.0389    16074.065    4.3564976    4.3564976    4.3564976    16074.065    15941.906    44621.658    -12341.37   -5055.7393   -36942.547   -12832.472    82.682281 
   78000    1693.7588   -105.57349    1.5325485   -104.04094   -35270.119    4.3576593    4.3576593    4.3576593   -35270.119    -52909.11   -11904.617   -40996.631   -127.93797    42239.753   -2523.1302    82.748438 
   78100    1552.0924   -105.44624    1.4043658   -104.04188    30336.189    4.3384011    4.3384011    4.3384011    30336.189    70451.195    13781.687    6775.6848     602.5378   -7364.5483    6878.7341    81.656191 
   78200    1436.5429   -105.35908    1.2998142   -104.05926    20523.629    4.3415577    4.3415577    4.3415577    20523.629    42393.857    38509.637   -19332.606    10853.032    24555.374    -6639.495    81.834555 
   78300    1402.1414   -105.33417     1.268687   -104.06548   -15356.605    4.3585619    4.3585619    4.3585619   -15356.605    991.45039   -46709.903   -351.36229     17891.58    36308.069     4863.484    82.799868 
   78400    2101.7619   -105.94656    1.9017184   -104.04484    787.10562    4.3573401    4.3573401    4.3573401    787.10562    31506.137   -28058.166    -1086.654    8454.5123    23041.407   -4359.8256    82.730258 
   78500    806.34669   -104.78304   0.72959943   -104.05344    15349.384    4.3445998    4.3445998    4.3445998    15349.384    56526.039   -2752.3136   -7725.5746    4163.0209    26277.625    528.21237    82.006701 
   78600    2014.3261    -105.8614    1.8226046    -104.0388   -490.41009    4.3388144    4.3388144    4.3388144   -490.41009    23691.352   -6853.2708   -18309.311    7675.5433   -6246.5328    17879.547    81.679526 
   78700    1584.9269   -105.48255    1.4340752   -104.04848    13575.243    4.3447607    4.3447607    4.3447607    13575.243     16678.55    24359.909   -312.72878    7461.7851    38810.388    -6532.564     82.01581 
   78800    1559.8613   -105.45257    1.4113953   -104.04118   -16875.993    4.3617193    4.3617193    4.3617193   -16875.993    38064.657   -55245.664   -33446.973   -539.24226   -9297.7486    20980.796    82.979946 
   78900    1788.8515   -105.63398    1.6185904   -104.01539     2586.377     4.356294     4.356294     4.356294     2586.377    21747.475     13365.07   -27353.414    5251.7729    3449.0377   -6514.6046    82.670686 
   79000    1591.5064   -105.46564    1.4400284   -104.02561   -7608.3048    4.3364061    4.3364061    4.3364061   -7608.3048     10696.03   -27807.627   -5713.3172   -13787.828    13344.727    37602.232    81.543593 
   79100    1833.8148    -105.7018    1.6592741   -104.04253    34619.749     4.327882     4.327882     4.327882    34619.749    55111.997    23471.687    25275.564    10183.767   -28679.019   -2348.1542    81.063663 
   79200    1260.1899   -105.21706    1.1402463   -104.07681    7173.7262    4.3370553    4.3370553    4.3370553    7173.7262    34235.636   -27931.866    15217.408   -6442.1025    2123.8683     32774.13    81.580221 
   79300    1802.5863   -105.70337    1.6310179   -104.07236   -13332.895    4.3550006    4.3550006    4.3550006   -13332.895   -14503.677   -30176.899    4681.8892    889.29006     -10502.8    22617.491    82.597074 
   79400    1406.2978   -105.33885    1.2724478    -104.0664    8743.2337    4.3487627    4.3487627    4.3487627    8743.2337    47635.236    8568.2312   -29973.766    15155.129    -23679.48    5430.8586    82.242659 
   79500    1488.8078   -105.40973    1.3471046   -104.06263    4574.6754    4.3358518    4.3358518    4.3358518    4574.6754    27922.672   -27389.651    13191.005   -7487.5916    16703.519     41217.17    81.512329 
   79600    2342.2805   -106.17238    2.1193446   -104.05304   -8040.4609    4.3438397    4.3438397    4.3438397   -8040.4609   -356.57985   -15019.406   -8745.3969   -4123.1398   -18330.987   -3950.8441    81.963668 
   79700    813.51268   -104.80442   0.73608337   -104.06834   -13.216329    4.3510804    4.3510804    4.3510804   -13.216329    19894.364    4969.0854   -24903.099   -10037.878    6322.5811    42703.044    82.374224 
   79800    2278.4818   -106.10084    2.0616182   -104.03922   -9447.3949     4.360451     4.360451     4.360451   -9447.3949   -19467.747   -16846.954    7972.5159   -12769.554    14579.052   -14452.234    82.907579 
   79900    1205.2451    -105.1409    1.0905311   -104.05037    -16163.35    4.3557013    4.3557013    4.3557013    -16163.35    25969.345   -47935.009   -26524.385   -7301.7477   -13050.769     47533.57    82.636951 
   80000    1452.9518   -105.35416    1.3146614    -104.0395    24325.746    4.3382812    4.3382812    4.3382812    24325.746   -4566.7165    47478.163     30065.79   -24745.097    21103.528    -8476.176    81.649416 
   80100    2046.0251   -105.90548    1.8512866   -104.05419    -3476.828    4.3462895    4.3462895    4.3462895    -3476.828    48970.272   -43703.769   -15696.987    9160.1983   -20304.749    10582.603    82.102421 
   80200    1147.6829   -105.11024    1.0384476   -104.07179   -5212.3503    4.3648067    4.3648067    4.3648067   -5212.3503    -16955.54    562.19512    756.29393   -13255.408    19581.505    31439.101    83.156281 
   80300    2052.7895   -105.90184    1.8574071   -104.04443   -11302.805    4.3655138    4.3655138    4.3655138   -11302.805    8910.0563       -38325   -4493.4722    3138.6922    4443.3934   -21889.083      83.1967 
   80400    1254.4279   -105.17491    1.1350327   -104.03988    15082.512    4.3480501    4.3480501    4.3480501    15082.512    40358.106   -27579.731    32469.161   -7880.7534   -13677.497    54869.176    82.202235 
   80500      2033.91     -105.876    1.8403245   -104.03568    9811.4708    4.3388292    4.3388292    4.3388292    9811.4708   -4044.6495   -14257.907    47736.969   -17588.229    14950.775   -19289.043    81.680362 
   80600    1484.1656    -105.4098    1.3429042    -104.0669    108.80069    4.3519261    4.3519261    4.3519261    108.80069    28045.142   -36492.415    8773.6755    10603.529   -6885.5755    41203.468    82.422266 
   80700     1432.307   -105.35484    1.2959814   -104.05885    -5355.201     4.368617     4.368617     4.368617    -5355.201    11173.674   -35085.359    7846.0819   -20324.293    7337.7699     760.6857    83.374243 
   80800    1674.6235   -105.55878    1.5152346   -104.04355   -26598.981    4.3605278    4.3605278    4.3605278   -26598.981   -9088.9955    -63983.93   -6724.0163    15094.763   -12294.202    29931.884    82.911959 
   80900    1846.7274    -105.7018    1.6709578   -104.03084   -8865.2719    4.3550386    4.3550386    4.3550386   -8865.2719    36352.695   -32197.215   -30751.297    3874.8532    12707.426    18853.285    82.599236 
   81000    1360.1446   -105.26511    1.2306874   -104.03442   -5446.0787    4.3450847    4.3450847    4.3450847   -5446.0787   -40483.705   -17424.664    41570.133     8523.225   -30048.993    5041.0932    82.034158 
   81100    1728.6281   -105.62028    1.5640991   -104.05618    -4708.904    4.3451769    4.3451769    4.3451769    -4708.904    47371.988   -54370.299   -7128.4013    17621.668    21156.937    40877.445    82.039382 
   81200    1431.8672   -105.35981    1.2955835   -104.06423    31114.644    4.3644782    4.3644782    4.3644782    31114.644    15563.132    14305.304    63475.494     20187.59   -29958.559   -4810.0466    83.137505 
   81300    1307.7356   -105.23824    1.1832666   -104.05497   -21800.112     4.378301     4.378301     4.378301   -21800.112    -9267.492   -38609.998   -17522.847    11780.801    3022.3639    33234.039     83.92993 
   81400    1827.7672   -105.66607    1.6538022   -104.01227   -19006.431    4.3781847    4.3781847    4.3781847   -19006.431    19009.501   -31503.928   -44524.866    1639.4429    3715.6453   -6035.3124    83.923241 
   81500    1103.1749   -105.00347   0.99817586    -104.0053    8135.4739     4.361981     4.361981     4.361981    8135.4739   -10683.685    40667.453   -5577.3462    32173.237   -26673.973    20855.238    82.994884 
   81600    1615.7689    -105.4659    1.4619817   -104.00392    5300.1637    4.3600532    4.3600532    4.3600532    5300.1637    42039.839   -8784.8675   -17354.481    25511.764    29415.869   -5709.4047    82.884891 
   81700    1711.2145   -105.57393    1.5483429   -104.02559   -31192.388    4.3752463    4.3752463    4.3752463   -31192.388   -4694.7664   -12662.459   -76219.939     7591.916    -30541.18    18184.488    83.754377 
   81800    1312.0752   -105.20611    1.1871932   -104.01891   -17060.856    4.3721057    4.3721057    4.3721057   -17060.856   -32542.949   -10389.048   -8250.5722    48535.576    13963.461   -2513.0036     83.57415 
   81900    1556.0049   -105.40233    1.4079059   -103.99442    32984.215    4.3521401    4.3521401    4.3521401    32984.215    70505.624    48805.591   -20358.569    11402.755   -9051.0265   -13882.263    82.434421 
   82000    1763.8121   -105.61466    1.5959343   -104.01872   -27495.077    4.3709655    4.3709655    4.3709655   -27495.077   -53355.486    16951.742   -46081.488     10343.58   -10790.794    -5232.311     83.50878 
   82100    1660.0159   -105.51309    1.5020173   -104.01108   -4951.6209    4.3800023    4.3800023    4.3800023   -4951.6209   -40868.556    85105.317   -59091.624   -26762.874    9669.7662    -9564.617    84.027806 
   82200    1438.8076   -105.31399    1.3018633   -104.01213    6207.5349    4.3623929    4.3623929    4.3623929    6207.5349    12480.355    11594.691   -5452.4416    7135.5269   -26203.939     381.4456    83.018394 
   82300    1574.4044   -105.44102    1.4245542   -104.01647    27079.208    4.3524684    4.3524684    4.3524684    27079.208    3217.1274    62350.307    15670.191   -1550.2308    20917.055   -10747.749    82.453078 
   82400    2151.6735    -105.9812    1.9468794   -104.03432   -29238.129    4.3619832    4.3619832    4.3619832   -29238.129   -37453.185   -31628.982    -18632.22    18584.744    -19742.78    7028.7571    82.995009 
   82500    1093.8503    -105.0304   0.98973878   -104.04066   -3340.8932    4.3672819    4.3672819    4.3672819   -3340.8932     3318.739   -3357.3486     -9984.07    27965.847    8550.1603    3522.0967    83.297826 
   82600    2316.0906   -106.11024    2.0956474    -104.0146   -5282.3757    4.3607688    4.3607688    4.3607688   -5282.3757    15085.813   -4843.5297    -26089.41   -7383.1515   -5897.6497   -6617.7784    82.925708 
   82700    799.15184   -104.76505   0.72308938   -104.04196    2329.8582    4.3523192    4.3523192    4.3523192    2329.8582   -32166.732    12955.731    26200.576    61257.691   -4364.2654     19419.32    82.444603 
   82800    1875.8529    -105.7338    1.6973112   -104.03649    26659.996    4.3446562    4.3446562    4.3446562    26659.996    14166.404    88331.292   -22517.708   -3999.8279     5569.369   -14891.153    82.009895 
   82900    1367.8611   -105.29828    1.2376695   -104.06061   -24100.013    4.3545256    4.3545256    4.3545256   -24100.013   -53868.756   -50720.408    32289.126     53687.29   -14943.491    8473.8702    82.570048 
   83000    1626.1071   -105.51087    1.4713359   -104.03953   -15113.073    4.3645276    4.3645276    4.3645276   -15113.073   -15668.364   -7911.8034   -21759.052    17224.721   -3731.0071   -6572.8809    83.140325 
   83100    1589.7732   -105.46649    1.4384602   -104.02803   -34420.073     4.370026     4.370026     4.370026   -34420.073   -66480.909   -16839.492   -19939.816    16144.532   -27182.916   -3151.3242    83.454945 
   83200    1619.2259   -105.49214    1.4651096   -104.02703   -17908.325    4.3643492    4.3643492    4.3643492   -17908.325   -20209.203   -62202.683    28686.912    29258.825    7376.2984   -8548.7935    83.130131 
   83300     1472.539   -105.34652    1.3323842   -104.01414     25955.23    4.3437305    4.3437305    4.3437305     25955.23    9308.2197    59975.818     8581.651    5885.3692   -42795.849    -6481.467    81.957483 
   83400      1664.32   -105.54419    1.5059117   -104.03827   -23736.585    4.3555403    4.3555403    4.3555403   -23736.585   -29799.143   -35071.367   -6339.2436    32965.414    5347.2816   -7235.2738    82.627782 
   83500    1908.3703    -105.7543    1.7267335   -104.02757    -27071.64    4.3686822    4.3686822    4.3686822    -27071.64   -51371.983    7130.3415   -36973.278   -27357.417   -17090.637    -8533.151    83.377978 
   83600    995.20358   -104.94325   0.90048111   -104.04277   -15603.512    4.3535062    4.3535062    4.3535062   -15603.512   -40162.175   -43811.612    37163.251     59529.98   -21760.615    3436.7879    82.512072 
   83700     2162.416   -105.97276    1.9565994   -104.01616    12629.968    4.3364699    4.3364699    4.3364699    12629.968   -9726.2094    39632.478     7983.635   -12844.834    1244.4732    3161.6629    81.547192 
   83800    1056.7096   -105.01511   0.95613305   -104.05898   -32863.399    4.3571955    4.3571955    4.3571955   -32863.399   -74979.891    15272.583   -38882.887     47857.36   -30020.938    3862.6188    82.722019 
   83900     2153.174   -105.98549    1.9482371   -104.03725   -3166.3351    4.3611484    4.3611484    4.3611484   -3166.3351    12301.668   -24151.392    2350.7185    12084.087    17327.009    1637.8029    82.947367 
   84000    1243.6912   -105.17124     1.125318   -104.04592    -9684.564    4.3531134    4.3531134    4.3531134    -9684.564    -34537.47    21152.681   -15668.903    10136.577   -38846.274   -1843.1477    82.489739 
   84100    1885.7693   -105.73895    1.7062837   -104.03266   -4148.4143    4.3509561    4.3509561    4.3509561   -4148.4143    20552.982   -31024.514    -1973.711    42001.733    14279.235     7766.579    82.367164 
   84200    1827.9481   -105.68774    1.6539658   -104.03377    -6049.632    4.3460102    4.3460102    4.3460102    -6049.632   -16417.508     22414.21   -24145.598   -7876.8927   -6229.1739     2467.475    82.086589 
   84300    1067.1448    -105.0161   0.96557509   -104.05052    22526.939    4.3513022    4.3513022    4.3513022    22526.939     31775.45    6654.1903    29151.176    19257.916   -5613.8323    3398.7168     82.38682 
   84400    1895.0935   -105.75334    1.7147205   -104.03862   -25593.799    4.3574327    4.3574327    4.3574327   -25593.799   -34412.205   -25249.027   -17120.166   -18614.824    31238.346    3882.6701    82.735534 
   84500    1432.2021   -105.33059    1.2958866   -104.03471   -24403.077    4.3611965    4.3611965    4.3611965   -24403.077   -11696.277   -35887.381   -25625.575    31844.075   -32248.331      13283.7    82.950108 
   84600    1585.0657    -105.4529    1.4342007    -104.0187    11043.006    4.3477717    4.3477717    4.3477717    11043.006    4233.0866    2867.4648    26028.466   -1268.5853     44725.53   -15696.257    82.186447 
   84700    1909.5706   -105.77132    1.7278196    -104.0435   -11361.935    4.3462487    4.3462487    4.3462487   -11361.935   -13408.042   -9459.4396   -11218.324   -12696.444   -23642.245    5920.8696    82.100106 
   84800    1792.2849   -105.69028    1.6216971   -104.06858   -13053.656     4.363311     4.363311     4.363311   -13053.656    22444.634   -43881.269   -17724.333    6119.1239     2069.572   -18147.653    83.070824 
   84900      1807.57   -105.68536    1.6355273   -104.04983    -1078.402    4.3597584    4.3597584    4.3597584    -1078.402    4267.4374   -1341.7204    -6160.923   -25117.081    22422.015    2303.4624     82.86808 
   85000    1683.4857   -105.55279    1.5232533   -104.02954    20001.551    4.3414536    4.3414536    4.3414536    20001.551    9366.1458     37901.94    12736.566    17666.638    -29289.83   -6874.0197    81.828669 
   85100    1464.6424   -105.38186    1.3252392   -104.05662   -2915.5343    4.3452818    4.3452818    4.3452818   -2915.5343    9639.9951    27222.827   -45609.425   -7376.3177    49943.704   -25471.518    82.045322 
   85200    1873.3625    -105.7451    1.6950578   -104.05004   -2615.6446    4.3658607    4.3658607    4.3658607   -2615.6446   -24766.676    13407.949     3511.794    9763.5973   -23440.229    12913.285    83.216536 
   85300    851.78097   -104.81192   0.77070932   -104.04121   -32069.166    4.3766198    4.3766198    4.3766198   -32069.166   -4612.0274   -27177.729   -64417.741    8073.5952    28610.435    -24232.86     83.83328 
   85400    2317.3578   -106.09777     2.096794   -104.00098   -13554.255    4.3455097    4.3455097    4.3455097   -13554.255    6158.5262    4397.0196    -51218.31    1662.1513    20525.611    20415.844    82.058236 
   85500    1585.3994   -105.45581    1.4345027   -104.02131    17302.501    4.3336322    4.3336322    4.3336322    17302.501    48831.847   -8981.2765    12056.932    13558.928    13797.546   -23438.993    81.387209 
   85600    1265.8464   -105.21232    1.1453645   -104.06695    1512.0427     4.355302     4.355302     4.355302    1512.0427    32006.628    28212.761   -55683.261     5338.287    41385.854    20897.101    82.614223 
   85700    2088.7561   -105.92544    1.8899504   -104.03549   -10352.415    4.3722092    4.3722092    4.3722092   -10352.415   -2394.4857    30481.354   -59144.113   -11112.625   -8083.7584   -21270.056    83.580082 
   85800    1431.9786   -105.32665    1.2956844   -104.03096   -37263.124    4.3534498    4.3534498    4.3534498   -37263.124   -40453.368   -7387.1741   -63948.829     9075.497    48590.562   -9889.5642    82.508867 
   85900    1682.3041   -105.53316    1.5221841   -104.01097    47322.751     4.326182     4.326182     4.326182    47322.751    41190.127    103027.29   -2249.1658    5309.1707   -16660.674    25692.735    80.968174 
   86000    1629.9272    -105.5383    1.4747924    -104.0635   -24499.822    4.3486084    4.3486084    4.3486084   -24499.822   -10776.249    6307.0015   -69030.218   -11584.575    23690.802   -36543.523    82.233904 
   86100    1471.9448   -105.38671    1.3318466   -104.05486    1279.4797    4.3724824    4.3724824    4.3724824    1279.4797   -17857.183    40894.577   -19198.955    23585.806   -9944.1835   -19289.529     83.59575 
   86200    1717.8645    -105.5932    1.5543599   -104.03884   -33036.619    4.3661353    4.3661353    4.3661353   -33036.619   -34047.146    -32975.31   -32087.401   -6007.7855    8633.9568   -5239.0764     83.23224 
   86300    1460.1762   -105.35706    1.3211981   -104.03586    2534.4853    4.3450833    4.3450833    4.3450833    2534.4853    3294.9752    15942.614   -11634.134    18631.352    4192.0981   -18578.617     82.03408 
   86400     1901.767   -105.74829    1.7207588   -104.02753    34718.964    4.3264032    4.3264032    4.3264032    34718.964     3886.352    32295.263    67975.278    3882.0136   -12387.786    3046.7684    80.980599 
   86500    905.80128   -104.89401   0.81958803   -104.07442   -5504.6152    4.3562204    4.3562204    4.3562204   -5504.6152   -46000.835    9635.4905    19851.499    14877.699    26918.088   -22075.943    82.666499 
   86600    1899.9748   -105.77511    1.7191371   -104.05597   -24252.303    4.3695362    4.3695362    4.3695362   -24252.303   -69970.197   -19615.709    16828.997    22560.564   -14488.975    22044.002    83.426883 
   86700    1463.9386   -105.36613    1.3246024   -104.04152   -35491.011    4.3665958    4.3665958    4.3665958   -35491.011   -32461.887   -39411.447   -34599.698   -10921.171    25547.051   -34519.147    83.258575 
   86800    1664.6507   -105.53847    1.5062109   -104.03225   -16949.607    4.3349373    4.3349373    4.3349373   -16949.607   -24136.628   -32373.831     5661.639    40960.266     6906.535   -13419.299     81.46076 
   86900    1927.0968   -105.78613    1.7436777   -104.04245    28669.716    4.3217808    4.3217808    4.3217808    28669.716    15285.236    1978.2561    68745.657   -21672.426    10296.506   -10494.784    80.721312 
   87000    1137.3753   -105.11924    1.0291211   -104.09012    8236.7233    4.3559546    4.3559546    4.3559546    8236.7233    10215.801   -10396.812    24891.181    1893.0002    15296.177   -18321.149    82.651366 
   87100    1708.5771   -105.59725    1.5459565    -104.0513    -21099.53    4.3845836    4.3845836    4.3845836    -21099.53   -1717.2256   -38010.249   -23571.116    3594.1569   -4969.4608     10930.16     84.29175 
   87200    1934.3742   -105.75702    1.7502624   -104.00676   -31958.983    4.3763216    4.3763216    4.3763216   -31958.983   -33963.661   -28234.211   -33679.078   -837.46638    39594.444   -2637.4584    83.816147 
   87300    1562.0727   -105.39162    1.4133962   -103.97822    19785.787    4.3478631    4.3478631    4.3478631    19785.787    51084.916   -20921.721    29194.165    25786.363   -18263.148   -10510.896     82.19163 
   87400    1354.0011   -105.24367    1.2251286   -104.01854   -291.70585    4.3519125    4.3519125    4.3519125   -291.70585   -11063.846    45464.217   -35275.488   -34857.574     35141.51      4358.84    82.421489 
   87500    1823.8387   -105.67923    1.6502476   -104.02898    12037.394    4.3548656    4.3548656    4.3548656    12037.394     37855.08    14210.884    -15953.78    19118.983   -7244.4915   -12121.244    82.589395 
   87600    1301.9672   -105.21965    1.1780473   -104.04161    1189.6918    4.3545099    4.3545099    4.3545099    1189.6918    4174.6679     17241.48   -17847.073   -19312.156    6670.7301    159.82136    82.569155 
   87700    1610.4991    -105.5093    1.4572134   -104.05208   -18014.202    4.3582933    4.3582933    4.3582933   -18014.202   -30353.236   -5627.2977   -18062.072   -6070.4886    14298.912    34458.013    82.784564 
   87800     1727.844   -105.61873    1.5633895   -104.05534    21942.508    4.3425916    4.3425916    4.3425916    21942.508   -6572.6205    43408.137    28992.007    16725.714    -10981.91   -8835.4925    81.893035 
   87900    1198.8524   -105.15901    1.0847469   -104.07426   -4377.5724    4.3483899    4.3483899    4.3483899   -4377.5724    23856.541   -22873.006   -14116.252   -13777.807    18661.828    27119.028    82.221507 
   88000     2102.188   -105.95252    1.9021039   -104.05042   -6319.3204    4.3583484    4.3583484    4.3583484   -6319.3204   -16178.998    4336.0541    -7115.017     18186.47   -31328.893   -3537.2582    82.787702 
   88100    1491.8494   -105.38705    1.3498567    -104.0372     20950.96      4.34966      4.34966      4.34966     20950.96   -1662.9985    39647.354    24868.526   -11366.723    18288.324   -7153.2183    82.293575 
   88200    1432.8144   -105.35125    1.2964405   -104.05481   -23782.413    4.3502808    4.3502808    4.3502808   -23782.413     37330.13   -50200.935   -58476.435   -8322.7975   -6601.9555    31658.809    82.328815 
   88300    1947.8453   -105.81156    1.7624514   -104.04911    52495.964    4.3451502    4.3451502    4.3451502    52495.964    9783.9837    73115.787    74588.121   -1622.3465   -9764.3589   -12629.267    82.037868 
   88400    1556.9243   -105.48295    1.4087378   -104.07422   -22688.984     4.347207     4.347207     4.347207   -22688.984   -17531.356   -9585.0196   -40950.576    -23033.72    26360.999    17540.632    82.154427 
   88500     1480.475   -105.40396    1.3395649    -104.0644    21812.958    4.3517926    4.3517926    4.3517926    21812.958   -7563.2437    32645.104    40357.013    14821.112   -10722.586    6899.9568    82.414676 
   88600    1973.3383   -105.83782     1.785518    -104.0523    2695.4845    4.3559637    4.3559637    4.3559637    2695.4845   -22007.332     53686.34   -23592.555     9516.603    9804.5425   -3798.4095    82.651884 
   88700    1128.3999   -105.08393    1.0209999   -104.06293   -24003.553    4.3506839    4.3506839    4.3506839   -24003.553   -46353.137   -41389.982     15732.46    384.53113    5718.6986    26097.153    82.351705 
   88800    2059.9105    -105.9133    1.8638503   -104.04945    19697.024    4.3396371    4.3396371    4.3396371    19697.024   -13110.458    24219.664    47981.865     19631.89   -11290.593   -7942.6886    81.726002 
   88900    1668.2943   -105.57665    1.5095078   -104.06715   -22280.435    4.3591134    4.3591134    4.3591134   -22280.435   -46525.718   -21666.144    1350.5565    9193.0583    11774.386    18043.822    82.831306 
   89000    1022.5606   -104.99519   0.92523429   -104.06996   -19154.241    4.3534134    4.3534134    4.3534134   -19154.241   -73719.924   -15382.887    31640.088    28974.423   -4340.2671    6744.8377    82.506799 
   89100    2340.8419   -106.16408    2.1180429   -104.04603    2708.5626    4.3390849    4.3390849    4.3390849    2708.5626    15390.508     17960.78     -25225.6   -5253.8333    1072.7058   -22205.614    81.694803 
   89200    1365.4132   -105.31148    1.2354546   -104.07602    1804.5387    4.3446099    4.3446099    4.3446099    1804.5387    -24561.21   -8618.9629     38593.79    25921.389    19761.677    4779.3622    82.007274 
   89300    1152.5288   -105.11853    1.0428323    -104.0757    13552.308    4.3556556    4.3556556    4.3556556    13552.308   -9087.4422    2370.8458    47373.521   -21575.046    6034.7801   -13849.015    82.634347 
   89400    1986.1212   -105.85113    1.7970842   -104.05405   -22412.217    4.3642606    4.3642606    4.3642606   -22412.217   -33371.682   -49096.256    15231.288    11123.383    5151.1435   -15390.974    83.125072 
   89500    1882.4438   -105.73371    1.7032747   -104.03043   -20659.636    4.3666055    4.3666055    4.3666055   -20659.636   -44805.266    -32082.49    14908.848    8943.6744    9251.3281    7449.2311    83.259129 
   89600    1155.8163   -105.07412    1.0458069   -104.02832    7731.9657    4.3496308    4.3496308    4.3496308    7731.9657   -10044.077   -14867.902    48107.876   -1424.2997   -12134.849   -40635.868    82.291915 
   89700    2327.5239   -106.13982    2.1059926   -104.03382   -11452.442    4.3343848    4.3343848    4.3343848   -11452.442   -34517.205   -16512.905    16672.784    22709.205    3943.7057    11184.331    81.429617 
   89800    1846.3309   -105.73136     1.670599   -104.06076    -12851.86      4.35207      4.35207      4.35207    -12851.86     6556.079   -48609.731    3498.0713   -10365.353   -10841.307   -32893.565    82.430437 
   89900    1413.4274   -105.32112    1.2788988   -104.04222   -20405.936    4.3713766    4.3713766    4.3713766   -20405.936   -7899.0693   -42779.849   -10538.889    18250.967    -6806.495   -239.09714    83.532346 
   90000    1604.8287   -105.45195    1.4520827   -103.99987    22144.281    4.3665168    4.3665168    4.3665168    22144.281   -2196.8869     20965.62    47664.111   -14742.828   -8526.2564   -17688.235    83.254057 
   90100    1717.3418   -105.55048     1.553887    -103.9966    -8562.235    4.3696096    4.3696096    4.3696096    -8562.235    3385.1197   -42605.723    13533.898   -5904.3532    9019.9445   -2598.5275    83.431086 
   90200    1955.1091   -105.77075    1.7690238   -104.00173   -10921.951    4.3541153    4.3541153    4.3541153   -10921.951   -33408.456    20287.012    -19644.41    2509.9783   -7449.9648    1014.6274     82.54671 
   90300    1852.6937   -105.67905    1.6763562    -104.0027    36350.819    4.3382071    4.3382071    4.3382071    36350.819    17946.127    17505.362    73600.968    -5037.544    8409.3241   -40186.875    81.645237 
   90400    1443.2648   -105.34965    1.3058963   -104.04376   -10428.566    4.3520751    4.3520751    4.3520751   -10428.566    -31214.35    16442.232   -16513.579    12445.156   -12078.873    16294.271    82.430732 
   90500    1650.5198   -105.53115     1.493425   -104.03772    12000.298    4.3697032    4.3697032    4.3697032    12000.298    -9974.963    54786.573   -8810.7158   -1411.5965    3163.2931   -27061.585     83.43645 
   90600    1293.5849   -105.21653    1.1704628   -104.04607   -31877.548    4.3579381    4.3579381    4.3579381   -31877.548   -66290.637    145.26223   -29487.269    17329.482    3150.0343    7306.8233    82.764322 
   90700    1852.0134   -105.70912    1.6757406   -104.03338    25139.014    4.3238208    4.3238208    4.3238208    25139.014    5839.1901    37560.136    32017.717    28753.689   -360.88904    22145.211    80.835672 
   90800    2014.2387   -105.88433    1.8225255   -104.06181    11128.523    4.3276867    4.3276867    4.3276867    11128.523    4553.3497   -6487.9127    35320.132   -21637.563   -9383.3164   -7403.9513    81.052689 
   90900    902.53368     -104.905   0.81663144   -104.08837   -1245.6906    4.3653026    4.3653026    4.3653026   -1245.6906   -36957.839   -23955.231    57175.998    19416.393    -11670.69    9121.4722    83.184622 
   91000     2019.999   -105.85276    1.8277375   -104.02502   -3535.0064    4.3792765    4.3792765    4.3792765   -3535.0064   -30024.551   -20614.314    40033.846   -10163.284   -1111.6903   -3778.4291    83.986038 
   91100    1243.1015   -105.14007    1.1247844   -104.01529   -16808.942    4.3485508    4.3485508    4.3485508   -16808.942   -7703.5969   -50846.188      8122.96    23338.548   -8897.8459    9385.1843    82.230637 
   91200    1863.3303   -105.68355    1.6859805   -103.99757    30480.202    4.3161632    4.3161632    4.3161632    30480.202    50049.735   -18348.854    59739.726   -12509.811   -3191.9109    237.71226    80.406946 
   91300    1775.3247   -105.65143    1.6063511   -104.04508   -7749.0464    4.3356435    4.3356435    4.3356435   -7749.0464   -19222.279   -27165.714    23140.855    20125.646   -6710.2118   -8659.1301    81.500577 
   91400    1646.4403   -105.54223    1.4897338    -104.0525   -11046.107    4.3675195    4.3675195    4.3675195   -11046.107    1155.3855   -53224.245    18930.538     5008.824    28852.979    16668.662    83.311424 
   91500    1311.6504   -105.22664    1.1868088   -104.03983   -22492.784    4.3637365    4.3637365    4.3637365   -22492.784    34920.722   -71164.013   -31235.063    11208.974   -337.29905   -15721.227    83.095126 
   91600    1728.6077   -105.59287    1.5640806   -104.02879    11547.691    4.3273138    4.3273138    4.3273138    11547.691    15293.652     -38997.8    58347.221    27037.924    4988.3185    6674.9949    81.031743 
   91700    1782.8694   -105.65409    1.6131777   -104.04092     31995.68    4.3246622    4.3246622    4.3246622     31995.68    134738.66   -35362.775   -3388.8469    469.41968    13880.299   -20597.377    80.882871 
   91800    1270.2068    -105.2137    1.1493098   -104.06439    -21836.93    4.3540213    4.3540213    4.3540213    -21836.93   -42015.248   -67669.479    44173.936    51220.679   -1023.7152    6850.6038    82.541368 
   91900    1716.2104   -105.59616    1.5528633    -104.0433   -17158.774    4.3573931    4.3573931    4.3573931   -17158.774   -1813.3614   -39698.925   -9964.0355   -23131.434    12268.716   -12595.191    82.733279 
   92000    1945.6841   -105.79167    1.7604958   -104.03117    -13887.84    4.3527322    4.3527322    4.3527322    -13887.84    11371.143     -71496.8    18462.137    32601.723    11290.476    2826.3852    82.468074 
   92100    1400.5108   -105.29855    1.2672116   -104.03134   -4901.2824    4.3460375    4.3460375    4.3460375   -4901.2824   -11917.453   -41955.835    39169.441   -19383.822   -6935.8623   -3636.6831    82.088137 
   92200    1954.0013   -105.79762    1.7680214    -104.0296    20596.442    4.3407636    4.3407636    4.3407636    20596.442    90828.869    -17775.52   -11264.021    11544.852     13720.67    2567.2393    81.789661 
   92300    1271.8794   -105.19543    1.1508232   -104.04461   -16499.759     4.354734     4.354734     4.354734   -16499.759    9114.4134   -65074.759    6461.0705   -16286.704   -8177.1122    9775.1487    82.581905 
   92400    1818.7377   -105.66839    1.6456321   -104.02276    4971.1212    4.3623678    4.3623678    4.3623678    4971.1212    54125.843   -29121.632   -10090.847   -7522.8205   -13366.648   -1055.8532    83.016961 
   92500    1458.0163   -105.33056    1.3192438   -104.01131   -23019.854    4.3684208    4.3684208    4.3684208   -23019.854    23172.984   -60228.579   -32003.967    130.07173   -6773.5386    12650.565    83.363011 
   92600    1828.5324   -105.64888    1.6544946   -103.99438   -9807.8795    4.3596615    4.3596615    4.3596615   -9807.8795    6020.0517   -10962.266   -24481.424   -14207.348   -11154.175   -8605.7876    82.862551 
   92700    1987.7143   -105.80911    1.7985257   -104.01059    14316.425    4.3447786    4.3447786    4.3447786    14316.425    28506.214    -717.9537    15161.014   -5025.5613    9346.5397    14808.487    82.016823 
   92800    1265.6855   -105.18267    1.1452189   -104.03745     14652.65    4.3425827    4.3425827    4.3425827     14652.65    33730.871   -17337.963    27565.043   -22456.118   -15883.951   -7734.3741    81.892532 
   92900    1511.9155   -105.41853    1.3680129   -104.05052    13090.258    4.3452386    4.3452386    4.3452386    13090.258    64102.741   -22108.428   -2723.5395    1548.6256    16787.462    19393.273    82.042876 
   93000    1792.3543   -105.67456    1.6217598    -104.0528    4824.0382     4.341025     4.341025     4.341025    4824.0382    33901.558   -15702.562   -3726.8824   -13064.503    15981.316    11141.083    81.804435 
   93100    1681.7537   -105.57503    1.5216861   -104.05335   -26890.302    4.3498862    4.3498862    4.3498862   -26890.302   -13053.472   -55378.365   -12239.067    4568.8914   -5331.2666    26668.493    82.306417 
   93200    1535.9738   -105.44467    1.3897814   -104.05489   -33845.125    4.3514274    4.3514274    4.3514274   -33845.125    1445.1739   -42700.312   -60280.238    8682.4849    22800.889    20827.196    82.393929 
   93300     2074.768    -105.9143    1.8772937   -104.03701    5913.6852    4.3428483    4.3428483    4.3428483    5913.6852    1642.0994   -32134.477    48233.433   -7326.1232    381.25488   -5912.7262    81.907557 
   93400    1059.9081   -105.01212   0.95902715    -104.0531   -17697.196    4.3482765    4.3482765    4.3482765   -17697.196     41619.54   -51232.229     -43478.9    8226.6562    -6185.127    36692.582    82.215074 
   93500    1783.8237   -105.65572    1.6140412   -104.04168   -22934.088    4.3501746    4.3501746    4.3501746   -22934.088   -20365.488   -12415.708   -36021.068   -7134.1378    11672.934   -25303.762    82.322786 
   93600    2146.9708   -105.97935    1.9426243   -104.03672   -22030.017    4.3458139    4.3458139    4.3458139   -22030.017   -29482.649   -41758.053    5150.6507    13488.629   -11559.738     24053.66    82.075467 
   93700    915.29639   -104.87823   0.82817941   -104.05005    14677.825    4.3412961    4.3412961    4.3412961    14677.825    58102.814    41721.968   -55791.307    9534.7847    19071.585   -8427.2699    81.819763 
   93800    2021.3108   -105.87222    1.8289245    -104.0433   -17963.064    4.3470081    4.3470081    4.3470081   -17963.064   -25619.142   -5621.5041   -22648.544    -115.9218    -18980.39   -4991.9062    82.143147 
   93900    1299.8214   -105.22976    1.1761057   -104.05365    12871.049      4.34961      4.34961      4.34961    12871.049   -3116.3379     39246.74    2482.7454    16459.295        11943    12315.073    82.290739 
   94000     1250.674   -105.18424    1.1316362    -104.0526    2056.9612    4.3479422    4.3479422    4.3479422    2056.9612    21351.352   -14446.506   -733.96278   -5326.0765    11842.463   -10956.077    82.196111 
   94100    1528.1766   -105.42588    1.3827263   -104.04315    12422.497     4.350329     4.350329     4.350329    12422.497   -38446.153    1908.6533    73804.992    5614.4076   -21555.169   -4591.1797    82.331556 
   94200    1474.0495   -105.37109     1.333751   -104.03734    22853.379    4.3482972    4.3482972    4.3482972    22853.379    2792.0777    21915.734    43852.326   -4322.3038    37885.967   -38695.936    82.216248 
   94300     1188.421   -105.12352    1.0753083   -104.04821   -12193.872    4.3505107    4.3505107    4.3505107   -12193.872   -18953.647    3698.9513   -21326.921    13257.395   -37008.216   -10142.096    82.341871 
   94400    2112.5586   -105.94412    1.9114874   -104.03264    2381.6948    4.3540146    4.3540146    4.3540146    2381.6948    5231.4479   -2152.5614    4066.1979    4502.0227    6536.0596   -10174.154    82.540987 
   94500    1475.6527   -105.38183    1.3352016   -104.04662   -7087.1145    4.3493705    4.3493705    4.3493705   -7087.1145   -28558.924    46855.202   -39557.621    6060.4816   -29732.908    -19280.19    82.277144 
   94600    1576.6296   -105.48075    1.4265676   -104.05418     4551.104    4.3424571    4.3424571    4.3424571     4551.104    12302.598   -17547.325    18898.039    24758.203   -21811.496    165.40181    81.885426 
   94700    1877.9323   -105.74067    1.6991927   -104.04148      30672.9    4.3448713    4.3448713    4.3448713      30672.9    -12779.37     40190.26     64607.81   -11473.855   -10477.614    -11171.28    82.022075 
   94800    1048.7531   -105.00038   0.94893385   -104.05145   -13094.466    4.3508802    4.3508802    4.3508802   -13094.466    -73456.43   -20773.063    54946.096    22856.826   -29804.958   -7933.2741    82.362851 
   94900    1723.8718   -105.59679    1.5597954   -104.03699   -15516.184    4.3543014    4.3543014    4.3543014   -15516.184    7449.7889   -44233.192     -9765.15    -7210.032    6144.3083    34082.073    82.557294 
   95000    1800.1301   -105.65598    1.6287955   -104.02718   -24708.621    4.3452204    4.3452204    4.3452204   -24708.621   -57815.799   -16095.704   -214.35866    18559.928   -42537.266   -1024.0027    82.041844 
   95100    1249.8864   -105.17089    1.1309235   -104.03997    3983.6976     4.333752     4.333752     4.333752    3983.6976    12427.332   -9492.3075     9016.068    16999.487    21090.206    39105.632    81.393956 
   95200    1865.4297   -105.73214      1.68788   -104.04426   -9569.5693    4.3419873    4.3419873    4.3419873   -9569.5693   -18309.413   -30180.522    19781.227    2228.4492   -22069.266    27133.773    81.858854 
   95300    1547.6563   -105.44731     1.400352   -104.04696    -9500.147    4.3513005    4.3513005    4.3513005    -9500.147   -54207.876    -62372.86    88080.295     37640.89     8494.949    5440.8434    82.386722 
   95400    975.83929   -104.93328    0.8829599   -104.05032    5389.1751    4.3421148    4.3421148    4.3421148    5389.1751    30973.902   -37338.827     22532.45   -2040.7108    26207.817    34197.803    81.866064 
   95500    2267.9819   -106.09363    2.0521177   -104.04152    5876.1965    4.3371612    4.3371612    4.3371612    5876.1965   -23981.136   -16860.218    58469.944    22109.203   -4843.8056   -14349.298    81.586199 
   95600    1794.6968    -105.6847    1.6238794   -104.06082   -16734.096     4.342541     4.342541     4.342541   -16734.096   -18580.759   -40864.792    9243.2625   -15074.753    28261.547    26883.339    81.890172 
   95700    1114.4666   -105.07495    1.0083928   -104.06656    29202.454    4.3373434    4.3373434    4.3373434    29202.454    20019.485   -29478.678    97066.555    27985.201   -3631.0626   -9097.6074    81.596482 
   95800    2045.4836   -105.90425    1.8507965   -104.05345    482.50006    4.3473877    4.3473877    4.3473877    482.50006   -15117.033    6207.9674    10356.566   -6543.0656    8229.6126   -8034.0506    82.164668 
   95900    1095.3336   -105.05307   0.99108082   -104.06199    6243.5109    4.3401772    4.3401772    4.3401772    6243.5109   -33704.435   -46902.479    99337.446    20384.187    20641.897    15836.396    81.756519 
   96000    1822.0768   -105.70834    1.6486533   -104.05968   -10270.272    4.3361436    4.3361436    4.3361436   -10270.272    -19448.56   -20630.581     9268.324    1729.4529   -13433.037   -26442.691    81.528783 
   96100      2013.67   -105.88879    1.8220109   -104.06678    -19556.03    4.3450812    4.3450812    4.3450812    -19556.03   -51872.799   -15146.477     8351.186   -3209.4791   -2747.6846    8367.7769    82.033964 
   96200    998.20895   -104.98512   0.90320043   -104.08192    23249.608     4.338623     4.338623     4.338623    23249.608   -4704.7751   -6611.2035    81064.803    36431.467   -11441.338    14799.453    81.668718 
   96300    1837.2611   -105.72853    1.6623925   -104.06613   -2695.7051    4.3427049    4.3427049    4.3427049   -2695.7051    15070.134   -16716.348   -6440.9018   -36745.282   -30751.237    -4300.077    81.899443 
   96400    1459.4263   -105.38174    1.3205196   -104.06122    9047.0186    4.3487381    4.3487381    4.3487381    9047.0186   -26812.758   -25851.065    79804.879    32522.557    15101.452    10146.921    82.241261 
   96500     1627.519   -105.53369    1.4726134   -104.06108   -22239.257    4.3358265    4.3358265    4.3358265   -22239.257   -16156.205   -21293.318   -29268.246   -456.59859   -22175.777    21069.174    81.510898 
   96600     1255.333   -105.20947    1.1358517   -104.07361     5307.751    4.3332795    4.3332795    4.3332795     5307.751   -13011.122   -39667.239    68601.613   -32590.826    3608.9468   -16183.926    81.367337 
   96700    2062.6539   -105.93482    1.8663326   -104.06848   -22184.036    4.3394627    4.3394627    4.3394627   -22184.036   -29555.801   -29598.953   -7397.3546    35879.201    13493.731    40395.166    81.716146 
   96800    1173.0211   -105.13571    1.0613741   -104.07433   -24910.281    4.3461421    4.3461421    4.3461421   -24910.281   -6261.1691   -54940.959   -13528.714   -40923.952   -17713.269   -3948.8422    82.094068 
   96900    1625.2862   -105.53639    1.4705931    -104.0658    -6906.335    4.3472974    4.3472974    4.3472974    -6906.335   -7726.1803    -23984.38    10991.555    11914.814    32690.028   -5193.1563     82.15955 
   97000    1517.8546   -105.42686    1.3733868   -104.05347    4941.1478    4.3468481    4.3468481    4.3468481    4941.1478    7797.9641    11863.427   -4837.9481    12152.779    771.81635    9766.5912    82.134081 
   97100     1100.306   -105.05027   0.99557996    -104.0547   -4185.0614    4.3510913    4.3510913    4.3510913   -4185.0614   -44091.757    20940.735    10595.838   -20501.244    8851.2727   -37534.349    82.374841 
   97200    1872.8846   -105.72744    1.6946254   -104.03281     15064.54    4.3594455    4.3594455    4.3594455     15064.54   -21085.013    4156.9162    62121.716    19881.188    22521.513   -10299.262    82.850238 
   97300    1194.3397   -105.10806    1.0806637   -104.02739   -21917.357    4.3714177    4.3714177    4.3714177   -21917.357    -13553.24   -51000.797   -1198.0345   -31051.432   -824.50351   -18129.994      83.5347 
   97400    1326.2287   -105.21298    1.1999996   -104.01298    8908.3417    4.3527829    4.3527829    4.3527829    8908.3417    10689.804   -5023.0307    21058.252    11265.105    21179.127    -26743.09    82.470953 
   97500    1750.8751   -105.58272    1.5842286   -103.99849    24352.136    4.3380203    4.3380203    4.3380203    24352.136    12435.637   -27981.637    88602.408    -12877.66   -1708.0189    4949.7541    81.634687 
   97600    1276.6031   -105.19314    1.1550973   -104.03804    10221.573    4.3421195    4.3421195    4.3421195    10221.573     9064.752    -29623.25    51223.218   -14856.863    24827.387   -42106.587    81.866327 
   97700    2059.1625   -105.90066    1.8631735   -104.03749   -2998.1889    4.3728166    4.3728166    4.3728166   -2998.1889   -14530.176   -8950.8811     14486.49    1868.8757   -5079.6015   -4618.7379    83.614923 
   97800    1472.9953   -105.33883    1.3327971   -104.00603     -51400.6    4.3864698    4.3864698    4.3864698     -51400.6   -44691.601   -63807.028   -45703.172   -22934.146    26536.842   -50843.926    84.400583 
   97900    1653.1978   -105.48884    1.4958481   -103.99299   -4624.9987    4.3487744    4.3487744    4.3487744   -4624.9987   -44365.253    52709.995   -22219.738    -6111.106   -5857.0438   -15455.098     82.24332 
   98000    1962.3459   -105.76708    1.7755718   -103.99151    29203.736    4.3150335    4.3150335    4.3150335    29203.736    7536.0522    54308.859    25766.297    -6132.124   -9502.1926   -15159.646    80.343828 
   98100    1064.3139   -105.02416   0.96301356   -104.06115    6529.3941    4.3244034    4.3244034    4.3244034    6529.3941    2872.6408    34604.223   -17888.681    -5166.557    21291.443   -26590.797    80.868352 
   98200    1782.4738    -105.6912    1.6128198   -104.07838    456.08428     4.348959     4.348959     4.348959    456.08428   -35214.938    20042.229    16540.962    9845.5148   -30264.424    16861.812    82.253795 
   98300    1607.9894   -105.51963    1.4549426   -104.06468    2000.7701    4.3603938    4.3603938    4.3603938    2000.7701    -7649.692    1743.6776    11908.325    -12584.29    4169.0431    6826.4746    82.904319 
   98400    1457.5158   -105.36729    1.3187909    -104.0485   -15268.622    4.3458007    4.3458007    4.3458007   -15268.622   -23071.186   -16580.592   -6154.0877    3761.3544    2689.4586   -8536.9186    82.074722 
   98500     1266.934   -105.18973    1.1463485   -104.04338    28368.765    4.3221654    4.3221654    4.3221654    28368.765    47132.596    14097.978    23875.721     19804.81   -25793.579    33939.593    80.742865 
   98600    2260.8113   -106.10262    2.0456295   -104.05699    11637.301    4.3299916    4.3299916    4.3299916    11637.301    29362.235     8535.895   -2986.2266   -9486.4696    38361.422    -5064.744    81.182263 
   98700    893.71606   -104.88587   0.80865307   -104.07722   -18496.132    4.3630851    4.3630851    4.3630851   -18496.132   -22522.422   -8544.9455    -24421.03    24125.613   -14696.931    16095.534     83.05792 
   98800    2263.6754   -106.07247     2.048221   -104.02425   -9194.1857    4.3653354    4.3653354    4.3653354   -9194.1857   -15655.562   -20358.627    8431.6315   -4667.0479    14465.701    575.55973    83.186498 
   98900    1583.3792   -105.46372    1.4326747   -104.03105    24662.847    4.3243412    4.3243412    4.3243412    24662.847    4610.5417    41888.929    27489.071    22568.702   -4739.9409     7504.981    80.864865 
   99000    1117.6288   -105.06555     1.011254    -104.0543     17334.91    4.3136478    4.3136478    4.3136478     17334.91   -1054.2083    30385.506    22673.432    10098.536   -19831.533    26235.103     80.26645 
   99100    2335.3411   -106.17702    2.1130657   -104.06396    10522.247    4.3436934    4.3436934    4.3436934    10522.247   -15973.935    19632.015    27908.662   -2790.5474    4443.9449   -17574.706    81.955385 
   99200    1084.4844   -105.04296   0.98126428   -104.06169   -33911.611    4.3684937    4.3684937    4.3684937   -33911.611   -36320.566   -22555.321   -42858.946    16389.244   -27854.404    35223.324    83.367188 
   99300    1874.0274   -105.72401    1.6956594   -104.02835   -28163.271    4.3508098    4.3508098    4.3508098   -28163.271      1255.27    -31179.27   -54565.814   -10927.644    8027.5254   -15590.043    82.358851 
   99400    1784.9817   -105.64017    1.6150889   -104.02508    33242.435     4.312338     4.312338     4.312338    33242.435    14096.129    21107.453    64523.723    15118.859   -4207.0433    10314.845    80.193357 
   99500    1689.0969   -105.58642    1.5283304   -104.05809    1471.3744    4.3123945    4.3123945    4.3123945    1471.3744    1935.1732   -9505.9837    11984.934   -17.053641   -21236.164    10101.848    80.196508 
   99600    1419.1429   -105.37349    1.2840703   -104.08942    -14427.49    4.3477239    4.3477239    4.3477239    -14427.49   -32135.203    16872.524    -28019.79   -2878.8186    25130.136   -24491.577    82.183736 
   99700    2071.6042   -105.92385     1.874431   -104.04942   -26255.535    4.3653795    4.3653795    4.3653795   -26255.535   -42788.741   -40503.075    4525.2097    13637.801   -8153.0152   -1205.8145     83.18902 
   99800    1538.5545   -105.43976    1.3921164   -104.04764   -28448.054    4.3436864    4.3436864    4.3436864   -28448.054   -22104.123   -21903.735   -41336.303   -13409.038   -30.544156   -18406.211    81.954988 
   99900    1348.1139   -105.26286    1.2198018   -104.04305     15574.48     4.306625     4.306625     4.306625     15574.48   -17287.134    50676.373    13334.201    24780.755    46215.138   -15075.176    79.875053 
  100000    2389.6834   -106.21305    2.1622358   -104.05082    20938.639     4.317168     4.317168     4.317168    20938.639    25804.822   -10207.927    47219.023   -2658.0836   -25452.093   -6800.9079    80.463117 
Loop time of 22.2199 on 1 procs for 100000 steps with 8 atoms

Pair  time (%) = 6.87567 (30.9437)
Kspce time (%) = 5.33399 (24.0054)
Neigh time (%) = 0.179857 (0.809441)
Comm  time (%) = 1.02661 (4.62024)
Outpt time (%) = 0.0244515 (0.110043)
Other time (%) = 8.77933 (39.5111)

Nlocal:    8 ave 8 max 8 min
Histogram: 1 0 0 0 0 0 0 0 0 0
Nghost:    2105 ave 2105 max 2105 min
Histogram: 1 0 0 0 0 0 0 0 0 0
Neighs:    2212 ave 2212 max 2212 min
Histogram: 1 0 0 0 0 0 0 0 0 0

Total # of neighbors = 2212
Ave neighs/atom = 276.5
Neighbor list builds = 2213
Dangerous builds = 0
unfix 20
unfix 21
print "seeds:4418541"
seeds:4418541
