LAMMPS (10 Feb 2015)
# ---- initialize simulations
clear
units metal
dimension 3
boundary p p p
atom_style charge
atom_modify map array
# ---- create atoms
read_data /Users/eugeneragasa/pyflamestk_git/pypospack/tests/tests_integration/workflow/WorkflowLammpsThermalExpansion/param_7495/MgO_NaCl_unit.npt.T1200/lammps.structure
  triclinic box = (0 0 0) to (4.2565 4.2565 4.2565) with tilt (0 0 0)
  1 by 1 by 1 MPI processor grid
  reading atoms ...
  8 atoms
# ---- define interatomic potential
include potential.mod
mass 1 24.305
mass 2 15.999

group Mg type 1
4 atoms in group Mg
group O type 2
4 atoms in group O

set group Mg charge 1.61805343549
  4 settings made for charge
set group O charge -1.61805343549
  4 settings made for charge

variable R_cut equal 10.0

pair_style buck/coul/long ${R_cut}
pair_style buck/coul/long 10
pair_coeff 1 1 0.0 0.5 0.0 ${R_cut}
pair_coeff 1 1 0.0 0.5 0.0 10
pair_coeff 1 2 1411.7842896 0.281421547192 0.0 ${R_cut}
pair_coeff 1 2 1411.7842896 0.281421547192 0.0 10
pair_coeff 2 2 12275.1016291 0.0833185517679 22.1397903537 ${R_cut}
pair_coeff 2 2 12275.1016291 0.0833185517679 22.1397903537 10

kspace_style pppm 1.0e-5

neighbor 1.0 bin
neigh_modify every 1 delay 0 check yes
# ---- define settings
compute eng all pe/atom
compute eatoms all reduce sum c_eng
# ---- run minimization
reset_timestep 0
fix 1 all box/relax iso 0.0 vmax 0.001
thermo 10
thermo_style custom step pe lx ly lz xy xz yz press pxx pyy pzz pxy pxz pyz c_eatoms
min_style cg
minimize 1e-25 1e-25 5000 10000
PPPM initialization ...
  G vector (1/distance) = 0.352505
  grid = 8 8 8
  stencil order = 5
  estimated absolute RMS force accuracy = 3.81397e-05
  estimated relative force accuracy = 2.64865e-06
  using double precision FFTs
  3d grid and FFT values/proc = 3375 512
Neighbor list info ...
  1 neighbor list requests
  update every 1 steps, delay 0 steps, check yes
  master list distance cutoff = 11
Memory usage per processor = 4.06549 Mbytes
Step PotEng Lx Ly Lz Xy Xz Yz Press Pxx Pyy Pzz Pxy Pxz Pyz eatoms 
       0   -106.97328       4.2565       4.2565       4.2565            0            0            0    38192.574    38192.574    38192.574    38192.574 8.7875882e-11 -6.3416216e-11 -7.5192229e-11   -106.97328 
       9   -106.99342    4.2893301    4.2893301    4.2893301            0            0            0     -3.54441     -3.54441     -3.54441     -3.54441 -1.7895043e-11 -1.1181496e-10 -2.9549514e-11   -106.99342 
Loop time of 0.00887108 on 1 procs for 9 steps with 8 atoms

Minimization stats:
  Stopping criterion = linesearch alpha is zero
  Energy initial, next-to-last, final = 
        -106.973281584     -106.993416645     -106.993416645
  Force two-norm initial, final = 5.51503 0.00172663
  Force max component initial, final = 5.51503 0.00051974
  Final line search alpha, max atom move = 0.00390625 2.03024e-06
  Iterations, force evaluations = 9 26

Pair  time (%) = 0.00238419 (26.8759)
Kspce time (%) = 0.00139189 (15.6902)
Neigh time (%) = 0 (0)
Comm  time (%) = 0.000272989 (3.0773)
Outpt time (%) = 0 (0)
Other time (%) = 0.00482202 (54.3566)

Nlocal:    8 ave 8 max 8 min
Histogram: 1 0 0 0 0 0 0 0 0 0
Nghost:    2189 ave 2189 max 2189 min
Histogram: 1 0 0 0 0 0 0 0 0 0
Neighs:    2344 ave 2344 max 2344 min
Histogram: 1 0 0 0 0 0 0 0 0 0

Total # of neighbors = 2344
Ave neighs/atom = 293
Neighbor list builds = 0
Dangerous builds = 0
unfix 1
# ---- define output variables ----
variable natoms equal "count(all)"
variable tot_energy equal "c_eatoms"
variable length_x equal "lx"
variable length_y equal "ly"
variable length_z equal "lz"
variable tilt_xy equal "xy"
variable tilt_xz equal "xz"
variable tilt_yz equal "yz"
variable tot_press equal "press"
variable press_xx equal "pxx"
variable press_yy equal "pyy"
variable press_zz equal "pzz"
variable press_xy equal "pxy"
variable press_xz equal "pxz"
variable press_yz equal "pyz"

# ---- output ----
print "pypospack:output_section:begin"
pypospack:output_section:begin
print "tot_energy = ${tot_energy}"
tot_energy = -106.993416644887
print "num_atoms = ${natoms}"
num_atoms = 8
print "xx = ${length_x}"
xx = 4.28933011317114
print "yy = ${length_y}"
yy = 4.28933011317114
print "zz = ${length_z}"
zz = 4.28933011317114
print "xy = ${tilt_xy}"
xy = 0
print "xz = ${tilt_xz}"
xz = 0
print "yz = ${tilt_yz}"
yz = 0
print "tot_press = ${tot_press}"
tot_press = -3.54441004469774
print "pxx = ${press_xx}"
pxx = -3.5444100447524
print "pyy = ${press_yy}"
pyy = -3.54441004470836
print "pzz = ${press_zz}"
pzz = -3.54441004463246
print "pxy = ${press_xy}"
pxy = -1.78950429729069e-11
print "pxz = ${press_xz}"
pxz = -1.1181495634962e-10
print "pyz = ${press_yz}"
pyz = -2.95495135207349e-11
print "pypospack:output_section:done"
pypospack:output_section:done
print "pypospack:lammps_sim:done"
pypospack:lammps_sim:done
#------------------------------------------------------------------------------
# RUN THERMOSTAT
# running using an NPT Nose-Hoover style thermostat
#------------------------------------------------------------------------------
variable tempdamp equal 0.1
variable pressdamp equal 1.0
# set initial velocities
velocity all create 1200 3783218 mom yes dist gaussian loop all
# fix for Nose-Hoover style thermostat
fix 20 all npt temp 1200 1200 0.1 aniso 0.0 0.0 1.0 drag 1.0 couple xyz
variable boxx equal lx
variable boxy equal ly
variable boxz equal lz
variable boxp equal press
variable boxt equal temp
# calculate averages every 10000 steps
reset_timestep 0
fix 21 all ave/time 10 10 100 v_boxx v_boxy v_boxz v_boxp v_boxt file lattice.out
thermo_style custom step temp pe ke etotal press lx ly lz press pxx pyy pzz pxy pxz pyz vol
thermo_modify flush yes
thermo 100
run 100000
PPPM initialization ...
  G vector (1/distance) = 0.352181
  grid = 8 8 8
  stencil order = 5
  estimated absolute RMS force accuracy = 3.87093e-05
  estimated relative force accuracy = 2.68821e-06
  using double precision FFTs
  3d grid and FFT values/proc = 3375 512
Memory usage per processor = 3.06549 Mbytes
Step Temp PotEng KinEng TotEng Press Lx Ly Lz Press Pxx Pyy Pzz Pxy Pxz Pyz Volume 
       0         1200   -106.99342    1.0857852   -105.90764    14691.265    4.2893301    4.2893301    4.2893301    14691.265    15998.165    18392.774    9682.8557   -12547.436    5889.0355    382.69143    78.916609 
     100    233.58981   -105.98036   0.21135697   -105.76901    2097.6872    4.3194279    4.3194279    4.3194279    2097.6872    1126.0923    18082.334   -12915.365    10385.618    -16938.07   -7200.9965    80.589545 
     200    967.54823   -106.33673   0.87545798   -105.46127    -17432.77    4.3463512    4.3463512    4.3463512    -17432.77   -24561.297    14117.527    -41854.54   -8633.6289    500.12938   -5626.5425    82.105918 
     300    970.72283   -106.09319   0.87833042   -105.21486    77.408432    4.3440055    4.3440055    4.3440055    77.408432   -14460.911    31963.763   -17270.627    15938.914   -640.92401   -5197.4135    81.973049 
     400    866.94432   -105.78577   0.78442944   -105.00134   -8223.4952    4.3299571    4.3299571    4.3299571   -8223.4952   -18522.055     11031.13   -17179.561    4349.0797   -13462.187   -14955.244    81.180322 
     500    1294.8981   -106.04484     1.171651   -104.87319    30240.004     4.334943     4.334943     4.334943    30240.004   -7036.2098    87154.107    10602.115   -957.30606    13441.286    13358.173    81.461083 
     600    1402.2436   -106.08618    1.2687795    -104.8174   -41804.415     4.359865     4.359865     4.359865   -41804.415    -54923.65   -2729.9285   -67759.668    5207.6334   -14200.731   -21841.621     82.87416 
     700     1282.268   -105.95111     1.160223   -104.79089   -2302.8109    4.3507982    4.3507982    4.3507982   -2302.8109   -38262.684    43064.935   -11710.684   -6343.5053    1148.4004   -2093.2972    82.358192 
     800    1229.7325   -105.89837    1.1126878   -104.78568    24703.175    4.3380692    4.3380692    4.3380692    24703.175   -2321.5337    99231.848   -22800.791   -2984.7749   -935.46847    4967.5689    81.637448 
     900    1158.1211    -105.8551    1.0478923   -104.80721   -22155.061    4.3487543    4.3487543    4.3487543   -22155.061   -34216.564   -7011.5341   -25237.084    7940.9582   -132.19045   -22861.176    82.242177 
    1000    1201.3996   -105.89471    1.0870516   -104.80765   -19280.289    4.3533502    4.3533502    4.3533502   -19280.289   -10005.483     13656.19   -61491.572   -5072.2473    15411.168    7013.7809    82.503206 
    1100    1532.3847   -106.18655    1.3865339   -104.80002   -10809.984    4.3454893    4.3454893    4.3454893   -10809.984   -27478.272    29622.828   -34574.506    1345.5903   -3200.3494   -861.57086     82.05708 
    1200    699.56862   -105.44247   0.63298439   -104.80949   -9794.0919    4.3529944    4.3529944    4.3529944   -9794.0919   -2692.7274    17762.275   -44451.823    2981.2556    17877.585   -28421.507    82.482974 
    1300    1636.3669   -106.26693    1.4806192   -104.78631   -14709.707     4.351309     4.351309     4.351309   -14709.707   -29551.168   -7939.5625    -6638.389    7422.2076    3049.4069   -4511.4768    82.387204 
    1400    1048.4095   -105.74862   0.94862295       -104.8    -1382.174    4.3541695    4.3541695    4.3541695    -1382.174    1080.1303    5025.9327   -10252.585    2134.4727    -1252.874   -13140.179    82.549792 
    1500    907.37093   -105.62834   0.82100829   -104.80733   -3022.6661    4.3454119    4.3454119    4.3454119   -3022.6661    -18715.95    16951.941   -7303.9892     4609.431    10028.355    19200.257    82.052697 
    1600    1461.6177   -106.12541    1.3225024   -104.80291     3204.799    4.3450361    4.3450361    4.3450361     3204.799    12511.742   -7347.1119    4449.7665   -15924.777   -9582.1531    16522.077    82.031406 
    1700    951.89953   -105.66658    0.8612987   -104.80529   -11194.445    4.3562263    4.3562263    4.3562263   -11194.445   -6147.6412    5987.3783   -33423.073    2194.0663    17182.509    -27557.94    82.666831 
    1800    1464.9244   -106.12365    1.3254944   -104.79816   -18449.536    4.3388019    4.3388019    4.3388019   -18449.536     5407.202   -28477.391   -32278.417   -14789.766   -9343.2114    18746.694    81.678821 
    1900    1256.1284    -105.9421    1.1365714   -104.80553     25118.34    4.3418117    4.3418117    4.3418117     25118.34    56947.606    28063.852   -9656.4399    6203.7558    8304.7468    -9451.314    81.848918 
    2000    973.17458   -105.68798   0.88054881   -104.80743   -14309.821    4.3635719    4.3635719    4.3635719   -14309.821   -10932.884   -17083.401   -14913.177    4336.0609    6269.7666   -2743.2512    83.085723 
    2100    1313.3789    -105.9711    1.1883728   -104.78273   -2749.7034    4.3601745    4.3601745    4.3601745   -2749.7034    7283.8994   -24052.502    8519.4924   -6469.5888   -10782.666    20338.045     82.89181 
    2200     1174.715   -105.83359    1.0629068   -104.77069    19414.456    4.3462307    4.3462307    4.3462307    19414.456    13056.224    24875.065    20312.078    17507.697    7090.7892    143.06513    82.099084 
    2300    864.51267   -105.56428   0.78222923   -104.78205    9433.1699    4.3441248    4.3441248    4.3441248    9433.1699    8822.3274    36858.269   -17381.086    10297.766   -8479.6022     26943.48    81.979807 
    2400    1506.4621   -106.14377    1.3630786   -104.78069    6168.0182    4.3514945    4.3514945    4.3514945    6168.0182    -23637.22    45777.794   -3636.5185   -1147.2418    5615.7192    2383.2133    82.397746 
    2500    1032.0424   -105.73113    0.9338137   -104.79731    9398.5437    4.3510198    4.3510198    4.3510198    9398.5437    11822.145    40508.786     -24135.3    -4113.723   -8135.8686    11264.849    82.370782 
    2600    1295.9299   -105.97507    1.1725846   -104.80249   -9602.1732     4.359115     4.359115     4.359115   -9602.1732    2385.2259    13463.376   -44655.121    7514.5709   -3047.1601   -3364.1463    82.831398 
    2700    1665.4768   -106.29103    1.5069584   -104.78407   -4611.1105    4.3533571    4.3533571    4.3533571   -4611.1105    5132.7577     7189.656   -26155.745   -15290.731   -2636.9311   -13699.631    82.503596 
    2800    750.96162   -105.46768   0.67948585   -104.78819    27538.081    4.3513279    4.3513279    4.3513279    27538.081    36661.279    45866.543    86.420859   -13205.062   -16634.754     11955.05    82.388279 
    2900    1421.7503   -106.05961    1.2864295   -104.77318   -5336.4849    4.3661753    4.3661753    4.3661753   -5336.4849    11632.708    16233.947   -43876.109   -24236.048    13216.516   -13056.717    83.234524 
    3000    1383.4487   -106.00702    1.2517734   -104.75525   -5554.9503    4.3545533    4.3545533    4.3545533   -5554.9503    20110.037   -3626.8702   -33148.017   -17177.857   -15166.964    14189.218    82.571626 
    3100    786.71844   -105.47415   0.71183938   -104.76231    35185.749    4.3497716    4.3497716    4.3497716    35185.749    29147.393    28878.834    47531.022    -3576.043   -1876.5462   -10439.974    82.299913 
    3200    1594.6149   -106.20453     1.442841   -104.76168   -11364.214    4.3557347    4.3557347    4.3557347   -11364.214   -41787.224    20656.956   -12962.375   -19932.909   -663.89277    9714.0392    82.638848 
    3300    953.22685   -105.64255   0.86249968   -104.78005    1022.8291    4.3466974    4.3466974    4.3466974    1022.8291    25965.381   -34638.469    11741.575    4154.7618   -10684.987   -350.56132     82.12554 
    3400     1603.114   -106.23332    1.4505312   -104.78279    3673.7336    4.3418456    4.3418456    4.3418456    3673.7336   -23051.096    15659.806     18412.49   -6354.7308    915.76278    -11335.96    81.850838 
    3500    1199.1285   -105.88839    1.0849967   -104.80339   -3759.7062    4.3522029    4.3522029    4.3522029   -3759.7062    10793.034   -9399.5583   -12672.594    9166.2735   -15380.733    8004.0328    82.437989 
    3600    1249.4531   -105.92468    1.1305314   -104.79415   -24150.301    4.3679153    4.3679153    4.3679153   -24150.301   -24496.099   -38113.597   -9841.2072   -1075.1964    15461.875   -13017.516    83.334078 
    3700    1483.3841   -106.11674    1.3421972   -104.77454   -1056.8134     4.347101     4.347101     4.347101   -1056.8134    313.47222     121.1533   -3605.0657    8455.5489    11798.713    8926.3534    82.148413 
    3800    735.24644   -105.44743   0.66526643   -104.78216    32180.421    4.3278946    4.3278946    4.3278946    32180.421    66056.766   -7694.8434    38179.339   -6959.3892   -19699.625    9142.2391    81.064374 
    3900    1790.3204   -106.42051    1.6199195   -104.80059   -22068.013    4.3521771    4.3521771    4.3521771   -22068.013   -19188.516   -40268.958   -6746.5644    14663.365    15115.627    2572.4015    82.436526 
    4000    1257.6358   -105.93352    1.1379353   -104.79558   -21799.328    4.3651909    4.3651909    4.3651909   -21799.328   -19547.756   -33213.384   -12636.845    8903.1581    7732.0269    14161.316    83.178238 
    4100    1164.2632    -105.8346    1.0534498   -104.78115      13564.9    4.3517272    4.3517272    4.3517272      13564.9    39824.874    -7487.949    8357.7768   -3810.1152    -14096.46    10694.138     82.41096 
    4200    1209.3154   -105.87864     1.094214   -104.78443     4984.615    4.3402473    4.3402473    4.3402473     4984.615     -29932.3   -1317.8483    46203.993    3511.6021    11452.392    12830.076     81.76048 
    4300    1311.9005   -105.97843    1.1870351    -104.7914    -4635.604    4.3515284    4.3515284    4.3515284    -4635.604   -241.00266   -7026.8353    -6638.974    -5899.743   -11725.426   -599.38575    82.399667 
    4400    1332.6613   -105.98365    1.2058199   -104.77783   -3240.8662    4.3583266    4.3583266    4.3583266   -3240.8662    4803.9156   -25485.848    10959.333   -11852.898    17916.599    439.85337    82.786462 
    4500    961.11343   -105.64936   0.86963563   -104.77972    1364.4375    4.3501544    4.3501544    4.3501544    1364.4375   -10583.897    1516.2642    13160.946   -312.70742    -2298.974   -5278.2744    82.321639 
    4600     1649.317   -106.26618    1.4923367   -104.77385    7246.5257    4.3472319    4.3472319    4.3472319    7246.5257   -4180.0002   -17828.314    43747.891     -1244.18     8084.373   -1179.5335     82.15584 
    4700    670.62042   -105.39562   0.60679145   -104.78883    1723.5899    4.3570985    4.3570985    4.3570985    1723.5899    22645.534   -33747.872    16273.107   -3754.6056    11451.896      5292.95    82.716498 
    4800    1304.5337   -105.94872    1.1803695   -104.76835   -2028.6027    4.3484486    4.3484486    4.3484486   -2028.6027     14105.41    -10513.28   -9677.9382   -7982.4393   -17178.117    9301.2606    82.224837 
    4900    1478.5039   -106.10744    1.3377814   -104.76966   -21011.862    4.3464947    4.3464947    4.3464947   -21011.862   -23782.923   -25943.962     -13308.7    2891.3379    24405.962    12807.417     82.11405 
    5000    1026.9557   -105.70576   0.92921109   -104.77655   -18650.794    4.3617885    4.3617885    4.3617885   -18650.794   -10654.989   -44407.116   -890.27544     -6237.41   -15963.508    14418.216    82.983895 
    5100    1428.0678   -106.05179    1.2921458   -104.75964    12126.767    4.3454341    4.3454341    4.3454341    12126.767    10690.259    12777.789    12912.253   -13478.315    9137.9515   -6420.1431     82.05395 
    5200    1233.5831   -105.89427    1.1161719    -104.7781   -25848.949    4.3522119    4.3522119    4.3522119   -25848.949     -33436.4   -18803.494   -25306.953   -8207.8855    21930.048    8938.5687    82.438505 
    5300    1557.9131   -106.17676    1.4096325   -104.76713   -7772.9493    4.3669462    4.3669462    4.3669462   -7772.9493    734.36767   -40716.146     16662.93   -17556.745   -2413.3538    -11952.16    83.278619 
    5400     1112.138    -105.7694    1.0062858   -104.76312   -12517.261    4.3579053    4.3579053    4.3579053   -12517.261   -26163.731    5853.7892   -17241.842    -3022.271     16563.71    6308.2808    82.762453 
    5500    1705.6523    -106.2969    1.5433101   -104.75359   -914.68954    4.3522459    4.3522459    4.3522459   -914.68954   -15979.165   -4066.6794    17301.775   -18563.869   -9604.3743    11512.866    82.440435 
    5600    1200.8989   -105.85263    1.0865985   -104.76603   -13639.692    4.3545701    4.3545701    4.3545701   -13639.692    -15086.47   -614.78644    -25217.82   -3076.8949    13141.345    1123.8836    82.572579 
    5700    1314.3477   -105.96243    1.1892494   -104.77318    5461.4315    4.3539645    4.3539645    4.3539645    5461.4315   -25830.705    32814.336    9400.6634   -2244.2546   -2293.3909    12956.918    82.538135 
    5800    1605.4256   -106.22649    1.4526228   -104.77387   -19887.188    4.3535904    4.3535904    4.3535904   -19887.188   -33315.048   -9129.1234   -17217.394   -3746.4025    12313.124   -15266.282    82.516859 
    5900    881.65189   -105.58276   0.79773716   -104.78502    20531.562    4.3411489    4.3411489    4.3411489    20531.562    1431.1133    32511.069    27652.504    7358.3964    14424.474    24453.069     81.81144 
    6000    1376.0199   -106.02502    1.2450517   -104.77997    4403.0975     4.358282     4.358282     4.358282    4403.0975   -5183.1344    313.24476    18079.182   -5008.5232   -7542.9695    17543.443    82.783917 
    6100    1076.5534   -105.75532   0.97408813   -104.78124   -42990.767    4.3529418    4.3529418    4.3529418   -42990.767   -17766.047   -46223.146   -64983.106     2991.672     8104.927    7139.2502    82.479985 
    6200    1204.2217   -105.85777    1.0896051   -104.76817     43778.99    4.3335747    4.3335747    4.3335747     43778.99    42115.786      17383.7    71837.484    6274.2535    2049.2109   -3624.8848    81.383969 
    6300     1250.952   -105.92059    1.1318877    -104.7887    -37991.61    4.3577674    4.3577674    4.3577674    -37991.61   -10510.889   -35687.923   -67776.018   -1725.8245    3234.7894    24804.234    82.754601 
    6400    1136.1897   -105.80618    1.0280483   -104.77813   -3667.5504    4.3514273    4.3514273    4.3514273   -3667.5504    30829.311   -11809.618   -30022.344   -5353.6778   -1054.1467   -12080.484    82.393923 
    6500    1216.4462   -105.86749     1.100666   -104.76683    15503.164    4.3432792    4.3432792    4.3432792    15503.164    18647.686   -5112.0153    32973.823    11136.913   -692.55077      16469.5     81.93194 
    6600    766.31664   -105.47424    0.6933794   -104.78086   -12278.613    4.3495893    4.3495893    4.3495893   -12278.613   -10369.433    33845.871   -60312.279     1119.373    10590.816    31887.566    82.289565 
    6700     1580.961   -106.20027    1.4304867   -104.76978    3991.3602    4.3460753    4.3460753    4.3460753    3991.3602    16714.017    6283.7459   -11023.683    1348.8656   -14685.938   -7907.1382    82.090279 
    6800     791.2937   -105.50936   0.71597916   -104.79338   -30747.482    4.3542196    4.3542196    4.3542196   -30747.482   -32306.032    -10930.26   -49006.154    5868.7332    8495.5034     34480.37    82.552641 
    6900    1595.4739   -106.22601    1.4436183   -104.78239    10535.173    4.3334044    4.3334044    4.3334044    10535.173     28492.85    13520.173   -10407.502    147.68757   -252.17327   -724.84977    81.374373 
    7000    870.46573   -105.59697   0.78761569   -104.80936    5441.7146    4.3418357    4.3418357    4.3418357    5441.7146   -32375.741    74970.536   -26269.651    10957.364   -2136.2845    18755.238    81.850276 
    7100     1144.276   -105.84105     1.035365   -104.80569   -15802.557    4.3526485    4.3526485    4.3526485   -15802.557   -7154.5072     -7924.74   -32328.424   -12133.285    11388.761    8419.3769    82.463317 
    7200    1386.4274   -106.03813    1.2544687   -104.78366    12339.941     4.344714     4.344714     4.344714    12339.941   -10829.563    59209.174   -11359.787    4180.2405   -18071.647   -14593.767    82.013168 
    7300    1114.5883   -105.78949     1.008503   -104.78098   -12748.579    4.3525434    4.3525434    4.3525434   -12748.579   -18011.473   -42246.369    22012.107   -567.05989    6853.2184    20879.221     82.45734 
    7400    1307.9512   -105.96136    1.1834617    -104.7779   -13575.959    4.3418881    4.3418881    4.3418881   -13575.959   -33763.786    23286.545   -30250.637   -1824.5976   -20650.683   -13087.789    81.853241 
    7500    1047.2322   -105.73457   0.94755769   -104.78701    33336.874    4.3386214    4.3386214    4.3386214    33336.874   -16157.048    36390.889    79776.781    7102.8577   -5191.3284    24396.426    81.668629 
    7600    1229.7037   -105.90473    1.1126618   -104.79207   -28962.823     4.350778     4.350778     4.350778   -28962.823   -39845.505   -4361.6349   -42681.328    1855.5566   -17114.225    1860.3652     82.35705 
    7700    913.39944   -105.60963   0.82646301   -104.78317    17473.577    4.3438966    4.3438966    4.3438966    17473.577   -43858.807    50241.797    46037.743   -2147.6389   -7864.9178   -2283.5385    81.966885 
    7800    1439.6775   -106.08888    1.3026505   -104.78623   -12764.408    4.3455333    4.3455333    4.3455333   -12764.408   -24703.459    13114.066   -26703.832    12984.102   -2874.5391    10214.791    82.059573 
    7900     1224.223   -105.90366    1.1077027   -104.79596   -12351.827    4.3476521    4.3476521    4.3476521   -12351.827   -48902.949   -15727.495    27574.962   -2609.5512   -23956.211   -9968.8614    82.179661 
    8000    1320.6179   -105.98715    1.1949229   -104.79223    2261.5395    4.3449298    4.3449298    4.3449298    2261.5395   -23408.312    66326.974   -36134.044    9096.0954    5693.0094    -4.578609    82.025387 
    8100    1143.2101   -105.82574    1.0344005   -104.79134    8015.0575    4.3351384    4.3351384    4.3351384    8015.0575   -4200.9107     40512.62   -12266.537    3791.5133   -24938.656    6235.6304    81.472096 
    8200    1302.5877   -105.97047    1.1786087   -104.79186     5969.759    4.3504197    4.3504197    4.3504197     5969.759   -18384.953    52773.694   -16479.465    3575.5449    3679.9621    5541.2452    82.336703 
    8300      1378.03   -106.03768    1.2468705   -104.79081   -29644.507    4.3487568    4.3487568    4.3487568   -29644.507   -31294.627   -10511.333   -47127.561   -1824.4719   -13457.794    12759.847    82.242321 
    8400    883.59453   -105.58933    0.7994949   -104.78984    40741.308    4.3333894    4.3333894    4.3333894    40741.308    11875.835    82428.485    27919.604    1510.5304   -6224.9116   -3903.0172    81.373529 
    8500     1456.768     -106.116    1.3181143   -104.79788   -15746.384    4.3419115    4.3419115    4.3419115   -15746.384   -27064.445    6329.5975   -26504.305   -5603.5144   -3548.3938    -23234.82    81.854564 
    8600      973.306   -105.67486   0.88066772   -104.79419    36545.648    4.3357685    4.3357685    4.3357685    36545.648   -12983.487    84305.021    38315.411    9672.5072    -11341.73     22069.21    81.507629 
    8700    1561.1303   -106.20147    1.4125435   -104.78893   -36879.786    4.3547906    4.3547906    4.3547906   -36879.786   -37769.481    -33251.49   -39618.386   -9344.5254    1440.9971   -23082.516    82.585125 
    8800    894.66421   -105.59983   0.80951098   -104.79032    7314.1154    4.3393584    4.3393584    4.3393584    7314.1154   -40990.088    73539.614    -10607.18    408.21676   -24435.841    10793.501    81.710255 
    8900    1532.2696   -106.17014    1.3864297   -104.78371    18686.063    4.3305204    4.3305204    4.3305204    18686.063   -1091.2828    49404.796    7744.6764   -11078.768    9838.7229   -5633.3988    81.212012 
    9000    997.64296    -105.6995   0.90268831   -104.79681   -22984.974    4.3534982    4.3534982    4.3534982   -22984.974   -48790.696     36189.18   -56353.407   -10506.072   -24328.104   -21511.507    82.511621 
    9100    1561.3849   -106.19564    1.4127739   -104.78287   -9544.3257    4.3549555    4.3549555    4.3549555   -9544.3257   -19751.765   -8228.9571   -652.25473   -11990.317    3374.0758     1215.849    82.594506 
    9200    1179.6581    -105.8489    1.0673795   -104.78152   -19898.232    4.3564512    4.3564512    4.3564512   -19898.232   -39734.333    7395.2611   -27355.623   -5232.2086   -23028.612   -6737.5077    82.679637 
    9300    1324.5389    -105.9738    1.1984706   -104.77533   -1562.5674    4.3397948    4.3397948    4.3397948   -1562.5674   -25577.052    69292.747   -48403.397    3304.3541   -7957.5956    2248.9288    81.734909 
    9400    963.42571   -105.66039   0.87172783   -104.78866    29067.549    4.3478819    4.3478819    4.3478819    29067.549    3883.8467    54905.665    28413.135    19419.531   -8509.5229    10644.614    82.192693 
    9500    888.07141   -105.58716   0.80354568   -104.78362   -10623.732    4.3731839    4.3731839    4.3731839   -10623.732     22300.74   -24001.761   -30170.176    13025.609   -13797.534   -7910.8974    83.635992 
    9600     1211.508   -105.85009    1.0961979   -104.75389    9971.1499    4.3585567    4.3585567    4.3585567    9971.1499     90940.89   -17493.521   -43533.919    19448.479   -3828.3308    22036.476    82.799575 
    9700    622.16309    -105.3204   0.56294624   -104.75745    20381.761    4.3372709    4.3372709    4.3372709    20381.761    64887.927     2053.214   -5795.8573    11237.936   -37022.451   -2492.4796    81.592386 
    9800    1590.2238    -106.2116    1.4388679   -104.77273   -10882.522    4.3467315    4.3467315    4.3467315   -10882.522    -13031.25   -21230.123    1613.8068    5996.8138    2046.1232    3534.3835    82.127471 
    9900    1003.1077   -105.69813    0.9076329    -104.7905   -11478.733    4.3561155    4.3561155    4.3561155   -11478.733   -24402.691    17345.992   -27379.501   -3079.9707    -22405.43    3921.3404    82.660524 
   10000      1305.93   -105.97096    1.1816329   -104.78933   -17692.341    4.3418223    4.3418223    4.3418223   -17692.341   -4529.3682   -8160.4978   -40387.156    5152.3899    -4569.664   -18506.665    81.849522 
   10100    1374.5521   -106.02306    1.2437236   -104.77933    16958.728    4.3324159    4.3324159    4.3324159    16958.728    15935.151    34665.649    275.38395   -21516.598    23.236642    17534.628    81.318697 
   10200    1011.3986   -105.71171   0.91513466   -104.79658   -24741.303    4.3451981    4.3451981    4.3451981   -24741.303   -8326.9844   -3145.1006   -62751.824   -1870.7247   -22516.119   -22103.258    82.040582 
   10300    1355.1863   -106.01973     1.226201   -104.79353   -10042.565     4.349956     4.349956     4.349956   -10042.565    4276.4108   -9893.8064   -24510.299   -11418.192    10681.668   -25314.003    82.310375 
   10400    1312.3292   -105.97841     1.187423   -104.79098   -9253.8139    4.3340785    4.3340785    4.3340785   -9253.8139   -32851.017    34577.939   -29488.364    4440.3222   -31073.406    9930.7533    81.412353 
   10500    766.31838   -105.49856   0.69338098   -104.80518    15725.353    4.3269163    4.3269163    4.3269163    15725.353   -3997.4608    49940.267    1233.2518   -3974.8681      2939.16   -34154.472    81.009412 
   10600    1292.3906   -105.98572    1.1693822   -104.81633    54.672913     4.345286     4.345286     4.345286    54.672913   -27270.475    31360.145   -3925.6508    6974.8889   -22727.317    17321.692    82.045561 
   10700    1107.3066   -105.80524    1.0019143   -104.80332   -13410.854    4.3565976    4.3565976    4.3565976   -13410.854   -15085.025   -6883.7142   -18263.822     5049.024   -15314.439   -4922.1512    82.687972 
   10800     1087.659    -105.7707   0.98413668   -104.78657    7723.1853    4.3274566    4.3274566    4.3274566    7723.1853    7045.4848    28463.861    -12339.79   -6415.4154    578.57153   -14840.666    81.039761 
   10900    1163.5519   -105.84267    1.0528062   -104.78987    17340.118    4.3298473    4.3298473    4.3298473    17340.118    10688.703    37892.534     3439.117   -1280.8736   -25622.916    9116.2856    81.174151 
   11000    1131.3933   -105.81208    1.0237085   -104.78838    6565.8178    4.3484071    4.3484071    4.3484071    6565.8178    25653.335   -5584.5181   -371.36323    -2315.977    8155.7962   -31045.132    82.222484 
   11100    902.23271   -105.59526   0.81635912    -104.7789    11055.111    4.3568153    4.3568153    4.3568153    11055.111    6623.4159    51885.968   -25344.053   -13123.809   -8724.5377    9025.7913    82.700366 
   11200    1131.6337   -105.79815    1.0239259   -104.77422   -1978.3432    4.3453793    4.3453793    4.3453793   -1978.3432    20383.141   -46126.047    19807.877    7608.1766   -778.83515   -15493.002    82.050849 
   11300    1257.2943   -105.91305    1.1376263   -104.77542     25734.33    4.3231411    4.3231411    4.3231411     25734.33    39354.088    53226.563    -15377.66   -4336.9702    1351.6739   -6590.2667    80.797557 
   11400    821.34445   -105.55238   0.74316972   -104.80921    23162.531     4.341138     4.341138     4.341138    23162.531   -302.64104    4318.9953    65471.238    6845.3687   -18508.488    8392.1219    81.810823 
   11500    1411.3529   -106.06191    1.2770218   -104.78489   -31414.295    4.3654156    4.3654156    4.3654156   -31414.295    4801.0592    -53072.11   -45971.835    4071.1909     2440.903   -10951.352    83.191086 
   11600    1336.1255   -105.98293    1.2089545   -104.77398   -7865.3366    4.3382886    4.3382886    4.3382886   -7865.3366   -22136.965    7425.1478   -8884.1926     1511.674   -16398.216   -5344.7979    81.649836 
   11700    1015.6242   -105.69151    0.9189581   -104.77255    17002.054    4.3165034    4.3165034    4.3165034    17002.054    1942.4088    22527.435    26536.317    12961.451   -2869.7753    2784.9604    80.425962 
   11800    1634.5102   -106.27415    1.4789392   -104.79521   -24459.219    4.3471739    4.3471739    4.3471739   -24459.219    -26327.95   -13796.317   -33253.389    7511.2632   -10878.497   -5726.4621    82.152546 
   11900    1167.8986   -105.84096    1.0567392   -104.78422    -30440.92    4.3604994    4.3604994    4.3604994    -30440.92   -51954.332   -28025.494   -11342.933    15665.389   -25615.882   -8412.2348    82.910342 
   12000    1069.6828   -105.74252   0.96787152   -104.77465     8261.459    4.3359725    4.3359725    4.3359725     8261.459    543.27397    34465.825   -10224.722    366.42749    3822.2646   -1910.0642    81.519133 
   12100    1538.9153   -106.16876    1.3924429   -104.77632   -2104.1893    4.3364871    4.3364871    4.3364871   -2104.1893    -7099.191    15626.878   -14840.255    1769.2025   -6910.1082     8835.417    81.548162 
   12200    916.10083   -105.62282   0.82890728   -104.79392     14309.31    4.3406242    4.3406242    4.3406242     14309.31    18680.597    45375.998   -21128.665    3182.8727    3331.0004    8512.8435    81.781779 
   12300     918.6191   -105.63181   0.83118586   -104.80062    6800.8218    4.3523237    4.3523237    4.3523237    6800.8218    47959.412   -8122.2231   -19434.723   -13056.665    4538.1413    18293.127    82.444855 
   12400    1285.4728   -105.95107    1.1631228   -104.78795    5003.9266    4.3462776    4.3462776    4.3462776    5003.9266    27064.507   -746.62757   -11306.099    -3350.448    12089.661    6508.8669    82.101746 
   12500     1008.285   -105.70204   0.91231744   -104.78972    19090.616    4.3256889    4.3256889    4.3256889    19090.616     44937.24    5902.9922    6431.6147    6543.7825    9535.9873    10894.472    80.940495 
   12600    1167.4582   -105.86224    1.0563407    -104.8059   -5166.4172    4.3499871    4.3499871    4.3499871   -5166.4172   -31185.303   -11417.989     27104.04    -7737.811    -56.44408    196.83591    82.312142 
   12700     1477.483   -106.12394    1.3368577   -104.78708   -8747.5112    4.3546892    4.3546892    4.3546892   -8747.5112   -16654.167     -25394.4    15806.033    7379.6832   -7686.9024    8267.5653    82.579355 
   12800    935.03219   -105.63111   0.84603678   -104.78508    3528.3561    4.3321669    4.3321669    4.3321669    3528.3561      7502.12    4017.3669   -934.41859    3478.2271   -10111.344    1516.7296    81.304679 
   12900    1468.9136    -106.1174    1.3291039    -104.7883    2682.0819    4.3356286    4.3356286    4.3356286    2682.0819    14805.686    3719.0693   -10478.509    894.20463   -784.87519    -14680.76    81.499739 
   13000    1464.4605   -106.12155    1.3250746   -104.79647   -507.99493      4.34326      4.34326      4.34326   -507.99493   -4211.8837     -11205.2    13893.099    4424.6167    9937.5186    8665.7725    81.930854 
   13100     745.9845   -105.48189   0.67498245   -104.80691   -1865.3895    4.3510149    4.3510149    4.3510149   -1865.3895   -25795.766   -18897.877    39097.475   -9804.8732     9778.613   -7081.1427    82.370502 
   13200    1523.8163   -106.15983     1.378781   -104.78105    2186.5756    4.3515862    4.3515862    4.3515862    2186.5756   -19017.666    3346.8085    22230.584   -912.40285    8366.1122    10856.768    82.402951 
   13300    1012.0631   -105.70067   0.91573595   -104.78493    9715.5528    4.3379688    4.3379688    4.3379688    9715.5528   -22088.141    2400.7639    48834.036   -11297.138   -24.964492    15677.822    81.631782 
   13400    913.63195   -105.62367   0.82667339     -104.797    1683.0159    4.3388679    4.3388679    4.3388679    1683.0159   -27532.585    13263.148    19318.484    2371.8203   -13514.775    -3249.519    81.682549 
   13500    1296.9374   -105.96258    1.1734962   -104.78909    22395.896    4.3461877    4.3461877    4.3461877    22395.896    22990.465    60767.506   -16570.283    22159.304   -7525.0132    13573.322     82.09665 
   13600    753.99138   -105.47468   0.68222724   -104.79245    19910.651    4.3453841    4.3453841    4.3453841    19910.651    44022.902    25369.541   -9660.4884    5764.4386   -22948.703    3291.7933     82.05112 
   13700    920.13649    -105.6177   0.83255883   -104.78514   -1270.7924    4.3551107    4.3551107    4.3551107   -1270.7924    20714.027   -26167.801    1641.3976    3145.5993   -6956.2235   -3122.9282    82.603336 
   13800    1298.4398   -105.94344    1.1748556   -104.76858    22936.324    4.3401332    4.3401332    4.3401332    22936.324    25179.061    35797.601    7832.3096    5104.4961   -10718.902    8808.0081    81.754031 
   13900    1180.5998   -105.85341    1.0682315   -104.78518   -22346.031    4.3319763    4.3319763    4.3319763   -22346.031   -23062.082   -32018.823   -11957.188   -19302.274   -7737.8541   -3165.5616    81.293946 
   14000    1276.0366   -105.95389    1.1545847   -104.79931   -12502.888     4.340397     4.340397     4.340397   -12502.888   -16092.275    3997.3784   -25413.769   -7073.0886    25770.023    6718.1947    81.768938 
   14100    1281.1153   -105.95994      1.15918   -104.80076    10965.538    4.3466123    4.3466123    4.3466123    10965.538    18122.306    25426.369   -10652.061    5010.1633   -3497.1382   -11754.298    82.120714 
   14200    630.54793   -105.37523   0.57053302    -104.8047    6952.6453    4.3499868    4.3499868    4.3499868    6952.6453    31170.006    -3003.635   -7308.4354    14341.518    14099.464    3704.8859    82.312124 
   14300    1126.1017   -105.80528    1.0189205   -104.78636     24298.83     4.341137     4.341137     4.341137     24298.83    36881.734    61730.057   -25715.301    18991.205    7608.5582     2647.681    81.810767 
   14400    1198.1554   -105.87744    1.0841161   -104.79332   -6750.6235    4.3368819    4.3368819    4.3368819   -6750.6235   -6087.8805    25648.356   -39812.346    9712.5915    9283.9447   -9045.9937    81.570437 
   14500    1112.9211    -105.8131    1.0069944    -104.8061   -5962.3183    4.3357874    4.3357874    4.3357874   -5962.3183    734.87402   -8610.7824   -10011.047   -10823.088      10410.3   -1004.9909    81.508695 
   14600    1775.5755   -106.41044     1.606578   -104.80386   -22269.246    4.3497154    4.3497154    4.3497154   -22269.246   -15050.332    -3722.194   -48035.212   -9368.9567    6687.1181   -8827.8878    82.296717 
   14700    831.11412    -105.5582   0.75200952   -104.80619     1190.736    4.3409765    4.3409765    4.3409765     1190.736    17578.057    25156.222   -39162.071    22990.663    11576.668    5300.3504    81.801693 
   14800    808.96485   -105.52917    0.7319684   -104.79721     14314.41    4.3334773    4.3334773    4.3334773     14314.41   -19579.613    63143.949   -621.10691    1729.5414   -6849.7511   -8497.0514     81.37848 
   14900    1606.5296   -106.24415    1.4536217   -104.79053   -21739.657    4.3503397    4.3503397    4.3503397   -21739.657   -22170.516    3085.2265   -46133.682    5749.2578    15701.068    16126.783    82.332161 
   15000    761.68011   -105.48488   0.68918417    -104.7957   -21844.783    4.3484791    4.3484791    4.3484791   -21844.783    1076.0225   -46530.407   -20079.965   -1685.2531    9400.9926    3346.6187    82.226565 
   15100    1647.5899   -106.26726     1.490774   -104.77649   -7693.6203    4.3268747    4.3268747    4.3268747   -7693.6203    1689.4308    -16173.47   -8596.8213    -31289.97    5074.1742     5786.409    81.007078 
   15200    1011.2657   -105.70625   0.91501449   -104.79123   -10599.842    4.3456856    4.3456856    4.3456856   -10599.842   -5169.0785   -4636.8096   -21993.639    15036.549    3681.6638    21240.348    82.068201 
   15300    1345.2352   -106.00088    1.2171971   -104.78368   -23027.698    4.3502247    4.3502247    4.3502247   -23027.698   -16741.418   -39906.633   -12435.042   -11778.054   -1619.5261   -3362.1779    82.325629 
   15400    1275.2617   -105.92974    1.1538836   -104.77586    4526.0875    4.3452663    4.3452663    4.3452663    4526.0875    31750.145    15615.056   -33786.938    7778.3928   -1646.2862    18822.716    82.044448 
   15500    649.74566   -105.36682   0.58790353   -104.77892   -6654.5328    4.3488834    4.3488834    4.3488834   -6654.5328   -20335.776   -11462.035    11834.213    16547.237    5182.6628   -59.137125    82.249504 
   15600    969.46444    -105.6453    0.8771918   -104.76811    22939.885    4.3298621    4.3298621    4.3298621    22939.885    19276.367    45528.884     4014.406    6552.6103   -11220.479    16851.961    81.174982 
   15700    1464.7222    -106.1101    1.3253114   -104.78479    1436.6974    4.3450498    4.3450498    4.3450498    1436.6974    6459.1152     4085.446    -6234.469    2860.5673   -4306.5154    14924.981    82.032185 
   15800     699.5386   -105.42246   0.63295723    -104.7895   -18002.445    4.3561654    4.3561654    4.3561654   -18002.445   -38952.532   -36903.103    21848.301   -4712.5311   -13330.484   -2406.9957    82.663365 
   15900    1290.4018   -105.95171    1.1675826   -104.78413    10871.799    4.3174942    4.3174942    4.3174942    10871.799     32563.88   -1616.5998    1668.1178   -5098.9688   -14906.517    23326.841    80.481356 
   16000    1539.7346   -106.19388    1.3931843    -104.8007    9782.6665    4.3315825    4.3315825    4.3315825    9782.6665   -16285.916   -13229.377    58863.292    4737.8408    15121.242   -2218.3095    81.271781 
   16100     1089.287    -105.7896   0.98560981   -104.80399   -17084.401     4.347385     4.347385     4.347385   -17084.401   -19233.696   -55995.247    23975.738   -15596.703   -11210.785     8366.173    82.164519 
   16200    1488.3698    -106.1374    1.3467083   -104.79069   -18308.736    4.3404662    4.3404662    4.3404662   -18308.736   -34493.016   -23471.125    3037.9322    509.06136   -10082.387    27358.522    81.772851 
   16300    1404.3937   -106.05465     1.270725   -104.78392    -3534.583    4.3425191    4.3425191    4.3425191    -3534.583   -22648.103   -41572.034    53616.388   -8197.2955    1450.6884   -1197.5427    81.888933 
   16400    1057.0884   -105.74679   0.95647581   -104.79031   -7949.3899    4.3415965    4.3415965    4.3415965   -7949.3899   -26521.996   -40340.168    43013.994   -3782.8413   -18016.639    35966.836     81.83675 
   16500     1729.257     -106.349    1.5646681   -104.78433   -15728.312    4.3418975    4.3418975    4.3418975   -15728.312   -46048.153    -25331.88    24195.098   -6216.0181     6166.891   -13917.446    81.853771 
   16600    782.50244   -105.50525   0.70802465   -104.79723   -1564.7382    4.3352271    4.3352271    4.3352271   -1564.7382    -10387.01   -34625.353    40318.148   -10842.699    469.56915     21759.06    81.477099 
   16700    1411.7453   -106.07349    1.2773768   -104.79611   -1626.4814    4.3347853    4.3347853    4.3347853   -1626.4814    14191.932   -16584.615   -2486.7606    3808.4144   -11730.993    1814.7062     81.45219 
   16800    1584.9613   -106.22954    1.4341063   -104.79543   -24020.135    4.3438046    4.3438046    4.3438046   -24020.135   -38079.061   -40648.284    6666.9402   -16579.064    12837.882    1004.0348    81.961681 
   16900    474.58148   -105.23244    0.4294113   -104.80303   -2358.4858     4.335704     4.335704     4.335704   -2358.4858    28240.116   -32391.361   -2924.2121    3051.9454   -14732.178     36237.76    81.503988 
   17000    1934.6628   -106.53863    1.7505235   -104.78811    1022.4349      4.32782      4.32782      4.32782    1022.4349    276.39378   -555.77778    3346.6887   -11389.267    7481.6822   -942.07355    81.060182 
   17100    1145.7145   -105.84562    1.0366665   -104.80895   -24464.888    4.3410479    4.3410479    4.3410479   -24464.888    22721.251   -61332.647   -34783.268   -5600.6445   -10585.872    25169.971    81.805731 
   17200    1007.2108   -105.71621   0.91134551   -104.80486   -10536.587    4.3417966    4.3417966    4.3417966   -10536.587   -26475.985   -13326.264    8192.4888   -2010.0481   -4966.4502    677.63332    81.848067 
   17300     1534.704   -106.17781    1.3886325   -104.78917   -4658.1003    4.3280637    4.3280637    4.3280637   -4658.1003   -6208.7208   -15885.102    8119.5223   -5376.1694    2234.3468    13322.517    81.073875 
   17400    828.29779   -105.55686   0.74946125    -104.8074   -6048.3576    4.3339283    4.3339283    4.3339283   -6048.3576    17900.925    -30718.61   -5327.3877    6249.2288   -6354.0535    13652.978    81.403892 
   17500     1348.042   -106.01652    1.2197367   -104.79679    1196.8924    4.3403182    4.3403182    4.3403182    1196.8924    11639.828    4596.3526   -12645.503    16741.709    1390.7342   -10223.238    81.764484 
   17600    1371.2928   -106.03499    1.2407746   -104.79422   -4891.9011    4.3347231    4.3347231    4.3347231   -4891.9011    21641.374   -18404.014   -17913.064   -8516.1936   -5103.9094    33917.152    81.448686 
   17700    712.79712   -105.45133   0.64495382   -104.80638    7698.3164    4.3351778    4.3351778    4.3351778    7698.3164   -7845.4479    15150.246    15790.151    14292.724   -20299.098   -165.54439     81.47432 
   17800    1530.0463    -106.1816     1.384418   -104.79718    5217.5905    4.3345293    4.3345293    4.3345293    5217.5905    9311.2003    16099.972   -9758.4011    -4458.833    557.00199     19274.18    81.437761 
   17900    868.78502   -105.58908   0.78609494   -104.80299    -5901.856    4.3421803    4.3421803    4.3421803    -5901.856   -25155.628   -716.38489    8166.4448      9773.68   -21647.874     16267.03     81.86977 
   18000    1051.3775   -105.74699   0.95130845   -104.79568   -20352.487    4.3433889    4.3433889    4.3433889   -20352.487   -24756.298   -8506.8495   -27794.313    12846.948   -16148.485    -14868.47     81.93815 
   18100    1460.2523   -106.10392    1.3212669   -104.78266    5806.3307    4.3321839    4.3321839    4.3321839    5806.3307   -3980.8964    20682.345    717.54301   -5578.1787   -1989.6783     13613.76    81.305633 
   18200     706.8834    -105.4436   0.63960295     -104.804   -14814.825    4.3386683    4.3386683    4.3386683   -14814.825    -41038.17   -17402.396     13996.09    5042.5006   -22575.539   -20149.356    81.671276 
   18300    1401.8325   -106.06651    1.2684075    -104.7981    3896.1712    4.3344731    4.3344731    4.3344731    3896.1712   -8433.2103    16401.189    3720.5347      1353.11    7731.1271   -25504.648    81.434596 
   18400    1396.6725   -106.06633    1.2637386   -104.80259   -12942.385    4.3290906    4.3290906    4.3290906   -12942.385   -38876.388   -5861.5986      5910.83   -5488.9788   -20062.334    8894.6896    81.131599 
   18500    766.55166    -105.5025   0.69359205   -104.80891   -22169.657    4.3440551    4.3440551    4.3440551   -22169.657   -14716.693   -55026.495    3234.2191    4638.4004    -6402.375   -29880.331    81.975857 
   18600    1876.6689   -106.48523    1.6980494   -104.78718   -17525.873    4.3327194    4.3327194    4.3327194   -17525.873   -27369.711    3345.1326    -28553.04   -6355.9252   -12696.378    12237.816    81.335793 
   18700    735.26671   -105.46262   0.66528477   -104.79734   -12953.616     4.346048     4.346048     4.346048   -12953.616   -26193.085   -13890.419    1222.6563   -1308.7213   -22678.377   -21892.348    82.088731 
   18800    1225.9316   -105.89056    1.1092487   -104.78131   -7689.4544    4.3349002    4.3349002    4.3349002   -7689.4544   -1072.9502   -15371.942   -6623.4713   -984.38746   -1134.3211   -21487.932    81.458669 
   18900    1223.3115   -105.88894    1.1068779   -104.78206    9847.5326    4.3270288    4.3270288    4.3270288    9847.5326   -29177.541    51800.152    6919.9877    -7157.592   -25836.779    5438.6697    81.015732 
   19000    913.97948   -105.62048   0.82698784   -104.79349   -7385.3926    4.3474837    4.3474837    4.3474837   -7385.3926    -721.9195    6922.9198   -28357.178    5262.1535    4189.6786   -38558.279    82.170113 
   19100    1341.4059   -105.99663    1.2137322    -104.7829   -14939.813    4.3386724    4.3386724    4.3386724   -14939.813   -24732.385    20704.494   -40791.548   -11387.233   -21628.634    5536.5336    81.671509 
   19200    1415.6581    -106.0726    1.2809172   -104.79168   -2831.0149    4.3337106    4.3337106    4.3337106   -2831.0149   -6957.4885    12794.265   -14329.821   -8395.1628    -4836.155   -713.02965    81.391626 
   19300    1198.9027   -105.88932    1.0847923   -104.80453   -2515.9822    4.3370799    4.3370799    4.3370799   -2515.9822   -7348.8543     37947.38   -38146.473   -713.65707   -9433.4522   -14566.934    81.581608 
   19400    1151.4935   -105.84791    1.0418955   -104.80602   -22570.195    4.3410436    4.3410436    4.3410436   -22570.195   -43115.989    1720.6563   -26315.251   -9926.6307   -10235.074    13997.667    81.805488 
   19500    1392.0858   -106.04849    1.2595885   -104.78891    27037.456    4.3357413    4.3357413    4.3357413    27037.456    12976.079    81873.963   -13737.675   -907.36066    382.90942   -5910.1189    81.506094 
   19600    812.32947   -105.53342   0.73501278   -104.79841   -9507.4367     4.336047     4.336047     4.336047   -9507.4367   -25716.755    32862.178   -35667.733    2091.3737   -23777.771    9899.9411    81.523334 
   19700    1216.0084   -105.88872    1.1002699   -104.78845   -16828.268      4.33803      4.33803      4.33803   -16828.268   -21409.907    11810.255   -40885.153   -11024.954    27154.887    9165.6998    81.635236 
   19800    1648.4335   -106.27249    1.4915373   -104.78095   -7876.8122    4.3372176    4.3372176    4.3372176   -7876.8122   -20516.269    26114.641   -29228.809    12403.264   -29013.269   -2447.1416    81.589383 
   19900    952.34747   -105.65797   0.86170401   -104.79626   -29194.087    4.3358137    4.3358137    4.3358137   -29194.087   -32134.377    4578.9711   -60026.854    1526.4525    5422.9813    21048.987    81.510178 
   20000    1166.9703   -105.85458    1.0558993   -104.79869    15702.033    4.3274008    4.3274008    4.3274008    15702.033   -18779.181    96539.426   -30654.147   -1617.0837    8658.7935    1543.3278    81.036629 
   20100    1298.6504   -105.98352    1.1750462   -104.80848   -7915.4799    4.3374769    4.3374769    4.3374769   -7915.4799   -38518.852    29728.157   -14955.744    6264.5761   -5183.4502    11909.136    81.604014 
   20200    1405.9534   -106.07212    1.2721361   -104.79999   -17237.287    4.3415731    4.3415731    4.3415731   -17237.287   -14609.624     15270.68   -52372.917   -6647.6933    11327.179    8602.2923    81.835428 
   20300    911.51384   -105.62616   0.82475687   -104.80141    3702.4756    4.3370582    4.3370582    4.3370582    3702.4756   -17073.568    63274.568   -35093.573    1473.0309   -1533.5041   -20893.964    81.580386 
   20400    1180.7855   -105.86504    1.0683996   -104.79664    18209.898    4.3339309    4.3339309    4.3339309    18209.898   -29692.265    68455.256    15866.705    2474.2975    13792.402     4724.623     81.40404 
   20500    1228.0422   -105.90843    1.1111583   -104.79727   -32424.809    4.3479722    4.3479722    4.3479722   -32424.809   -28467.607   -13458.112   -55348.709    1998.3061     -4846.91   -15048.099    82.197815 
   20600    1331.8515   -106.00166    1.2050872   -104.79657    1356.6311    4.3315768    4.3315768    4.3315768    1356.6311   -22712.026    39665.637   -12883.718    4947.8055    15757.202    2041.2569    81.271461 
   20700     1630.209   -106.27433    1.4750474   -104.79928    9194.8208    4.3304102    4.3304102    4.3304102    9194.8208   -23941.885    37909.332    13617.016    9593.9387    2184.8014   -2306.9358    81.205809 
   20800    686.54101   -105.44121   0.62119673   -104.82002    18890.074    4.3308757    4.3308757    4.3308757    18890.074   -31138.365    129000.65   -41192.068   -4295.6976     14245.78   -21435.401    81.232003 
   20900    1621.7929   -106.27957    1.4674323   -104.81214   -16685.729      4.34512      4.34512      4.34512   -16685.729   -31461.703   -15696.676   -2898.8085   -7537.4294     4623.857     6032.739    82.036159 
   21000    1048.8157   -105.75187    0.9489905   -104.80288     7928.487    4.3360837    4.3360837    4.3360837     7928.487   -37501.171    73790.089   -12503.457    -1020.137    9650.5495   -3655.5637    81.525405 
   21100    971.75917   -105.68404   0.87926812   -104.80478   -942.66183    4.3222936    4.3222936    4.3222936   -942.66183   -33951.055    61163.915   -30040.846   -13271.992    10571.707   -2758.8636    80.750048 
   21200    1178.7169   -105.88095    1.0665278   -104.81442    7679.2545     4.335428     4.335428     4.335428    7679.2545   -20484.353    58019.432   -14497.316   -8435.3117     725.9408    29634.532     81.48843 
   21300    1406.6524   -106.08323    1.2727687   -104.81046   -39361.219    4.3490832    4.3490832    4.3490832   -39361.219   -62457.029    6827.3155   -62453.943   -2621.2431    14279.915   -15076.889    82.260843 
   21400    920.77427   -105.63884   0.83313591    -104.8057    6298.2208    4.3296717    4.3296717    4.3296717    6298.2208   -5063.3581    34217.298   -10259.278    -12960.63   -5851.0348    16691.477    81.164274 
   21500    1149.3505   -105.84479    1.0399565   -104.80483    10534.847    4.3196721    4.3196721    4.3196721    10534.847   -18215.039    75373.315   -25553.736    2744.6092    14778.567     2308.072    80.603209 
   21600    1600.9919   -106.25412    1.4486112   -104.80551    -7153.818    4.3360358    4.3360358    4.3360358    -7153.818   -26656.097    36518.483   -31323.839   -2517.8771   -3135.1279    1745.6104    81.522707 
   21700    772.01291   -105.51037    0.6985335   -104.81184   -10755.051    4.3447705    4.3447705    4.3447705   -10755.051   -14083.351    10262.918    -28444.72   -924.37075    8305.9391    16633.794    82.016368 
   21800    1596.1717   -106.24171    1.4442497   -104.79746   -26387.948    4.3364634    4.3364634    4.3364634   -26387.948   -35990.017    671.77914   -43845.606    2929.7878    6686.5782   -87.415239    81.546826 
   21900    1141.4046   -105.83135    1.0327669   -104.79858    52957.579    4.3156494    4.3156494    4.3156494    52957.579    17563.026    97919.092    43390.619    3095.6615   -9577.0724    4462.6241    80.378235 
   22000    955.87495   -105.69358   0.86489574   -104.82869   -27651.242    4.3379764    4.3379764    4.3379764   -27651.242    -36818.68     12690.37   -58825.417   -871.47913    19259.354    15275.997    81.632211 
   22100     1236.887   -105.91646    1.1191614    -104.7973   -10950.559    4.3542363    4.3542363    4.3542363   -10950.559   -37121.134    30026.434   -25756.978    1288.0797   -9378.2482   -22221.701    82.553593 
   22200     1448.751   -106.10159    1.3108603   -104.79073   -8271.6539    4.3273891    4.3273891    4.3273891   -8271.6539   -6551.7113   -5016.5961   -13246.654   -10137.897    17171.912    17826.478     81.03597 
   22300    1053.7189   -105.75032     0.953427   -104.79689   -5140.3705    4.3156242    4.3156242    4.3156242   -5140.3705    12628.669    3277.6919   -31327.472   -3599.3973   -6572.5394   -4623.3618    80.376826 
   22400    1278.7513    -105.9655     1.157041   -104.80846   -3817.3226    4.3421506    4.3421506    4.3421506   -3817.3226   -26505.619    1026.0495    14027.602   -11124.079   -388.69471   -20014.493    81.868086 
   22500     1228.696   -105.91306      1.11175   -104.80131   -23116.264    4.3506784    4.3506784    4.3506784   -23116.264   -37280.596    12863.924    -44932.12   -2312.2791    6384.9732    17346.611     82.35139 
   22600    856.20885   -105.56791   0.77471576    -104.7932    20230.287    4.3230779    4.3230779    4.3230779    20230.287    30923.542     29764.63    2.6896632   -5860.5566   -5372.5517   -21752.559    80.794014 
   22700    1467.4719   -106.12255    1.3277994   -104.79475    5660.2503    4.3310947    4.3310947    4.3310947    5660.2503     -13199.6     45215.44   -15035.089    3192.8103    13455.427   -318.37916    81.244328 
   22800    1064.8562   -105.76479   0.96350428   -104.80128   -5081.8915     4.344485     4.344485     4.344485   -5081.8915   -11926.664    21212.258   -24531.268    2756.6777   -12655.647   -8645.7359    82.000196 
   22900    1447.5523   -106.09886    1.3097758   -104.78909   -26054.458    4.3520648    4.3520648    4.3520648   -26054.458    -13850.17   -27514.754   -36798.448     8591.005   -3114.5803    -13885.45    82.430146 
   23000    1466.9975   -106.09913    1.3273702   -104.77176   -4829.5492    4.3442766    4.3442766    4.3442766   -4829.5492   -12739.387    1683.6517   -3432.9119    3042.6607   -459.99554    17234.659    81.988398 
   23100    633.55193   -105.36212    0.5732511   -104.78887    13921.467    4.3246122    4.3246122    4.3246122    13921.467     26741.64    37901.624   -22878.863    10943.503   -10314.321   -27282.499    80.880066 
   23200    1719.2994   -106.35484    1.5556582   -104.79918    4230.6198    4.3375477    4.3375477    4.3375477    4230.6198   -4451.4421    12910.806     4232.496    2674.5725     5624.157    776.71094    81.608012 
   23300    807.07373   -105.53343   0.73025727   -104.80317    10140.639    4.3440275    4.3440275    4.3440275    10140.639    7946.1642    8732.0915     13743.66    12554.428    948.23203    -17717.43    81.974296 
   23400     1094.413   -105.78317   0.99024791   -104.79292   -5535.9622    4.3383297    4.3383297    4.3383297   -5535.9622    14716.904   -10007.324   -21317.467   -3920.9555   -2158.3728   -8634.3709    81.652158 
   23500    1396.1835   -106.04623    1.2632962   -104.78293    11390.632    4.3334852    4.3334852    4.3334852    11390.632    15263.363   -12256.748    31165.282   -1072.3631    11158.979    1079.0297    81.378924 
   23600    926.57928   -105.63854    0.8383884   -104.80015    3568.3136    4.3226876    4.3226876    4.3226876    3568.3136    40909.201   -28539.868   -1664.3927    8814.0744    -14645.26   -21778.476     80.77213 
   23700     1377.263   -106.06081    1.2461765   -104.81463   -3614.3095    4.3384769    4.3384769    4.3384769   -3614.3095   -1975.2358   -18299.371    9431.6784   -1081.0803   -9137.1407    13937.249    81.660466 
   23800    1033.8228   -105.74817   0.93542463   -104.81274    16044.831    4.3354471    4.3354471    4.3354471    16044.831    6049.8323    -21238.62    63323.281    11030.785   -2814.3116   -25345.379    81.489504 
   23900    1105.8983   -105.80393      1.00064   -104.80329   -1927.0385    4.3348148    4.3348148    4.3348148   -1927.0385    30673.812   -22689.336   -13765.591   -764.50173   -14063.916    2170.8625    81.453852 
   24000    1471.5626    -106.1253    1.3315007   -104.79379   -7917.7072    4.3309509    4.3309509    4.3309509   -7917.7072   -23009.703   -30663.177    29919.758   -2436.2595    4288.7163   -8101.9933    81.236231 
   24100    1001.4608   -105.70638   0.90614274   -104.80024    13353.232    4.3245125    4.3245125    4.3245125    13353.232    40455.673   -21033.433    20637.457     5348.843    14618.349   -18547.168    80.874474 
   24200    1133.9442   -105.83006    1.0260166   -104.80404   -5441.0552    4.3309147    4.3309147    4.3309147   -5441.0552   -33962.272   -33017.778    50656.885   -17429.269   -3308.4247    8106.4358    81.234194 
   24300    1218.6133   -105.91323    1.1026269    -104.8106   -9395.0393    4.3285212    4.3285212    4.3285212   -9395.0393    1986.6871   -36726.318    6554.5131    4124.7306    13172.888   -18922.416     81.09959 
   24400    1393.5096   -106.07164    1.2608768   -104.81076   -8925.6055    4.3196873    4.3196873    4.3196873   -8925.6055   -28790.159   -22440.463    24453.806    -10206.07   -4625.1824   -9588.4736    80.604062 
   24500    875.61851   -105.60736   0.79227803   -104.81508    16131.789    4.3290066    4.3290066    4.3290066    16131.789   -26508.313   -15949.774    90853.455   -12934.783    9728.5062    9891.5387    81.126873 
   24600    1476.6501   -106.14353    1.3361041   -104.80743   -30956.409    4.3388519    4.3388519    4.3388519   -30956.409   -22946.647   -53759.413   -16163.167    3047.5121    5312.3953   -33158.961    81.681648 
   24700    1081.8143    -105.7905   0.97884835   -104.81165    9762.7041    4.3214089    4.3214089    4.3214089    9762.7041   -23924.205   -22017.291    75229.608   -31963.212    -2224.404     8924.556    80.700473 
   24800    1328.5118   -106.01579    1.2020654   -104.81373     6999.108    4.3211537    4.3211537    4.3211537     6999.108    12726.197   -16275.446    24546.573    988.35522    892.86528   -2652.8108     80.68618 
   24900    759.59794   -105.50499   0.68730017   -104.81769   -2409.1356    4.3349425    4.3349425    4.3349425   -2409.1356   -13018.147   -59024.927    64815.667    -23418.91   -5507.9207   -12072.146    81.461052 
   25000    1633.0364    -106.2749    1.4776056   -104.79729   -29810.401    4.3394036    4.3394036    4.3394036   -29810.401   -26429.377   -33104.014   -29897.811   -5370.1231   -6459.1346    40580.191    81.712808 
   25100    993.04613   -105.68944   0.89852901   -104.79092    10031.162    4.3264303    4.3264303    4.3264303    10031.162    21161.955   -37383.908     46315.44    -12660.34    704.78348   -9947.2429    80.982121 
   25200    1196.3518   -105.87469    1.0824843   -104.79221   -9458.1219    4.3191113    4.3191113    4.3191113   -9458.1219   -16689.301   -47336.608    35651.543   -8813.8828    -1924.386    29196.466    80.571824 
   25300    1207.1982   -105.89817    1.0922983   -104.80587   -13114.272    4.3339823    4.3339823    4.3339823   -13114.272   -18422.199   -34171.943    13251.326     2060.707    1795.6723    5582.6117    81.406937 
   25400    1303.0971   -105.97414    1.1790696   -104.79507   -20126.253     4.346923     4.346923     4.346923   -20126.253   -39222.931   -58034.139    36878.312   -14587.481   -92.881196   -217.64679    82.138323 
   25500    972.44154   -105.66537   0.87988554   -104.78549   -15057.613    4.3334597    4.3334597    4.3334597   -15057.613    36892.877   -44934.733   -37130.983    -3193.801   -6946.6143    37210.381    81.377488 
   25600    1365.9435   -106.01121    1.2359344   -104.77527    8345.4461    4.3204609    4.3204609    4.3204609    8345.4461    -37577.26     802.1046    61811.493   -325.98883    -416.7569   -13968.729    80.647375 
   25700    1212.6048   -105.88607    1.0971903   -104.78888   -10270.995    4.3357895    4.3357895    4.3357895   -10270.995     38422.24   -42227.383   -27007.844   -4619.9727   -743.26943     36010.89    81.508811 
   25800    1233.3978   -105.90765    1.1160043   -104.79165   -6300.8068    4.3369599    4.3369599    4.3369599   -6300.8068   -21995.506   -4417.4479    7510.5338   -2501.8535   -7858.6155    8489.4229    81.574837 
   25900    1362.8757   -106.01685    1.2331585   -104.78369   -6665.0884    4.3322256    4.3322256    4.3322256   -6665.0884   -8556.9887   -24594.945    13156.669   -5199.0145    8160.8378    8256.3856    81.307982 
   26000    1193.9485   -105.86512    1.0803097   -104.78481   -15526.823    4.3362567    4.3362567    4.3362567   -15526.823   -2305.3029   -3582.7235   -40692.444     3370.801     194.2032     33739.45    81.535165 
   26100    1466.1117   -106.09797    1.3265687    -104.7714    576.60073    4.3394548    4.3394548    4.3394548    576.60073   -26021.935    12280.979    15470.758   -11468.598   -608.05418   -4077.4836    81.715698 
   26200    1057.2386    -105.7315   0.95661172   -104.77489   -3492.1641    4.3413683    4.3413683    4.3413683   -3492.1641    26360.111   -8103.1477   -28733.456    2695.7938    421.75112    22815.282    81.823849 
   26300    1029.9084   -105.70675   0.93188272   -104.77486    8977.4552    4.3362786    4.3362786    4.3362786    8977.4552   -30917.095    64855.325   -7005.8643   -8723.5411    435.55401   -5745.3531      81.5364 
   26400    1346.9214   -105.99737    1.2187228   -104.77865    9518.0636    4.3259602    4.3259602    4.3259602    9518.0636    16986.058   -17110.853    28678.985     -2505.78   -6741.4124    15668.763    80.955726 
   26500    1113.5715   -105.80009    1.0075829   -104.79251    10528.687     4.325998     4.325998     4.325998    10528.687    38968.167    23120.315    -30502.42   -6995.6285    9876.1026    24960.553    80.957848 
   26600    1104.6646   -105.79256   0.99952372   -104.79304    17295.349     4.336152     4.336152     4.336152    17295.349   -6159.3531   -6792.7988      64838.2   -1300.3846     3617.118     -7309.37    81.529258 
   26700    1250.1098   -105.91737    1.1311256   -104.78625   -19703.096    4.3384323    4.3384323    4.3384323   -19703.096    5397.4592   -27515.708   -36991.041   -4397.6496    7894.4701    27083.701    81.657953 
   26800    1158.2434   -105.83047     1.048003   -104.78247    36177.733    4.3143269    4.3143269    4.3143269    36177.733    31186.257    34948.141    42398.802     -3933.55    12614.824   -4764.7823    80.304366 
   26900    1515.7246   -106.16346    1.3714595     -104.792    9969.1115    4.3261041    4.3261041    4.3261041    9969.1115    12437.498    407.07455    17062.762   -2708.8196   -1295.6077    15789.437    80.963803 
   27000    1017.5284   -105.70942   0.92068105   -104.78874   -27760.209    4.3433554    4.3433554    4.3433554   -27760.209   -33989.282   -20001.572   -29289.771    4724.9124    25326.486    5414.3066    81.936254 
   27100    1329.8826   -105.97587    1.2033058   -104.77256    28276.745    4.3282686    4.3282686    4.3282686    28276.745    6669.0348    19410.497    58750.704   -4662.9489   -3645.5963    254.43058     81.08539 
   27200    1140.2358    -105.8158    1.0317093   -104.78409    -13809.11    4.3285147    4.3285147    4.3285147    -13809.11   -26873.048    11804.631   -26358.912    2801.9035    25179.354    14172.605    81.099223 
   27300    1521.6695   -106.15677    1.3768385   -104.77993    2244.7201    4.3228959    4.3228959    4.3228959    2244.7201   -19356.033   -10123.337     36213.53    -7193.199    14852.008   -5356.4734    80.783809 
   27400    986.53714   -105.68488   0.89263954   -104.79224   -7670.7905    4.3314011    4.3314011    4.3314011   -7670.7905   -19259.834    7689.9562   -11442.493    1426.1801   -3091.5741    1323.7814    81.261567 
   27500    1212.2994   -105.89156    1.0969139   -104.79464   -19892.031    4.3334384    4.3334384    4.3334384   -19892.031   -42129.167   -17986.818    439.89159    7516.6884    18546.819    6567.0765    81.376291 
   27600    1519.5152   -106.15615    1.3748893   -104.78127    20762.463     4.324992     4.324992     4.324992    20762.463    26230.021    16645.984    19411.384   -3066.1005     -2456.39    603.74305    80.901377 
   27700    677.41976   -105.40897   0.61294364   -104.79603    -18512.35    4.3385651    4.3385651    4.3385651    -18512.35   -18337.513   -5248.2783   -31951.257    10014.031    15569.528    4765.2046    81.665448 
   27800    1539.8134   -106.16722    1.3932555   -104.77396    5870.4252    4.3310833    4.3310833    4.3310833    5870.4252   -1879.8291   -15267.778    34758.883    6235.0889    3305.1274   -6199.8737    81.243687 
   27900    879.97095   -105.58246   0.79621621   -104.78624    9539.3075    4.3248724    4.3248724    4.3248724    9539.3075    26439.592     27769.74   -25591.409   -1946.6505    2277.7982    11436.744     80.89467 
   28000    1460.2689   -106.10506     1.321282   -104.78377    3198.1629    4.3324133    4.3324133    4.3324133    3198.1629   -17702.916    3084.0324    24213.372    13606.009    -1687.553   -7400.6268    81.318552 
   28100    1207.1613   -105.87767    1.0922649    -104.7854   -21112.149    4.3392685    4.3392685    4.3392685   -21112.149    -33710.35   -23779.522   -5846.5759   -7110.3399   -6858.8261    8722.4845    81.705178 
   28200    974.70159   -105.67048   0.88193048   -104.78855   -1846.6978    4.3359463    4.3359463    4.3359463   -1846.6978   -24823.841    19237.679    46.068777    7129.3169    9357.2181   -1545.7783    81.517655 
   28300    1658.6493    -106.2804    1.5007807   -104.77962    24966.638    4.3137162    4.3137162    4.3137162    24966.638    26566.195   -2608.4991    50942.218    16081.039   -21097.331   -2891.4857    80.270267 
   28400    863.72964   -105.58749   0.78152073   -104.80597   -8991.4555     4.331033     4.331033     4.331033   -8991.4555   -22027.114     4076.897     -9024.15   -5726.5194    17486.875    11338.386    81.240854 
   28500    1502.7599   -106.14084    1.3597288   -104.78111   -3244.3113    4.3447823    4.3447823    4.3447823   -3244.3113   -17006.396   -12130.596    19404.057    9386.6141   -4794.7075   -12572.624    82.017034 
   28600    993.67542   -105.67931    0.8990984   -104.78021    27031.912    4.3224112    4.3224112    4.3224112    27031.912    74436.942   -12786.817    19445.611    4294.9184   -10936.277    16800.204     80.75664 
   28700    1571.6507   -106.20184    1.4220625   -104.77978    57.999075    4.3281624    4.3281624    4.3281624    57.999075    7499.5679   -14965.994    7640.4236   -2372.0314    18666.259   -7700.8711    81.079422 
   28800    1109.3239   -105.78808    1.0037396   -104.78434    13793.299    4.3257955    4.3257955    4.3257955    13793.299    22225.223    5646.1927     13508.48    -4737.298   -25713.504    5662.7768    80.946477 
   28900    1090.7642    -105.7843   0.98694634   -104.79736    7289.7001    4.3313286    4.3313286    4.3313286    7289.7001    66654.794   -36334.194      -8451.5    1473.1844    12847.067    8099.3026     81.25749 
   29000    1759.0367    -106.3726    1.5916134   -104.78099   -23532.314    4.3447193    4.3447193    4.3447193   -23532.314   -6684.3319   -35161.582   -28751.028    3511.5523    3600.6836    2939.5269    82.013468 
   29100    834.27016   -105.54506   0.75486517    -104.7902     17248.06    4.3262555    4.3262555    4.3262555     17248.06    96672.333   -19999.295   -24928.858     9862.208   -13030.505    14481.736    80.972305 
   29200    1743.2955   -106.36287    1.5773704    -104.7855     5845.142    4.3258996    4.3258996    4.3258996     5845.142    4950.9252   -1574.6211    14159.122   -1071.0419    4232.6451   -8085.7042    80.952323 
   29300     857.1991   -105.57548   0.77561176   -104.79987    351.64398    4.3304685    4.3304685    4.3304685    351.64398    76645.722   -34691.626   -40899.164    2108.2281   -15922.251    29949.881    81.209094 
   29400    1458.0796   -106.11069    1.3193011   -104.79139    13439.815    4.3369882    4.3369882    4.3369882    13439.815    21778.667   -5604.5475    24145.324    6370.1555     8597.819   -9889.3062    81.576435 
   29500    1363.2943    -106.0252    1.2335374   -104.79166    3224.2013     4.331771     4.331771     4.331771    3224.2013    22838.086    -11169.92   -1995.5615    4056.9059   -18720.337    6969.5657    81.282389 
   29600    824.57682   -105.54572   0.74609444   -104.79963    9499.0909    4.3255475    4.3255475    4.3255475    9499.0909     50274.58   -13465.965   -8311.3426   -806.46009   -13961.082    6536.5627    80.932554 
   29700    1632.2104    -106.2584    1.4768583   -104.78154    10748.046    4.3375553    4.3375553    4.3375553    10748.046    472.76919    33584.436   -1813.0656   -4750.3149    6542.3635   -17847.995    81.608438 
   29800     938.2132    -105.6393   0.84891502   -104.79038   -17187.895    4.3319553    4.3319553    4.3319553   -17187.895    19650.397   -18459.466   -52754.616   -3767.4145   -17155.505     20129.33    81.292767 
   29900    1244.5275   -105.90279    1.1260747   -104.77671    31669.431    4.3261093    4.3261093    4.3261093    31669.431     30233.87    48063.288    16711.135   -5791.6733   -5588.2204   -8175.5201    80.964097 
   30000    1054.9556   -105.74434   0.95454603   -104.78979   -24444.706    4.3363684    4.3363684    4.3363684   -24444.706   -32493.715   -10032.997   -30807.408   -325.44046   -9794.1713     4404.239    81.541468 
   30100    1470.9003   -106.11421    1.3309015    -104.7833    -15126.66    4.3297376    4.3297376    4.3297376    -15126.66    12294.914   -40716.617   -16958.279   -1795.6571   -3865.4342    15648.505    81.167979 
   30200    1205.2808   -105.87424    1.0905634   -104.78368    4256.8205    4.3325756    4.3325756    4.3325756    4256.8205   -26069.339     39389.86   -550.06053    2529.9805   -7549.8366   -7045.0351    81.327691 
   30300    1007.4604   -105.69896    0.9115713   -104.78739   -33256.696    4.3329933    4.3329933    4.3329933   -33256.696   -19507.613   -13869.364    -66393.11   -2948.7381   -20663.988    12261.628    81.351214 
   30400    1640.8846   -106.26292    1.4847069   -104.77822    17979.753    4.3239607    4.3239607    4.3239607    17979.753    16951.725    29192.821    7794.7139   -10222.402    17076.099    -4683.172    80.843521 
   30500       595.66   -105.33996   0.53896569     -104.801   -26948.636      4.34676      4.34676      4.34676   -26948.636   -9665.8327   -6545.4697   -64634.606   -1787.3877    -20829.67    9041.5274    82.129083 
   30600    1541.8651   -106.17219     1.395112   -104.77708   -1526.9182    4.3288206    4.3288206    4.3288206   -1526.9182    34549.757   -10292.473   -28838.039   -3726.5767   -5421.7603    4829.3764    81.116419 
   30700    1050.9884   -105.73751   0.95095642   -104.78655   -15871.337    4.3255594    4.3255594    4.3255594   -15871.337   -14918.592    4713.2721   -37408.693   -10822.996    6711.6837    -9810.213    80.933223 
   30800    835.85672    -105.5519   0.75630073    -104.7956   -3560.9468    4.3314893    4.3314893    4.3314893   -3560.9468    17341.943    -3381.028   -24643.756     8723.794   -24794.476   -1024.6357    81.266535 
   30900    1660.9403   -106.28787    1.5028537   -104.78502   -3737.6286     4.337136     4.337136     4.337136   -3737.6286    8705.5446    -12178.91   -7739.5201    880.30137    24885.578   -3990.9507    81.584775 
   31000    447.88792   -105.19987    0.4052584   -104.79462   -29248.782    4.3456593    4.3456593    4.3456593   -29248.782   -18657.765    167.09426   -69255.676    -2575.326   -5430.5284    1758.8511     82.06671 
   31100    1688.2736   -106.30271    1.5275854   -104.77513    18023.566     4.315311     4.315311     4.315311    18023.566     11691.73    18717.456     23661.51    11056.889   -4111.2941   -15673.793    80.359328 
   31200    923.32152   -105.64263   0.83544072   -104.80719    12546.008    4.3226616    4.3226616    4.3226616    12546.008    65613.321    9234.8778   -37210.175   -3918.5965   -6602.4791    6583.4089    80.770673 
   31300    1159.5256   -105.85426    1.0491631    -104.8051   -12084.052    4.3414464    4.3414464    4.3414464   -12084.052   -8841.3679     14867.12    -42277.91      4562.72   -12454.612    4367.6881    81.828263 
   31400    1094.8664   -105.78273   0.99065815   -104.79208    1123.5275     4.344369     4.344369     4.344369    1123.5275    18699.031    10149.964   -25478.413    10649.001    10758.833   -12248.984    81.993632 
   31500    1370.3485    -106.0248    1.2399202   -104.78488   -15930.088    4.3274091    4.3274091    4.3274091   -15930.088   -32149.362     27899.61    -43540.51    1002.0922   -19337.654    18115.828    81.037094 
   31600    1293.0796   -105.95336    1.1700056   -104.78336    19815.632    4.3144002    4.3144002    4.3144002    19815.632    38180.188    1191.8174    20074.892    7748.2861     7325.761   -15687.785    80.308459 
   31700    1176.1847   -105.86697    1.0642366   -104.80274   -25505.829    4.3426574    4.3426574    4.3426574   -25505.829   -11075.049   -8136.0938   -57306.344   -251.42525   -14987.296     1209.019     81.89676 
   31800    1437.5625   -106.09001    1.3007368   -104.78927    -2223.711    4.3398873    4.3398873    4.3398873    -2223.711   -10615.787    32393.426   -28448.772   -14163.845   -16696.745    1117.6234    81.740134 
   31900    922.09831   -105.61721   0.83433393   -104.78288    22626.024    4.3254089    4.3254089    4.3254089    22626.024    39469.012    23478.586    4930.4726   -3176.7744    5715.5578   -24946.562    80.924778 
   32000    899.05133   -105.60674   0.81348054   -104.79325   -4933.5815    4.3315682    4.3315682    4.3315682   -4933.5815   -22087.453    60131.884   -52845.176   -10947.832   -20539.544    10521.015    81.270975 
   32100    1468.2044   -106.11403    1.3284622   -104.78557    12175.255    4.3330495    4.3330495    4.3330495    12175.255    11032.371   -10490.922    35984.314   -10081.801    4982.9402   -14505.291    81.354381 
   32200    1158.5643   -105.83995    1.0482934   -104.79166   -35591.241    4.3409749    4.3409749    4.3409749   -35591.241   -34150.182   -15169.076   -57454.466    8200.4412   -31508.268   -7265.6773    81.801603 
   32300      1142.59   -105.82163    1.0338395   -104.78779    3114.5007     4.323146     4.323146     4.323146    3114.5007    2536.0567    -18108.12    24915.566    5206.2782   -8407.7519    6430.7114    80.797829 
   32400    1467.5572   -106.12236    1.3278766   -104.79449   -15024.727     4.325152     4.325152     4.325152   -15024.727    3324.5828   -12155.053    -36243.71    5538.7244   -8575.5907   -27132.757    80.910358 
   32500    1024.6013   -105.72627   0.92708076   -104.79919   -29000.348     4.342907     4.342907     4.342907   -29000.348   -67833.835    6978.2872   -26145.495    15541.608   -39157.331      7387.54    81.910878 
   32600    1598.6979   -106.22881    1.4465355   -104.78227    -6270.604    4.3263886    4.3263886    4.3263886    -6270.604     6966.698   -2139.1979   -23639.312    4473.3189    12018.679   -5180.9626    80.979776 
   32700    642.05733   -105.37509   0.58094697   -104.79414   -3296.9564    4.3258896    4.3258896    4.3258896   -3296.9564   -13974.858    32990.787   -28906.798    7558.8632   -38215.532   -13618.559    80.951761 
   32800    1492.4456   -106.13867    1.3503961   -104.78828    1106.0501     4.326948     4.326948     4.326948    1106.0501     8812.498    6596.6352   -12090.983    1339.0085    4724.3451    20641.987    81.011193 
   32900    1054.9912   -105.75358   0.95457819   -104.79901    723.39951    4.3379594    4.3379594    4.3379594    723.39951    10469.885    9088.3894   -17388.076   -3948.6346   -22976.783   -11884.898    81.631249 
   33000     825.4016   -105.54811   0.74684071   -104.80127   -6505.3483      4.32721      4.32721      4.32721   -6505.3483     7017.939    4753.2855   -31287.269    2467.3438   -26916.887    12508.793    81.025909 
   33100    1222.7992   -105.90246    1.1064144   -104.79605    18833.847    4.3198306    4.3198306    4.3198306    18833.847    44775.607   -11123.171    22849.105    1558.4794    10269.154    5899.7101    80.612085 
   33200    1491.7272   -106.15179    1.3497461   -104.80205   -20290.765    4.3361376    4.3361376    4.3361376   -20290.765   -20324.461    5202.5221   -45750.356    4637.9831   -30778.958   -10334.201    81.528444 
   33300    932.68439   -105.64884   0.84391243   -104.80493    10682.293    4.3291434    4.3291434    4.3291434    10682.293    60184.729   -28642.087    504.23728    7685.3651    12798.228    18736.553    81.134568 
   33400    1192.5996   -105.87662    1.0790892   -104.79753   -16795.068    4.3392145    4.3392145    4.3392145   -16795.068    760.17375   -24508.343   -26637.033   -10357.214   -25167.903   -7993.2678    81.702125 
   33500     1102.272   -105.79512   0.99735888   -104.79776   -779.84068    4.3175146    4.3175146    4.3175146   -779.84068    44445.642   -15989.438   -30795.726    11090.703   -30655.227    20971.932    80.482497 
   33600    1133.9191   -105.83327    1.0259938   -104.80727    22214.588     4.318885     4.318885     4.318885    22214.588    59203.035   -23751.946    31192.676   -16090.516    15005.077   -1787.5051    80.559156 
   33700    1135.4974   -105.83312    1.0274219    -104.8057   -26997.291    4.3412729    4.3412729    4.3412729   -26997.291    -1476.469   -38347.764   -41167.639   -7031.1578   -18616.954    14219.985    81.818452 
   33800    932.87765   -105.64513    0.8440873   -104.80104    5997.9819    4.3282183    4.3282183    4.3282183    5997.9819     51305.12   -35577.803    2266.6287    15072.838    4602.5911    17780.069    81.082564 
   33900    1539.1548   -106.18025    1.3926596   -104.78759   -1121.5653    4.3304807    4.3304807    4.3304807   -1121.5653    1141.6814   -31889.488    27383.111   -8185.2216    8262.5192   -2558.9845     81.20978 
   34000    882.13301   -105.59599   0.79817249   -104.79781   -15170.797    4.3359789    4.3359789    4.3359789   -15170.797    49422.051   -59615.226   -35319.216    16800.475   -22529.599     30475.96    81.519494 
   34100    1511.3848   -106.16395    1.3675327   -104.79642   -6991.5539    4.3272964    4.3272964    4.3272964   -6991.5539   -4037.8923    -28956.64     12019.87    13104.713    4434.9264   -13909.982    81.030762 
   34200    1027.0527   -105.73932   0.92929885   -104.81002    13336.043    4.3213573    4.3213573    4.3213573    13336.043     85943.31   -27403.289   -18531.892   -13358.619   -5334.1409     34762.84    80.697581 
   34300    1360.5417   -106.04194    1.2310467   -104.81089   -11382.324    4.3323584    4.3323584    4.3323584   -11382.324   -32227.718   -30423.929    28504.676    17894.414       -18961   -1276.4848    81.315464 
   34400    998.72467   -105.70573   0.90366707   -104.80206    19081.672    4.3342264    4.3342264    4.3342264    19081.672    75464.941    -20622.38    2402.4539   -12532.104    9895.2898    836.40726    81.420692 
   34500    1289.8108   -105.96639    1.1670479   -104.79934   -11678.644    4.3301344    4.3301344    4.3301344   -11678.644   -2528.9059   -8068.4968   -24438.528     2221.688    -25940.09    22162.594    81.190299 
   34600    1197.0366   -105.88123    1.0831038   -104.79813    18007.416    4.3262763    4.3262763    4.3262763    18007.416    51234.696   -17667.782    20455.333    12736.616   -2337.9271   -8130.9013    80.973473 
   34700    1422.5185   -106.08995    1.2871246   -104.80283   -1989.5865    4.3316068    4.3316068    4.3316068   -1989.5865    15588.804    -17747.45   -3810.1143   -9324.7671    2033.2508    21255.748    81.273147 
   34800    1000.2674   -105.70394   0.90506297   -104.79888   -11461.388    4.3458094    4.3458094    4.3458094   -11461.388    9703.6718   -26041.479   -18046.356    11876.279   -10181.206    1357.1143    82.075214 
   34900    1281.8022   -105.94726    1.1598015   -104.78746   -10156.239    4.3338018    4.3338018    4.3338018   -10156.239    10709.737   -42631.998    1453.5448   -6039.4553   -2455.9006    16660.375    81.396762 
   35000    1240.3514   -105.90916     1.122296   -104.78686    13006.886    4.3160793    4.3160793    4.3160793    13006.886    51117.236   -4307.7662    -7788.812   -148.60423   -5145.5938    8826.7789    80.402255 
   35100    1179.4454   -105.87286     1.067187   -104.80567   -5548.4273    4.3298553    4.3298553    4.3298553   -5548.4273    -12972.08    -22407.21    18734.009     9667.696   -20429.999   -7063.7866    81.174597 
   35200    1208.9405   -105.89263    1.0938748   -104.79875    -1811.281    4.3403102    4.3403102    4.3403102    -1811.281    45547.001   -40413.779   -10567.065   -8966.3981    9330.6447    18936.106    81.764033 
   35300    961.20663   -105.66801   0.86971996   -104.79829    14787.883     4.334772     4.334772     4.334772    14787.883   -849.33552   -14199.756    59412.742    26499.377    1728.2633    -7521.709    81.451443 
   35400    1476.1477   -106.12851    1.3356495   -104.79286   -13401.709    4.3304558    4.3304558    4.3304558   -13401.709   -19602.685   -16658.114   -3944.3273    -9304.685   -15288.119    9279.3649    81.208376 
   35500    1141.6314   -105.82462    1.0329721   -104.79164    25003.885    4.3240491    4.3240491    4.3240491    25003.885    24925.606   -9323.4658    59409.515    6988.9662    25756.334    2023.7525    80.848479 
   35600      1041.73    -105.7429   0.94257916   -104.80032   -20690.535    4.3375931    4.3375931    4.3375931   -20690.535   -36469.222   -30616.125    5013.7414    7957.4523   -15746.229    -8395.071    81.610575 
   35700    1506.6148    -106.1514    1.3632167   -104.78819    15936.563    4.3312593    4.3312593    4.3312593    15936.563    7712.6828   -9161.4371    49258.442   -12427.947   -2270.1548    11164.966    81.253591 
   35800    1052.0689   -105.74887   0.95193409   -104.79693   -8374.4447    4.3260038    4.3260038    4.3260038   -8374.4447   -8546.1902    -14512.65   -2064.4945    11247.647    9639.4815   -12678.049     80.95817 
   35900    1189.4364   -105.88013     1.076227    -104.8039   -3764.5322    4.3288759    4.3288759    4.3288759   -3764.5322     33853.28   -26663.468   -18483.408   -2698.3077   -37414.446    563.51331    81.119526 
   36000    1434.8364   -106.10249    1.2982701   -104.80422    5628.4373    4.3276905    4.3276905    4.3276905    5628.4373    4147.5801    -11200.67    23938.402   -5801.9997    15715.147    2497.7054    81.052903 
   36100    820.03091   -105.55873    0.7419812   -104.81675   -1503.5358    4.3359803    4.3359803    4.3359803   -1503.5358   -8379.0384   -17515.548    21383.979    7042.5503   -22249.823   -7585.1727    81.519576 
   36200    1428.5096   -106.08977    1.2925455   -104.79722    1834.1663    4.3371607    4.3371607    4.3371607    1834.1663    11723.908   -27098.357    20876.948    2909.6326    2572.3934    9538.8807    81.586167 
   36300    838.23863   -105.56146   0.75845593     -104.803   -14053.045     4.329254     4.329254     4.329254   -14053.045    14115.583   -29929.946   -26344.773    4203.1048    11612.127   -5996.4621    81.140786 
   36400    1585.1835   -106.23133    1.4343073   -104.79703   -3276.3362    4.3203825    4.3203825    4.3203825   -3276.3362    4881.5366   -6153.8903    -8556.655    771.77801   -23991.817    7705.9707    80.642983 
   36500    1141.6194   -105.84007    1.0329613   -104.80711    3092.3718    4.3340775    4.3340775    4.3340775    3092.3718    13119.395   -24196.401    20354.122    6709.3357    18596.825    6272.4297      81.4123 
   36600    822.22856   -105.54088   0.74396968   -104.79691    -9974.853      4.34514      4.34514      4.34514    -9974.853    15570.444   -15443.422   -30051.581    7254.7709   -5998.6623   -12102.598    82.037293 
   36700    1476.3268   -106.11553    1.3358116   -104.77972    6640.0688    4.3202552    4.3202552    4.3202552    6640.0688    10336.211    -28318.53    37902.526   -1854.1438    2264.1392    24015.796    80.635859 
   36800      962.496   -105.66741   0.87088661   -104.79652    15903.346    4.3228602    4.3228602    4.3228602    15903.346    73170.955   -15795.793    -9665.124    11293.733   -1864.0522   -8949.6314    80.781809 
   36900     1448.207   -106.10387    1.3103681   -104.79351   -16094.998    4.3393653    4.3393653    4.3393653   -16094.998   -22699.907   -20832.795   -4752.2919    11.849055   -3690.6132    12544.296    81.710643 
   37000    1017.2593   -105.71207   0.92043759   -104.79163   -1689.8037    4.3397825    4.3397825    4.3397825   -1689.8037    25611.111   -29754.608   -925.91395   -11009.729   -4858.8363     12034.46    81.734214 
   37100    1359.7016   -106.01886    1.2302866   -104.78857   -11937.477    4.3285493    4.3285493    4.3285493   -11937.477    12545.802   -27136.187   -21222.046    21660.092    3777.2387   -3171.6321    81.101168 
   37200    1233.9924   -105.90959    1.1165422   -104.79305    19921.972    4.3197376    4.3197376    4.3197376    19921.972    28091.009   -5447.3282    37122.236   -14534.949   -6399.0598    29158.327     80.60688 
   37300    1074.0979     -105.776   0.97186635   -104.80413    4295.3902    4.3371016    4.3371016    4.3371016    4295.3902    15713.135   -10760.535    7933.5704   -1397.7237    -2391.469   -12130.172    81.582837 
   37400    1021.5418   -105.73208   0.92431245   -104.80776   -14261.259    4.3351861    4.3351861    4.3351861   -14261.259    5369.0376   -41011.407   -7141.4069    7734.3248    24482.826    23191.066    81.474789 
   37500    1404.6153   -106.06786    1.2709254   -104.79694    26788.718    4.3177868    4.3177868    4.3177868    26788.718    40989.705    11896.976    27479.475   -11837.932    4047.1722     5279.935    80.497719 
   37600    925.61547   -105.64482   0.83751633   -104.80731   -13256.898    4.3307991    4.3307991    4.3307991   -13256.898    -11641.53   -9938.1341   -18191.031    16748.964    17516.491    14127.413    81.227693 
   37700    1131.9764   -105.81536     1.024236   -104.79112   -2278.6564    4.3317828    4.3317828    4.3317828   -2278.6564    35904.965   -21314.882   -21426.052   -1915.9902    13479.292    21637.867    81.283057 
   37800    1382.3703   -106.03797    1.2507977   -104.78717    4429.1449    4.3279553    4.3279553    4.3279553    4429.1449   -9311.0372    2426.6264    20171.846    11880.709   -4702.9016   -6463.8592    81.067783 
   37900    1011.3551   -105.71209   0.91509536   -104.79699   -35543.559    4.3344767    4.3344767    4.3344767   -35543.559   -4935.9735   -39305.085   -62389.619    6570.7057    17754.899    37761.022    81.434795 
   38000    1779.5179   -106.39086    1.6101452   -104.78071    3772.0268    4.3224255    4.3224255    4.3224255    3772.0268   -3763.7052    527.17209    14552.613   -3201.2807   -4302.7548   -7928.1384    80.757442 
   38100    667.47302   -105.40452   0.60394362   -104.80058   -11682.158    4.3314969    4.3314969    4.3314969   -11682.158   -10783.333   -13537.387   -10725.755    10615.067    5867.5757    32032.414    81.266963 
   38200    1292.5227   -105.96498    1.1695017   -104.79548    -11728.25    4.3356844    4.3356844    4.3356844    -11728.25    -7887.287   -26939.842   -357.62183   -1219.2571    910.55553    31631.778    81.502887 
   38300     1437.761   -106.08629    1.3009164   -104.78537    15659.303    4.3260828    4.3260828    4.3260828    15659.303   -5387.1677   -2777.1526     55142.23     719.4044     945.2893    3854.4764    80.962608 
   38400    583.67182   -105.32767   0.52811853   -104.79956   -19013.063    4.3303615    4.3303615    4.3303615   -19013.063    5541.4319    -11181.83   -51398.791    7570.4635    7420.9363    51082.982    81.203074 
   38500    1794.9934   -106.40466    1.6241478   -104.78051    2842.9163    4.3304134    4.3304134    4.3304134    2842.9163    12940.049     -11184.7    6773.4007   -10187.138    1989.6353   -9710.3763    81.205991 
   38600    1006.7157   -105.71038   0.91089754   -104.79948   -36159.403    4.3321972    4.3321972    4.3321972   -36159.403   -25263.663   -49260.448   -33954.098    14247.521    17365.602    30423.126    81.306384 
   38700    1271.2987   -105.94686    1.1502977   -104.79656    12552.517    4.3205379    4.3205379    4.3205379    12552.517    42008.448    19522.559   -23873.455    889.09972     5550.978    5006.7246     80.65169 
   38800    1348.3411   -106.01326    1.2200074   -104.79325   -8036.7358     4.334595     4.334595     4.334595   -8036.7358   -1086.5598   -27347.512    4323.8648    5435.7575    4621.0618     12127.76    81.441467 
   38900    708.90198   -105.43915   0.64142941   -104.79772   -32777.932    4.3390712    4.3390712    4.3390712   -32777.932   -10468.383   -37024.751   -50840.664    10286.123    22214.414    26795.545    81.694031 
   39000     1644.825    -106.2636    1.4882722   -104.77533    40687.524    4.3149122    4.3149122    4.3149122    40687.524    38434.705    54260.782    29367.085    8494.2018   -11724.319   -3620.9038    80.337053 
   39100    894.18376   -105.60927   0.80907626    -104.8002   -1900.3985    4.3271958    4.3271958    4.3271958   -1900.3985    22356.899   -16531.454    -11526.64    4349.3399    19263.982    33897.196    81.025114 
   39200    1314.5271   -105.97357    1.1894118   -104.78416   -437.55977    4.3327831    4.3327831    4.3327831   -437.55977    20628.062   -12863.458   -9077.2839    12341.893    2987.7131   -8861.1917    81.339375 
   39300    1030.9991   -105.71817   0.93286963    -104.7853     23618.49    4.3264803    4.3264803    4.3264803     23618.49    43009.541    -15454.53    43300.458    -6106.336   -8388.3636     38155.52    80.984929 
   39400    1364.2348   -106.01987    1.2343883   -104.78548   -3552.3385    4.3338619    4.3338619    4.3338619   -3552.3385   -6066.1793   -5382.8633    792.02715    10970.561    8652.6144    3859.1411    81.400151 
   39500    1115.3215   -105.79474    1.0091663   -104.78557    13617.468    4.3231336    4.3231336    4.3231336    13617.468    62948.795   -35896.782    13800.392    -1396.706   -2095.9133    21206.007    80.797135 
   39600    1249.9957   -105.92496    1.1310224   -104.79394   -10800.535    4.3272246    4.3272246    4.3272246   -10800.535    3573.7763   -26047.739   -9927.6436   -3698.8078   -2325.8636    23266.622    81.026731 
   39700    1481.5442   -106.13328    1.3405323   -104.79275    2457.9429    4.3289303    4.3289303    4.3289303    2457.9429    27819.677   -6134.5537   -14311.294    5867.6042    23873.643   -5521.7704    81.122583 
   39800    1034.9349   -105.73992   0.93643087   -104.80349   -15326.756    4.3267176    4.3267176    4.3267176   -15326.756    11972.873   -51455.012   -6498.1304     -891.512   -8357.2994    43539.234    80.998254 
   39900     1274.034   -105.94457    1.1527727    -104.7918    17384.504    4.3193517    4.3193517    4.3193517    17384.504    29507.362   -7299.0186    29945.169   -5661.4631    14909.158   -20725.616    80.585278 
   40000    926.68649   -105.64323   0.83848541   -104.80474   -2454.1511    4.3256339    4.3256339    4.3256339   -2454.1511    8954.8224   -36943.169    20625.893    3655.1307    14513.768    38104.702    80.937407 
   40100    1468.1155   -106.12044    1.3283817   -104.79206    -22419.14     4.335601     4.335601     4.335601    -22419.14   -13023.517    -34053.08   -20180.823   -7322.3074   -11613.252    7969.7721    81.498185 
   40200    1148.0747   -105.82792    1.0388021   -104.78912    10492.255     4.318927     4.318927     4.318927    10492.255   -2076.7977    -325.3691    33878.933   -3317.9876    26244.802   -16104.736     80.56151 
   40300    915.47144   -105.62825    0.8283378   -104.79992   -3202.2155    4.3281807    4.3281807    4.3281807   -3202.2155    22217.211   -33017.102    1193.2446   -4484.2431     3921.659    41935.245    81.080452 
   40400     1622.336    -106.2521    1.4679237   -104.78418   -5664.7397    4.3283368    4.3283368    4.3283368   -5664.7397   -23200.566    5206.4783    999.86811    -5554.511     5965.671   -21802.537    81.089226 
   40500    880.11309   -105.59188   0.79634482   -104.79553   -2163.7397    4.3255992    4.3255992    4.3255992   -2163.7397   -4616.9393   -15961.271    14086.992      1988.24    17380.818    26598.186     80.93546 
   40600    1325.4449   -105.98649    1.1992904    -104.7872   -12616.048    4.3315832    4.3315832    4.3315832   -12616.048   -15627.759   -33819.126    11598.742   -19036.631   -8637.8598    19038.546    81.271818 
   40700    1098.9311   -105.78371   0.99433597   -104.78937    11613.855    4.3189473    4.3189473    4.3189473    11613.855     2961.354    23503.755    8376.4564    331.84015    18961.336   -7317.5046    80.562645 
   40800    1546.2412   -106.18616    1.3990715   -104.78709    -15815.33      4.32931      4.32931      4.32931    -15815.33   -19887.527   -21466.709   -6091.7546    -8854.142   -964.43493    27954.747     81.14393 
   40900    1017.0492   -105.70996   0.92024745   -104.78971   -5114.0642    4.3283114    4.3283114    4.3283114   -5114.0642   -7062.3279    7329.6597   -15609.524   -4628.9863    1074.4118    -16506.54    81.087799 
   41000    1124.2205   -105.80995    1.0172183   -104.79273     14824.12    4.3224378    4.3224378    4.3224378     14824.12   -1220.7475    17040.005    28653.101     5267.596    17404.534    25676.725    80.758133 
   41100    1494.8093   -106.13976    1.3525348   -104.78722    10886.601    4.3314292    4.3314292    4.3314292    10886.601   -19918.105    26761.617    25816.292      1874.35    -21865.26    1150.0836    81.263151 
   41200    872.62491   -105.58335   0.78956936   -104.79378    5440.8308    4.3261553    4.3261553    4.3261553    5440.8308   -18754.771    36758.658    -1681.394    10898.316    22705.366     6737.555    80.966679 
   41300    1400.3249    -106.0519    1.2670434   -104.78486     11339.27    4.3322135    4.3322135    4.3322135     11339.27    -18187.29    52545.437     -340.335    3411.3733   -12205.768    1121.6294      81.3073 
   41400    1152.7283   -105.83477    1.0430128   -104.79176   -7331.6688    4.3280475    4.3280475    4.3280475   -7331.6688   -30136.519    21432.401   -13290.888    14526.452     8093.858   -15480.629    81.072965 
   41500    1170.5356   -105.85011    1.0591252   -104.79098    23677.663    4.3230953    4.3230953    4.3230953    23677.663   -20194.252    59236.871    31990.371    1005.7612    16556.378   -6753.7103    80.794987 
   41600     1297.144   -105.96161    1.1736832   -104.78793   -2504.0326    4.3268973    4.3268973    4.3268973   -2504.0326   -38641.408    23308.707    7820.6037    5275.2912   -11520.829   -7624.0651    81.008343 
   41700    854.70097   -105.57169    0.7733514   -104.79834   -3864.9056     4.325089     4.325089     4.325089   -3864.9056   -26555.631    12965.452    1995.4623    8697.7768    28150.951   -13181.522    80.906824 
   41800    1816.1645   -106.42298    1.6433038   -104.77967    2283.6033    4.3326187    4.3326187    4.3326187    2283.6033    -24011.85     30661.38    201.28009    5623.9318   -13842.683   -9373.0548     81.33012 
   41900    772.52215   -105.49783   0.69899428   -104.79884   -22197.416    4.3268528    4.3268528    4.3268528   -22197.416   -58350.458    15302.597   -23544.386   -532.56833    21794.638   -3411.8272    81.005847 
   42000    1457.7459   -106.11187    1.3189991   -104.79287    30628.502    4.3171098    4.3171098    4.3171098    30628.502    7656.4101      59760.9    24468.196   -9426.4258   -4232.2375   -914.00299    80.459864 
   42100    1073.7397   -105.78023   0.97154222   -104.80869   -10980.163    4.3252882    4.3252882    4.3252882   -10980.163    -34409.72     9316.622   -7847.3917    -6795.522    16825.022    5053.9508       80.918 
   42200    1161.8404   -105.85728    1.0512576   -104.80602    1891.1369    4.3278261    4.3278261    4.3278261    1891.1369   -34291.995    27417.993    12547.413   -9714.1203    12221.243   -14.815901    81.060525 
   42300    1491.3943   -106.14184    1.3494449   -104.79239    -7694.486    4.3344536    4.3344536    4.3344536    -7694.486    -25249.03    8524.6979   -6359.1258    2195.8101     6889.751    10585.322    81.433496 
   42400    803.69344   -105.53085   0.72719871   -104.80365   -8951.4126    4.3227709    4.3227709    4.3227709   -8951.4126   -56037.759    17808.683    11374.838    -11524.91    22975.079   -1252.4799    80.776805 
   42500    1846.4428   -106.46184    1.6707002   -104.79114    23066.606    4.3160123    4.3160123    4.3160123    23066.606    9563.7279    27205.931    32430.159     -3202.18   -21257.774   -3222.9612    80.398516 
   42600    705.70335    -105.4456   0.63853523   -104.80706   -10389.907    4.3262772    4.3262772    4.3262772   -10389.907   -55977.684   -3762.4772    28570.441   -3263.4194    26924.015    -1081.412    80.973521 
   42700    1123.6689   -105.81987    1.0167192   -104.80316   -18244.544    4.3379767    4.3379767    4.3379767   -18244.544   -53645.283    13349.413   -14437.762   -3830.5156   -18948.253    2301.3115    81.632225 
   42800    1453.2996   -106.10649     1.314976   -104.79152    15162.865    4.3217134    4.3217134    4.3217134    15162.865    21071.166    -13137.51     37554.94   -1421.2612    8488.3994   -11935.075    80.717537 
   42900    887.38294   -105.60778   0.80292274   -104.80486   -9529.1065    4.3140007    4.3140007    4.3140007   -9529.1065   -35237.221    17556.105   -10906.203    5066.5467    16783.421    17273.157    80.286152 
   43000    1258.8469   -105.94461    1.1390311   -104.80557    1908.2325      4.33052      4.33052      4.33052    1908.2325   -12026.618   -3866.7911    21618.106    2786.5032   -11104.144    -16679.94    81.211989 
   43100     971.9858   -105.68282   0.87947317   -104.80334   -18902.641     4.343412     4.343412     4.343412   -18902.641   -38814.939   -5380.6033   -12512.382    3590.9303      32026.8   -818.33684    81.939456 
   43200    1617.5523   -106.25235    1.4635953   -104.78875   -18680.284    4.3222215    4.3222215    4.3222215   -18680.284   -32246.651     3763.162   -27557.363    12423.191    -17018.05   -1790.5638    80.746005 
   43300    1023.6112    -105.7171   0.92618494   -104.79091    19047.144    4.3150485    4.3150485    4.3150485    19047.144    6570.3019      19188.2     31382.93    2550.3997    11016.277   -23797.289    80.344665 
   43400     1161.653   -105.84792     1.051088   -104.79683   -22331.432    4.3309021    4.3309021    4.3309021   -22331.432   -53322.381   -28.918812   -13642.997    1454.8496    15190.334    10596.692    81.233486 
   43500    1366.1401   -106.02674    1.2361123   -104.79063   -10494.918    4.3343846    4.3343846    4.3343846   -10494.918   -9275.6653   -29497.715     7288.626    640.71752   -17192.321   -18296.474    81.429604 
   43600    1208.4358   -105.88082    1.0934181   -104.78741    -3386.812    4.3310384    4.3310384    4.3310384    -3386.812     -331.252   -7501.6915   -2327.4924    2099.5856    30111.714   -11920.636    81.241158 
   43700    1193.8373   -105.86349    1.0802091   -104.78329    10868.211    4.3168504    4.3168504    4.3168504    10868.211    1582.7416    14802.321    16219.571   -10636.447   -16827.254    3897.1804    80.445358 
   43800    698.99892   -105.43801   0.63246891   -104.80554    14742.487    4.3253169    4.3253169    4.3253169    14742.487     68769.61   -43560.033    19017.884    -889.2694    3670.3426   -35115.897    80.919611 
   43900    1689.3263   -106.32429    1.5285379   -104.79575   -827.22913    4.3356647    4.3356647    4.3356647   -827.22913    11143.134   -19105.835    5481.0141   -7918.9831   -2318.3001    17273.347    81.501775 
   44000    897.42495    -105.6182   0.81200895   -104.80619    6521.2405    4.3246866    4.3246866    4.3246866    6521.2405    43309.364   -24727.659    982.01656    3916.4614   -11029.438   -44621.713    80.884241 
   44100    1476.3175   -106.13408    1.3358031   -104.79828     -14262.6    4.3263545    4.3263545    4.3263545     -14262.6   -29334.809   -21914.351    8461.3607   -4543.1359    -13623.69     5268.693    80.977862 
   44200    1332.5448   -106.00564    1.2057146   -104.79993   -3879.5018    4.3202663    4.3202663    4.3202663   -3879.5018    3879.8628   -33254.395    17736.027   -7206.4472      10830.6   -18644.681    80.636478 
   44300    893.89557   -105.62033    0.8088155   -104.81151   -2501.3265    4.3285347    4.3285347    4.3285347   -2501.3265     44568.37   -22504.153   -29568.197    272.28912   -20565.416   -16350.515    81.100349 
   44400    1249.5009   -105.92751    1.1305747   -104.79694    3654.9178    4.3300424    4.3300424    4.3300424    3654.9178    42816.796    -34418.86    2566.8163     -5199.28    15053.305    8130.0294    81.185123 
   44500    981.00637   -105.67998   0.88763518   -104.79234   -1443.9316    4.3287332    4.3287332    4.3287332   -1443.9316    65619.756   -52245.034   -17706.517    -3630.706    258.98535   -27702.755    81.111502 
   44600    1082.7582   -105.77041   0.97970236    -104.7907   -16079.608     4.326205     4.326205     4.326205   -16079.608   -2807.4608   -37449.112     -7982.25    10391.046   -7244.8014    25427.168    80.969468 
   44700    1586.3613   -106.22776     1.435373   -104.79238   -10319.271    4.3250762    4.3250762    4.3250762   -10319.271    6801.5719   -34700.395   -3058.9887   -8963.7808    1440.3384   -20641.803    80.906104 
   44800    1097.8843   -105.79159   0.99338877    -104.7982   -34593.167    4.3329606    4.3329606    4.3329606   -34593.167   -7498.6707   -43385.055   -52895.774    13317.274   -11589.204    18325.168    81.349377 
   44900    1001.7876   -105.71139   0.90643849   -104.80495    2779.8698    4.3163233    4.3163233    4.3163233    2779.8698    53124.565   -30761.592   -14023.364    5483.6322   -17053.875     6887.164    80.415897 
   45000    1486.2875   -106.15033    1.3448242   -104.80551    13259.217    4.3220291    4.3220291    4.3220291    13259.217     61647.94   -15924.774   -5945.5152   -2663.7231    6156.6689    5856.4766    80.735227 
   45100    898.50475   -105.62863   0.81298598   -104.81564   -39181.187    4.3304792    4.3304792    4.3304792   -39181.187   -29692.769   -24523.687   -63327.105     10669.01   -16976.861    16143.291    81.209694 
   45200      1579.44   -106.22907    1.4291105   -104.79996    8171.9811    4.3195754    4.3195754    4.3195754    8171.9811    35291.024   -28575.753    17800.672   -8460.2998   -5080.6931   -3416.2056    80.597799 
   45300    988.08236   -105.70095   0.89403768   -104.80691    308.91384    4.3265321    4.3265321    4.3265321    308.91384    60598.656   -21294.649   -38377.266   -963.88548    9592.7975    18230.819    80.987833 
   45400    1153.6584   -105.84886    1.0438543   -104.80501   -18758.812    4.3258509    4.3258509    4.3258509   -18758.812   -24150.031   -10108.295    -22018.11   -1910.5779   -17771.744   -8618.5123    80.949585 
   45500    1402.5243   -106.06752    1.2690335   -104.79849     7535.254    4.3282691    4.3282691    4.3282691     7535.254    44781.185   -40730.114     18554.69    566.35647    7591.5614   -3354.8695     81.08542 
   45600    1076.4639   -105.77583   0.97400713   -104.80183   -995.87724    4.3289071    4.3289071    4.3289071   -995.87724    50765.101   -19751.895   -34000.838   -2057.7083   -8872.9929    8499.3244     81.12128 
   45700    1116.8685   -105.81143    1.0105661   -104.80086    2707.9611    4.3227327    4.3227327    4.3227327    2707.9611    31561.272   -34090.894    10653.506      3552.17   -13809.592   -18733.051    80.774659 
   45800    1474.5192   -106.13006     1.334176   -104.79588    3221.9952    4.3221313    4.3221313    4.3221313    3221.9952   -2406.1041   -5465.5342    17537.624   -4042.9864    10029.452    1560.7154    80.740953 
   45900     976.6492   -105.69387   0.88369272   -104.81017    -14138.82    4.3204102    4.3204102    4.3204102    -14138.82   -2568.8097   -33721.408   -6126.2415    9307.4659   -1443.1785   -15824.797    80.644539 
   46000    1489.5133   -106.15152    1.3477429   -104.80378    21388.361    4.3274347    4.3274347    4.3274347    21388.361    66080.903   -41270.887    39355.066    6750.8587    6646.3809   -4938.4158    81.038534 
   46100    1069.3932   -105.77086   0.96760945   -104.80325    1766.7849    4.3291888    4.3291888    4.3291888    1766.7849    22448.704   -21725.555    4577.2053    4058.0814    -1423.865   -1153.7618    81.137119 
   46200    961.67672   -105.67126    0.8701453   -104.80111    2888.0674    4.3146349    4.3146349    4.3146349    2888.0674    11812.716   -26466.952    23318.439    7622.9098   -9045.9122   -26611.259    80.321562 
   46300    1529.1251    -106.1848    1.3835845   -104.80122    11127.359    4.3170186    4.3170186    4.3170186    11127.359    17054.219   -17837.549    34165.407    -3824.975    1538.9125    30592.418    80.454761 
   46400     1404.485   -106.07616    1.2708076   -104.80535    -7809.472    4.3259497    4.3259497    4.3259497    -7809.472   -12055.603   -24681.494    13308.681    10447.889   -15687.403   -24163.011    80.955134 
   46500    941.78566   -105.65857   0.85214746   -104.80643   -776.10071    4.3264715    4.3264715    4.3264715   -776.10071    19312.599   -33039.734    11398.833   -270.08217   -685.87943    24642.786    80.984433 
   46600     1250.616    -105.9283    1.1315836   -104.79671    18504.088     4.322231     4.322231     4.322231    18504.088    26991.267   -12837.482    41358.481    2429.2103   -14813.601    9786.5221    80.746541 
   46700    1114.2888   -105.81096    1.0082319   -104.80273    8057.3535    4.3149173    4.3149173    4.3149173    8057.3535    55566.213   -34850.595    3456.4419     6480.184   -3400.8671   -2481.9936    80.337339 
   46800    1056.9746   -105.76918   0.95637285   -104.81281    3388.0075    4.3235006    4.3235006    4.3235006    3388.0075    53299.322   -15525.125   -27610.174   -12119.617    1025.0815    32218.109    80.817718 
   46900    1617.9717   -106.25605    1.4639748   -104.79208    3941.5328    4.3287556    4.3287556    4.3287556    3941.5328    15781.952   -26850.555    22893.201   -4750.3964    8658.7577   -12271.809    81.112761 
   47000    525.82256   -105.28098   0.47577531   -104.80521   -16983.178     4.323184     4.323184     4.323184   -16983.178    24076.243   -52078.784   -22946.992    4577.0001    6956.4646    43774.926    80.799963 
   47100    1368.7361   -106.03125    1.2384612   -104.79279    13311.699    4.3148919    4.3148919    4.3148919    13311.699   -14790.468    19917.995     34807.57   -11195.461    5333.2984   -11012.579    80.335917 
   47200    1428.1163   -106.09119    1.2921896     -104.799   -468.06241    4.3179794    4.3179794    4.3179794   -468.06241    12421.026   -27112.366    13287.152   -8891.0138    981.76341    32978.047    80.508491 
   47300    988.51972   -105.69666   0.89443342   -104.80222   -13119.139    4.3271088    4.3271088    4.3271088   -13119.139    1208.0304   -4610.0156   -35955.432    381.27228     1573.132    4109.9177    81.020224 
   47400    1177.1015   -105.86291    1.0650662   -104.79784   -215.27653     4.316339     4.316339     4.316339   -215.27653   -30415.011    4740.1006    25029.081   -1779.5679   -375.05862   -4244.2246    80.416774 
   47500    1381.9404   -106.04971    1.2504087    -104.7993    8989.2717    4.3111536    4.3111536    4.3111536    8989.2717    15057.832   -8481.6408    20391.624   -2824.8945    27.784908    30303.983    80.127299 
   47600    1134.5414   -105.83198    1.0265569   -104.80542    3544.2267      4.32288      4.32288      4.32288    3544.2267   -6405.7649    25589.061   -8550.6162   -2036.4397    1970.9669     -22180.8    80.782918 
   47700    1287.1677   -105.96409    1.1646564   -104.79943   -13113.882    4.3257172    4.3257172    4.3257172   -13113.882   -14205.141   -26300.052    1163.5486    10664.542    11592.893    25807.592    80.942081 
   47800    1362.6093   -106.02468    1.2329175   -104.79177   -9389.4811    4.3157512    4.3157512    4.3157512   -9389.4811   -20735.554   -8869.8681    1436.9785   -2077.4908   -5858.1625    1815.6541    80.383921 
   47900    726.15894   -105.46441   0.65704387   -104.80737   -220.30747    4.3190416    4.3190416    4.3190416   -220.30747   -31573.554    32919.501   -2006.8692   -4027.3145   -1968.0216   -13666.046    80.567923 
   48000    1727.2161   -106.35833    1.5628214    -104.7955    7595.4561    4.3206572    4.3206572    4.3206572    7595.4561    -7367.975   -8484.1215    38638.465    7567.2336    5057.2765    4305.6261    80.658367 
   48100    995.32612   -105.70571   0.90059199   -104.80512    7071.0582    4.3157707    4.3157707    4.3157707    7071.0582   -21868.502   -4763.5861    47845.263    5474.8035   -19451.274   -12193.113    80.385016 
   48200    728.99247   -105.47013    0.6596077   -104.81052   -11948.184    4.3248098    4.3248098    4.3248098   -11948.184   -49624.632    22364.821   -8584.7397   -3212.8242    27777.023   -7145.2855    80.891155 
   48300    1732.1759   -106.36053    1.5673091   -104.79322    24698.344    4.3146736    4.3146736    4.3146736    24698.344    4352.8206     23753.08     45989.13    6068.1635   -3464.7818    -8901.929    80.323727 
   48400    1052.0772   -105.76352   0.95194159   -104.81158   -5275.4367    4.3155099    4.3155099    4.3155099   -5275.4367   -27967.924    31289.294   -19147.681    6524.1593    22761.552   -776.45654     80.37044 
   48500      1023.74   -105.73551   0.92630147   -104.80921    -1064.498    4.3198315    4.3198315    4.3198315    -1064.498    -31338.01    16546.958    11597.558    7741.3554     18416.03   -3857.5859    80.612133 
   48600     1280.167   -105.96007     1.158322   -104.80175     5582.645    4.3155191    4.3155191    4.3155191     5582.645   -29489.647    25472.396    20765.185    1938.6341    -2717.761    6443.0155    80.370954 
   48700    1123.0513   -105.82426    1.0161604    -104.8081   -20060.287    4.3225912    4.3225912    4.3225912   -20060.287   -30181.152    9354.7397   -39354.447    3491.6364    31850.706   -6497.7677    80.766728 
   48800    1438.7852   -106.10056    1.3018431   -104.79872     24063.89    4.3133216    4.3133216    4.3133216     24063.89    28199.262    29330.811    14661.596    9198.1518   -12092.905    16328.619    80.248239 
   48900    1096.5462   -105.79741   0.99217806   -104.80523    -9426.231    4.3195045    4.3195045    4.3195045    -9426.231   -50546.213     4603.194    17664.326   -6109.1715    32764.663   -158.72974    80.593827 
   49000    877.65221   -105.59734   0.79411816   -104.80323    3019.8337    4.3217295    4.3217295    4.3217295    3019.8337   -19709.792    17040.728    11728.565   -985.59398     7772.972    1158.4952    80.718435 
   49100    1375.5029   -106.04402    1.2445839   -104.79944    11954.912    4.3147573    4.3147573    4.3147573    11954.912    20922.457    5034.8046    9907.4735   -4357.3575   -2771.1946    37018.155      80.3284 
   49200    1626.8703   -106.27052    1.4720265   -104.79849   -7643.1147    4.3218101    4.3218101    4.3218101   -7643.1147   -32794.117    7444.7291    2420.0438   -5055.2015    21405.059   -21043.576    80.722952 
   49300    870.64052   -105.58947   0.78777384    -104.8017   -4688.0402    4.3176249    4.3176249    4.3176249   -4688.0402   -6693.6935   -3586.6048   -3783.8223    3963.9575   -18607.793    25082.553    80.488664 
   49400    1145.3422   -105.83713    1.0363297    -104.8008    18986.994     4.321047     4.321047     4.321047    18986.994    10580.036    6402.5504    39978.396    -855.9983    11788.314    7465.4447    80.680202 
   49500    1565.0147   -106.21775    1.4160582   -104.80169   -1997.5173    4.3206936    4.3206936    4.3206936   -1997.5173   -7658.2576   -16023.384     17689.09    742.02051   -4022.1962   -3373.9576    80.660407 
   49600    815.45635   -105.55429   0.73784204   -104.81645    8346.4626    4.3089347    4.3089347    4.3089347    8346.4626    25573.246    6858.9352   -7392.7939    7025.0985   -8078.4234    29817.478    80.003639 
   49700    1808.7761   -106.43668    1.6366186   -104.80006    8260.0669    4.3207413    4.3207413    4.3207413    8260.0669    -23285.14    9753.1151    38312.226   -5880.6666     1904.335   -11959.478    80.663078 
   49800    678.52805   -105.42742   0.61394644   -104.81348   -21357.942     4.326673     4.326673     4.326673   -21357.942   -19486.366   -34312.624   -10274.837    4703.8372     -12090.7    28330.118     80.99575 
   49900    1238.4539    -105.9279    1.1205791   -104.80732    5782.4286    4.3179155    4.3179155    4.3179155    5782.4286   -2941.4977    15671.485    4617.2983    3770.5142   -11978.054    6473.8434    80.504921 
   50000    1695.1456   -106.33191    1.5338034   -104.79811    9362.2047    4.3108943    4.3108943    4.3108943    9362.2047   -16934.301   -3045.2494    48066.165   -6935.8647    5396.4199    10033.291    80.112837 
   50100    794.24155   -105.53114   0.71864644    -104.8125   -8398.2235    4.3208752    4.3208752    4.3208752   -8398.2235   -11594.085    2471.4459   -16072.032    4373.7048   -21655.103    29303.845    80.670576 
   50200    1199.0885   -105.88679    1.0849605   -104.80183   -11778.165    4.3289389    4.3289389    4.3289389   -11778.165   -34730.699   -3384.3863    2780.5917    2569.8193    19093.567   -15789.917     81.12307 
   50300     1269.074   -105.94912    1.1482849   -104.80083    2849.7398     4.316562     4.316562     4.316562    2849.7398   -8359.4968   -27012.023     43920.74   -3899.6616    10845.996    27007.728    80.429238 
   50400    1396.6179   -106.06404    1.2636892   -104.80035    4841.9887    4.3122645    4.3122645    4.3122645    4841.9887    3455.3739    19207.848   -8137.2557    3716.4822    2013.4143    12768.881    80.189253 
   50500    871.61023   -105.59588   0.78865126   -104.80723      9612.66    4.3197919    4.3197919    4.3197919      9612.66   -26904.846    10176.736     45566.09   -776.96873    26912.876   -7542.5977     80.60992 
   50600    1339.5256   -106.01311    1.2120309   -104.80108   -24135.277    4.3297543    4.3297543    4.3297543   -24135.277   -5949.0771    -49731.83   -16724.924   -400.80454    -8360.937      30773.1    81.168916 
   50700    1185.0328      -105.87    1.0722426   -104.79776    24971.707    4.3125171    4.3125171    4.3125171    24971.707    746.25416    34331.409    39837.456   -4940.1381    21092.863   -6400.6774    80.203348 
   50800    1297.5826   -105.97478      1.17408    -104.8007   -2858.3849    4.3137619    4.3137619    4.3137619   -2858.3849   -11364.401    4152.3258   -1363.0799   -159.63978    3644.3118    8608.1884    80.272821 
   50900    1139.9816   -105.83167    1.0314793    -104.8002   -7444.1404    4.3215545    4.3215545    4.3215545   -7444.1404   -18765.414   -13736.181    10169.174    3536.2487    4784.4401    14063.833    80.708631 
   51000    960.84445   -105.67055   0.86939225   -104.80116    9729.3144    4.3194079    4.3194079    4.3194079    9729.3144   -23217.962    32134.631    20271.274   -3829.0757     21224.72   -12154.413    80.588425 
   51100    1422.7505   -106.08663    1.2873345    -104.7993    -4113.998    4.3217659    4.3217659    4.3217659    -4113.998   -2629.3459   -23419.136    13706.488   -943.43605   -13504.677    19190.438    80.720474 
   51200    1286.0983   -105.96291    1.1636888   -104.79922    2276.7379    4.3114886    4.3114886    4.3114886    2276.7379    -26553.94    44279.098   -10894.944    9627.9134    29853.765   -2343.2614    80.145975 
   51300    914.59107   -105.63651   0.82754122   -104.80897   -15195.781    4.3205837    4.3205837    4.3205837   -15195.781    -29675.88    -998.3611   -14913.102   -7190.4594   -22852.939    7829.0263    80.654253 
   51400    1431.1182   -106.08994    1.2949058   -104.79503   -7626.3604    4.3275939    4.3275939    4.3275939   -7626.3604   -19244.534   -11909.286    8274.7388    651.09123    7865.5819    1020.2227    81.047479 
   51500    1124.7058   -105.81323    1.0176574   -104.79557   -15651.895    4.3224862    4.3224862    4.3224862   -15651.895   -53290.836    30539.415   -24204.264    3555.8492     9727.623    -1196.235    80.760844 
   51600    1325.9478   -105.98933    1.1997454   -104.78958    3119.4964     4.316104     4.316104     4.316104    3119.4964   -29776.132    15537.184    23597.437    811.51918   -19419.123   -5471.8023     80.40364 
   51700    921.75851   -105.63289   0.83402647   -104.79886    3418.9597    4.3201325    4.3201325    4.3201325    3418.9597   -33679.722    50038.619   -6102.0173    16297.527    20924.653   -10737.702    80.628987 
   51800    1080.9909   -105.78501   0.97810327    -104.8069   -14951.846    4.3253923    4.3253923    4.3253923   -14951.846   -21214.478    17728.837   -41369.896    7896.7826   -14344.063   -6110.2029    80.923845 
   51900    1600.0053   -106.23761    1.4477184   -104.78989    22887.208    4.3198109    4.3198109    4.3198109    22887.208   -9652.6838    56157.312    22156.996    18362.444      6144.26   -4128.9861    80.610984 
   52000    695.24613   -105.43798   0.62907331   -104.80891   -31629.336    4.3263484    4.3263484    4.3263484   -31629.336   -72818.255    27410.711   -49480.465    4638.3193   -12718.311   -5915.8857    80.977519 
   52100    1529.2766    -106.1826    1.3837216   -104.79888   -7838.9006    4.3191647    4.3191647    4.3191647   -7838.9006   -16261.493    462.29728   -7717.5062   -8535.4336    -4192.651   -995.68524    80.574809 
   52200    1335.4362   -106.01287    1.2083307   -104.80454    1.1064396    4.3168488    4.3168488    4.3168488    1.1064396    -20424.66    20023.309    404.67105    2461.5968   -2758.0502    9331.3818    80.445269 
   52300    972.93923   -105.69213   0.88033586    -104.8118    -10247.53    4.3247809    4.3247809    4.3247809    -10247.53   -49725.987    51669.031   -32685.634   -4959.3091   -9604.6807   -5495.1768    80.889532 
   52400    1366.6733   -106.03452    1.2365948   -104.79793    14573.919    4.3228079    4.3228079    4.3228079    14573.919   -13390.881    51201.358    5911.2801   -2284.2271     2750.187    11763.305    80.778874 
   52500    1081.3121   -105.78359   0.97839395    -104.8052   -10653.144    4.3215868    4.3215868    4.3215868   -10653.144   -32501.512    18060.776   -17518.696    8529.4007   -8919.3094   -4308.8349    80.710442 
   52600    1237.8125   -105.92258    1.1199988   -104.80258    5674.5195    4.3242739    4.3242739    4.3242739    5674.5195   -54.802576    15241.424    1836.9366   -12807.137    2923.6786    3863.4405    80.861091 
   52700    1289.0401   -105.96811    1.1663506   -104.80176   -13033.305    4.3231848    4.3231848    4.3231848   -13033.305   -23042.563   -3275.3597   -12781.994   -9610.8338   -12818.665    2345.4655    80.800006 
   52800    910.02813   -105.62376   0.82341257   -104.80035    12957.494    4.3206192    4.3206192    4.3206192    12957.494   -37373.736    74631.769    1614.4484    421.87002   -2382.5628   -298.30027    80.656239 
   52900    1364.0506   -106.03003    1.2342216   -104.79581   -7164.6977    4.3261551    4.3261551    4.3261551   -7164.6977   -24320.541   -15732.848    18559.296    -25372.68   -3325.7176   -1143.0753    80.966665 
   53000    1141.5826   -105.82627    1.0329279   -104.79334    9716.3774    4.3211527    4.3211527    4.3211527    9716.3774   -28278.245    57971.247   -543.86974    3305.0614   -18802.258   -8641.5534    80.686123 
   53100    1164.0598   -105.85198    1.0532657   -104.79871   -14801.476    4.3283204    4.3283204    4.3283204   -14801.476   -62974.085   -3209.2276    21778.886   -19596.551    16280.643   -1143.8064      81.0883 
   53200    1373.9302   -106.03917    1.2431609   -104.79601    1280.4751    4.3215345    4.3215345    4.3215345    1280.4751   -11885.145    5985.3991    9741.1711   -3207.8335   -16188.824    5596.7218    80.707513 
   53300    1268.3268   -105.94642    1.1476088   -104.79881    4843.4985     4.310997     4.310997     4.310997    4843.4985   -20785.878     30674.73    4641.6438   -727.58728      7067.92   -2150.4431    80.118563 
   53400    1086.6175   -105.79262   0.98319438   -104.80943     -8542.04    4.3234131    4.3234131    4.3234131     -8542.04   -24987.013   -13288.625    12649.518   -30395.874     5211.879    11888.616    80.812809 
   53500    1154.8486   -105.84474    1.0449312   -104.79981    6763.8165    4.3297958    4.3297958    4.3297958    6763.8165   -23265.275    60950.205    -17393.48    5811.2403   -5813.7104   -629.55452    81.171252 
   53600    1095.9019   -105.79479   0.99159504    -104.8032   -11332.856    4.3264803    4.3264803    4.3264803   -11332.856   -43633.465    12008.681    -2373.782   -25961.639    13185.032    6074.3411    80.984924 
   53700    1289.0238   -105.96305    1.1663358   -104.79671    10701.881    4.3133071    4.3133071    4.3133071    10701.881   -6837.6062    2432.4135    36510.836    11076.323   -10411.468   -2083.8825    80.247431 
   53800    949.37604   -105.66535   0.85901539   -104.80633   -11405.817    4.3211329    4.3211329    4.3211329   -11405.817   -62844.714    44629.517   -16002.254   -688.67959    19533.935    14339.689    80.685013 
   53900    1306.9745   -105.98287     1.182578   -104.80029   -12083.827    4.3260401    4.3260401    4.3260401   -12083.827   -47606.331   -1362.6357    12717.486   -13671.128    -1998.508   -3159.7984    80.960207 
   54000    1213.5603   -105.89527    1.0980548   -104.79722    6355.9207    4.3151933    4.3151933    4.3151933    6355.9207   -16786.786    10983.151    24871.397    22252.296    13399.591    4055.1748    80.352753 
   54100     1098.922   -105.79347   0.99432771   -104.79914   -8999.7003    4.3266925    4.3266925    4.3266925   -8999.7003   -51213.988    33266.065   -9051.1775   -13840.728    14441.808    10438.555    80.996841 
   54200    1378.3787   -106.04251     1.247186   -104.79533    2469.6777    4.3215262    4.3215262    4.3215262    2469.6777    -8961.448   -2123.1764    18493.658    14123.799   -1788.8779   -11199.421    80.707044 
   54300    871.93999   -105.59627   0.78894963   -104.80733    8639.3079    4.3142181    4.3142181    4.3142181    8639.3079   -8516.2783    43839.014   -9404.8125    10580.133    23581.964    11339.571    80.298288 
   54400    1636.3124   -106.27808    1.4805699   -104.79751    285.17977    4.3276549    4.3276549    4.3276549    285.17977   -6052.3626    14051.371   -7143.4694   -1519.2962   -4996.1757    1339.5901    81.050905 
   54500    984.60595   -105.69488   0.89089216   -104.80399   -140.68057    4.3195354    4.3195354    4.3195354   -140.68057   -20087.952    3828.5937    15837.317    21707.156    9401.2714   -6780.9494    80.595557 
   54600    1043.8179   -105.75189   0.94446839   -104.80742    2278.6817    4.3198856    4.3198856    4.3198856    2278.6817   -41462.346    42064.657    6233.7339   -1144.4032    14504.201    12245.405    80.615163 
   54700    1840.6336    -106.4595    1.6654439   -104.79405    1726.6129    4.3254687    4.3254687    4.3254687    1726.6129   -1987.2755    6252.8801    914.23392    10100.094   -2851.7151   -2401.8317     80.92813 
   54800    488.26505   -105.24986   0.44179248   -104.80806     26546.55    4.3152258    4.3152258    4.3152258     26546.55   -1693.5921    48498.228    32835.014    7793.1856    31908.029   -3746.4458    80.354571 
   54900    1475.4175   -106.13041    1.3349887   -104.79542   -12792.189    4.3298878    4.3298878    4.3298878   -12792.189   -16669.096   -9586.8935   -12120.577   -5600.3037    -5846.584    5996.7466    81.176429 
   55000    1271.5624   -105.94824    1.1505364    -104.7977    6485.3216    4.3196243    4.3196243    4.3196243    6485.3216   -2482.2915    20937.327    1000.9297    3276.5699    14452.888   -2395.0732    80.600533 
   55100    1170.9222   -105.85747    1.0594751     -104.798    14340.315     4.311465     4.311465     4.311465    14340.315   -3875.9242    43344.649    3552.2194    6490.3335    20207.762    4043.0369    80.144659 
   55200    1370.9558   -106.03497    1.2404696    -104.7945    -19614.92    4.3296028    4.3296028    4.3296028    -19614.92   -21182.981    -26720.83   -10940.948   -22726.914   -12811.916   -2919.7803      81.1604 
   55300    1049.0821   -105.74524   0.94923154   -104.79601     10298.26     4.319265     4.319265     4.319265     10298.26   -8072.6164    63522.377   -24554.982    8659.6087    32392.498     6344.664    80.580425 
   55400    1356.5912   -106.02097    1.2274722    -104.7935    9527.7103    4.3221143    4.3221143    4.3221143    9527.7103    1734.9739    15662.415    11185.743   -5791.7216   -7392.3971   -1099.9735    80.739998 
   55500    1193.9994   -105.87583    1.0803558   -104.79548   -14907.156    4.3202785    4.3202785    4.3202785   -14907.156   -17504.387    711.99907   -27929.081   -24564.026    22293.509    1048.9119    80.637162 
   55600    961.98631   -105.67048   0.87042543   -104.80006    14266.367    4.3184848    4.3184848    4.3184848    14266.367   -4355.6007    46706.857    447.84562    15237.054    14744.988    5095.4695    80.536765 
   55700    1517.4906     -106.168    1.3730574   -104.79494   -19581.435    4.3312064    4.3312064    4.3312064   -19581.435   -35905.243   -15807.675   -7031.3859   -25995.598    2410.8919   -225.84149    81.250609 
   55800    1250.6685    -105.9232    1.1316311   -104.79157   -2648.2361     4.319109     4.319109     4.319109   -2648.2361   -21117.982    39128.214    -25954.94   -1043.7344    34822.028    6924.8964    80.571693 
   55900    1104.0886   -105.78963   0.99900259   -104.79063    8168.7453    4.3176447    4.3176447    4.3176447    8168.7453   -17037.371    1479.0882    40064.518     2067.956   -13145.381   -2322.3613    80.489772 
   56000    1135.8078   -105.82588    1.0277028   -104.79817   -3270.7955    4.3271673    4.3271673    4.3271673   -3270.7955   -15971.315    7032.5244   -873.59593   -21912.922    23814.369    1525.9069    81.023514 
   56100    1443.2325   -106.10166    1.3058671   -104.79579    9807.8757    4.3280496    4.3280496    4.3280496    9807.8757   -2009.3268    46075.743   -14642.789    2799.1524   -1588.0936   -3317.8372    81.073081 
   56200     966.4092   -105.67339   0.87442736   -104.79896    2699.3324    4.3208329    4.3208329    4.3208329    2699.3324    1589.5727   -11424.661    17933.086   -18651.486    6347.5777    7615.7421    80.668209 
   56300     1144.472   -105.83171    1.0355423   -104.79617     9701.814    4.3217535    4.3217535    4.3217535     9701.814   -9811.5464    48089.413   -9172.4248    3436.3136    21965.886   -3996.0414    80.719783 
   56400    1417.9844   -106.07595    1.2830221   -104.79293    3034.4444    4.3302322    4.3302322    4.3302322    3034.4444   -16238.332    12378.933    12962.732   -7117.8932   -7522.0724    9061.5781    81.195796 
   56500    1042.4072   -105.74232   0.94319194   -104.79913    7615.3385    4.3239635    4.3239635    4.3239635    7615.3385   -35746.364    64493.082   -5900.7024   -10849.694    32358.014    1957.5876    80.843677 
   56600    1400.8742    -106.0558    1.2675404   -104.78826    8346.7896    4.3229459    4.3229459    4.3229459    8346.7896   -19557.974    22886.279    21712.064    2926.4255   -12323.238    3202.5582    80.786612 
   56700    906.93515   -105.61774   0.82061398   -104.79713    5451.1511    4.3227871    4.3227871    4.3227871    5451.1511   -44033.446    66175.642   -5788.7434   -16830.179    14664.616    4433.7222     80.77771 
   56800    1524.3828   -106.17348    1.3792936   -104.79418    10306.544    4.3257653    4.3257653    4.3257653    10306.544   -4596.7557    36716.024   -1199.6357   -2965.8743    3552.0465   -1229.8406    80.944781 
   56900    1198.8033   -105.87918    1.0847024   -104.79448   -12089.023    4.3318659    4.3318659    4.3318659   -12089.023   -32601.665      9379.75   -13045.154   -6102.3956   -12411.717    5637.7882    81.287735 
   57000    1071.8821    -105.7619   0.96986143   -104.79204    1739.7888    4.3214642    4.3214642    4.3214642    1739.7888   -25322.421    36187.538   -5645.7504   -14472.961      19930.5    1817.2257    80.703571 
   57100    1159.3418   -105.84454    1.0489969   -104.79555     24007.35    4.3160236    4.3160236    4.3160236     24007.35    44739.393    26086.456    1196.2009    5283.7573   -23121.887    4538.9901    80.399144 
   57200    1284.5182    -105.9665    1.1622591   -104.80424   -8136.8411    4.3328273    4.3328273    4.3328273   -8136.8411   -33257.698    25608.106   -16760.931   -10499.849    4033.8696    23656.551    81.341866 
   57300    1284.3603   -105.95126    1.1621162   -104.78914    2129.3892      4.33521      4.33521      4.33521    2129.3892     9990.888    17013.971   -20616.691   -1461.6725   -4324.4808   -7873.8948    81.476137 
   57400    867.82389   -105.57736    0.7852253   -104.79213   -1863.4305    4.3172247    4.3172247    4.3172247   -1863.4305   -12984.288    16497.756   -9103.7594   -2424.5661   -21373.344    16813.064    80.466285 
   57500    1601.1408   -106.24503    1.4487458   -104.79629   -2250.7551    4.3158678    4.3158678    4.3158678   -2250.7551   -13564.829    7387.6249   -575.06156   -21687.963    17050.903   -2670.4016    80.390441 
   57600    1141.2257   -105.83712     1.032605   -104.80451   -10906.315     4.337025     4.337025     4.337025   -10906.315    -11719.48    17200.105    -38199.57    4433.0328   -21374.536    -9160.327    81.578509 
   57700     1248.856    -105.9256    1.1299911   -104.79561   -16337.965    4.3326332    4.3326332    4.3326332   -16337.965   -20546.996   -31424.831    2957.9335   -23194.005    8770.3487      12991.4    81.330937 
   57800     1314.277   -105.97444    1.1891855   -104.78526    12665.705    4.3141114    4.3141114    4.3141114    12665.705   -1703.5299    45944.033   -6243.3887   -6634.6468    -3395.692    -6124.297    80.292331 
   57900    1028.9853   -105.72852   0.93104757   -104.79747    733.81891    4.3193342    4.3193342    4.3193342    733.81891    19407.543   -135.13341   -17070.953    3217.2676   -11507.549    10005.978      80.5843 
   58000    1450.8848   -106.11239     1.312791   -104.79959   -6783.2283    4.3339484    4.3339484    4.3339484   -6783.2283      -8526.1   -13127.156    1303.5717   -31220.788    8570.9153    10968.248    81.405023 
   58100    1043.8129    -105.7447   0.94446382   -104.80023   -2117.8575    4.3325012    4.3325012    4.3325012   -2117.8575    33102.399    1785.9085    -41241.88    7380.0778   -18851.736    8197.4792    81.323504 
   58200    914.86739   -105.62964   0.82779124   -104.80185    12121.739    4.3106979    4.3106979    4.3106979    12121.739    45218.711   -3159.4455   -5694.0486    -15067.46    2348.5103    16660.661     80.10189 
   58300    1471.0586   -106.13959    1.3310448   -104.80854   -14.651252    4.3262083    4.3262083    4.3262083   -14.651252    8853.0244     476.7001   -9373.6782   -1592.9025   -14555.608   -5788.0995    80.969651 
   58400    1190.3793   -105.87497    1.0770802   -104.79789   -32718.396    4.3414884    4.3414884    4.3414884   -32718.396    897.58702    -32531.03   -66521.744    7745.0293   -12355.032    36446.668     81.83064 
   58500    1238.1721   -105.90766    1.1203241   -104.78734    11710.055    4.3213068    4.3213068    4.3213068    11710.055    48323.371   -13205.882    12.677319   -22741.497   -822.89206   -13072.353    80.694757 
   58600    1144.9211   -105.83178    1.0359486   -104.79584   -13609.513     4.317032     4.317032     4.317032   -13609.513    11859.051   -25698.829   -26988.762     7595.325   -13488.659    22634.214     80.45551 
   58700    1106.9351   -105.80796    1.0015781   -104.80639    12279.601    4.3219953    4.3219953    4.3219953    12279.601    63116.986    7823.8323   -34102.016    4411.7998   -8110.2728     11857.81    80.733334 
   58800    1576.4853   -106.23536     1.426437   -104.80892   -12796.995    4.3299809    4.3299809    4.3299809   -12796.995    4096.4584   -35758.489   -6728.9539   -13574.154    6489.2898    2594.2837    81.181661 
   58900    816.02853     -105.551   0.73835976   -104.81264   -6051.5568    4.3289933    4.3289933    4.3289933   -6051.5568    30116.903    4451.5471   -52723.121    13989.127   -11250.484    17227.556    81.126127 
   59000    1412.7018   -106.07633    1.2782422   -104.79809    2517.6305    4.3221685    4.3221685    4.3221685    2517.6305    17481.515    2632.3419   -12560.966    -13908.55   -522.69027   -8214.9798    80.743035 
   59100    910.93305   -105.63208   0.82423137   -104.80785     14593.04    4.3193217    4.3193217    4.3193217     14593.04    75805.773   -15143.336   -16883.316   -7564.3711    806.77933    19282.455    80.583595 
   59200    1173.8559   -105.87905    1.0621295   -104.81692   -20298.181    4.3346251    4.3346251    4.3346251   -20298.181    7530.9887   -10822.448   -57603.084    3036.1643   -21818.302    -13124.01    81.443163 
   59300    1563.2269   -106.22011    1.4144406   -104.80567   -2359.0421    4.3218016    4.3218016    4.3218016   -2359.0421    33114.483   -20664.137   -19527.472   -2500.3934    5257.3984    9309.7918    80.722474 
   59400     667.7108   -105.41867   0.60415877   -104.81451   -9222.2431    4.3205402    4.3205402    4.3205402   -9222.2431    11781.623   -7921.5875   -31526.765    15659.449   -24601.359    17246.698    80.651813 
   59500      1443.68   -106.10711     1.306272   -104.80084   -7323.6212    4.3322427    4.3322427    4.3322427   -7323.6212    29783.458   -17571.485   -34182.837   -1579.8638   -13024.983    -21281.87    81.308946 
   59600    1264.6871   -105.95085    1.1443155   -104.80654     -8962.72    4.3281722    4.3281722    4.3281722     -8962.72    48687.332    -33258.39   -42317.102    11375.131    11936.704    28457.976    81.079971 
   59700    918.70571   -105.64213   0.83126424   -104.81087   -5885.0754    4.3246842    4.3246842    4.3246842   -5885.0754     27911.19   -8608.9682   -36957.448    11202.204    -34310.81   -8780.4093    80.884107 
   59800     1635.741   -106.27989    1.4800528   -104.79983   -3658.5456    4.3258751    4.3258751    4.3258751   -3658.5456    24166.718   -31287.101   -3855.2539   -2288.0575    17795.704   -3137.9683    80.950948 
   59900     965.5663   -105.68476   0.87366468   -104.81109   -10171.518     4.330493     4.330493     4.330493   -10171.518    12901.102   -12588.323   -30827.332    8826.1712   -18389.463    5563.9717    81.210471 
   60000    973.42558   -105.69026   0.88077592   -104.80948   -8522.2283    4.3346935    4.3346935    4.3346935   -8522.2283    2869.2074   -34845.323    6409.4304   -6299.5235   -3053.5615   -13020.488    81.447015 
   60100    1704.3732   -106.33419    1.5421527   -104.79204   -15708.927    4.3377379    4.3377379    4.3377379   -15708.927   -3277.0532    -33734.55   -10115.178    -3206.238   -9006.5266    9823.3326    81.618747 
   60200    754.51389   -105.47665   0.68270002   -104.79395   -12898.605    4.3334199    4.3334199    4.3334199   -12898.605   -10931.921    -13113.64   -14650.254   -311.92107   -25696.845   -7495.5794    81.375249 
   60300    1500.7317   -106.13772    1.3578936   -104.77982    13734.608    4.3212599    4.3212599    4.3212599    13734.608    53060.557   -17040.196    5183.4609   -12767.786   -6390.0823     2239.112    80.692126 
   60400    1082.1869   -105.77873   0.97918548   -104.79954   -8067.0151    4.3386422    4.3386422    4.3386422   -8067.0151    36049.102   -24335.066   -35915.082    18756.749   -24673.425   -350.36575    81.669804 
   60500    1413.6043   -106.06956    1.2790589    -104.7905   -26917.651    4.3433989    4.3433989    4.3433989   -26917.651   -14487.442   -41803.753   -24461.757    9235.2223   -7417.9652   -13387.128    81.938714 
   60600    1446.5751   -106.09573    1.3088915   -104.78684    7747.1047    4.3270601    4.3270601    4.3270601    7747.1047    50760.262   -16029.066   -11489.882   -5374.4784    6275.7037     6159.473    81.017487 
   60700    892.83422   -105.61358   0.80785517   -104.80572    748.16038    4.3205052    4.3205052    4.3205052    748.16038    47431.849   -1097.3983   -44089.969    10739.039   -13555.227   -18446.091    80.649857 
   60800    1570.1248   -106.22873    1.4206819   -104.80805    1972.3661    4.3339066    4.3339066    4.3339066    1972.3661    41409.107   -22175.122   -13316.887   -6963.2341    8635.6294   -3664.5128    81.402671 
   60900    1188.1191   -105.88293    1.0750351    -104.8079   -1711.8955    4.3314178    4.3314178    4.3314178   -1711.8955    19179.041    4017.9233   -28332.651    8609.7004   -13621.536   -7124.3168     81.26251 
   61000    780.08814   -105.51515   0.70584014   -104.80931    13261.777    4.3284546    4.3284546    4.3284546    13261.777    58861.279    6489.6693   -25565.618    14122.087    -4762.467   -13990.903    81.095844 
   61100     1693.825   -106.33139    1.5326085   -104.79878   -6302.6686    4.3307966    4.3307966    4.3307966   -6302.6686   -10662.854    9060.8731   -17306.025   -5519.7692    2488.6933     7041.554     81.22755 
   61200    725.14223    -105.4676   0.65612393   -104.81148    22934.302    4.3261262    4.3261262    4.3261262    22934.302    80878.611    3658.8611   -15734.567   -1620.7941    -5850.957   -24808.574    80.965044 
   61300    1246.6641   -105.93186    1.1280079   -104.80386   -14029.402    4.3383588    4.3383588    4.3383588   -14029.402   -16218.463    2444.6078    -28314.35    14375.256     8971.982    10768.066    81.653803 
   61400    1228.2575   -105.91045    1.1113532    -104.7991   -5172.3601     4.325961     4.325961     4.325961   -5172.3601    4739.5256   -2052.8055     -18203.8   -9205.5575   -12268.467   -10650.669    80.955769 
   61500    1286.2098    -105.9592    1.1637897   -104.79541     16974.91    4.3189723    4.3189723    4.3189723     16974.91    46116.036   -12132.184    16940.878     23651.71   -924.29522   -8621.4245    80.564044 
   61600    1018.2711   -105.72601   0.92135305   -104.80466    -14736.74    4.3367646    4.3367646    4.3367646    -14736.74    37179.207   -48034.369   -33355.057    1239.6168    7313.4295    7930.9203    81.563818 
   61700    1431.3571   -106.09105    1.2951219   -104.79593   -12536.267    4.3337663    4.3337663    4.3337663   -12536.267    966.40373   -20302.511   -18272.693     -10128.6    8916.3736   -13286.446    81.394762 
   61800    1200.7989   -105.88223    1.0865081   -104.79572   -16492.569    4.3268697    4.3268697    4.3268697   -16492.569   -8863.6166    -55622.05    15007.958    36548.197     875.2119    7786.5161    81.006797 
   61900    1306.2103   -105.97206    1.1818865   -104.79017    10466.221    4.3200135    4.3200135    4.3200135    10466.221    31581.184    5071.6287   -5254.1494   -21445.074    1490.8123   -13707.667    80.622323 
   62000    1041.9577    -105.7388    0.9427852   -104.79602   -15319.073    4.3420055    4.3420055    4.3420055   -15319.073   -2518.5093   -24595.737   -18842.972    44274.591    5606.5036    11339.024    81.859879 
   62100    1316.7575   -105.97753    1.1914298    -104.7861   -17650.471    4.3332494    4.3332494    4.3332494   -17650.471   -30895.368   -13601.142   -8454.9019     5814.642   -2794.5357   -4828.7543     81.36564 
   62200    1063.5577    -105.7449   0.96232932   -104.78257    17790.037    4.3178977    4.3178977    4.3178977    17790.037    18925.566    23634.926    10809.618    -7078.817     2266.778    1486.3563    80.503924 
   62300    1142.6957   -105.82629    1.0339351   -104.79235   -24149.178    4.3331649    4.3331649    4.3331649   -24149.178   -21171.026   -36921.426   -14355.082    47886.771     5464.266    15958.707    81.360882 
   62400    1394.0084   -106.05132    1.2613281   -104.78999    4288.7884    4.3322164    4.3322164    4.3322164    4288.7884    17006.655    18718.847   -22859.137   -16971.696    4848.0024   -12181.418    81.307464 
   62500    881.65586   -105.59875   0.79774075   -104.80101   -18556.296    4.3404127    4.3404127    4.3404127   -18556.296    -60854.66    14917.581   -9731.8074    54537.864    3267.0295    5638.0279    81.769825 
   62600    1262.8569   -105.92868    1.1426595   -104.78602    8422.4301    4.3244318    4.3244318    4.3244318    8422.4301   -1120.5188    44318.127   -17930.318    6100.0056     2703.495   -13399.253    80.869945 
   62700    1250.0702   -105.92635    1.1310898   -104.79526   -25215.006    4.3265306    4.3265306    4.3265306   -25215.006   -27054.535   -34687.831   -13902.653    15624.734    13257.475   -15975.851     80.98775 
   62800    1278.2697   -105.95147    1.1566053   -104.79486   -11834.316    4.3348223    4.3348223    4.3348223   -11834.316    -25662.99   -25066.373    15226.415    28389.439   -11408.227    5712.2214    81.454279 
   62900    1213.8772   -105.88702    1.0983416   -104.78868     3832.173    4.3307016    4.3307016    4.3307016     3832.173    27594.393   -3295.9837   -12801.891   -5418.1189    7047.3081   -21271.949    81.222207 
   63000     949.7376   -105.65553   0.85934254   -104.79619   -1843.7029     4.328651     4.328651     4.328651   -1843.7029   -31245.424   -12174.042    37888.357    43802.971   -2259.1557    11005.976    81.106884 
   63100    1329.6136   -105.98575    1.2030623   -104.78268    40473.601    4.3246014    4.3246014    4.3246014    40473.601    56882.637     37635.48    26902.684   -6495.4122   -5146.2281   -15737.286    80.879461 
   63200    1048.5062   -105.74568   0.94871044   -104.79697   -7916.5279    4.3316452    4.3316452    4.3316452   -7916.5279   -39985.614    8207.5176    8028.5124     31922.94    5312.1789   -2559.7669    81.275311 
   63300    1373.3813    -106.0304    1.2426643   -104.78774   -9578.6124    4.3369829    4.3369829    4.3369829   -9578.6124   -37828.888   -3605.0134    12698.064   -697.69363   -1894.3155   -1880.1717    81.576135 
   63400    1262.2866   -105.93043    1.1421435   -104.78829    16164.149    4.3245385    4.3245385    4.3245385    16164.149   -10784.484     40940.19     18336.74    10858.679    2840.5101    -30109.03    80.875933 
   63500    1274.3052   -105.94582    1.1530181    -104.7928   -5527.2378    4.3392081    4.3392081    4.3392081   -5527.2378   -25786.455   -1115.8189    10320.561    16390.786    3869.8669   -9152.6272    81.701762 
   63600    1382.0684   -106.02196    1.2505245   -104.77143   -8845.0455    4.3438657    4.3438657    4.3438657   -8845.0455   -32491.744     15919.66   -9963.0528   -8400.2932     8050.728   -19206.828    81.965134 
   63700    677.14155   -105.39069   0.61269191     -104.778    21430.433    4.3281991    4.3281991    4.3281991    21430.433    49581.624       4797.8    9911.8754    58120.837     15573.23   -6106.9295    81.081485 
   63800    1704.9174   -106.31242    1.5426451   -104.76978    19175.661    4.3304797    4.3304797    4.3304797    19175.661    58100.717   -2581.6551    2007.9211   -7275.0696   -372.08755   -7725.2572    81.209723 
   63900     700.4569   -105.42663   0.63378813   -104.79284    19267.133    4.3293493    4.3293493    4.3293493    19267.133    47144.115   -34050.217    44707.503    49443.108    6721.9654   -14211.229    81.146145 
   64000    1493.0144   -106.13748    1.3509108   -104.78657   -12395.841    4.3485598    4.3485598    4.3485598   -12395.841   -32986.547    31157.619   -35358.596   -1442.2091    8254.0139    5290.0928    82.231148 
   64100    1200.3908   -105.88024    1.0861388    -104.7941     15209.18    4.3304342    4.3304342    4.3304342     15209.18    25052.126   -3559.9384    24135.354    7702.1223   -11249.497   -10533.848    81.207161 
   64200    1054.0895   -105.75015   0.95376229   -104.79639    21397.168    4.3184415    4.3184415    4.3184415    21397.168    28890.627    36487.785    -1186.909    28846.966    11523.846   -3211.4879    80.534343 
   64300    1531.9872   -106.17517    1.3861742     -104.789     -14871.1    4.3453402    4.3453402    4.3453402     -14871.1    5790.6828    -10942.58   -39461.404   -6689.2527   -191.53973   -2138.8552    82.048634 
   64400    909.65057   -105.61823   0.82307095   -104.79516   -2882.6254     4.330933     4.330933     4.330933   -2882.6254   -9333.1047   -13065.198    13750.427    56276.188   -537.14238   -11338.951    81.235225 
   64500    1451.6059   -106.10452    1.3134435   -104.79108    20733.574    4.3259856    4.3259856    4.3259856    20733.574    12350.598    48912.257    937.86751   -26088.588    12573.312     2875.043    80.957149 
   64600    1105.1153   -105.80051   0.99993154   -104.80058   -1083.6476    4.3411481    4.3411481    4.3411481   -1083.6476    59507.548   -34405.042   -28353.448    22932.198   -5585.7919   -9027.4833    81.811395 
   64700    905.17066   -105.61956   0.81901743   -104.80054   -6083.8757    4.3434437    4.3434437    4.3434437   -6083.8757    28077.166   -6399.3898   -39929.404    16273.614    12100.451   -5209.6851    81.941249 
   64800    1577.1284   -106.21868    1.4270189   -104.79166   -6160.5246     4.334887     4.334887     4.334887   -6160.5246   -10107.981    13829.772   -22203.364    15049.574    6429.6101    1875.3651    81.457924 
   64900    982.14687   -105.68804   0.88866713   -104.79937   -10182.369    4.3265566    4.3265566    4.3265566   -10182.369    15695.537   -28782.724    -17459.92    34747.816    6163.2719    -3469.805    80.989209 
   65000    1028.9658   -105.73564   0.93102988   -104.80461    12404.819    4.3346274    4.3346274    4.3346274    12404.819    50548.934    35398.525   -48733.002   -15197.479    36561.517    404.65062    81.443292 
   65100    1476.3177   -106.13316    1.3358033   -104.79735   -21028.021    4.3444681    4.3444681    4.3444681   -21028.021   -14284.358   -17062.495   -31737.211    10487.843   -3919.8092    6356.4258    81.999241 
   65200    1039.2641   -105.74088   0.94034803   -104.80053   -4899.4775    4.3324441    4.3324441    4.3324441   -4899.4775   -2061.5755    31622.667   -44259.524    22111.738    34336.631    2634.8531    81.320285 
   65300    1437.7154   -106.09359    1.3008751   -104.79272   -2553.8473    4.3291286    4.3291286    4.3291286   -2553.8473    21531.584   -6419.3091   -22773.816   -4590.9884    4238.5358    7625.7276    81.133736 
   65400    984.19504   -105.68853   0.89052036   -104.79801    8967.3078    4.3272909    4.3272909    4.3272909    8967.3078    48861.596   -31042.563    9082.8906    18479.795    317.86635    2631.9016    81.030453 
   65500    1444.5675   -106.10252    1.3070751   -104.79545    -18104.67    4.3414957    4.3414957    4.3414957    -18104.67   -15955.396    7000.4211   -45359.035   -7296.1709    15185.885    9117.3626     81.83105 
   65600     1433.739   -106.08145    1.2972772   -104.78418   -31274.004    4.3478331    4.3478331    4.3478331   -31274.004   -12028.606   -48444.679   -33348.729    6146.8824   -19828.613    3027.0743    82.189924 
   65700    935.21576   -105.63568   0.84620288   -104.78947    6778.2027    4.3223931    4.3223931    4.3223931    6778.2027    35833.654   -3552.2452   -11946.801    18529.713    33488.311    1461.6583    80.755625 
   65800    1271.4287   -105.94253    1.1504154   -104.79211    24046.038     4.323771     4.323771     4.323771    24046.038    57306.057    7675.5579    7156.4998   -4045.8258     -7029.71    13435.512    80.832881 
   65900    1036.4028   -105.73492   0.93775908   -104.79716   -40657.217    4.3449144    4.3449144    4.3449144   -40657.217    -54050.03   -18980.494   -48941.129    22900.061    20990.004   -2912.7201    82.024517 
   66000    1494.7435   -106.13702    1.3524753   -104.78455   -23199.101    4.3314887    4.3314887    4.3314887   -23199.101   -27940.351   -5931.4295   -35725.523    2505.8601    33378.136    7744.1842    81.266499 
   66100    1453.0811   -106.09355    1.3147783   -104.77877    9774.1631    4.3288645    4.3288645    4.3288645    9774.1631    424.07991    6540.2458    22358.164    3667.1167   -17139.456   -202.55326    81.118888 
   66200    503.74841   -105.24903   0.45580215   -104.79322   -4222.2557    4.3338499    4.3338499    4.3338499   -4222.2557    15691.323    24778.251    -53136.34    8518.7039    32689.181   -2859.9662    81.399475 
   66300    1455.2877   -106.10051    1.3167749   -104.78373     12179.34    4.3339433    4.3339433    4.3339433     12179.34    50546.131    5012.1446   -19020.254   -2747.9687   -7644.7538    6877.1665    81.404734 
   66400    1324.5546   -105.98804    1.1984848   -104.78955   -23515.786    4.3432709    4.3432709    4.3432709   -23515.786    -19768.96   -22388.061   -28390.335    16122.784    8175.0879   -11882.693     81.93147 
   66500    957.74507    -105.6539   0.86658786   -104.78731   -3337.5611    4.3311144    4.3311144    4.3311144   -3337.5611   -36390.466    54732.921   -28355.138   -743.39757    30414.115    14237.534    81.245437 
   66600    1772.2098    -106.3863    1.6035327   -104.78277    6404.8433    4.3182349    4.3182349    4.3182349    6404.8433    25126.043   -2068.9666   -3842.5461    3756.0466   -322.33656   -5015.2578    80.522786 
   66700     722.8693   -105.46616   0.65406734    -104.8121    6556.0024    4.3320117    4.3320117    4.3320117    6556.0024   -12043.866    53784.723   -22072.849    9133.7131    33674.328   -1808.3757    81.295944 
   66800     1189.088   -105.87032    1.0759118    -104.7944    5010.1371    4.3452349    4.3452349    4.3452349    5010.1371    42375.931   -15711.774   -11633.745   -643.69017   -16819.915    14973.293    82.042671 
   66900    1064.1995    -105.7487    0.9629101   -104.78579   -1742.2766    4.3309409    4.3309409    4.3309409   -1742.2766    36648.306    -4048.994   -37826.142    2957.2729    19991.611   -9338.8038     81.23567 
   67000    1069.0464   -105.75793   0.96729566   -104.79064    3998.6766    4.3219944    4.3219944    4.3219944    3998.6766    12034.365    22652.485    -22690.82     7912.378    26638.867    14718.787    80.733282 
   67100    1631.5274    -106.2656    1.4762403   -104.78936    969.92098    4.3316243    4.3316243    4.3316243    969.92098   -23665.514    -3064.292    29639.569    179.61244   -18498.645    2607.9408    81.274133 
   67200    1133.7985   -105.82073    1.0258847   -104.79485   -43667.446    4.3429261    4.3429261    4.3429261   -43667.446   -45272.406   -20824.127   -64905.807    5146.3662    35171.325    7593.5299    81.911958 
   67300    1095.4004   -105.78035   0.99114132   -104.78921    15209.231     4.330813     4.330813     4.330813    15209.231    4371.1677    31506.413    9750.1126    4621.8061   -14208.002    11062.678    81.228473 
   67400    1519.4227   -106.16256    1.3748056   -104.78775     4970.182    4.3189746    4.3189746    4.3189746     4970.182    26575.548   -2607.6879   -9057.3144    11645.448    22350.823    3039.7624    80.564173 
   67500    789.46582   -105.52121   0.71432526   -104.80689    4355.3541    4.3296256    4.3296256    4.3296256    4355.3541    16706.197    17153.442   -20793.577    2573.2055    12963.616    15974.731    81.161681 
   67600    1224.8274   -105.90242    1.1082496   -104.79417    8214.7867    4.3376772    4.3376772    4.3376772    8214.7867    15211.189     16604.56   -7171.3881    317.27668   -22731.919    7548.6252    81.615319 
   67700    914.77151   -105.62914   0.82770449   -104.80144   -13696.762    4.3354632    4.3354632    4.3354632   -13696.762   -11160.637   -15491.444   -14438.205    7158.0562    32146.834    17275.762    81.490413 
   67800    1329.7382   -105.99589    1.2031751   -104.79271    30776.394    4.3157501    4.3157501    4.3157501    30776.394    39547.921   -203.01658    52984.277   -736.75432   -3224.9604    19152.653    80.383861 
   67900    1071.7337   -105.77268   0.96972716   -104.80295    1177.5206    4.3197135    4.3197135    4.3197135    1177.5206    -1661.488    18798.615   -13604.565    10116.849    19924.041   -9502.3964    80.605528 
   68000    924.23274   -105.64072    0.8362652   -104.80445   -17328.474    4.3372747    4.3372747    4.3372747   -17328.474    1873.7034    -34818.79   -19040.336    3609.9171    19267.986    18292.553    81.592603 
   68100    1748.2274   -106.36591    1.5818329   -104.78408    -8335.558    4.3331207    4.3331207    4.3331207    -8335.558   -4644.2594   -19452.471   -909.94411   -2891.1899   -11514.734    2140.0609    81.358394 
   68200    906.32343   -105.61491   0.82006049   -104.79485   -9597.7202    4.3199424    4.3199424    4.3199424   -9597.7202    -28106.64    14222.341   -14908.862    8179.1517    24541.214    13239.114    80.618344 
   68300    1194.3211   -105.87517    1.0806468   -104.79452    17823.734    4.3177894    4.3177894    4.3177894    17823.734    22591.237   -13541.997    44421.962   -8935.6974   -1296.5863    13330.767    80.497866 
   68400    1253.1061   -105.93484    1.1338367     -104.801   -15048.867    4.3383155    4.3383155    4.3383155   -15048.867   -28651.806   -2644.7691   -13850.025   -5233.1183    10643.292   -4510.5597    81.651357 
   68500      1213.61   -105.89599    1.0980998   -104.79789   -16813.963    4.3415506    4.3415506    4.3415506   -16813.963   -4531.4003   -22934.045   -22976.445   -3160.0071     5010.853    16880.733    81.834153 
   68600    1267.8539   -105.93619    1.1471808   -104.78901    25672.253    4.3164599    4.3164599    4.3164599    25672.253     46242.39    13173.084    17601.287   -13878.009     -10084.7   -11065.861     80.42353 
   68700    952.66812   -105.66484   0.86199413   -104.80284   -9042.1759    4.3175731    4.3175731    4.3175731   -9042.1759   -4608.7614   -5336.3363    -17181.43    4509.0492     20251.73    7080.2903     80.48577 
   68800    984.45801    -105.6988   0.89075829   -104.80804   -4477.8732    4.3338181    4.3338181    4.3338181   -4477.8732    424.50348   -40892.712    27034.589   -5037.1539    3515.3934    14947.776    81.397681 
   68900    1742.1285   -106.37589    1.5763145   -104.79958   -2912.8999    4.3328608    4.3328608    4.3328608   -2912.8999   -22769.361    2066.2661    11964.395   -3981.1054    20997.589   -6152.3473    81.343756 
   69000    805.68352   -105.53455   0.72899938   -104.80555   -36630.626    4.3334005    4.3334005    4.3334005   -36630.626   -24781.849   -46621.697   -38488.331    4099.7055    18660.575    22873.347    81.374152 
   69100    1355.1979   -106.01809    1.2262115   -104.79188    18790.362    4.3116073    4.3116073    4.3116073    18790.362    19065.908    1621.8315    35683.347   -15389.301   -8801.5184    5102.2671    80.152594 
   69200     1278.687   -105.96646    1.1569828   -104.80948    1670.3694    4.3211471    4.3211471    4.3211471    1670.3694    18225.716   -10961.367   -2253.2405    12852.858    1729.2285    6023.3852    80.685807 
   69300    780.44091   -105.51659   0.70615934   -104.81043   -409.81371    4.3400959    4.3400959    4.3400959   -409.81371    27486.931   -44477.454    15761.081    -13562.57   -5408.4289    8535.1067    81.751921 
   69400    1663.8478   -106.29088    1.5054845   -104.78539     -8615.39    4.3397684    4.3397684    4.3397684     -8615.39   -1792.3158   -12026.321   -12027.533    3197.8662   -20758.792    -9109.869    81.733419 
   69500      815.816   -105.53558   0.73816746   -104.79742   -8381.8156    4.3210283    4.3210283    4.3210283   -8381.8156   -3748.7363   -24587.365    3190.6545   -8699.9494    26548.896    24862.826    80.679154 
   69600    1401.6835   -106.06193    1.2682727   -104.79366    21099.434    4.3063615    4.3063615    4.3063615    21099.434    239.56101    9511.3027    53547.437   -2101.1449   -24222.056   -2924.7517    79.860392 
   69700    1244.4276   -105.93454    1.1259842   -104.80856   -14963.164    4.3327139    4.3327139    4.3327139   -14963.164   -19150.329    1436.8514   -27176.013    4888.2795    2724.5156    8792.4231    81.335483 
   69800     1015.853      -105.72   0.91916511   -104.80083    1266.2255    4.3270317    4.3270317    4.3270317    1266.2255    10989.022   -7627.0543    436.70909   -907.67206   -4663.8955    8118.9117    81.015896 
   69900     1091.587   -105.78144   0.98769086   -104.79375     10384.83    4.3184409    4.3184409    4.3184409     10384.83    15780.369    33942.647   -18568.527    6125.4623   -25299.364   -7830.7533    80.534308 
   70000    1261.6692   -105.93216    1.1415848   -104.79058    3800.8773    4.3269574    4.3269574    4.3269574    3800.8773    2350.1699   -471.66844    9524.1304    639.96865    6803.4013    12163.433     81.01172 
   70100    1070.9343   -105.76352   0.96900382   -104.79451    13557.734    4.3257547    4.3257547    4.3257547    13557.734    34717.779    25079.327   -19123.903    -2532.776    -28658.58   -5228.3281    80.944187 
   70200    1298.6235   -105.96694    1.1750219   -104.79192   -6375.1321    4.3298411    4.3298411    4.3298411   -6375.1321     3986.786   -10890.301   -12221.881   -2661.0346    -12085.67    5061.0192    81.173802 
   70300    1169.0061   -105.84954    1.0577413    -104.7918     6340.504    4.3228188    4.3228188    4.3228188     6340.504    34447.815   -4435.5358   -10990.768    -11569.53   -7071.7358    3345.2293    80.779487 
   70400    1101.1567   -105.79598   0.99634973   -104.79963    2277.8281    4.3170839    4.3170839    4.3170839    2277.8281    8111.2086    6190.0521   -7467.7763   -12346.301    -38551.91    707.60405    80.458412 
   70500    1384.5061   -106.05058    1.2527302   -104.79785    2790.4167    4.3223767    4.3223767    4.3223767    2790.4167    52218.891   -17153.172   -26694.468   -2060.6358    21576.471    9233.9124    80.754704 
   70600    1205.6495    -105.8892     1.090897    -104.7983   -201.51434     4.326165     4.326165     4.326165   -201.51434    7531.7559    5879.8554   -14016.154    -13403.84   -35354.811   -4605.4239    80.967221 
   70700    1135.8467   -105.82326    1.0277379   -104.79552   -16361.652    4.3319986    4.3319986    4.3319986   -16361.652   -16445.778   -30452.242   -2186.9358    5162.0777    6283.7721    5624.8694    81.295201 
   70800    1293.7875   -105.96283    1.1706461   -104.79219    9907.5605    4.3128367    4.3128367    4.3128367    9907.5605    28064.559    6796.5301   -5138.4072   -8683.8109    3863.6861    867.86975    80.221178 
   70900    1413.7979   -106.07747     1.279234   -104.79823    12863.431    4.3150438    4.3150438    4.3150438    12863.431    8477.1223    11331.196    18781.975    385.61378   -17983.163    3424.7127    80.344401 
   71000    948.20453   -105.66544   0.85795538   -104.80749   -20503.864    4.3297894    4.3297894    4.3297894   -20503.864    14737.262   -38415.922    -37832.93   -3499.2633    13210.062    12911.545    81.170895 
   71100    1248.5362   -105.92366    1.1297018   -104.79396    33364.553    4.3207749    4.3207749    4.3207749    33364.553    31448.883     34444.29    34200.485   -10495.744   -6212.1957   -7205.6015    80.664959 
   71200    1165.9857   -105.85042    1.0550084   -104.79541   -15795.047    4.3292507    4.3292507    4.3292507   -15795.047    12001.639   -14613.433   -44773.345    6868.2261    3721.6378    25915.802    81.140596 
   71300    1069.8756   -105.76303   0.96804597   -104.79499    8547.3899    4.3191977    4.3191977    4.3191977    8547.3899    36949.123     12619.29   -23926.243   -9560.2447    4044.2004   -9886.5859     80.57666 
   71400    1399.4117   -106.05725    1.2662171   -104.79103    16569.686    4.3262073    4.3262073    4.3262073    16569.686    34196.131    123.80621    15389.121   -955.54735    232.80755    8186.0886    80.969596 
   71500    861.28415   -105.58267     0.779308   -104.80336   -41898.218    4.3296916    4.3296916    4.3296916   -41898.218    3508.6883   -59941.575   -69261.767   -893.05616    5675.0259    16227.446    81.165393 
   71600    1365.7107   -106.02607    1.2357237   -104.79034    35710.738    4.3127677    4.3127677    4.3127677    35710.738    50683.042    28564.191    27884.981    4173.9014     9563.632   -20576.525    80.217332 
   71700    1232.0448   -105.91582      1.11478   -104.80104   -19766.402    4.3321798    4.3321798    4.3321798   -19766.402    32520.066   -35433.759   -56385.513    2387.4249   -4944.1119    41301.361    81.305406 
   71800    1221.3694   -105.89798    1.1051207   -104.79286    2876.0183    4.3225938    4.3225938    4.3225938    2876.0183    23853.032   -5889.7823   -9335.1951     5845.387    17151.162   -27475.584    80.766873 
   71900    1176.6839   -105.85486    1.0646884   -104.79017    7036.1068     4.326388     4.326388     4.326388    7036.1068    30506.127    24196.147   -33593.954   -1027.5969   -10231.883    22090.389    80.979745 
   72000    977.41434   -105.67406   0.88438504   -104.78967   -9457.8371    4.3285083    4.3285083    4.3285083   -9457.8371     32455.41   -14129.394   -46699.527   -1505.2021    4707.2036   -6400.0428    81.098861 
   72100    1292.3676   -105.95409    1.1693614   -104.78473    23561.694    4.3144319    4.3144319    4.3144319    23561.694    34457.328    27048.125    9179.6286    7402.3371    7301.4728   -11046.472    80.310227 
   72200    1475.3067   -106.12738    1.3348885    -104.7925   -15674.097    4.3275691    4.3275691    4.3275691   -15674.097    8569.4035    -23851.66   -31740.035    380.57639   -14364.956    13325.425    81.046085 
   72300    944.19043   -105.64854   0.85432334   -104.79422     446.6167    4.3278078    4.3278078    4.3278078     446.6167     12549.11   -21146.682    9937.4228    6914.6643    18799.534   -29051.827    81.059496 
   72400    1348.1606   -106.01108    1.2198441   -104.79124    9468.3216     4.328024     4.328024     4.328024    9468.3216    3880.6537    40417.892   -15893.581    8257.8557   -24221.391     4750.721    81.071646 
   72500    1529.7975   -106.17476    1.3841929   -104.79056    2027.5928    4.3254477    4.3254477    4.3254477    2027.5928    15590.849    2452.5491    -11960.62   -767.48084    1804.2263   -22311.629    80.926956 
   72600    881.96171   -105.59254   0.79801749   -104.79452    36879.301    4.3213081    4.3213081    4.3213081    36879.301    36430.588    73981.633    225.68271   -712.82221   -12091.094    -9772.176     80.69483 
   72700    1306.2338   -105.96599    1.1819078   -104.78408    -19112.99    4.3383532    4.3383532    4.3383532    -19112.99     -10602.4   -167.15478   -46569.414    5115.1523   -10424.049   -12268.664    81.653484 
   72800    1199.2704   -105.87144     1.085125   -104.78632    14036.133    4.3146268    4.3146268    4.3146268    14036.133    19181.395    35479.049   -12552.045   -23959.922   -3584.7906   -17356.748    80.321112 
   72900     1208.482   -105.88861    1.0934599   -104.79515    14227.866     4.311408     4.311408     4.311408    14227.866      16293.6    21384.833    5005.1652    28496.832   -15973.454    4079.6697     80.14148 
   73000    1350.6973   -106.01536    1.2221393   -104.79322   -22598.426    4.3325618    4.3325618    4.3325618   -22598.426   -10344.147   -18785.256   -38665.875   -15580.509    5809.6518   -6262.3199    81.326916 
   73100    918.85151   -105.62659   0.83139616   -104.79519    7430.7166    4.3284093    4.3284093    4.3284093    7430.7166   -22093.662    46310.636   -1924.8239    2831.7301   -11405.282   -8656.4859    81.093301 
   73200    1533.4321     -106.171    1.3874816   -104.78352   -5178.2973    4.3287973    4.3287973    4.3287973   -5178.2973   -12397.881   -1476.2123   -1660.7988    7820.0084   -2120.2447    3412.4395     81.11511 
   73300    970.81719    -105.6718    0.8784158   -104.79339   -319.34741     4.315357     4.315357     4.315357   -319.34741   -16120.856    25967.989   -10805.175   -28684.394   -2353.0111   -18867.568      80.3619 
   73400    1195.7685   -105.88523    1.0819565   -104.80327    527.24635    4.3204715    4.3204715    4.3204715    527.24635   -4932.8055   -4032.8641    10547.409    2894.2845   -4426.5331    12242.927     80.64797 
   73500    1379.0365   -106.05252    1.2477812   -104.80474   -22468.337    4.3318137    4.3318137    4.3318137   -22468.337    2426.2388   -34055.181   -35776.071   -12019.247   -791.13483    29190.125    81.284794 
   73600    1239.5436   -105.92033    1.1215651   -104.79876   -4212.9765    4.3244152    4.3244152    4.3244152   -4212.9765   -26143.889   -4517.3106     18022.27   -14584.895   -1333.6692   -13489.333    80.869013 
   73700    1161.7264   -105.84066    1.0511544    -104.7895    7809.7119    4.3226868    4.3226868    4.3226868    7809.7119    25802.985    27696.324   -30070.173    10930.368    5730.2763    31822.819    80.772086 
   73800    888.02262   -105.59709   0.80350152   -104.79359    -305.4888    4.3289523    4.3289523    4.3289523    -305.4888   -9773.9231    -6972.187    15829.644   -13120.078    6879.9136   -12148.151    81.123824 
   73900    1322.2786   -105.97841    1.1964254   -104.78199    1767.2112     4.332282     4.332282     4.332282    1767.2112   -915.87937    3429.5539    2787.9589    6747.2074    1140.9062    5266.3228    81.311159 
   74000    1025.0904   -105.71271   0.92752338   -104.78519     12935.69    4.3177261    4.3177261    4.3177261     12935.69    42801.733    -25246.53    21251.866    5510.5109    4269.6024    20804.558    80.494324 
   74100      1134.88   -105.82058    1.0268633   -104.79372    5044.8418    4.3241003    4.3241003    4.3241003    5044.8418   -12616.773     10450.35    17300.949   -18780.525     12051.01   -12298.951    80.851349 
   74200    1503.3375   -106.15144    1.3602513   -104.79119   -22242.916     4.329081     4.329081     4.329081   -22242.916    10762.121   -47701.471   -29789.398     11744.41   -6331.0076    32777.459    81.131055 
   74300    1086.2526   -105.77429   0.98286416   -104.79142    2852.0993    4.3315515    4.3315515    4.3315515    2852.0993   -9965.8007   -17811.933    36334.032    -26125.56   -938.99885   -8057.6105    81.270034 
   74400    1207.4555   -105.88319    1.0925311   -104.79066   -11173.631    4.3249513    4.3249513    4.3249513   -11173.631   -18092.177   -3268.0399   -12160.676    722.20211     9864.478    5652.5289    80.899098 
   74500    990.13489   -105.68824   0.89589486   -104.79234    14123.498    4.3106115    4.3106115    4.3106115    14123.498    383.70574   -15147.782     57134.57   -6960.0614   -7985.9228      14340.1    80.097072 
   74600     1401.152   -106.06527    1.2677918   -104.79748   -11425.338     4.325826     4.325826     4.325826   -11425.338   -18569.056   -12183.716   -3523.2406   -13368.524    30698.188   -13752.258    80.948188 
   74700    992.14916   -105.69798   0.89771741   -104.80027   -9577.7034     4.325885     4.325885     4.325885   -9577.7034   -7735.3786   -3143.4561   -17854.275    7243.9538    15164.687    42577.607    80.951504 
   74800    1583.4005    -106.2249    1.4326941    -104.7922   -6674.2242    4.3278329    4.3278329    4.3278329   -6674.2242   -15801.725   -23852.671    19631.723   -22389.109    -3265.004    954.48129    81.060906 
   74900    1025.6783   -105.72476   0.92805527    -104.7967   -4321.4457    4.3247507    4.3247507    4.3247507   -4321.4457   -7061.4186   -9159.8965    3256.9781    3652.8745    21378.453    21719.972    80.887839 
   75000    1109.6005   -105.80229    1.0039898    -104.7983    12577.649    4.3164984    4.3164984    4.3164984    12577.649    410.24583   -5835.3089    43158.009   -10978.468   -14317.248    26324.299    80.425682 
   75100    1567.9234   -106.21349    1.4186901    -104.7948   -12743.239    4.3318358    4.3318358    4.3318358   -12743.239   -31941.505    5763.1935   -12051.406    -10128.47     10587.88   -8826.5666    81.286037 
   75200    704.52315    -105.4401   0.63746735   -104.80263    4575.9265    4.3224947    4.3224947    4.3224947    4575.9265    3556.2636   -6093.7279    16265.244   -598.36072    20179.482    32096.988    80.761322 
   75300    1418.9109   -106.07778    1.2838604   -104.79392    13043.888    4.3221036    4.3221036    4.3221036    13043.888   -939.24095    4575.0861    35495.818   -6068.8589   -8973.5839   -905.75888    80.739402 
   75400    1176.7738    -105.8627    1.0647697   -104.79793   -422.22498    4.3234676    4.3234676    4.3234676   -422.22498    -154.9073   -5086.8399    3975.0722   -2898.0582    22379.353     23920.59    80.815865 
   75500    1106.5484    -105.8014    1.0012282   -104.80017    6281.3178    4.3270558    4.3270558    4.3270558    6281.3178    226.94006     24574.92   -5957.9065   -1570.7575   -5494.3087    14639.985    81.017249 
   75600    1614.6341   -106.24895    1.4609548     -104.788   -3134.1754    4.3326886    4.3326886    4.3326886   -3134.1754    2091.8906   -21133.509    9639.0921    3001.9984   -2212.3891    -4970.382    81.334058 
   75700    1058.3692   -105.74668   0.95763471   -104.78905   -9146.5335    4.3257049    4.3257049    4.3257049   -9146.5335   -9782.7879   -13462.194   -4194.6187    3215.0461    6590.9502    25835.237    80.941392 
   75800    1544.0406   -106.17444    1.3970804   -104.77736    16759.578    4.3212749    4.3212749    4.3212749    16759.578    -6306.467    40565.099    16020.102   -2472.6415    -18114.05   -5886.2537    80.692967 
   75900     1229.502   -105.89412    1.1124792   -104.78164   -8642.7934    4.3274625    4.3274625    4.3274625   -8642.7934   -2800.3123   -27505.397    4377.3294    4702.4351    1451.1278     20129.99    81.040092 
   76000    1361.1628   -106.01321    1.2316087    -104.7816    1701.7915    4.3304621    4.3304621    4.3304621    1701.7915   -28982.773    28124.105    5964.0425    2186.0544    -4876.464    3393.9527    81.208731 
   76100    1224.9813   -105.89455    1.1083888   -104.78616   -8193.5562    4.3291725    4.3291725    4.3291725   -8193.5562   -8960.0823   -21497.405    5876.8189   -3765.9228   -10839.304   -2053.6089    81.136203 
   76200    1101.5006   -105.78399   0.99666089   -104.78733    24175.026    4.3218813    4.3218813    4.3218813    24175.026    59553.393    21430.212   -8458.5258    5314.9357    15195.054    11099.987    80.726944 
   76300    1084.2742   -105.77381   0.98107405   -104.79273    3811.4445    4.3261817    4.3261817    4.3261817    3811.4445     30599.52   -4441.0233   -14724.163    4557.9463   -11421.322   -6456.1226    80.968157 
   76400    1271.6125    -105.9452    1.1505817   -104.79462   -713.30997    4.3280246    4.3280246    4.3280246   -713.30997    31414.584   -23435.717   -10118.797    5845.0518   -3972.2199    8570.4292     81.07168 
   76500    1362.9026   -106.02074     1.233183   -104.78755    2033.1931    4.3227553    4.3227553    4.3227553    2033.1931    -16337.26    14137.913    8298.9258    9663.1174    5585.5189    -713.7427    80.775929 
   76600    929.57302   -105.64035    0.8410972   -104.79926    -13251.11    4.3227403    4.3227403    4.3227403    -13251.11   -8136.3372   -15472.319   -16144.673   -679.75568   -29893.208    2587.3832    80.775085 
   76700    1746.8299    -106.3682    1.5805684   -104.78763    4225.6874    4.3290723    4.3290723    4.3290723    4225.6874   -7513.0504    11481.592    8708.5203    808.34614    12400.527    13210.573    81.130567 
   76800    917.49994   -105.62657   0.83017323    -104.7964   -4238.6021     4.326266     4.326266     4.326266   -4238.6021   -15694.285    3251.5522   -273.07357    2343.0338   -8940.3048   -2832.9813     80.97289 
   76900    1139.3281   -105.82563     1.030888   -104.79474     96.74849    4.3226108    4.3226108    4.3226108     96.74849    23371.204    2999.6155   -26080.574    103.87833   -968.12554    6127.3601    80.767827 
   77000    1174.2717   -105.86028    1.0625057   -104.79777    8643.5354    4.3217722    4.3217722    4.3217722    8643.5354    1408.9175    10618.953    13902.736   -324.43452    25139.485    2827.8203    80.720827 
   77100    1166.5775   -105.85617    1.0555438   -104.80063   -1517.9731    4.3315096    4.3315096    4.3315096   -1517.9731   -3133.8943    7825.3365   -9245.3615   -4655.0575   -15619.492    3000.0891    81.267677 
   77200    1334.2572   -105.99559     1.207264   -104.78833    -26158.44    4.3368409    4.3368409    4.3368409    -26158.44   -40966.179   -3717.1284   -33792.013   -1823.9319    18606.102   -6857.5171    81.568125 
   77300    1035.6833   -105.72548   0.93710798   -104.78837   -10853.607    4.3168526    4.3168526    4.3168526   -10853.607   -48142.768   -5568.6077    21150.555    2872.1036    1172.4623    8937.2865    80.445481 
   77400    1624.2233   -106.25813    1.4696313    -104.7885    11771.432    4.3191362    4.3191362    4.3191362    11771.432   -16480.405    30053.588    21741.114   -5596.9599   -1229.5462   -460.62409    80.573213 
   77500    1008.9919   -105.70946    0.9129571    -104.7965   -31566.034    4.3354058    4.3354058    4.3354058   -31566.034   -46975.475    -23577.22   -24145.408   -4073.3502    29049.684    4320.7166    81.487177 
   77600    1212.6814    -105.8839    1.0972596   -104.78664    7713.2605     4.323356     4.323356     4.323356    7713.2605    -345.1781    23397.656    87.303684   -1955.0794   -9719.1483     5359.909    80.809608 
   77700    1054.9665   -105.73708   0.95455587   -104.78253    9385.1513    4.3241588    4.3241588    4.3241588    9385.1513    549.41056    20372.464    7233.5792   -1580.3312    37384.298   -10492.347     80.85463 
   77800    1036.3633   -105.72818    0.9377233   -104.79046   -6850.3437    4.3209345    4.3209345    4.3209345   -6850.3437    -7292.472   -26640.635    13382.076   -1770.7052    2431.5607    7917.6262      80.6739 
   77900    1583.2057   -106.21892    1.4325178    -104.7864    6800.2978    4.3265206    4.3265206    4.3265206    6800.2978   -6505.7787    32634.947   -5728.2745   -978.60762    6577.2895   -8571.4988    80.987191 
   78000    850.35515   -105.56993   0.76941921   -104.80051   -26059.209    4.3273653    4.3273653    4.3273653   -26059.209   -42352.002   -15350.728   -20474.898   -679.57757     19664.04   -12596.407    81.034635 
   78100    1343.1332   -106.00637    1.2152951   -104.79108    17074.497    4.3126217    4.3126217    4.3126217    17074.497    3640.3543    20001.491    27581.646   -3669.8841   -12457.763   -2926.3747    80.209186 
   78200    1280.4016   -105.95359    1.1585343   -104.79505   -13839.531    4.3332275    4.3332275    4.3332275   -13839.531    671.69465    -9533.556   -32656.732   -10175.296    4421.7709    2979.0117    81.364411 
   78300    856.19113   -105.57164   0.77469972   -104.79694     1525.771    4.3243102    4.3243102    4.3243102     1525.771    13161.536   -24104.367    15520.144   -1601.3967    9990.4383   -11594.272    80.863125 
   78400      1358.62   -106.01734    1.2293079   -104.78804    3504.4191    4.3144812    4.3144812    4.3144812    3504.4191   -5777.9051    38785.866   -22494.703    3265.2137   -17382.732    16080.056    80.312983 
   78500     1083.136   -105.77524   0.98004424   -104.79519   -17970.169    4.3273215    4.3273215    4.3273215   -17970.169   -17682.862   -27052.841   -9174.8045   -219.13229    5187.6743   -6785.4382    81.032173 
   78600    1242.2468   -105.91414     1.124011   -104.79013     18356.91    4.3220389    4.3220389    4.3220389     18356.91    26084.022     7080.007      21906.7    12585.459   -17254.653    6240.4756    80.735772 
   78700    1018.4888   -105.71864   0.92155007   -104.79709   -15352.127    4.3312676    4.3312676    4.3312676   -15352.127    8091.1372    1714.3385   -55861.855    587.36755   -22844.191      13788.5    81.254057 
   78800    1183.6534   -105.85374    1.0709945   -104.78275    13043.247    4.3243687    4.3243687    4.3243687    13043.247    22798.831   -25240.139    41571.049    7078.2937    774.67812   -7667.7668    80.866407 
   78900    1105.9288   -105.79191    1.0006676   -104.79124   -10536.452    4.3179951    4.3179951    4.3179951   -10536.452   -3361.4429   -340.77185   -27907.141   -134.08511   -37211.726    17967.042    80.509371 
   79000    1446.9311   -106.09801    1.3092136    -104.7888   -10523.224    4.3226133    4.3226133    4.3226133   -10523.224   -18566.643   -19726.137    6723.1093    9369.1963     2641.805    4684.9192    80.767965 
   79100    1201.7229   -105.87858    1.0873442   -104.79124    3817.4725    4.3196903    4.3196903    4.3196903    3817.4725    15641.615   -3792.2235   -396.97378   -614.06734   -20914.455   -3237.2731    80.604229 
   79200    1023.2214   -105.72403   0.92583223   -104.79819    -36250.78    4.3332686    4.3332686    4.3332686    -36250.78    -12303.99   -49921.095   -46527.256    6141.4158   -15345.263    23912.097    81.366726 
   79300    1586.2357   -106.22002    1.4352594   -104.78476    12482.491    4.3201755    4.3201755    4.3201755    12482.491    20401.395    333.75987    16712.317    9580.3805   -1508.6684   -13677.854    80.631393 
   79400    771.67148   -105.49717   0.69822458   -104.79895   -11447.117    4.3171641    4.3171641    4.3171641   -11447.117    8972.2619    13303.018   -56616.629   -3142.3177   -28012.414    27505.697    80.462895 
   79500    1291.7961   -105.96112    1.1688443   -104.79228   -742.56562    4.3214603    4.3214603    4.3214603   -742.56562    10323.471   -7473.4669   -5077.7007     10176.61    115.16879    8838.7255    80.703356 
   79600    1163.5378   -105.84881    1.0527935   -104.79601   -3724.9675    4.3266725    4.3266725    4.3266725   -3724.9675    22482.111   -3906.6538    -29750.36   -1961.7964   -16126.386    1759.0075     80.99572 
   79700    1177.2922   -105.85698    1.0652388   -104.79174   -18256.509     4.331223     4.331223     4.331223   -18256.509   -7852.5815    3210.1699   -50127.116   -1388.9495   -19010.878    34555.039    81.251548 
   79800    1335.8172   -105.99031    1.2086755   -104.78163    18416.846    4.3158245    4.3158245    4.3158245    18416.846    40055.926     3619.876    11574.737    2028.0777    12873.702   -9536.0393     80.38802 
   79900    800.16414   -105.52209   0.72400533   -104.79809   -2991.5566    4.3264342    4.3264342    4.3264342   -2991.5566    34986.893      5551.52   -49513.083   -7688.6413   -26861.579    25014.178    80.982335 
   80000     1375.527   -106.02777    1.2446057   -104.78316    18374.915    4.3260702    4.3260702    4.3260702    18374.915    36438.951    21947.423   -3261.6286   -15239.987    12069.097   -413.93332    80.961899 
   80100    1229.6358   -105.90199    1.1126003   -104.78939   -11630.539    4.3224351    4.3224351    4.3224351   -11630.539   -4385.2006    6063.6786   -36570.095    14227.626   -10061.312    14858.669    80.757981 
   80200    1283.3403   -105.95328    1.1611933   -104.79209   -10432.353    4.3220113    4.3220113    4.3220113   -10432.353   -13952.146    14878.214   -32223.127   -7662.6601   -18836.594    8717.5232    80.734225 
   80300     1021.847   -105.72379   0.92458866    -104.7992    26235.168    4.3181088    4.3181088    4.3181088    26235.168    33235.943    44713.252    756.31048    9374.1177    5660.6496   -6240.9844    80.515729 
   80400    1533.8727    -106.1816    1.3878802   -104.79372   -26331.605    4.3414535    4.3414535    4.3414535   -26331.605   -7710.7112   -13564.219   -57719.885   -862.47744   -20905.588    21991.658    81.828662 
   80500    938.50315   -105.64506   0.84917737   -104.79589     21295.53    4.3126414    4.3126414    4.3126414     21295.53    29114.556    43155.945   -8383.9125   -2728.0564    6623.8153   -13403.755    80.210282 
   80600    1079.1098   -105.77257   0.97640122   -104.79617    18867.598    4.3050523    4.3050523    4.3050523    18867.598    1199.9897    29530.258    25872.547    8789.4184   -16846.986    5583.0512     79.78758 
   80700    1747.7081   -106.36458     1.581363   -104.78322   -13958.579     4.333385     4.333385     4.333385   -13958.579   -10527.411   -2180.0512   -29168.275    3196.4941    1054.7895   -2073.3815    81.373281 
   80800    772.66198   -105.49184    0.6991208   -104.79272    14512.406    4.3270953    4.3270953    4.3270953    14512.406   -4124.1742    50983.422   -3322.0297    4322.4318    12413.484   -10085.719    81.019466 
   80900    1548.7285   -106.18316    1.4013221   -104.78184   -458.23479    4.3269886    4.3269886    4.3269886   -458.23479   -2119.3985   -551.86842    1296.5625    2305.7002   -11867.793    1913.9491    81.013474 
   81000    835.41684   -105.55166   0.75590271   -104.79576    16261.422     4.310327     4.310327     4.310327    16261.422     19018.23    41166.966    -11400.93   -632.74975    27335.776    3180.6674    80.081214 
   81100    1547.0217   -106.20087    1.3997778   -104.80109    11159.014    4.3213746    4.3213746    4.3213746    11159.014   -5798.6375    23508.043    15767.638    361.62471   -9248.8542   -15304.895    80.698551 
   81200     1094.746   -105.78249   0.99054919   -104.79195   -13752.879     4.337109     4.337109     4.337109   -13752.879   -3986.2622    10242.763   -47515.138   -8910.7119     8632.485    20531.101    81.583254 
   81300    1227.5038   -105.90287    1.1106712    -104.7922   -9468.5886      4.31327      4.31327      4.31327   -9468.5886   -20051.427   -4176.7302   -4177.6084    8050.0687    5967.2824   -27175.987     80.24536 
   81400     1403.935   -106.06147    1.2703099   -104.79116   -416.35899    4.3188624    4.3188624    4.3188624   -416.35899    19919.958   -15983.273   -5185.7614    6787.3188   -3607.7278    35432.686    80.557895 
   81500     1228.646   -105.90921    1.1117047   -104.79751   -15394.379    4.3318531    4.3318531    4.3318531   -15394.379    -12394.06    1559.9278   -35349.005     3313.319    12469.841    5711.4734    81.287014 
   81600    1291.8193   -105.94838    1.1688652   -104.77952   -10723.984    4.3375702    4.3375702    4.3375702   -10723.984    17065.307   -12493.244   -36744.014   -5004.5329   -9284.6978    4288.3799    81.609279 
   81700    967.28584   -105.65824   0.87522056   -104.78302   -327.15193    4.3232638    4.3232638    4.3232638   -327.15193    23374.988    10801.958   -35158.401   -94.983906    14583.058    39313.378    80.804435 
   81800    1365.5495    -106.0102    1.2355779   -104.77462    27938.256    4.3167883    4.3167883    4.3167883    27938.256    21264.266    38823.503    23726.999   -23709.752    8054.6848   -764.92197    80.441885 
   81900    941.82632   -105.64139   0.85218425    -104.7892   -3090.9254    4.3343168    4.3343168    4.3343168   -3090.9254    9223.1083    7339.2266   -25835.111    7145.4329    3764.6046    44944.431    81.425783 
   82000     1237.241   -105.89753    1.1194816   -104.77805   -7142.0728    4.3374645    4.3374645    4.3374645   -7142.0728   -23552.956   -9036.2708    11163.008   -14326.052    16619.109     3437.951    81.603315 
   82100    865.56047   -105.56104   0.78317731   -104.77786    22264.126     4.324694     4.324694     4.324694    22264.126    29341.551     5461.712    31989.114   -9717.8959    2359.9555    28432.522     80.88466 
   82200    1298.8644   -105.95381    1.1752398   -104.77857   -5409.4642    4.3221801    4.3221801    4.3221801   -5409.4642    -7813.566   -1191.4454   -7223.3812    9833.9038    25638.473    9182.0046    80.743686 
   82300    1431.3084    -106.0746    1.2950779   -104.77952   -12378.847    4.3272071    4.3272071    4.3272071   -12378.847   -20003.762   -15359.443   -1773.3349   -18840.625    2138.6933     1606.491    81.025748 
   82400     828.6886   -105.53863   0.74981486   -104.78881   -7616.3337    4.3347106    4.3347106    4.3347106   -7616.3337    17100.035    9148.8167   -49097.853    1243.1163    20246.649    32638.974    81.447984 
   82500    1683.6292   -106.30089    1.5233831    -104.7775   -14947.384    4.3272232    4.3272232    4.3272232   -14947.384   -17691.865   -617.80035   -26532.487    -6726.364    23152.616   -22887.303    81.026652 
   82600    1122.1682   -105.79816    1.0153613    -104.7828   -4877.3917    4.3185644    4.3185644    4.3185644   -4877.3917    21986.455   -14689.513   -21929.117    1418.5083   -9861.4329     38746.58    80.541219 
   82700    979.28259   -105.67086   0.88607546   -104.78478   -5231.9385     4.331808     4.331808     4.331808   -5231.9385   -4225.6318     19072.72   -30542.904   -1164.9679    37134.984   -8134.3417    81.284471 
   82800     1164.843   -105.83582    1.0539744   -104.78184   -6280.5237    4.3249511    4.3249511    4.3249511   -6280.5237   -7075.1349    -42083.83    30317.393   -3555.0018    1393.1874    16238.978    80.899083 
   82900    1319.2243   -105.97527    1.1936619    -104.7816    1140.3156    4.3202259    4.3202259    4.3202259    1140.3156   -2405.1866   -3084.3512    8910.4845    1845.2987    14767.826    14473.951    80.634215 
   83000    945.93336   -105.63962   0.85590038   -104.78372   -4900.0852    4.3271367    4.3271367    4.3271367   -4900.0852    10323.525    3956.2934   -28980.074   -6458.3791    27017.117   -4147.6963    81.021793 
   83100    1313.1651    -105.9718    1.1881793   -104.78362   -10682.355    4.3223686    4.3223686    4.3223686   -10682.355    21432.309   -38242.302   -15237.071   -3945.5485   -14481.355    25848.769    80.754253 
   83200    1538.0628   -106.17995    1.3916716   -104.78828   -22618.649    4.3281743    4.3281743    4.3281743   -22618.649   -40728.396    777.40233   -27904.953    5286.3733    37957.296   -22074.168    81.080092 
   83300    1009.2425     -105.698   0.91318381   -104.78482    16522.886    4.3190062    4.3190062    4.3190062    16522.886    41275.872    11057.382   -2764.5974   -4423.1198   -871.07209    21683.109    80.565939 
   83400    1052.5371   -105.74079   0.95235772   -104.78843    7266.4261    4.3267509    4.3267509    4.3267509    7266.4261    8377.8908   -157.34014    13578.728    6479.8905    35016.401    -355.6204    81.000122 
   83500    1493.9591   -106.12515    1.3517656   -104.77339   -21340.743    4.3437807    4.3437807    4.3437807   -21340.743    8475.2142   -38030.909   -34466.534    3254.4662    5241.0797    2788.5866    81.960328 
   83600    850.41525    -105.5425   0.76947359   -104.77303    35034.747    4.3147358    4.3147358    4.3147358    35034.747    57391.353    26044.337    21668.551     1476.732    25522.089    19469.858    80.327198 
   83700    1195.7655   -105.85338    1.0819538   -104.77143    21936.406    4.3152296    4.3152296    4.3152296    21936.406    15751.679    23875.886    26181.652   -5255.7563    24254.385   -1003.5621    80.354782 
   83800    1363.6616   -106.00566    1.2338697   -104.77179   -14324.001    4.3351038    4.3351038    4.3351038   -14324.001    25466.079   -49229.075   -19209.008    -6917.445   -4527.3958    28836.481    81.470149 
   83900    886.78894   -105.58027   0.80238527   -104.77789    31862.361    4.3293658    4.3293658    4.3293658    31862.361    939.44129    33635.475    61012.166   -49.036914    44322.519   -6300.9246    81.147068 
   84000    1490.0683   -106.11676    1.3482451   -104.76852   -96.638834     4.331363     4.331363     4.331363   -96.638834    26697.007   -13176.317   -13810.607    -13918.43   -6476.3737    30079.436    81.259424 
   84100    955.29869   -105.64347   0.86437433    -104.7791   -9511.8175    4.3159009    4.3159009    4.3159009   -9511.8175   -17836.373     7291.673   -17990.752   -1500.5413    38784.355    8038.4928    80.392286 
   84200    1320.1735   -105.97664    1.1945208   -104.78212     30412.71    4.3180387    4.3180387    4.3180387     30412.71    52661.339    18631.087    19945.703   -4114.3404    1631.4574    2241.8724    80.511813 
   84300    1050.9517   -105.74228   0.95092321   -104.79136   -21346.877    4.3355197    4.3355197    4.3355197   -21346.877   -35441.811    10543.674   -39142.494   -4797.2265     30119.69    22215.168    81.493599 
   84400     1310.632   -105.96675    1.1858874   -104.78086   -2135.0219    4.3207584    4.3207584    4.3207584   -2135.0219   -11901.112    7265.3737   -1769.3272   -2314.7547    22085.451   -7729.6885    80.664036 
   84500    1275.0586   -105.93171    1.1536998   -104.77801    7828.0247    4.3232075    4.3232075    4.3232075    7828.0247    4998.4363    11350.409    7135.2293     -1862.89    3186.1328    16061.939    80.801278 
   84600    879.50501   -105.58111   0.79579462   -104.78531    -14795.67    4.3267251    4.3267251    4.3267251    -14795.67   -36662.637    17259.711   -24984.085    2869.4595    54759.619    7092.5548    80.998675 
   84700    1798.2108   -106.40114    1.6270589   -104.77408    5478.2832    4.3193574    4.3193574    4.3193574    5478.2832    16261.001   -13006.584    13180.432   -3276.1828   -18854.974    8517.5722    80.585594 
   84800    623.31879   -105.36173   0.56399194   -104.79774   -19783.888    4.3292097    4.3292097    4.3292097   -19783.888   -35797.222     40278.29   -63832.732    -230.5558    59957.943     15214.11    81.138295 
   84900     1676.196   -106.29982    1.5166573   -104.78317    8357.8796    4.3212799    4.3212799    4.3212799    8357.8796   -10451.696     10168.36    25356.975    2549.5268   -2903.5046   -1069.1109    80.693248 
   85000    885.44116   -105.59414   0.80116577   -104.79297   -7138.3035    4.3224998    4.3224998    4.3224998   -7138.3035   -15476.708    14578.167    -20516.37   -8430.7022    33027.162     9033.551    80.761607 
   85100    1162.4764   -105.84772    1.0518331   -104.79589   -19770.833    4.3277372    4.3277372    4.3277372   -19770.833   -34352.792    13477.934   -38437.642   -3967.8264    28801.216    14059.395    81.055529 
   85200    1435.2135    -106.0887    1.2986113   -104.79009    18221.126    4.3193144    4.3193144    4.3193144    18221.126   -2263.7779    15269.841    41657.314     1703.691    7532.9471     4552.024    80.583191 
   85300    968.41748   -105.67731   0.87624448   -104.80107   -16037.931    4.3280263    4.3280263    4.3280263   -16037.931   -38875.685    13208.676   -22446.784    2353.8447     53307.62    22940.159    81.071773 
   85400    1299.2412   -105.96042    1.1755807   -104.78484    21228.768    4.3262292    4.3262292    4.3262292    21228.768   -1523.9696    1721.6476    63488.625   -3657.0654   -11141.844    4851.3556    80.970828 
   85500    1021.8825   -105.71708   0.92462075   -104.79246   -10577.291    4.3219139    4.3219139    4.3219139   -10577.291   -7098.5548    20206.183     -44839.5   -1696.3963    51255.024    280.85187    80.728767 
   85600    1517.1751   -106.16293    1.3727719   -104.79016    -7273.373    4.3278985    4.3278985    4.3278985    -7273.373   -613.22912   -17787.409   -3419.4807   -2266.7533   -16041.263    29325.445    81.064593 
   85700    1139.6403    -105.8223    1.0311705   -104.79113    14623.354    4.3181645    4.3181645    4.3181645    14623.354   -7746.3247    32627.703    18988.683   -4626.7809    26264.267    -11489.98    80.518845 
   85800    1082.4286   -105.77523   0.97940411   -104.79583     9710.074    4.3178453    4.3178453    4.3178453     9710.074    22185.404    4540.9063    2403.9116   -5266.7213    11110.511    27375.463    80.500995 
   85900    1090.5691   -105.77506   0.98676984   -104.78829    4564.7869    4.3357091    4.3357091    4.3357091    4564.7869   -14770.785    15944.142    12521.003    1986.1791    3359.8677    7979.6489    81.504279 
   86000    1403.6835   -106.05542    1.2700824   -104.78534   -14268.641    4.3296992    4.3296992    4.3296992   -14268.641   -34884.249    18299.937   -26221.611   -7784.2568    37850.003   -3833.1468     81.16582 
   86100    1211.4302   -105.87682    1.0961275   -104.78069    20800.536     4.315609     4.315609     4.315609    20800.536    30300.504    -4958.003    37059.107   -184.77272   -10338.083     19312.44     80.37598 
   86200    944.40097   -105.64619   0.85451384   -104.79168    6408.5297     4.318589     4.318589     4.318589    6408.5297   -43978.057     50379.06    12824.586   -4670.8015    37728.923   -11287.778    80.542598 
   86300    1389.8257   -106.04919    1.2575435   -104.79165   -15014.312    4.3349881    4.3349881    4.3349881   -15014.312   -12505.599   -25350.556   -7186.7809   -1408.5532   -7910.3617    24662.527    81.463623 
   86400    1194.3636   -105.87158    1.0806853    -104.7909   -21325.437     4.331626     4.331626     4.331626   -21325.437   -28203.968   -4006.1556   -31766.187   -1011.2525    33058.158    12070.103    81.274226 
   86500     1247.274   -105.91307    1.1285597   -104.78451    9713.4723    4.3150025    4.3150025    4.3150025    9713.4723   -9354.7367    29380.987    9114.1665    2627.7038    22296.369    265.60478    80.342096 
   86600    994.21872   -105.69184   0.89958999   -104.79225    3324.3642    4.3236739    4.3236739    4.3236739    3324.3642    -15728.68    9327.1946    16374.578    2693.3554    9714.1644    18091.906    80.827432 
   86700    1095.1293   -105.78574     0.990896   -104.79484   -12452.105    4.3376381    4.3376381    4.3376381   -12452.105   -53548.504    6468.7886    9723.3988    517.45307    42364.562   -4788.9175    81.613113 
   86800    1598.4082   -106.22726    1.4462733   -104.78099    4328.3015    4.3264264    4.3264264    4.3264264    4328.3015    8346.9414   -5995.1318    10633.095    10736.294   -15272.369    13619.572    80.981901 
   86900    734.40663   -105.45464   0.66450655   -104.79013   -6788.7539     4.315387     4.315387     4.315387   -6788.7539   -20426.502    15556.828   -15496.588   -3529.4367    49602.763    13065.952    80.363574 
   87000    1708.5007   -106.33814    1.5458873   -104.79226    3158.8739    4.3234635    4.3234635    4.3234635    3158.8739   -23263.465    1616.5388    31123.548     10666.42   -5500.1952   -6070.9707    80.815635 
   87100    954.91291   -105.66935   0.86402527   -104.80532    -19788.56    4.3370309    4.3370309    4.3370309    -19788.56   -26168.403    8540.2138   -41737.491    -1418.893    32181.242    5630.7191    81.578843 
   87200    1037.6963   -105.73082   0.93892941   -104.79189    12718.048    4.3245736    4.3245736    4.3245736    12718.048   -11408.632    51651.971   -2089.1942    2639.2849    11919.932   -3160.0866    80.877903 
   87300    1317.1479    -105.9783    1.1917831   -104.78652   -14111.934    4.3242172    4.3242172    4.3242172   -14111.934    -45411.67    20245.979   -17170.109    3346.1301     18023.42   -1363.7275    80.857906 
   87400    868.53691   -105.57938   0.78587045   -104.79351   -15570.105    4.3317424    4.3317424    4.3317424   -15570.105   -34610.454    22513.676   -34613.538   -55.292917    34813.889    15841.099    81.280781 
   87500    2003.4312   -106.58853    1.8127467   -104.77579   -3260.6963    4.3222475    4.3222475    4.3222475   -3260.6963   -14345.733    5556.2988   -992.65534    1973.8553   -6884.4036    1829.6168    80.747464 
   87600    341.92757   -105.11557   0.30938325   -104.80619   -9745.4444    4.3247971    4.3247971    4.3247971   -9745.4444   -55826.984    46753.908   -20163.257   -1249.7975    51654.141    3862.0191    80.890444 
   87700     1672.454   -106.30429    1.5132715   -104.79102    6414.9031    4.3220072    4.3220072    4.3220072    6414.9031   -13755.303    11283.608    21716.404   -2628.4569   -15445.584    14871.738    80.733998 
   87800    918.95697   -105.63064   0.83149158   -104.79915    -16606.04    4.3397179    4.3397179    4.3397179    -16606.04   -68881.386    34357.853   -15294.585   -1893.2657    45191.924   -13368.508    81.730563 
   87900     1229.945   -105.89868    1.1128801    -104.7858   -17376.071    4.3310788    4.3310788    4.3310788   -17376.071   -17170.304   -8104.3881   -26853.521   -5353.7302   -4379.3984    27457.558    81.243429 
   88000     1227.508   -105.89383     1.110675   -104.78316   -603.13759    4.3145585    4.3145585    4.3145585   -603.13759   -33781.457    38684.137    -6712.093    1730.6972    33925.275   -2945.5349    80.317297 
   88100    1239.8783   -105.91539     1.121868   -104.79352   -10064.613    4.3292114    4.3292114    4.3292114   -10064.613   -31407.693    26097.052   -24883.199    1827.0477    6619.2091   -3811.2154    81.138391 
   88200    1117.2496   -105.79965    1.0109109   -104.78874    862.92186    4.3296242    4.3296242    4.3296242    862.92186    11.393922    4400.8293   -1823.4576    3705.1977    17067.878    10977.719    81.161603 
   88300    1099.8274   -105.78452   0.99514693   -104.78937   -233.17639    4.3324465    4.3324465    4.3324465   -233.17639   -22899.172    40123.378   -17923.735    1742.6582    22192.306   -12410.429    81.320424 
   88400    1216.3948   -105.88402    1.1006196    -104.7834    11392.561     4.327331     4.327331     4.327331    11392.561   -13127.361    26033.603    21271.439    1955.5155   -5738.1287    16743.187    81.032706 
   88500    979.18926   -105.68102   0.88599102   -104.79502    4192.1949     4.318493     4.318493     4.318493    4192.1949    1387.4358    33370.968   -22181.819    327.78814    47691.145    7889.5435    80.537226 
   88600    1684.7186   -106.31006    1.5243688   -104.78569    11714.353    4.3344143    4.3344143    4.3344143    11714.353    -8743.292    13829.117    30057.234   -5804.2153   -16540.994    4266.1955    81.431283 
   88700    736.10111   -105.47291   0.66603975   -104.80687   -38909.863    4.3317573    4.3317573    4.3317573   -38909.863   -62187.457   -1537.8358   -53004.296   -7031.4739    58476.262    13632.745    81.281621 
   88800    1584.9801   -106.22263    1.4341233    -104.7885    20112.172    4.3167801    4.3167801    4.3167801    20112.172    23586.562    25508.569    11241.385    -2211.672   -2261.5693    3606.1623    80.441429 
   88900    940.78067    -105.6521   0.85123812   -104.80086   -18245.943    4.3348462    4.3348462    4.3348462   -18245.943   -48128.803    10512.597   -17121.624   -3857.0454    44553.411    2036.1857    81.455626 
   89000     1238.949    -105.9193     1.121027   -104.79827   -12773.338    4.3183287    4.3183287    4.3183287   -12773.338    -19388.59   -9359.7973   -9571.6259   -8857.8416    24056.224    17512.969    80.528033 
   89100    1612.7474   -106.25243    1.4592478   -104.79318    13679.017    4.3173425    4.3173425    4.3173425    13679.017    6025.2097    35996.023   -984.18088    1060.4026    3697.8433   -100.06431    80.472873 
   89200    633.07092   -105.38553   0.57281587   -104.81271   -14033.725    4.3299352    4.3299352    4.3299352   -14033.725   -42859.286   -3863.1558     4621.267   -2183.7007    49643.865   -1625.8854     81.17909 
   89300    1718.3591   -106.34927    1.5548075   -104.79446   -9211.4934    4.3250636    4.3250636    4.3250636   -9211.4934    4857.5753   -25828.563    -6663.493   -5001.2754   -16774.845    13114.293    80.905399 
   89400    968.86299   -105.67474   0.87664759    -104.7981    7609.0656    4.3213787    4.3213787    4.3213787    7609.0656   -32938.136     58595.49   -2830.1575   -2359.7178    44992.545   -9026.2456    80.698785 
   89500    1191.0597   -105.87367    1.0776958   -104.79598   -10448.603    4.3215152    4.3215152    4.3215152   -10448.603   -10128.806   -35598.602    14381.598   -3225.3175    3176.1347    21098.078    80.706432 
   89600    1406.1832   -106.06228    1.2723442   -104.78993   -4185.0741    4.3247182    4.3247182    4.3247182   -4185.0741   -18253.118   -5392.5711    11090.467   -571.31577    8855.4122    3844.8348    80.886013 
   89700    920.77051   -105.63057   0.83313251   -104.79744    1606.3818    4.3310601    4.3310601    4.3310601    1606.3818   -28691.668    21912.047    11598.767   -7622.2104    32672.562    12958.038    81.242379 
   89800    1369.8458   -106.03301    1.2394653   -104.79355    1600.9466    4.3214929    4.3214929    4.3214929    1600.9466    3398.2186   -27980.301    29384.922     6455.277    1211.1485     35255.56    80.705179 
   89900    1201.4109   -105.88411    1.0870618   -104.79705    160.40716    4.3202824    4.3202824    4.3202824    160.40716   -27999.251    18392.919    10087.554    886.87272    28937.796   -14295.484     80.63738 
   90000    922.38463   -105.63599     0.834593   -104.80139   -12365.134    4.3298998    4.3298998    4.3298998   -12365.134    11817.688   -46663.461   -2249.6287   -9138.7931    4775.4717    33869.545    81.177102 
   90100    1444.1674   -106.09665     1.306713   -104.78994    -787.4418    4.3266654    4.3266654    4.3266654    -787.4418    -3679.597   -11299.583    12616.855    5681.0464     3552.596   -1350.9611    80.995322 
   90200    1049.7717   -105.74423   0.94985547   -104.79437   -12108.007    4.3238679    4.3238679    4.3238679   -12108.007   -17844.293   -18339.711   -140.01556    2793.2382    17372.836    15404.215    80.838315 
   90300    1230.4467    -105.9081    1.1133341   -104.79477    2340.3231    4.3257966    4.3257966    4.3257966    2340.3231    26033.261   -44485.334    25473.042    1714.9544   -7684.3404    29982.901    80.946537 
   90400    1197.9236   -105.88148    1.0839064   -104.79758    12384.448    4.3227587    4.3227587    4.3227587    12384.448   -12315.044    17667.851    31800.537    9541.3424    30680.072   -8042.0915    80.776117 
   90500    1009.9901   -105.72073   0.91386022   -104.80687    -24689.54    4.3257602    4.3257602    4.3257602    -24689.54    2000.7314   -30966.653   -45102.698   -1126.8253   -4421.6175    45796.017    80.944494 
   90600    1365.7931    -106.0343    1.2357983    -104.7985    20116.121    4.3172945    4.3172945    4.3172945    20116.121    23846.247   -2396.8551    38898.972    8980.7865   -7070.9189   -6145.5256    80.470188 
   90700    841.16619   -105.57208   0.76110484   -104.81097    6958.5468    4.3200435    4.3200435    4.3200435    6958.5468    1441.7311    5235.0263    14198.883   -3152.0272    10308.171    45380.151    80.624004 
   90800    1451.2946   -106.11109    1.3131618   -104.79793    -13204.39    4.3319407    4.3319407    4.3319407    -13204.39   -22190.136   -8376.7398   -9046.2935    8063.9687   -2549.1469    14977.559    81.291946 
   90900     1184.925   -105.86553    1.0721451   -104.79339    15189.344     4.327188     4.327188     4.327188    15189.344    9433.3732    9130.8954    27003.762    7722.1068    5002.2052    831.92672    81.024673 
   91000    913.12455   -105.62328   0.82621429   -104.79707   -4518.6373    4.3197909    4.3197909    4.3197909   -4518.6373    15961.607    -16189.35   -13328.168   -2071.9104    16234.702     33972.38     80.60986 
   91100    1635.3761   -106.27413    1.4797227   -104.79441    5498.8607     4.322407     4.322407     4.322407    5498.8607   -20744.581   -11599.452    48840.616    15469.765   -5477.3816   -25398.428    80.756403 
   91200    1062.3527    -105.7681   0.96123907   -104.80686    11948.458    4.3198076    4.3198076    4.3198076    11948.458    25608.197    -719.5536    10956.732   -4006.8287      923.468    39120.089    80.610795 
   91300    1305.9788   -105.98994    1.1816771   -104.80826   -12190.649     4.330911     4.330911     4.330911   -12190.649   -23472.382   -2143.4077   -10956.157    15001.592    3484.9211   -2317.9452    81.233986 
   91400     1100.525   -105.79775   0.99577816   -104.80197    6592.8507    4.3247624    4.3247624    4.3247624    6592.8507    12851.291   -19417.798    26345.059   -1890.4034   -11771.653    7718.3093    80.888495 
   91500    1364.0795   -106.02541    1.2342478   -104.79116    16025.591    4.3120116    4.3120116    4.3120116    16025.591    8129.3444    35073.335    4874.0935    4854.0821    1930.5945    34761.859    80.175145 
   91600    1303.1401   -105.97437    1.1791086   -104.79526   -8141.0769    4.3291304    4.3291304    4.3291304   -8141.0769   -39261.619   -16366.637    31205.026    14571.494    2725.8129   -13161.727    81.133834 
   91700    1105.1228   -105.79335   0.99993835   -104.79341   -12038.754    4.3293214    4.3293214    4.3293214   -12038.754    9573.1166   -27996.467   -17692.912   -282.20873   -12843.319    47046.434    81.144573 
   91800    1581.4881   -106.21297    1.4309637   -104.78201    9373.6225    4.3271245    4.3271245    4.3271245    9373.6225   -15609.959    41994.611    1736.2158    5251.8481    15304.853   -11019.435    81.021106 
   91900    1157.8815   -105.83483    1.0476755   -104.78715   -22910.027    4.3238987    4.3238987    4.3238987   -22910.027   -7150.0565   -37684.251   -23895.772    9342.2238   -6963.1527    37152.529    80.840043 
   92000    1167.1456   -105.84445    1.0560579   -104.78839    21837.671    4.3170796    4.3170796    4.3170796    21837.671     13733.39    48434.237    3345.3868    -9724.444    4064.7279    7459.8716    80.458173 
   92100     1386.032   -106.04857    1.2541109   -104.79446   -11472.701    4.3318354    4.3318354    4.3318354   -11472.701   -11041.569   -2284.2092   -21092.325    3168.9397    9515.2993    3979.3112    81.286014 
   92200    1121.7862    -105.8112    1.0150158   -104.79618    4627.7071    4.3290938    4.3290938    4.3290938    4627.7071    20912.377   -6878.9365    -150.3191   -454.96873   -13229.907     38193.87    81.131775 
   92300    1468.5329   -106.11282    1.3287594   -104.78406    7394.3437     4.325105     4.325105     4.325105    7394.3437    2269.2006    38132.146   -18218.315   -8416.7526    16277.667   -15839.266    80.907718 
   92400    854.60331   -105.56681   0.77326303   -104.79354   -5993.0572    4.3209932    4.3209932    4.3209932   -5993.0572    17134.245   -28256.133   -6857.2838    19006.563    -2157.173    42730.668    80.677187 
   92500    1347.8094   -106.01574    1.2195262   -104.79621    27519.635      4.31689      4.31689      4.31689    27519.635    27827.545    68754.903   -14023.544    2080.6458   -2145.8619    -2524.198    80.447571 
   92600    1291.9526   -105.97633    1.1689858   -104.80734   -12576.781    4.3278195    4.3278195    4.3278195   -12576.781    -2060.472   -20472.377   -15197.495   -880.51088    13784.497    8879.7316    81.060154 
   92700    822.95869   -105.55096   0.74463032   -104.80633    10669.001    4.3222517    4.3222517    4.3222517    10669.001     20771.09     24624.12   -13388.208    14814.491   -9264.0135    18185.535    80.747699 
   92800    1656.4476   -106.29327    1.4987886   -104.79448   -3710.8038    4.3245267    4.3245267    4.3245267   -3710.8038   -935.84216    2609.8641   -12806.433   -12719.039    109.58852   -5562.5384    80.875273 
   92900    1069.7893   -105.76691   0.96796782   -104.79894    11872.181    4.3217587    4.3217587    4.3217587    11872.181    29888.864    20606.734   -14879.057    1702.2746    6769.6023    24626.967    80.720073 
   93000    1224.8925   -105.90522    1.1083084   -104.79691    956.11912    4.3257312    4.3257312    4.3257312    956.11912   -5853.7658     12940.11   -4217.9865    16919.169   -26254.689    2785.4264     80.94287 
   93100    1279.9132   -105.94682    1.1580924   -104.78873   -2424.2493    4.3316462    4.3316462    4.3316462   -2424.2493    5058.7377   -14341.727    2010.2416   -6396.0432    8431.1152    8600.4829    81.275363 
   93200    822.78354   -105.53927   0.74447183   -104.79479    14131.501    4.3180591    4.3180591    4.3180591    14131.501    50805.528   -311.52998    -8099.496    27696.611    -24077.37    8973.9982    80.512949 
   93300    1447.9421   -106.10681    1.3101284   -104.79668    3806.4555    4.3253722    4.3253722    4.3253722    3806.4555    8767.2866   -8366.1702     11018.25     -3029.49   -18601.148   -1839.4114    80.922718 
   93400    1335.2389   -106.00431    1.2081522   -104.79616   -4690.9004    4.3239298    4.3239298    4.3239298   -4690.9004    1195.9747   -8526.5172   -6742.1588     9914.731    3695.2098    16541.273    80.841788 
   93500    868.94106   -105.59055   0.78623614   -104.80431   -2602.6497    4.3267847    4.3267847    4.3267847   -2602.6497   -31708.808    14341.679    9559.1796    5624.5172   -34008.613   -6191.9344    81.002019 
   93600    1979.7837   -106.58248    1.7913499   -104.79113   -3249.2409     4.323831     4.323831     4.323831   -3249.2409    7842.7732   -23190.949    5600.4535   -4531.9169    10842.492    8233.6397    80.836243 
   93700    807.15908   -105.53992    0.7303345   -104.80959    17367.137    4.3120589    4.3120589    4.3120589    17367.137     16073.03    30874.927    5153.4547    13507.982   -25447.095    6044.2338    80.177786 
   93800    1039.9008   -105.75051   0.94092408   -104.80959   -10148.489    4.3323465    4.3323465    4.3323465   -10148.489    -8281.358   -6394.2472    -15769.86     1285.061   -18776.784    -10664.79    81.314792 
   93900    1505.4471    -106.1559    1.3621602   -104.79374    6139.4224    4.3248483    4.3248483    4.3248483    6139.4224     20187.66   -30489.423    28720.031    2167.8402    -2113.337    1512.3985    80.893314 
   94000      655.236   -105.40158    0.5928713   -104.80871    6025.1496    4.3127057    4.3127057    4.3127057    6025.1496   -17829.262    27911.529    7993.1812    12903.746   -40981.477    5231.7094    80.213871 
   94100    1614.3938   -106.26523    1.4607374    -104.8045   -3112.0502    4.3244103    4.3244103    4.3244103   -3112.0502   -20876.067   -8.2104781    11548.127   -7105.5115    15073.832   -20690.337    80.868743 
   94200    1048.7495   -105.75606   0.94893061   -104.80712   -3277.2398     4.335438     4.335438     4.335438   -3277.2398    3548.1031     2549.725   -15929.548    2462.7123   -24087.095    9079.6791    81.488992 
   94300    1184.3438   -105.87387    1.0716192   -104.80225   -13296.445    4.3257809    4.3257809    4.3257809   -13296.445   -7224.8208    5214.9172    -37879.43   -405.67015    -5496.194    -25488.67    80.945656 
   94400    1487.7189   -106.13279    1.3461193   -104.78667    28861.688    4.3176366    4.3176366    4.3176366    28861.688    35597.445    12117.824    38869.794    -3577.208    -3467.226   -11268.052    80.489318 
   94500    898.52906   -105.61346   0.81300798   -104.80045   -5848.2712    4.3298157    4.3298157    4.3298157   -5848.2712    7516.5136   -22494.518   -2566.8089    12658.031   -31478.361   -12613.986    81.172371 
   94600    1100.4901   -105.78903   0.99574653   -104.79329    6511.6558    4.3266046    4.3266046    4.3266046    6511.6558    8304.2179   -22216.163    33446.912   -7765.0061    5632.7036   -18865.351    80.991909 
   94700    1375.4989   -106.03949    1.2445803   -104.79491    9874.1682    4.3232597    4.3232597    4.3232597    9874.1682    9627.3275   -12874.984    32870.162    16747.756   -11198.808    13887.552    80.804207 
   94800    1244.9732   -105.92132     1.126478   -104.79485   -23607.529    4.3362856    4.3362856    4.3362856   -23607.529    2380.1935   -49864.001    -23338.78    2998.1477   -6596.8513   -22606.533    81.536797 
   94900    1203.9922   -105.87695    1.0893974   -104.78755   -16260.247    4.3333093    4.3333093    4.3333093   -16260.247   -10617.236   -35955.976   -2207.5297   -2511.8128    17022.927   -1841.6159    81.369018 
   95000    1235.9077   -105.90484    1.1182753   -104.78656    5884.4253    4.3133732    4.3133732    4.3133732    5884.4253   -11117.149   -21440.032    50210.457    17796.874   -4185.7307   -5019.9809    80.251121 
   95100    1081.0861   -105.77942   0.97818945   -104.80123   -1327.2118    4.3220242    4.3220242    4.3220242   -1327.2118    20886.347   -20445.397    -4422.585   -7944.6006    1020.5896   -45239.931    80.734949 
   95200    1365.8654   -106.03706    1.2358637    -104.8012   -4718.7071    4.3264166    4.3264166    4.3264166   -4718.7071   -20300.025   -6536.7469     12680.65    11147.306    18356.174    25983.009     80.98135 
   95300    1003.7778   -105.71376   0.90823923   -104.80552   -1028.3431    4.3246444    4.3246444    4.3246444   -1028.3431     19593.82   -1146.1372   -21532.712   -3100.9598   -8186.9824   -40818.477    80.881874 
   95400    1199.8845   -105.89063    1.0856807   -104.80495   -11384.288    4.3269191    4.3269191    4.3269191   -11384.288   -1907.1956   -30285.222   -1960.4474     4154.033    10159.988    4541.4172    81.009568 
   95500    1386.2908   -106.05694     1.254345   -104.80259    6853.3369    4.3124874    4.3124874    4.3124874    6853.3369    10224.184    1634.5124    8701.3146    3383.8648    12440.196    690.53207    80.201691 
   95600    1115.1123   -105.82113     1.008977   -104.81215    -7682.219    4.3252486    4.3252486    4.3252486    -7682.219   -139.93114   -7112.2333   -15794.492    2621.8912   -5824.1378   -49582.214     80.91578 
   95700    1318.6259   -105.99499    1.1931205   -104.80186   -12739.942    4.3352912    4.3352912    4.3352912   -12739.942   -26512.237    2147.7279   -13855.317    5229.1808    6745.1057    29263.173    81.480713 
   95800    926.44419   -105.64114   0.83826617   -104.80287   -2017.7899    4.3232422    4.3232422    4.3232422   -2017.7899   -9294.3944    6709.5784   -3468.5535    4197.5212    5901.7022   -30825.002    80.803223 
   95900    1362.1647   -106.02857    1.2325153   -104.79605    21360.759    4.3117556    4.3117556    4.3117556    21360.759     4880.603    20646.765    38554.909    1056.9459   -27756.228    2043.4663    80.160867 
   96000    1454.5468      -106.12    1.3161045    -104.8039   -215.43235    4.3233528    4.3233528    4.3233528   -215.43235    7567.1344    1488.1242   -9701.5557     5708.302    13629.754   -2707.1047    80.809427 
   96100    788.32893   -105.51771   0.71329658   -104.80441   -31683.221    4.3419646    4.3419646    4.3419646   -31683.221   -17044.895   -34767.605   -43237.162    -361.3002   -15741.833   -35542.223    81.857566 
   96200     1535.032   -106.17384    1.3889292   -104.78492    6769.2152    4.3192472    4.3192472    4.3192472    6769.2152    -8440.968    8934.2266    19814.387    5557.6047   -6816.5708    9745.4183     80.57943 
   96300    1057.7472   -105.75433   0.95707193   -104.79726    16823.848     4.311065     4.311065     4.311065    16823.848     45163.93   -21581.052    26888.665    1295.5635     31591.05    -22377.37    80.122356 
   96400    1225.5851   -105.91744    1.1089351   -104.80851   -5777.5906     4.325902     4.325902     4.325902   -5777.5906   -3173.4624   -5583.8265   -8575.4831    2759.5042   -32970.741   -3135.7385    80.952458 
   96500    1346.6013   -106.01471    1.2184332   -104.79627    3458.0018     4.330943     4.330943     4.330943    3458.0018    32578.744   -21766.343   -438.39593   -3000.7039    2257.8511   -2979.6031    81.235788 
   96600    772.32117   -105.50387   0.69881243   -104.80505   -20266.737     4.324053     4.324053     4.324053   -20266.737   -32672.747   -10552.756    -17574.71    4894.4882   -12413.739   -19515.606    80.848697 
   96700    1581.3819    -106.2274    1.4308676   -104.79653    13272.497     4.305253     4.305253     4.305253    13272.497   -8144.9651    17421.039    30541.418   -6224.4912   -30854.924    10323.572    79.798739 
   96800    1355.8704   -106.03214      1.22682   -104.80532   -5925.5569    4.3178801    4.3178801    4.3178801   -5925.5569    17029.816   -37136.925    2330.4389    784.12793    18053.998   -28699.494    80.502941 
   96900    880.22298   -105.60598   0.79644425   -104.80953   -30552.388    4.3295536    4.3295536    4.3295536   -30552.388    -56706.37    4732.4965    -39683.29   -989.43307   -29627.031   -587.59619    81.157631 
   97000    1336.9232   -106.00843    1.2096762   -104.79876    25180.574    4.3158953    4.3158953    4.3158953    25180.574    24595.213    483.74033    50462.768   -2467.5106   -6695.4776    3049.4292    80.391974 
   97100    1124.9555   -105.82237    1.0178834   -104.80448   -903.33053    4.3213328    4.3213328    4.3213328   -903.33053     5262.028   -18806.544    10834.524    5322.3512   -18529.117   -15072.597    80.696213 
   97200    1211.2927   -105.90045    1.0960031   -104.80445    3406.1418    4.3169841    4.3169841    4.3169841    3406.1418    17001.924    2671.7997   -9455.2988    -4740.696   -23615.363    15187.191    80.452837 
   97300    1301.9159   -105.98086    1.1780008   -104.80286    2649.1141    4.3213546    4.3213546    4.3213546    2649.1141    27769.742   -12273.969   -7548.4308    4151.3376    7768.7749    9969.3841    80.697434 
   97400    1199.1193   -105.89022    1.0849883   -104.80523    -18238.88    4.3234456    4.3234456    4.3234456    -18238.88   -34443.939   -290.40814   -19982.293    2621.7797    -22637.43   -12982.854    80.814631 
   97500    1102.9783   -105.80521   0.99799792   -104.80721     14793.46    4.3121745    4.3121745    4.3121745     14793.46    47882.963   -21900.655    18398.072   -1804.7904    5138.4607    29690.198    80.184231 
   97600    1550.2355   -106.20424    1.4026857   -104.80155    2561.8392    4.3216071    4.3216071    4.3216071    2561.8392   -14797.098    16027.768     6454.848    522.52658   -20025.616   -12302.376    80.711578 
   97700    938.97865    -105.6583   0.84960762    -104.8087    3909.5309    4.3171132    4.3171132    4.3171132    3909.5309    21587.501    12201.475   -22060.384    839.21057   -17317.509    19409.848    80.460054 
   97800    1121.1448   -105.82668    1.0144353   -104.81224    6732.4391    4.3213647    4.3213647    4.3213647    6732.4391    45701.889   -3333.5817    -22170.99   -12284.123    10751.781    18610.829    80.697997 
   97900    1689.5444   -106.32859    1.5287353   -104.79986     2612.941    4.3220328    4.3220328    4.3220328     2612.941    8435.6173     7581.181   -8177.9754   -2086.9454   -10131.395   -4608.4392    80.735435 
   98000    780.21851   -105.51464   0.70595811   -104.80868     17373.99     4.315607     4.315607     4.315607     17373.99    40158.224    13359.815   -1396.0702   -6516.6347    14715.872    42793.928    80.375867 
   98100    1294.2412   -105.96994    1.1710567   -104.79888   -1074.1918     4.327416     4.327416     4.327416   -1074.1918   -19139.733   -10422.735    26339.892   -16974.296    9242.6294   -17210.838    81.037482 
   98200    1202.0012   -105.88264    1.0875959   -104.79505    6949.6456    4.3230519    4.3230519    4.3230519    6949.6456    33483.934   -25054.182    12419.184    10562.259   -10620.469    24638.782    80.792557 
   98300    1120.1453   -105.81135     1.013531   -104.79782   -6417.6698    4.3150916    4.3150916    4.3150916   -6417.6698    18847.599   -21524.198   -16576.411   -19466.298    11132.626    11145.048    80.347073 
   98400    1470.4504    -106.1263    1.3304944    -104.7958    1852.0289    4.3200734    4.3200734    4.3200734    1852.0289    22204.765   -12399.804   -4248.8733   -2800.8335   -6094.2983   -27170.892    80.625679 
   98500    1105.2426   -105.80031    1.0000467   -104.80026   -9588.4269    4.3262716    4.3262716    4.3262716   -9588.4269      22542.5   -36483.261   -14824.519   -1106.6201   -2600.4571    33315.015    80.973207 
   98600     1023.032   -105.72288   0.92566086   -104.79722    3461.4247    4.3234586    4.3234586    4.3234586    3461.4247    9221.0747    -31971.82    33135.019   -13858.393   -5257.1736   -31370.168    80.815361 
   98700     1437.307   -106.09138    1.3005055   -104.79087    9079.6158    4.3128914    4.3128914    4.3128914    9079.6158    28966.212   -9091.9002    7364.5352    14837.979    407.51706    8120.2518    80.224234 
   98800    1117.6343    -105.8169     1.011259   -104.80565   -9459.6539    4.3134947    4.3134947    4.3134947   -9459.6539    14555.046    -34633.66   -8300.3474   -22591.503   -7661.8845    20544.594    80.257904 
   98900    1347.6138   -106.02638    1.2193493   -104.80703   -10650.019    4.3236646    4.3236646    4.3236646   -10650.019    4766.7252   -28990.518   -7726.2647    8559.2945    9319.3424   -20755.801    80.826911 
   99000    1410.4704   -106.07798    1.2762232   -104.80175   -2817.9679    4.3219413    4.3219413    4.3219413   -2817.9679    23198.055   -31713.182    61.223276   -15721.201    3407.3031    29706.091    80.730303 
   99100    1041.2844   -105.74336   0.94217605   -104.80119     -2287.58     4.322004     4.322004     4.322004     -2287.58   -8403.7394   -20263.711     21804.71   -14847.581    3486.1642    -2246.488    80.733818 
   99200    1238.4689   -105.91788    1.1205927   -104.79729    1523.5787    4.3179957    4.3179957    4.3179957    1523.5787    22648.035   -15383.627   -2693.6713    2563.7256    14123.398   -3083.3642    80.509406 
   99300     1238.045   -105.92181    1.1202091    -104.8016    8279.0093    4.3151556    4.3151556    4.3151556    8279.0093    33842.733   -33356.299    24350.593   -35051.648   -1830.4642    6620.5035    80.350647 
   99400    1376.5753   -106.04444    1.2455542   -104.79889   -14669.042    4.3259464    4.3259464    4.3259464   -14669.042   -12343.172   -881.26139   -30782.694    7372.5661    21968.458   -14397.294    80.954947 
   99500    1116.6077    -105.8082    1.0103301   -104.79787   -173.66437    4.3112921    4.3112921    4.3112921   -173.66437    29261.236   -23674.088   -6108.1409   -30216.757   -626.48987    5841.8178    80.135018 
   99600    1250.2328    -105.9297    1.1312369   -104.79846    12311.866    4.3148908    4.3148908    4.3148908    12311.866    13729.747   -11268.684    34474.536    -5280.829    83.766361   -1441.0937    80.335859 
   99700    1077.5012   -105.77545    0.9749457   -104.80051   -18457.047     4.329083     4.329083     4.329083   -18457.047   -11634.064   -24877.886   -18859.192   -2993.9213    9987.0277   -10652.694     81.13117 
   99800    1134.8614   -105.82309    1.0268464   -104.79625    14743.353    4.3145127    4.3145127    4.3145127    14743.353    17263.171   -30640.025    57606.913   -23878.628   -1082.4803    16284.697    80.314739 
   99900    1408.2962   -106.06678     1.274256   -104.79252    868.16996    4.3164325    4.3164325    4.3164325    868.16996    10579.069     1656.695   -9631.2538    18074.591   -3214.0041   -11687.057    80.422001 
  100000    830.24712   -105.54982   0.75122504   -104.79859   -11037.531    4.3201427    4.3201427    4.3201427   -11037.531    12616.785   -27374.561   -18354.818    -31755.49    11734.496   -5260.3214    80.629556 
Loop time of 22.0587 on 1 procs for 100000 steps with 8 atoms

Pair  time (%) = 7.05938 (32.0027)
Kspce time (%) = 5.26295 (23.8588)
Neigh time (%) = 0.0379219 (0.171914)
Comm  time (%) = 1.05181 (4.76823)
Outpt time (%) = 0.0219898 (0.0996878)
Other time (%) = 8.62465 (39.0987)

Nlocal:    8 ave 8 max 8 min
Histogram: 1 0 0 0 0 0 0 0 0 0
Nghost:    2189 ave 2189 max 2189 min
Histogram: 1 0 0 0 0 0 0 0 0 0
Neighs:    2198 ave 2198 max 2198 min
Histogram: 1 0 0 0 0 0 0 0 0 0

Total # of neighbors = 2198
Ave neighs/atom = 274.75
Neighbor list builds = 439
Dangerous builds = 0
unfix 20
unfix 21
print "seeds:3783218"
seeds:3783218
