LAMMPS (16 Mar 2018)
# ---- initialize simulations
clear
units metal
dimension 3
boundary p p p
atom_style charge
atom_modify map array
# ---- create atoms
read_data /home/manuelesp/repos/pypospack/dev/MgO_iterative_sampler/rank_3/MgO_NaCl_fr_a.lmps_min_pos/lammps.structure
  triclinic box = (0 0 0) to (12.3195 12.3195 12.3195) with tilt (0 0 0)
  1 by 1 by 1 MPI processor grid
  reading atoms ...
  216 atoms
# ---- define interatomic potential
include potential.mod
mass 1 24.305
mass 2 15.999

group Mg type 1
108 atoms in group Mg
group O type 2
108 atoms in group O

set group Mg charge 1.713768000698136
  108 settings made for charge
set group O charge -1.713768000698136
  108 settings made for charge

variable R_cut equal 10.0

pair_style buck/coul/long ${R_cut}
pair_style buck/coul/long 10
pair_coeff 1 1 0.0 0.5 0.0 ${R_cut}
pair_coeff 1 1 0.0 0.5 0.0 10
pair_coeff 1 2 1027.6516591691873 0.2934831246256318 0.0 ${R_cut}
pair_coeff 1 2 1027.6516591691873 0.2934831246256318 0.0 10
pair_coeff 2 2 21120.842859678647 0.18037284948043203 60.17316407089181 ${R_cut}
pair_coeff 2 2 21120.842859678647 0.18037284948043203 60.17316407089181 10

kspace_style pppm 1.0e-5

neighbor 1.0 bin
neigh_modify every 1 delay 0 check yes
# ---- define settings
compute eng all pe/atom
compute eatoms all reduce sum c_eng

# ---- run minimization
reset_timestep 0
thermo 1
thermo_style custom step pe lx ly lz xy xz yz press pxx pyy pzz pxy pxz pyz c_eatoms
min_style cg
minimize 1e-20 1e-20 1000 100000
PPPM initialization ...
  using 12-bit tables for long-range coulomb (../kspace.cpp:321)
  G vector (1/distance) = 0.340726
  grid = 18 18 18
  stencil order = 5
  estimated absolute RMS force accuracy = 0.000116718
  estimated relative force accuracy = 8.10562e-06
  using double precision FFTs
  3d grid and FFT values/proc = 15625 5832
Neighbor list info ...
  update every 1 steps, delay 0 steps, check yes
  max neighbors/atom: 2000, page size: 100000
  master list distance cutoff = 11
  ghost atom cutoff = 11
  binsize = 5.5, bins = 3 3 3
  1 neighbor lists, perpetual/occasional/extra = 1 0 0
  (1) pair buck/coul/long, perpetual
      attributes: half, newton on
      pair build: half/bin/newton/tri
      stencil: half/bin/3d/newton/tri
      bin: standard
Per MPI rank memory allocation (min/avg/max) = 6.741 | 6.741 | 6.741 Mbytes
Step PotEng Lx Ly Lz Xy Xz Yz Press Pxx Pyy Pzz Pxy Pxz Pyz c_eatoms 
       0   -3320.2318      12.3195      12.3195      12.3195            0            0            0    13844.747    13844.747    13844.747    13844.747   -1411.3168   -1411.3168   -1411.3168   -3320.2318 
       1   -3335.8071      12.3195      12.3195      12.3195            0            0            0    15152.327    15152.327    15152.327    15152.327    348.61318    348.61318    348.61318   -3335.8071 
       2   -3338.4595      12.3195      12.3195      12.3195            0            0            0    19601.729    19601.729    19601.729    19601.729    188.83292    188.83292    188.83292   -3338.4595 
       3   -3339.2534      12.3195      12.3195      12.3195            0            0            0    17564.914    17564.914    17564.914    17564.914   -314.81451   -314.81451   -314.81451   -3339.2534 
       4   -3339.5771      12.3195      12.3195      12.3195            0            0            0    18395.801    18395.801    18395.801    18395.801   -311.45524   -311.45524   -311.45524   -3339.5771 
       5   -3339.6733      12.3195      12.3195      12.3195            0            0            0    18771.463    18771.463    18771.463    18771.463   -314.19744   -314.19744   -314.19744   -3339.6733 
       6   -3339.7118      12.3195      12.3195      12.3195            0            0            0    18652.887    18652.887    18652.887    18652.887   -303.32123   -303.32123   -303.32123   -3339.7118 
       7   -3339.7242      12.3195      12.3195      12.3195            0            0            0    18726.893    18726.893    18726.893    18726.893   -301.91701   -301.91701   -301.91701   -3339.7242 
       8   -3339.7308      12.3195      12.3195      12.3195            0            0            0    18677.258    18677.258    18677.258    18677.258   -332.63431   -332.63431   -332.63431   -3339.7308 
       9   -3339.7331      12.3195      12.3195      12.3195            0            0            0     18769.16     18769.16     18769.16     18769.16   -323.70762   -323.70762   -323.70762   -3339.7331 
      10   -3339.7345      12.3195      12.3195      12.3195            0            0            0    18762.114    18762.114    18762.114    18762.114   -323.29348   -323.29348   -323.29348   -3339.7345 
      11   -3339.7348      12.3195      12.3195      12.3195            0            0            0      18779.2      18779.2      18779.2      18779.2   -318.69554   -318.69554   -318.69554   -3339.7348 
      12   -3339.7351      12.3195      12.3195      12.3195            0            0            0     18776.61     18776.61     18776.61     18776.61   -320.75167   -320.75167   -320.75167   -3339.7351 
      13   -3339.7351      12.3195      12.3195      12.3195            0            0            0    18773.667    18773.667    18773.667    18773.667   -320.30202   -320.30202   -320.30202   -3339.7351 
      14   -3339.7351      12.3195      12.3195      12.3195            0            0            0    18773.667    18773.667    18773.667    18773.667   -320.30202   -320.30202   -320.30202   -3339.7351 
Loop time of 0.871714 on 1 procs for 14 steps with 216 atoms

50.5% CPU use with 1 MPI tasks x no OpenMP threads

Minimization stats:
  Stopping criterion = linesearch alpha is zero
  Energy initial, next-to-last, final = 
        -3320.23180724     -3339.73511665     -3339.73511665
  Force two-norm initial, final = 43.897 0.0405717
  Force max component initial, final = 8.03926 0.00416895
  Final line search alpha, max atom move = 3.8147e-06 1.59033e-08
  Iterations, force evaluations = 14 62

MPI task timing breakdown:
Section |  min time  |  avg time  |  max time  |%varavg| %total
---------------------------------------------------------------
Pair    | 0.65428    | 0.65428    | 0.65428    |   0.0 | 75.06
Kspace  | 0.21105    | 0.21105    | 0.21105    |   0.0 | 24.21
Neigh   | 0.0037169  | 0.0037169  | 0.0037169  |   0.0 |  0.43
Comm    | 0.0016644  | 0.0016644  | 0.0016644  |   0.0 |  0.19
Output  | 0.0003891  | 0.0003891  | 0.0003891  |   0.0 |  0.04
Modify  | 0          | 0          | 0          |   0.0 |  0.00
Other   |            | 0.0006158  |            |       |  0.07

Nlocal:    216 ave 216 max 216 min
Histogram: 1 0 0 0 0 0 0 0 0 0
Nghost:    4697 ave 4697 max 4697 min
Histogram: 1 0 0 0 0 0 0 0 0 0
Neighs:    67672 ave 67672 max 67672 min
Histogram: 1 0 0 0 0 0 0 0 0 0

Total # of neighbors = 67672
Ave neighs/atom = 313.296
Neighbor list builds = 1
Dangerous builds = 0

# ---- define output variables ----
variable natoms equal "count(all)"
variable tot_energy equal "c_eatoms"
variable a11 equal "xhi-xlo"
variable a22 equal "yhi-ylo"
variable a33 equal "zhi-zlo"
variable tilt_xy equal "xy"
variable tilt_xz equal "xz"
variable tilt_yz equal "yz"
variable tot_press equal "press"
variable press_xx equal "pxx"
variable press_yy equal "pyy"
variable press_zz equal "pzz"
variable press_xy equal "pxy"
variable press_xz equal "pxz"
variable press_yz equal "pyz"

# ---- output ----
print "pypospack:output_section:begin"
pypospack:output_section:begin
print "tot_energy = ${tot_energy}"
tot_energy = -3339.73511664528
print "num_atoms = ${natoms}"
num_atoms = 216
print "a11 = ${a11}"
a11 = 12.3195
print "a22 = ${a22}"
a22 = 12.3195
print "a33 = ${a33}"
a33 = 12.3195
print "a12 = ${tilt_xy}"
a12 = 0
print "a13 = ${tilt_xz}"
a13 = 0
print "a23 = ${tilt_yz}"
a23 = 0
print "tot_press = ${tot_press}"
tot_press = 18773.6674835963
print "pxx = ${press_xx}"
pxx = 18773.6674835956
print "pyy = ${press_yy}"
pyy = 18773.667483598
print "pzz = ${press_zz}"
pzz = 18773.6674835954
print "pxy = ${press_xy}"
pxy = -320.302017225308
print "pxz = ${press_xz}"
pxz = -320.302017222249
print "pyz = ${press_yz}"
pyz = -320.302017222845
print "pypospack:output_section:done"
pypospack:output_section:done
print "pypospack:lammps_sim:done"
pypospack:lammps_sim:done
Total wall time: 0:00:00
