LAMMPS (10 Feb 2015)
# ---- initialize simulations
clear
units metal
dimension 3
boundary p p p
atom_style charge
atom_modify map array
# ---- create atoms
read_data /Users/eugeneragasa/pyflamestk_git/pypospack/tests/tests_integration/workflow/WorkflowLammpsThermalExpansion/param_2856/MgO_NaCl_unit.npt.T1700/lammps.structure
  triclinic box = (0 0 0) to (4.2565 4.2565 4.2565) with tilt (0 0 0)
  1 by 1 by 1 MPI processor grid
  reading atoms ...
  8 atoms
# ---- define interatomic potential
include potential.mod
mass 1 24.305
mass 2 15.999

group Mg type 1
4 atoms in group Mg
group O type 2
4 atoms in group O

set group Mg charge 1.71287520642
  4 settings made for charge
set group O charge -1.71287520642
  4 settings made for charge

variable R_cut equal 10.0

pair_style buck/coul/long ${R_cut}
pair_style buck/coul/long 10
pair_coeff 1 1 0.0 0.5 0.0 ${R_cut}
pair_coeff 1 1 0.0 0.5 0.0 10
pair_coeff 1 2 1268.25800143 0.292150986054 0.0 ${R_cut}
pair_coeff 1 2 1268.25800143 0.292150986054 0.0 10
pair_coeff 2 2 34972.2762623 0.190168709461 15.9037418312 ${R_cut}
pair_coeff 2 2 34972.2762623 0.190168709461 15.9037418312 10

kspace_style pppm 1.0e-5

neighbor 1.0 bin
neigh_modify every 1 delay 0 check yes
# ---- define settings
compute eng all pe/atom
compute eatoms all reduce sum c_eng
# ---- run minimization
reset_timestep 0
fix 1 all box/relax iso 0.0 vmax 0.001
thermo 10
thermo_style custom step pe lx ly lz xy xz yz press pxx pyy pzz pxy pxz pyz c_eatoms
min_style cg
minimize 1e-25 1e-25 5000 10000
PPPM initialization ...
  G vector (1/distance) = 0.353245
  grid = 8 8 8
  stencil order = 5
  estimated absolute RMS force accuracy = 4.15075e-05
  estimated relative force accuracy = 2.88254e-06
  using double precision FFTs
  3d grid and FFT values/proc = 3375 512
Neighbor list info ...
  1 neighbor list requests
  update every 1 steps, delay 0 steps, check yes
  master list distance cutoff = 11
Memory usage per processor = 4.06549 Mbytes
Step PotEng Lx Ly Lz Xy Xz Yz Press Pxx Pyy Pzz Pxy Pxz Pyz eatoms 
       0    -118.2398       4.2565       4.2565       4.2565            0            0            0    92099.563    92099.563    92099.563    92099.563 -2.6648665e-10 1.3518399e-10 2.2028947e-10    -118.2398 
      10   -118.33067     4.299065     4.299065     4.299065            0            0            0    34673.493    34673.493    34673.493    34673.493 -1.1760899e-11 -1.3745134e-10 -5.0678772e-11   -118.33067 
      18   -118.34767    4.3277342    4.3277342    4.3277342            0            0            0    -4.391814    -4.391814    -4.391814    -4.391814 -1.1240186e-10 -1.6034703e-10 -8.891662e-11   -118.34767 
Loop time of 0.012826 on 1 procs for 18 steps with 8 atoms

Minimization stats:
  Stopping criterion = linesearch alpha is zero
  Energy initial, next-to-last, final = 
        -118.239795936     -118.347671294     -118.347671294
  Force two-norm initial, final = 13.2992 0.00175014
  Force max component initial, final = 13.2992 0.000655584
  Final line search alpha, max atom move = 0.00390625 2.56088e-06
  Iterations, force evaluations = 18 35

Pair  time (%) = 0.00345635 (26.9481)
Kspce time (%) = 0.00211167 (16.464)
Neigh time (%) = 0 (0)
Comm  time (%) = 0.000388861 (3.03182)
Outpt time (%) = 2.00272e-05 (0.156145)
Other time (%) = 0.00684905 (53.3999)

Nlocal:    8 ave 8 max 8 min
Histogram: 1 0 0 0 0 0 0 0 0 0
Nghost:    2189 ave 2189 max 2189 min
Histogram: 1 0 0 0 0 0 0 0 0 0
Neighs:    2344 ave 2344 max 2344 min
Histogram: 1 0 0 0 0 0 0 0 0 0

Total # of neighbors = 2344
Ave neighs/atom = 293
Neighbor list builds = 0
Dangerous builds = 0
unfix 1
# ---- define output variables ----
variable natoms equal "count(all)"
variable tot_energy equal "c_eatoms"
variable length_x equal "lx"
variable length_y equal "ly"
variable length_z equal "lz"
variable tilt_xy equal "xy"
variable tilt_xz equal "xz"
variable tilt_yz equal "yz"
variable tot_press equal "press"
variable press_xx equal "pxx"
variable press_yy equal "pyy"
variable press_zz equal "pzz"
variable press_xy equal "pxy"
variable press_xz equal "pxz"
variable press_yz equal "pyz"

# ---- output ----
print "pypospack:output_section:begin"
pypospack:output_section:begin
print "tot_energy = ${tot_energy}"
tot_energy = -118.347671293792
print "num_atoms = ${natoms}"
num_atoms = 8
print "xx = ${length_x}"
xx = 4.32773421076983
print "yy = ${length_y}"
yy = 4.32773421076983
print "zz = ${length_z}"
zz = 4.32773421076983
print "xy = ${tilt_xy}"
xy = 0
print "xz = ${tilt_xz}"
xz = 0
print "yz = ${tilt_yz}"
yz = 0
print "tot_press = ${tot_press}"
tot_press = -4.39181402043263
print "pxx = ${press_xx}"
pxx = -4.39181402021402
print "pyy = ${press_yy}"
pyy = -4.39181402042068
print "pzz = ${press_zz}"
pzz = -4.39181402066319
print "pxy = ${press_xy}"
pxy = -1.12401857084108e-10
print "pxz = ${press_xz}"
pxz = -1.60347032595802e-10
print "pyz = ${press_yz}"
pyz = -8.89166196817966e-11
print "pypospack:output_section:done"
pypospack:output_section:done
print "pypospack:lammps_sim:done"
pypospack:lammps_sim:done
#------------------------------------------------------------------------------
# RUN THERMOSTAT
# running using an NPT Nose-Hoover style thermostat
#------------------------------------------------------------------------------
variable tempdamp equal 0.1
variable pressdamp equal 1.0
# set initial velocities
velocity all create 1700 6557841 mom yes dist gaussian loop all
# fix for Nose-Hoover style thermostat
fix 20 all npt temp 1700 1700 0.1 aniso 0.0 0.0 1.0 drag 1.0 couple xyz
variable boxx equal lx
variable boxy equal ly
variable boxz equal lz
variable boxp equal press
variable boxt equal temp
# calculate averages every 10000 steps
reset_timestep 0
fix 21 all ave/time 10 10 100 v_boxx v_boxy v_boxz v_boxp v_boxt file lattice.out
thermo_style custom step temp pe ke etotal press lx ly lz press pxx pyy pzz pxy pxz pyz vol
thermo_modify flush yes
thermo 100
run 100000
PPPM initialization ...
  G vector (1/distance) = 0.352508
  grid = 8 8 8
  stencil order = 5
  estimated absolute RMS force accuracy = 4.29555e-05
  estimated relative force accuracy = 2.9831e-06
  using double precision FFTs
  3d grid and FFT values/proc = 3375 512
Memory usage per processor = 3.06549 Mbytes
Step Temp PotEng KinEng TotEng Press Lx Ly Lz Press Pxx Pyy Pzz Pxy Pxz Pyz Volume 
       0         1700   -118.34768    1.5381957   -116.80949    20263.387    4.3277342    4.3277342    4.3277342    20263.387     14685.55    19258.177    26846.433    853.57366    1869.6485   -12864.508    81.055361 
     100    1003.4213   -117.53319   0.90791672   -116.62528     1816.243    4.3619105    4.3619105    4.3619105     1816.243   -5960.0945    5078.1626    6330.6609    6097.5968   -4313.3406    15610.301    82.990858 
     200    785.45048   -116.90692    0.7106921   -116.19623   -16276.007     4.405876     4.405876     4.405876   -16276.007   -47396.662   -44454.785    43023.426    12003.011   -9755.7264    23051.147    85.525733 
     300    2187.4309   -117.79268    1.9792334   -115.81344   -37264.958    4.4078627    4.4078627    4.4078627   -37264.958   -27871.825   -52714.217   -31208.831     5572.325   -11055.011   -5233.3081    85.641484 
     400    1661.6256   -117.04084    1.5034738   -115.53737   -3598.9185    4.3848904    4.3848904    4.3848904   -3598.9185   -4389.3116   -9195.4388    2787.9948    4565.4085    11810.076    12988.208    84.309443 
     500    757.51433   -116.04145   0.68541488   -115.35604    9915.2215    4.3881621    4.3881621    4.3881621    9915.2215    113.40625    3249.1832    26383.075    5996.1261   -7238.1062    34636.042      84.4983 
     600    1590.4924   -116.70064     1.439111   -115.26152    23871.159     4.412193     4.412193     4.412193    23871.159   -1142.6255    45174.018    27582.085   -86.902076   -2588.0196   -11224.838    85.894136 
     700    1613.2494   -116.67798    1.4597019   -115.21828   -26282.688    4.4370674    4.4370674    4.4370674   -26282.688   -27584.452    4560.8472   -55824.459   -15095.313    3885.3202    13039.482    87.355062 
     800    1251.7533   -116.32456    1.1326127   -115.19195    5464.2194    4.4138934    4.4138934    4.4138934    5464.2194   -16116.922    10236.991     22272.59    1617.4137     -17122.6    22330.594    85.993478 
     900    2605.5642   -117.52937    2.3575692    -115.1718   -2643.4398    4.3851589    4.3851589    4.3851589   -2643.4398    10963.665    18395.433   -37289.417   -19322.962    6070.1461    12429.518    84.324936 
    1000    1627.8622    -116.6914    1.4729239   -115.21848    2989.1117    4.3910667    4.3910667    4.3910667    2989.1117   -11712.269    3696.7726    16982.832    18392.395    3203.6999   -4912.7756    84.666209 
    1100    991.84185     -116.148   0.89743935   -115.25056   -2404.4806    4.4083418    4.4083418    4.4083418   -2404.4806   -33409.404    -4021.661    30217.623    12468.605   -19971.681   -118.96807     85.66941 
    1200    2092.2557   -117.14675    1.8931169   -115.25364    1041.3946    4.4099093    4.4099093    4.4099093    1041.3946    8936.8211   -19152.851    13340.214    1224.6832    -1545.444    5648.9216    85.760828 
    1300    2194.9279   -117.23408    1.9860169   -115.24806   -20594.665    4.3984445    4.3984445    4.3984445   -20594.665   -49346.108   -16919.531    4481.6441    28316.534   -9600.2654   -11004.898    85.093691 
    1400    1350.9397   -116.47373    1.2223586   -115.25137    23888.096    4.3799912    4.3799912    4.3799912    23888.096   -9281.0124    61726.103    19219.198    1491.6526   -27920.195    14791.403    84.027166 
    1500    1146.5735   -116.31571    1.0374438   -115.27826    26635.459    4.3944729    4.3944729    4.3944729    26635.459   -2426.9317    11119.308        71214    12112.356   -13288.075    13408.231    84.863387 
    1600    2308.2611   -117.33344    2.0885632   -115.24488   -46228.423    4.4157287    4.4157287    4.4157287   -46228.423   -72566.109   -57277.948   -8841.2133    36641.039     10826.07   -6910.9503     86.10079 
    1700    1911.5168   -116.95979    1.7295806    -115.2302   -13374.361    4.4011489    4.4011489    4.4011489   -13374.361   -33463.691    21243.992   -27903.385     1425.139   -11079.752   -22344.423    85.250748 
    1800     1748.511    -116.8137    1.5820895   -115.23161    17800.869    4.3892175    4.3892175    4.3892175    17800.869   -1493.4744   -26070.551    80966.632    6500.7904   -14220.849   -11327.524    84.559283 
    1900    2101.1408   -117.14075    1.9011563    -115.2396   -24019.066    4.4012669    4.4012669    4.4012669   -24019.066   -63462.539   -26111.688     17517.03    48807.231    4589.1303     10856.46    85.257605 
    2000    1668.6592   -116.74395    1.5098379   -115.23411   -16772.034    4.4094434    4.4094434    4.4094434   -16772.034     -23451.3   -25327.238   -1537.5639    361.07938   -39295.188    9043.9074    85.733653 
    2100     1603.217   -116.66788    1.4506244   -115.21726   -48680.134    4.4217769    4.4217769    4.4217769   -48680.134    -32897.43   -97847.633    -15295.34   -1465.4968   -716.37159    22224.012    86.455073 
    2200    1159.1639   -116.23449    1.0488358   -115.18566   -5879.5271    4.4078795    4.4078795    4.4078795   -5879.5271   -9472.4465   -70538.863    62372.728    36326.338     12095.92    15069.399    85.642462 
    2300    1954.4356   -116.93108    1.7684144   -115.16267    11825.813    4.3852942    4.3852942    4.3852942    11825.813    12882.069    13397.729    9197.6393    -8315.599   -21835.929   -11959.828    84.332739 
    2400    1244.9703   -116.34565    1.1264753   -115.21917   -7120.0012    4.4169068    4.4169068    4.4169068   -7120.0012    18509.337   -45664.035    5794.6946    33361.169    8785.9467    13180.176    86.169728 
    2500    1218.7707   -116.29818    1.1027694   -115.19541   -38023.336    4.4278218    4.4278218    4.4278218   -38023.336   -36159.661    -41724.79   -36185.556    54477.512   -15203.067    24432.546    86.810128 
    2600    1930.1163   -116.92084    1.7464098   -115.17443    25991.708    4.3772515    4.3772515    4.3772515    25991.708    18542.715     60954.99    -1522.581   -4826.2182   -16509.296   -10510.974    83.869586 
    2700    1848.0895   -116.87522    1.6721902   -115.20303    17488.053    4.3709773    4.3709773    4.3709773    17488.053    59842.532   -6452.8603   -925.51246    25043.986   -13335.614    68.026813    83.509455 
    2800    1463.2279   -116.57259    1.3239594   -115.24863    236.54227    4.4052412    4.4052412    4.4052412    236.54227    59109.342   -28113.395    -30286.32    20165.654    5348.4538    24971.372    85.488774 
    2900     1960.201   -116.99466    1.7736311   -115.22103   -1745.0016    4.4271664    4.4271664    4.4271664   -1745.0016    -21879.61    12995.264     3649.341    4235.3072   -14796.223   -7438.3702    86.771584 
    3000    1738.1538   -116.77247    1.5727181   -115.19975   -24855.148    4.4241789    4.4241789    4.4241789   -24855.148   -37840.868   -20529.781   -16194.795    3216.6051   -1025.3776   -15788.523    86.596042 
    3100    1413.6455   -116.46491    1.2790962   -115.18581    48607.117    4.3831512    4.3831512    4.3831512    48607.117    51150.514    72084.342    22586.496     33744.31    13779.348   -7881.7012    84.209166 
    3200    2112.3567    -117.1242    1.9113048    -115.2129    26350.442    4.3808034    4.3808034    4.3808034    26350.442   -30788.197    62719.475    47120.049   -3502.4236   -25070.302    12841.737    84.073922 
    3300     1590.908   -116.67272     1.439487   -115.23323   -18362.052     4.416853     4.416853     4.416853   -18362.052   -42899.709     16985.91   -29172.358   -17341.887   -11774.583   -9436.8363    86.166576 
    3400    1976.3773   -116.99626    1.7882677     -115.208   -10650.677    4.4194335    4.4194335    4.4194335   -10650.677   -13986.299    7227.3192   -25193.049     10104.81   -2617.0248   -2698.6772    86.317692 
    3500    1659.8879   -116.70699    1.5019015   -115.20509   -12829.023    4.4033401    4.4033401    4.4033401   -12829.023   -40046.923    55042.575   -53482.721    411.05217   -12247.943   -3925.2759    85.378141 
    3600    1461.4195   -116.52037     1.322323   -115.19805    17267.362    4.3856642    4.3856642    4.3856642    17267.362    -26835.67     52321.41    26316.345   -8627.4106    9560.9534   -10742.792    84.354086 
    3700    1444.8756   -116.53786    1.3073539   -115.23051   -5944.8556    4.4002505    4.4002505    4.4002505   -5944.8556   -22080.758    10319.601   -6073.4105    2767.7993   -949.78027    15487.748    85.198548 
    3800    2065.1662   -117.08156    1.8686058   -115.21295   -22623.265    4.4082475    4.4082475    4.4082475   -22623.265   -32352.527    27031.745   -62549.014   -4983.3107   -11394.895    29936.458    85.663915 
    3900    1580.7361   -116.64927    1.4302832   -115.21898   -11031.001    4.4065592    4.4065592    4.4065592   -11031.001   -1153.1202   -36760.236    4820.3532   -10960.246    4916.8333   -34864.929    85.565527 
    4000    1912.2132   -116.94551    1.7302107    -115.2153   -899.39685    4.4006076    4.4006076    4.4006076   -899.39685   -34088.499   -6564.7923    37955.101   -6674.0571   -11969.315   -42199.878    85.219293 
    4100    1838.2827   -116.88396    1.6633168   -115.22064    42091.697    4.3990763    4.3990763    4.3990763    42091.697   -12458.379    84711.521    54021.949   -23546.154   -179.19502    6205.0645     85.13036 
    4200    1677.2112   -116.74203     1.517576   -115.22445    18937.718    4.4054752    4.4054752    4.4054752    18937.718     -11553.9     81680.31   -13313.257   -20909.042    1565.5313   -17666.383    85.502396 
    4300    1978.3244   -117.00533    1.7900294    -115.2153   -19334.213    4.4188789    4.4188789    4.4188789   -19334.213   -46418.969   -8113.0446   -3470.6264    7937.3075   -11640.254   -31680.084    86.285195 
    4400    1722.9699   -116.76136    1.5589793   -115.20238   -37358.766    4.4132665    4.4132665    4.4132665   -37358.766   -54697.799   -51729.759   -5648.7408   -33866.505    -1808.813    23721.471    85.956841 
    4500    1295.6582   -116.37594    1.1723388    -115.2036    38381.218    4.3753029    4.3753029    4.3753029    38381.218     13885.47    90426.131    10832.053   -57635.559    -3426.693    4158.7809    83.757627 
    4600    2341.8888   -117.34424    2.1189902   -115.22525     15179.68    4.3796423    4.3796423    4.3796423     15179.68    26868.743    46081.846   -27411.548   -4803.1907   -248.75838   -30530.012    84.007086 
    4700    1502.9953   -116.61025    1.3599417   -115.25031   -7509.4134    4.4134395    4.4134395    4.4134395   -7509.4134   -30069.258    14704.362   -7163.3435   -20269.394    4860.0372    10575.611    85.966955 
    4800    1212.5015   -116.32246    1.0970968   -115.22537   -8494.9562    4.4176227    4.4176227    4.4176227   -8494.9562   -19404.524   -12381.437    6301.0932   -27445.892   -1236.1778    14191.175    86.211634 
    4900    2033.1294    -117.0204    1.8396182   -115.18078    19625.455    4.3985897    4.3985897    4.3985897    19625.455    43239.575    21483.949   -5847.1586    3165.0813    6334.0761   -2382.9286    85.102119 
    5000    1838.4467   -116.85518    1.6634652   -115.19171   -25685.236    4.3904546    4.3904546    4.3904546   -25685.236   -28239.619     -37948.6    -10867.49    -19699.73    14294.346    4451.5169    84.630805 
    5100    635.50328   -115.80158   0.57501672   -115.22657    20508.916    4.3898556    4.3898556    4.3898556    20508.916    3320.5341    8200.6243     50005.59   -20456.028   -444.93784    5622.5696     84.59617 
    5200    1924.8175   -116.97029    1.7416153   -115.22868    23302.266    4.4027346    4.4027346    4.4027346    23302.266    19285.491    45190.141    5431.1657    14674.693    6554.5799   -13709.532    85.342922 
    5300    1807.4588     -116.855    1.6354267   -115.21957    -8381.539    4.4145451    4.4145451    4.4145451    -8381.539   -23071.605    24439.268    -26512.28    5037.6662    9107.0912    8068.9117    86.031572 
    5400    1551.9245   -116.59586    1.4042139   -115.19164   -32824.076    4.4056642    4.4056642    4.4056642   -32824.076   -24878.747   -36309.864   -37283.618   -48810.502    14980.582    7529.9474    85.513401 
    5500    2157.9357    -117.1283    1.9525456   -115.17576    10305.279    4.3829179    4.3829179    4.3829179    10305.279    30811.348   -680.63279    785.12154    10614.865   -2395.9825   -21744.376    84.195719 
    5600      1933.87   -116.95063    1.7498063   -115.20082    13787.968    4.3844227    4.3844227    4.3844227    13787.968     39446.56    22607.418   -20690.075    2810.6253    5732.6777    4775.7183     84.28247 
    5700    1996.6226   -117.02451    1.8065861   -115.21792    -27356.29    4.4076982    4.4076982    4.4076982    -27356.29   -37065.143   -46305.422    1301.6957    -35956.22    5356.7097    4307.9552    85.631892 
    5800    1901.0303   -116.90932    1.7200921   -115.18923   -24166.154    4.4129015    4.4129015    4.4129015   -24166.154    27475.838   -38382.143   -61592.156   -1960.2067   -10197.704    -27109.25    85.935518 
    5900    2014.7425   -117.00863    1.8229814   -115.18565   -30737.336    4.4030374    4.4030374    4.4030374   -30737.336   -21287.881   -17278.188   -53645.939   -4562.7315   -8169.4227   -17627.952    85.360534 
    6000    2008.4085   -117.00706    1.8172502   -115.18981   -17718.454    4.3862498    4.3862498    4.3862498   -17718.454   -41798.234   -21819.993    10462.864   -39079.526    15925.059    3731.4943    84.387884 
    6100    1503.2465    -116.5773     1.360169   -115.21713    19002.503    4.3719489    4.3719489    4.3719489    19002.503   -32519.192    100255.59   -10728.893   -200.47063   -9107.7088   -3059.0964    83.565159 
    6200    1347.4357   -116.47934    1.2191881   -115.26016   -5078.8527    4.3887436    4.3887436    4.3887436   -5078.8527    33513.024    12067.257   -60816.839    17445.054   -19385.211    -27680.75    84.531897 
    6300    1711.7113   -116.78687    1.5487923   -115.23808   -2769.0138    4.3964608    4.3964608    4.3964608   -2769.0138   -25716.767    52171.549   -34761.824   -4247.0434    12189.445   -12491.486    84.978606 
    6400    1957.8252    -116.9935    1.7714814   -115.22202   -7240.6236    4.3955217    4.3955217    4.3955217   -7240.6236   -24289.531    36452.798   -33885.138   -18705.937   -19246.131    2543.3876    84.924165 
    6500    1785.8757   -116.83975    1.6158979   -115.22385   -41458.696    4.4042565    4.4042565    4.4042565   -41458.696   -38424.631   -59375.468   -26575.988    37552.099   -6200.0924   -1667.6432    85.431459 
    6600    2074.2271   -117.08486    1.8768042   -115.20805   -22371.401    4.3961572    4.3961572    4.3961572   -22371.401    5171.5349   -25514.666   -46771.072    13709.397    9164.3835    9136.5855    84.961008 
    6700    2271.4598   -117.25802    2.0552646   -115.20276   -13603.048    4.3999054    4.3999054    4.3999054   -13603.048   -29630.792    6832.2253   -18010.576   -3356.3808   -14857.904        10030    85.178503 
    6800    1372.8952   -116.44649    1.2422244   -115.20426   -8987.4168     4.402038     4.402038     4.402038   -8987.4168   -50666.844   -20684.272    44388.865     26680.82   -8382.3679    -11765.96     85.30242 
    6900    1322.6393   -116.39084    1.1967518   -115.19409     16463.38    4.3911339    4.3911339    4.3911339     16463.38    32617.991    1153.2143    15618.935   -7069.0441    6309.6593    -1413.658    84.670094 
    7000    2216.5454   -117.19734    2.0055769   -115.19176   -9944.9844      4.39078      4.39078      4.39078   -9944.9844   -18132.386    14238.439   -25941.006   -9296.7758   -10919.572    14623.676    84.649626 
    7100    1200.5291   -116.29843    1.0862639   -115.21217    7950.0452    4.3911981    4.3911981    4.3911981    7950.0452   -25922.565    10690.318    39082.382    33133.314   -21266.843    -8772.295    84.673809 
    7200    1294.7716    -116.3905    1.1715365   -115.21896     1689.065    4.3918899    4.3918899    4.3918899     1689.065    478.19631   -18068.523    22657.522   -1752.5772    8282.2882   -14595.041    84.713832 
    7300    2154.5472   -117.16105    1.9494796   -115.21157   -17627.771    4.4031242    4.4031242    4.4031242   -17627.771    15225.813   -26974.404   -41134.722   -6265.6218     2351.005    931.06813    85.365584 
    7400    1552.5859   -116.62298    1.4048123   -115.21816   -4412.7091    4.3956668    4.3956668    4.3956668   -4412.7091   -56160.648    10204.546    32717.975   -6271.5575   -6248.5547   -13504.337    84.932574 
    7500     1744.393   -116.78568    1.5783635   -115.20731    17477.116    4.3774779    4.3774779    4.3774779    17477.116    43815.191   -5585.1479    14201.305    3582.1103    2075.4041    -18173.25    83.882598 
    7600     1998.183   -117.02521     1.807998   -115.21721    6666.3351    4.3875616    4.3875616    4.3875616    6666.3351    5101.6488    17988.202   -3090.8458   -4799.4742    10727.518    22394.428    84.463615 
    7700     1653.012   -116.71109      1.49568   -115.21541   -30970.582    4.4066572    4.4066572    4.4066572   -30970.582   -11708.388   -69992.001   -11211.357   -32938.364   -7136.1332   -9547.5374    85.571234 
    7800    1462.5601    -116.5364    1.3233551   -115.21305   -23162.959    4.3930304    4.3930304    4.3930304   -23162.959    3769.0444   -47889.112   -25368.809    16217.585    11039.387   -52793.795    84.779848 
    7900    2051.8683   -117.05067    1.8565735   -115.19409    32036.925    4.3649673    4.3649673    4.3649673    32036.925    47216.542   -2467.5288    51361.763   -14455.807    376.60447    6012.0716    83.165459 
    8000    1396.8894   -116.50993    1.2639349   -115.24599   -2273.8373    4.3920313    4.3920313    4.3920313   -2273.8373   -34710.606   -23528.819    51417.914   -26749.789   -12043.932    -17647.24    84.722016 
    8100    1692.1714   -116.74864    1.5311122   -115.21753   -32099.124    4.4066671    4.4066671    4.4066671   -32099.124   -35440.794   -66885.205    6028.6259     21682.49    673.70523    -26287.55    85.571809 
    8200    1190.8841   -116.27791     1.077537   -115.20038    18480.006    4.3907003    4.3907003    4.3907003    18480.006   -7948.1407    10946.963    52441.196   -34227.663    3266.7668    3178.8547    84.645012 
    8300    1974.1379   -116.97992    1.7862414   -115.19368    -15444.63    4.3908772    4.3908772    4.3908772    -15444.63    -8268.485   -43359.072    5293.6681   -20828.514   -2073.6495   -5839.7389    84.655246 
    8400    1372.9869   -116.44926    1.2423074   -115.20696    36073.568    4.3886664    4.3886664    4.3886664    36073.568    7862.5115    14397.029    85961.164     16002.74    1305.4526   -18015.527    84.527439 
    8500    1716.7387    -116.7699    1.5533413   -115.21655   -6500.9623    4.3867775    4.3867775    4.3867775   -6500.9623   -28643.854    5679.4876    3461.4795   -48496.431    -13072.85   -7548.8132     84.41834 
    8600    2180.0923   -117.18063    1.9725934   -115.20804    24142.931    4.3876469    4.3876469    4.3876469    24142.931   -991.57882    6780.1895    66640.183   -513.88463    905.98698    11105.067    84.468546 
    8700    1744.4599   -116.80692     1.578424   -115.22849   -544.92806    4.3887634    4.3887634    4.3887634   -544.92806   -10394.382    6289.5871    2470.0104   -5570.9932   -4601.5048    4084.1476    84.533046 
    8800    1728.3809   -116.80011    1.5638754   -115.23624    6046.2487    4.3986751    4.3986751    4.3986751    6046.2487   -18423.068    20255.309    16306.505   -47463.718   -7230.4422   -18301.267    85.107074 
    8900    2660.1163   -117.61663    2.4069291    -115.2097   -29265.211    4.4049242    4.4049242    4.4049242   -29265.211   -8274.1688   -43742.642   -35778.821   -4469.4767    9730.8421    21012.648    85.470318 
    9000     1671.131   -116.71349    1.5120744   -115.20141    21959.602    4.3754543    4.3754543    4.3754543    21959.602    30623.521    38421.195   -3165.9106    1439.2921   -5554.0925    15423.885    83.766324 
    9100    1907.2012   -116.95297    1.7256757   -115.22729    17463.734    4.3791978    4.3791978    4.3791978    17463.734   -590.47122   -15970.303    68951.977   -22846.181   -3394.1917    -16775.08    83.981512 
    9200    1716.8317   -116.77885    1.5534254   -115.22543    -15365.26    4.4104669    4.4104669    4.4104669    -15365.26    27247.617   -28055.645   -45287.752    17676.045   -4128.2771    28884.671    85.793364 
    9300    1962.1333   -116.98926    1.7753795   -115.21389   -31731.101    4.3886168    4.3886168    4.3886168   -31731.101    -34572.56   -38240.789   -22379.954   -38968.508    3526.6839    15413.447    84.524575 
    9400    1842.6843    -116.8712    1.6672994    -115.2039    28204.035    4.3710083    4.3710083    4.3710083    28204.035    37591.989    9823.9182    37196.197   -35216.733    5789.1053   -16932.691    83.511234 
    9500    2153.9519   -117.16471    1.9489409   -115.21577   -12974.844    4.3933503    4.3933503    4.3933503   -12974.844   -5461.5697   -7891.0405   -25571.921    26110.557   -13273.349    26368.142    84.798369 
    9600    1150.2356   -116.26853    1.0407573   -115.22778   -8668.8043    4.3984917    4.3984917    4.3984917   -8668.8043   -18942.416    16910.347   -23974.344   -1708.7566   -7082.0484    8373.9199    85.096427 
    9700    2063.7538   -117.08789    1.8673279   -115.22056   -6901.3251    4.3916588    4.3916588    4.3916588   -6901.3251   -23413.365    9534.2539   -6824.8644   -35687.951   -8597.1332   -1802.4962    84.700463 
    9800    1772.4281   -116.82593    1.6037302    -115.2222    11470.908    4.3994585    4.3994585    4.3994585    11470.908   -26551.241     87110.05   -26146.086    15073.348    1241.2466    10972.809    85.152551 
    9900     1051.347   -116.18297   0.95128088   -115.23169   -31740.648    4.3923854    4.3923854    4.3923854   -31740.648   -43045.538   -43696.219   -8480.1876   -19626.882    9786.5357    31755.107     84.74251 
   10000    1698.1539   -116.74819    1.5365253   -115.21166    9499.7651    4.3736839    4.3736839    4.3736839    9499.7651   -27155.838    52847.309    2807.8249   -16471.091   -2615.8276    18742.975    83.664682 
   10100    1910.0306   -116.96328    1.7282358   -115.23505    127.71555     4.402615     4.402615     4.402615    127.71555   -28671.654    46441.072   -17386.272    4668.7486    7288.4038    -8349.266    85.335968 
   10200    1302.3587   -116.39705    1.1784015   -115.21865   -42443.329    4.4145513    4.4145513    4.4145513   -42443.329   -48158.726   -62944.006   -16227.254   -44526.275   -11932.995    9660.7441     86.03194 
   10300    1413.3788   -116.47546    1.2788548   -115.19661    24272.259     4.387199     4.387199     4.387199    24272.259    48103.954    33657.025   -8944.2036    145.72814    10578.249     9554.222    84.442678 
   10400    1947.3685   -116.96267      1.76202   -115.20065    4479.4083    4.3903225    4.3903225    4.3903225    4479.4083    7708.1592   -710.26485    6440.3307    7774.3213    13637.641   -20950.312    84.623169 
   10500    1095.7191   -116.20891   0.99142965   -115.21748   -24669.682    4.3957143    4.3957143    4.3957143   -24669.682   -39067.349   -44746.474     9804.778   -56711.187   -9687.8131      6640.82    84.935328 
   10600    1394.7526   -116.47447    1.2620014   -115.21247    21166.711    4.3938465    4.3938465    4.3938465    21166.711    39256.642   -45863.809    70107.299   -19711.631   -803.46509     17206.24    84.827102 
   10700    2092.0926    -117.0966    1.8929693   -115.20363   -5721.0439     4.410322     4.410322     4.410322   -5721.0439     4626.056   -2831.0072    -18958.18    14226.976   -10703.536   -30212.659    85.784912 
   10800    1056.3814    -116.1562   0.95583613   -115.20037   -16618.405    4.4049746    4.4049746    4.4049746   -16618.405      6670.54   -54294.188   -2231.5674   -35882.919   -332.09321    18360.263    85.473249 
   10900    1879.8933   -116.88642    1.7009669   -115.18545    7606.8001    4.3890681    4.3890681    4.3890681    7606.8001     54380.82   -20659.734   -10900.686   -9837.2411   -6610.2383    17837.671    84.550649 
   11000     2227.991   -117.20875     2.015933   -115.19281     3231.322      4.39274      4.39274      4.39274     3231.322    17166.257   -28360.322    20888.031    1636.0211   -2983.8502   -18202.351    84.763034 
   11100    1153.1363   -116.26883     1.043382   -115.22544   -23443.581    4.3917659    4.3917659    4.3917659   -23443.581     7568.848   -74159.896    -3739.695   -63871.523    6354.2842    19196.352    84.706657 
   11200    1829.4707    -116.8826    1.6553435   -115.22726    -7218.637    4.3791785    4.3791785    4.3791785    -7218.637    -10852.38   -17302.555    6499.0248   -31176.661   -2014.4496    5008.7329    83.980403 
   11300     2528.358   -117.52468    2.2877115   -115.23697    9438.7896    4.3886395    4.3886395    4.3886395    9438.7896    3913.3491    28031.683   -3628.6637    24123.986     -6683.05   -7093.0002    84.525883 
   11400    966.28217   -116.11903   0.87431241   -115.24472      7006.56    4.4141933    4.4141933    4.4141933      7006.56    3184.2039    2981.7293    14853.747   -33501.033   -14618.293    3199.1654    86.011011 
   11500    1560.6042   -116.61421    1.4120675   -115.20215    2587.0976    4.4117976    4.4117976    4.4117976    2587.0976   -28605.391    15676.576    20690.107   -29374.463    6480.7027    8478.9043    85.871043 
   11600    2144.0579   -117.11167    1.9399886   -115.17168      21581.9     4.385631     4.385631     4.385631      21581.9    -14789.25    69730.693    9804.2568    16842.773    7972.6809   -28312.047    84.352172 
   11700     1402.126   -116.46325    1.2686731   -115.19458     18819.39    4.3761095    4.3761095    4.3761095     18819.39   -14632.948     4964.343    66126.774    -39888.96   -13487.735   -3477.2303    83.803961 
   11800    1693.1748   -116.75776    1.5320201   -115.22574   -3745.4463    4.3974919    4.3974919    4.3974919   -3745.4463   -24332.898   -4566.8825    17663.442   -14741.049     3215.874    1667.4472    85.038414 
   11900    1465.4656   -116.53806    1.3259841   -115.21207    4137.2336    4.4070695    4.4070695    4.4070695    4137.2336   -21696.742    27040.827    7067.6157    17554.599    31034.504   -5855.6979    85.595255 
   12000    1239.6068   -116.30872    1.1216223    -115.1871     7404.235    4.4030125    4.4030125    4.4030125     7404.235    31565.043    -993.8009   -8358.5368   -21282.772    4068.5112   -6790.3878    85.359088 
   12100    1581.9963    -116.6097    1.4314235   -115.17828    7504.5906    4.4057259    4.4057259    4.4057259    7504.5906    69097.266   -41334.329   -5249.1651   -1456.7656   -738.52803   -15742.532    85.516992 
   12200    999.19224   -116.09806   0.90409014   -115.19397    2547.7688    4.4094864    4.4094864    4.4094864    2547.7688    42624.291    -32543.89   -2437.0943   -3646.4728    18156.092    -795.9025    85.736158 
   12300    1484.8892   -116.52804     1.343559   -115.18448      15031.7    4.3984815    4.3984815    4.3984815      15031.7    67267.801   -2981.7487   -19190.952   -28978.789   -4176.9204    367.62985    85.095834 
   12400    1745.4573   -116.76775    1.5793264   -115.18842    32498.309    4.3913897    4.3913897    4.3913897    32498.309    31910.816    47060.894    18523.216   -14339.386     9922.436     9505.983    84.684892 
   12500    1502.7962   -116.56553    1.3597616   -115.20577   -42590.369    4.4105063    4.4105063    4.4105063   -42590.369   -75774.267   -33463.421   -18533.419   -9095.4164    27972.106    5651.9101    85.795663 
   12600    1958.3838   -116.97069    1.7719868    -115.1987   -2564.7308    4.3947016    4.3947016    4.3947016   -2564.7308    33935.726   -51004.187     9374.269   -12804.455   -16673.135   -16753.943    84.876637 
   12700    2118.6323    -117.1142     1.916983   -115.19722    6410.8061    4.3813682    4.3813682    4.3813682    6410.8061   -19081.623    30495.002    7819.0397   -8159.3644    11356.033    2566.6846     84.10644 
   12800    1347.0105   -116.44474    1.2188034   -115.22593    1318.7279    4.3957055    4.3957055    4.3957055    1318.7279    22335.914    1880.9004    -20260.63    17165.263    36528.262    4490.9091    84.934818 
   12900    1824.3277   -116.87084    1.6506901   -115.22015   -9836.1216    4.4078596    4.4078596    4.4078596   -9836.1216     26038.02   -52241.408   -3304.9772    -19003.54   -18151.994    3704.5886      85.6413 
   13000    2465.1394    -117.4261    2.2305099   -115.19559   -24805.806    4.3976321    4.3976321    4.3976321   -24805.806   -35575.817   -18582.306   -20259.297   -17708.112    16257.423    529.35386    85.046549 
   13100    1424.4134   -116.49002    1.2888392   -115.20118    3117.4045     4.383505     4.383505     4.383505    3117.4045    41021.144    6080.5928   -37749.523    24246.313    26982.561   -11772.041    84.229559 
   13200    1461.8862   -116.54052    1.3227454   -115.21778   -20947.448    4.3820805    4.3820805    4.3820805   -20947.448   -19750.704   -27446.926   -15644.713    -28011.41    1183.7162    -11244.89    84.147471 
   13300    1965.2745   -117.00924    1.7782217   -115.23102    1003.0593     4.390295     4.390295     4.390295    1003.0593    36363.824   -12782.054   -20572.591    2186.5892   -11977.952   -15137.101    84.621574 
   13400    1923.6271   -116.96364    1.7405382    -115.2231   -52108.736    4.4132878    4.4132878    4.4132878   -52108.736   -51092.319   -35861.864   -69372.025   -5472.7767    14282.711    6899.8352    85.958088 
   13500    1097.3258   -116.19539    0.9928834   -115.20251   -28312.856    4.4023862    4.4023862    4.4023862   -28312.856   -25470.701   -45376.271   -14091.596   -26979.533   -5554.7217   -18309.525    85.322665 
   13600    1935.1959   -116.92861    1.7510059   -115.17761    8816.4156    4.3766538    4.3766538    4.3766538    8816.4156    29286.145   -13111.074    10274.177    10884.603   -14410.992   -3498.7877    83.835233 
   13700    1461.7268   -116.53343    1.3226011   -115.21083   -731.95955     4.390273     4.390273     4.390273   -731.95955     -284.864    12558.449   -14469.463   -8187.4984    5253.7332    8958.2544    84.620306 
   13800    1356.0945   -116.44375    1.2270228   -115.21672   -33056.341    4.4005799    4.4005799    4.4005799   -33056.341   -22156.192   -55968.905   -21043.925   -33751.356   -4319.0115   -7859.6956    85.217687 
   13900    1814.7753   -116.83949    1.6420469   -115.19745      21642.4    4.3919651    4.3919651    4.3919651      21642.4    52451.446    3137.6241    9338.1308    14706.486   -9324.8753   -8874.6467    84.718183 
   14000    1586.0235   -116.63208    1.4350674   -115.19701    6178.5892     4.396535     4.396535     4.396535    6178.5892    18932.783   -383.26854    -13.74694   -307.42211    11762.858    18186.063    84.982909 
   14100    1372.1586   -116.43496    1.2415579    -115.1934   -9395.3714    4.3996111    4.3996111    4.3996111   -9395.3714    21329.233   -44681.539   -4833.8084   -40791.607    4114.9121   -12156.269    85.161417 
   14200    2016.8028   -117.00563    1.8248456   -115.18078     2594.061    4.3848712    4.3848712    4.3848712     2594.061     67755.71   -28014.564   -31958.963   -4231.3662     295.7192    5994.2605     84.30834 
   14300    1769.4192   -116.80182    1.6010077   -115.20081    5179.6888    4.3769381    4.3769381    4.3769381    5179.6888    50518.025    -8035.331   -26943.628   -8195.0427    7311.9058    16183.337    83.851573 
   14400    738.10619   -115.90404   0.66785399   -115.23618    7039.3054    4.3875925    4.3875925    4.3875925    7039.3054   -26256.876    29369.053    18005.739   -67053.313    754.04354   -3882.4511    84.465401 
   14500    2119.2309   -117.12551    1.9175246   -115.20798    -24925.46    4.3897301    4.3897301    4.3897301    -24925.46    2724.3799   -40318.911   -37181.849   -12206.967   -797.03776    19157.747    84.588914 
   14600    1259.2325   -116.35946      1.13938   -115.22008    27932.295    4.3856573    4.3856573    4.3856573    27932.295    56124.962    34441.938    -6770.016    3315.9345   -2622.0842    12067.516     84.35369 
   14700    1560.9772   -116.63871     1.412405    -115.2263   -14307.862    4.3960525    4.3960525    4.3960525   -14307.862   -24176.675   -11080.182   -7666.7291   -47569.149   -6454.5498   -12763.387    84.954935 
   14800    1718.7346   -116.75998    1.5551472   -115.20483    19947.502    4.4042037    4.4042037    4.4042037    19947.502    39547.375    63796.144   -43501.014   -14519.905    11984.474    10728.765    85.428382 
   14900     1974.633   -116.99245    1.7866895   -115.20576   -18550.134    4.4045431    4.4045431    4.4045431   -18550.134    9701.0771   -31627.444   -33724.034   -8093.6601    2919.6995    8097.8462    85.448138 
   15000    1219.6649   -116.32553    1.1035785   -115.22195   -4157.2979    4.3767742    4.3767742    4.3767742   -4157.2979   -14467.213   -35913.829    37909.149   -62578.459    -4090.133    9679.5747    83.842156 
   15100    1785.5849   -116.83285    1.6156348   -115.21721    35209.068    4.3601338    4.3601338    4.3601338    35209.068    27234.382    67235.609    11157.214    -4681.822    3767.0892   -13435.875    82.889487 
   15200    2417.1799   -117.44522    2.1871152    -115.2581   -23102.401    4.4021978    4.4021978    4.4021978   -23102.401    -44872.19     14023.35   -38458.362    10608.848    6354.3089    3264.8448    85.311711 
   15300    1287.0193   -116.38673    1.1645221   -115.22221   -12134.645    4.4313117    4.4313117    4.4313117   -12134.645   -3429.9954    2819.7555   -35793.695   -44368.742   -7302.6047    2131.1105    87.015553 
   15400     1546.164   -116.56016    1.3990017   -115.16116    3959.7709     4.423901     4.423901     4.423901    3959.7709    17900.356    26553.375   -32574.419    15132.393   -3813.6375     -1470.41    86.579727 
   15500    1479.6957   -116.48827    1.3388598   -115.14941   -3007.9732    4.3908052    4.3908052    4.3908052   -3007.9732    18342.824   -52978.432    25611.688   -21788.671    5517.8192    17122.131     84.65108 
   15600    1512.3659   -116.52475    1.3684204   -115.15632    32270.782    4.3544342    4.3544342    4.3544342    32270.782    60466.826   -28988.765    65334.284   -41427.313    2322.4944   -6704.0336    82.564849 
   15700    1973.2519   -117.01752    1.7854398   -115.23208    6983.0853    4.3760681    4.3760681    4.3760681    6983.0853    8722.2624    7552.4638    4674.5296    20846.856   -2153.2464    228.91102     83.80158 
   15800    1741.9851   -116.80746    1.5761848   -115.23127   -19600.444    4.4207165    4.4207165    4.4207165   -19600.444    28271.944   -31994.761   -55078.515    -19674.99    15056.531    17856.157    86.392886 
   15900    1431.9857   -116.49389    1.2956907    -115.1982   -1684.9542    4.4206042    4.4206042    4.4206042   -1684.9542    19859.819   -17261.431   -7653.2504   -38839.367    6327.7662   -15240.904    86.386307 
   16000    2288.8405   -117.23357     2.070991   -115.16258    33367.815    4.3769794    4.3769794    4.3769794    33367.815    33337.056    42066.207    24700.183    21717.643   -11330.869   -16066.073    83.853949 
   16100    2148.7439   -117.11317    1.9442286   -115.16894    18501.528    4.3495815    4.3495815    4.3495815    18501.528    8599.4155    15292.823    31612.345   -46054.571    4249.0218    12423.729     82.28912 
   16200    1271.3295   -116.39146    1.1503256   -115.24114    38798.343    4.3733132    4.3733132    4.3733132    38798.343    20803.137     35715.28    59876.612   -15284.009    8671.3079    22637.994    83.643411 
   16300    2037.9472   -117.06171    1.8439774   -115.21773   -29956.252     4.413411     4.413411     4.413411   -29956.252   -42667.791   -3926.9438   -43274.021    10479.112   -9096.3559   -8257.0066    85.965285 
   16400    1492.9416   -116.54244    1.3508449   -115.19159    -38110.46    4.4161717    4.4161717    4.4161717    -38110.46   -55458.235   -63189.904    4316.7589   -50927.363   -530.70718     27931.64    86.126711 
   16500    1587.2905   -116.61479    1.4362138   -115.17857   -3204.7406    4.3899616    4.3899616    4.3899616   -3204.7406    5390.1141   -23426.811    8422.4752   -4564.8279   -12375.379    20591.832    84.602299 
   16600    2150.6066   -117.12557     1.945914   -115.17966   -7593.9867    4.3721349    4.3721349    4.3721349   -7593.9867   -34116.945   -21260.294    32595.279   -7969.5303   -1807.8242    3504.0622    83.575822 
   16700    1019.6935   -116.15065   0.92264008   -115.22801    21968.342    4.3830855    4.3830855    4.3830855    21968.342   -15759.147   -7837.1918    89501.365    -61548.86    8711.6597   -8016.7427    84.205378 
   16800    2060.3002   -117.08715    1.8642029   -115.22294   -13200.616    4.4049387    4.4049387    4.4049387   -13200.616    -21315.69    24094.974   -42381.131    16046.755    3406.9306    9876.9541    85.471163 
   16900    1351.2611   -116.43317    1.2226494   -115.21052    8305.1389    4.3964907    4.3964907    4.3964907    8305.1389   -35397.193    29829.209      30483.4   -24163.288   -18690.848    2817.4671    84.980344 
   17000    1921.4998   -116.93411    1.7386134    -115.1955    4007.4575    4.3727816    4.3727816    4.3727816    4007.4575   -8780.7042   -4289.8048    25092.881   -58252.866    16901.063   -6169.7302    83.612914 
   17100    1942.9165   -116.96449    1.7579917   -115.20649     48553.16    4.3646427    4.3646427    4.3646427     48553.16    22278.442    65960.414    57420.625    28702.888   -2482.5884    3659.7655    83.146906 
   17200    1302.0953   -116.43111    1.1781632   -115.25294   -1161.3258    4.3841419    4.3841419    4.3841419   -1161.3258   -4756.6724    -8248.384    9521.0791   -41672.883   -17336.273   -3969.7203    84.266276 
   17300    1540.6898   -116.62362    1.3940486   -115.22957   -7245.5447    4.4089357    4.4089357    4.4089357   -7245.5447   -34508.806   -25512.401    38284.573     -29414.4    16563.624    8952.7426     85.70404 
   17400    2710.8364   -117.64563    2.4528217   -115.19281   -1178.4167    4.3895997    4.3895997    4.3895997   -1178.4167    -3380.454     30679.26   -30834.056    9802.0027   -13930.035   -12194.422    84.581376 
   17500    1121.8654   -116.22837    1.0150873   -115.21328   -20437.782     4.379186     4.379186     4.379186   -20437.782   -48202.203   -46129.034    33017.892   -80808.956   -4141.3441    18007.859    83.980832 
   17600     2013.857    -117.0447    1.8221801   -115.22252   -17052.483    4.3784748    4.3784748    4.3784748   -17052.483   -23217.241    137.23038   -28077.439     1311.648   -4877.8854    9062.1148    83.939923 
   17700    2410.0058   -117.40597    2.1806239   -115.22535     -4154.52    4.3907352    4.3907352    4.3907352     -4154.52   -7602.9177   -2169.7344   -2690.9078    11066.157   -527.61771   -23058.832    84.647034 
   17800    1137.1692   -116.25684    1.0289346    -115.2279   -19049.003    4.4056674    4.4056674    4.4056674   -19049.003   -70381.655   -11806.376    25041.023   -63971.724   -2885.0216    1061.5227    85.513584 
   17900    1903.6382    -116.9228    1.7224519   -115.20034   -6339.2324    4.3859294    4.3859294    4.3859294   -6339.2324   -31455.078    29754.561    -17317.18    401.18135    -9702.077   -12931.566    84.369392 
   18000    1596.4707   -116.65252    1.4445202     -115.208    37562.544    4.3742265    4.3742265    4.3742265    37562.544    411.63578       100394    11881.992    11175.022    10897.373   -12240.345    83.695828 
   18100    1169.8682   -116.30357    1.0585213   -115.24505   -32853.141    4.3864154    4.3864154    4.3864154   -32853.141   -78902.805   -70272.145    50615.526   -72393.883    4191.6428   -3752.2202    84.397442 
   18200    1822.4483   -116.86918    1.6489895   -115.22019    9709.7114    4.3792764    4.3792764    4.3792764    9709.7114    -1645.697    20088.856    10685.975   -11221.822   -15024.651   -10285.297    83.986035 
   18300    1840.6598   -116.89475    1.6654677   -115.22929   -26882.635    4.3975854    4.3975854    4.3975854   -26882.635    -35194.25   -33912.055     -11541.6   -8752.5889    23844.065     3888.671    85.043839 
   18400    979.93381   -116.10106    0.8866647    -115.2144    -47790.69    4.4104428    4.4104428    4.4104428    -47790.69   -78380.393   -39245.754   -25745.922   -64033.704   -781.51254   -7739.3474    85.791958 
   18500    2243.9355   -117.21908      2.03036   -115.18872    34399.399    4.3659586    4.3659586    4.3659586    34399.399    39146.088    11382.969    52669.139    13468.445   -15115.204    4380.5487     83.22213 
   18600    1327.0914   -116.41392    1.2007802   -115.21314    21998.697    4.3511057    4.3511057    4.3511057    21998.697   -28261.986    60280.894    33977.183   -18549.323    10576.221    7541.5881    82.375659 
   18700    1293.7039    -116.4276    1.1705705   -115.25703     -26611.3    4.3810158    4.3810158    4.3810158     -26611.3    -58303.91   -48236.716    26706.727   -58947.122   -2229.6362   -4935.0709    84.086147 
   18800    2283.2147   -117.28529    2.0659006   -115.21939   -7310.4453    4.4060118    4.4060118    4.4060118   -7310.4453    27254.293    11161.469   -60347.098    25120.243     17267.09    126.79612    85.533642 
   18900     1674.555   -116.72603    1.5151726   -115.21086   -41067.235    4.4078102    4.4078102    4.4078102   -41067.235   -26244.808    -61549.88   -35407.018   -31816.958    7062.5547    1702.6766    85.638422 
   19000    1499.6562   -116.56132    1.3569205    -115.2044   -3717.6287    4.3799567    4.3799567    4.3799567   -3717.6287   -6174.3579   -22010.178     17031.65   -46434.053   -2307.3446   -8399.5223    84.025179 
   19100    1913.4997   -116.93175    1.7313747   -115.20038    65902.518     4.363415     4.363415     4.363415    65902.518    70630.225    129147.74   -2070.4055    16568.905    -4524.773   -4495.9514    83.076763 
   19200    1221.5193   -116.35509    1.1052564   -115.24983   -19887.617    4.4003153    4.4003153    4.4003153   -19887.617   -20094.207    1186.4146    -40755.06   -59516.905   -3116.8122   -2502.9485    85.202312 
   19300    1566.6195   -116.64154    1.4175103   -115.22403   -32325.497    4.4032334    4.4032334    4.4032334   -32325.497   -55992.293   -15338.865   -25645.333   -27889.795    1286.8169    1409.8905    85.371934 
   19400     1721.664   -116.76078    1.5577978   -115.20299    26437.287    4.3711251    4.3711251    4.3711251    26437.287     70949.41    52368.363   -44005.912    17223.803   -8823.8237   -11278.532    83.517926 
   19500    1439.0272   -116.52399     1.302062   -115.22193   -13931.283    4.3695903    4.3695903    4.3695903   -13931.283   -22573.325    -27543.77     8323.246   -58475.309   -21157.592   -12857.006    83.429983 
   19600    1424.8873   -116.51995     1.289268   -115.23068    20505.237    4.3762807    4.3762807    4.3762807    20505.237    11510.935    35983.073    14021.704   -43660.077    1280.0743    11922.156    83.813797 
   19700    2232.4012   -117.25799    2.0199235   -115.23807   -24681.951    4.3960709    4.3960709    4.3960709   -24681.951   -31497.088   -2544.3885   -40004.375    36282.273    98.382926    2965.7245    84.956004 
   19800    1573.3643   -116.63598    1.4236131   -115.21237   -54683.353    4.4172739    4.4172739    4.4172739   -54683.353   -88237.757   -33248.045   -42564.257   -16360.875   -23110.814   -7547.0357    86.191214 
   19900    1832.1316   -116.84912    1.6577512   -115.19137    3798.5389     4.388199     4.388199     4.388199    3798.5389    6050.7874    21098.777   -15753.948   -41399.763    5647.8496    14226.793    84.500436 
   20000    2300.8751   -117.25551    2.0818801   -115.17363    10668.676    4.3513425    4.3513425    4.3513425    10668.676    11073.365     35867.86   -14935.198    17548.084   -10660.615    8891.3942    82.389108 
   20100    1830.6496   -116.88475    1.6564102   -115.22834   -3509.6967    4.3637275    4.3637275    4.3637275   -3509.6967    -44214.82    14569.258    19116.472   -12161.839   -24875.798   -4823.9575    83.094611 
   20200    1925.0074   -116.98125    1.7417872   -115.23946   -24103.798    4.4037316    4.4037316    4.4037316   -24103.798   -38715.006   -22865.291   -10731.096   -16278.497    9991.1671    20757.597    85.400913 
   20300    1864.5705   -116.89396    1.6871025   -115.20686   -27198.102    4.4216769    4.4216769    4.4216769   -27198.102   -21454.504    17400.365   -77540.168    8340.1579    2635.0607    28190.395    86.449206 
   20400    1788.2055   -116.79327    1.6180059   -115.17526    4209.2903     4.404576     4.404576     4.404576    4209.2903   -40790.062    51318.865    2099.0672         3772    8474.9285   -18207.895    85.450053 
   20500    1276.1165   -116.34004     1.154657   -115.18538    9718.9595    4.3733527    4.3733527    4.3733527    9718.9595    -17099.29    31472.429    14783.739    -19004.42    2215.2801    18148.661     83.64568 
   20600    1945.7978   -116.96517    1.7605988   -115.20457    22113.028    4.3677944    4.3677944    4.3677944    22113.028    9342.1221    68677.372    -11680.41    7173.1711     13892.46    9795.6085    83.327159 
   20700     2203.608   -117.22926    1.9938709   -115.23539   -34257.305    4.4044844    4.4044844    4.4044844   -34257.305   -82396.036   -3232.6623   -17143.218    22650.431   -7016.3714     -17642.3    85.444722 
   20800    1201.4803   -116.28952    1.0871246   -115.20239   -48801.517    4.4196576    4.4196576    4.4196576   -48801.517    -105570.8   -20700.369   -20133.381   -22581.893    13236.823    24343.406    86.330824 
   20900    2173.4575   -117.13736    1.9665901   -115.17077   -2133.9813    4.3892425    4.3892425    4.3892425   -2133.9813   -27577.454    45894.268   -24718.759   -6868.1159    5257.7032   -6346.5414    84.560733 
   21000    1823.9235   -116.82774    1.6503243   -115.17742    8619.7623    4.3527852    4.3527852    4.3527852    8619.7623   -14583.487    37103.186    3339.5878    2450.3515   -22389.568   -32999.568    82.471083 
   21100    983.21701   -116.11204   0.88963542    -115.2224    39469.728    4.3520886    4.3520886    4.3520886    39469.728   -38006.509    117656.69    38759.005   -24428.156     13470.87    11284.625    82.431498 
   21200     2044.299   -117.09947    1.8497247   -115.24975   -34065.835    4.3943991    4.3943991    4.3943991   -34065.835   -60867.132   -1003.1429   -40327.231    1265.8478   -6890.7789   -8165.3756    84.859112 
   21300     1562.022   -116.63161    1.4133504   -115.21826     -1782.11    4.4024939    4.4024939    4.4024939     -1782.11   -48182.662    56205.456   -13369.124    453.72171    -28588.96   -38502.911    85.328929 
   21400    1817.1144   -116.84827    1.6441633    -115.2041   -3542.3038    4.3831069    4.3831069    4.3831069   -3542.3038   -40574.115   -21237.633    51184.837   -23092.645    14691.235    6253.9951    84.206613 
   21500    1842.5019   -116.88267    1.6671344   -115.21553    3589.7447    4.3596054    4.3596054    4.3596054    3589.7447   -27141.698   -3704.8425    41615.774      2838.62   -19258.132    7658.7837    82.859357 
   21600    1526.6534    -116.6281    1.3813481   -115.24675    33693.985    4.3609891    4.3609891    4.3609891    33693.985   -2574.1028    89793.763    13862.294    8240.2187   -16930.997   -2393.9429    82.938276 
   21700    1115.7443   -116.27452    1.0095489   -115.26497   -14437.427    4.4050133    4.4050133    4.4050133   -14437.427    -48262.17     24150.15   -19200.261   -23037.498    11861.827   -19322.006    85.475502 
   21800    1572.4452   -116.64184    1.4227814   -115.21906   -16102.304    4.4070259    4.4070259    4.4070259   -16102.304   -55748.146    24298.387   -16857.153    3509.9545   -12446.097   -9959.3026    85.592715 
   21900    1789.0238   -116.80374    1.6187464     -115.185    34713.874    4.3672737    4.3672737    4.3672737    34713.874   -18149.399    86742.444    35548.578    21300.085    14389.756    -7484.395    83.297357 
   22000    1161.1606   -116.26347    1.0506425   -115.21283    -10973.66    4.3686038    4.3686038    4.3686038    -10973.66   -5299.5717    20266.956   -47888.364   -2411.6238    29760.203   -31999.541    83.373492 
   22100    1715.3594   -116.77797    1.5520933   -115.22588   -32525.994    4.3856857    4.3856857    4.3856857   -32525.994   -40968.389    -42573.12   -14036.473   -20885.523   -2035.2311    14773.205    84.355327 
   22200    2502.1014   -117.48129    2.2639539   -115.21733   -14732.497    4.3890377    4.3890377    4.3890377   -14732.497    -25523.18   -32295.661    13621.351    9927.2584    3518.5137    3874.9152    84.548896 
   22300    1182.4073   -116.29378     1.069867   -115.22391   -52693.335    4.4041326    4.4041326    4.4041326   -52693.335    -8156.492   -68384.889   -81538.624   -9332.6313    25013.762   -53756.615    85.424248 
   22400    1856.8921   -116.87817     1.680155   -115.19801   -20572.335    4.3851621    4.3851621    4.3851621   -20572.335   -17013.915    -40559.91    -4143.181   -32034.535   -752.82508    28266.431    84.325115 
   22500     2138.106   -117.12311    1.9346032    -115.1885    18789.446     4.364201     4.364201     4.364201    18789.446    8041.8599    11561.401    36765.076     138.2482   -15310.938   -18113.064    83.121666 
   22600    1669.5301   -116.74427    1.5106259   -115.23364   -39392.782    4.3860243    4.3860243    4.3860243   -39392.782   -13328.766   -41965.721   -62883.858   -2973.5775    14579.048   -43241.138    84.374868 
   22700    1732.0086   -116.79129    1.5671578   -115.22413     8987.114    4.3919924    4.3919924    4.3919924     8987.114   -52468.011   -16953.197     96382.55   -29237.904    15185.595    20462.832    84.719762 
   22800    1899.5122   -116.94483    1.7187186   -115.22611   -47465.374    4.4032161    4.4032161    4.4032161   -47465.374   -47736.858   -37415.141   -57244.122   -10666.336   -34389.639    6443.6322    85.370926 
   22900     1367.905   -116.45511    1.2377092    -115.2174   -21375.703    4.3978584    4.3978584    4.3978584   -21375.703   -36480.331   -20482.211   -7164.5668    2879.8816   -37563.267   -22986.475    85.059674 
   23000    1568.4134   -116.63565    1.4191334   -115.21652   -8128.4999    4.3807879    4.3807879    4.3807879   -8128.4999   -46374.127   -36488.208    58476.835   -26095.244    32003.527    7968.0904    84.073028 
   23100     1710.743   -116.77735    1.5479162   -115.22943    4509.7814    4.3764317    4.3764317    4.3764317    4509.7814   -34853.995   -2333.0664    50716.406   -8989.4193   -3820.8698    1118.5934     83.82247 
   23200    1810.3478   -116.88287    1.6380408   -115.24483   -8800.9526    4.3841407    4.3841407    4.3841407   -8800.9526   -7220.6317   -15983.335   -3198.8911   -42.640588   -30712.688   -20003.737    84.266207 
   23300    1081.8603    -116.2336   0.97888994   -115.25471   -41338.593    4.3959456    4.3959456    4.3959456   -41338.593   -67677.776   -49693.494   -6644.5085   -29865.103    41044.018   -6974.1679    84.948735 
   23400    2014.8729   -117.04879    1.8230993   -115.22569   -5283.3677    4.3830663    4.3830663    4.3830663   -5283.3677   -26917.779    -9459.579    20527.255    12942.397    21169.573   -7669.5082    84.204269 
   23500    2050.9644   -117.07684    1.8557557   -115.22108    11901.213    4.3927918    4.3927918    4.3927918    11901.213    16683.219   -34669.586    53690.006   -6385.5265   -10742.345    617.30758     84.76603 
   23600    1154.9146   -116.26281     1.044991   -115.21782   -21899.516    4.4159172    4.4159172    4.4159172   -21899.516   -88142.058   -54087.266    76530.775   -30716.237    28259.789   -4006.7062    86.111821 
   23700    1709.3226   -116.74233     1.546631    -115.1957    -9476.949     4.395313     4.395313     4.395313    -9476.949   -42918.891   -14004.229    28492.273     18810.54    3430.1471    15629.746     84.91207 
   23800    2043.6178   -117.03533    1.8491083   -115.18622    5293.1367    4.3710094    4.3710094    4.3710094    5293.1367     15362.22   -27276.302    27793.492   -1868.4406   -13064.805    32409.256    83.511298 
   23900    1778.4722   -116.83238     1.609199   -115.22318   -5317.7113    4.3770139    4.3770139    4.3770139   -5317.7113   -8481.1081   -3339.4125   -4132.6134     -34171.3    34191.957   -5673.8158    83.855927 
   24000    1803.2794   -116.87366    1.6316451   -115.24201   -4149.1418    4.3887609    4.3887609    4.3887609   -4149.1418   -22317.098   -2967.4081    12837.081   -971.53914    26160.999    4651.0973    84.532899 
   24100    1762.0229   -116.84036    1.5943153   -115.24604   -487.17458    4.3882115    4.3882115    4.3882115   -487.17458    28386.949   -45496.799    15648.326    13093.553   -21387.117    27444.456    84.501157 
   24200    1810.8279   -116.87247    1.6384751     -115.234    11212.115    4.3753859    4.3753859    4.3753859    11212.115    27844.311   -8431.2658      14223.3   -4226.5211    22121.765    -199.3011    83.762397 
   24300    1858.6192   -116.91913    1.6817178   -115.23741    27922.315    4.3820917    4.3820917    4.3820917    27922.315    33742.116   -9972.3407     59997.17   -1160.5301    41644.777    -5680.053    84.148115 
   24400    1744.6498   -116.80625    1.5785958   -115.22765   -14876.663    4.4135152    4.4135152    4.4135152   -14876.663   -32348.171   -2285.7516   -9996.0669     14797.62   -10620.762    34285.937    85.971374 
   24500    1641.3238   -116.67477    1.4851043   -115.18967    8854.6046    4.4073861    4.4073861    4.4073861    8854.6046   -26843.476    16249.557    37157.733      1902.29    20746.159   -4966.6762    85.613703 
   24600    2142.9325   -117.11435    1.9389704   -115.17538    18444.698    4.3683833    4.3683833    4.3683833    18444.698   -13418.741     40966.42    27786.414    7914.1564    32283.661   -12531.888    83.360866 
   24700    1628.5144   -116.66944     1.473514   -115.19593    42469.032    4.3534872    4.3534872    4.3534872    42469.032    9162.8706    19431.997    98812.229    6846.0365   -6147.8624    29853.304    82.510991 
   24800     1648.601   -116.74316    1.4916888   -115.25147   -4265.2881    4.3840902    4.3840902    4.3840902   -4265.2881   -37908.242    26810.668     -1698.29    4271.0578    625.12024    13904.272    84.263297 
   24900    1320.8921   -116.43227    1.1951709    -115.2371   -40275.948    4.4056298    4.4056298    4.4056298   -40275.948   -84451.427    10438.981   -46815.397   -6246.3963    17953.726   -10679.027    85.511397 
   25000    2021.8448   -117.02844    1.8294077   -115.19903   -10736.904    4.3877136    4.3877136    4.3877136   -10736.904   -42070.664   -18532.098     28392.05    -858.6257    6445.6494    3993.3497    84.472399 
   25100     1893.628   -116.90662    1.7133944   -115.19322    7101.9102    4.3804656    4.3804656    4.3804656    7101.9102   -33294.765    65242.759   -10642.263     11467.81   -16712.897   -878.64856    84.054473 
   25200    1194.8465   -116.29416    1.0811222   -115.21304   -17091.853    4.3825234    4.3825234    4.3825234   -17091.853   -57107.306    45914.693   -40082.947   -11325.494    10386.193    12927.581    84.172985 
   25300    1895.6124   -116.91832    1.7151899   -115.20313    2904.1004    4.3859163    4.3859163    4.3859163    2904.1004   -52934.496   -17052.276    78699.073   -11602.597    1123.8565   -19874.386    84.368632 
   25400     1739.346   -116.78389    1.5737968   -115.21009   -3492.1053    4.3993307    4.3993307    4.3993307   -3492.1053   -23435.789    39383.788   -26424.315    6038.1255   -8769.3767    4874.4945    85.145133 
   25500     995.8822   -116.11105   0.90109514   -115.20996   -18321.334     4.399302     4.399302     4.399302   -18321.334   -88096.054    48491.658   -15359.607   -18804.888     6355.591   -7050.0637    85.143468 
   25600    1900.8492   -116.90694    1.7199283   -115.18702    3756.6508    4.3773492    4.3773492    4.3773492    3756.6508   -57193.352    1221.0232    67242.281   -38000.172   -6260.2345    2739.1144      83.8752 
   25700    2051.5323    -117.0575    1.8562695   -115.20123     7341.138    4.3709736    4.3709736    4.3709736     7341.138   -4521.1394    10363.494    16181.059     7953.129    10036.825    12158.665    83.509242 
   25800      1240.17   -116.36842    1.1221319   -115.24629   -15097.353     4.393153     4.393153     4.393153   -15097.353   -63905.863    7837.9436    10775.861   -15963.456   -1028.8216   -5340.2389    84.786948 
   25900    1717.7799   -116.77605    1.5542833   -115.22176   -28357.518    4.4081114    4.4081114    4.4081114   -28357.518   -90236.133    -26151.76    31315.341   -32416.584   -27424.058   -8551.6751    85.655979 
   26000     2338.105   -117.32651    2.1155665   -115.21094   -6503.4578    4.3735653    4.3735653    4.3735653   -6503.4578   -10885.733   -6830.7464   -1793.8945    1020.7366     12708.81    10709.348    83.657878 
   26100    1121.0937   -116.22822    1.0143891   -115.21383    60328.915    4.3467685    4.3467685    4.3467685    60328.915    5015.4908    136240.18    39731.073    7225.4339    3479.1399    7192.6829    82.129566 
   26200    2269.1963   -117.28984    2.0532165   -115.23662   -6008.5247    4.3783807    4.3783807    4.3783807   -6008.5247   -46427.419    22593.125    5808.7196   -10320.372   -25360.021   -17574.233    83.934509 
   26300     1907.724   -116.94827    1.7261487   -115.22212    5202.4646    4.3951939    4.3951939    4.3951939    5202.4646   -12750.762    43093.968   -14735.812    10713.056   -1467.9936   -8919.5778    84.905166 
   26400    1284.5203   -116.37782     1.162261   -115.21555    13458.212    4.3943907    4.3943907    4.3943907    13458.212   -4486.4424    17286.674    27574.404     18123.99    28828.507    23145.405    84.858628 
   26500    1979.8302   -116.99621     1.791392   -115.20482   -1105.1681     4.389014     4.389014     4.389014   -1105.1681   -33900.341    42745.335   -12160.498   -22905.134    -784.4192   -2731.7465    84.547526 
   26600    1726.5638    -116.7703    1.5622312   -115.20807    16329.599    4.3639867    4.3639867    4.3639867    16329.599    15394.114    3730.2332    29864.449   -4735.5481    -7045.663   -24016.457     83.10942 
   26700    1202.2935   -116.32048    1.0878604   -115.23262    37249.677    4.3627053    4.3627053    4.3627053    37249.677    61264.356    22591.743    27892.931    19041.743    16724.557   -1328.4996     83.03623 
   26800    2063.3347   -117.09461    1.8669486   -115.22766   -3987.8347     4.394716     4.394716     4.394716   -3987.8347   -1619.7057   -7918.4589   -2425.3396    -8491.895    25490.121    19800.236    84.877472 
   26900    1597.6248   -116.66284    1.4455645   -115.21728    8509.9948    4.3903786    4.3903786    4.3903786    8509.9948    56441.565   -36493.781    5582.2003   -5993.4896     -12528.3   -37898.036    84.626409 
   27000    1384.9043   -116.45961    1.2530905   -115.20652    25528.078    4.3702561    4.3702561    4.3702561    25528.078    51151.191    15160.779    10272.265    18107.799     19012.81   -17432.661    83.468124 
   27100    1946.6527   -116.97796    1.7613722   -115.21659    9311.7397    4.3689486    4.3689486    4.3689486    9311.7397    12466.507    26392.795   -10924.083     15548.46        42084    21520.424    83.393229 
   27200    1732.1369   -116.79796    1.5672739   -115.23069    24270.589    4.3739812    4.3739812    4.3739812    24270.589    73242.975     3295.168   -3726.3767    3687.3081   -28899.915   -23398.988    83.681749 
   27300     1625.063   -116.71486    1.4703912   -115.24447   -2348.0498    4.3909337    4.3909337    4.3909337   -2348.0498   -19600.934    21146.469   -8589.6839    2524.5644    20736.151   -27067.997    84.658514 
   27400    2108.0588   -117.13139    1.9074159   -115.22398   -25984.298     4.400031     4.400031     4.400031   -25984.298   -65444.402    29399.328    -41907.82   -3293.7554    6456.1561    4804.4574    85.185801 
   27500    1524.5457   -116.59899     1.379441   -115.21955     15873.04    4.3689094    4.3689094    4.3689094     15873.04    2240.5205    75894.381   -30515.781    3891.2325   -42083.886   -20546.103    83.390989 
   27600    1494.7545   -116.56438    1.3524852   -115.21189    49823.798    4.3565283    4.3565283    4.3565283    49823.798    52943.854    34393.511     62134.03    18552.035    16051.834   -21984.962    82.684026 
   27700    2025.9847   -117.05452    1.8331536   -115.22137   -41041.421    4.3951196    4.3951196    4.3951196   -41041.421   -59232.034   -8681.6255   -55210.602   -7976.3185    1002.7606    6870.4151    84.900863 
   27800    1524.4732   -116.59473    1.3793754   -115.21535   -17949.529    4.3881656    4.3881656    4.3881656   -17949.529   -62904.881    27598.388   -18542.095   -15540.998    -38194.28   -14084.749    84.498506 
   27900    1929.9798   -116.94894    1.7462862   -115.20265        14649    4.3599224    4.3599224    4.3599224        14649    53500.343   -18697.516    9144.1732    6822.9561    1344.7382   -13218.527    82.877432 
   28000    1570.1717    -116.6519    1.4207244   -115.23118   -15240.825    4.3717011    4.3717011    4.3717011   -15240.825    3349.2933   -20065.635   -29006.134    6744.0508    4347.8209     42149.96    83.550951 
   28100    1604.6924   -116.68434    1.4519594   -115.23239   -19386.626    4.3803636    4.3803636    4.3803636   -19386.626   -12773.252    -3872.237   -41514.389   -21434.547   -34908.652    5973.3383    84.048602 
   28200    1970.3387    -117.0071    1.7828039    -115.2243    2151.0563    4.3878634    4.3878634    4.3878634    2151.0563    26082.228   -10360.575   -9268.4849    24502.607   -7940.8883   -3747.0383    84.481049 
   28300    1711.8238   -116.76497    1.5488941   -115.21607   -28682.858    4.3969798    4.3969798    4.3969798   -28682.858    14337.645   -56289.291   -44096.927     23102.25   -4245.5465    16513.432    85.008706 
   28400    1452.0675   -116.51878    1.3138612   -115.20492     10616.39    4.3809565    4.3809565    4.3809565     10616.39    46009.942    7639.7914   -21800.562   -25410.854   -41770.502    18233.822    84.082735 
   28500    2228.7825   -117.22179    2.0166492   -115.20514    2010.1411     4.368361     4.368361     4.368361    2010.1411    11063.676   -8242.1782     3208.926    22576.899    5526.0017    15067.074    83.359588 
   28600    1877.2167   -116.92705    1.6985451   -115.22851    23708.871    4.3655913    4.3655913    4.3655913    23708.871    32750.978    2224.7981    36150.837    40143.835    11033.009   -10830.535     83.20113 
   28700    1805.3242   -116.88056    1.6334953   -115.24707    9176.2565    4.3739906    4.3739906    4.3739906    9176.2565    35339.449    19919.743   -27730.422   -10514.102   -49260.248    16287.624    83.682288 
   28800    1621.4452   -116.70862    1.4671177   -115.24151   -2871.1548      4.39923      4.39923      4.39923   -2871.1548    3358.4517   -40094.195    28122.279   -7921.7192    5533.4366    4923.0524    85.139285 
   28900    1981.9653   -117.00129    1.7933238   -115.20796   -26569.867    4.4093625    4.4093625    4.4093625   -26569.867   -6910.7934   -42531.572   -30267.236    40086.377    8877.3351   -5181.2426     85.72893 
   29000    1604.4006   -116.65665    1.4516954   -115.20495    3289.0759    4.3776825    4.3776825    4.3776825    3289.0759    1294.5807    48286.516   -39713.869   -1864.7942    -30725.23    13321.313    83.894363 
   29100    1425.0462   -116.47764    1.2894118   -115.18823     56468.95    4.3488272    4.3488272    4.3488272     56468.95    116278.64    24001.225    29126.987    -40393.99   -2328.8704    8622.0189    82.246319 
   29200     1929.636   -116.98259    1.7459752   -115.23661   -25108.416    4.3779329    4.3779329    4.3779329   -25108.416   -32282.426    -37183.26   -5859.5632    19324.499    6985.2814   -5283.5949     83.90876 
   29300    1567.8217   -116.64301     1.418598   -115.22441   -7532.9632    4.3958133    4.3958133    4.3958133   -7532.9632    4487.5006    28751.552   -55837.942    21616.645   -21083.323   -1415.4419    84.941065 
   29400    1679.3977   -116.72995    1.5195543    -115.2104    24433.289    4.3809585    4.3809585    4.3809585    24433.289    24780.589    51893.443   -3374.1653    -45233.01   -14093.666    12130.062    84.082848 
   29500    1874.1629   -116.90841     1.695782   -115.21263   -1490.8282    4.3861097    4.3861097    4.3861097   -1490.8282   -8796.2386    11055.656   -6731.9017   -2622.8304    2377.2409    5854.1628    84.379793 
   29600    2149.2079   -117.14608    1.9446485   -115.20143    19898.676     4.376655     4.376655     4.376655    19898.676    9287.4113    61151.389   -10742.773    28612.501   -969.31152    7162.3028    83.835301 
   29700    1173.5036   -116.28823    1.0618107   -115.22642    23721.795     4.367385     4.367385     4.367385    23721.795    -6876.036    61504.408    16537.014   -61849.398   -4508.7937   -12369.038    83.303726 
   29800    1981.8777   -117.02822    1.7932446   -115.23498   -17767.669    4.3900937    4.3900937    4.3900937   -17767.669   -17554.276   -21620.773   -14127.957   -21763.601    1142.1424    9537.3617    84.609936 
   29900    2445.2299   -117.41688    2.2124954   -115.20438   -26000.741    4.3976187    4.3976187    4.3976187   -26000.741   -36339.403   -14210.274   -27452.545     1828.532    13263.236    23274.729    85.045767 
   30000    1165.0554   -116.25948    1.0541666   -115.20532   -3789.8636    4.3847868    4.3847868    4.3847868   -3789.8636   -58294.014   -5086.6016    52011.025   -75872.314   -10182.271   -8447.1681    84.303471 
   30100    1630.8122   -116.66812    1.4755931   -115.19252    40338.993    4.3772538    4.3772538    4.3772538    40338.993   -15003.234    108328.27    27691.945   -1468.3422    5650.5149     20430.99    83.869717 
   30200    1233.0702     -116.329    1.1157078   -115.21329    36923.655    4.3912543    4.3912543    4.3912543    36923.655   -12993.893    81088.133    42676.723   -27562.207    15558.919    22399.968    84.677061 
   30300    1790.5033   -116.81442     1.620085   -115.19434    -17335.55    4.4159739    4.4159739    4.4159739    -17335.55   -24269.286    12692.812   -40430.175   -60741.484   -14097.613    1619.9934    86.115135 
   30400    1773.9643   -116.77913    1.6051202   -115.17401   -28513.275    4.4068915    4.4068915    4.4068915   -28513.275   -50826.551   -17940.907   -16772.369     39162.31   -9633.9763    1330.5825    85.584888 
   30500    1308.4909   -116.35058    1.1839501   -115.16663    26128.439    4.3672529    4.3672529    4.3672529    26128.439    33014.135   -15571.119      60942.3   -13176.392   -6744.5664     20800.73     83.29617 
   30600    1918.7368   -116.93432    1.7361134    -115.1982    21788.132    4.3765905    4.3765905    4.3765905    21788.132    34071.557     -23767.1    55059.939   -27224.343    -11276.41   -240.71591    83.831599 
   30700    1469.4452   -116.52972    1.3295849   -115.20014   -33543.579    4.4030492    4.4030492    4.4030492   -33543.579   -52731.402   -88374.164    40474.828    50896.031     -12190.7   -3668.7321    85.361222 
   30800    1833.5557     -116.845    1.6590398   -115.18596   -4801.6392    4.3869695    4.3869695    4.3869695   -4801.6392   -4118.9254    5920.4411   -16206.433   -12223.495    10523.769    21636.102    84.429428 
   30900    1545.3345   -116.59927    1.3982511   -115.20102    10166.656    4.3822308    4.3822308    4.3822308    10166.656    -20584.73    62355.839    -11271.14    1018.4743   -1417.9351    14347.991    84.156129 
   31000    1832.9284   -116.88016    1.6584722   -115.22169   -11149.482    4.3744779    4.3744779    4.3744779   -11149.482    -72246.62    6678.8408    32119.333    51435.367   -1603.5781    -1467.261    83.710256 
   31100    2255.0886   -117.27154    2.0404516   -115.23109    19204.967    4.3705555    4.3705555    4.3705555    19204.967    17562.768    36420.032    3632.0995    3338.0329    12174.686     16597.15    83.485281 
   31200    1655.6437   -116.74986    1.4980613    -115.2518   -47906.142     4.401384     4.401384     4.401384   -47906.142    -38936.06   -23803.029   -80979.337    4215.1288    5229.9799    12297.465    85.264409 
   31300    1210.2664   -116.32079    1.0950745   -115.22572   -31546.617    4.3983031    4.3983031    4.3983031   -31546.617   -37204.037   -22956.023   -34479.791    33906.579   -14522.805    -16826.52    85.085483 
   31400    2676.9738   -117.60511    2.4221822   -115.18293    11765.126    4.3755959    4.3755959    4.3755959    11765.126      14070.7    15279.684    5944.9943    4437.5372    -797.9386   -8943.5822    83.774456 
   31500    2057.4839   -117.06845    1.8616547    -115.2068   -11894.584    4.3771301    4.3771301    4.3771301   -11894.584   -7635.2639    8353.6096   -36402.099    10977.623   -4947.0362    12969.579    83.862609 
   31600    873.69362   -116.02822   0.79053635   -115.23768    6665.0412    4.3734743    4.3734743    4.3734743    6665.0412    14065.708    14579.288   -8649.8714    33851.836   -9527.4426   -10264.197    83.652657 
   31700    1580.1773   -116.68008    1.4297776    -115.2503    14086.954    4.3910932    4.3910932    4.3910932    14086.954    68149.832   -7872.5198   -18016.451    5051.2895   -6239.9371    549.46942    84.667741 
   31800    2435.6525   -117.41901    2.2038296   -115.21518   -30464.991    4.4020183    4.4020183    4.4020183   -30464.991   -23149.961   -43339.186   -24905.825   -6999.7538   -11517.859    22138.694    85.301276 
   31900    1397.7252   -116.47762    1.2646911   -115.21293    6539.0676    4.3740202    4.3740202    4.3740202    6539.0676   -6682.9677    14476.607    11823.564    53929.633   -7088.4644   -20199.156    83.683985 
   32000    1431.0853   -116.52348    1.2948761   -115.22861    11566.004    4.3746636    4.3746636    4.3746636    11566.004    32360.903   -983.73375    3320.8433    4820.8685    -19517.58    925.81439    83.720917 
   32100    1780.1689   -116.83507    1.6107343   -115.22433   -5058.0589    4.4011259    4.4011259    4.4011259   -5058.0589    3765.0102   -6243.4671    -12695.72    7487.0057    8319.3594    25417.818    85.249411 
   32200    1621.8755   -116.67699     1.467507   -115.20948   -15380.228    4.4034867    4.4034867    4.4034867   -15380.228   -24011.231     3919.811   -26049.263    52466.154   -4385.1076   -5901.9023    85.386668 
   32300    1864.4267   -116.89092    1.6869725   -115.20395     9142.422    4.3720036    4.3720036    4.3720036     9142.422   -467.87341    42912.668   -15017.528   -20130.569   -27903.058   -10149.227    83.568292 
   32400    1499.7934   -116.56755    1.3570446    -115.2105    25479.988    4.3490661    4.3490661    4.3490661    25479.988    22795.723    37287.133    16357.108     17280.53    2155.5791    3101.4948    82.259872 
   32500    1637.7523   -116.72749    1.4818727   -115.24561   -326.79981    4.3700536    4.3700536    4.3700536   -326.79981   -18509.882   -23963.132    41492.615    42247.868    4701.2544    10888.243    83.456523 
   32600      1792.81   -116.85334    1.6221722   -115.23117   -27376.451     4.401232     4.401232     4.401232   -27376.451    -68697.25    -24189.33    10757.228   -32246.045     7563.342   -7262.6775    85.255575 
   32700    1559.5465   -116.61823    1.4111104   -115.20712   -31407.009    4.4006055    4.4006055    4.4006055   -31407.009   -23628.456   -40599.489   -29993.083   -4993.6041   -19816.144   -3041.6004    85.219175 
   32800    1759.2502   -116.78733    1.5918066   -115.19552    24454.035    4.3715131    4.3715131    4.3715131    24454.035    40678.212   -14421.778    47105.671     33215.75    13648.718    24617.282     83.54017 
   32900    1654.9043   -116.70178    1.4973922   -115.20439    15905.161    4.3584241    4.3584241    4.3584241    15905.161   -15845.343   -173.77162    63734.596   -30344.299    26124.543   -7036.5313    82.792016 
   33000    1659.6675   -116.73919    1.5017021   -115.23749   -23457.588    4.3876541    4.3876541    4.3876541   -23457.588   -32969.382   -26806.108   -10597.274   -27055.324   -30405.204   -5584.9471    84.468961 
   33100     2375.337   -117.35286    2.1492548    -115.2036     9335.751    4.3968286    4.3968286    4.3968286     9335.751   -3852.2413    -17511.03    49370.524     17487.49    13346.866    5213.0712    84.999937 
   33200    1444.0764   -116.52367    1.3066307   -115.21704   -10255.677    4.3909021    4.3909021    4.3909021   -10255.677   -44131.992   -6727.4677    20092.428   -32500.469    17566.224   -7389.4735    84.656687 
   33300    1241.2692   -116.34457    1.1231265   -115.22145   -10865.128     4.377458     4.377458     4.377458   -10865.128   -44609.433    13046.233   -1032.1843   -24548.222    -18908.76   -15746.794    83.881459 
   33400    2252.6911    -117.2425    2.0382822   -115.20422    31659.694    4.3624626    4.3624626    4.3624626    31659.694    32787.716    51105.004    11086.361    28187.976   -2602.5006   -16716.352    83.022377 
   33500    1425.6804   -116.53271    1.2899856   -115.24273   -12048.819    4.3901453    4.3901453    4.3901453   -12048.819   -47312.869   -36662.836    47829.247   -32091.289    10357.232    19587.683    84.612921 
   33600    1587.2522   -116.66107    1.4361791   -115.22489   -1098.6244    4.3946503    4.3946503    4.3946503   -1098.6244   -39340.348     10551.29    25493.185   -18082.013   -11940.752    7981.4775    84.873666 
   33700     1903.834   -116.93158     1.722629   -115.20896    29483.689     4.373876     4.373876     4.373876    29483.689    45867.497   -18559.437    61143.005    42713.318    -5961.739   -1481.7685    83.675708 
   33800    1137.0744   -116.25981    1.0288488   -115.23096    19933.063    4.3712686    4.3712686    4.3712686    19933.063   -28985.561    19607.398    69177.352    -16148.68    10869.978    2279.1039    83.526154 
   33900    1722.3509   -116.79157    1.5584193   -115.23315   -292.71025    4.3810716    4.3810716    4.3810716   -292.71025   -32931.876     20091.92    11961.825   -36229.894    2537.8715    16129.861    84.089361 
   34000    2037.3643   -117.07917    1.8434501   -115.23572    3283.1146    4.3818579    4.3818579    4.3818579    3283.1146    22642.048     -13125.6    332.89605    33059.961   -11604.004    6171.8539    84.134647 
   34100    1487.7438   -116.58531    1.3461418   -115.23916    9310.5757    4.3827503    4.3827503    4.3827503    9310.5757   -2414.1513   -1629.2219      31975.1     7692.187   -1794.0885   -8312.3728     84.18606 
   34200    1129.1456   -116.26572    1.0216747   -115.24405   -18078.911     4.389321     4.389321     4.389321   -18078.911   -28462.758   -7429.0496   -18344.926   -48808.352    18181.809    12455.478    84.565265 
   34300    2551.5476   -117.51166    2.3086939   -115.20297    -37957.38     4.393548     4.393548     4.393548    -37957.38    -16634.85   -47277.456   -49959.834    25997.445    7459.0694    -3798.073    84.809817 
   34400    1577.3575   -116.61429    1.4272262   -115.18707   -17545.928    4.3984665    4.3984665    4.3984665   -17545.928   -55640.078   -2039.1929    5041.4862   -33433.947   -15465.174    2909.5032    85.094965 
   34500    1178.7168   -116.25065    1.0665277   -115.18412   -44255.821    4.4055494    4.4055494    4.4055494   -44255.821   -83227.199   -4720.4367   -44819.826   -18375.738    10997.945   -4261.7456    85.506714 
   34600    1838.7535   -116.84719    1.6637428   -115.18344    12572.379    4.3844039    4.3844039    4.3844039    12572.379     12359.49    48161.978   -22804.331    24246.232    19581.074   -15070.549    84.281388 
   34700    2504.8668   -117.45916    2.2664561   -115.19271    24555.461    4.3555059    4.3555059    4.3555059    24555.461    45016.838     29344.99   -695.44504   -12693.017    -13645.57    15937.366    82.625824 
   34800    1220.8093   -116.35939    1.1046139   -115.25477    12680.764    4.3661948    4.3661948    4.3661948    12680.764     70610.77    10729.927   -43298.404   -22236.743    25485.435    20277.038    83.235643 
   34900    1855.6478   -116.93381    1.6790291   -115.25478   -36916.054    4.4030985    4.4030985    4.4030985   -36916.054   -40964.031   -7734.1513   -62049.981    6846.0887    9987.7381   -9956.3435    85.364089 
   35000    1954.1791   -116.97559    1.7681823    -115.2074   -25564.046    4.4100817    4.4100817    4.4100817   -25564.046    12565.588   -57644.268   -31613.457    26771.032   -749.42583    13180.932    85.770885 
   35100    1580.7255   -116.61936    1.4302737   -115.18909   -7959.4422    4.3873327    4.3873327    4.3873327   -7959.4422    27085.172   -26444.727   -24518.772    3666.6468    21113.304    43803.936    84.450397 
   35200      2587.73   -117.52685    2.3414325   -115.18542   -3764.6466    4.3734509    4.3734509    4.3734509   -3764.6466   -17914.845    18379.709   -11758.805    5262.2606   -12127.379   -16840.129    83.651311 
   35300     1513.334    -116.5878    1.3692964    -115.2185     8229.535    4.3793968    4.3793968    4.3793968     8229.535    23724.449   -13609.293    14573.449    41891.321   -1170.8037     29850.78    83.992962 
   35400    1558.6212    -116.6448    1.4102732   -115.23453   -16512.362     4.402169     4.402169     4.402169   -16512.362   -31142.714   -30858.813    12464.439    18984.972    22572.732    22802.489    85.310036 
   35500    2565.8044   -117.50805    2.3215937   -115.18646   -30018.576    4.4170194    4.4170194    4.4170194   -30018.576   -50702.659   -17048.367   -22304.702    7258.6394    8939.0085   -8023.5622    86.176318 
   35600    1895.1086   -116.89633    1.7147341    -115.1816    924.03728    4.3849865    4.3849865    4.3849865    924.03728    23387.691   -38850.373    18234.794    4292.6297   -7030.5412    53153.534    84.314989 
   35700    1965.8102   -116.95127    1.7787064   -115.17257    27824.304    4.3632277    4.3632277    4.3632277    27824.304   -5054.5522    24151.491    64375.973    26152.879    19607.752   -10097.258    83.066067 
   35800    1325.8016   -116.41496    1.1996132   -115.21535    4155.4004    4.3876329    4.3876329    4.3876329    4155.4004    60746.464    -24211.43   -24068.833     2458.808    35019.656    33714.063    84.467734 
   35900    2165.9937   -117.15714    1.9598366    -115.1973   -8073.4484    4.4082439    4.4082439    4.4082439   -8073.4484    58298.577   -61464.345   -21054.577   -559.83796   -17681.176    14884.862    85.663702 
   36000    1428.0323   -116.47421    1.2921137    -115.1821   -1049.0871    4.4018055    4.4018055    4.4018055   -1049.0871    40747.098   -32145.191   -11749.168    17308.852    24231.115    -17471.79    85.288907 
   36100    737.00117   -115.86282   0.66685415   -115.19597   -8551.7521    4.3825892    4.3825892    4.3825892   -8551.7521     9436.683   -35839.695    747.75525    9999.5435    35312.395    45338.295    84.176779 
   36200    2373.1978    -117.3364    2.1473192   -115.18908    16344.639    4.3606693    4.3606693    4.3606693    16344.639    58362.439   -16106.498    6777.9756   -4654.7919   -35237.827    6792.1205    82.920028 
   36300    1608.9922   -116.68994      1.45585   -115.23409    22428.465    4.3679268    4.3679268    4.3679268    22428.465    14197.841     58784.93   -5697.3749    14950.672    25907.991   -15.736349    83.334736 
   36400    824.13871   -115.99673   0.74569803   -115.25103     -28060.3    4.4005794    4.4005794    4.4005794     -28060.3   -54221.271    9161.8776   -39121.508    16102.188    43886.025    45158.431    85.217657 
   36500    2193.3678   -117.17303    1.9846053   -115.18842   -14630.159    4.4066184    4.4066184    4.4066184   -14630.159   -14622.589   -2091.5325   -27176.355   -2741.3586   -31820.913    13227.202    85.568974 
   36600    1865.3011   -116.86033    1.6877636   -115.17256   -33597.232     4.391624     4.391624     4.391624   -33597.232   -54166.713   -19388.858   -27236.126    2257.3476    38921.208    4114.2589    84.698449 
   36700    755.92848   -115.88781   0.68397998   -115.20383   -28160.495    4.3646444    4.3646444    4.3646444   -28160.495    1834.2455   -49023.129   -37292.601    24882.962    47181.958    43204.654    83.147005 
   36800    1969.8773   -117.00332    1.7823864   -115.22093    26358.324       4.3514       4.3514       4.3514    26358.324    51108.327    -13141.29    41107.935    13129.459   -33559.305    26734.788    82.392376 
   36900    2245.2571   -117.27463    2.0315558   -115.24307   -15634.242    4.3828363    4.3828363    4.3828363   -15634.242   -10298.382   -12610.857   -23993.488   -15884.093    32246.994   -15408.132    84.191013 
   37000    1729.4631   -116.79651    1.5648546   -115.23165   -18809.322    4.3876714    4.3876714    4.3876714   -18809.322   -23745.073   -12956.673    -19726.22    12269.803     38459.71    21795.569    84.469962 
   37100    1355.5374   -116.44357    1.2265188   -115.21706    25770.042    4.3768611    4.3768611    4.3768611    25770.042    62030.139   -17176.415    32456.402     26639.87    -17717.39    33030.263    83.847145 
   37200    1541.9776   -116.61453    1.3952138   -115.21932   -2647.2426    4.3860919    4.3860919    4.3860919   -2647.2426    -9557.634   -4674.3448     6290.251   -4908.6988     3046.079   -12448.797    84.378766 
   37300    2299.4728   -117.27967    2.0806113   -115.19906    13540.307     4.372878     4.372878     4.372878    13540.307    19585.356    28025.587   -6990.0226   -7568.4716    7136.6415    10916.721    83.618445 
   37400    1594.8192   -116.66625    1.4430259   -115.22322   -896.64916    4.3705437    4.3705437    4.3705437   -896.64916    852.29873    6169.1626   -9711.4088    42927.644   -11053.197    35920.838    83.484608 
   37500      1210.69   -116.32753    1.0954577   -115.23207   -28940.297    4.3906267    4.3906267    4.3906267   -28940.297   -73343.249   -14531.337    1053.6947     10675.92   -11352.883   -7195.0639    84.640755 
   37600    2115.5347   -117.11626    1.9141803   -115.20208    7983.1182    4.3742456    4.3742456    4.3742456    7983.1182    24889.403    8892.7777   -9832.8259   -38048.722   -5845.2487    4893.0415    83.696921 
   37700    1161.0839    -116.2714    1.0505731   -115.22083   -460.97571    4.3669511    4.3669511    4.3669511   -460.97571    13146.812   -44594.226    30064.487    51193.315    11367.911    22480.409    83.278903 
   37800    1486.4647     -116.586    1.3449845   -115.24101   -13476.719    4.3714038    4.3714038    4.3714038   -13476.719   -46865.194   -6486.4967    12921.533    43400.407   -20462.264    14536.767    83.533905 
   37900    2507.0379   -117.50241    2.2684206   -115.23399    4273.4851      4.37362      4.37362      4.37362    4273.4851    11011.277    47048.735   -45239.557   -21758.161   -22172.154   -12490.005     83.66102 
   38000    1564.9468   -116.66953    1.4159968   -115.25353   -15704.814    4.3819834    4.3819834    4.3819834   -15704.814   -6993.9754    -30623.81   -9496.6562    35032.988     14310.27   -4645.3592    84.141876 
   38100    848.20538   -116.02859   0.76747405   -115.26112    3189.3703    4.3685781    4.3685781    4.3685781    3189.3703   -34096.525    71790.631   -28125.995    33342.509   -20090.146     23078.89    83.372017 
   38200    1974.5506   -117.03955    1.7866149   -115.25294    9524.5353    4.3643514    4.3643514    4.3643514    9524.5353   -339.02671    52814.858   -23902.225   -29920.881   -17109.673    -2083.994    83.130257 
   38300    2217.7182   -117.25883     2.006638   -115.25219   -13769.361     4.384085     4.384085     4.384085   -13769.361   -50261.514    6103.1012    2850.3306   -6242.7948    6819.4161   -9660.5356    84.262995 
   38400     1830.324   -116.89495    1.6561156   -115.23884   -25760.519    4.3861988    4.3861988    4.3861988   -25760.519   -45919.723   -29768.492   -1593.3433    56473.943   -19208.785    15955.179    84.384936 
   38500    1388.7343   -116.48047     1.256556   -115.22391    3528.0184    4.3787383    4.3787383    4.3787383    3528.0184   -12773.012     29539.07   -6182.0029    -32716.65   -21195.776    3855.7529    83.955076 
   38600    2063.4054   -117.07223    1.8670125   -115.20522   -26485.136    4.3938513    4.3938513    4.3938513   -26485.136   -47260.133   -21483.073   -10712.201   -40670.072    10808.408   -14525.033    84.827383 
   38700    1850.0824   -116.88417    1.6739934   -115.21018    2495.6096    4.3669431    4.3669431    4.3669431    2495.6096   -29196.111    13839.612    22843.327    31594.028   -13396.112     3071.482    83.278445 
   38800    1085.7045   -116.20344   0.98236824   -115.22107    57878.152    4.3559832    4.3559832    4.3559832    57878.152    93863.782    39115.044    40655.629   -2237.7905    -23757.52    746.14603    82.652991 
   38900    2603.8618    -117.5649    2.3560289   -115.20887    -18520.49    4.3863002    4.3863002    4.3863002    -18520.49   -4126.1501   -33535.597   -17899.723   -17057.598    8887.9716   -4703.8318    84.390789 
   39000    1318.1713   -116.41795    1.1927091   -115.22524     32596.06    4.3682339    4.3682339    4.3682339     32596.06    104183.38    42647.124   -49042.318    7859.3607   -21200.036    1186.5739    83.352315 
   39100    1256.1403   -116.37531    1.1365821   -115.23873    4991.0122    4.3692331    4.3692331    4.3692331    4991.0122   -34810.679    58044.068   -8260.3521    34770.848   -5559.4804    5223.7961    83.409522 
   39200    2396.8674   -117.37185     2.168736   -115.20312   -12043.108    4.3857588    4.3857588    4.3857588   -12043.108    20496.498   -34911.654   -21714.169    1014.2519    8626.5513    2523.5137    84.359546 
   39300    1432.3681   -116.50926    1.2960368   -115.21323   -15391.228    4.3806764    4.3806764    4.3806764   -15391.228   -41487.914    25145.606   -29831.375   -23788.325   -34534.311   -13599.011    84.066604 
   39400    1439.9966   -116.51784    1.3029392    -115.2149    8406.7692     4.374811     4.374811     4.374811    8406.7692    12505.392      46815.2   -34100.285    35403.179    6600.4469   -298.71615    83.729384 
   39500    2092.3078   -117.10689    1.8931641   -115.21373    13670.357    4.3706494    4.3706494    4.3706494    13670.357    63049.743   -2760.1849   -19278.487   -4902.6744    23259.343    14176.138    83.490661 
   39600    1051.8309   -116.19496   0.95171874   -115.24324    2261.8196    4.3768757    4.3768757    4.3768757    2261.8196   -22835.748     57949.53   -28328.323   -34837.602   -31987.671   -6697.6401    83.847985 
   39700    1712.5135   -116.77919    1.5495182   -115.22967   -10601.738    4.3887022    4.3887022    4.3887022   -10601.738   -26460.633    57938.323   -63282.904    8054.8471   -7942.2457   -1553.7399    84.529507 
   39800    2292.6123    -117.2717    2.0744038    -115.1973   -5457.3557    4.3927646    4.3927646    4.3927646   -5457.3557   -5589.0182     6591.439   -17374.488   -164.67735    19868.435    21692.675    84.764459 
   39900    716.50658   -115.85764   0.64831021   -115.20933   -41822.336    4.3939069    4.3939069    4.3939069   -41822.336   -102906.13   -8883.1739   -13677.701   -38911.004   -49263.864   -128.70363    84.830601 
   40000    1972.6971   -116.97501    1.7849378   -115.19007   -3482.1558    4.3617973    4.3617973    4.3617973   -3482.1558   -55723.854    45495.775   -218.38857   -23773.659    -30047.69    14.575797    82.984394 
   40100     2326.286   -117.30584    2.1048725   -115.20096    20954.277    4.3555771    4.3555771    4.3555771    20954.277    14998.011    20602.704    27262.116    12432.487    14938.765    14929.676    82.629882 
   40200    760.23565    -115.9241   0.68787719   -115.23622   -67778.901     4.390166     4.390166     4.390166   -67778.901    -108756.4   -58354.863   -36225.443   -33377.956   -62344.997    6887.2939    84.614116 
   40300    1736.1406   -116.78515    1.5708965   -115.21425   -8608.6722    4.3728523    4.3728523    4.3728523   -8608.6722    -56422.35   -12252.487    42848.821   -27806.844   -10465.912    9500.8645    83.616972 
   40400    2124.5404   -117.13166    1.9223288   -115.20933    11038.353     4.364025     4.364025     4.364025    11038.353   -9125.2693    31011.735    11228.594    14790.679    35905.375   -9180.3395    83.111607 
   40500    1636.5138   -116.70393    1.4807521   -115.22318   -28480.143     4.376645     4.376645     4.376645   -28480.143   -60544.437   -24085.777    -810.2155   -38280.405   -42080.386    6251.4445    83.834727 
   40600    1590.7419   -116.65491    1.4393367   -115.21558     3800.387    4.3709625    4.3709625    4.3709625     3800.387   -18707.875   -10064.492    40173.528   -35580.101    -5092.659   -4773.9503    83.508607 
   40700    1886.3035   -116.92459     1.706767   -115.21782   -1208.5889    4.3792521    4.3792521    4.3792521   -1208.5889     7041.784    11225.893   -21893.444    10145.308    44154.931   -9551.4328    83.984634 
   40800    1589.7765   -116.66205    1.4384632   -115.22359    8168.1348    4.3748156    4.3748156    4.3748156    8168.1348    16418.379   -26158.938    34244.963   -9627.3456    -9035.806    16780.595    83.729646 
   40900    1248.7907   -116.36312     1.129932   -115.23318   -1898.6447    4.3569552    4.3569552    4.3569552   -1898.6447    27717.742   -47355.478    13941.802   -43216.752    -21180.04    15326.796    82.708337 
   41000    2019.4598   -117.07013    1.8272497   -115.24288    17725.609    4.3629969    4.3629969    4.3629969    17725.609    16148.268    9972.1293    27056.429    5327.1641    15066.165   -6411.0029    83.052883 
   41100    1949.9974   -117.00787    1.7643986   -115.24347   -5931.8229    4.3884799    4.3884799    4.3884799   -5931.8229    30079.233   -27147.107   -20727.595   -2303.2361   -5192.9493    8378.7125    84.516664 
   41200    624.44277   -115.78727   0.56500894   -115.22226   -45181.172    4.4047297    4.4047297    4.4047297   -45181.172   -82430.983   -80973.033      27860.5   -40717.561   -26276.135    25408.866    85.458998 
   41300    2521.1583   -117.45812     2.281197   -115.17693   -3918.2128     4.378457     4.378457     4.378457   -3918.2128    2944.1156   -21963.896    7265.1418    15393.052    19511.633    8815.2771    83.938901 
   41400    1841.0351   -116.86208    1.6658072   -115.19628    5802.2273    4.3549379    4.3549379    4.3549379    5802.2273    56932.528   -12422.362   -27103.484   -6036.5674   -23312.888   -19601.442    82.593506 
   41500    1071.6587   -116.20974   0.96965935   -115.24008    20739.058    4.3504079    4.3504079    4.3504079    20739.058    25261.262   -12175.153    49131.066   -39595.523   -30778.389    12892.587    82.336035 
   41600    1754.3791   -116.85708     1.587399   -115.26968    37736.658     4.389223     4.389223     4.389223    37736.658    72937.045    5073.6532    35199.277   -935.15768    2534.6651   -9310.9763    84.559601 
   41700    1647.0474   -116.69322    1.4902831   -115.20293   -39046.305    4.4231983    4.4231983    4.4231983   -39046.305   -21980.275   -14769.556   -80389.084    2951.2011   -10516.017   -11921.771    86.538475 
   41800    1059.3276   -116.16353   0.95850185   -115.20503    -3403.838    4.3686253    4.3686253    4.3686253    -3403.838   -32218.968    15666.944    6340.5101   -48817.921   -32691.547    14112.815    83.374721 
   41900    1802.2457   -116.78461    1.6307098    -115.1539    65190.975    4.3262648    4.3262648    4.3262648    65190.975    90247.345     38581.61    66743.969   -11135.119    2926.5957   -39086.957    80.972824 
   42000    2256.8709   -117.25333    2.0420642   -115.21126     11346.04    4.3558272    4.3558272    4.3558272     11346.04    18382.382    29016.081   -13360.343    24049.197    6762.9385   -24668.066    82.644115 
   42100    1538.7491   -116.63175    1.3922925   -115.23945   -19669.754    4.3931448    4.3931448    4.3931448   -19669.754   -54131.819    3804.0273   -8681.4696   -51485.185   -39613.489    9637.3254    84.786472 
   42200     1667.084   -116.71417    1.5084127   -115.20575   -36826.067    4.4140315    4.4140315    4.4140315   -36826.067   -1835.3281   -74781.003   -33861.869   -19017.251   -4619.7099   -23544.792    86.001551 
   42300    2260.7076   -117.19728    2.0455357   -115.15175   -23261.914    4.4062156    4.4062156    4.4062156   -23261.914   -2901.3687    -17722.79   -49161.583    22257.099    -5384.643   -3859.0454    85.545514 
   42400    1197.1455   -116.24944    1.0832024   -115.16624   -26082.982    4.3765225    4.3765225    4.3765225   -26082.982   -53024.768   -29790.344    4566.1649   -57318.712    -35341.31    2652.8029    83.827692 
   42500     1911.482   -116.90587    1.7295491   -115.17632    25562.282    4.3485471    4.3485471    4.3485471    25562.282     19209.87    18817.159    38659.817   -37293.293      14031.8   -15019.315    82.230422 
   42600    2309.7177   -117.30188    2.0898811     -115.212    19285.658    4.3626164    4.3626164    4.3626164    19285.658    19091.268    61170.996   -22405.291    8143.5906   -15102.479   -7399.1002    83.031154 
   42700    1106.1618   -116.23788    1.0008785     -115.237   -15535.337    4.3901608    4.3901608    4.3901608   -15535.337   -74248.532    34584.066   -6941.5447   -67786.295   -25725.824   -7062.9154    84.613816 
   42800    2017.2645   -117.02792    1.8252633   -115.20266   -4297.8708    4.3918207    4.3918207    4.3918207   -4297.8708    7370.7502   -23891.478    3627.1158   -31429.363    16045.631    3910.9715    84.709826 
   42900    1931.0237   -116.93157    1.7472308   -115.18434   -6687.6955    4.3800526    4.3800526    4.3800526   -6687.6955    -6584.121    4529.3014   -18008.267    6561.3651    -27741.86    6119.7106    84.030701 
   43000    1060.6586   -116.15111   0.95970616    -115.1914   -651.26945    4.3684296    4.3684296    4.3684296   -651.26945    -31861.28    29682.968    224.50316   -62517.636   -29349.544   -4854.3403    83.363516 
   43100    2396.1685   -117.34837    2.1681036   -115.18027    17796.013    4.3731044    4.3731044    4.3731044    17796.013    29775.179    8266.7313    15346.129    6100.1992    19730.081    15278.913    83.631432 
   43200    1414.7495   -116.47421    1.2800951   -115.19412    2643.4111    4.3906133    4.3906133    4.3906133    2643.4111    3322.7378   -11775.872    16383.367   -11767.356    -42167.67    7299.7094    84.639982 
   43300    1298.1347   -116.36292    1.1745796   -115.18834   -6021.7415     4.390926     4.390926     4.390926   -6021.7415   -41472.316   -11729.755    35136.847   -61324.423    -6356.056    4430.7645    84.658065 
   43400    2562.6402   -117.48841    2.3187307   -115.16968   -6593.6597    4.3689259    4.3689259    4.3689259   -6593.6597    4730.2197   -4270.9433   -20240.255    19055.092    11311.752   -4486.7695     83.39193 
   43500    1441.8203   -116.49959    1.3045893     -115.195    27927.103    4.3471854    4.3471854    4.3471854    27927.103    28452.451    28042.318     27286.54   -27953.274    -24258.53   -21954.171    82.153198 
   43600    1212.7962   -116.33875    1.0973635   -115.24139    7019.5781    4.3705605    4.3705605    4.3705605    7019.5781   -2337.7643   -33974.039    57370.537   -71511.559   -11879.772   -2193.1389    83.485567 
   43700    2844.2357   -117.76019    2.5735242   -115.18666   -25322.027    4.3919495    4.3919495    4.3919495   -25322.027    10181.102   -34276.609   -51870.574    20774.489     5072.473    3430.7248    84.717284 
   43800    1204.8698   -116.30053    1.0901915   -115.21034   -4294.7132    4.3737709    4.3737709    4.3737709   -4294.7132    2823.3376   -17251.313    1543.8361   -45535.684   -29272.206     -12807.2    83.669675 
   43900    1325.9076   -116.42225     1.199709   -115.22254   -18037.072      4.36147      4.36147      4.36147   -18037.072   -57808.484   -44284.528    47981.798   -57871.646   -23557.372    -9644.228    82.965718 
   44000    2843.1986   -117.79465    2.5725858   -115.22206    31497.463    4.3410805    4.3410805    4.3410805    31497.463    25410.512     31215.62    37866.258    42138.831    9652.2915    17047.605    81.807574 
   44100    1299.1996   -116.44807    1.1755431   -115.27252    7358.0589    4.3588847    4.3588847    4.3588847    7358.0589   -32092.856    1642.0928    52524.939   -54409.754   -14476.219   -14544.675     82.81827 
   44200    1003.2985   -116.16196    0.9078056   -115.25415   -53540.974    4.3951546    4.3951546    4.3951546   -53540.974    -95212.37   -45075.464   -20335.088   -53811.526     -30014.9   -9067.1821     84.90289 
   44300    2817.7443   -117.72094    2.5495543   -115.17139   -10811.436    4.3952726    4.3952726    4.3952726   -10811.436   -6691.3218   -12960.971   -12782.014    20028.268    18862.406    10418.774    84.909726 
   44400    796.06698    -115.8868   0.72029814    -115.1665   -10025.947    4.3955292    4.3955292    4.3955292   -10025.947   -25774.657   -4148.5272   -154.65556   -75113.698   -28886.743   -16599.476    84.924598 
   44500    2418.2279   -117.31949    2.1880634   -115.13143   -12927.372    4.3896357    4.3896357    4.3896357   -12927.372    -15618.89   -5746.3295   -17416.898    4827.6925   -2359.5312   -1528.0592     84.58346 
   44600    2014.9731   -116.97018      1.82319   -115.14699    18593.834    4.3710865    4.3710865    4.3710865    18593.834    11985.124    23157.949    20638.429   -25578.866    3845.3535   -7349.6199    83.515715 
   44700    646.35795   -115.78264   0.58483825    -115.1978   -2401.9498    4.3724907    4.3724907    4.3724907   -2401.9498   -24612.899    17342.532    64.518074    -52044.37   -38660.924   -491.36786     83.59623 
   44800    1903.1414   -116.92138    1.7220023   -115.19938      2622.33    4.3747068    4.3747068    4.3747068      2622.33    29361.303    19211.882   -40706.195    5928.1675   -32136.829    383.86961    83.723397 
   44900    2002.4683   -117.02518    1.8118754   -115.21331    22798.872     4.376094     4.376094     4.376094    22798.872    33328.587    26824.246    8243.7825   -24832.487    23757.322    19677.941    83.803071 
   45000    683.32873   -115.83987   0.61829019   -115.22158     2867.183     4.398958     4.398958     4.398958     2867.183   -5504.6133    31337.963   -17231.801   -57635.116   -40657.896    1448.5283    85.123496 
   45100    2178.2064   -117.12537    1.9708869   -115.15448    2194.9251     4.396618     4.396618     4.396618    2194.9251    15018.589    40864.147   -49297.961    3005.8042    14684.455    13844.274    84.987727 
   45200    1381.9317   -116.40714    1.2504008   -115.15674    16002.815    4.3742565    4.3742565    4.3742565    16002.815    7935.6937    31930.011    8142.7393   -36834.339    15264.057   -11471.252    83.697548 
   45300    1044.7769   -116.13359   0.94533612   -115.18825    937.81095    4.3699323    4.3699323    4.3699323    937.81095   -48502.538    50923.207    392.76397   -38450.018   -59864.595   -6816.8531    83.449572 
   45400    2378.2121   -117.33976    2.1518562    -115.1879    6494.5182    4.3749463    4.3749463    4.3749463    6494.5182     272.7118    33835.989   -14625.146    17256.359    7356.9922   -9964.1218    83.737149 
   45500    2082.4818   -117.08485    1.8842733   -115.20057    4669.8934    4.3766025    4.3766025    4.3766025    4669.8934   -6474.7832    27529.492   -7045.0284   -19465.605   -4293.0207   -952.41989    83.832289 
   45600    921.04307   -116.05544   0.83337913   -115.22206   -294.77666     4.381905     4.381905     4.381905   -294.77666   -48920.649    83613.892   -35577.572   -32551.465   -59942.986   -14747.894     84.13736 
   45700    2592.1637   -117.54162    2.3454442   -115.19618   -19485.627    4.3849413    4.3849413    4.3849413   -19485.627    -27081.96   -7876.4071   -23498.513    41357.482    11872.975    5839.5016    84.312379 
   45800     1820.803   -116.84391    1.6475009   -115.19641   -8191.1494    4.3675448    4.3675448    4.3675448   -8191.1494   -22985.606   -6365.7356    4777.8933   -13444.596   -26920.708    11000.061    83.312871 
   45900    903.84167   -116.02786   0.81781493   -115.21005    13906.141     4.364556     4.364556     4.364556    13906.141    1354.8249    64584.164   -24220.567   -36171.543   -55117.222   -16537.036    83.141952 
   46000    2787.2741   -117.71992    2.5219842   -115.19794   -1382.5856    4.3757091    4.3757091    4.3757091   -1382.5856    12873.274    4304.1847   -21325.215    35542.685    33447.386    10502.683     83.78096 
   46100    1630.4497   -116.69278    1.4752652   -115.21752    6883.6934    4.3733795    4.3733795    4.3733795    6883.6934    4601.8254    31601.689   -15552.434   -30153.492   -34320.485   -8443.5686    83.647214 
   46200     933.5707   -116.08137   0.84471439   -115.23665   -25590.783    4.3752378    4.3752378    4.3752378   -25590.783   -57675.794    24584.245   -43680.801   -42440.974   -47831.612    -10454.35    83.753889 
   46300    2475.5525   -117.44673    2.2399319    -115.2068    9827.8565    4.3714346    4.3714346    4.3714346    9827.8565   -8031.4015    37413.573    101.39786    10565.297     32314.96     784.9198     83.53567 
   46400    1256.1261   -116.36222    1.1365693   -115.22565    4738.9635    4.3789394    4.3789394    4.3789394    4738.9635   -74448.726    89927.678   -1262.0613   -12985.316   -55350.134   -3086.7501    83.966647 
   46500    1504.1427    -116.5578      1.36098   -115.19682   -40130.823    4.3962793    4.3962793    4.3962793   -40130.823   -85541.992    -28338.25   -6512.2285   -60610.904   -13986.335   -5429.7365    84.968082 
   46600    2413.5023   -117.34915    2.1837876   -115.16537   -2756.0615    4.3776734    4.3776734    4.3776734   -2756.0615   -39102.411    50717.321   -19883.095    7097.4658   -11821.518    9520.0428    83.893841 
   46700    1554.0066   -116.59238    1.4060979   -115.18629    -7044.595     4.358399     4.358399     4.358399    -7044.595   -57902.637    56485.873   -19717.022   -19255.818   -68445.827   -12740.275    82.790585 
   46800    1708.4534    -116.7512    1.5458446   -115.20536   -10233.827    4.3524359    4.3524359    4.3524359   -10233.827   -45011.938   -24952.372     39262.83    -63228.65    18616.801    1385.7603    82.451235 
   46900    1540.7688   -116.62135      1.39412   -115.22723    18326.939     4.369336     4.369336     4.369336    18326.939   -37719.133    108974.55   -16274.601    11719.864     -33256.4    4683.3648    83.415417 
   47000    1908.2814    -116.9345    1.7266531   -115.20785   -943.75036    4.3874137    4.3874137    4.3874137   -943.75036   -15619.293    29767.453   -16979.412    979.73542   -27568.064    -7124.604    84.455074 
   47100    1194.1562   -116.28287    1.0804976   -115.20237    20590.443     4.371839     4.371839     4.371839    20590.443   -16754.635    60740.614     17785.35   -51377.845    17427.731   -6276.3496    83.558854 
   47200    2042.1845   -117.04941    1.8478115    -115.2016   -7317.8933    4.3582199    4.3582199    4.3582199   -7317.8933   -15587.757   -2258.7801   -4107.1427    19878.092   -29621.369     12548.13    82.780382 
   47300    2022.2393   -117.03763    1.8297646   -115.20786    23185.816    4.3593104    4.3593104    4.3593104    23185.816    11057.783    31628.762    26870.903    -4276.217   -7570.6343   -4729.6204    82.842536 
   47400    902.65008   -116.05403   0.81673676    -115.2373   -23202.156    4.3857729    4.3857729    4.3857729   -23202.156   -8410.8235   -48055.676   -13139.968   -52586.415    14633.708   -23534.143     84.36036 
   47500     2327.127   -117.31703    2.1056334    -115.2114   -24113.346     4.387263     4.387263     4.387263   -24113.346   -29337.852   -25440.329   -17561.856    6079.7214   -175.34539    23826.206    84.446376 
   47600    2200.6536   -117.18779    1.9911976   -115.19659    22893.766    4.3557219    4.3557219    4.3557219    22893.766   -6827.7524    45407.818    30101.233    -13910.89   -613.32589   -739.09332     82.63812 
   47700     558.2661   -115.73831    0.5051309   -115.23318   -16852.584    4.3623881    4.3623881    4.3623881   -16852.584    664.95932   -15576.804   -35645.908   -54181.954    8674.7591   -30331.737    83.018119 
   47800    2225.6284   -117.22961    2.0137953   -115.21581    4362.8673    4.3686087    4.3686087    4.3686087    4362.8673   -6780.7378    45537.774   -25668.434    11960.493    3603.8222   -9229.8504    83.373767 
   47900    1988.6282   -117.02258    1.7993526   -115.22322   -11166.183    4.3681705    4.3681705    4.3681705   -11166.183   -56182.507   -507.51571    23191.473   -11740.746   -25145.278   -100.18724    83.348683 
   48000    1000.8888   -116.14453   0.90562519    -115.2389   -32608.718    4.3688691    4.3688691    4.3688691   -32608.718   -21258.193   -86884.258    10316.297   -59022.073    5443.3767     -27989.6    83.388682 
   48100    2431.1821   -117.40796    2.1997846   -115.20817    11359.284    4.3522109    4.3522109    4.3522109    11359.284    2676.2146    37617.983   -6216.3453    6851.5294   -9639.1486   -16471.496    82.438446 
   48200    1743.4164   -116.80392    1.5774798   -115.22644   -8136.5605    4.3598581    4.3598581    4.3598581   -8136.5605   -53618.961    25056.475    4152.8047   -7613.5599   -36445.039    18584.254    82.873762 
   48300    1368.1731   -116.47404    1.2379518   -115.23608   -24552.936    4.3680071    4.3680071    4.3680071   -24552.936   -32127.765   -43669.421    2138.3769   -48402.677   -1093.2119   -13279.264    83.339328 
   48400    2330.0288   -117.32197     2.108259   -115.21371    14751.146    4.3630768    4.3630768    4.3630768    14751.146     4254.837    68172.611   -28174.009   -170.60092   -4647.3571   -28175.863    83.057443 
   48500    1261.3635   -116.37559    1.1413082   -115.23428   -26073.824    4.3689641    4.3689641    4.3689641   -26073.824   -36185.825   -5221.7529   -36813.893   -10988.621   -30727.299    32131.818    83.394122 
   48600    1297.4091   -116.40692    1.1739231   -115.23299   -20366.329    4.3647001    4.3647001    4.3647001   -20366.329    -24189.85    -34895.45   -2013.6879   -52900.409   -15798.745     18207.45    83.150185 
   48700    2791.3521    -117.7305     2.525674   -115.20483    13041.901    4.3692536    4.3692536    4.3692536    13041.901   -3155.1047    39295.371    2985.4356    13160.139    9800.7011   -3437.7961      83.4107 
   48800    1099.2089   -116.22061    0.9945873   -115.22602   -20429.572    4.3856756    4.3856756    4.3856756   -20429.572   -51003.048    1505.5883   -11791.255   -20298.126   -5945.2548    24473.222    84.354744 
   48900    1157.9267   -116.25836    1.0477164   -115.21065    78.004552    4.3742467    4.3742467    4.3742467    78.004552   -12264.906    2749.0236     9749.896   -49368.867   -20847.678    16426.176    83.696986 
   49000    2788.1647   -117.71293      2.52279   -115.19014    16537.522    4.3609214    4.3609214    4.3609214    16537.522    33960.417    18052.821   -2400.6709    21483.475    16104.912   -13231.959    82.934416 
   49100    1709.0564   -116.76627    1.5463901   -115.21988    -15566.41     4.367143     4.367143     4.367143    -15566.41   -24599.653   -28565.443    6465.8678   -36897.194   -334.46989    9171.9311    83.289882 
   49200    622.04999   -115.80743    0.5628439   -115.24458     -2305.66    4.3638147    4.3638147    4.3638147     -2305.66   -19929.205    13065.982   -53.757535   -55884.137   -22700.465    32238.537    83.099595 
   49300    2024.0601   -117.06867    1.8314121   -115.23726    2140.0568    4.3645887    4.3645887    4.3645887    2140.0568   -5852.9551    30728.771   -18455.645    41350.159   -7130.5609    3858.3884     83.14382 
   49400    1655.2576   -116.73523    1.4977118   -115.23752   -20010.591    4.3732365    4.3732365    4.3732365   -20010.591    -55140.87   -36452.534    31561.631   -48275.094    20150.203   -15226.066    83.639011 
   49500    1580.6404   -116.66323    1.4301966   -115.23304   -7093.5543    4.3628255    4.3628255    4.3628255   -7093.5543   -44098.246   -7970.9826    30788.566   -60864.599   -20921.993     7471.717    83.043094 
   49600    1965.2037   -117.00158    1.7781576   -115.22343   -2085.4033    4.3556015    4.3556015    4.3556015   -2085.4033   -21137.845    50682.342   -35800.707    30375.702   -42853.345    11259.053     82.63127 
   49700    1216.3495   -116.34112    1.1005786   -115.24054   -26051.937    4.3633937    4.3633937    4.3633937   -26051.937   -39959.248    -27091.77   -11104.793   -36377.187    17574.404   -2512.3522    83.075545 
   49800     1221.185   -116.35635    1.1049538   -115.25139   -21612.872    4.3662766    4.3662766    4.3662766   -21612.872    -30069.92   -17534.434   -17234.261   -37402.659   -8172.5689   -24106.854    83.240319 
   49900    1969.3583   -117.02864    1.7819168   -115.24673    1834.0142    4.3694196    4.3694196    4.3694196    1834.0142    -23521.15    70036.379   -41013.187    24607.713   -43934.177   -16.906724    83.420204 
   50000    2204.4052   -117.23146    1.9945922   -115.23687   -1311.2154    4.3637288    4.3637288    4.3637288   -1311.2154    2494.7575   -112.69123   -6315.7126   -17457.267   -3563.6245    7153.0665    83.094689 
   50100    1548.3151   -116.65257     1.400948   -115.25163    9648.7153    4.3529078    4.3529078    4.3529078    9648.7153    27921.713    6632.2727   -5607.8396   -46053.451    13241.162   -38129.405    82.478054 
   50200    1389.9857   -116.52179    1.2576883   -115.26411     -10627.6    4.3545718    4.3545718    4.3545718     -10627.6   -1906.1214   -9097.4012   -20879.278    9220.3192   -11888.259   -18025.803    82.572675 
   50300    1788.3073   -116.87826     1.618098   -115.26016    6818.8335    4.3582501    4.3582501    4.3582501    6818.8335    5776.1828   -10744.646    25424.963    55099.787   -24908.179     15023.34    82.782102 
   50400    2177.3726    -117.2193    1.9701324   -115.24917   -6186.6392     4.376533     4.376533     4.376533   -6186.6392    20017.297     -12033.9   -26543.314   -2637.3005    12953.018   -34357.003    83.828293 
   50500     1474.835   -116.56988    1.3344617   -115.23542   -21159.193    4.3821514    4.3821514    4.3821514   -21159.193   -44952.313   -16791.057   -1734.2111    968.69893    11125.276   -23341.699     84.15155 
   50600    1132.4757   -116.24876    1.0246878   -115.22407    2215.7101    4.3576141    4.3576141    4.3576141    2215.7101   -55776.195    9572.1217    52851.203    53218.369   -19584.277    9407.4931    82.745865 
   50700    1817.5582   -116.86106    1.6445648    -115.2165    14249.613    4.3562593    4.3562593    4.3562593    14249.613     6447.828    33926.364    2374.6452   -18284.486   -23895.317   -22670.322    82.668711 
   50800    1895.9943   -116.93787    1.7155355   -115.22234   -18825.447    4.3709502    4.3709502    4.3709502   -18825.447   -12739.486   -23215.307    -20521.55    4934.2385    1913.0345   -45587.157    83.507901 
   50900    1560.0774   -116.64573    1.4115908   -115.23414    19817.174    4.3580436    4.3580436    4.3580436    19817.174    -7783.475    19314.187    47920.811    56501.383    1898.0287    -5680.533    82.770338 
   51000    1355.3256   -116.46917    1.2263271   -115.24285    17657.793     4.360958     4.360958     4.360958    17657.793   -12092.983    30092.724    34973.638   -30220.047   -18345.566   -7548.2357    82.936502 
   51100    1508.0315   -116.59132    1.3644986   -115.22682   -14460.256    4.3831329    4.3831329    4.3831329   -14460.256    -10602.85   -20588.645   -12189.271   -24051.668    5373.2891   -29265.759    84.208109 
   51200    2375.4532   -117.33484      2.14936   -115.18548   -2511.5822    4.3848278    4.3848278    4.3848278   -2511.5822   -32203.067    8866.1445    15802.176    28493.013    10059.378    16502.813    84.305835 
   51300    1152.2918   -116.24205    1.0426179   -115.19943   -29974.069    4.3758968    4.3758968    4.3758968   -29974.069   -85170.232    -8686.937    3934.9631   -37698.607    -36069.53   -14103.746    83.791739 
   51400    882.84966   -116.03183   0.79882093   -115.23301   -21091.271    4.3507388    4.3507388    4.3507388   -21091.271   -62561.546    23977.431     -24689.7   -24064.907    25754.237   -17364.372    82.354819 
   51500    2339.4495   -117.35978    2.1167831     -115.243    35104.904    4.3378433    4.3378433    4.3378433    35104.904   -6870.3265    58798.593    53386.445    21289.022    27864.118   -6111.8689    81.624695 
   51600    2249.1189   -117.30143      2.03505   -115.26638    5489.7553    4.3627746    4.3627746    4.3627746    5489.7553   -19324.468    23658.394    12135.341    8119.7812   -14591.631    12602.934    83.040191 
   51700    1524.5057   -116.64204    1.3794048   -115.26264   -22148.147    4.3806189    4.3806189    4.3806189   -22148.147   -53468.154    2848.2289   -15824.516   -24169.594    1380.1803   -12013.742    84.063296 
   51800    1140.7667   -116.27978    1.0321897   -115.24759   -13978.509    4.3717189    4.3717189    4.3717189   -13978.509   -89003.129    18709.964    28357.639    35299.131     21628.06   -12560.905    83.551971 
   51900    1796.6448   -116.86355    1.6256419   -115.23791   -9837.7481    4.3519467    4.3519467    4.3519467   -9837.7481   -34379.795   -14136.264    19002.814    27242.661   -2120.5127     29326.86    82.423436 
   52000    1611.3506   -116.70567    1.4579839   -115.24768    2387.8899    4.3432278    4.3432278    4.3432278    2387.8899    44666.884   -8637.6614   -28865.553   -14314.704   -2285.5191   -33083.909    81.929033 
   52100    1702.8732   -116.81397    1.5407955   -115.27318    2689.3266    4.3497231    4.3497231    4.3497231    2689.3266    2704.7465    25219.368   -19856.135    5016.1688    22838.547   -35816.114    82.297159 
   52200    2419.4794   -117.45534    2.1891958   -115.26614    3994.2244    4.3641719    4.3641719    4.3641719    3994.2244   -42709.461    45920.225    8771.9096    17161.776    32827.391    17680.514        83.12 
   52300    1512.1541   -116.63803    1.3682288   -115.26981    2825.3546    4.3689149    4.3689149    4.3689149    2825.3546    13222.936    6586.8618   -11333.734   -15264.287    -4727.487   -33622.964    83.391304 
   52400    1034.0278   -116.19995   0.93561008   -115.26434     -6519.55    4.3643482    4.3643482    4.3643482     -6519.55    30601.678   -3545.6692   -46614.659   -15929.152    13981.805    -24679.77    83.130078 
   52500    1690.2861   -116.78551    1.5294064   -115.25611    2174.6596    4.3554772    4.3554772    4.3554772    2174.6596   -14308.549     40561.98   -19729.453    15459.429    48363.717    22578.507    82.624192 
   52600    1961.5912   -117.02678     1.774889   -115.25189    19042.281    4.3528398    4.3528398    4.3528398    19042.281   -5544.9924    44104.509    18567.328    17664.757   -11807.775   -15128.475    82.474189 
   52700    2103.6341   -117.15246    1.9034123   -115.24905   -3372.1088    4.3688764    4.3688764    4.3688764   -3372.1088     5864.648   -2862.0492   -13118.925   -29099.331    3480.4171   -25881.687      83.3891 
   52800    1532.3947   -116.62984     1.386543   -115.24329   -16242.064    4.3770799    4.3770799    4.3770799   -16242.064   -2897.7237   -36020.598   -9807.8697   -4863.3298    39312.165    15220.107    83.859722 
   52900    1766.2837    -116.8267    1.5981706   -115.22853    736.45868       4.3634       4.3634       4.3634    736.45868    25097.348   -12262.841   -10625.131    58758.488   -15863.459     8802.427    83.075902 
   53000    1665.1517    -116.7378    1.5066643   -115.23113   -837.49938     4.360793     4.360793     4.360793   -837.49938   -9132.1837   -5703.9611    12323.647   -35634.391   -11345.995   -6256.3337    82.927085 
   53100    1928.9619   -116.97687    1.7453653    -115.2315    137.46738     4.359079     4.359079     4.359079    137.46738    3171.9166   -11476.851    8717.3365   -52833.823   -51.450253    8136.9754    82.829342 
   53200     1432.577   -116.54638    1.2962258   -115.25016    3132.4294    4.3598051    4.3598051    4.3598051    3132.4294    15708.922    440.63094   -6752.2645     66073.39   -4675.6003     2594.621    82.870743 
   53300    1263.2934   -116.40581    1.1430544   -115.26275   -17202.088    4.3645926    4.3645926    4.3645926   -17202.088   -27386.117   -2339.8214   -21880.325     23791.18    -20135.75    6118.3245    83.144042 
   53400    2154.4025   -117.19789    1.9493487   -115.24854    6298.6054    4.3515551    4.3515551    4.3515551    6298.6054    -17034.41    62240.783   -26310.557   -33188.508   -16473.548    7373.1036    82.401187 
   53500    1737.2707   -116.83174    1.5719191   -115.25983    15293.226    4.3543536    4.3543536    4.3543536    15293.226   -3406.5242    28024.077    21262.126    21094.062    31583.135    4769.6631    82.560263 
   53600    1377.8641   -116.50496    1.2467204   -115.25824   -5828.8731    4.3697727    4.3697727    4.3697727   -5828.8731    7764.0751   -10085.042   -15165.652    31331.247   -25561.323    11170.385    83.440432 
   53700    1684.0439   -116.75021    1.5237583   -115.22645    4594.5897    4.3755516    4.3755516    4.3755516    4594.5897    32997.086    24362.033   -43575.349   -7857.0927    -14913.48   -15186.169     83.77191 
   53800     1500.328   -116.57348    1.3575283   -115.21595   -35770.036    4.3848383    4.3848383    4.3848383   -35770.036   -66625.688   -2250.8877   -38433.533    19723.406    66850.122   -5936.3976    84.306437 
   53900    2053.0373     -117.057    1.8576313   -115.19937   -19662.756    4.3726703    4.3726703    4.3726703   -19662.756   -27981.495   -32309.903    1303.1314    31101.876   -5645.9636    3693.0855    83.606529 
   54000    2423.4299   -117.38542    2.1927703   -115.19265   -4329.1091    4.3571699    4.3571699    4.3571699   -4329.1091    26303.356    973.90736   -40264.591   -24254.732   -716.18862   -19196.328    82.720566 
   54100    817.13193   -115.97075   0.73935814   -115.23139   -31457.882    4.3595779    4.3595779    4.3595779   -31457.882   -57029.993   -6510.2862   -30833.368    46245.729    60534.818   -14952.445    82.857788 
   54200    1699.5718   -116.77735    1.5378083   -115.23954   -4511.8384     4.364864     4.364864     4.364864   -4511.8384   -22398.851    2315.7308    6547.6055    25155.516    5389.5751   -361.33117    83.159554 
   54300    2587.7215   -117.56156    2.3414248   -115.22014   -15237.369    4.3843293    4.3843293    4.3843293   -15237.369   -21182.179    1815.5664   -26345.494   -28379.959    11609.313   -2968.5579    84.277086 
   54400    950.57148   -116.07677   0.86009705   -115.21667    6618.7032      4.38501      4.38501      4.38501    6618.7032   -27333.776    42514.208    4675.6768    50901.986    46179.182   -21649.385    84.316344 
   54500    2135.1144   -117.11192    1.9318964   -115.18003    8447.5052    4.3773576    4.3773576    4.3773576    8447.5052   -9019.5119    1437.2181    32924.809    31084.947   -14914.112     11883.85    83.875685 
   54600    2393.7438    -117.3543    2.1659097   -115.18839    4635.7166    4.3584241    4.3584241    4.3584241    4635.7166   -14150.115    17231.221    10826.044   -18781.508    20928.477    10956.769    82.792016 
   54700     715.8566   -115.87494   0.64772209   -115.22721    13762.179    4.3493739    4.3493739    4.3493739    13762.179   -38845.843    33091.793    47040.589    57397.378    52739.801   -30104.761    82.277339 
   54800    2168.6962   -117.19322    1.9622819   -115.23094   -28089.402    4.3757678    4.3757678    4.3757678   -28089.402   -48775.786    -25461.35    -10031.07    25307.266   -27517.722   -785.15043    83.784332 
   54900     2082.543   -117.09331    1.8843286   -115.20898   -4785.1346    4.3837638    4.3837638    4.3837638   -4785.1346   -19047.041    23428.939   -18737.302   -19884.213    24726.193   -9030.8293    84.244477 
   55000    810.81574   -115.94037   0.73364312   -115.20673    -14239.22    4.3789017    4.3789017    4.3789017    -14239.22   -46542.569   -14652.927    18477.836    60316.168    43198.412   -18646.442    83.964478 
   55100    2659.9807   -117.58268    2.4068065   -115.17587   -10329.085    4.3728282    4.3728282    4.3728282   -10329.085     17430.05   -42866.097   -5551.2091    8074.0974    -24474.71    3315.0305    83.615587 
   55200    2009.0641   -117.00834    1.8178434    -115.1905   -15295.641    4.3693913    4.3693913    4.3693913   -15295.641   -22132.957    2134.3376   -25888.305    15665.834    33399.916   -3436.8012    83.418583 
   55300    734.62754    -115.8877   0.66470644   -115.22299   -25621.529    4.3697881    4.3697881    4.3697881   -25621.529   -79289.464    4827.6615   -2402.7856    64723.296    42262.326    -8945.318    83.441316 
   55400    2687.7385   -117.64061    2.4319223   -115.20869    1414.4402    4.3617992    4.3617992    4.3617992    1414.4402    10842.582   -4382.5499   -2216.7112   -17842.834   -19916.967   -10801.924    82.984502 
   55500    1913.4383   -116.96154    1.7313191   -115.23022    7637.2494    4.3567729    4.3567729    4.3567729    7637.2494    -28358.52    41705.281    9564.9874    8098.6378    12338.148    6313.4018    82.697952 
   55600    834.50512    -116.0108   0.75507777   -115.25572   -24630.224    4.3589644    4.3589644    4.3589644   -24630.224   -82476.258   -2421.9041    11007.489    81701.558    44027.427   -6813.7668     82.82281 
   55700    2498.8327   -117.50159    2.2609964   -115.24059   -470.81685    4.3678687    4.3678687    4.3678687   -470.81685   -8165.7375   -6594.3496    13347.636   -5053.1029    -4708.448    -6635.977    83.331406 
   55800    1974.9648   -117.02165    1.7869896   -115.23466    -17113.25    4.3761096    4.3761096    4.3761096    -17113.25   -54489.815    -4865.831    8015.8973     11152.56    6549.6253   -1298.1625    83.803968 
   55900    695.49464   -115.86358   0.62929817   -115.23428   -23424.522    4.3661451    4.3661451    4.3661451   -23424.522   -67240.455   -3827.5415     794.4316    69172.254    53122.099   -593.14338    83.232795 
   56000    2603.8538   -117.56184    2.3560217   -115.20582    2169.0541    4.3587036    4.3587036    4.3587036    2169.0541   -529.04188   -20931.864    27968.068   -17838.442    1733.6463    2694.9011    82.807946 
   56100    1845.8326   -116.88992    1.6701482   -115.21977   -15362.715    4.3657429    4.3657429    4.3657429   -15362.715   -36714.611   -31801.226    22427.692    8799.3126   -5822.1487   -3885.4155    83.209796 
   56200    722.25222   -115.89371   0.65350898    -115.2402   -24237.229    4.3591945    4.3591945    4.3591945   -24237.229   -82028.812    7795.2136    1521.9102    51766.233     71579.75   -895.16557    82.835928 
   56300    2016.6575   -117.06369     1.824714   -115.23898   -546.27254    4.3566888    4.3566888    4.3566888   -546.27254    27851.027   -12671.693   -16818.152   -434.42197     3872.299    28230.635    82.693165 
   56400     2117.838   -117.14398    1.9162643   -115.22772   -13413.294    4.3717607    4.3717607    4.3717607   -13413.294   -9590.3852   -26424.112   -4225.3846   -4624.6612   -17717.901    10948.054    83.554367 
   56500    955.99333   -116.09183   0.86500285   -115.22682   -1591.1569    4.3689779    4.3689779    4.3689779   -1591.1569   -44812.369    17345.129    22693.769    39608.261    69190.741   -7318.9662    83.394912 
   56600    1993.5282   -117.01326    1.8037862   -115.20947   -8655.5662    4.3681666    4.3681666    4.3681666   -8655.5662    10655.838   -9231.4108   -27391.125   -1137.7715   -616.90123    39611.617    83.348462 
   56700    1843.0283   -116.87377    1.6676107   -115.20616   -18634.421    4.3710436    4.3710436    4.3710436   -18634.421   -13524.662   -14434.017   -27944.585   -2441.5635   -24178.535    15600.935    83.513258 
   56800    1611.5388   -116.66757    1.4581542   -115.20942     11245.33    4.3515498    4.3515498    4.3515498     11245.33   -23278.394     43351.83    13662.553    24034.354    37121.197   -10566.752    82.400882 
   56900    1764.6466   -116.81672    1.5966893   -115.22003    11116.033    4.3545308    4.3545308    4.3545308    11116.033    27127.392    18120.513   -11899.807    2385.0396    6371.7728    49554.835    82.570347 
   57000    1346.6759   -116.44622    1.2185007   -115.22772   -35205.337      4.37272      4.37272      4.37272   -35205.337    5915.9002   -55291.506   -56240.405   -6829.2237    -20170.93    29805.041    83.609383 
   57100    2034.4185   -117.04985    1.8407846   -115.20906   -1043.2498    4.3634503    4.3634503    4.3634503   -1043.2498       -11970    13869.722   -5029.4708   -4137.8546    4853.6078   -36930.609    83.078776 
   57200     1239.524    -116.3472    1.1215474   -115.22565   -20431.087    4.3652169    4.3652169    4.3652169   -20431.087     39820.65   -56323.855   -44790.057    4402.3112    11604.793    87306.135    83.179728 
   57300    1941.4736   -116.97166    1.7566861   -115.21498   -9976.3641    4.3673782    4.3673782    4.3673782   -9976.3641    10566.181   -53313.128    12817.855   -18449.427    3919.3534    29740.498    83.303337 
   57400    2264.8102   -117.25723    2.0492479   -115.20798    21191.989    4.3551721    4.3551721    4.3551721    21191.989    16619.248    4966.9457    41989.774   -6587.5807    -17201.43   -3782.3417     82.60683 
   57500    847.28384   -116.01019   0.76664022   -115.24355   -21724.445    4.3669096    4.3669096    4.3669096   -21724.445    40198.101   -46174.216   -59197.221   -436.04971     14334.29    87729.508    83.276526 
   57600    2008.2168   -117.02781    1.8170767   -115.21073   -643.61517    4.3769079    4.3769079    4.3769079   -643.61517   -39105.349   -4601.2824    41775.786   -8704.3038     10028.64   -33098.658    83.849839 
   57700    1694.5027   -116.74581    1.5332216   -115.21259    15535.628    4.3573826    4.3573826    4.3573826    15535.628   -2361.2113    35323.067    13645.029   -9610.5809   -30438.115    28495.922     82.73268 
   57800    1927.7467   -116.95438    1.7442657   -115.21012    37958.734    4.3462604    4.3462604    4.3462604    37958.734    33937.272    26597.784    53341.146    -4902.206    538.34368    52178.031    82.100772 
   57900    1841.6938    -116.8952    1.6664033    -115.2288   -11160.306    4.3656706    4.3656706    4.3656706   -11160.306   -40553.328     37801.89   -30729.479    7981.3271    28867.288   -28584.739    83.205665 
   58000    1277.5164   -116.38716    1.1559237   -115.23123    743.54677    4.3706398    4.3706398    4.3706398    743.54677   -32345.304    45618.052   -11042.107   -22687.554   -33248.465   -2797.3166    83.490114 
   58100     2276.129    -117.2657    2.0594893   -115.20621    15346.388    4.3683174    4.3683174    4.3683174    15346.388    10508.993    12662.773    22867.398   -2039.0113    731.15844      12458.9    83.357093 
   58200    1430.9804   -116.51843    1.2947811   -115.22364    -21659.79    4.3691887    4.3691887    4.3691887    -21659.79   -55484.785    11093.742   -20588.327     30812.67    59950.252   -1089.5255     83.40698 
   58300    1386.1954   -116.48026    1.2542588     -115.226    12920.429    4.3502101    4.3502101    4.3502101    12920.429   -19831.537    52103.596    6489.2277    -14096.73   -41998.664   -18383.391    82.324803 
   58400    2241.8699    -117.2516     2.028491   -115.22311    11206.988    4.3564322    4.3564322    4.3564322    11206.988   -19485.604    10560.256    42546.312     6894.186   -15206.216    3271.2518    82.678553 
   58500    1503.5515   -116.59112     1.360445   -115.23068   -24694.946    4.3710363    4.3710363    4.3710363   -24694.946   -62940.616   -19416.325    8272.1043    26032.446    39543.737    13951.835    83.512838 
   58600    1647.7161   -116.71378    1.4908882   -115.22289    7633.9457    4.3657798    4.3657798    4.3657798    7633.9457   -31399.199    21027.392    33273.644   -7839.9398   -16802.395   -12027.633    83.211909 
   58700    2176.6193     -117.178    1.9694509   -115.20855    7205.1223    4.3689118    4.3689118    4.3689118    7205.1223    18644.623   -9669.0191    12639.763    5287.0807   -25263.562    11864.726    83.391123 
   58800    877.97879   -116.02301   0.79441366    -115.2286   -2984.4859     4.361809     4.361809     4.361809   -2984.4859    -15382.41   -26855.757     33284.71    36448.203     21405.26    16592.084    82.985066 
   58900    1720.6278   -116.78456    1.5568602    -115.2277    12772.796    4.3597709    4.3597709    4.3597709    12772.796    23832.645    2840.8167    11644.927   -14134.137    7133.9941    384.99646    82.868793 
   59000    2271.7936   -117.27004    2.0555666   -115.21447    14112.509    4.3644289    4.3644289    4.3644289    14112.509     66794.73   -23667.557    -789.6478    2870.1951    -10769.91   -27167.612    83.134689 
   59100    1267.7198   -116.37938    1.1470595   -115.23232   -3294.7248    4.3667907    4.3667907    4.3667907   -3294.7248    -358.1561   -28650.913    19124.895    39966.537    17880.415    4594.5808    83.269726 
   59200    1636.6435   -116.70484    1.4808694   -115.22397    8122.1635    4.3646983    4.3646983    4.3646983    8122.1635    10235.589    8856.3189    5274.5822   -14824.548      23604.6    6257.3155    83.150083 
   59300    2143.5367   -117.14526     1.939517   -115.20574    7141.7189    4.3658063    4.3658063    4.3658063    7141.7189    39875.456    3749.1847   -22199.484    3157.9489   -12471.932   -51716.564    83.213422 
   59400     1668.575   -116.72595    1.5097617   -115.21619   -3746.0933    4.3706807    4.3706807    4.3706807   -3746.0933   -18125.036   -13096.437    19983.193    45171.873   -9412.4253    11155.657    83.492456 
   59500    1861.7747   -116.89384    1.6845729   -115.20927    1382.2197    4.3652338    4.3652338    4.3652338    1382.2197    21487.928   -9614.7279   -7726.5411     17173.63    25047.339    -2370.244    83.180694 
   59600    1861.7519   -116.89704    1.6845523   -115.21249    25569.494    4.3570288    4.3570288    4.3570288    25569.494    60183.509    33218.714   -16693.742   -9463.4818   -12380.282   -61048.018     82.71253 
   59700     1823.946   -116.86976    1.6503447   -115.21941   -446.77516    4.3671598    4.3671598    4.3671598   -446.77516   -23642.257   -22634.119    44936.051    53285.602   -10581.308    7295.9702     83.29084 
   59800    1659.4818   -116.71696     1.501534   -115.21543   -6493.3818     4.368407     4.368407     4.368407   -6493.3818    27096.166   -42396.504   -4179.8073    24455.268    9499.3029    9766.5218     83.36222 
   59900    1246.9012   -116.34855    1.1282224   -115.22032    7497.1602    4.3624084    4.3624084    4.3624084    7497.1602    60091.054   -12471.882   -25127.692    -13457.92    6901.4488   -57006.241    83.019281 
   60000    2322.1657    -117.3092    2.1011443   -115.20806   -739.68263    4.3659922    4.3659922    4.3659922   -739.68263   -23308.057   -36392.011    57481.019    15702.224    553.46851    2220.2586    83.224052 
   60100    1769.2649   -116.81932     1.600868   -115.21845    1095.7632    4.3640464    4.3640464    4.3640464    1095.7632    30165.685   -18669.284   -8209.1117    17420.546   -7568.5848   -7264.8244    83.112834 
   60200    1171.6229   -116.28707    1.0601091   -115.22696   -6541.2923    4.3628542    4.3628542    4.3628542   -6541.2923    60960.012   -53437.536   -27146.352   -14594.771    16201.857   -47885.317    83.044735 
   60300    1772.9432   -116.81885    1.6041963   -115.21465   -10508.262    4.3658511    4.3658511    4.3658511   -10508.262   -46172.939    -22445.46    37093.613   -7910.8019   -16557.946    15801.081    83.215984 
   60400    1397.7573    -116.4873    1.2647201   -115.22258   -10348.484     4.359468     4.359468     4.359468   -10348.484   -25388.052     15453.93    -21111.33    18600.676    -35094.68   -19594.078    82.851522 
   60500    1468.2078   -116.56234    1.3284653   -115.23387   -11018.526    4.3575301    4.3575301    4.3575301   -11018.526    40610.233   -37425.334   -36240.477    2940.0369    5026.0455   -76297.913    82.741082 
   60600    2254.6474   -117.26568    2.0400523   -115.22562   -5444.0786    4.3666778    4.3666778    4.3666778   -5444.0786   -36929.118   -10117.561    30714.444   -20256.731    3646.3561    26467.482    83.263266 
   60700    1178.4501   -116.29882    1.0662864   -115.23253    1402.7452     4.366408     4.366408     4.366408    1402.7452   -13524.424    9566.3844    8166.2749   -10461.473   -22719.957   -34583.158    83.247836 
   60800    1240.6938    -116.3586    1.1226058     -115.236   -669.60897    4.3681808    4.3681808    4.3681808   -669.60897    20679.665   -16585.504   -6102.9878    17351.246   -9484.5097   -70687.262    83.349274 
   60900    2587.3856   -117.54527    2.3411209   -115.20415    6177.6764    4.3748854    4.3748854    4.3748854    6177.6764   -22254.587    2417.3545    38370.262   -2204.1404    11481.833    32486.081    83.733656 
   61000    949.40486   -116.07745   0.85904147   -115.21841    5945.4563    4.3754563    4.3754563    4.3754563    5945.4563    30194.459    1550.8761   -13908.966   -17197.887   -10170.033    -67007.86    83.766442 
   61100    1784.5187   -116.80521    1.6146701   -115.19054    12706.057    4.3780788    4.3780788    4.3780788    12706.057    68368.328   -10823.405   -19426.751    10248.971   -19741.718   -20293.876    83.917147 
   61200    2252.6545   -117.21205    2.0382491    -115.1738   -16362.857    4.3800848    4.3800848    4.3800848   -16362.857   -3807.6655   -31341.178   -13939.727   -9975.3388   -1577.5297    18763.408    84.032554 
   61300    654.96949   -115.79492   0.59263016   -115.20229   -25237.571    4.3713258    4.3713258    4.3713258   -25237.571    31049.831   -46367.732   -60394.812   -16697.103    7452.8798   -95700.795    83.529433 
   61400    2546.0373   -117.49131    2.3037081    -115.1876    9101.9528     4.352288     4.352288     4.352288    9101.9528   -7042.5395    7840.9849    26507.413   -7312.4143   -22899.194    7560.4911    82.442826 
   61500    1732.2606   -116.78552    1.5673858   -115.21814    8484.5082    4.3534225    4.3534225    4.3534225    8484.5082    68566.919   -28262.137   -14851.257    18355.154    15270.828   -18580.895    82.507313 
   61600    1094.8066   -116.22988   0.99060403   -115.23927    -20095.33     4.370503     4.370503     4.370503    -20095.33    43435.115   -72947.308   -30773.796   -11298.996   -859.72576   -80528.995    83.482274 
   61700    2573.4036   -117.53702    2.3284697   -115.20855    3081.0019    4.3746427    4.3746427    4.3746427    3081.0019   -18712.399   -21418.749    49374.153   -1685.0963   -22013.072    28261.488    83.719717 
   61800    1001.2921   -116.13066   0.90599017   -115.22467    4949.6088    4.3703886    4.3703886    4.3703886    4949.6088    60581.516   -42986.519   -2746.1707    23747.963    8200.3459   -72640.564    83.475717 
   61900    1499.5708   -116.56794    1.3568431    -115.2111   -5412.4823    4.3684719    4.3684719    4.3684719   -5412.4823    62479.809   -70913.424   -7803.8317   -8193.3259   -15252.964   -21514.455    83.365935 
   62000    2211.2826   -117.18204     2.000815   -115.18123    17800.475    4.3685412    4.3685412    4.3685412    17800.475    9157.8903    20138.194    24105.342      575.735   -4883.4793    30097.281    83.369907 
   62100    952.02651   -116.06221    0.8614136    -115.2008    -14061.13    4.3841107    4.3841107    4.3841107    -14061.13    52357.439   -59262.581   -35278.249    9315.3596    8837.7063   -91045.471    84.264479 
   62200    2280.8886   -117.22728    2.0637959   -115.16348   -20767.873    4.3852554    4.3852554    4.3852554   -20767.873   -15609.059   -29153.357   -17541.202   -233.17746    5477.7354    29946.959    84.330502 
   62300    1719.5412   -116.73585     1.555877   -115.17998    21009.337    4.3548737    4.3548737    4.3548737    21009.337     67087.85    11923.114   -15982.953   -13227.549   -3281.9367   -24069.619    82.589855 
   62400    1126.3127   -116.22392    1.0191114   -115.20481    2165.2256    4.3527935    4.3527935    4.3527935    2165.2256    72125.373   -20185.633   -45444.064    17441.601    5413.8018   -75232.385    82.471559 
   62500    2247.7767   -117.23332    2.0338356   -115.19949    11753.043    4.3658812    4.3658812    4.3658812    11753.043   -30654.786     45854.25    20059.667    4407.8747   -4355.2819    25313.725    83.217705 
   62600    1089.3984   -116.20778   0.98571059   -115.22207   -6133.8514    4.3780887    4.3780887    4.3780887   -6133.8514    1805.2883    4990.8185   -25197.661    -5652.608   -14751.756    -58311.85    83.917719 
   62700    1992.6831   -117.00332    1.8030216   -115.20029   -15815.367    4.3791333    4.3791333    4.3791333   -15815.367    11687.219    -5057.716   -54075.604    12014.615    8950.0572   -1168.9485    83.977798 
   62800    1797.3744   -116.80309    1.6263022   -115.17679    31410.326    4.3690131    4.3690131    4.3690131    31410.326    16451.877    29373.781     48405.32   -9340.1704   -12377.973   -9866.8171    83.396925 
   62900    1319.1726     -116.377    1.1936151   -115.18338    16512.591    4.3881582    4.3881582    4.3881582    16512.591    45079.851   -13452.937    17910.859   -4472.1256   -18881.484   -68018.011    84.498077 
   63000     2355.849   -117.26327    2.1316217   -115.13165    2331.5245    4.3932409    4.3932409    4.3932409    2331.5245   -16914.287    9280.0045    14628.856    94.104547    3317.3089    41242.779    84.792032 
   63100    1092.1199    -116.1486   0.98817303   -115.16043    3755.4535    4.3680909    4.3680909    4.3680909    3755.4535    40540.443   -14075.634   -15198.449   -20932.275   -11487.939   -51432.319    83.344126 
   63200    1756.8693   -116.77488    1.5896523   -115.18523   -8257.4734    4.3545801    4.3545801    4.3545801   -8257.4734    2051.0134   -8300.1056   -18523.328   -2367.9938   -6588.3379   -47473.094     82.57315 
   63300    2120.3273   -117.12228    1.9185167   -115.20377    9627.2447    4.3501398    4.3501398    4.3501398    9627.2447   -18623.044    42159.079    5345.6985    13980.609    35898.753    23604.911    82.320809 
   63400    1543.7239   -116.63057    1.3967939   -115.23378   -8946.3966    4.3710067    4.3710067    4.3710067   -8946.3966    30155.425   -356.30425    -56638.31    -10448.76   -13732.524   -47676.329    83.511138 
   63500    1708.2958   -116.76632    1.5457019   -115.22061   -29813.441    4.3822558    4.3822558    4.3822558   -29813.441   -15480.963   -8890.1633   -65069.196   -17464.708    7101.6859   -31330.722    84.157567 
   63600    1645.4498   -116.69025    1.4888376   -115.20141    4644.4929    4.3673448    4.3673448    4.3673448    4644.4929   -29969.863    53582.642      -9679.3     30627.04    70346.597    14709.324    83.301429 
   63700    1899.9885   -116.91618    1.7191495   -115.19703   -4396.1268    4.3625779    4.3625779    4.3625779   -4396.1268    7641.0492    7858.4499   -28687.879   -4408.3302   -39086.309   -19250.363    83.028959 
   63800    1340.8978   -116.42846    1.2132725   -115.21519   -509.42236    4.3589922    4.3589922    4.3589922   -509.42236   -3632.1144    10705.474   -8601.6264   -16559.908   -8750.3513   -31150.949    82.824397 
   63900    2240.6691    -117.2459    2.0274045   -115.21849    9083.0658    4.3635427    4.3635427    4.3635427    9083.0658   -17576.649    41434.081     3391.765    16191.436    52347.034    11159.204    83.084055 
   64000    1722.6305   -116.77535    1.5586723   -115.21668   -7086.9178    4.3723051    4.3723051    4.3723051   -7086.9178   -24625.723     13770.42   -10405.451   -7346.9308   -33543.476    4107.5205    83.585581 
   64100    824.51208    -115.9784   0.74603586   -115.23236   -11676.432    4.3677815    4.3677815    4.3677815   -11676.432   -15013.429   -6244.7593   -13771.109    -2850.511     -20070.5   -33539.334    83.326418 
   64200    2625.5201    -117.5833    2.3756257   -115.20767    17167.175    4.3611693    4.3611693    4.3611693    17167.175   -5460.3541    61102.818     -4140.94    4732.9113    19394.291   -7763.6882     82.94856 
   64300    1467.8455    -116.5525    1.3281374   -115.22436    24051.348    4.3515904    4.3515904    4.3515904    24051.348   -36686.556    78527.998    30312.603    2427.2456   -32230.216    11166.448    82.403193 
   64400    1187.4479   -116.32034    1.0744278   -115.24592   -12871.854    4.3646712    4.3646712    4.3646712   -12871.854    -4801.292    13481.606   -47295.876    1895.5688   -31306.939   -34635.515    83.148535 
   64500    2432.2622   -117.40747     2.200762   -115.20671    15818.474    4.3760292    4.3760292    4.3760292    15818.474   -252.08647    29642.457    18065.053   -479.16876    13436.965   -12701.767    83.799345 
   64600    1153.5996   -116.25277    1.0438011   -115.20897    16125.441    4.3795348    4.3795348    4.3795348    16125.441    -16435.44    82697.333   -17885.571    7998.5335   -24315.896    10929.457    84.000903 
   64700     1962.961   -116.95377    1.7761283   -115.17764   -9795.4183    4.3819052    4.3819052    4.3819052   -9795.4183   -24323.087    11057.599   -16120.767   -7738.5877   -13898.029   -27510.115    84.137373 
   64800    1979.6615   -116.97221    1.7912393   -115.18097    14606.979    4.3568085    4.3568085    4.3568085    14606.979   -42835.707    43394.634    43262.008    -21596.42    11813.868   -4916.8412    82.699982 
   64900    1126.6466    -116.2237    1.0194135   -115.20428    16918.461    4.3510738    4.3510738    4.3510738    16918.461   -23538.494    90748.952   -16455.076    6817.2066   -11504.124    2924.5722    82.373849 
   65000    1925.2482   -116.95234     1.742005   -115.21033   -17810.687     4.376626     4.376626     4.376626   -17810.687   -38769.361   -31846.553    17183.852   -11062.015   -11859.733    18283.668    83.833637 
   65100    1811.7097   -116.84561     1.639273   -115.20634    889.93066    4.3730465    4.3730465    4.3730465    889.93066   -51601.149   -7205.8201    61476.762   -23591.407    9672.0501   -18838.112    83.628109 
   65200     1097.686   -116.20537   0.99320936   -115.21217    3053.8404    4.3669934    4.3669934    4.3669934    3053.8404   -34339.203    62045.396   -18544.672    7521.2199   -2393.7187   -1845.3133    83.281321 
   65300    2035.7745   -117.03815    1.8420116   -115.19614   -2348.5814     4.368772     4.368772     4.368772   -2348.5814   -32224.381   -10897.499    36076.136   -7701.8614   -10285.784   -1679.6133    83.383122 
   65400    1791.0544   -116.82161    1.6205837   -115.20102    20237.382    4.3519032    4.3519032    4.3519032    20237.382   -9765.8666     5726.655    64751.358   -19382.141    18245.473   -10165.901    82.420964 
   65500     1175.306   -116.28638    1.0634416   -115.22294    7964.6397    4.3671665    4.3671665    4.3671665    7964.6397   -9254.8284    58742.169   -25593.421   -2145.2132    36259.875    4303.3257    83.291223 
   65600     2237.057    -117.2116    2.0241362   -115.18747    -10704.72    4.3795741    4.3795741    4.3795741    -10704.72    3579.3868   -50008.488    14314.941    26448.153   -4787.6696   -3375.2289    84.003165 
   65700    884.98976   -115.99646   0.80075733    -115.1957     46563.73    4.3617416    4.3617416    4.3617416     46563.73    69034.567    -15070.44    85727.061   -6850.5629    21605.595    7251.8876    82.981216 
   65800    2172.8034   -117.14559    1.9659981   -115.17959     11198.98    4.3736092    4.3736092    4.3736092     11198.98    15626.258    13279.907    4690.7749    -4780.261    46742.726    -4535.383    83.660399 
   65900    2021.7578   -117.01068     1.829329   -115.18136   -20121.065    4.3758495    4.3758495    4.3758495   -20121.065    11644.948   -72346.785    338.64298    2711.1078   -18295.515    4228.0486    83.789024 
   66000    961.75166   -116.08276   0.87021311   -115.21255   -6214.8342    4.3521133    4.3521133    4.3521133   -6214.8342   -14089.333   -66719.177    62164.007   -14713.861    16339.848    20377.747    82.432898 
   66100    2352.0239   -117.33608    2.1281606   -115.20792    9986.8746    4.3535525    4.3535525    4.3535525    9986.8746    40788.442   -6095.9659   -4731.8524   -7296.0498     32052.31    -10469.89    82.514704 
   66200    1312.1842   -116.41654    1.1872919   -115.22925   -16008.314    4.3705537    4.3705537    4.3705537   -16008.314    21101.773   -24249.186    -44877.53    4450.3548   -54276.187   -6418.9597    83.485179 
   66300    1427.2781    -116.5212    1.2914312   -115.22977   -63.932722    4.3686248    4.3686248    4.3686248   -63.932722    27402.136    -43540.59    15946.656   -3446.8787   -4551.8563     24772.55    83.374689 
   66400     2082.189   -117.09111    1.8840083    -115.2071   -23966.156    4.3739917    4.3739917    4.3739917   -23966.156    17967.439   -51673.174   -38192.733     8498.414    8281.8061   -37386.947     83.68235 
   66500    1181.3512   -116.28415    1.0689114   -115.21524   -23050.714    4.3683332    4.3683332    4.3683332   -23050.714    16393.645   -14036.422   -71509.364    -5590.027   -66563.912   -35798.195    83.357996 
   66600    2214.5656   -117.20022    2.0037855   -115.19643     11260.13    4.3585794    4.3585794    4.3585794     11260.13   -2831.4754    -1693.493    38305.357   -2617.6934   -4691.9686    22732.353    82.800868 
   66700    1516.1868   -116.58431    1.3718777   -115.21243   -33938.693    4.3740319    4.3740319    4.3740319   -33938.693     3662.791   -85239.431   -20239.439    7226.8725    12466.033   -53659.237    83.684659 
   66800    1388.2561   -116.47487    1.2561233   -115.21875   -13379.907    4.3619538    4.3619538    4.3619538   -13379.907    1136.2663   -13753.862   -27522.126    9127.0195   -22303.573   -43850.498    82.993326 
   66900    1608.2405   -116.67488    1.4551698   -115.21971    11581.181    4.3482458    4.3482458    4.3482458    11581.181    4612.4237   -6630.9471    36762.067   -24484.229   -12284.983    30545.777    82.213334 
   67000    1691.9283   -116.76182    1.5308923   -115.23093   -7373.9853    4.3657633    4.3657633    4.3657633   -7373.9853    12047.049   -66186.009    32017.004   -11208.479    7577.4185    21317.938    83.210967 
   67100    2321.0456   -117.31698    2.1001309   -115.21685   -755.93727    4.3699859    4.3699859    4.3699859   -755.93727   -22236.777   -749.62396     20718.59    10052.963   -9261.9084   -17513.065    83.452647 
   67200    1014.9728   -116.15981   0.91836872   -115.24144    -20185.46    4.3684465    4.3684465    4.3684465    -20185.46   -9011.4742   -50265.503   -1279.4033   -35921.494   -12911.305    25087.628    83.364484 
   67300    1395.9157   -116.50137    1.2630538   -115.23832   -22198.956    4.3657264    4.3657264    4.3657264   -22198.956    13141.911   -83040.648    3301.8672   -25729.642    5687.0915    57376.796    83.208856 
   67400    2367.4637   -117.35648    2.1421309   -115.21435    7084.5909    4.3593199    4.3593199    4.3593199    7084.5909   -8221.2656    18987.404    10487.634    14330.707   -8360.1758   -17562.818    82.843078 
   67500    1287.4637   -116.39332    1.1649242    -115.2284   -7299.7963    4.3678962    4.3678962    4.3678962   -7299.7963   -31862.422    12949.004   -2985.9708   -35929.079   -4080.0676    7379.9986    83.332986 
   67600    1764.3834   -116.80791    1.5964512   -115.21145   -6008.7263    4.3768225    4.3768225    4.3768225   -6008.7263   -29669.477   -19461.741    31105.039   -23037.066   -12823.078    37925.643     83.84493 
   67700    1966.1485   -116.97108    1.7790125   -115.19206   -3089.9712    4.3797697    4.3797697    4.3797697   -3089.9712   -17723.686    -2765.516    11219.288    26062.994    20003.004    -23692.26    84.014417 
   67800    1755.6735   -116.78749    1.5885703   -115.19892   -3882.7665    4.3668147    4.3668147    4.3668147   -3882.7665   -49906.322    11664.777    26593.246   -43692.887   -3442.2646    2475.4747    83.271096 
   67900    1412.8734   -116.48749    1.2783976    -115.2091    11058.594    4.3510414    4.3510414    4.3510414    11058.594   -36272.761    4083.9142    65364.629   -9205.3182   -19470.433    10647.862    82.372006 
   68000    1624.7138   -116.70341    1.4700752   -115.23333    6684.9438    4.3580219    4.3580219    4.3580219    6684.9438   -6924.5993   -7486.7918    34466.222    71454.219    9197.4211    -9213.172    82.769099 
   68100    2262.8895     -117.276    2.0475099   -115.22849    3049.6146    4.3691168    4.3691168    4.3691168    3049.6146   -14430.844    7930.3139    15649.374   -31204.298    6435.6061    5781.8045    83.402863 
   68200    1388.7831   -116.49391    1.2566001   -115.23731   -1452.7385    4.3698359    4.3698359    4.3698359   -1452.7385   -64335.828    26398.291    33579.322    -13970.91    -20295.59   -285.55765     83.44405 
   68300    1043.7648   -116.17838   0.94442029   -115.23396    -18983.07    4.3679952    4.3679952    4.3679952    -18983.07   -69371.127   -6058.4849    18480.402    77507.214   -6296.3407    1519.5759    83.338651 
   68400    2245.5854   -117.23969    2.0318528   -115.20784    2891.1806    4.3657678    4.3657678    4.3657678    2891.1806   -30344.254    70803.765   -31785.969   -18698.475    40918.956   -7755.8782    83.211224 
   68500    1766.3794    -116.8107    1.5982572   -115.21244   -7476.7725    4.3676383    4.3676383    4.3676383   -7476.7725   -54490.147   -21525.025    53584.855    30710.793   -6503.1967    225.20452    83.318223 
   68600    1437.0998   -116.52454    1.3003181   -115.22422   -3779.5984    4.3599497    4.3599497    4.3599497   -3779.5984   -42347.973   -19810.823    50820.001    39653.958    203.10431     4752.987    82.878987 
   68700    1428.9727   -116.52594    1.2929646   -115.23298    865.71069    4.3520279    4.3520279    4.3520279    865.71069   -61975.003    69391.204   -4819.0694   -21780.546    64285.594   -2151.6038    82.428046 
   68800    1899.5421   -116.95593    1.7187456   -115.23718     -2573.35    4.3602759    4.3602759    4.3602759     -2573.35   -54778.624    14984.287    32074.287    26680.335   -11271.528   -9296.6841    82.897592 
   68900    2202.3127   -117.21793    1.9926988   -115.22524   -1348.4472    4.3704678    4.3704678    4.3704678   -1348.4472   -29365.185   -18456.704    43776.548    11200.444   -6574.2444   -8867.5816    83.480255 
   69000    1600.8558    -116.6707     1.448488   -115.22221    -9274.903    4.3705315    4.3705315    4.3705315    -9274.903   -82049.191    30025.183    24199.298   -31917.077    54350.758   -2154.1741    83.483905 
   69100    1424.6978   -116.50487    1.2890965   -115.21577   -216.66674    4.3721272    4.3721272    4.3721272   -216.66674    -58272.99    52201.909    5421.0806     15832.97   -46015.541     -8495.83    83.575379 
   69200    2256.1172   -117.23824    2.0413822   -115.19686   -3011.2003       4.3663       4.3663       4.3663   -3011.2003   -17831.471   -14238.127    23035.997   -14358.213   -11400.215   -3374.9785     83.24166 
   69300    1654.6866   -116.69927    1.4971952   -115.20208    8376.3492    4.3523022    4.3523022    4.3523022    8376.3492   -60308.512   -9674.5147    95112.074   -37339.049    22135.595    3888.3797    82.443635 
   69400    1205.8269   -116.31711    1.0910575   -115.22605   -18286.601    4.3642241    4.3642241    4.3642241   -18286.601   -71479.886    51318.155   -34698.071    6731.1471   -50917.087    202.60017    83.122984 
   69500    2230.3705   -117.23279    2.0180861    -115.2147    -15177.89    4.3669427    4.3669427    4.3669427    -15177.89   -49927.736    -26194.37    30588.435   -12300.001    1756.0615    1278.2439     83.27842 
   69600     2066.505   -117.09314    1.8698172   -115.22332   -4660.5914    4.3525963    4.3525963    4.3525963   -4660.5914   -27737.918    -33006.06    46762.204   -31112.022   -10438.303   -167.93206    82.460348 
   69700     1021.593   -116.17268   0.92435882   -115.24832   -25934.532    4.3518312    4.3518312    4.3518312   -25934.532   -72816.278    64447.253    -69434.57    2660.0851    -63235.32    1310.2181     82.41687 
   69800    1816.2827    -116.8825    1.6434107   -115.23909    1251.7598    4.3538009    4.3538009    4.3538009    1251.7598   -21723.969    8163.6802    17315.568   -1796.0499      17228.8   -5925.7226    82.528834 
   69900     1713.892   -116.79035    1.5507655   -115.23959   -7192.5362     4.368262     4.368262     4.368262   -7192.5362   -22070.363   -39552.092    40044.847   -21003.947   -2038.9037   -4333.9671    83.353919 
   70000    1129.0716   -116.26649    1.0216077   -115.24488   -17127.501    4.3668034    4.3668034    4.3668034   -17127.501   -41245.751    13240.318   -23377.071   -7008.1085   -87844.578   -9046.6197    83.270452 
   70100    2498.9446   -117.47921    2.2610976   -115.21811    29634.405    4.3515334    4.3515334    4.3515334    29634.405    15018.735    7474.5464    66409.932    7084.0173    21480.858   -1918.4829    82.399956 
   70200    1952.9256   -117.00658    1.7670481   -115.23953    1180.8395    4.3619647    4.3619647    4.3619647    1180.8395    30822.138   -14343.494   -12936.126   -8534.0885    -7147.615   -363.52461    82.993952 
   70300    649.07774   -115.84268   0.58729918   -115.25538    -20334.85    4.3676071    4.3676071    4.3676071    -20334.85   -48251.225    -23535.75    10782.424   -15147.585   -78911.834   -10902.764    83.316436 
   70400    2191.5431   -117.21074    1.9829543   -115.22779     14939.06    4.3713575    4.3713575    4.3713575     14939.06    18602.709   -37683.407     63897.88    25853.303    17466.624    449.02609     83.53125 
   70500    1755.1071   -116.80419    1.5880578   -115.21613   -25417.994    4.3756603    4.3756603    4.3756603   -25417.994    -59889.81    55838.114   -72202.287    5159.6043   -54413.365    2903.7229    83.778154 
   70600    1478.3201   -116.53612    1.3376151   -115.19851    9433.2976    4.3518894    4.3518894    4.3518894    9433.2976   -30521.145    60793.636   -1972.5979   -18840.015   -45564.403    3675.6527    82.420179 
   70700    1960.5709   -116.97288    1.7739658   -115.19891    19458.973    4.3610946    4.3610946    4.3610946    19458.973   -8929.6809    15952.051    51354.549    935.84422    20945.672   -6429.4675    82.944293 
   70800    1437.8324    -116.5002    1.3009809   -115.19922   -37470.176    4.3858998    4.3858998    4.3858998   -37470.176     -80336.6     62720.06   -94793.988    21057.799   -49366.767    832.18624    84.367679 
   70900    1766.7823   -116.77938    1.5986218   -115.18076    2425.0489    4.3659463    4.3659463    4.3659463    2425.0489   -28943.592     24861.73    11357.009   -35265.206    -3483.195   -2343.7216    83.221429 
   71000     1595.052   -116.62136    1.4432366   -115.17813    2962.4608    4.3590759    4.3590759    4.3590759    2962.4608     -15155.7   -30886.333    54929.416   -31289.961   -4928.7199   -10489.299    82.829169 
   71100    1587.4955   -116.62806    1.4363993   -115.19166   -20431.661    4.3695847    4.3695847    4.3695847   -20431.661   -47875.408    54795.109   -68214.683     29352.47   -72479.675    9231.1125    83.429661 
   71200    1826.5833   -116.84242    1.6527309   -115.18969    12943.405    4.3587721    4.3587721    4.3587721    12943.405   -6955.7594    27756.769    18029.206   -54727.827     6859.479   -4927.9936    82.811851 
   71300    1563.5533   -116.62142    1.4147359   -115.20668   -10339.133    4.3642128    4.3642128    4.3642128   -10339.133   -48474.483   -7119.7044     24576.79   -29400.212   -11245.621     4639.348    83.122341 
   71400    1534.5523   -116.58573    1.3884952   -115.19724   -22223.433    4.3733367    4.3733367    4.3733367   -22223.433   -38051.908    38076.299   -66694.689    19073.506   -72102.633   -7933.2148    83.644758 
   71500     1886.546    -116.8896    1.7069864   -115.18262    36354.974    4.3605751    4.3605751    4.3605751    36354.974   -8155.3398    72005.811    45214.451   -32972.739    22581.876   -3722.9292    82.914658 
   71600    1334.0749     -116.407     1.207099    -115.1999    5339.1949    4.3630641    4.3630641    4.3630641    5339.1949   -25371.213    57847.384   -16458.586   -26451.087   -65540.169    597.37096    83.056721 
   71700    1695.5327   -116.73527    1.5341536   -115.20111   -1985.7533    4.3699345    4.3699345    4.3699345   -1985.7533   -2784.1487    53856.895   -57030.006    15642.124   -55584.259    2225.6035    83.449699 
   71800     2154.592   -117.14022    1.9495202    -115.1907    32772.636    4.3564512    4.3564512    4.3564512    32772.636     17419.89    30651.346    50246.674   -15286.862    12029.569   -773.54795    82.679635 
   71900    752.21569   -115.90632   0.68062056    -115.2257    2496.7382    4.3668828    4.3668828    4.3668828    2496.7382   -21904.899    55774.336   -26379.222   -32895.431   -99336.137    1985.1959    83.274992 
   72000    2538.8553   -117.48419    2.2972096   -115.18698   -12370.578    4.3797138    4.3797138    4.3797138   -12370.578   -25754.189   -5106.4217   -6251.1228    15551.222    6454.8794    6257.2082    84.011204 
   72100    1734.9923   -116.76819    1.5698575   -115.19833    26523.988    4.3512605    4.3512605    4.3512605    26523.988    44948.425    9529.7853    25093.755   -8851.6924   -24613.753   -23738.539    82.384454 
   72200    1088.3464   -116.20238   0.98475865   -115.21762    16166.436    4.3474957    4.3474957    4.3474957    16166.436   -27054.965    49834.849    25719.424   -30085.629   -79424.326    3510.2023    82.170792 
   72300    2312.0984   -117.29354    2.0920352   -115.20151   -2698.7993    4.3637471    4.3637471    4.3637471   -2698.7993    9291.4485   -25296.824    7908.9773   -414.86205    24883.184    12813.775     83.09573 
   72400    1329.9751   -116.42665    1.2033894   -115.22327    3544.8205    4.3630136    4.3630136    4.3630136    3544.8205    32099.985    -8638.061   -12827.463     7572.068   -12091.243   -12334.891    83.053835 
   72500    1723.8427   -116.77588    1.5597691   -115.21611   -13410.953    4.3688943    4.3688943    4.3688943   -13410.953   -29767.493    9752.1472   -20217.512   -19871.127    -52581.21   -9728.7866     83.39012 
   72600    1792.2691   -116.82869    1.6216828   -115.20701   -10848.617    4.3648558    4.3648558    4.3648558   -10848.617   -234.33536   -32013.699   -297.81561    1958.0932    25867.411     29240.22    83.159082 
   72700    1008.4128   -116.13423   0.91243307   -115.22179   -6906.5949    4.3576616    4.3576616    4.3576616   -6906.5949    64910.128   -46700.479   -38929.434    10975.815    8203.4947   -25213.656     82.74857 
   72800    2454.1544   -117.42868    2.2205705   -115.20811    10605.636    4.3580071    4.3580071    4.3580071    10605.636    4825.0338    6725.2094    20266.666   -4443.5773   -31196.256   -22701.856    82.768255 
   72900    1648.3493   -116.71712    1.4914611   -115.22566    11363.798    4.3595625    4.3595625    4.3595625    11363.798    14978.129    9507.7955      9605.47   -4887.7637    30619.884    38668.886    82.856906 
   73000    1088.8692   -116.22169   0.98523174   -115.23645     -8346.55    4.3714212    4.3714212    4.3714212     -8346.55    69033.599    -66047.22    -28026.03    12316.226    10445.968   -14437.308    83.534899 
   73100    2351.2179   -117.31488    2.1274314   -115.18745    2605.5469    4.3758006    4.3758006    4.3758006    2605.5469    9776.3573   -5931.7834    3972.0667   -2776.2626   -7573.8122   -16124.408    83.786212 
   73200    978.05039   -116.08365   0.88496054   -115.19869   -11738.113    4.3659273    4.3659273    4.3659273   -11738.113   -7892.3718    32673.651   -59995.617   -11966.462     64923.18    28590.538    83.220344 
   73300    1940.1367   -116.95839    1.7554764   -115.20292    603.09414      4.36078      4.36078      4.36078    603.09414    52108.731   -28238.942   -22060.506    1753.0621   -2176.8106    2101.8398    82.926347 
   73400    2455.9687    -117.4264    2.2222121   -115.20419      14659.8    4.3576083    4.3576083    4.3576083      14659.8    18040.664    18948.455    6990.2804     16434.24    8046.7517   -14935.068    82.745536 
   73500    834.94117   -115.99741   0.75547232   -115.24194   -24407.878    4.3651964    4.3651964    4.3651964   -24407.878   -43488.189    52591.067   -82326.512   -13789.911    72283.362    32502.846    83.178553 
   73600    1823.0469    -116.8734    1.6495312   -115.22387   -22157.653     4.371265     4.371265     4.371265   -22157.653    -4269.683   -19959.905   -42243.371    7394.5072   -22242.252    28523.506    83.525949 
   73700     1921.306   -116.94882    1.7384381   -115.21039   -8519.2508    4.3645234    4.3645234    4.3645234   -8519.2508   -25177.693   -22315.487    21935.428    45574.829    6234.2745   -15317.801    83.140086 
   73800    1032.9185   -116.16038   0.93460636   -115.22577    2148.9739    4.3627623    4.3627623    4.3627623    2148.9739   -10836.124    39756.373   -22473.327   -4445.1997    59592.126      20619.9    83.039487 
   73900    2011.9983    -117.0327    1.8204983    -115.2122    2078.7713    4.3725539    4.3725539    4.3725539    2078.7713     15965.88   -16830.577      7101.01   -1099.8538   -6565.1422    27476.884    83.599854 
   74000    1635.9677   -116.69062    1.4802579   -115.21036   -6700.2499    4.3793773    4.3793773    4.3793773   -6700.2499   -16285.525   -28467.072    24651.847    50427.491   -2991.9962   -28330.814    83.991839 
   74100     1158.702   -116.26099    1.0484179   -115.21258    87.649377    4.3678201    4.3678201    4.3678201    87.649377   -1768.3644    24454.957   -22423.644   -12310.141    49232.808    13015.911    83.328628 
   74200    1876.6564   -116.90018    1.6980381   -115.20214    20879.191    4.3627637    4.3627637    4.3627637    20879.191    45833.802     24907.28   -8103.5087   -19777.779   -7166.4051    26672.948    83.039564 
   74300    1982.5586   -116.99691    1.7938607   -115.20305    5373.8304    4.3698272    4.3698272    4.3698272    5373.8304    17060.901   -8929.7486    7990.3393    31439.375   -19499.623   -21940.734    83.443551 
   74400    1258.8624   -116.36116    1.1390452   -115.22212   -17302.456    4.3717082    4.3717082    4.3717082   -17302.456   -22976.582    3493.2562   -32424.041   -12393.547    73994.513    9438.8064    83.551354 
   74500    1253.3672   -116.36294     1.134073   -115.22887    7983.9649    4.3645451    4.3645451    4.3645451    7983.9649    5949.0936     20846.13   -2843.3292   -12060.926   -11256.733    22391.711    83.141326 
   74600    2368.4003   -117.35586    2.1429783   -115.21288    12408.846    4.3609063    4.3609063    4.3609063    12408.846     13203.76    12995.248     11027.53    9230.1232   -47270.123   -18615.359    82.933551 
   74700    1391.9951   -116.49076    1.2595065   -115.23125   -13640.845    4.3669991    4.3669991    4.3669991   -13640.845   -30465.846    22806.641    -33263.33   -5402.6235    78954.299     487.5898    83.281648 
   74800    1523.5119   -116.60852    1.3785055   -115.23002   -10742.031    4.3722521    4.3722521    4.3722521   -10742.031   -2996.7988    2595.9751   -31825.268   -7370.9492    14428.615     34508.19    83.582545 
   74900      2567.88   -117.53503    2.3234718   -115.21156    1361.7734    4.3646829    4.3646829    4.3646829    1361.7734   -12013.596    36622.224   -20523.307   -12979.499   -11014.159   -6644.8656      83.1492 
   75000    1473.8486   -116.55714    1.3335692   -115.22357   -1599.1998    4.3573443    4.3573443    4.3573443   -1599.1998   -25427.358    56825.709   -36195.951   -4044.4107    76711.562   -2993.4255    82.730495 
   75100    1628.5379   -116.70078    1.4735353   -115.22724   -4033.6222    4.3690597    4.3690597    4.3690597   -4033.6222     22711.72    9353.0154   -44165.602   -4183.3118    8349.4222    43152.642    83.399597 
   75200    2121.9538   -117.12221    1.9199884   -115.20222   -11145.031    4.3809808    4.3809808    4.3809808   -11145.031   -40988.588    18705.787   -11152.291    -2115.457    8691.4758    4170.4095    84.084132 
   75300    1207.6163   -116.29531    1.0926766   -115.20263   -4630.3156    4.3702262    4.3702262    4.3702262   -4630.3156   -64070.684    63882.709   -13702.971   -5035.0848    66345.248    6878.4186    83.466412 
   75400    1905.3655    -116.9154    1.7240148   -115.19139    21780.428    4.3606425    4.3606425    4.3606425    21780.428    34242.272    35994.716   -4895.7043    5022.4364   -20186.667    38259.421    82.918505 
   75500    1621.6857   -116.67362    1.4673353   -115.20628    -16028.03    4.3692006    4.3692006    4.3692006    -16028.03   -24786.712    43169.824   -66467.202    7370.6548    45392.452    11514.601    83.407665 
   75600    1418.6247   -116.49556    1.2836015   -115.21196    11293.268    4.3594956    4.3594956    4.3594956    11293.268    -10357.23      88213.5   -43976.466    5458.0696    61848.211   -14502.994    82.853096 
   75700    2210.0803   -117.21077    1.9997271   -115.21105    10379.698    4.3638936    4.3638936    4.3638936    10379.698    49442.565   -13265.724   -5037.7477    -10741.66   -27984.399    42240.523    83.104099 
   75800    1065.1606    -116.1828   0.96377971   -115.21902   -41298.655    4.3854093    4.3854093    4.3854093   -41298.655   -48997.702    29995.041   -104893.31    14482.815      85413.6    7518.4314    84.339378 
   75900    1595.0611   -116.65308    1.4432448   -115.20984     9979.717    4.3596692    4.3596692    4.3596692     9979.717     18919.77    38527.658   -27508.277    -2342.893     29756.56   -21659.369    82.862992 
   76000    2075.1332   -117.07381    1.8776241   -115.19619    26799.098    4.3461716    4.3461716    4.3461716    26799.098    45430.151    15997.823     18969.32    -5461.001   -21265.357   -6739.0091    82.095737 
   76100      988.671    -116.1185   0.89457029   -115.22393   -36276.333    4.3691795    4.3691795    4.3691795   -36276.333   -53970.961    19333.332    -74191.37   -6620.9848    106842.94    17698.477    83.406457 
   76200    2436.0195   -117.41384    2.2041616   -115.20968   -4278.8391    4.3645919    4.3645919    4.3645919   -4278.8391   -11574.636   -7993.9731    6732.0917    10313.948    9520.7086    7569.7103    83.144005 
   76300    1951.2407   -116.98872    1.7655236    -115.2232   -11682.622    4.3654419    4.3654419    4.3654419   -11682.622   -55033.811   -25280.926    45266.872    4470.6853   -2907.1922    -9304.885     83.19259 
   76400    839.38751   -115.99621   0.75949546   -115.23671   -15171.164    4.3646161    4.3646161    4.3646161   -15171.164   -67739.634     5790.026    16436.115   -24363.443    70410.048    18157.312    83.145383 
   76500    2031.1457    -117.0613    1.8378233   -115.22348     14955.61     4.352536     4.352536     4.352536     14955.61    16701.659   -22094.347    50259.518    14201.301   -1529.6488    31000.347    82.456924 
   76600    1646.3053   -116.73062    1.4896116   -115.24101   -11298.284     4.356411     4.356411     4.356411   -11298.284   -31375.408   -27221.392    24701.949    26933.483    4643.7046   -8315.0983    82.677347 
   76700    967.40587   -116.12459   0.87532916   -115.24926   -20906.005    4.3631799    4.3631799    4.3631799   -20906.005   -38365.679    18236.884   -42589.221   -30628.718    83227.454    631.10873    83.063334 
   76800    2591.3843    -117.5612     2.344739   -115.21646   -3348.1468      4.37197      4.37197      4.37197   -3348.1468    3673.8506   -21964.636    8246.3451    1413.1122    -19448.57     6569.005    83.566368 
   76900    1469.7925   -116.54398    1.3298992   -115.21408     -20344.4    4.3805138    4.3805138    4.3805138     -20344.4   -29984.723    5949.7852   -36998.263    37635.132    26092.012   -852.45319    84.057244 
   77000    1045.3622   -116.14612   0.94586565   -115.20025     9945.039    4.3710799    4.3710799    4.3710799     9945.039   -9671.6074    26626.058    12880.667   -28909.848    61630.414   -2906.1801    83.515336 
   77100       2557.8   -117.49417    2.3143512   -115.17982    10219.192    4.3618469    4.3618469    4.3618469    10219.192    2.5615772   -21150.496     51805.51   -237.31363   -24410.678   -1176.4541    82.987225 
   77200    1218.1768   -116.32045     1.102232   -115.21822    6964.2427    4.3567536    4.3567536    4.3567536    6964.2427    4212.1921    9544.3318    7136.2041    39130.488    52239.006    4768.1261    82.696853 
   77300    1371.6908   -116.48498    1.2411347   -115.24385   -13090.196    4.3566694    4.3566694    4.3566694   -13090.196   -58029.523    9935.3623     8823.571    996.71946    60516.285   -23195.355    82.692059 
   77400    2263.4037   -117.27912    2.0479753   -115.23114    13105.726    4.3594336    4.3594336    4.3594336    13105.726    24259.509   -25158.983    40216.651   -10754.527   -22743.366     12620.74    82.849557 
   77500    1168.6516   -116.29876    1.0574205   -115.24134    -12338.58    4.3757713    4.3757713    4.3757713    -12338.58   -31362.977   -3651.8583   -2000.9047    12027.268    58690.013    27465.658    83.784529 
   77600    1472.3954   -116.55267    1.3322543   -115.22042   -25991.075    4.3801392    4.3801392    4.3801392   -25991.075   -63717.376    -13795.13   -460.71785    15473.844    24842.511   -16311.296    84.035685 
   77700    2442.0151   -117.41116    2.2095866   -115.20157    6379.0917    4.3519225    4.3519225    4.3519225    6379.0917    23166.587   -13352.768    9323.4559   -4628.4613   -42024.092    16133.611    82.422061 
   77800    1117.8829   -116.23655     1.011484   -115.22506    3296.1257    4.3420568    4.3420568    4.3420568    3296.1257   -1425.6339    15757.696   -4443.6849    3990.2956    81712.113    29645.753    81.862782 
   77900    1310.3076   -116.43703    1.1855939   -115.25143   -16111.949    4.3582895    4.3582895    4.3582895   -16111.949   -51541.011    539.47603    2665.6867    38933.749    27800.733   -7469.4012    82.784345 
   78000    2358.2619   -117.36138    2.1338049   -115.22757    335.43798    4.3741538    4.3741538    4.3741538    335.43798    3138.4598   -13540.881    11408.735   -519.98823   -38799.628    -3372.813    83.691651 
   78100    1295.3318   -116.41384    1.1720434    -115.2418   -24874.936    4.3736171    4.3736171    4.3736171   -24874.936   -39790.996    21043.692   -55877.505   -8446.1776    76541.599    14827.548    83.660853 
   78200    1347.2884   -116.45037    1.2190549   -115.23132    1417.8665    4.3559212    4.3559212    4.3559212    1417.8665    280.22519   -9989.2647    13962.639    29632.126    26469.936    19971.585    82.649466 
   78300     2368.786   -117.35819    2.1433273   -115.21486    16528.415    4.3524732    4.3524732    4.3524732    16528.415    25720.419   -19043.028    42907.853    25268.008   -6248.1001    -6060.705    82.453354 
   78400    1547.4721   -116.63637    1.4001853   -115.23618   -4653.3787    4.3608306    4.3608306    4.3608306   -4653.3787   -22600.524    41630.926   -32990.538   -4399.7818    67888.593   -8611.8658    82.929236 
   78500    1399.2542   -116.50186    1.2660746   -115.23578   -585.74001    4.3664235    4.3664235    4.3664235   -585.74001    3224.1979   -1495.5875   -3485.8304    18349.864    25084.703    10708.159     83.24872 
   78600    2139.6004   -117.15354    1.9359554   -115.21758     -9658.12    4.3683411    4.3683411    4.3683411     -9658.12   -34404.274   -27055.667    32485.581    44129.579    -26494.52    5536.4143    83.358451 
   78700     1085.786   -116.20956   0.98244198   -115.22712    -5112.671    4.3604665    4.3604665    4.3604665    -5112.671   -13832.623    42076.397   -43581.787    -11346.09    23619.829   -1751.7672    82.908461 
   78800    1741.6059   -116.79849    1.5758416   -115.22265   -9952.8579     4.357262     4.357262     4.357262   -9952.8579   -32908.861   -12994.778    16045.066   -3329.2458    39676.592   -24455.491    82.725807 
   78900    2170.1426   -117.17987    1.9635907   -115.21627    2075.4886    4.3607484    4.3607484    4.3607484    2075.4886   -20577.657   -19124.882    45929.005    10590.519   -32081.173    15372.747    82.924542 
   79000    1115.1715   -116.24506    1.0090306   -115.23603   -22409.803     4.367881     4.367881     4.367881   -22409.803   -67314.657    31483.933   -31398.685    4481.5887    3694.1084   -1481.5253     83.33211 
   79100    1779.0392   -116.82913    1.6097121   -115.21942   -8340.5703     4.369436     4.369436     4.369436   -8340.5703   -53649.652   -4052.3493     32680.29   -25035.709    30822.598   -15135.915    83.421143 
   79200    1973.6741   -116.99713    1.7858218    -115.2113    -5577.063    4.3611206    4.3611206    4.3611206    -5577.063   -21950.601   -14430.569    19649.982   -20759.182   -19180.138    33746.401    82.945779 
   79300     1482.672   -116.56455    1.3415528     -115.223     2555.029    4.3569824    4.3569824    4.3569824     2555.029   -5550.7598    56347.386   -43131.539    9788.1638    -37651.24   -1902.4775    82.709882 
   79400     1924.042   -116.96689    1.7409137   -115.22598   -15622.749    4.3596268    4.3596268    4.3596268   -15622.749   -60574.273    6215.6523    7490.3723   -30194.018    15269.689   -5243.0837    82.860574 
   79500    1963.8802   -117.00359    1.7769601   -115.22663    12630.199     4.358587     4.358587     4.358587    12630.199    14316.932    8320.0163    15253.648   -18243.231    5487.4485    8878.8314    82.801299 
   79600    1075.5926   -116.21521   0.97321875   -115.24199   -7366.4763    4.3655066    4.3655066    4.3655066   -7366.4763   -20250.916    52055.419   -53903.933    10357.659   -76622.393    1926.4479    83.196286 
   79700    2165.9316   -117.18226    1.9597804   -115.22248    1546.7445    4.3689497    4.3689497    4.3689497    1546.7445   -34098.996    20720.477    18018.753     16137.68    2390.1182     4668.961    83.393295 
   79800    2072.1001   -117.09225    1.8748797   -115.21737     19082.47    4.3613669    4.3613669    4.3613669     19082.47    21228.719    63877.822   -27859.132    2038.6309   -6456.9141   -5576.5162    82.959832 
   79900    677.20863   -115.85057    0.6127526   -115.23782   -20419.347    4.3608269    4.3608269    4.3608269   -20419.347   -18658.901    23116.702   -65715.841   -1321.1874   -95053.557    5486.5835    82.929021 
   80000    2165.4311   -117.17102    1.9593276   -115.21169    4212.0636    4.3667537    4.3667537    4.3667537    4212.0636     9098.057   -3515.4338    7053.5675    10171.759    20181.367   -96.956978    83.267607 
   80100    1661.0634    -116.7105     1.502965   -115.20753   -16771.075    4.3767967    4.3767967    4.3767967   -16771.075   -77237.878    35519.506   -8594.8548    13455.333   -44014.194    619.12595    83.843448 
   80200    1219.5888   -116.31392    1.1035096   -115.21041   -13628.467    4.3746496    4.3746496    4.3746496   -13628.467   -42861.939    16164.636   -14188.097   -6977.3634   -77451.651     3007.441    83.720115 
   80300    2720.7168   -117.64546    2.4617618    -115.1837    13895.812    4.3564199    4.3564199    4.3564199    13895.812    13587.101   -7743.8216    35844.157    2376.3666    25288.061   -4426.9248    82.677856 
   80400    1193.0252   -116.29611    1.0794743   -115.21664   -7230.6188    4.3566964    4.3566964    4.3566964   -7230.6188   -79277.775    57910.462   -324.54253    16467.713   -49339.117    2576.8442    82.693597 
   80500    1142.7428   -116.26543    1.0339777   -115.23145    -16717.78     4.364301     4.364301     4.364301    -16717.78   -48124.615    33503.273   -35531.999   -15582.225   -33470.678    -6113.562    83.127379 
   80600    2534.7467   -117.50561    2.2934921   -115.21211    14347.556    4.3623609    4.3623609    4.3623609    14347.556   -12219.547   -15439.817    70702.032   -18009.636    12169.713    13247.703    83.016566 
   80700    1190.0896   -116.30756    1.0768181   -115.23075   -9867.1884    4.3689267    4.3689267    4.3689267   -9867.1884   -53933.403    57142.834   -32810.997   -1583.4433   -56382.569    -3985.209    83.391977 
   80800    1394.7888     -116.487    1.2620342   -115.22497   -26019.336    4.3685898    4.3685898    4.3685898   -26019.336   -74493.231    44968.999   -48533.776    6918.7909    7582.3015    216.00396    83.372688 
   80900    2596.6324    -117.5494    2.3494876   -115.19992    26947.113    4.3553419    4.3553419    4.3553419    26947.113    13647.184    22085.001    45109.155   -7206.5022    20318.547    2606.9702    82.616495 
   81000    1256.8014   -116.36893    1.1371803   -115.23175   -18933.112    4.3601851    4.3601851    4.3601851   -18933.112   -41066.978    37455.146   -53187.505    736.05385   -74454.964   -1613.0315    82.892413 
   81100    1232.7087   -116.34499    1.1153807   -115.22961   -8616.3975    4.3632537    4.3632537    4.3632537   -8616.3975   -51410.208    58121.291   -32560.275    14332.012    23007.908    13552.841    83.067549 
   81200    2398.9295   -117.37778    2.1706018   -115.20718    -1746.621    4.3726904    4.3726904    4.3726904    -1746.621   -41882.407    33186.763    3455.7816   -4523.0784    9176.0577   -14285.498    83.607684 
   81300    888.23726   -116.02048   0.80369574   -115.21678   -34517.998    4.3790816    4.3790816    4.3790816   -34517.998   -64316.061    58160.168   -97398.101    1001.9178   -84178.218      9396.03    83.974826 
   81400    1961.9837   -116.97332     1.775244   -115.19808     25740.37    4.3544994    4.3544994    4.3544994     25740.37    16112.086    68735.871   -7626.8479   -639.90489    20009.575   -2543.2101    82.568558 
   81500    2338.2895   -117.31586    2.1157335   -115.20013    12494.104    4.3522623    4.3522623    4.3522623    12494.104   -38500.824    91982.537   -15999.401   -1169.6836   -30969.535    3477.0883    82.441365 
   81600    469.40114   -115.66177   0.42472402   -115.23704   -20624.349    4.3696514    4.3696514    4.3696514   -20624.349   -38568.218    34660.717   -57965.547    1752.5216   -73550.388   -6229.1173    83.433482 
   81700    2248.9356   -117.23335    2.0348842   -115.19847   -4498.6138    4.3704799    4.3704799    4.3704799   -4498.6138    9907.5514    -6010.915   -17392.478     8739.267    20520.162    5695.3051    83.480948 
   81800    1483.8191   -116.54609    1.3425907   -115.20349   -7965.8147     4.372885     4.372885     4.372885   -7965.8147   -64967.859    84798.019   -43727.604   -2320.2386   -84221.669   -4450.1358    83.618844 
   81900    1866.8172   -116.87869    1.6891354   -115.18956   -13470.614    4.3695942    4.3695942    4.3695942   -13470.614   -22254.485    28112.475   -46269.831    13256.335   -22735.044     19159.99    83.430208 
   82000    1871.5022   -116.87962    1.6933745   -115.18625    15968.615     4.354677     4.354677     4.354677    15968.615    54342.631    21396.867   -27833.652   -4525.9183   -1882.4712    11145.472    82.578664 
   82100    1100.5494   -116.21815   0.99580022   -115.22235   -18016.575    4.3629547    4.3629547    4.3629547   -18016.575    -25360.54    48503.618   -77192.802    16200.244    -113755.8   -7844.6452    83.050472 
   82200    2881.5041   -117.80456    2.6072455   -115.19732    3512.2164    4.3710502    4.3710502    4.3710502    3512.2164    17799.793    1669.1855   -8932.3288    5938.2309    20582.564   -4630.2814    83.513634 
   82300    1289.8053   -116.38694    1.1670429    -115.2199    404.27105     4.372042     4.372042     4.372042    404.27105    14943.443    43283.692   -57014.322   -3229.9751   -81369.246    16778.048    83.570495 
   82400    1459.9913   -116.52734    1.3210308   -115.20631   -27247.923    4.3763243    4.3763243    4.3763243   -27247.923   -22502.491    -5424.967   -53816.312    3411.6071   -47781.049   -592.49156      83.8163 
   82500    2023.1789   -117.02574    1.8306148   -115.19512    14584.565    4.3544163    4.3544163    4.3544163    14584.565    11467.698    18750.114    13535.884    132.02078    21462.803   -21312.499    82.563833 
   82600     1251.581   -116.33911    1.1324568   -115.20665    14978.915    4.3486884    4.3486884    4.3486884    14978.915   -58900.257    104708.96    -871.9586    1884.6059   -90049.871   -2544.6264    82.238443 
   82700    2131.8827   -117.12212    1.9289723   -115.19315    -8166.726     4.378581     4.378581     4.378581    -8166.726   -10057.646   -13391.503   -1051.0284   -8775.8446    12523.009    16756.175    83.946029 
   82800      1080.83     -116.177   0.97795771   -115.19905   -14590.585    4.3787196    4.3787196    4.3787196   -14590.585   -35603.451    33141.749   -41310.054    1304.0726   -42833.548    11163.323    83.954002 
   82900    1717.6107   -116.74058    1.5541302   -115.18645    25770.162    4.3619501    4.3619501    4.3619501    25770.162   -20508.446    119447.11   -21628.178    4865.5072   -51465.202   -18440.865    82.993118 
   83000    2152.1525   -117.13651    1.9473128   -115.18919     24110.35    4.3654995    4.3654995    4.3654995     24110.35   -8701.7896    79248.347    1784.4915    9401.6629    23426.049    12020.267    83.195881 
   83100    584.44127   -115.74588   0.52881474   -115.21707   -11920.507    4.3785187    4.3785187    4.3785187   -11920.507   -47209.199    70202.675   -58754.996    131.41491   -77778.689      19944.8    83.942449 
   83200    2549.5655   -117.47307    2.3069004   -115.16617   -3710.5671    4.3865125    4.3865125    4.3865125   -3710.5671   -34265.238    13880.099    9253.4381     9941.858    15649.038   -10508.645    84.403046 
   83300    1247.6512   -116.30979     1.128901   -115.18089   -45283.897    4.3868315    4.3868315    4.3868315   -45283.897   -102451.18    30014.419   -63414.926    6522.4016   -35813.183     2037.358     84.42146 
   83400     1159.257   -116.25084    1.0489201   -115.20192   -14171.674    4.3575386    4.3575386    4.3575386   -14171.674   -48015.337    59587.792   -54087.476   -6383.0406   -52335.351    20948.922    82.741564 
   83500    3025.4464   -117.90787    2.7374875   -115.17038    31629.443    4.3416675    4.3416675    4.3416675    31629.443    14796.002    28937.271    51155.056    -4580.687    19760.778   -11611.033    81.840767 
   83600    859.53601   -116.00217   0.77772625   -115.22445   -24338.069    4.3716943    4.3716943    4.3716943   -24338.069   -80747.597    64193.001   -56459.611   -899.68279   -93215.423   -1586.6028    83.550557 
   83700    2135.4688    -117.1223     1.932217   -115.19008   -27181.261     4.388136     4.388136     4.388136   -27181.261   -54503.578   -3033.2093   -24006.995   -1908.3228     2142.629    3194.6427    84.496797 
   83800    2069.5773   -117.04923     1.872597   -115.17663   -18902.727     4.383026     4.383026     4.383026   -18902.727    -24056.37   -9832.5875   -22819.223   -7302.3576   -16729.791   -18422.572    84.201949 
   83900    907.72227   -116.01373   0.82132618   -115.19241   -24707.316    4.3663717    4.3663717    4.3663717   -24707.316   -53383.609    37621.375   -58359.715   -4980.2772   -82542.159   -21279.661    83.245756 
   84000    2877.0851   -117.76951     2.603247   -115.16627    19434.702    4.3616533    4.3616533    4.3616533    19434.702    34697.414    18009.381    5597.3102    12152.262    29455.015    22881.347    82.976178 
   84100    1006.9211   -116.11122    0.9110834   -115.20014   -32848.668    4.3845179    4.3845179    4.3845179   -32848.668    -9215.331   -35681.427   -53649.246   -24185.806   -54452.764    -37576.57    84.287958 
   84200    1584.3154   -116.62665    1.4335219   -115.19313    -18822.09     4.381693     4.381693     4.381693    -18822.09   -1776.9902   -516.89924   -54172.381    2722.5242   -35433.356   -16157.848    84.125146 
   84300    3036.5719   -117.91507     2.747554   -115.16752    8104.8887    4.3629919    4.3629919    4.3629919    8104.8887     4807.478   -5345.2536    24852.442   -2380.8733    15858.419    16181.458    83.052599 
   84400    737.45501   -115.89471   0.66726479   -115.22744   -24579.467    4.3556684    4.3556684    4.3556684   -24579.467   -14141.713    12558.445   -72155.133   -22876.223   -87439.531   -30515.839    82.635073 
   84500    1641.3266   -116.72319    1.4851068   -115.23809    15804.574    4.3532633    4.3532633    4.3532633    15804.574   -10427.403    13318.683    44522.442   -3400.2241   -19296.613   -25709.867    82.498262 
   84600    2530.3389   -117.51146    2.2895038   -115.22196   -12095.848    4.3825605    4.3825605    4.3825605   -12095.848   -3344.4912   -9081.6044   -23861.447    18131.515    3904.8867     14118.42    84.175125 
   84700    682.34305   -115.82226   0.61739833   -115.20486   -35794.253    4.3945418    4.3945418    4.3945418   -35794.253   -83460.346    38075.165   -61997.577   -26111.501   -79776.136   -36064.856     84.86738 
   84800    2621.9867    -117.5226    2.3724286   -115.15018   -3224.6861    4.3736012    4.3736012    4.3736012   -3224.6861   -10409.505   -11571.465    12306.912   -7484.7843    28429.037   -25198.608    83.659937 
   84900    1454.3696   -116.47828    1.3159442   -115.16233   -22253.803    4.3655472    4.3655472    4.3655472   -22253.803   -75068.749    32685.007   -24377.668    10492.592   -52105.707     21630.72    83.198606 
   85000    1468.7013   -116.51167    1.3289118   -115.18275   -9384.9927    4.3559623    4.3559623    4.3559623   -9384.9927   -59963.728    50054.786   -18246.036   -21281.293   -74240.281   -21907.095    82.651805 
   85100    2765.1592   -117.69009    2.5019741   -115.18811    17637.228    4.3579053    4.3579053    4.3579053    17637.228    24054.455   -15837.678    44694.908     11986.79    30764.527   -1087.3342    82.762456 
   85200     655.4077   -115.82537   0.59302666   -115.23235    -42800.32    4.3774046    4.3774046    4.3774046    -42800.32   -89991.023   -1742.3405   -36667.596    25277.179    -77531.76    15357.333    83.878385 
   85300    1819.0088    -116.8642    1.6458774   -115.21832   -1876.4061    4.3689551    4.3689551    4.3689551   -1876.4061   -55111.771    15455.009    34027.544   -5514.3178   -10711.886   -6288.1385    83.393603 
   85400    2471.0724   -117.43902    2.2358782   -115.20315    10761.782    4.3591185    4.3591185    4.3591185    10761.782   -14682.603    3629.8178     43338.13   -2448.2178    3514.2444   -8089.9226    82.831598 
   85500    785.47211   -115.94423   0.71071168   -115.23352   -9019.4767    4.3582887    4.3582887    4.3582887   -9019.4767   -66164.431    25788.037    13317.963    32074.605   -84241.584   -4162.9988    82.784303 
   85600     2364.685   -117.34612    2.1396167   -115.20651    1939.2453    4.3725696    4.3725696    4.3725696    1939.2453    34002.366   -16467.342   -11717.288    8562.8668     19723.98    10347.669    83.600755 
   85700     1607.224   -116.65726    1.4542501   -115.20301   -22852.235    4.3825359    4.3825359    4.3825359   -22852.235   -13059.531    1266.3957   -56763.571   -16584.183   -47064.741   -16762.295    84.173703 
   85800    1065.8969   -116.15601   0.96444592   -115.19157    9871.3017    4.3785231    4.3785231    4.3785231    9871.3017    63699.686   -1160.7636   -32925.017    8076.1705   -49558.665    -8263.842    83.942698 
   85900    2763.1765   -117.66844    2.5001802   -115.16826   -6991.8499    4.3761092    4.3761092    4.3761092   -6991.8499    5662.2306   -32239.638    5601.8579    19397.375    17482.853    3896.9188    83.803946 
   86000    916.54464   -116.04174   0.82930885   -115.21243    694.35656    4.3570967    4.3570967    4.3570967    694.35656    -7331.312    59866.846   -50452.464   -4607.0513   -83493.335   -4995.4406    82.716396 
   86100    1869.0479   -116.91258    1.6911538   -115.22142   -2202.7145    4.3557918    4.3557918    4.3557918   -2202.7145   -44070.585    15359.738    22102.703   -12949.643   -32798.631   -8243.9133    82.642097 
   86200    2098.1868   -117.12082    1.8984835   -115.22233   -627.56429    4.3711247    4.3711247    4.3711247   -627.56429   -22321.322    -10712.57      31151.2    5977.4778     17167.93    27238.286    83.517907 
   86300    1090.8234   -116.21461   0.98699998   -115.22761    7380.9742    4.3770409    4.3770409    4.3770409    7380.9742     -32815.5    83101.389   -28142.967   -3356.5348   -62515.331     -1651.74    83.857483 
   86400    1885.1439   -116.89928    1.7057178   -115.19357    831.90488    4.3896963    4.3896963    4.3896963    831.90488   -761.95565    5565.9948   -2308.3245   -34752.906    3348.5455    3581.7691    84.586962 
   86500    1447.6592   -116.48769    1.3098725   -115.17782   -12396.456    4.3903997    4.3903997    4.3903997   -12396.456    15919.855   -32868.106   -20241.116   -10991.744    -10923.81     12862.58    84.627632 
   86600    1183.9868   -116.25511    1.0712962   -115.18381   -16394.283    4.3772518    4.3772518    4.3772518   -16394.283   -23148.364     33176.77   -59211.255    12890.003   -59660.358   -9093.0318    83.869602 
   86700    2176.8418   -117.14904    1.9696522   -115.17938    26318.986    4.3492179    4.3492179    4.3492179    26318.986    28829.271   -9578.7078    59706.393   -14665.777    26540.498    4508.6143    82.268487 
   86800     992.7489   -116.11994   0.89826007   -115.22168     9495.229    4.3496792    4.3496792    4.3496792     9495.229    21562.855    6382.0719     540.7604   -22411.048   -37866.882    12953.883    82.294667 
   86900    1300.6262   -116.41681    1.1768339   -115.23998   -36366.708    4.3760424    4.3760424    4.3760424   -36366.708   -65915.429    28905.877    -72090.57    4098.9909   -77840.582    120.74057    83.800107 
   87000    2855.7179   -117.78599    2.5839136   -115.20207   -5996.0875    4.3765696    4.3765696    4.3765696   -5996.0875    8453.6151   -27783.055    1341.1769    7808.4103    20671.397   -6153.0735    83.830398 
   87100    958.07658   -116.08812   0.86688782   -115.22123    -30029.13    4.3783572    4.3783572    4.3783572    -30029.13   -59837.934   -17985.682   -12263.775   -23625.335   -59007.642    5818.5735     83.93316 
   87200    1697.6707   -116.75064    1.5360881   -115.21455    -19119.74    4.3670726    4.3670726    4.3670726    -19119.74   -24320.683   -3447.2779   -29591.259    6038.9441   -48219.772    7563.9456    83.285853 
   87300    1920.6655   -116.94461    1.7378585   -115.20675    28882.968    4.3571289    4.3571289    4.3571289    28882.968    76879.346   -23189.418    32958.976    26163.423    42899.165   -5076.7988    82.718228 
   87400    1113.0714   -116.23415    1.0071304   -115.22701    15804.647    4.3721732    4.3721732    4.3721732    15804.647    44289.831   -13718.384    16842.494   -27633.444   -36392.652     4875.863    83.578018 
   87500    1988.7547   -117.00014     1.799467   -115.20067   -12686.542    4.3893112    4.3893112    4.3893112   -12686.542        16729   -19977.981   -34810.644   -7497.1675   -16464.125    2554.0354    84.564704 
   87600    1687.2597    -116.7306     1.526668   -115.20393   -29695.054    4.3785708    4.3785708    4.3785708   -29695.054   -57667.825    -16977.88   -14439.458    21358.945    45615.617    -11821.77    83.945442 
   87700    1772.2194   -116.80397    1.6035413   -115.20043    7211.7921    4.3484147    4.3484147    4.3484147    7211.7921   -16594.582   -6770.7644    45000.723   -47143.924   -18717.798   -3830.4223    82.222915 
   87800    1974.8442   -116.99731    1.7868806   -115.21043    28883.148    4.3550102    4.3550102    4.3550102    28883.148    72282.582    15146.774   -779.91118   -18071.218   -1916.5881   -17.086517    82.597619 
   87900     925.0516   -116.07089   0.83700613   -115.23388   -4856.5398     4.378042     4.378042     4.378042   -4856.5398    46662.677   -9887.8487   -51344.448    33388.132    52799.876   -16008.133    83.915035 
   88000    2198.8866   -117.19981    1.9895988   -115.21022   -12041.193    4.3813518    4.3813518    4.3813518   -12041.193   -7927.8307   -21742.439   -6453.3092   -15056.111   -12100.407   -1160.1479    84.105495 
   88100    1628.2148   -116.67706     1.473243   -115.20382    7732.7016    4.3832093    4.3832093    4.3832093    7732.7016    -35331.87    39525.717    19004.257   -9212.0581    52611.719    1938.3379    84.212514 
   88200    1219.9022   -116.28324    1.1037931   -115.17944   -13395.514       4.3939       4.3939       4.3939   -13395.514   -44577.831    14833.488   -10442.198    25606.601    54405.803   -18698.244      84.8302 
   88300    2656.5462   -117.54093    2.4036988   -115.13723   -3970.5719    4.3879265    4.3879265    4.3879265   -3970.5719   -47299.793   -31329.824    66717.901   -14374.828   -20762.641    14392.173    84.484695 
   88400     913.2337   -116.01331   0.82631305     -115.187   -42102.518     4.375635     4.375635     4.375635   -42102.518   -86463.212    18543.411   -58387.752     1593.412    98872.615   -10991.278    83.776702 
   88500    1214.8591   -116.31219    1.0992301   -115.21296    6991.2717    4.3447029    4.3447029    4.3447029    6991.2717   -3968.5223    16905.224    8037.1138    25995.121    19031.488   -29902.885     82.01254 
   88600    2304.9483   -117.30642    2.0855657   -115.22086    25761.922     4.348482     4.348482     4.348482    25761.922    11493.479    50354.609    15437.677   -8667.6968   -2581.0215    13785.669    82.226734 
   88700    1250.4232   -116.35943    1.1314092   -115.22802   -40241.565    4.3932731    4.3932731    4.3932731   -40241.565   -76816.906    32833.132   -76740.921    897.79205    92774.204   -7423.8263    84.793898 
   88800    2298.1934   -117.24346    2.0794536   -115.16401   -1941.2062    4.3904467    4.3904467    4.3904467   -1941.2062    15689.138   -22758.205    1245.4481    18485.658   -22834.215    -27906.55    84.630348 
   88900    1223.6981   -116.27265    1.1072278   -115.16543   -11830.618    4.3756577    4.3756577    4.3756577   -11830.618   -29716.313    46363.642   -52139.182    769.40873    83552.488    56.439759    83.778006 
   89000    1704.5041   -116.71077    1.5422712    -115.1685     -8595.02     4.363947     4.363947     4.363947     -8595.02   -38637.441    43637.681     -30785.3   -3407.5407    47831.291    18766.977    83.107155 
   89100    1960.7459   -116.94296    1.7741241   -115.16883    47052.169    4.3459619    4.3459619    4.3459619    47052.169    63034.324    -4474.379    82596.562    9357.5577     1661.444    4508.1399    82.083854 
   89200    767.72821   -115.92456   0.69465661    -115.2299    -23064.61    4.3780219    4.3780219    4.3780219    -23064.61   -73027.084    22989.097   -19155.843    17506.822    108946.53   -15734.009    83.913878 
   89300    2815.9251   -117.72315    2.5479082   -115.17524   -11542.279    4.3878073    4.3878073    4.3878073   -11542.279   -22573.845   -32210.295    20157.302   -8924.5751   -15819.861    13451.444    84.477811 
   89400    1652.3405   -116.69175    1.4950724   -115.19668   -12086.312    4.3610762    4.3610762    4.3610762   -12086.312   -34901.939    5723.7771   -7080.7743    10148.042    64625.002    8935.1313    82.943246 
   89500    922.49153   -116.05473   0.83468972   -115.22004   -14387.026    4.3553015    4.3553015    4.3553015   -14387.026   -47434.667    8740.3248   -4466.7355    21187.937    79307.272   -18781.461    82.614193 
   89600    2558.2134   -117.51473    2.3147252       -115.2    23456.611     4.366316     4.366316     4.366316    23456.611    20416.227   -10732.022    60685.628   -14939.712   -36632.471    20040.598    83.242574 
   89700    636.32965   -115.79568   0.57576444   -115.21992   -24482.832    4.3935711    4.3935711    4.3935711   -24482.832   -62046.598    47145.096   -58546.995    23751.066    92854.449    12538.153    84.811156 
   89800    1979.8803   -116.96511    1.7914373   -115.17367   -10593.032    4.3848537    4.3848537    4.3848537   -10593.032   -10687.682   -33938.022    12846.606     21413.42   -7727.9378   -2269.3541     84.30733 
   89900    1815.5499   -116.80209    1.6427477   -115.15935      23289.2      4.35056      4.35056      4.35056      23289.2    8978.3683    37831.742     23057.49   -8157.4483    40938.658    365.31719    82.344669 
   90000     1399.753   -116.45591    1.2665259   -115.18939   -10403.113    4.3524115    4.3524115    4.3524115   -10403.113   -32719.593     36668.75   -35158.495     4364.191    89132.924    15997.562    82.449848 
   90100    2634.3074   -117.55976    2.3835767   -115.17618   -2999.1726    4.3700984    4.3700984    4.3700984   -2999.1726   -4728.4626   -17592.531    13323.476    22619.595   -27858.413    2758.5897    83.459089 
   90200    637.41082   -115.78463    0.5767427   -115.20789   -3684.8252     4.383673     4.383673     4.383673   -3684.8252   -16117.696    81226.012   -76162.791    11015.682    96753.992   -3392.9287    84.239245 
   90300    2486.4089   -117.41294     2.249755   -115.16318   -16351.143    4.3895096    4.3895096    4.3895096   -16351.143    -15712.36   -12.728091    -33328.34    -5110.199   -18224.126     426.2633    84.576172 
   90400    1213.9268   -116.26956    1.0983864   -115.17118     11149.31    4.3710541    4.3710541    4.3710541     11149.31   -14238.773    103892.76   -56206.061    12475.799    58528.371     1954.798     83.51386 
   90500    1608.4634   -116.61694    1.4553715   -115.16157     19658.74    4.3632653    4.3632653    4.3632653     19658.74   -37836.788    80693.011    16119.996    11430.986     46385.82   -7863.5889    83.068213 
   90600    2301.1673   -117.23105    2.0821445   -115.14891    6008.1087    4.3727418    4.3727418    4.3727418    6008.1087    8784.6096    6255.6902    2984.0264   -5295.3872    6278.7125   -7662.3516    83.610629 
   90700    944.43118   -116.03801   0.85454118   -115.18347   -2054.1621    4.3742506    4.3742506    4.3742506   -2054.1621   -39298.438    47200.174   -14064.222   -1019.6513    110460.46    7353.0519    83.697209 
   90800    2631.0062   -117.53533    2.3805897   -115.15474      8601.77    4.3790161    4.3790161    4.3790161      8601.77   -22808.425   -8469.8061    57083.541     1285.958     -37698.8    3198.8853     83.97106 
   90900    878.36092   -115.97537   0.79475942   -115.18061   -17030.428    4.3793599    4.3793599    4.3793599   -17030.428   -66793.932    88427.788    -72725.14    351.28421    104331.08    1013.1118    83.990835 
   91000    2467.1001   -117.37827     2.232284   -115.14599    13292.781    4.3728965    4.3728965    4.3728965    13292.781    17276.098     27068.07    -4465.825    942.65952    506.29642   -6699.2824    83.619507 
   91100    1297.0029   -116.33964    1.1735554   -115.16609    -16625.07    4.3811889    4.3811889    4.3811889    -16625.07   -49919.719    46054.973   -46010.464   -5277.1254    55446.566   -1121.6676    84.096117 
   91200    1491.9836   -116.51943    1.3499781   -115.16946   -24850.971    4.3735635    4.3735635    4.3735635   -24850.971   -51655.064    64807.251     -87705.1    11476.306    82483.239     3975.073    83.657775 
   91300    2599.7003   -117.49398    2.3522635   -115.14171    25486.342    4.3611644    4.3611644    4.3611644    25486.342    41379.004    3682.9091    31397.112   -2360.4293   -17379.371    4278.0613    82.948281 
   91400    446.76335   -115.59492   0.40424087   -115.19068   -25303.646    4.3725616    4.3725616    4.3725616   -25303.646   -60843.779    72463.477   -87530.636    5104.2525    113146.49    701.19189    83.600294 
   91500    2501.2228    -117.4163    2.2631589   -115.15314    10065.837    4.3803684    4.3803684    4.3803684    10065.837    7839.6388    21607.118    750.75527    12153.593   -18798.068   -967.45425    84.048878 
   91600    1170.0441   -116.23173    1.0586805   -115.17305    21147.046    4.3735008    4.3735008    4.3735008    21147.046    16269.735    67855.406   -20684.004   -7080.4578    70816.158   -12930.987    83.654177 
   91700    1410.3149    -116.4545    1.2760826   -115.17842   -1221.7829    4.3758756    4.3758756    4.3758756   -1221.7829   -21833.149    52486.038   -34318.237    13572.949    29430.656    3199.6574    83.790526 
   91800    2484.1458   -117.40964    2.2477074   -115.16193    11502.443     4.362138     4.362138     4.362138    11502.443     20462.44    12173.166     1871.724    23412.273    10076.141    6054.6597    83.003846 
   91900    1051.9254   -116.14626    0.9518042   -115.19445    17732.923    4.3529615    4.3529615    4.3529615    17732.923   -235.00384    76907.569   -23473.795    -5890.591    102533.34    -5383.904    82.481109 
   92000    2592.3647   -117.52466    2.3456261   -115.17904    -14809.59     4.384023     4.384023     4.384023    -14809.59   -21910.203   -5878.2795   -16640.286    6827.6639   -41765.887   -685.74719    84.259423 
   92100    1190.7319   -116.24389    1.0773993   -115.16649   -36302.684    4.3932725    4.3932725    4.3932725   -36302.684   -85444.714    40959.117   -64422.454    11721.541    95390.697    2012.1075    84.793865 
   92200    2337.2579   -117.25143    2.1148001   -115.13663    16452.153    4.3774728    4.3774728    4.3774728    16452.153   -23029.514    21355.033     51030.94    7189.2818    7478.2779    7032.3793     83.88231 
   92300    1522.5476   -116.54514    1.3776331    -115.1675   -1476.7212    4.3680542    4.3680542    4.3680542   -1476.7212   -59572.386    82655.264   -27513.042   -931.93597    55198.827    5503.8848    83.342027 
   92400    1011.7734   -116.10375    0.9154738   -115.18827   -1320.7281    4.3562076    4.3562076    4.3562076   -1320.7281   -73005.649    73298.825   -4255.3601   -2589.7416    80445.331    3408.2825    82.665769 
   92500    2304.9481   -117.26254    2.0855655   -115.17697    8990.6583    4.3681861    4.3681861    4.3681861    8990.6583   -8566.2262   -37452.264    72990.466    23544.175   -37510.527    12381.513    83.349576 
   92600    1109.8791   -116.20501    1.0042419   -115.20077   -27206.354    4.3813917    4.3813917    4.3813917   -27206.354   -62590.345    26665.547   -45694.265    3983.9818    94358.358    8022.6338    84.107794 
   92700    1896.4129    -116.9049    1.7159142   -115.18898    7994.0365    4.3700379    4.3700379    4.3700379    7994.0365   -9439.3154    26554.157    6867.2684    -11270.95    23202.391   -7723.8981    83.455624 
   92800     1533.847   -116.58746     1.387857    -115.1996   -1842.3837    4.3702399    4.3702399    4.3702399   -1842.3837    -9747.353   -11575.307    15795.509    22330.719   -3137.5989   -13604.581      83.4672 
   92900    1603.0057   -116.65002    1.4504332   -115.19958   -14422.047    4.3716493    4.3716493    4.3716493   -14422.047   -48085.855     37872.79   -33053.077    9816.7892    72455.152    7943.4771     83.54798 
   93000    2334.5664    -117.2963    2.1123647   -115.18393    21103.747    4.3609995    4.3609995    4.3609995    21103.747   -5162.1463    35667.754    32805.634   -6716.3472   -10662.566   -2663.2194    82.938869 
   93100    1118.5356   -116.22761    1.0120745   -115.21554   -15807.656    4.3734984    4.3734984    4.3734984   -15807.656   -49898.923   -11846.901    14322.856    14383.435    5092.7533   -24767.321    83.654037 
   93200    1999.3034   -117.00582    1.8090117   -115.19681    -13426.28    4.3724519    4.3724519    4.3724519    -13426.28    943.04167   -1904.9868   -39316.896    10087.871    30046.109    15944.782    83.594004 
   93300    1713.0309   -116.75137    1.5499863   -115.20138    9637.4821    4.3579633    4.3579633    4.3579633    9637.4821   -754.16044    19474.022    10192.585   -11866.218   -6774.4326    40547.747    82.765758 
   93400    1477.8572   -116.54706    1.3371963   -115.20987   -6043.2785    4.3685047    4.3685047    4.3685047   -6043.2785   -43768.097   -15298.995    40937.257    17517.251   -7635.1911   -19244.154    83.367815 
   93500    2026.1794   -117.02925    1.8333297   -115.19592   -8153.6494    4.3663511    4.3663511    4.3663511   -8153.6494    6721.9664   -13677.129   -17505.785    3970.6508    5187.5714    35142.024     83.24458 
   93600    1513.8043   -116.57763    1.3697219   -115.20791   -4175.9422    4.3656858    4.3656858    4.3656858   -4175.9422    13781.293     19319.15    -45628.27    887.71577   -465.63491    62953.613    83.206535 
   93700    1710.0509   -116.75979      1.54729    -115.2125   -15952.388    4.3626175    4.3626175    4.3626175   -15952.388   -69669.223   -21301.442    43113.502    13635.006   -14635.433   -28901.838    83.031217 
   93800    1477.8197   -116.55371    1.3371624   -115.21654    22374.528     4.342252     4.342252     4.342252    22374.528    2814.3904    33873.835    30435.359   -6781.5091   -838.54264    37961.749    81.873822 
   93900    2134.3963   -117.15729    1.9312466   -115.22604    9709.7922     4.360128     4.360128     4.360128    9709.7922    26458.267    36104.337   -33433.227   -5293.9233    3889.9766    43765.756    82.889158 
   94000    1191.7941   -116.31214    1.0783603   -115.23378   -21459.405    4.3716175    4.3716175    4.3716175   -21459.405   -55617.963   -16513.018    7752.7665    15210.226   -6586.5814   -33392.108    83.546154 
   94100    1489.4936   -116.57618    1.3477251   -115.22846    8808.0661     4.360487     4.360487     4.360487    8808.0661    -18141.73    29424.425    15141.504   -7263.2212   -8255.0002   -17694.128    82.909634 
   94200     2560.692   -117.52462     2.316968   -115.20765   -13866.513     4.368572     4.368572     4.368572   -13866.513   -33459.106    35627.882   -43768.316   -11678.663    22158.943    15083.628    83.371667 
   94300    890.10353   -116.02773   0.80538438   -115.22234      5886.33    4.3640042    4.3640042    4.3640042      5886.33    3312.4333    25469.505   -11122.949    14827.984    24374.224   -23077.581     83.11042 
   94400    2220.9514   -117.20405    2.0095635   -115.19449    4444.3079    4.3668357    4.3668357    4.3668357    4444.3079     765.1135   -9313.5204    21881.331    11690.813   -24982.283    -3395.468    83.272298 
   94500    1297.6727   -116.37345    1.1741615   -115.19929   -46122.917    4.3789762    4.3789762    4.3789762   -46122.917   -39199.682   -9344.5905   -89824.478   -7344.3655    57706.785    49505.634    83.968763 
   94600    1637.6611   -116.68481    1.4817902   -115.20302   -1637.1783    4.3550803    4.3550803    4.3550803   -1637.1783   -5608.0242    12811.651   -12115.162     15543.76    16753.174   -876.14172    82.601609 
   94700    2344.1264   -117.31581    2.1210148   -115.19479    28741.218    4.3479736    4.3479736    4.3479736    28741.218    25354.007   -3237.1583    64106.806    20794.666   -20842.444   -3111.7003    82.197895 
   94800    920.46517   -116.06378   0.83285623   -115.23092   -44094.109    4.3688464    4.3688464    4.3688464   -44094.109   -13836.731   -12716.725   -105728.87   -4694.4517    72208.671    47944.632     83.38738 
   94900    1862.6228   -116.90121    1.6853403   -115.21587   -597.97448    4.3675451    4.3675451    4.3675451   -597.97448     5324.369    851.28893   -7969.5814   -4017.6681    13699.177    7481.6734    83.312889 
   95000    2247.7747   -117.23493    2.0338338   -115.20109   -9196.8166    4.3745406    4.3745406    4.3745406   -9196.8166    1980.9753   -37625.546    8054.1204    4012.9213   -14491.355    -11593.66    83.713857 
   95100    854.00412   -115.99161   0.77272087   -115.21889   -17033.596    4.3652221    4.3652221    4.3652221   -17033.596    18305.429    9909.2502   -79315.468    10204.784    60267.759    33839.253    83.180026 
   95200    2001.6016   -117.00758    1.8110912   -115.19649    32314.564     4.351648     4.351648     4.351648    32314.564     34242.59    11719.903      50981.2   -16457.202    11140.131    10944.618    82.406461 
   95300    1898.6256   -116.92748    1.7179163   -115.20956   -4923.8095    4.3636361    4.3636361    4.3636361   -4923.8095   -20063.755   -9927.5795    15219.906   -23373.521   -20343.986   -16346.127    83.089393 
   95400      1436.14   -116.51758    1.2994497   -115.21813   -586.98061    4.3588083    4.3588083    4.3588083   -586.98061    1951.3369    6617.2187   -10329.497    9231.8841    43267.081     32890.53    82.813911 
   95500    1884.3527   -116.92064    1.7050019   -115.21564    9285.6324    4.3629482    4.3629482    4.3629482    9285.6324    31537.972   -25575.764    21894.689   -21145.977    6418.2851    12351.816    83.050101 
   95600    1282.1321   -116.37772    1.1601001   -115.21762   -35257.648    4.3761515    4.3761515    4.3761515   -35257.648    -63325.64   -18472.847   -23974.457   -33930.274   -35688.106   -9245.1874     83.80637 
   95700    2087.0389   -117.09226    1.8883967   -115.20386     23687.47    4.3526999    4.3526999    4.3526999     23687.47    27172.125    54562.096   -10671.812    24263.335    3934.9547   -113.29632    82.466237 
   95800    1733.6234   -116.77923    1.5686189   -115.21062    22240.965     4.348198     4.348198     4.348198    22240.965    22721.267   -8233.1389    52234.768   -68425.885    8546.9296    245.02437    82.210622 
   95900    1186.6133   -116.30112    1.0736727   -115.22745   -21835.012    4.3671682    4.3671682    4.3671682   -21835.012   -60702.589   -897.90598   -3904.5417     -49633.8   -29141.516   -5437.0657     83.29132 
   96000    1969.2424   -116.98272    1.7818119    -115.2009    11365.658    4.3702697    4.3702697    4.3702697    11365.658    35724.293    38343.087   -39970.407    31980.308   -18301.632   -10683.071    83.468907 
   96100    1299.4898   -116.38476    1.1758056   -115.20895   -6731.5441    4.3693491    4.3693491    4.3693491   -6731.5441   -21332.478   -46407.005    47544.851   -86659.971    7604.2091    7312.2192    83.416168 
   96200     2080.073   -117.06462    1.8820937   -115.18252     14557.58    4.3628763    4.3628763    4.3628763     14557.58   -979.70355    17597.338    27055.104   -12962.255    2255.3062    12766.337    83.045996 
   96300    1383.2142   -116.44028    1.2515613   -115.18872    27760.401    4.3637617    4.3637617    4.3637617    27760.401    39532.509    9268.0785    34480.616    32.728459   -15880.601   -13841.771    83.096566 
   96400    1501.8207   -116.54342     1.358879   -115.18454   -1164.3898    4.3794494    4.3794494    4.3794494   -1164.3898   -17342.778   -11444.693    25294.301    -39350.42    10686.114   -170.32177    83.995989 
   96500     1984.005   -116.97336    1.7951694   -115.17819    10486.539    4.3700599    4.3700599    4.3700599    10486.539   -11155.976    49102.997    -6487.403     3703.497    5442.0989    821.80492    83.456885 
   96600     1810.657   -116.82766    1.6383205   -115.18934     12690.51    4.3531378    4.3531378    4.3531378     12690.51   -3117.7771   -8081.6865    49270.994   -21139.317   -19752.863    1676.5222     82.49113 
   96700    1445.1043   -116.51573    1.3075607   -115.20817    16349.351    4.3513417    4.3513417    4.3513417    16349.351   -126.92782   -1781.3073    50956.289   -42818.414     11467.65   -5838.7323    82.389061 
   96800    1802.9674   -116.84893    1.6313628   -115.21757    4072.1209    4.3607638    4.3607638    4.3607638    4072.1209    8034.7055    27631.875   -23450.217     13575.56    44344.771     5549.982    82.925422 
   96900    2098.5665   -117.10846     1.898827   -115.20963   -2741.5506    4.3691953    4.3691953    4.3691953   -2741.5506   -27.515899   -22952.624    14755.488   -30381.335    -9507.507    4989.2235     83.40736 
   97000    1288.8375   -116.38345    1.1661672   -115.21728    3360.6149    4.3681234    4.3681234    4.3681234    3360.6149     16068.18   -26307.273    20320.938   -44502.355     10058.44   -9285.6763     83.34599 
   97100    1829.1852   -116.86664    1.6550852   -115.21155   -10433.131    4.3644679    4.3644679    4.3644679   -10433.131    -13833.81    29266.382   -46731.964    31109.346    51086.484   -1223.5709    83.136919 
   97200    1959.5938   -116.98176    1.7730816   -115.20867     5587.746    4.3528844    4.3528844    4.3528844     5587.746    15453.139   -45.978784    1356.0783   -32083.482   -23056.481   -6374.6131    82.476721 
   97300    1352.8184    -116.4505    1.2240585   -115.22644    1165.1611    4.3664723    4.3664723    4.3664723    1165.1611    554.36849    791.83676    2149.2782   -44785.732    2886.4274    13627.053    83.251514 
   97400    2343.4274   -117.32456    2.1203824   -115.20418   -26064.446    4.3776271    4.3776271    4.3776271   -26064.446   -26228.543   -3681.9487   -48282.845    33619.696    37516.844   -7999.2341    83.891179 
   97500    1412.4126   -116.49909    1.2779806   -115.22111    17340.809    4.3496539    4.3496539    4.3496539    17340.809    8783.4027    1351.3235    41887.701   -37455.546   -28569.241    -20371.87    82.293227 
   97600    1380.9792   -116.47902     1.249539   -115.22948    11339.234    4.3531393    4.3531393    4.3531393    11339.234    8064.5293    13624.686    12328.487   -44745.548   -4566.7366    18789.745    82.491213 
   97700    2438.8102   -117.39717    2.2066868   -115.19048   -21041.416    4.3877495    4.3877495    4.3877495   -21041.416   -9574.6557    -23207.89   -30341.704     27451.29    22250.976    8479.0644    84.474471 
   97800    850.53181   -115.94406   0.76957906   -115.17448    624.34269    4.3882396    4.3882396    4.3882396    624.34269   -4266.6136    -46400.14    52539.782   -66767.901   -21442.629   -43487.081    84.502782 
   97900    2627.4137   -117.49864    2.3773391    -115.1213   -7300.2779    4.3821425    4.3821425    4.3821425   -7300.2779   -1745.8786   -25141.351    4986.3957    7923.1968    4009.6731    28750.875    84.151043 
   98000    1534.9175   -116.54293    1.3888256    -115.1541   -29890.933    4.3700244    4.3700244    4.3700244   -29890.933   -5334.5001   -65000.676   -19337.623   -19900.902    879.32931    -22221.07     83.45485 
   98100    1150.4761   -116.21629    1.0409749   -115.17532    37458.854    4.3385373    4.3385373    4.3385373    37458.854    38717.888    3119.2674    70539.407   -60536.758   -7864.5515   -35831.608    81.663881 
   98200    2504.6059   -117.45788    2.2662201   -115.19166    13442.439    4.3551468    4.3551468    4.3551468    13442.439    2904.3883   -5743.6647    43166.592    52388.876    11083.041    20175.443    82.605394 
   98300    1501.6736   -116.56443    1.3587458   -115.20569   -24575.419    4.3788924    4.3788924    4.3788924   -24575.419   -26228.508   -43776.581   -3721.1685   -13946.633   -11116.025    -30617.32    83.963943 
   98400    1407.4442   -116.47445    1.2734851   -115.20096      24293.1     4.364892     4.364892     4.364892      24293.1    8075.6872    21667.522    43136.092   -41488.073   -5659.9249   -33403.687    83.161153 
   98500     2359.827   -117.31394    2.1352211   -115.17872    21882.681    4.3595974    4.3595974    4.3595974    21882.681    3328.1626    25239.049    37080.832    47315.659    6782.1859    26405.857    82.858901 
   98600     1239.106   -116.31729    1.1211692   -115.19612    8624.5936    4.3676795    4.3676795    4.3676795    8624.5936    5190.1086    2714.1135    17969.559   -18443.785   -19134.925   -39281.369     83.32058 
   98700    2084.6154   -117.05693    1.8862039   -115.17072    16306.646    4.3768112    4.3768112    4.3768112    16306.646     4466.927    28963.379    15489.631   -19125.008    2305.2108   -15208.764    83.844283 
   98800    1518.5713   -116.54467    1.3740352   -115.17063    318.52213    4.3763401    4.3763401    4.3763401    318.52213    -1703.202    19408.355   -16749.587    18118.826   -50.692624    31005.213    83.817212 
   98900    1698.7381   -116.71027    1.5370539   -115.17321    10835.103    4.3633666    4.3633666    4.3633666    10835.103    7102.2617    18179.371    7223.6773   -3705.7929   -21021.925    -55200.95    83.073999 
   99000    2128.7009   -117.10253    1.9260933   -115.17644    12906.829    4.3547092    4.3547092    4.3547092    12906.829    27468.596    14025.612   -2773.7212   -8453.7135    19325.311    27006.063    82.580493 
   99100    837.01098   -115.97658   0.75734512   -115.21924    426.94962    4.3526434    4.3526434    4.3526434    426.94962    9200.3153    18206.244    -26125.71    8427.6821    6993.0124    60294.479    82.463023 
   99200    2218.9766   -117.22113    2.0077767   -115.21336    15269.931    4.3643522    4.3643522    4.3643522    15269.931    4297.4289    36724.125    4788.2383    9807.7584     -15684.5   -28909.735    83.130307 
   99300    1919.0694   -116.95051    1.7364143    -115.2141    3166.6525    4.3686742    4.3686742    4.3686742    3166.6525    49742.434   -30156.157   -10086.319   -20732.919    7925.1973    49581.036    83.377518 
   99400     1074.611   -116.19081   0.97233062   -115.21848     9313.188    4.3650761    4.3650761    4.3650761     9313.188    20526.594   -2371.5333    9784.5035    2059.8156    5689.0372     52078.89    83.171674 
   99500    2951.5434   -117.85564    2.6706185   -115.18502    10857.923    4.3596578    4.3596578    4.3596578    10857.923    1072.3387    5419.8797    26081.551    2922.8095    3111.7565   -10983.084    82.862345 
   99600    947.80792   -116.08116   0.85759652   -115.22357    10664.566    4.3562585    4.3562585    4.3562585    10664.566    44737.813   -50268.177    37524.063   -18961.339    458.72504    62690.348    82.668668 
   99700    1468.8967    -116.5489    1.3290886   -115.21982   -30114.191     4.368649     4.368649     4.368649   -30114.191    2135.9339   -41770.304   -50708.204   -14923.095    26743.755     4111.725    83.376076 
   99800    2463.5873   -117.42777    2.2291055   -115.19867    -1817.398    4.3632252    4.3632252    4.3632252    -1817.398    -25663.17   -4038.5777    24249.553    29196.263   -105.59873   -13801.903    83.065924 
   99900    864.10815   -116.00358   0.78186321   -115.22172   -21563.678    4.3588064    4.3588064    4.3588064   -21563.678    37356.861   -61148.304    -40899.59   -2388.3983    -8796.336     85877.63    82.813806 
  100000    2210.9108   -117.20613    2.0004786   -115.20565   -8873.5275     4.359106     4.359106     4.359106   -8873.5275   -14632.704   -4193.0043   -7794.8747   -40726.527    22436.709   -606.50966    82.830884 
Loop time of 21.8374 on 1 procs for 100000 steps with 8 atoms

Pair  time (%) = 6.60838 (30.2617)
Kspce time (%) = 5.31356 (24.3324)
Neigh time (%) = 0.227332 (1.04102)
Comm  time (%) = 0.997983 (4.57006)
Outpt time (%) = 0.0243678 (0.111587)
Other time (%) = 8.66581 (39.6833)

Nlocal:    8 ave 8 max 8 min
Histogram: 1 0 0 0 0 0 0 0 0 0
Nghost:    1955 ave 1955 max 1955 min
Histogram: 1 0 0 0 0 0 0 0 0 0
Neighs:    2087 ave 2087 max 2087 min
Histogram: 1 0 0 0 0 0 0 0 0 0

Total # of neighbors = 2087
Ave neighs/atom = 260.875
Neighbor list builds = 2829
Dangerous builds = 0
unfix 20
unfix 21
print "seeds:6557841"
seeds:6557841
