LAMMPS (10 Feb 2015)
# ---- initialize simulations
clear
units metal
dimension 3
boundary p p p
atom_style charge
atom_modify map array
# ---- create atoms
read_data /Users/eugeneragasa/pyflamestk_git/pypospack/tests/tests_integration/workflow/WorkflowLammpsThermalExpansion/param_1256/MgO_NaCl_unit.npt.T600/lammps.structure
  triclinic box = (0 0 0) to (4.2565 4.2565 4.2565) with tilt (0 0 0)
  1 by 1 by 1 MPI processor grid
  reading atoms ...
  8 atoms
# ---- define interatomic potential
include potential.mod
mass 1 24.305
mass 2 15.999

group Mg type 1
4 atoms in group Mg
group O type 2
4 atoms in group O

set group Mg charge 1.66039996869
  4 settings made for charge
set group O charge -1.66039996869
  4 settings made for charge

variable R_cut equal 10.0

pair_style buck/coul/long ${R_cut}
pair_style buck/coul/long 10
pair_coeff 1 1 0.0 0.5 0.0 ${R_cut}
pair_coeff 1 1 0.0 0.5 0.0 10
pair_coeff 1 2 1528.2261267 0.282600919639 0.0 ${R_cut}
pair_coeff 1 2 1528.2261267 0.282600919639 0.0 10
pair_coeff 2 2 6677.06285722 0.138925130231 8.13419383626 ${R_cut}
pair_coeff 2 2 6677.06285722 0.138925130231 8.13419383626 10

kspace_style pppm 1.0e-5

neighbor 1.0 bin
neigh_modify every 1 delay 0 check yes
# ---- define settings
compute eng all pe/atom
compute eatoms all reduce sum c_eng
# ---- run minimization
reset_timestep 0
fix 1 all box/relax iso 0.0 vmax 0.001
thermo 10
thermo_style custom step pe lx ly lz xy xz yz press pxx pyy pzz pxy pxz pyz c_eatoms
min_style cg
minimize 1e-25 1e-25 5000 10000
PPPM initialization ...
  G vector (1/distance) = 0.352851
  grid = 8 8 8
  stencil order = 5
  estimated absolute RMS force accuracy = 3.9608e-05
  estimated relative force accuracy = 2.75062e-06
  using double precision FFTs
  3d grid and FFT values/proc = 3375 512
Neighbor list info ...
  1 neighbor list requests
  update every 1 steps, delay 0 steps, check yes
  master list distance cutoff = 11
Memory usage per processor = 4.06549 Mbytes
Step PotEng Lx Ly Lz Xy Xz Yz Press Pxx Pyy Pzz Pxy Pxz Pyz eatoms 
       0   -110.92329       4.2565       4.2565       4.2565            0            0            0    120138.29    120138.29    120138.29    120138.29 1.5343687e-10 -1.0407196e-10 -1.3145771e-10   -110.92329 
      10   -111.05478     4.299065     4.299065     4.299065            0            0            0    61836.089    61836.089    61836.089    61836.089 1.0666232e-10 -5.0344756e-11 -1.3613158e-10   -111.05478 
      20   -111.10767      4.34163      4.34163      4.34163            0            0            0    10591.608    10591.608    10591.608    10591.608 -1.2465538e-10 -9.1160209e-12 2.8254225e-10   -111.10767 
      25   -111.10952     4.351169     4.351169     4.351169            0            0            0   -6.6622077   -6.6622077   -6.6622077   -6.6622077 -1.5540302e-10 -3.5403029e-11 3.0098099e-10   -111.10952 
Loop time of 0.015743 on 1 procs for 25 steps with 8 atoms

Minimization stats:
  Stopping criterion = linesearch alpha is zero
  Energy initial, next-to-last, final = 
        -110.923293971     -111.109518965     -111.109518965
  Force two-norm initial, final = 17.348 0.0010058
  Force max component initial, final = 17.348 0.0010053
  Final line search alpha, max atom move = 0.00777135 7.8125e-06
  Iterations, force evaluations = 25 41

Pair  time (%) = 0.00401592 (25.5092)
Kspce time (%) = 0.00259519 (16.4847)
Neigh time (%) = 0 (0)
Comm  time (%) = 0.000502825 (3.19395)
Outpt time (%) = 6.58035e-05 (0.417985)
Other time (%) = 0.00856328 (54.3941)

Nlocal:    8 ave 8 max 8 min
Histogram: 1 0 0 0 0 0 0 0 0 0
Nghost:    2189 ave 2189 max 2189 min
Histogram: 1 0 0 0 0 0 0 0 0 0
Neighs:    2344 ave 2344 max 2344 min
Histogram: 1 0 0 0 0 0 0 0 0 0

Total # of neighbors = 2344
Ave neighs/atom = 293
Neighbor list builds = 0
Dangerous builds = 0
unfix 1
# ---- define output variables ----
variable natoms equal "count(all)"
variable tot_energy equal "c_eatoms"
variable length_x equal "lx"
variable length_y equal "ly"
variable length_z equal "lz"
variable tilt_xy equal "xy"
variable tilt_xz equal "xz"
variable tilt_yz equal "yz"
variable tot_press equal "press"
variable press_xx equal "pxx"
variable press_yy equal "pyy"
variable press_zz equal "pzz"
variable press_xy equal "pxy"
variable press_xz equal "pxz"
variable press_yz equal "pyz"

# ---- output ----
print "pypospack:output_section:begin"
pypospack:output_section:begin
print "tot_energy = ${tot_energy}"
tot_energy = -111.109518965105
print "num_atoms = ${natoms}"
num_atoms = 8
print "xx = ${length_x}"
xx = 4.35116899821938
print "yy = ${length_y}"
yy = 4.35116899821938
print "zz = ${length_z}"
zz = 4.35116899821938
print "xy = ${tilt_xy}"
xy = 0
print "xz = ${tilt_xz}"
xz = 0
print "yz = ${tilt_yz}"
yz = 0
print "tot_press = ${tot_press}"
tot_press = -6.66220766530753
print "pxx = ${press_xx}"
pxx = -6.66220766529406
print "pyy = ${press_yy}"
pyy = -6.66220766581444
print "pzz = ${press_zz}"
pzz = -6.6622076648141
print "pxy = ${press_xy}"
pxy = -1.55403020158447e-10
print "pxz = ${press_xz}"
pxz = -3.54030294322521e-11
print "pyz = ${press_yz}"
pyz = 3.00980987063428e-10
print "pypospack:output_section:done"
pypospack:output_section:done
print "pypospack:lammps_sim:done"
pypospack:lammps_sim:done
#------------------------------------------------------------------------------
# RUN THERMOSTAT
# running using an NPT Nose-Hoover style thermostat
#------------------------------------------------------------------------------
variable tempdamp equal 0.1
variable pressdamp equal 1.0
# set initial velocities
velocity all create 600 9950067 mom yes dist gaussian loop all
# fix for Nose-Hoover style thermostat
fix 20 all npt temp 600 600 0.1 aniso 0.0 0.0 1.0 drag 1.0 couple xyz
variable boxx equal lx
variable boxy equal ly
variable boxz equal lz
variable boxp equal press
variable boxt equal temp
# calculate averages every 10000 steps
reset_timestep 0
fix 21 all ave/time 10 10 100 v_boxx v_boxy v_boxz v_boxp v_boxt file lattice.out
thermo_style custom step temp pe ke etotal press lx ly lz press pxx pyy pzz pxy pxz pyz vol
thermo_modify flush yes
thermo 100
run 100000
PPPM initialization ...
  G vector (1/distance) = 0.351894
  grid = 8 8 8
  stencil order = 5
  estimated absolute RMS force accuracy = 4.14019e-05
  estimated relative force accuracy = 2.8752e-06
  using double precision FFTs
  3d grid and FFT values/proc = 3375 512
Memory usage per processor = 3.06549 Mbytes
Step Temp PotEng KinEng TotEng Press Lx Ly Lz Press Pxx Pyy Pzz Pxy Pxz Pyz Volume 
       0          600   -111.10953   0.54289261   -110.56664    7030.2227     4.351169     4.351169     4.351169    7030.2227    7526.1875    8452.0879    5112.3927   -1798.1671    4306.2464   -1469.1665    82.379254 
     100    223.10124   -110.69056   0.20186669    -110.4887   -3693.8329    4.3817229    4.3817229    4.3817229   -3693.8329   -4998.6792     7733.636   -13816.456    653.10206   -3558.5256    -305.1576     84.12687 
     200    468.05792   -110.77048   0.42350864   -110.34697   -6945.8235    4.3767933    4.3767933    4.3767933   -6945.8235   -7007.0594   -15592.575    1762.1641    2103.5884   -2590.5114    1346.9993    83.843252 
     300    244.21132   -110.43752   0.22096753   -110.21655    20706.757    4.3718574    4.3718574    4.3718574    20706.757    13380.847    26276.367    22463.058    929.10537   -6997.1666    2990.5758    83.559908 
     400    369.97413    -110.4519   0.33476037   -110.11714   -9210.6582    4.3974862    4.3974862    4.3974862   -9210.6582   -7762.8934   -29183.328    9314.2463    1646.4685   -11262.969    2185.8376    85.038084 
     500    752.59596   -110.72334   0.68096464   -110.04238    8522.5179    4.3757598    4.3757598    4.3757598    8522.5179    11611.683    805.92796    13149.943    2345.9613    811.57442    4699.4667    83.783872 
     600     646.5319    -110.6009   0.58499565    -110.0159    -54.41494    4.3898858    4.3898858    4.3898858    -54.41494    1599.0068    1631.6975   -3393.9492    1052.8288    -5621.205    1838.4504    84.597918 
     700    700.85058   -110.63738   0.63414433   -110.00323   -22210.058    4.3937639    4.3937639    4.3937639   -22210.058   -11441.232   -27455.849   -27733.094    902.97246     537.5531   -4138.8536    84.822323 
     800    607.58972   -110.55249   0.54975995   -110.00273    7153.4334    4.3740856    4.3740856    4.3740856    7153.4334    2793.4183    11380.425    7286.4568    254.21161    1976.0679     5426.729    83.687742 
     900    603.85549   -110.55756   0.54638113   -110.01118   -22648.592    4.4041345    4.4041345    4.4041345   -22648.592   -12310.815   -44028.239   -11606.723    3933.6107   -5417.3174   -1415.6511    85.424359 
    1000    569.17341   -110.52652   0.51500007   -110.01152    11963.207    4.3760173    4.3760173    4.3760173    11963.207    11183.338    3577.7449    21128.538   -680.37295   -6633.8418    710.74266     83.79866 
    1100    640.34163   -110.59627   0.57939456   -110.01688    10482.776    4.3824837    4.3824837    4.3824837    10482.776    14207.116   -16404.006    33645.219   -2280.2973   -7187.8205    2167.1168    84.170696 
    1200     451.9296     -110.421    0.4089154   -110.01209   -19054.704    4.4037376    4.4037376    4.4037376   -19054.704   -7790.9809   -47771.124   -1602.0086    4208.2172   -1899.3702    6235.4825    85.401265 
    1300    566.68155   -110.51622   0.51274538   -110.00347    18446.875    4.3609478    4.3609478    4.3609478    18446.875    15940.348    20545.412    18854.866    2302.1504    3766.5361    6715.0896    82.935922 
    1400    776.89388   -110.72111   0.70294991   -110.01816   -25410.437    4.4038475    4.4038475    4.4038475   -25410.437   -23112.603   -30144.106   -22974.604   -2684.9512   -461.75687   -3577.1463    85.407656 
    1500    784.14033   -110.72828   0.70950665   -110.01877   -14196.126    4.3854475    4.3854475    4.3854475   -14196.126   -20184.523   -15423.926   -6979.9279     8819.429    1663.9474    3459.8499    84.341586 
    1600    555.24341   -110.51131   0.50239591   -110.00891    34955.829    4.3613659    4.3613659    4.3613659    34955.829    39019.396     5577.987    60270.103    487.92428   -8362.5263   -5427.4953    82.959776 
    1700    489.30604   -110.44716   0.44273439   -110.00443    -35199.67    4.4184636    4.4184636    4.4184636    -35199.67    -32886.06   -66154.734   -6558.2177    1970.5756   -3513.8303     3619.574    86.260872 
    1800    409.54476   -110.37139    0.3705647   -110.00082    29925.034    4.3529615    4.3529615    4.3529615    29925.034    44557.637   -1999.1966    47216.661    12612.028   -7781.1819    6085.9432    82.481107 
    1900    687.02636   -110.64542   0.62163589   -110.02379   -12706.928    4.3903971    4.3903971    4.3903971   -12706.928   -9429.2704   -7869.9009   -20821.613   -167.78341    1090.1783    1287.2774    84.627482 
    2000    824.33519   -110.75466    0.7458758   -110.00879   -35204.212    4.4019686    4.4019686    4.4019686   -35204.212    -38031.45   -32942.174   -34639.011    9655.1049    8316.6029    1330.6036    85.298385 
    2100    561.21248   -110.49579   0.50779684   -109.98799    45389.895    4.3441295    4.3441295    4.3441295    45389.895    53003.314    34902.633    48263.738   -189.52562   -2291.9924    663.80696    81.980074 
    2200    585.45986   -110.53341   0.52973638   -110.00367   -33778.499    4.4137376    4.4137376    4.4137376   -33778.499   -33364.968   -52110.051   -15860.477    -5415.657    -5645.831   -4790.6117    85.984374 
    2300    207.50624   -110.20122   0.18775601   -110.01346    26273.266    4.3676059    4.3676059    4.3676059    26273.266     60067.91   -20995.073     39746.96    5629.5693   -11015.532     249.7564    83.316369 
    2400    631.11756    -110.5883   0.57104843   -110.01725    6713.5991    4.3675857    4.3675857    4.3675857    6713.5991    12222.087   -9306.0653    17224.775   -3816.1646   -2629.6849    5207.7137    83.315211 
    2500    710.23598   -110.64429   0.64263644   -110.00165   -31999.815    4.4058758    4.4058758    4.4058758   -31999.815   -34077.199   -39274.281   -22647.966    4847.6423   -2226.9987   -2900.3208    85.525725 
    2600    807.43764    -110.7257   0.73058655   -109.99512     16956.56    4.3518309    4.3518309    4.3518309     16956.56     37184.75   -179.56531    13864.497    1500.5095    5651.3369    6999.5061    82.416856 
    2700    581.08073   -110.53976   0.52577405   -110.01399   -21731.875      4.39582      4.39582      4.39582   -21731.875    -11021.27   -36494.661   -17679.692    1141.3154   -6399.0108    3490.3694    84.941457 
    2800    432.95462   -110.40456   0.39174644   -110.01281    4026.5362    4.3816945    4.3816945    4.3816945    4026.5362    13612.185    -17949.15    16416.573    5957.0867   -12603.764   -3299.1721    84.125234 
    2900    532.84064    -110.4908   0.48212541   -110.00868    20977.078    4.3660752    4.3660752    4.3660752    20977.078    20965.051   -10747.455    52713.638   -2895.0654   -4617.1579    2038.0854    83.228803 
    3000    627.30298   -110.57703   0.56759692   -110.00943   -17348.388    4.3992351    4.3992351    4.3992351   -17348.388   -22483.752   -24889.978   -4671.4333   -2015.5854    -8962.063   -4218.1484    85.139585 
    3100    807.27281   -110.73535    0.7304374   -110.00491   -3701.2835    4.3714082    4.3714082    4.3714082   -3701.2835    -636.2485    -16886.16    6418.5579    6573.8213    6138.8679    669.52351    83.534153 
    3200    647.45753   -110.59588   0.58583318   -110.01004   -9876.2556    4.3822601    4.3822601    4.3822601   -9876.2556    6346.0808   -29130.186   -6844.6621   -1107.1314     3769.165    6467.2307    84.157813 
    3300    539.11281   -110.50185    0.4878006   -110.01405   -5204.5778     4.386473     4.386473     4.386473   -5204.5778   -18258.504   -28264.606    30909.376     957.0231   -4065.4737   -1264.6234    84.400763 
    3400    431.22393    -110.4056   0.39018047   -110.01542     20990.19    4.3723297    4.3723297    4.3723297     20990.19    34275.276   -8823.9905    37519.285    6533.5988   -11024.687    8016.1508    83.586996 
    3500    663.80003   -110.61807   0.60062021   -110.01745   -4160.1491    4.3827901    4.3827901    4.3827901   -4160.1491   -2270.1468    -22776.88     12566.58   -5131.7376   -2136.4654    296.52717    84.188351 
    3600    696.39855   -110.64615   0.63011604   -110.01604   -7094.1992    4.3823719    4.3823719    4.3823719   -7094.1992    1775.5182   -10015.342   -13042.774    1700.6075   -2515.3258   -2378.9688    84.164258 
    3700    635.99474   -110.59133   0.57546141   -110.01587   -2419.0605    4.3798559    4.3798559    4.3798559   -2419.0605    12120.164   -27395.943    8018.5975   -2192.4864    3076.4331   -620.12974     84.01938 
    3800    668.73351    -110.6206   0.60508413   -110.01551   -4081.0948    4.3795253    4.3795253    4.3795253   -4081.0948   -3935.2848   -19872.889    11564.889   -2993.4086     54.38176     1798.137    84.000357 
    3900    361.43563   -110.34499   0.32703456   -110.01796    17833.554    4.3832555    4.3832555    4.3832555    17833.554     34129.36   -15792.289    35163.591     4353.568   -14685.685    901.83376    84.215173 
    4000    647.25499    -110.5981   0.58564992   -110.01245   -5524.1233    4.3842036    4.3842036    4.3842036   -5524.1233    7379.2519   -27980.852    4029.2301    3738.5107   -3565.4864    9044.5029    84.269835 
    4100    488.47327   -110.45158   0.44198088    -110.0096    13614.881    4.3705544    4.3705544    4.3705544    13614.881    28400.106   -3100.2196    15544.757      3723.22   -1196.6724    6298.3429    83.485221 
    4200    708.72017   -110.65534    0.6412649   -110.01408   -23622.728     4.393643     4.393643     4.393643   -23622.728   -23653.619   -17453.861   -29760.705    6952.4023     1848.833    304.27377    84.815316 
    4300    655.38801   -110.60905   0.59300885   -110.01604   -2108.7412    4.3770177    4.3770177    4.3770177   -2108.7412    2062.7427    -1823.596   -6565.3703   -4691.8765    5333.5083    5817.3407    83.856147 
    4400    648.79817   -110.60304   0.58704622     -110.016    16379.476    4.3728408    4.3728408    4.3728408    16379.476    26953.236     14527.68    7657.5118   -9345.3099   -2991.1278   -6431.9655    83.616312 
    4500    497.24632   -110.46145   0.44991892   -110.01153   -14876.857    4.4006467    4.4006467    4.4006467   -14876.857    6186.7061   -33514.602   -17302.674    -4028.015   -11308.181    -1625.341    85.221565 
    4600    450.88707   -110.41315    0.4079721   -110.00518    25625.499    4.3590462    4.3590462    4.3590462    25625.499     42664.15   -6161.0575    40373.403   -6424.0288   -8051.7459    644.47985    82.827471 
    4700    620.42208   -110.58295   0.56137093   -110.02158   -18599.342    4.3908098    4.3908098    4.3908098   -18599.342   -11334.558   -42321.743   -2141.7255    6880.6482   -1697.3109    779.40819    84.651346 
    4800    631.24088   -110.58656   0.57116001    -110.0154   -19659.556    4.3887603    4.3887603    4.3887603   -19659.556   -6939.7952   -30665.936   -21372.937    1306.4433   -1193.1003     9173.079    84.532866 
    4900    967.68722   -110.87645   0.87558373   -110.00087    18231.554    4.3545128    4.3545128    4.3545128    18231.554     17568.33    16477.003    20649.328    5096.1276    3799.1159     2141.923    82.569319 
    5000    498.03943   -110.46105   0.45063654   -110.01041   -18511.073    4.4037145    4.4037145    4.4037145   -18511.073   -4805.6667   -36525.615   -14201.937   -636.63613   -6383.0546    1807.5018    85.399923 
    5100    486.69966   -110.45186   0.44037608   -110.01148    17739.218    4.3612295    4.3612295    4.3612295    17739.218    23103.546    3429.3293    26684.778   -2823.8462   -10443.225    6314.2064    82.951994 
    5200    510.72075   -110.48249   0.46211086   -110.02037    85.557068    4.3778134    4.3778134    4.3778134    85.557068    7907.8942   -26169.745    18518.522   -7241.8499    1040.8411   -7620.2399    83.901887 
    5300    555.80727   -110.51623    0.5029061   -110.01332   -18032.215    4.3914656    4.3914656    4.3914656   -18032.215   -7911.8185   -28501.915   -17682.911   -416.02554   -2554.2832   -761.22919    84.689284 
    5400    822.41561   -110.74992   0.74413893   -110.00578    16909.402    4.3556688    4.3556688    4.3556688    16909.402    8231.7048    21813.987    20682.513    -1195.113    1878.0082    4819.9477    82.635097 
    5500    711.98685   -110.65818   0.64422066   -110.01396   -19777.911    4.3972236    4.3972236    4.3972236   -19777.911   -6029.1687   -33303.578   -20000.985    495.89113    2685.0069   -1665.6367    85.022847 
    5600     486.3853   -110.45509   0.44009164     -110.015    10774.654    4.3686149    4.3686149    4.3686149    10774.654    12801.695   -8788.5735     28310.84    2890.7386   -14664.667     8812.557    83.374125 
    5700    356.30724   -110.34098   0.32239428   -110.01859    11551.724    4.3724678    4.3724678    4.3724678    11551.724    27440.589   -17450.828    24665.412    -1784.158   -9098.6679   -345.00441    83.594913 
    5800    713.83781   -110.65648   0.64589545   -110.01058   -16574.626    4.3892648    4.3892648    4.3892648   -16574.626   -7390.8001   -39669.855   -2663.2226   -631.08359   -6389.5392   -7243.9404    84.562021 
    5900    741.70856   -110.68003   0.67111349   -110.00891    8443.8122    4.3639435    4.3639435    4.3639435    8443.8122    15979.451     6076.302     3275.684   -391.44789    1887.0088    6529.5461    83.106953 
    6000    696.93302    -110.6469   0.63059965    -110.0163    -13389.58    4.3842982    4.3842982    4.3842982    -13389.58   -4504.5258     -22551.9   -13112.314    326.67754   -808.66769   -4773.8749    84.275289 
    6100    639.37282   -110.59508   0.57851796   -110.01656    1229.6637    4.3727944    4.3727944    4.3727944    1229.6637    16272.295   -21540.962    8957.6574    733.59203    440.35921    2587.9486    83.613649 
    6200    212.82339   -110.21281   0.19256707   -110.02024    7083.4691     4.377332     4.377332     4.377332    7083.4691    24943.916   -19822.924    16129.415    3839.2185   -13185.126     7990.296    83.874214 
    6300    675.49852   -110.62839   0.61120526   -110.01719   -2350.5517     4.376462     4.376462     4.376462   -2350.5517    2374.3241   -11525.188    2099.2086   -4680.7407    645.18453   -2888.1921    83.824216 
    6400    755.78424   -110.69929   0.68384946   -110.01544   -62.175877    4.3771962    4.3771962    4.3771962   -62.175877    8920.0493   -8779.0327   -327.54432    3198.9043    2465.5637     2885.959    83.866405 
    6500    765.73355   -110.70876   0.69285181   -110.01591   -10319.446    4.3769318    4.3769318    4.3769318   -10319.446   -3469.3212   -5798.2163   -21690.802   -6238.7489   -2720.8278   -424.90226    83.851208 
    6600    498.83298   -110.46917   0.45135457   -110.01782     5462.875    4.3763102    4.3763102    4.3763102     5462.875    17000.972   -26180.252    25567.905   -597.05119   -3702.3613   -10368.657    83.815493 
    6700    463.86228   -110.43594   0.41971234   -110.01622    4131.5048    4.3789715    4.3789715    4.3789715    4131.5048    21449.647   -32061.951    23006.818    -1619.789   -13701.912    2556.9627    83.968491 
    6800    463.74928   -110.43646   0.41961009   -110.01685    7758.4191    4.3756317    4.3756317    4.3756317    7758.4191    19335.522   -18312.497    22252.232    3036.1556   -10944.146    4236.4186    83.776513 
    6900    821.89088   -110.75589   0.74366414   -110.01223   -8109.8155    4.3824094    4.3824094    4.3824094   -8109.8155      7586.03   -18590.831   -13324.646    3248.1563    1232.1055   -2311.9441    84.166417 
    7000    823.51138   -110.75681    0.7451304   -110.01168    3156.8931    4.3722915    4.3722915    4.3722915    3156.8931    1315.9923   -3356.7987    11511.486    3020.1535    7934.8057    7396.6245    83.584803 
    7100     516.8344   -110.48488   0.46764263   -110.01723   -16465.783    4.3842778    4.3842778    4.3842778   -16465.783   -7739.4426   -27869.347   -13788.559   -602.84204   -5281.5449   -9814.9462    84.274114 
    7200    505.40503   -110.47304    0.4573011   -110.01574    14322.314    4.3690754    4.3690754    4.3690754    14322.314    26047.638   -16632.056    33551.361    -2552.897    1647.4705   -4910.7779    83.400494 
    7300    522.96169   -110.49112   0.47318673   -110.01793    2333.9729    4.3802266    4.3802266    4.3802266    2333.9729    28093.027   -19557.016   -1534.0916    -4557.327   -12994.716   -531.78925    84.040713 
    7400    529.46926   -110.49725   0.47907491   -110.01817   -2897.0331    4.3796478    4.3796478    4.3796478   -2897.0331    19880.429   -14865.892   -13705.636   -6389.1777    -4390.902   -15065.193    84.007401 
    7500    984.34362   -110.90107   0.89065479   -110.01042    5519.2979    4.3634506    4.3634506    4.3634506    5519.2979    14002.297    2855.7519    -300.1548   -3741.7058    676.07624    2248.1231    83.078798 
    7600    451.79085   -110.43053   0.40878985   -110.02174   -16156.119     4.386684     4.386684     4.386684   -16156.119    4776.2013   -37468.625   -15775.933    817.92004    34.192925    1217.7457    84.412944 
    7700    456.89536   -110.43372   0.41340852   -110.02032    3810.8567    4.3677646    4.3677646    4.3677646    3810.8567    27952.266   -18515.796    1996.1008    1074.9143   -11502.085    -10153.72    83.325448 
    7800    572.67695   -110.53704   0.51817014   -110.01887    10429.781    4.3798775    4.3798775    4.3798775    10429.781    32896.435   -18958.062    17350.971    5804.4345   -2496.0445    7804.4204     84.02062 
    7900    604.88347   -110.56717   0.54731128   -110.01986    -4304.634     4.377002     4.377002     4.377002    -4304.634    13677.613   -18716.563   -7874.9525    1511.7119   -10597.725    -9687.549    83.855245 
    8000    737.35562   -110.68523   0.66717486   -110.01806    2980.0058    4.3662368    4.3662368    4.3662368    2980.0058    2493.3591    -538.8806    6985.5389   -4111.7005    2251.9125   -9283.6701    83.238041 
    8100    762.05856   -110.70305    0.6895266   -110.01352   -21744.858    4.3902426    4.3902426    4.3902426   -21744.858   -3347.0563   -41331.573   -20555.944     2352.167    7355.9746    5505.9105    84.618547 
    8200     357.0414   -110.33788   0.32305856   -110.01482    7381.7192    4.3646956    4.3646956    4.3646956    7381.7192    43854.969   -24689.446     2979.635   -2080.6059   -6706.7077   -11128.156    83.149928 
    8300    488.18059   -110.46231   0.44171606    -110.0206    5820.4486    4.3794242    4.3794242    4.3794242    5820.4486    25945.721   -19885.939    11401.564    1036.4387   -12660.669    1300.9206    83.994535 
    8400    815.82811   -110.75402   0.73817842   -110.01585   -536.42449    4.3801817    4.3801817    4.3801817   -536.42449    6933.0439   -17933.105    9390.7877   -1259.7165   -6990.4147    1886.5046    84.038131 
    8500    564.31259   -110.52782   0.51060189   -110.01722    2907.2962    4.3671017    4.3671017    4.3671017    2907.2962    4813.6537   -10319.041    14227.276   -332.37964    -4176.044   -12885.008    83.287519 
    8600    597.66149   -110.55832   0.54077668   -110.01754   -6087.2888    4.3804764    4.3804764    4.3804764   -6087.2888    12857.277   -22554.499   -8564.6442   -4285.0286   -1715.6107    1776.5486    84.055092 
    8700     634.5468   -110.59133   0.57415128   -110.01718   -1138.6356    4.3732017    4.3732017    4.3732017   -1138.6356    23183.705   -29297.119    2697.5083    1470.4166     2660.233   -7784.0673    83.637016 
    8800    370.41134   -110.35608   0.33515597   -110.02093   -846.86784    4.3778663    4.3778663    4.3778663   -846.86784    22661.895   -25696.852    494.35318   -566.07134   -13509.318   -12537.521    83.904931 
    8900    817.73784   -110.75685   0.73990638   -110.01695    4657.7615     4.373286     4.373286     4.373286    4657.7615   -3392.5788   -11038.968    28404.831    3103.4613   -822.20326     4828.755    83.641854 
    9000    696.80321    -110.6495   0.63048219   -110.01902   -12724.922    4.3827036    4.3827036    4.3827036   -12724.922   -1169.8257   -33986.343   -3018.5976    2554.9564    5443.0544   -9297.3325    84.183368 
    9100    586.72191   -110.54624   0.53087831   -110.01536   -9018.2028    4.3734515    4.3734515    4.3734515   -9018.2028     10457.13   -27864.728   -9647.0104    2928.5613   -3519.4177    -1980.857    83.651346 
    9200    557.28265   -110.51986   0.50424105   -110.01562    2831.8312    4.3764742    4.3764742    4.3764742    2831.8312    23877.549   -23226.952    7844.8966   -3246.4103   -7758.3145    2147.8245    83.824912 
    9300    541.42065   -110.50701   0.48988878   -110.01712   -502.94172    4.3809897    4.3809897    4.3809897   -502.94172    7376.6807    -30213.85    21328.344    2321.3986    -7626.288    -10691.49    84.084643 
    9400     589.8062   -110.54887   0.53366905    -110.0152    13004.059    4.3718313    4.3718313    4.3718313    13004.059    6647.2928   -3654.0468     36018.93   -5125.3616   -14311.499   -2554.2737    83.558413 
    9500    757.38006   -110.70085    0.6852934   -110.01555   -12124.911    4.3817235    4.3817235    4.3817235   -12124.911   -15712.064   -14217.973   -6444.6944   -743.39169    2935.2503   -5652.8448    84.126905 
    9600    667.74117   -110.61875   0.60418624   -110.01456   -5405.7639    4.3715597    4.3715597    4.3715597   -5405.7639     3782.011   -19843.234   -156.06825   -1990.9625    4765.4932   -9994.9607    83.542842 
    9700    425.60248   -110.40358   0.38509407   -110.01848   -4976.7029    4.3827488    4.3827488    4.3827488   -4976.7029   -3388.7027    -24377.94    12836.534    1730.1819   -14682.267    7338.4539    84.185974 
    9800    535.54914   -110.50099   0.48457612   -110.01642    13382.044    4.3703143    4.3703143    4.3703143    13382.044    7272.0567   -8687.9867    41562.061    5999.5447   -3042.4861   -467.37229    83.471458 
    9900    571.41895   -110.53764   0.51703187   -110.02061    6912.9804    4.3779635    4.3779635    4.3779635    6912.9804    23909.767   -9365.0981    6194.2727     2051.433   -8131.6668   -4142.1832    83.910521 
   10000    696.89612    -110.6463   0.63056626   -110.01574   -13301.478    4.3829612    4.3829612    4.3829612   -13301.478   -15317.022   -9160.2935   -15427.118    7106.2271   -2311.2022    5558.3408    84.198213 
   10100    598.57924    -110.5534   0.54160708   -110.01179    12819.377    4.3629639    4.3629639    4.3629639    12819.377    20516.198   -2463.1086    20405.043   -25.189164    5981.6302   -11008.637    83.050998 
   10200     557.6904   -110.52157   0.50460999   -110.01696    -15465.07    4.3859671    4.3859671    4.3859671    -15465.07   -24782.331    -34288.84    12675.961   -275.58065   -1510.0762   -9218.6155    84.371566 
   10300    462.20247   -110.43396   0.41821051   -110.01575    13441.195    4.3720461    4.3720461    4.3720461    13441.195    8815.5928   -11230.382    42738.373    354.20055     -11830.4    1396.2821    83.570731 
   10400    797.14944   -110.73586   0.72127757   -110.01458   -4816.2817    4.3768065    4.3768065    4.3768065   -4816.2817     13438.35   -19411.468    -8475.727   -2234.8846   -1743.0711   -12045.419    83.844007 
   10500    652.60952   -110.60525   0.59049481   -110.01475   -3172.9831    4.3767954    4.3767954    4.3767954   -3172.9831    13955.948   -17064.066   -6410.8313   -4700.5854    -4738.167    1734.6159    83.843373 
   10600    540.48189   -110.50524   0.48903937    -110.0162    220.47958    4.3724272    4.3724272    4.3724272    220.47958    5452.7689   -21274.005    16482.674    4012.9885   -1778.6874    687.93359    83.592586 
   10700    587.90109   -110.54824   0.53194526    -110.0163   -10120.158     4.380988     4.380988     4.380988   -10120.158   -6719.2298   -30405.987    6764.7436   -2203.6426    5393.2648   -10608.059    84.084546 
   10800    529.07225   -110.49607   0.47871569   -110.01736    17800.766     4.364792     4.364792     4.364792    17800.766    26420.189   -3250.4829    30232.591   -3342.5772   -13355.498    4825.7715    83.155437 
   10900    626.97495    -110.5892   0.56730011    -110.0219   -6085.1806    4.3841996    4.3841996    4.3841996   -6085.1806     18784.31   -15297.408   -21742.443   -309.45227   -4961.5143    -5145.599    84.269601 
   11000    710.79452    -110.6588   0.64314182   -110.01566    4969.8234     4.373106     4.373106     4.373106    4969.8234    26562.174   -7852.7727   -3799.9308   -4604.6118    3083.7236   -3502.7244    83.631524 
   11100    621.80211    -110.5785   0.56261961   -110.01588    49.610266    4.3684165    4.3684165    4.3684165    49.610266    3097.5768   -1848.9812   -1099.7648    1057.4045   -176.79615    4241.5501    83.362766 
   11200    456.36099   -110.42842   0.41292502    -110.0155    -20658.79    4.3921121    4.3921121    4.3921121    -20658.79    -8828.996   -39470.816   -13676.557    5403.6473   -4743.3872   -3451.8187    84.726692 
   11300    620.31991   -110.57208   0.56127849    -110.0108    22638.407    4.3611492    4.3611492    4.3611492    22638.407    48521.189    3700.2747    15693.758    4437.8633   -1752.1523    2222.7123     82.94741 
   11400    511.25481   -110.48185    0.4625941   -110.01926   -1198.6035    4.3803916    4.3803916    4.3803916   -1198.6035    21115.612   -16593.097   -8118.3262   -848.90297   -18031.943    1158.3979    84.050213 
   11500    713.36028   -110.65927   0.64546337    -110.0138   -5311.2694    4.3793474    4.3793474    4.3793474   -5311.2694    12202.433   -20366.838   -7769.4032    1355.6926   -3899.0736   -5494.9062     83.99012 
   11600    818.26667   -110.75152   0.74038488   -110.01113     395.5082    4.3677388    4.3677388    4.3677388     395.5082    5951.6921   -12442.377     7677.209    -7446.653    2778.4336    2933.6311    83.323974 
   11700    475.72236    -110.4459   0.43044359   -110.01545   -25341.965    4.3868328    4.3868328    4.3868328   -25341.965   -10532.254   -41898.484   -23595.156    359.86749    -4244.711   -4043.2451    84.421538 
   11800    609.62181   -110.56311   0.55159862   -110.01152     9442.674     4.369126     4.369126     4.369126     9442.674    44120.766   -19925.729     4132.984     535.7007    737.33755   -5545.7832    83.403393 
   11900    701.36396   -110.64748   0.63460885   -110.01288   -5565.3129    4.3805941    4.3805941    4.3805941   -5565.3129    9387.9643   -21641.992   -4441.9114    2561.4539   -9341.8335    7053.8464     84.06187 
   12000    435.02227   -110.41033   0.39361729   -110.01672    3401.9898    4.3735668    4.3735668    4.3735668    3401.9898   -6590.0432   -8745.8112    25541.824    2985.1433   -15848.729   -3600.2087    83.657961 
   12100      763.552   -110.70603    0.6908779   -110.01515   -781.25572     4.373035     4.373035     4.373035   -781.25572   -2475.0792    -11962.05    12093.362    1244.2302    2594.1541    1872.6611    83.627454 
   12200    523.73087   -110.48938    0.4738827   -110.01549   -14745.164    4.3843772    4.3843772    4.3843772   -14745.164   -15226.785   -19548.463   -9460.2451   -1385.5219    884.73388    6827.5763    84.279843 
   12300    523.34907   -110.49011   0.47353724   -110.01657    5090.4004    4.3643181    4.3643181    4.3643181    5090.4004     1433.682   -2904.1081    16741.627    1221.5517    -11183.61   -10425.744    83.128356 
   12400    664.85374   -110.62126   0.60157364   -110.01969    5725.1406    4.3787997    4.3787997    4.3787997    5725.1406     12286.22   -15439.965    20329.167   -5942.6249    -458.8134   -1735.6302    83.958608 
   12500    502.40808   -110.47458   0.45458939   -110.01999    4343.4019    4.3771526    4.3771526    4.3771526    4343.4019   -10718.877   -14019.386    37768.468    726.93262    -13692.96    706.75091    83.863902 
   12600     563.8078   -110.52701   0.51014515   -110.01687    4885.7659    4.3701976    4.3701976    4.3701976    4885.7659    17851.204   -13219.946     10026.04    136.49448   -6504.9951   -5344.4215    83.464773 
   12700    815.48382   -110.75076    0.7378669    -110.0129   -17797.974    4.3820741    4.3820741    4.3820741   -17797.974   -8031.5126   -35920.925   -9441.4839   -2825.9986    3959.3057    10094.644    84.147097 
   12800     478.2033    -110.4483   0.43268839   -110.01561    2432.7255    4.3703064    4.3703064    4.3703064    2432.7255   -2035.4466   -10570.402    19904.025    6403.8658    -2695.596    -119.8392    83.471009 
   12900    654.62045   -110.60948   0.59231434   -110.01717    1319.8746     4.376507     4.376507     4.376507    1319.8746    3171.8104   -15567.124    16354.937   -1342.5871    -10436.97   -3277.0748      83.8268 
   13000    666.13175   -110.61868   0.60273001   -110.01595    6396.6964    4.3765485    4.3765485    4.3765485    6396.6964    13263.252   -11856.684    17783.521    383.24375    -2099.567    3058.3252    83.829185 
   13100    480.76813   -110.45166   0.43500911   -110.01665    4931.2895    4.3714758    4.3714758    4.3714758    4931.2895    26830.631   -8600.4809   -3436.2818    467.29953   -12278.092   -4848.6541    83.538032 
   13200    673.70702   -110.62474   0.60958427   -110.01515   -12433.525    4.3789365    4.3789365    4.3789365   -12433.525   -1338.2246   -25773.152   -10189.199   -1652.4905    1185.0631   -1377.6606    83.966477 
   13300    649.61699   -110.60245   0.58778711   -110.01467   -543.05116    4.3706947    4.3706947    4.3706947   -543.05116    9182.5197   -14411.702    3600.0292   -3981.3623    6409.7823    3729.9716     83.49326 
   13400    569.80048    -110.5338   0.51556745   -110.01824   -3086.9577    4.3789159    4.3789159    4.3789159   -3086.9577   -962.25488   -8256.5775   -42.040676    9618.5593   -12571.963    514.99192    83.965292 
   13500    524.31763   -110.49117   0.47441361   -110.01676    9649.6529    4.3749184    4.3749184    4.3749184    9649.6529    25552.256   -4002.8618    7399.5647   -1722.1133   -7391.7136    3123.4895    83.735547 
   13600    559.89178   -110.52263   0.50660185   -110.01603    10070.867    4.3684572    4.3684572    4.3684572    10070.867    19973.792   -4344.8015     14583.61    2118.1335   -5804.8875    4161.4108    83.365097 
   13700    514.32447   -110.48178   0.46537159    -110.0164   -13715.917    4.3853403    4.3853403    4.3853403   -13715.917   -12908.459   -24206.459    -4032.834    981.37171   -9338.2019   -5285.9938    84.335396 
   13800    828.01127    -110.7613     0.749202    -110.0121   -880.05756    4.3654641    4.3654641    4.3654641   -880.05756    13139.087   -13293.173   -2486.0867   -6024.8069    2790.1289    2811.4525    83.193859 
   13900     689.3355   -110.64297   0.62372525   -110.01924   -7080.1375    4.3782627    4.3782627    4.3782627   -7080.1375    2625.6017    -25397.22     1531.206    6152.1291    2566.9585   -3902.5389    83.927725 
   14000    523.42811   -110.49158   0.47360875   -110.01797   -1577.0858    4.3785078    4.3785078    4.3785078   -1577.0858    18806.821   -14035.031   -9503.0471    2205.9844    -16921.87   -4618.4079    83.941821 
   14100    546.55847   -110.50802   0.49453759   -110.01348    13415.263    4.3665283    4.3665283    4.3665283    13415.263    19581.021   -6481.4226    27146.191    2229.1739   -1801.4295    6881.4263    83.254715 
   14200    484.36664   -110.45158   0.43826511   -110.01331   -13587.072    4.3868369    4.3868369    4.3868369   -13587.072   -17231.333   -31126.588    7596.7057    12672.757   -10177.251   -145.67519    84.421774 
   14300    628.72197   -110.58004   0.56888085   -110.01116    10159.732    4.3643905    4.3643905    4.3643905    10159.732    16303.408     8867.124    5308.6645     2279.578   -1025.2234    3915.2243    83.132493 
   14400    798.55408   -110.73566   0.72254851   -110.01311   -14491.112    4.3823032    4.3823032    4.3823032   -14491.112   -14795.423   -20167.666   -8510.2476   -162.04474    4546.3323    8285.2687    84.160299 
   14500    588.29339    -110.5469   0.53230023    -110.0146    2100.6191    4.3743322    4.3743322    4.3743322    2100.6191    16666.123   -816.17102   -9548.0943    2086.5927   -5054.4505   -8027.2638    83.701895 
   14600    485.82806   -110.45502   0.43958744   -110.01543    11749.189     4.366791     4.366791     4.366791    11749.189    10596.503   -937.95593     25589.02   -5653.9943    -11749.81    1616.4473    83.269739 
   14700    451.17106   -110.42504   0.40822905   -110.01681   -7058.4143    4.3841387    4.3841387    4.3841387   -7058.4143   -3319.7003   -34425.286    16569.743    1688.8086   -3635.2166    4571.9747    84.266094 
   14800    572.83268   -110.53183   0.51831105   -110.01352    9124.1332    4.3676756    4.3676756    4.3676756    9124.1332    6199.3927   -8760.4544    29933.461    1674.7765   -9100.2293   -2352.6949     83.32036 
   14900    720.11149   -110.66688   0.65157201   -110.01531   -7267.2306    4.3780585    4.3780585    4.3780585   -7267.2306   -4744.6044   -10614.896    -6442.191    517.66795   -92.404792    10646.394    83.915984 
   15000    839.11911   -110.77354    0.7592526   -110.01429   -6575.3331    4.3750152    4.3750152    4.3750152   -6575.3331    -9814.953   -18077.499    8166.4532    4042.4595     7890.798   -156.36618    83.741108 
   15100    525.82935   -110.49211   0.47578144   -110.01633    9821.7158    4.3720956    4.3720956    4.3720956    9821.7158   -1851.2328    5219.2301     26097.15    3712.7824   -10468.297    -5493.452    83.573569 
   15200    451.19389   -110.42615   0.40824971   -110.01791   -2913.4828    4.3753368    4.3753368    4.3753368   -2913.4828   -4782.0279   -21170.915    17212.495   -3251.2021   -6415.4117    2702.3042    83.759575 
   15300    557.81137   -110.52253   0.50471945   -110.01781    -217.8325    4.3719478    4.3719478    4.3719478    -217.8325    11286.366   -19760.924    7821.0601    5680.3797   -4089.1752   -1118.3918    83.565092 
   15400    607.02529    -110.5674   0.54924924   -110.01815   -2529.9763    4.3781484    4.3781484    4.3781484   -2529.9763    12833.323    -11756.85   -8666.4018   -2491.2378   -1026.8395    961.07963    83.921151 
   15500    724.65278   -110.67258   0.65568106    -110.0169   -1319.5858    4.3696194    4.3696194    4.3696194   -1319.5858     1907.985   -8256.1797    2389.4371    50.512197     601.2589    17245.784    83.431647 
   15600    648.31363   -110.60459   0.58660779   -110.01798    4944.6125    4.3763069    4.3763069    4.3763069    4944.6125    3085.9601   -10105.894    21853.771    9301.4245   -1316.2503    2081.5669      83.8153 
   15700    558.82436   -110.52227   0.50563602   -110.01663   -4438.0247    4.3764923    4.3764923    4.3764923   -4438.0247    252.89764   -8723.5218   -4843.4498   -2501.9601   -15994.084    4755.1939    83.825955 
   15800     384.2641   -110.36515   0.34769023   -110.01746    6693.0808     4.369091     4.369091     4.369091    6693.0808    31235.642    -21469.52    10313.121    5529.6571   -425.21411    7745.3515    83.401386 
   15900    676.10608   -110.62577   0.61175499   -110.01402   -8588.5394    4.3811069    4.3811069    4.3811069   -8588.5394     13283.24   -26860.359   -12188.499    1707.6484      1067.88    -2980.684    84.091394 
   16000    708.28502   -110.65535   0.64087117   -110.01448    109.06888     4.369019     4.369019     4.369019    109.06888    2455.8194   -8186.3337    6057.7209   -3145.7632   -2461.0276    5821.5198    83.397266 
   16100      713.589    -110.6626   0.64567032   -110.01693   -4379.8011    4.3746858    4.3746858    4.3746858   -4379.8011   -796.68324   -15137.246    2794.5259    7434.8445     902.1665    3136.8343    83.722195 
   16200     604.5278   -110.56353   0.54698946   -110.01654    951.29124    4.3748207    4.3748207    4.3748207    951.29124    15369.738   -15986.313    3470.4484    6191.0005   -8287.6209    363.86167    83.729941 
   16300    302.97671   -110.29391   0.27413969   -110.01977    13824.728    4.3698235    4.3698235    4.3698235    13824.728    43452.603   -4559.6954    2581.2773    3545.0405   -5939.0582    9218.2593    83.443341 
   16400    538.05459   -110.50327    0.4868431   -110.01643   -3871.2321    4.3811195    4.3811195    4.3811195   -3871.2321    9468.1514   -22232.888    1151.0403    11602.504   -1646.2597   -2036.5685    84.092118 
   16500    816.63302   -110.75164   0.73890672   -110.01273    1090.6281    4.3683059    4.3683059    4.3683059    1090.6281    6957.4778     170.6125   -3856.2059    799.20495    6957.3715    3107.8587    83.356433 
   16600    710.27311   -110.65927   0.64267004    -110.0166   -4410.2273     4.377429     4.377429     4.377429   -4410.2273     10348.63    -11163.66   -12415.652    -3451.447   -5244.3998    8702.6101    83.879792 
   16700    663.89663   -110.61613   0.60070762   -110.01542    1017.6491    4.3767476    4.3767476    4.3767476    1017.6491    29020.383   -20914.627   -5052.8088    316.07787    3484.5931   -7207.4522    83.840623 
   16800    486.88077   -110.45441   0.44053996   -110.01387    6590.9581     4.368834     4.368834     4.368834    6590.9581    39116.236   -18014.005   -1329.3564   -519.81035   -9843.9694    8188.5874    83.386672 
   16900    518.21906   -110.48508    0.4688955   -110.01618   -3150.8278    4.3790618    4.3790618    4.3790618   -3150.8278    4513.2532   -19455.059    5489.3225    5466.2811    -6454.475    4601.6522    83.973689 
   17000     681.5014   -110.63164   0.61663679     -110.015   -678.47215    4.3722024    4.3722024    4.3722024   -678.47215   -8172.8002   -7149.6813    13287.065    13510.392    200.54668    1808.4029    83.579694 
   17100    577.91662   -110.54105   0.52291111   -110.01814    5709.1435    4.3708615    4.3708615    4.3708615    5709.1435    23073.778   -1984.3554   -3961.9918    -5401.385    -593.5336    12409.731    83.502819 
   17200    660.47856   -110.61554   0.59761488   -110.01792   -2546.0775    4.3786219    4.3786219    4.3786219   -2546.0775    15089.872   -11925.252   -10802.852    4452.3778   -1550.5151    508.21127    83.948381 
   17300     535.8536   -110.50361    0.4848516   -110.01876      2557.23    4.3678861    4.3678861    4.3678861      2557.23    21499.798   -15059.003     1230.895    2304.0106   -1669.5457    2897.8966    83.332407 
   17400    650.71457   -110.60979   0.58878022   -110.02101    -3941.026    4.3728925    4.3728925    4.3728925    -3941.026    17844.075   -20136.576   -9530.5769   -337.47417    128.03357     3857.885    83.619276 
   17500    522.08929   -110.49261   0.47239736   -110.02021   -3720.3967    4.3779641    4.3779641    4.3779641   -3720.3967   -1562.3115   -13587.604    3988.7256    8727.2544    727.48589   -2431.5421    83.910553 
   17600    530.29384   -110.49782   0.47982101     -110.018    9079.7964    4.3671045    4.3671045    4.3671045    9079.7964    31873.552    -9211.641     4577.478    4605.1222    8575.4477    3894.1607    83.287676 
   17700    663.44128   -110.61698   0.60029561   -110.01668    1252.8205    4.3801987    4.3801987    4.3801987    1252.8205    24360.162   -12290.998   -8310.7029   -8359.9286    3510.4185    6577.9111    84.039111 
   17800    686.35957   -110.63693   0.62103256    -110.0159   -1358.2961    4.3703015    4.3703015    4.3703015   -1358.2961   -3860.8806   -7090.8525     6876.845    8360.5952   -5545.1817   -2388.4853    83.470728 
   17900    532.36112   -110.49894   0.48169153   -110.01725   -2807.3582    4.3750742    4.3750742    4.3750742   -2807.3582    19113.927    -21058.48   -6477.5215    2833.9959   -599.27532    6672.9037    83.744494 
   18000    603.89836   -110.56013   0.54641993   -110.01371   -3198.1943    4.3785321    4.3785321    4.3785321   -3198.1943    25370.685   -19263.353   -15701.915    7213.2893   -8641.0699    2613.4647    83.943217 
   18100     384.7465   -110.36512   0.34812672     -110.017    16308.503    4.3648097    4.3648097    4.3648097    16308.503    35623.136    3103.8234     10198.55    14830.587    2587.4277   -4580.8419    83.156448 
   18200    739.82382   -110.68694   0.66940814   -110.01753   -12482.397    4.3811144    4.3811144    4.3811144   -12482.397   -1379.2401   -21756.061   -14311.888    1105.3007    2207.3129    10679.327    84.091828 
   18300    759.53181   -110.70182   0.68724034   -110.01458    6425.1321    4.3693459    4.3693459    4.3693459    6425.1321    9101.4837    915.05145     9258.861   -2809.3583   -2430.5887   -4188.6155    83.415988 
   18400    465.54529   -110.44072   0.42123516   -110.01948   -5069.6719    4.3737161    4.3737161    4.3737161   -5069.6719    22237.537   -32629.976   -4816.5768     6886.582   -4296.2259    5903.5534    83.666534 
   18500    534.26557   -110.50096   0.48341471   -110.01754   -1094.1275    4.3749621    4.3749621    4.3749621   -1094.1275    31190.346   -26663.974   -7808.7541   -4152.4126   -3300.5412    7921.3507    83.738056 
   18600    678.58227   -110.63026    0.6139955   -110.01627   -5490.0766    4.3736124    4.3736124    4.3736124   -5490.0766    6062.4967   -9977.6104   -12555.116    8911.9668    1238.9673   -2376.9314     83.66058 
   18700    542.50271   -110.50985   0.49086785   -110.01899   -5601.7756    4.3742598    4.3742598    4.3742598   -5601.7756   -258.78233   -9335.2716   -7211.2729    10647.507     564.8355    11502.864     83.69774 
   18800     838.6115     -110.773   0.75879331   -110.01421    4356.9581    4.3679942    4.3679942    4.3679942    4356.9581     14057.69    2516.2277   -3503.0432   -3993.1483     4766.656   -4721.8367     83.33859 
   18900    401.10104   -110.38174   0.36292465   -110.01881   -2211.0143     4.381364     4.381364     4.381364   -2211.0143    25510.156   -20076.881   -12066.318    4951.6104   -1973.0486    -4383.636    84.106197 
   19000    518.14655   -110.48719   0.46882989   -110.01836     2866.834    4.3636039    4.3636039    4.3636039     2866.834    22316.963   -21578.885     7862.424    10200.034   -2935.5064    6513.1848    83.087549 
   19100    741.09049   -110.68878   0.67055425   -110.01823   -8957.6082    4.3764079    4.3764079    4.3764079   -8957.6082    349.44062   -14202.601   -13019.665   -2927.2644    4037.0968   -4678.4953    83.821103 
   19200      652.116   -110.60821   0.59004826   -110.01816    -15279.99    4.3786801    4.3786801    4.3786801    -15279.99   -6516.7459   -23034.168   -16289.055    11167.446    1395.6918    1122.4501    83.951728 
   19300    527.45543   -110.49462   0.47725276   -110.01737    13241.606    4.3619769    4.3619769    4.3619769    13241.606    32158.599   -275.20296    7841.4208    491.50808    3087.5788    8680.5551    82.994645 
   19400    631.41763    -110.5881   0.57131994   -110.01678   -5358.5086    4.3830507    4.3830507    4.3830507   -5358.5086    22652.741   -16645.215   -22083.051   -8252.7005    1325.7259   -2198.4293    84.203373 
   19500    415.64069   -110.39249   0.37608043   -110.01641    3417.9068    4.3716552    4.3716552    4.3716552    3417.9068    17088.269    713.35037   -7547.8992    5450.7854   -7360.5601    2794.5156    83.548318 
   19600    706.28384   -110.65357   0.63906046   -110.01451   -2395.2313    4.3666271    4.3666271    4.3666271   -2395.2313   -3640.3566   -7864.6376    4319.3002    8670.5514   -3431.4982    5862.6917    83.260364 
   19700    748.78801   -110.69229   0.67751912   -110.01477   -13869.061    4.3844265    4.3844265    4.3844265   -13869.061    -4521.525   -12966.819   -24118.838    2417.4063   -1304.3571   -5295.1316     84.28269 
   19800    534.01687   -110.50082   0.48318968   -110.01763   -610.23383    4.3677735    4.3677735    4.3677735   -610.23383    15466.515   -13244.878    -4052.338    10618.764    4018.9618    8666.1057    83.325959 
   19900    535.38013   -110.50141    0.4844232   -110.01699    8768.5038    4.3710141    4.3710141    4.3710141    8768.5038     27940.78   -4271.9345    2636.6661   -946.04562    1621.2051    2379.5421    83.511566 
   20000     583.9665   -110.54272   0.52838516   -110.01433   -4811.8002    4.3815666    4.3815666    4.3815666   -4811.8002    8873.0547   -397.72279   -22910.733   -9383.3491    8890.1215   -1649.6856    84.117869 
   20100    431.72522   -110.40617   0.39063405   -110.01553    9191.9493    4.3623324    4.3623324    4.3623324    9191.9493    11233.911    12212.702    4129.2355    13068.299   -1576.7321    10382.097    83.014939 
   20200    767.91382   -110.71197   0.69482456   -110.01714   -9655.6194    4.3779823    4.3779823    4.3779823   -9655.6194   -9878.1924   -5931.9464   -13156.719    4373.0089    1952.1774   -5449.6593    83.911598 
   20300    720.92344   -110.66852   0.65230668   -110.01621   -5930.2756    4.3757339    4.3757339    4.3757339   -5930.2756    15409.191    -7919.036   -25280.982    4655.6927    919.09916   -1068.7768    83.782381 
   20400    446.84594   -110.42239    0.4043156   -110.01807    2747.3404    4.3662747    4.3662747    4.3662747    2747.3404    17264.778   -5572.5025    -3450.254    7156.2409   -2379.1505    8391.3473    83.240209 
   20500    723.52582   -110.67109   0.65466136   -110.01642   -7370.5339    4.3785618    4.3785618    4.3785618   -7370.5339   -3672.2678    2383.1473   -20822.481   -2715.2049    5118.0087   -5561.9572    83.944924 
   20600    437.96681   -110.41343   0.39628157   -110.01714    6315.8548    4.3711561    4.3711561    4.3711561    6315.8548     10991.64     24944.73   -16988.805      -2295.6    2002.6698    10185.927    83.519703 
   20700    594.58239   -110.55741   0.53799064   -110.01942   -12865.022    4.3703555    4.3703555    4.3703555   -12865.022   -12577.618   -15389.915   -10627.534    19760.045   -1046.5758    8595.8152    83.473824 
   20800    723.89204     -110.672   0.65499273   -110.01701    1721.2691    4.3770408    4.3770408    4.3770408    1721.2691    10185.096     -621.818   -4399.4703    571.17998    514.72786    -4584.225    83.857477 
   20900    617.06916   -110.57713   0.55833714   -110.01879   -1201.9806    4.3712013    4.3712013    4.3712013   -1201.9806    11703.024   -831.03998   -14477.926    158.75396   -2524.7068    9005.9544    83.522296 
   21000     400.9935   -110.38372   0.36282734   -110.02089    3468.9579     4.373606     4.373606     4.373606    3468.9579    6543.0866    5277.8804   -1414.0934    5129.8253   -666.73033   -2968.2788    83.660213 
   21100    655.17891   -110.60654   0.59281965   -110.01372     4431.052    4.3744998    4.3744998    4.3744998     4431.052    4139.7856     28780.54    -19627.17   -8634.9553    2121.2436    422.81981    83.711517 
   21200    547.97941   -110.51196   0.49582329   -110.01614   -12046.563    4.3722488    4.3722488    4.3722488   -12046.563    858.61658   -15353.028   -21645.277    11673.598   -422.11965    9054.5794    83.582354 
   21300    651.66016   -110.60784   0.58963581   -110.01821   -10587.576    4.3737264    4.3737264    4.3737264   -10587.576   -6970.2853   -7595.1815    -17197.26    10830.305    3637.6598    3804.7609    83.667125 
   21400    831.37773   -110.76717   0.75224804   -110.01492    5410.0021     4.372556     4.372556     4.372556    5410.0021    7478.8076    15121.639   -6370.4406    -3180.402   -100.61262    3230.9217    83.599976 
   21500    456.97578   -110.43307   0.41348129   -110.01959    1456.0973    4.3729456    4.3729456    4.3729456    1456.0973    7733.5404    10030.184   -13395.432    1530.0039   -1694.2095    5884.4217     83.62232 
   21600    507.41136   -110.47913   0.45911646   -110.02001    8146.0107    4.3726375    4.3726375    4.3726375    8146.0107    1884.5789    17954.962    4598.4917    8411.9211   -3683.7495   -3528.7237     83.60465 
   21700    722.09459    -110.6682   0.65336636   -110.01484    373.58178    4.3736072    4.3736072    4.3736072    373.58178    13642.874   -1681.5339   -10840.595   -3969.3828    1762.6153   -2062.5811    83.660281 
   21800     494.6392   -110.46623   0.44755994   -110.01867   -12659.076    4.3737147    4.3737147    4.3737147   -12659.076   -13271.399   -10744.503   -13961.328    17693.968   -2705.5279    6356.6565     83.66645 
   21900    664.80785   -110.61987   0.60153212   -110.01834   -743.32158    4.3731115    4.3731115    4.3731115   -743.32158   -4078.0266    14465.008   -12616.946    6408.0392    5995.2907    -1551.981    83.631841 
   22000    735.19779    -110.6813   0.66522241   -110.01608    6108.4922    4.3740829    4.3740829    4.3740829    6108.4922    6695.7786    18943.414   -7313.7156   -9616.9718    5158.3938    5053.9344    83.687581 
   22100    434.48714   -110.41246    0.3931331   -110.01933    2825.5484    4.3728165    4.3728165    4.3728165    2825.5484    13228.831    2346.2409    -7098.427    9123.8839    1449.5483    6096.9375    83.614916 
   22200    594.49797    -110.5545   0.53791426   -110.01659    788.86056    4.3716436    4.3716436    4.3716436    788.86056    10484.462   -5060.4445    -3057.436    5275.1182    5509.8568   -4807.7184    83.547653 
   22300    639.69835   -110.59543   0.57881251   -110.01661   -3851.8048    4.3738468    4.3738468    4.3738468   -3851.8048    1175.2562   -133.10115    -12597.57    4356.8766   -3025.7672      6323.05    83.674035 
   22400    508.82742   -110.48071   0.46039774   -110.02031   -5520.8033    4.3723158    4.3723158    4.3723158   -5520.8033    -11616.17    9981.9839   -14928.223    13504.157   -827.85602    1258.0467    83.586199 
   22500    739.25522   -110.68597   0.66889366   -110.01708    15.990768    4.3747382    4.3747382    4.3747382    15.990768   -1853.6355    14827.275   -12925.668   -2649.0362   -1582.0639    2089.2729    83.725202 
   22600    697.77285   -110.64703   0.63135954   -110.01567    629.39885    4.3733891    4.3733891    4.3733891    629.39885     23208.48    -7020.159   -14300.125   -3520.0147   -576.94611    10250.647    83.647767 
   22700    413.63747   -110.39304   0.37426787   -110.01877    1098.0924    4.3694623    4.3694623    4.3694623    1098.0924    3632.5273    4008.9771   -4347.2271    22189.947    505.67171   -1748.6808    83.422653 
   22800    632.59542   -110.58917   0.57238563   -110.01678   -8355.9876    4.3781298    4.3781298    4.3781298   -8355.9876   -3700.2478   -1451.8852    -19915.83   -548.65981    1194.5811    2808.6434    83.920082 
   22900     613.5414   -110.57176   0.55514515   -110.01661    6674.8954    4.3682789    4.3682789    4.3682789    6674.8954   -1323.5502    16964.946    4383.2907    5105.1116   -259.33027   -693.48384    83.354887 
   23000    522.43556    -110.4939   0.47271067   -110.02119   -1699.5233     4.372471     4.372471     4.372471   -1699.5233    -4348.836    7995.3298   -8745.0636    9607.2279   -925.60141   -3622.7598    83.595096 
   23100    765.84018   -110.70896   0.69294829   -110.01601    511.58156    4.3772395    4.3772395    4.3772395    511.58156    20551.362   -12686.386   -6330.2311   -5022.8339   -2668.5557    1344.5958    83.868895 
   23200    594.54854   -110.55563   0.53796001   -110.01767    8114.8614    4.3666993    4.3666993    4.3666993    8114.8614    7763.6593    18610.128    -2029.203     16690.94     2374.103    1423.8617    83.264495 
   23300    362.16307   -110.34799   0.32769275    -110.0203   -10301.124    4.3777714    4.3777714    4.3777714   -10301.124   -10937.143   -1675.1669   -18291.063    13515.135    816.18632    245.67714    83.899473 
   23400    727.52916   -110.67276   0.65828367   -110.01448   -3252.9238    4.3741102    4.3741102    4.3741102   -3252.9238   -4099.6163     17093.14   -22752.295   -8584.3551    4831.3264   -1337.3684    83.689151 
   23500    587.38637   -110.54955   0.53147953   -110.01807    4119.0011    4.3690518    4.3690518    4.3690518    4119.0011    7652.1751      2032.12    2672.7084    8914.3874    1039.7955    1049.8872    83.399144 
   23600    659.81638   -110.61643   0.59701572   -110.01941   -9177.3746    4.3772776    4.3772776    4.3772776   -9177.3746    3432.6014   -14714.015    -16250.71     8317.223    2006.1334    -7238.744    83.871087 
   23700    734.94083   -110.68064    0.6649899   -110.01565    11543.837    4.3728468    4.3728468    4.3728468    11543.837    5434.3437    33488.059   -4290.8913    509.16607   -2181.5927    -1809.598    83.616655 
   23800    407.09644   -110.38865   0.36834941   -110.02031    366.55903    4.3717778    4.3717778    4.3717778    366.55903   -7707.9867    15298.022   -6490.3584    19844.289   -1294.5519    2284.7034    83.555344 
   23900    528.05817   -110.49628   0.47779813   -110.01848   -13265.144    4.3769863    4.3769863    4.3769863   -13265.144   -14631.885    -524.5637   -24638.983   -2716.8431    1447.5702   -2661.4109    83.854345 
   24000    830.69892   -110.76724   0.75163384    -110.0156    216.13849    4.3707765    4.3707765    4.3707765    216.13849    1741.3056    12542.289   -13635.179   -1384.9724   -3191.7542    4126.6786    83.497946 
   24100    545.68158   -110.51544   0.49374416   -110.02169    1978.1786    4.3719889    4.3719889    4.3719889    1978.1786    -14557.93    24891.861    -4399.395     20390.31    4555.8864   -1756.0322    83.567451 
   24200    566.35336   -110.53249   0.51244842   -110.02004    9413.1283    4.3785139    4.3785139    4.3785139    9413.1283    3189.6418    37384.068   -12334.325    4619.9944   -281.86478   -4759.3101    83.942169 
   24300    719.32534   -110.66696   0.65086069    -110.0161    5519.7491    4.3685444    4.3685444    4.3685444    5519.7491    10471.107    4497.1114    1591.0291    5922.0675     3402.578    1595.7569    83.370087 
   24400    294.57339   -110.28827   0.26653619   -110.02173   -6978.5856    4.3762399    4.3762399    4.3762399   -6978.5856    3438.9476   -21402.819   -2971.8853    13019.797    2191.5495    -2311.036    83.811452 
   24500    794.10514   -110.73303   0.71852302    -110.0145   -6733.5072    4.3763589    4.3763589    4.3763589   -6733.5072   -8695.9625    7601.0599   -19105.619   -11929.192   -1774.9678    4475.5482    83.818291 
   24600    611.54395    -110.5687   0.55333782   -110.01536    6775.3933    4.3718807    4.3718807    4.3718807    6775.3933   -4546.0636    26722.593    -1850.349    11661.082   -1398.6313    4716.3533    83.561249 
   24700    554.07862   -110.51935   0.50134198   -110.01801   -6282.4517    4.3787209    4.3787209    4.3787209   -6282.4517   -6992.8776    4486.1666   -16340.644    17251.072   -5587.3108    444.95385    83.954078 
   24800     735.6993   -110.67807   0.66567619    -110.0124    8681.0076    4.3702541    4.3702541    4.3702541    8681.0076    35663.742     3290.684   -12911.403    1460.8697    -4669.734   -2598.6659    83.468013 
   24900    387.64871   -110.36843    0.3507527   -110.01768   -10664.489    4.3788577    4.3788577    4.3788577   -10664.489    16011.933   -28433.637   -19571.763    11173.654    2149.8489   -2052.2058    83.961945 
   25000    598.15539   -110.55563   0.54122357    -110.0144   -13391.488    4.3741438    4.3741438    4.3741438   -13391.488   -6861.4564   -21843.576   -11469.431     4396.341   -1067.0016   -4875.0233    83.691081 
   25100    821.06532   -110.75556   0.74291715   -110.01264    8039.9327    4.3705246    4.3705246    4.3705246    8039.9327    10884.846    21650.462   -8415.5088   -2271.0662    4693.7385   -3928.9816    83.483514 
   25200     572.4755   -110.53669   0.51798786   -110.01871   -13845.893    4.3815107    4.3815107    4.3815107   -13845.893   -4528.0372    -23275.36   -13734.281    20941.325    882.05137   -747.27043     84.11465 
   25300    519.08673   -110.48745   0.46968058   -110.01777    16912.794    4.3642393    4.3642393    4.3642393    16912.794    38179.155    18368.478   -5809.2514     8087.621   -1591.2199   -4020.8644    83.123851 
   25400    660.26065   -110.61408   0.59741771   -110.01666   -7168.7749    4.3788365    4.3788365    4.3788365   -7168.7749    15510.855   -19499.995   -17517.185   -1749.2811   -2493.2144    3438.5822    83.960726 
   25500    470.06573   -110.44419   0.42532535   -110.01887   -23146.832    4.3767161    4.3767161    4.3767161   -23146.832   -17943.549   -31343.172   -20153.776    12986.919    1636.0143   -2903.6487    83.838812 
   25600    690.12638   -110.64251   0.62444085   -110.01806    6381.8782    4.3669688    4.3669688    4.3669688    6381.8782    18706.222   -3459.8771    3899.2893    -4614.593     809.3161   -4756.3754    83.279912 
   25700    722.35927   -110.66845   0.65360585   -110.01485   -5960.6922     4.384665     4.384665     4.384665   -5960.6922    14630.435   -12080.812     -20431.7     4780.332   -1493.4912    4524.2381    84.296442 
   25800    515.05659    -110.4815   0.46603402   -110.01546    7013.5424    4.3655434    4.3655434    4.3655434    7013.5424    25682.416   -5075.0691    433.28083    22931.824   -1101.1005    -4798.589    83.198389 
   25900    576.73303   -110.53967   0.52184017   -110.01783    6919.7492    4.3758278    4.3758278    4.3758278    6919.7492    10266.659    23631.598   -13139.009    36.781542   -10046.345    3464.8278    83.787779 
   26000    626.52408   -110.58172   0.56689215   -110.01483     -19630.9    4.3818948    4.3818948    4.3818948     -19630.9   -18979.835   -17154.969   -22757.895    12388.183   -751.59489    5546.9102    84.136768 
   26100    403.24931   -110.37965   0.36486845   -110.01478   -391.96935    4.3654298    4.3654298    4.3654298   -391.96935    7001.6808   -4573.4519    -3604.137    3020.6181   -27.900348   -1004.6277    83.191896 
   26200    735.36639   -110.68043   0.66537496   -110.01505   -1503.0152    4.3785133    4.3785133    4.3785133   -1503.0152     12592.57   -5883.1678   -11218.447   -2769.7501   -506.13775    4576.2063    83.942139 
   26300    627.73122    -110.5866    0.5679844   -110.01861    5479.7492    4.3728864    4.3728864    4.3728864    5479.7492    18845.443   -3585.1503    1178.9545    10264.925    7127.8297   -2472.2437    83.618927 
   26400    532.06116   -110.50131   0.48142011   -110.01989    8984.4466    4.3708481    4.3708481    4.3708481    8984.4466     191.8586    28513.251   -1751.7699    10409.653    -2449.398   -5596.8202    83.502052 
   26500    663.05556    -110.6162    0.5999466   -110.01626   -5937.2297    4.3776146    4.3776146    4.3776146   -5937.2297   -10272.589    7064.9319   -14604.032   -6661.9634   -4615.5827   -1151.3807    83.890461 
   26600    442.35011   -110.41765   0.40024768    -110.0174   -8459.7955    4.3726731    4.3726731    4.3726731   -8459.7955   -2619.8189   -10206.272   -12553.296    7219.7949   -37.188472    2308.9066     83.60669 
   26700    716.37346   -110.66458   0.64818976   -110.01639   -7174.2414    4.3729241    4.3729241    4.3729241   -7174.2414    7116.9435   -8173.0388   -20466.629    3859.7048   -6249.7377   -2205.1898    83.621087 
   26800    619.75762   -110.57832   0.56076972   -110.01755    9489.0997    4.3753516    4.3753516    4.3753516    9489.0997    18843.379    22374.789   -12750.869    3889.8687    1098.3079    4550.5642    83.760426 
   26900    593.27738   -110.55367   0.53680984   -110.01686    6068.7639    4.3743253    4.3743253    4.3743253    6068.7639    894.53235    25578.338    -8266.579    20688.143    1834.9242    50.430643    83.701501 
   27000    551.56433   -110.51523   0.49906699   -110.01617    9240.5598    4.3741103    4.3741103    4.3741103    9240.5598     3381.821    35148.555   -10808.696    2570.2694   -1210.0462   -8498.0095    83.689158 
   27100    505.94192   -110.47378   0.45778688     -110.016   -7437.4336    4.3756348    4.3756348    4.3756348   -7437.4336   -9948.7567   -10430.492    -1933.052    2148.7871    305.94754     5532.118     83.77669 
   27200     650.7383   -110.60393   0.58880169   -110.01513   -10619.932    4.3726936    4.3726936    4.3726936   -10619.932   -16973.861   -13792.973   -1092.9612    1869.2735   -337.09178   -1775.2887    83.607866 
   27300    618.01726   -110.57423     0.559195   -110.01503    904.69077    4.3780035    4.3780035    4.3780035    904.69077   -14182.777    33212.482   -16315.633   -2570.2498   -8974.6986     6732.853    83.912818 
   27400    676.96895   -110.62816   0.61253573   -110.01563    2301.4786    4.3696914    4.3696914    4.3696914    2301.4786   -2550.6387    18168.737   -8713.6622     5344.417   -1697.8483    7908.9298    83.435772 
   27500    609.71539   -110.56912    0.5516833   -110.01744    -3267.278    4.3753142    4.3753142    4.3753142    -3267.278   -3836.5469    12137.075   -18102.362    12955.114   -3687.1689   -1447.1815    83.758278 
   27600    610.24012   -110.57044   0.55215808   -110.01828   -6331.7535    4.3742465    4.3742465    4.3742465   -6331.7535    4199.7144    1107.2722   -24302.247   -4914.6722   -8186.7124    4793.9605    83.696975 
   27700    484.27739   -110.45735   0.43818436   -110.01916    6440.8458    4.3660379    4.3660379    4.3660379    6440.8458    4321.7092    6149.2705    8851.5577    7898.9618    5789.6403    7078.1721    83.226665 
   27800    508.37379   -110.47903   0.45998729   -110.01904    -2663.815    4.3810663    4.3810663    4.3810663    -2663.815   -29556.584    37803.464   -16238.325    4805.8651   -6532.5786    4500.4376    84.089055 
   27900    776.39349   -110.71873   0.70249715   -110.01624    2078.4807    4.3690685    4.3690685    4.3690685    2078.4807   -5436.3319    8443.5529    3228.2211    3061.1349   -3519.8254    8636.0166    83.400101 
   28000    721.32296   -110.67071   0.65266818   -110.01804   -4871.7492    4.3721425    4.3721425    4.3721425   -4871.7492   -10975.695   -2799.4873   -840.06579    10609.448   -2095.7756     196.6084    83.576257 
   28100    532.19018   -110.49881   0.48153686   -110.01727   -8175.7437    4.3819406    4.3819406    4.3819406   -8175.7437   -11743.224    7552.6629   -20336.671    3234.6205   -10594.948   -6591.5825    84.139409 
   28200    561.77603   -110.52072   0.50830675   -110.01241    12032.298    4.3671342    4.3671342    4.3671342    12032.298    15863.561    29964.683   -9731.3494   -12203.703   -1343.8085   -3087.9834    83.289375 
   28300    288.27948   -110.27833   0.26084134   -110.01749     9605.435    4.3771781    4.3771781    4.3771781     9605.435    4027.5158    25041.005   -252.21584     2255.031   -3792.0788    2635.4504    83.865369 
   28400    722.69612   -110.66886   0.65391064   -110.01494   -8938.0886     4.375324     4.375324     4.375324   -8938.0886    -536.9248   -7234.8537   -19042.487    -14.61441   -5901.1648   -3810.0955     83.75884 
   28500    764.00741   -110.70678   0.69128996   -110.01549    5047.8377    4.3698748    4.3698748    4.3698748    5047.8377    8663.9228    4194.6261    2284.9643    5758.1518    3575.3616    10542.915    83.446283 
   28600    684.25333    -110.6364   0.61912679   -110.01728   -18121.348     4.378743     4.378743     4.378743   -18121.348   -29048.298   -126.36524   -25189.381    11254.365    -2685.337      2599.35    83.955347 
   28700    555.92099   -110.51975     0.503009   -110.01674    256.61914    4.3696686    4.3696686    4.3696686    256.61914   -5608.3225    20945.582   -14567.402    1153.3885   -7707.5807   -1525.8249     83.43447 
   28800    576.79289   -110.53962   0.52189433   -110.01773    9252.0701     4.372415     4.372415     4.372415    9252.0701    15752.219    20016.536   -8012.5442    -3784.145   -286.55169    8228.6375    83.591887 
   28900    451.73645   -110.42924   0.40874063    -110.0205   -3608.4522    4.3745473    4.3745473    4.3745473   -3608.4522    1789.8014   -9616.7208   -2998.4371    6765.0135   -11432.593   -4761.8025    83.714244 
   29000     525.2882   -110.49493    0.4752918   -110.01964     3794.965    4.3739139    4.3739139    4.3739139     3794.965    12871.256     12115.57   -13601.931    7265.8764   -7214.5507    7762.2188    83.677882 
   29100    788.44104   -110.72933   0.71339802   -110.01593    732.58718    4.3735173    4.3735173    4.3735173    732.58718   -8291.3282    16763.173   -6274.0836    1511.2998    605.93097    1065.4527    83.655124 
   29200    535.59881   -110.50376   0.48462106   -110.01914   -5595.9685    4.3717896    4.3717896    4.3717896   -5595.9685   -22034.043    19837.199   -14591.061    6257.7356    -9821.385   -687.44566    83.556023 
   29300    741.20199   -110.68777   0.67065514   -110.01712    -5766.739    4.3769855    4.3769855    4.3769855    -5766.739   -11671.814    12544.791   -18173.194   -8853.2821    785.29947    -2027.683    83.854298 
   29400    648.35903   -110.60141   0.58664888   -110.01476   -6683.1965    4.3740302    4.3740302    4.3740302   -6683.1965   -10201.443    3785.1354   -13633.282    4828.1259    2582.0805   -731.89595    83.684561 
   29500    326.71514   -110.31467   0.29561872   -110.01905    2260.5326    4.3715186    4.3715186    4.3715186    2260.5326   -2250.5961    11691.029   -2658.8349     10775.12   -7686.4222   -2409.2004    83.540487 
   29600    750.24089   -110.69336   0.67883372   -110.01452    39.394769    4.3781551    4.3781551    4.3781551    39.394769    8769.9129    14597.768   -23249.497    9947.4944    3792.6428    1205.1228    83.921538 
   29700    561.41495   -110.52461   0.50798004   -110.01663    10068.222    4.3701994    4.3701994    4.3701994    10068.222    12579.693    17285.575     339.3965    8889.3369   -4522.7074    3940.4857    83.464879 
   29800    597.37818    -110.5585   0.54052033   -110.01798   -6528.8447    4.3744511    4.3744511    4.3744511   -6528.8447   -3815.2137   -3370.5965   -12400.724     4678.121   -8745.1772   -4761.5915    83.708719 
   29900    661.93942   -110.61393    0.5989367     -110.015    2309.9127    4.3751182    4.3751182    4.3751182    2309.9127   -6043.2734     21419.41   -8446.3987    -8572.113    4869.4582   -6529.4131    83.747021 
   30000    475.37282   -110.44802   0.43012732   -110.01789   -9522.6758    4.3728685    4.3728685    4.3728685   -9522.6758   -20647.326   -1544.3106   -6376.3906     7844.257   -5324.3959   -672.99619    83.617902 
   30100    591.46534   -110.55429   0.53517027   -110.01912   -7103.2987    4.3735401    4.3735401    4.3735401   -7103.2987   -3381.0449   -13167.934   -4760.9167    4797.9957   -124.11388   -7623.5903    83.656432 
   30200    734.41798   -110.68066   0.66451682   -110.01614    3790.3673    4.3749683    4.3749683    4.3749683    3790.3673     11342.92    17023.758   -16995.577   -437.63322    3058.7504    6608.1684    83.738411 
   30300    577.31487   -110.54006   0.52236662    -110.0177   -4186.7551    4.3744545    4.3744545    4.3744545   -4186.7551    398.94773   -4537.9103   -8421.3026    2954.7539   -6703.1034    11.425606    83.708913 
   30400    488.94133    -110.4601   0.44240439    -110.0177    8774.3067    4.3725365    4.3725365    4.3725365    8774.3067    3022.3085    29811.982   -6511.3707   -2482.3248   -3639.4975   -3851.8768    83.598856 
   30500    616.40229   -110.57324   0.55773374   -110.01551   -4477.1244    4.3755433    4.3755433    4.3755433   -4477.1244    -9755.794    5191.1009   -8866.6802   -362.97566    766.87515    3199.6768    83.771433 
   30600    550.36846   -110.51503   0.49798494   -110.01705   -11953.182    4.3746893    4.3746893    4.3746893   -11953.182   -19156.518   -10778.245   -5924.7826    12427.542   -7177.3827   -6270.1314    83.722394 
   30700    709.59379   -110.65648   0.64205538   -110.01442   -4275.5097    4.3774129    4.3774129    4.3774129   -4275.5097   -9625.2375     2308.909   -5510.2006    6171.3208    2518.5605    2397.6469    83.878864 
   30800    818.15677   -110.75291   0.74028544   -110.01262    507.63374    4.3713656    4.3713656    4.3713656    507.63374   -2335.0215    14702.477   -10844.555   -771.31258    6129.5817    90.119586    83.531716 
   30900    436.22324   -110.41417   0.39470396   -110.01947    5877.8889    4.3765544    4.3765544    4.3765544    5877.8889   -3088.9135    29991.478   -9268.8976    858.86638   -6404.2493    521.48406    83.829525 
   31000    515.01788   -110.48371     0.465999   -110.01771    92.160498    4.3759763    4.3759763    4.3759763    92.160498    6753.5797    4111.5095   -10588.608   -9916.9218    5789.9694   -9421.3194    83.796306 
   31100    572.42705   -110.53241   0.51794402   -110.01446    3393.7725     4.368841     4.368841     4.368841    3393.7725    9751.5749    1859.3052   -1429.5625   -1206.0242   -3897.5417   -2023.5967    83.387072 
   31200     535.3095   -110.50031   0.48435929   -110.01595   -14391.278    4.3834215    4.3834215    4.3834215   -14391.278   -8960.3996   -25894.502   -8318.9319    7533.0865   -8311.9212   -5748.9543    84.224744 
   31300    685.88839   -110.63248   0.62060623   -110.01187    9507.9005    4.3672917    4.3672917    4.3672917    9507.9005   -224.01227    22914.729    5832.9844    4855.0408     5841.417   -3648.1885    83.298388 
   31400    691.00324   -110.64091   0.62523425   -110.01568    -331.3736    4.3762111    4.3762111    4.3762111    -331.3736   -19606.319     27911.46   -9299.2621    63.563592    -1373.131    8634.7085    83.809795 
   31500    554.25075   -110.51935   0.50149772   -110.01785   -3177.7478    4.3760192    4.3760192    4.3760192   -3177.7478   -3342.1242   -1603.1949   -4587.9243    5988.6737    1638.7236   -7734.8236    83.798774 
   31600    557.06486    -110.5194   0.50404399   -110.01536    727.57552    4.3692824    4.3692824    4.3692824    727.57552    15042.162   -3447.0201   -9412.4151   -5472.4296    7276.6173    772.90731    83.412348 
   31700    587.64293   -110.54838   0.53171167   -110.01666   -11389.668    4.3784276    4.3784276    4.3784276   -11389.668    2592.4876   -20680.855   -16080.636    7136.8238   -6359.3971   -4322.8554    83.937205 
   31800    528.44199   -110.49508   0.47814542   -110.01693    5073.8443    4.3708165    4.3708165    4.3708165    5073.8443    5100.1386    17758.144   -7636.7496    9474.2142   -3182.2773   -4649.0461    83.500238 
   31900    755.15335   -110.69975   0.68327862   -110.01647   -2974.9295    4.3766143    4.3766143    4.3766143   -2974.9295   -19991.352     23627.76   -12561.196   -2976.5497    5845.2825    4361.9573    83.832964 
   32000    617.96053   -110.57472   0.55914368   -110.01558    7207.4531    4.3729546    4.3729546    4.3729546    7207.4531    3781.1602    22996.643    -5155.444   -3664.3784   -4332.8804    1647.5869     83.62284 
   32100    508.93649   -110.47756   0.46049643   -110.01707   -3216.1449    4.3745371    4.3745371    4.3745371   -3216.1449    10526.441   -12104.428   -8070.4476   -3181.7088     7282.584   -4974.9416    83.713655 
   32200    542.86588   -110.50524   0.49119645   -110.01404    -3419.006    4.3759516    4.3759516    4.3759516    -3419.006    21729.607   -20966.821   -11019.804   -1717.9224    8373.1866    656.32325    83.794889 
   32300    555.05322   -110.51729   0.50222381   -110.01507    4448.2001    4.3706344    4.3706344    4.3706344    4448.2001    8437.7659    11814.877   -6908.0424    7140.6288   -5799.7607   -4937.8023    83.489804 
   32400    635.02448   -110.59076   0.57458349   -110.01618   -6812.1306    4.3778865    4.3778865    4.3778865   -6812.1306   -13104.018    9085.4741   -16417.847    10307.036    4752.6301   -5390.4389    83.906091 
   32500    773.93877    -110.7142   0.70027606   -110.01392    4996.7163    4.3702735    4.3702735    4.3702735    4996.7163   -1169.0731    30892.311   -14733.089   -4529.0481    3383.2988    385.25438    83.469125 
   32600    608.49704   -110.56933   0.55058091   -110.01875   -40.021117    4.3718049    4.3718049    4.3718049   -40.021117    9507.6762   -6017.6917   -3610.0478    6666.9677   -6563.7341   -1937.3353      83.5569 
   32700    477.17868   -110.45226   0.43176129    -110.0205   -6635.7353    4.3766183    4.3766183    4.3766183   -6635.7353    14382.037   -23111.952   -11177.292    4605.6881    14854.114   -2085.0504    83.833194 
   32800    579.83595   -110.54087   0.52464775   -110.01622    386.18686    4.3752178    4.3752178    4.3752178    386.18686    6192.1953   -7505.4741    2471.8394    5533.6117    2321.4106   -2454.3301     83.75274 
   32900     511.0065   -110.47804   0.46236942   -110.01567    -223.0753    4.3743563    4.3743563    4.3743563    -223.0753   -12930.914    17238.325   -4976.6373    10594.547   -3889.6202   -7261.6304    83.703277 
   33000    638.78106   -110.59347   0.57798253   -110.01549    2519.2495    4.3742135    4.3742135    4.3742135    2519.2495    -5026.644    19837.991   -7253.5988   -3492.4948    7529.2085   -5466.6811    83.695079 
   33100    732.53894   -110.67657   0.66281663   -110.01376    1096.2023    4.3776202    4.3776202    4.3776202    1096.2023    893.28754     17487.31    -15091.99   -7832.2665   -10796.156    736.89029    83.890781 
   33200    492.72825   -110.46047   0.44583088   -110.01464   -1325.8147    4.3727913    4.3727913    4.3727913   -1325.8147     19980.46     -15677.3   -8280.6037   -596.44318   -2093.0903   -3811.0688    83.613473 
   33300    557.48108   -110.51891    0.5044206   -110.01449   -10299.572    4.3766312    4.3766312    4.3766312   -10299.572    9880.4753   -25684.478   -15094.714     2891.883    11028.293    6718.9886    83.833936 
   33400    689.63734   -110.63609   0.62399836   -110.01209   -6022.4318    4.3764508    4.3764508    4.3764508   -6022.4318    1325.3739   -15024.104    -4368.565    3631.6424   -2837.2365   -574.94578    83.823568 
   33500    599.90025   -110.55838   0.54280236   -110.01557   -2084.0587    4.3725545    4.3725545    4.3725545   -2084.0587    1677.4705    4769.5721   -12699.219    9318.5471    4670.2118   -5491.4969    83.599885 
   33600    720.52351   -110.66835   0.65194482   -110.01641    -1160.164    4.3748021    4.3748021    4.3748021    -1160.164   -2905.0077    8782.8603   -9358.3444   -2291.2863    9237.4179    909.32677     83.72887 
   33700    557.71416   -110.52194    0.5046315   -110.01731    13210.091    4.3730595    4.3730595    4.3730595    13210.091    39188.785    10086.653   -9645.1649   -5588.9636   -10175.776   -8578.2824    83.628859 
   33800    443.28363   -110.42118   0.40109235   -110.02009   -7272.5529    4.3758365    4.3758365    4.3758365   -7272.5529   -1528.1783   -14481.592   -5807.8886    7498.9721     5539.614   -2134.9277    83.788277 
   33900    655.84249   -110.60902   0.59342007    -110.0156   -4028.5774    4.3704213    4.3704213    4.3704213   -4028.5774    4445.8824   -11095.469   -5436.1457    1402.9096    8760.2508   -3905.5343     83.47759 
   34000    632.66883   -110.58932   0.57245205   -110.01686   -2678.8265    4.3789688    4.3789688    4.3789688   -2678.8265    2400.9008   -7362.1123   -3075.2681    6374.7746   -7376.4572   -1522.8871    83.968339 
   34100    615.85308   -110.57559   0.55723681   -110.01836   -5648.1377    4.3727873    4.3727873    4.3727873   -5648.1377    13892.498   -12902.258   -17934.653    8503.2455    9396.7965   -1184.8283     83.61324 
   34200    594.58945   -110.55759   0.53799703   -110.01959    10034.647    4.3720927    4.3720927    4.3720927    10034.647    20274.774    12012.242   -2183.0762    -7008.853    438.92584    491.10921    83.573402 
   34300    755.69846   -110.69957   0.68377185   -110.01579   -11401.954    4.3793985    4.3793985    4.3793985   -11401.954   -7036.2337   -10360.779   -16808.851   -4723.7151   -9218.0342    1735.9879    83.993059 
   34400    405.47879   -110.38302   0.36688573   -110.01613    4962.4876    4.3673501    4.3673501    4.3673501    4962.4876   -6181.0316     13103.78    7964.7147    7172.2072    11490.626   -3447.7193    83.301733 
   34500    628.07482   -110.58539    0.5682953    -110.0171   -7580.5234    4.3810596    4.3810596    4.3810596   -7580.5234    2733.0341   -4539.8944    -20934.71    2911.3868   -934.03102    4286.4423    84.088668 
   34600    462.02619   -110.43441     0.418051   -110.01636     18110.07    4.3703091    4.3703091    4.3703091     18110.07    29838.056    11099.747    13392.405    11518.104   -369.23256    -4879.736    83.471162 
   34700    555.40787   -110.52092   0.50254471   -110.01837   -4018.3585    4.3733627    4.3733627    4.3733627   -4018.3585    10603.113   -5317.4489    -17340.74    7902.0933     8827.082    4559.4428    83.646255 
   34800     800.9349     -110.739   0.72470273    -110.0143   -6768.5749    4.3789379    4.3789379    4.3789379   -6768.5749    -9584.748   -4841.0166   -5879.9601   -7548.3201   -2491.2362    -3133.002    83.966559 
   34900    729.58307   -110.67525   0.66014209   -110.01511   -118.67904    4.3687327    4.3687327    4.3687327   -118.67904    13872.524   -13595.806   -632.75446    3023.5067    2290.1407   -5152.3091    83.380868 
   35000    461.66333    -110.4366   0.41772268   -110.01887   -9316.8246    4.3775716    4.3775716    4.3775716   -9316.8246    3417.1139   -17593.804   -13773.784    3214.6545    12915.473   -629.78201    83.887985 
   35100    565.33532   -110.52751   0.51152727   -110.01598     10658.66    4.3726891    4.3726891    4.3726891     10658.66    35744.833    9699.6003   -13468.454     3447.753   -766.48673   -10492.257     83.60761 
   35200    464.09575   -110.43828   0.41992359   -110.01836     9694.795    4.3728027    4.3728027    4.3728027     9694.795    2835.6916    16646.749    9601.9446    11942.381    1024.6218    1633.7929    83.614124 
   35300    680.53361   -110.63248   0.61576111   -110.01672   -8785.3429    4.3766576    4.3766576    4.3766576   -8785.3429   -18627.557    11011.894   -18740.366    4156.5068    10284.707   -3794.9599    83.835451 
   35400    758.79824   -110.70113   0.68657659   -110.01455    7830.0766    4.3723543    4.3723543    4.3723543    7830.0766    16419.393    6521.8167    549.01948   -12548.701   -5551.4947   -509.78687    83.588408 
   35500    581.71631   -110.54308   0.52634914   -110.01673    -7374.125    4.3761771    4.3761771    4.3761771    -7374.125    9834.8987   -16923.453    -15033.82    7148.2774    8181.4411    3533.1903    83.807846 
   35600    518.47725   -110.48657   0.46912911   -110.01744   -9349.9474    4.3752125    4.3752125    4.3752125   -9349.9474    6190.4876   -10744.596   -23495.733    2837.5398    6260.2895    553.33892    83.752435 
   35700    599.12921   -110.55765    0.5421047   -110.01555    3462.3644    4.3721975    4.3721975    4.3721975    3462.3644    7230.8424    20926.866   -17770.615    2019.8059   -2107.7751    245.11323    83.579411 
   35800    580.34771   -110.54249   0.52511081   -110.01738   -5651.9606    4.3746313    4.3746313    4.3746313   -5651.9606   -25523.342    7282.2119    1285.2485    12938.919    8407.4314   -1010.5292    83.719065 
   35900    626.42614   -110.58415   0.56680354   -110.01735    759.25426    4.3757699    4.3757699    4.3757699    759.25426    4543.6322    11423.666   -13689.536   -6087.8461   -3724.7101   -4520.8434    83.784451 
   36000    712.06171    -110.6607    0.6442884   -110.01641    5843.2951    4.3703277    4.3703277    4.3703277    5843.2951    20207.014   -4844.9752    2167.8465   -3795.5739   -3243.0835   -3251.6035    83.472229 
   36100    456.90746   -110.43359   0.41341947   -110.02017   -9952.8521    4.3779907    4.3779907    4.3779907   -9952.8521    3487.2749   -12111.554   -21234.277    10883.872     9708.683    1104.4439    83.912081 
   36200    635.82803    -110.5912   0.57531056   -110.01589    -11856.78    4.3753902    4.3753902    4.3753902    -11856.78   -7184.9128   -3286.0986   -25099.328    1604.1777    -3038.335   -2978.3243    83.762643 
   36300    620.50626    -110.5775    0.5614471   -110.01605    4481.5583    4.3688174    4.3688174    4.3688174    4481.5583     12086.78    19033.817   -17675.922    -3301.012    6755.3643    -384.2552    83.385718 
   36400    481.60539   -110.45692   0.43576668   -110.02115   -426.32783    4.3784525    4.3784525    4.3784525   -426.32783    9040.7336     3914.694   -14234.411    6675.3443    8529.6745    163.52566    83.938642 
   36500    718.52551   -110.66793   0.65013698   -110.01779    4243.3025    4.3710816    4.3710816    4.3710816    4243.3025    24861.537   -1644.3394    -10487.29   -8365.3084   -4610.9451   -3881.8456    83.515433 
   36600    707.87609   -110.65897   0.64050116   -110.01847    -1761.345    4.3706465    4.3706465    4.3706465    -1761.345    3562.5261   -2579.4276   -6267.1334    2263.2574    4605.7543    -1920.589    83.490496 
   36700    443.91128   -110.42334   0.40166025   -110.02168   -11735.842    4.3798582    4.3798582    4.3798582   -11735.842    6267.7655   -23590.674   -17884.616    11099.582     4545.909    596.98353    84.019511 
   36800    654.85693    -110.6117   0.59252832   -110.01918    4867.6607    4.3685604    4.3685604    4.3685604    4867.6607    18833.038    11239.986   -15470.042   -10176.637    615.68769   -3508.3392    83.371006 
   36900    501.01484   -110.47389   0.45332875   -110.02056    9078.7107    4.3741401    4.3741401    4.3741401    9078.7107    34867.757    8529.0659   -16160.691    1232.4537    7041.1442    5452.6244    83.690867 
   37000    650.63109   -110.60756   0.58870468   -110.01885   -9855.0365    4.3777308    4.3777308    4.3777308   -9855.0365   -20061.698    6510.9006   -16014.312    9133.9942    2798.0727    142.18982    83.897139 
   37100    681.03192   -110.63092   0.61621199    -110.0147    6355.9952    4.3682509    4.3682509    4.3682509    6355.9952    19523.876    8745.6447   -9201.5353    2393.0043   -6209.7584    1021.8464    83.353285 
   37200    570.42654   -110.53304   0.51613392    -110.0169    -14687.39    4.3808504    4.3808504    4.3808504    -14687.39    4238.9825   -16834.025   -31467.127    9103.3832    6360.3182    4515.9711    84.076625 
   37300    387.87875   -110.36973   0.35096084   -110.01877    10309.844    4.3692481    4.3692481    4.3692481    10309.844    40418.982   -8272.7536   -1216.6959    5923.5551    854.81234   -7440.6317    83.410384 
   37400    753.90402   -110.70126    0.6821482   -110.01911    2535.2879     4.374282     4.374282     4.374282    2535.2879    15717.582    9427.0035   -17538.722   -8868.4034    1118.3365    6152.8038    83.699011 
   37500    716.61016   -110.66843   0.64840394   -110.02003   -12437.007    4.3781454    4.3781454    4.3781454   -12437.007   -15865.039    -7808.581   -13637.401    1256.4354    10688.321   -2443.5115    83.920981 
   37600    540.61899   -110.50796   0.48916342    -110.0188    12227.948    4.3629161    4.3629161    4.3629161    12227.948    23420.303    16897.073   -3633.5306    10363.301   -7323.8573    -2519.039     83.04827 
   37700    498.22299   -110.47109   0.45080263   -110.02029   -5659.9763    4.3816186    4.3816186    4.3816186   -5659.9763    30669.962   -19013.139   -28636.752   -3054.4962   -3234.1585    8947.9358    84.120865 
   37800    568.56576   -110.53243   0.51445025   -110.01798    4003.8801    4.3668137    4.3668137    4.3668137    4003.8801     14167.84    6254.1055   -8410.3054    8328.7189    1896.4997   -2544.2496    83.271041 
   37900    553.83194   -110.52303   0.50111878   -110.02191    406.02512    4.3763603    4.3763603    4.3763603    406.02512    12281.672   -9657.5891   -1406.0071   -1278.7364   -486.53852    2146.7818    83.818371 
   38000    799.07955   -110.74118   0.72302397   -110.01816   -8725.6439    4.3773548    4.3773548    4.3773548   -8725.6439     1337.052   -15463.286   -12050.697   -4294.9831    8841.6463     4960.483    83.875523 
   38100    516.11256   -110.48347   0.46698949   -110.01648    22417.547    4.3619968    4.3619968    4.3619968    22417.547    43132.366    11381.329    12738.946    6728.0541    2815.1043   -4587.1768    82.995783 
   38200    584.73587    -110.5447   0.52908131   -110.01562   -22114.106    4.3872795    4.3872795    4.3872795   -22114.106   -4061.8572   -24661.989    -37618.47    6640.1993   -3376.4626    443.41036    84.447325 
   38300    604.69296   -110.56091    0.5471389   -110.01377    8033.1031    4.3606111    4.3606111    4.3606111    8033.1031    33493.729    2721.4963   -12115.916   -2182.2075   -224.98253    5505.6685    82.916711 
   38400    598.60824   -110.56632   0.54163332   -110.02469   -4461.8255    4.3749274    4.3749274    4.3749274   -4461.8255    14713.375   -4367.1092   -23731.742     2282.562    1551.8785    -2136.543    83.736064 
   38500     504.9302   -110.48054   0.45687146   -110.02367   -8628.5861    4.3823956    4.3823956    4.3823956   -8628.5861    18627.431   -24990.346   -19522.843   -3208.4151   -1200.7947     5749.584    84.165622 
   38600    730.84387   -110.67362   0.66128289   -110.01233    20896.636    4.3570549    4.3570549    4.3570549    20896.636     40728.06    13788.255    8173.5925   -1924.0275    7512.0327    6877.6365    82.714013 
   38700    610.25885   -110.57166   0.55217503   -110.01948   -14704.272    4.3863597    4.3863597    4.3863597   -14704.272   -7640.3439   -23655.355   -12817.116    7768.1715   -1233.7111    -2477.004    84.394223 
   38800    477.50473   -110.45294   0.43205632   -110.02089    165.04923    4.3685044    4.3685044    4.3685044    165.04923    21651.322   -8830.9948    -12325.18    4175.7955   -8737.6284    9824.1021      83.3678 
   38900    733.72933    -110.6811   0.66389372   -110.01721    3544.6864    4.3699294    4.3699294    4.3699294    3544.6864    30766.977   -1574.4704   -18558.448   -3904.3724   -540.94778   -1693.4209    83.449408 
   39000     521.9228   -110.49004   0.47224672   -110.01779   -9212.8257    4.3833519    4.3833519    4.3833519   -9212.8257    32569.279   -27431.014   -32776.743    2962.8001   -1716.4405    413.61219    84.220734 
   39100    640.40682   -110.59653   0.57945355   -110.01708    5858.0816    4.3600583    4.3600583    4.3600583    5858.0816    12820.801    3935.2738    818.16993   -4601.7393   -2703.7352    9507.5532    82.885182 
   39200    831.26455   -110.76961   0.75214563   -110.01747   -11253.754    4.3822246    4.3822246    4.3822246   -11253.754     402.3681   -14182.062   -19981.567   -4276.5862    5072.4577   -5141.6467    84.155771 
   39300    322.15473   -110.31178   0.29149237   -110.02029    1756.0396    4.3725731    4.3725731    4.3725731    1756.0396    30441.692    -18632.68   -6540.8929    12069.233   -8076.8804    8726.4506    83.600954 
   39400    360.50127   -110.34701   0.32618913   -110.02082    11648.041    4.3643924    4.3643924    4.3643924    11648.041    41113.723    3348.6552   -9518.2543   -894.38591   -6825.0844    3864.8054    83.132602 
   39500    881.47993   -110.81431   0.79758156   -110.01672    -11847.74    4.3813796    4.3813796    4.3813796    -11847.74   -1590.5174    -17928.26   -16024.441     4187.562   -1128.6291   -2153.7028    84.107097 
   39600     535.3247   -110.50544   0.48437304   -110.02107   -2412.9835    4.3695348    4.3695348    4.3695348   -2412.9835    10601.575   -5408.2895   -12432.235    2385.8493    24.570559    10761.208    83.426803 
   39700    696.26167   -110.64843   0.62999219   -110.01844    2807.8303    4.3681207    4.3681207    4.3681207    2807.8303    22184.708   -6633.9679   -7127.2492    153.42234    1970.1827   -3235.3525     83.34583 
   39800    586.11351   -110.54829   0.53032782   -110.01796    2580.0258    4.3754228    4.3754228    4.3754228    2580.0258    40217.115   -13398.668   -19078.369   -3480.4311    2866.8984    4693.7726    83.764513 
   39900    450.79312   -110.42916   0.40788709   -110.02127   -2372.1992    4.3709995    4.3709995    4.3709995   -2372.1992    10780.517   -3200.6022   -14696.513    5343.7445    -7750.193    9841.1561     83.51073 
   40000    678.90858   -110.63314   0.61429075   -110.01885    3316.4874     4.373927     4.373927     4.373927    3316.4874    16202.572   -64.803485   -6188.3058   -4650.7754   -3154.3653   -2443.3208    83.678637 
   40100    780.72936    -110.7249   0.70642033   -110.01848   -1785.5236    4.3714361    4.3714361    4.3714361   -1785.5236    10129.384   -8251.7033   -7234.2511   -4082.9589   -649.86651     9721.876    83.535756 
   40200    414.00833   -110.39717   0.37460343   -110.02257    10450.019    4.3714177    4.3714177    4.3714177    10450.019    44412.691   -4847.3022   -8215.3332    6576.1764   -713.30838    4944.0157    83.534703 
   40300    682.62579     -110.635   0.61765416   -110.01734   -7368.0419    4.3756535    4.3756535    4.3756535   -7368.0419    7572.4832     -17116.2   -12560.409   -970.58019   -798.40703   -3080.3217    83.777764 
   40400    614.04144   -110.57174    0.5555976   -110.01614   -1118.9473    4.3641174    4.3641174    4.3641174   -1118.9473    11633.507   -580.70083   -14409.648    4047.0941    1341.1154    2586.4179    83.116887 
   40500    531.58428   -110.50218   0.48098863    -110.0212   -16249.351    4.3792182    4.3792182    4.3792182   -16249.351   -15582.148   -16444.358   -16721.548    9100.3224   -11943.561    1856.4208    83.982686 
   40600    615.44942   -110.57695   0.55687157   -110.02008    6717.2126    4.3678643    4.3678643    4.3678643    6717.2126     28854.52   -4745.3624   -3957.5201   -9777.7792    1556.1799   -2577.3756    83.331156 
   40700     619.6659   -110.58108   0.56068673   -110.02039    2638.3642    4.3714295    4.3714295    4.3714295    2638.3642    29390.184   -13822.734   -7652.3566    3142.7674   -755.34126    5809.8858    83.535376 
   40800    498.15061   -110.46884   0.45073714    -110.0181   -10640.988    4.3799821    4.3799821    4.3799821   -10640.988   -4938.7752   -16039.148   -10945.042     890.3878   -3152.8045    1519.3562    84.026644 
   40900    750.09315   -110.68996   0.67870005   -110.01126    6032.1647    4.3571673    4.3571673    4.3571673    6032.1647     11257.37    7166.3347   -327.21076   -3879.3244    4851.8108    2778.6775    82.720417 
   41000    497.35831    -110.4682   0.45002025   -110.01818    -14116.72    4.3857575    4.3857575    4.3857575    -14116.72    16567.549   -25084.547   -33833.162    8935.9658   -6120.6959    9489.8959    84.359469 
   41100    527.87357    -110.4974    0.4776311   -110.01977    6076.7354    4.3643299    4.3643299    4.3643299    6076.7354     21548.69   -6918.4012    3599.9173    2422.8334   -2184.2508   -4442.9961    83.129029 
   41200    706.21352   -110.65657   0.63899684   -110.01757     9799.894    4.3629906    4.3629906    4.3629906     9799.894    34441.605   -7012.2785    1970.3552    -7229.353    503.66663    6084.7814    83.052524 
   41300    673.66754   -110.62439   0.60954854   -110.01485   -27759.112     4.389895     4.389895     4.389895   -27759.112   -19303.367   -43894.708   -20079.262    7704.7294    1090.9973    4004.8609    84.598447 
   41400    572.54865   -110.52984   0.51805405   -110.01178    24473.799    4.3516966    4.3516966    4.3516966    24473.799    46057.548    11938.039    15425.808    5431.1339   -6696.5148   -3670.5321    82.409224 
   41500    601.89329   -110.56161    0.5446057     -110.017   -7892.5439    4.3814227    4.3814227    4.3814227   -7892.5439    20099.231   -16891.584   -26885.279   -2511.0617   -553.75328     4564.042     84.10958 
   41600    487.68735   -110.45735   0.44126976   -110.01608     -3008.71    4.3740568    4.3740568    4.3740568     -3008.71     12205.15   -10115.566   -11115.713    15684.055   -5305.2722    420.66485    83.686085 
   41700    640.44933   -110.59481   0.57949201   -110.01532    6885.4773    4.3575198    4.3575198    4.3575198    6885.4773    2653.4638    9152.4383    8850.5297   -5268.9005    -2836.363    2741.0876    82.740495 
   41800    607.50914   -110.56629   0.54968704    -110.0166   -13935.745    4.3807896    4.3807896    4.3807896   -13935.745   -3573.9309   -28842.093   -9391.2115   -2744.7252    9192.6617    335.25761    84.073126 
   41900    469.40115   -110.44164   0.42472403   -110.01691    1753.0459    4.3703454    4.3703454    4.3703454    1753.0459    31450.968   -26157.997   -33.833794     15818.27   -5833.1028    -1503.807     83.47324 
   42000    712.77043    -110.6592   0.64492967   -110.01427    3930.7984    4.3673503    4.3673503    4.3673503    3930.7984    14359.989   -2723.9503    156.35594   -3768.7904    3572.7716   -613.33762     83.30174 
   42100    704.76256   -110.65372   0.63768398   -110.01604   -10902.901    4.3751204    4.3751204    4.3751204   -10902.901    537.05367    -13391.79   -19853.967     11667.55    88.030292   -1683.2883    83.747146 
   42200    528.55103   -110.49526   0.47824408   -110.01701   -8107.5538    4.3736548    4.3736548    4.3736548   -8107.5538   -301.67653   -12939.982   -11081.003    15038.852   -3350.0878   -3056.0394    83.663014 
   42300    606.69036   -110.56336   0.54894619   -110.01442    16686.853    4.3632014    4.3632014    4.3632014    16686.853    43092.874    4362.3887    2605.2955    -13347.24    5966.9594    -1236.775     83.06456 
   42400     483.0111   -110.45714    0.4370386    -110.0201   -5320.2497    4.3766066    4.3766066    4.3766066   -5320.2497    6452.4595   -25905.114    3491.9053    12409.619    4390.4694    3968.0785    83.832523 
   42500    710.91909   -110.66069   0.64325453   -110.01744   -3067.6134    4.3704828    4.3704828    4.3704828   -3067.6134     776.0119   -15113.399    5134.5468    8592.8417    3720.4465   -1568.3069    83.481117 
   42600    744.72842   -110.68922   0.67384593   -110.01538    11793.675    4.3665263    4.3665263    4.3665263    11793.675    23707.374    2737.1329    8936.5166   -2504.7094   -5919.0403    5026.6513    83.254602 
   42700    356.00064   -110.34355   0.32211686   -110.02143   -10672.607    4.3789528    4.3789528    4.3789528   -10672.607    14242.662   -30558.705   -15701.778    20856.846    -559.1585   -126.22507    83.967419 
   42800    576.34572   -110.53829   0.52148972    -110.0168    7499.8751    4.3666846    4.3666846    4.3666846    7499.8751    26352.806   -5460.4697    1607.2887    1540.4497   -3587.5848   -84.967106    83.263653 
   42900    717.34266   -110.66624   0.64906671   -110.01718   -1281.2389    4.3688156    4.3688156    4.3688156   -1281.2389    6354.8398   -5189.4012   -5009.1552   -2381.1612   -36.839125    4279.7483    83.385614 
   43000    503.07835   -110.47761   0.45519587   -110.02241   -10999.026    4.3731365    4.3731365    4.3731365   -10999.026   -9494.3873   -27674.417    4171.7276    22402.536    1205.7047   -2358.0373    83.633276 
   43100    743.30853   -110.69009   0.67256118   -110.01753    9663.5301    4.3730016    4.3730016    4.3730016    9663.5301    46297.606    -7801.882   -9505.1337    1296.0302   -5016.8211    4338.0063    83.625535 
   43200    530.11064   -110.49984   0.47965525   -110.02018    7360.1914    4.3664155    4.3664155    4.3664155    7360.1914    25424.536   -12434.739    9090.7779    12785.011   -6.7119844     -2627.72    83.248261 
   43300    464.25003   -110.44221   0.42006319   -110.02215   -16370.737    4.3747876    4.3747876    4.3747876   -16370.737   -12164.047   -33290.192   -3657.9716    20018.635   -1642.5124    79.630378    83.728039 
   43400    808.65481   -110.74665   0.73168786   -110.01496    2103.2491    4.3732294    4.3732294    4.3732294    2103.2491     19104.13   -8830.6305   -3963.7518   -7406.2369    1411.1045    1614.1247    83.638604 
   43500    450.15795   -110.42789   0.40731237   -110.02058    7033.7229    4.3667488    4.3667488    4.3667488    7033.7229    30721.637   -13558.601    3938.1337    14445.248    7780.4416   -1789.4488    83.267327 
   43600    535.03613   -110.50591   0.48411194   -110.02179   -6884.2299    4.3758332    4.3758332    4.3758332   -6884.2299    8153.7448    -24786.04   -4020.3945    16971.136    1602.1821   -1502.4609     83.78809 
   43700    976.69908   -110.89771   0.88373785   -110.01397    2029.7854    4.3670751    4.3670751    4.3670751    2029.7854    9458.6099    7064.5666    -10433.82   -3476.2161    3655.9169   -3575.4664    83.285996 
   43800    300.93309    -110.2953   0.27229058   -110.02301   -7938.0971    4.3742362    4.3742362    4.3742362   -7938.0971   -7615.1233   -25654.642    9455.4737        22261   -2720.7054   -1550.4678    83.696381 
   43900    488.45193    -110.4624   0.44196157   -110.02044    1077.3498     4.368689     4.368689     4.368689    1077.3498     28773.51   -18409.003    -7132.457    708.96447    2912.6152   -2862.8953    83.378367 
   44000     664.5275   -110.61999   0.60127845   -110.01872    7712.6573    4.3716419    4.3716419    4.3716419    7712.6573    28672.346   -3549.6638   -1984.7099   -6047.9584    848.61672    1921.1115    83.547552 
   44100    624.38859   -110.58646   0.56495992    -110.0215   -13004.756    4.3729569    4.3729569    4.3729569   -13004.756    -19690.69   -17960.618   -1362.9615    25536.845    568.54161   -1973.1236     83.62297 
   44200    765.14657   -110.71013   0.69232069   -110.01781    5656.6836    4.3665254    4.3665254    4.3665254    5656.6836    19023.566    70.736158   -2124.2515   -628.38047    3705.0326    275.44426    83.254549 
   44300    612.27133   -110.57142   0.55399596   -110.01742   -4078.1364    4.3777947    4.3777947    4.3777947   -4078.1364     15523.57   -11509.859   -16248.121    4780.7379   -6454.9681   -108.14297    83.900813 
   44400    246.42154   -110.24265   0.22296739   -110.01969    10037.881    4.3645202    4.3645202    4.3645202    10037.881    32012.221   -19653.797    17755.219    20509.567    102.46035   -4659.9793    83.139903 
   44500    728.02616   -110.67611   0.65873337   -110.01737   -8943.3294    4.3726053    4.3726053    4.3726053   -8943.3294   -9876.4291    -10801.83   -6151.7295   -8121.2301   -1889.4541    3260.1222    83.602799 
   44600    674.70907   -110.62774   0.61049095   -110.01725   -4786.8365    4.3734495    4.3734495    4.3734495   -4786.8365   -8798.3694   -6091.5149    529.37478    12777.859   -2814.6221   -3637.2451    83.651231 
   44700    633.38967   -110.59091   0.57310428    -110.0178    2030.6319    4.3672274    4.3672274    4.3672274    2030.6319     13429.77   -10732.694    3394.8191    17304.441    3980.3234    1681.5865    83.294709 
   44800    651.29168   -110.60587   0.58930239   -110.01657    696.46814    4.3748403    4.3748403    4.3748403    696.46814    25729.608   -3899.2871   -19740.916   -11848.327   -1889.7656    2795.4038    83.731066 
   44900    474.18553   -110.44635   0.42905304    -110.0173   -2925.0313    4.3713235    4.3713235    4.3713235   -2925.0313    6633.5521   -7010.3935   -8398.2523     10127.15    736.23981   -747.72633    83.529302 
   45000    578.31882   -110.54064   0.52327502   -110.01736   -8431.1458    4.3708214    4.3708214    4.3708214   -8431.1458   -12514.596   -16359.309    3580.4675    7552.1833   -1459.8897    1813.3913    83.500519 
   45100    732.62296   -110.67861   0.66289265   -110.01572    1242.9675    4.3702491    4.3702491    4.3702491    1242.9675    8424.8572   -1561.7801   -3134.1745    -5247.956    4470.0306   -2707.1947    83.467725 
   45200    468.67387   -110.44441   0.42406597   -110.02034    5361.5512    4.3749865    4.3749865    4.3749865    5361.5512    29068.983   -11206.205   -1778.1242    17482.036    2844.0256   -1116.9577     83.73946 
   45300    704.34191   -110.65388   0.63730336   -110.01658    8441.3065    4.3657891    4.3657891    4.3657891    8441.3065     24426.55   -2638.1602    3535.5292    5225.4761     7061.662   -5010.0691    83.212438 
   45400    640.98464   -110.59933   0.57997637   -110.01935   -4022.4218     4.373328     4.373328     4.373328   -4022.4218   -1170.5981     192.6214   -11089.289   -8439.6996    3721.7503   -518.16856    83.644263 
   45500     416.8107   -110.39762   0.37713908   -110.02048   -10190.026    4.3767046    4.3767046    4.3767046   -10190.026   -676.68396   -18965.396   -10927.999    15931.766   -5657.2142   -2855.0681    83.838154 
   45600    669.13086     -110.622   0.60544367   -110.01655    10390.124    4.3635615    4.3635615    4.3635615    10390.124    36207.707   -5007.8384   -29.497381    298.74456    2090.9011     -3677.25     83.08513 
   45700    555.84563   -110.52288    0.5029408   -110.01994   -2569.1574    4.3767067    4.3767067    4.3767067   -2569.1574    9250.7711   -9416.7197   -7541.5236    2067.7261   -2341.5539    1751.8276    83.838275 
   45800    726.72473   -110.67624    0.6575558   -110.01868   -9612.6152     4.369048     4.369048     4.369048   -9612.6152   -10808.737   -11574.985   -6454.1239    16919.842    -2469.015   -5313.1367    83.398923 
   45900    651.73823   -110.60856   0.58970645   -110.01885    3190.4442    4.3687587    4.3687587    4.3687587    3190.4442    12210.837   -1567.6107   -1071.8939   -8933.1181    6065.8601    2440.2627    83.382359 
   46000    433.04026   -110.41338   0.39182393   -110.02156    -5059.919    4.3734512    4.3734512    4.3734512    -5059.919    15866.926   -10214.268   -20832.415    1617.7256   -4828.7006   -2671.1746    83.651333 
   46100     426.8022   -110.40808    0.3861796    -110.0219    1524.5129    4.3712134    4.3712134    4.3712134    1524.5129    25192.628   -10607.227   -10011.862    11395.991   -2738.5155   -1783.0875    83.522988 
   46200    875.27385    -110.8083   0.79196617   -110.01634   -1328.6152    4.3704649    4.3704649    4.3704649   -1328.6152    1272.2859   -974.54704   -4283.5845   -3082.4258   -373.79479    4877.5722    83.480091 
   46300    577.11359   -110.54124   0.52218451   -110.01905   -4520.4298    4.3753289    4.3753289    4.3753289   -4520.4298   -3750.6726   -6847.0452   -2963.5717    5991.0134    719.87564   -2990.1336    83.759124 
   46400    589.36608   -110.55185   0.53327082   -110.01858   -1062.3494    4.3688281    4.3688281    4.3688281   -1062.3494     20758.09   -15475.512   -8469.6262    3026.3843    3584.9471    4333.1838    83.386335 
   46500     474.7521   -110.44798   0.42956568   -110.01842     17839.99    4.3671852    4.3671852    4.3671852     17839.99    48515.579   -152.54074    5156.9328    -9287.099    4397.7173    2375.6963    83.292295 
   46600    537.57523   -110.50669   0.48640936   -110.02028   -14698.099    4.3789555    4.3789555    4.3789555   -14698.099   -4421.6953   -12641.832    -27030.77    4034.5466   -3063.9002   -2863.5448    83.967575 
   46700    665.04829   -110.61862   0.60174967   -110.01687    3529.4342    4.3662122    4.3662122    4.3662122    3529.4342     10867.65    6334.2385   -6613.5854    10456.417   -2841.3626    554.01354    83.236637 
   46800    863.57584   -110.79691   0.78138157   -110.01553   -6699.3668     4.375552     4.375552     4.375552   -6699.3668    1339.7537   -3059.4843    -18378.37    635.05045    5229.3122   -2090.0409    83.771936 
   46900    347.72693   -110.33462   0.31463063   -110.01999    3864.5608    4.3727405    4.3727405    4.3727405    3864.5608    32831.733   -7674.1448   -13563.906    6594.9273   -4401.0462    -1636.892    83.610555 
   47000    614.00337   -110.57168   0.55556315   -110.01611   -1975.6937    4.3688414    4.3688414    4.3688414   -1975.6937    23452.272   -13401.625   -15977.729    2185.2469    6360.5471   -389.25933    83.387091 
   47100    653.19474   -110.60648   0.59102433   -110.01546   -2417.3608    4.3739381    4.3739381    4.3739381   -2417.3608   -876.29166   -4625.9203   -1749.8704   -6087.4741    4352.8484   -760.83622    83.679274 
   47200    527.10809   -110.49812   0.47693848   -110.02118   -1404.2238    4.3677329    4.3677329    4.3677329   -1404.2238    5168.7898    332.66005   -9714.1212     11750.61   -9108.7751    390.98207    83.323638 
   47300    612.02517   -110.57548   0.55377324   -110.02171    911.15187    4.3763422    4.3763422    4.3763422    911.15187    19258.979   -5191.3684   -11334.155    2626.2525    712.50151    837.06437    83.817327 
   47400    737.77156   -110.68464   0.66755121   -110.01709    8456.9402    4.3666221    4.3666221    4.3666221    8456.9402    31943.374    2922.4737   -9495.0275    3135.8157    -2865.953   -212.46536    83.260082 
   47500    331.08232   -110.32396   0.29957024   -110.02439   -4223.6078    4.3713665    4.3713665    4.3713665   -4223.6078    13860.671    -10675.13   -15856.363    6579.1833   -3095.5458    506.92229    83.531764 
   47600    826.72071   -110.76648   0.74803427   -110.01844    -13785.93    4.3740268    4.3740268    4.3740268    -13785.93     1193.386   -19386.724   -23164.453   -1129.0198   -102.20904    4264.4786    83.684367 
   47700    661.09013   -110.61584   0.59816824   -110.01767    5105.4265    4.3697779    4.3697779    4.3697779    5105.4265    14703.272   -3063.2673    3676.2744   -2289.0209   -4485.8455   -1020.6142    83.440728 
   47800    374.06057   -110.36151   0.33845787   -110.02305    -4700.443    4.3715342    4.3715342    4.3715342    -4700.443    31286.931   -22528.438   -22859.822    8965.5936   -6854.7632    3507.2709    83.541378 
   47900    693.74685   -110.64691   0.62771673    -110.0192    9706.9846    4.3692352    4.3692352    4.3692352    9706.9846    24363.251   -1635.6242    6393.3271    1181.8591    374.37734    4011.1275    83.409646 
   48000    698.31774   -110.65233   0.63185257   -110.02048     -8389.64    4.3743648    4.3743648    4.3743648     -8389.64    1506.0632   -10214.039   -16460.944    3393.6448   -2142.2126   -1717.3976    83.703766 
   48100    361.83008   -110.34928   0.32739146   -110.02189   -8619.6737    4.3708579    4.3708579    4.3708579   -8619.6737   -1958.4817   -6547.1535   -17353.386    5115.6074    -1912.215    4897.7896    83.502613 
   48200    852.00528   -110.78787   0.77091229   -110.01696   -888.75093    4.3705782    4.3705782    4.3705782   -888.75093    24114.763   -8504.3415   -18276.675    1422.2967    5231.0573    -2491.767    83.486585 
   48300    508.09706   -110.48112    0.4597369   -110.02138    12318.943    4.3700728    4.3700728    4.3700728    12318.943    36867.556    1377.3719   -1288.0988    353.12863   -5868.0029   -1344.0995    83.457625 
   48400    523.85966   -110.49619   0.47399923   -110.02219   -7671.6433    4.3737833    4.3737833    4.3737833   -7671.6433    8605.0195    -16219.48   -15400.469    14173.911   -5431.4324    4442.0376    83.670387 
   48500    767.87455   -110.70944   0.69478903   -110.01465    4205.6818    4.3717356    4.3717356    4.3717356    4205.6818   -1855.3271   -35.329348    14507.702   -2432.3832    1803.2904   -1081.0746    83.552927 
   48600    582.08156   -110.54585   0.52667962   -110.01918   -5096.5861    4.3688047    4.3688047    4.3688047   -5096.5861   -3793.8942   -2920.4467   -8575.4174    389.81281   -3724.3904    7002.5744    83.384995 
   48700    334.33396   -110.32592   0.30251239   -110.02341   -3011.3575    4.3764144    4.3764144    4.3764144   -3011.3575    16587.493    -8869.608   -16751.957    4845.0909    3447.9852   -234.68514     83.82148 
   48800    786.33742   -110.72579   0.71149462    -110.0143     7774.353    4.3701608    4.3701608    4.3701608     7774.353     43522.69   -1252.6972   -18946.934   -10200.959    2403.0232    1939.7368    83.462663 
   48900    541.08549    -110.5091   0.48958552   -110.01952    3761.7302    4.3707771    4.3707771    4.3707771    3761.7302    15784.833   -3388.8093   -1110.8333    5834.8496    -5828.937    3192.5738    83.497984 
   49000    642.71522   -110.59938   0.58154224   -110.01784   -17615.461    4.3751272    4.3751272    4.3751272   -17615.461   -18630.026   -20285.491   -13930.865    8227.3637    -5049.549   -4197.2334    83.747537 
   49100     721.6802   -110.66654   0.65299141   -110.01355    283.06843    4.3706643    4.3706643    4.3706643    283.06843   -481.77587   -6448.0548     7779.036   -3297.0369    1067.3879     3470.895    83.491519 
   49200    469.19889   -110.44256   0.42454101   -110.01802   -5389.3985    4.3729035    4.3729035    4.3729035   -5389.3985    17164.075    -18928.95   -14403.321    8078.2147   -2480.9934    -2873.162    83.619908 
   49300    417.49118   -110.39795   0.37775479    -110.0202    7045.4268    4.3685005    4.3685005    4.3685005    7045.4268    34658.034   -2421.8988   -11099.854    145.86193    2138.3074    796.90056    83.367573 
   49400    900.53675   -110.83243   0.81482458    -110.0176   -6147.0066    4.3743146    4.3743146    4.3743146   -6147.0066    6257.4233   -7212.6422   -17485.801    -6616.768    4011.5325   -1340.2336    83.700885 
   49500    539.53943   -110.50771   0.48818662   -110.01953   -266.84143    4.3723262    4.3723262    4.3723262   -266.84143   -1379.8255    2059.1148   -1479.8136    9175.9253   -8020.6164   -429.86358    83.586791 
   49600    562.06272   -110.52729   0.50856616   -110.01872   -6922.6338    4.3715238    4.3715238    4.3715238   -6922.6338    2389.0162   -13468.961   -9687.9567    7779.1412    3744.9524   -73.147526    83.540784 
   49700    566.42164   -110.53046    0.5125102   -110.01794    11801.307    4.3707106    4.3707106    4.3707106    11801.307    33538.039   -3278.4081    5144.2897   -1086.1674    4219.7574   -3545.8719    83.494169 
   49800    549.41548   -110.51729   0.49712268   -110.02016   -4992.5427    4.3739735    4.3739735    4.3739735   -4992.5427    12946.933   -14620.103   -13304.458    8824.0266   -1890.4554    4594.2831    83.681305 
   49900    671.03478   -110.62497   0.60716637    -110.0178   -5040.3986    4.3699516    4.3699516    4.3699516   -5040.3986   -6741.7616   -5632.9342   -2746.5002    1363.3749    8010.8951   -1986.3809    83.450679 
   50000     820.0437   -110.75908   0.74199278   -110.01709   -3355.6435    4.3719955    4.3719955    4.3719955   -3355.6435    9341.1445   -14573.833   -4834.2425   -8365.3828   -4898.9408    5419.5107    83.567831 
   50100     320.3669   -110.31131    0.2898747   -110.02144    3559.5467    4.3741466    4.3741466    4.3741466    3559.5467    16941.039     180.4628   -6442.8617    12828.048    -9296.837      1859.22    83.691243 
   50200    577.66882   -110.53921   0.52268689   -110.01653    4891.1915    4.3701555    4.3701555    4.3701555    4891.1915     23147.61    -203.2967   -8270.7383   -1607.3959    3895.4268   -882.86591    83.462363 
   50300    709.05691   -110.65656   0.64156959   -110.01499    340.05577    4.3735764    4.3735764    4.3735764    340.05577    1535.4309    1872.8648   -2388.1284    1741.4053   -1709.7006    3964.2236    83.658516 
   50400    608.38969   -110.56937   0.55048378   -110.01889   -4491.7454    4.3677901    4.3677901    4.3677901   -4491.7454   -10061.477   -963.05935   -2450.7002    8082.2198   -4714.9645   -5167.9174    83.326912 
   50500    598.06982   -110.56037   0.54114614   -110.01922   -4092.3517     4.376631     4.376631     4.376631   -4092.3517    12811.393   -13863.602   -11224.846   -4926.0918    7979.3931    1995.8988    83.833926 
   50600    575.30414   -110.53751   0.52054727   -110.01697    4257.7074    4.3697389    4.3697389    4.3697389    4257.7074    33757.177   -17409.387   -3574.6681     6317.938   -6611.8897   -4437.1086    83.438496 
   50700    461.38611   -110.43702   0.41747185   -110.01955    4357.5111    4.3687565    4.3687565    4.3687565    4357.5111    7136.6684    2518.6195    3417.2456    10842.819   -5845.7917    -774.1872    83.382233 
   50800    837.11212   -110.77247   0.75743664   -110.01504   -16570.617    4.3797823    4.3797823    4.3797823   -16570.617   -18395.615   -8354.6551   -22961.581   -135.16359    13585.871    1203.0638    84.015144 
   50900    605.60841   -110.56378   0.54796722   -110.01581    9680.4369    4.3651884    4.3651884    4.3651884    9680.4369    10834.706    10868.751    7337.8537    5621.5266   -6215.7235    -1390.566    83.178097 
   51000    454.17398    -110.4311   0.41094616   -110.02016   -768.58517    4.3735601    4.3735601    4.3735601   -768.58517    20326.121   -12455.657    -10176.22    1280.1221    2250.0938    1229.8632    83.657578 
   51100    574.99681   -110.53718    0.5202692   -110.01691    -1825.991    4.3750723    4.3750723    4.3750723    -1825.991     21504.23   -13811.853    -13170.35   -5057.5412    8527.3572   -2934.9831    83.744388 
   51200    680.98089   -110.63326   0.61616582   -110.01709   -2950.4791    4.3670013    4.3670013    4.3670013   -2950.4791   -3657.3937   -7314.7964    2120.7527    4337.1768   -11711.471    2801.5195    83.281773 
   51300    586.77699    -110.5486   0.53092815   -110.01768   -10905.411    4.3765703    4.3765703    4.3765703   -10905.411   -19586.874   -932.39619   -12196.964     8810.203    9252.7826   -3023.6782    83.830438 
   51400    689.46094   -110.63925   0.62383874   -110.01541     3369.224    4.3678152    4.3678152    4.3678152     3369.224     22324.65     2492.732    -14709.71   -3431.6553    8110.4893    2753.1753     83.32835 
   51500    458.14841   -110.43463   0.41454231   -110.02009    10177.121    4.3718155    4.3718155    4.3718155    10177.121    29345.024    525.54447    660.79585    5598.7026   -8312.1274    1103.9887    83.557507 
   51600    579.62645   -110.54173   0.52445819   -110.01727    -9423.858    4.3771499    4.3771499    4.3771499    -9423.858   -490.03864   -15758.902   -12022.634    -1199.458    9163.8494   -297.43539    83.863749 
   51700     762.5642   -110.70257   0.68998412   -110.01258   -2427.4892    4.3672835    4.3672835    4.3672835   -2427.4892    997.34035   -6925.9423   -1353.8656   -3891.0807    188.88384    3974.3865    83.297917 
   51800    607.47609    -110.5662   0.54965713   -110.01654   -5954.7668    4.3755857    4.3755857    4.3755857   -5954.7668    6052.3071    -13954.17   -9962.4379    11574.063   -8859.1798   -3761.0377    83.773873 
   51900    488.05641    -110.4609    0.4416037    -110.0193    4129.8385     4.373569     4.373569     4.373569    4129.8385    26205.594    2890.9297   -16707.008     1540.501    15695.842    2356.8587    83.658091 
   52000    645.75203   -110.59846   0.58429001   -110.01417    8841.0213    4.3666531    4.3666531    4.3666531    8841.0213    27560.096    3582.5568    -4619.589    8758.1238    4935.5424   -5853.9555    83.261853 
   52100    532.28135   -110.49892   0.48161935    -110.0173   -9466.2163    4.3785334    4.3785334    4.3785334   -9466.2163   -18214.586   -8073.1408   -2110.9218    7954.0411    -4808.759   -2986.0543    83.943295 
   52200    586.53137   -110.54697   0.53070591   -110.01626    2484.9712    4.3676096    4.3676096    4.3676096    2484.9712    60.735208    8553.4132   -1159.2348   -3436.4172    14973.207   -2641.0665    83.316581 
   52300    600.82233   -110.56126   0.54363667   -110.01762    5811.9355    4.3697503    4.3697503    4.3697503    5811.9355    29400.636   -11836.677   -128.15265    1715.7914   -7036.3795   -3185.2121    83.439151 
   52400    517.65361   -110.48781   0.46838386   -110.01943   -8678.1076    4.3782728    4.3782728    4.3782728   -8678.1076    4290.2206   -14500.661   -15823.883    3446.5133    491.14352    915.62757    83.928306 
   52500    722.62393   -110.66977   0.65384532   -110.01592     3021.403    4.3619025    4.3619025    4.3619025     3021.403    6917.4402    10538.415    -8391.646    1092.7925    20261.345   -1612.8401    82.990399 
   52600    708.88218   -110.65888    0.6414115   -110.01747   -17382.232     4.379867     4.379867     4.379867   -17382.232   -11207.419   -25317.074   -15622.204    2100.9187   -8567.4133    3087.3842    84.020018 
   52700    394.42171   -110.37617   0.35688105   -110.01929    3295.4134    4.3698504    4.3698504    4.3698504    3295.4134    17212.114   -11104.191    3778.3171    5034.7715    2319.4784   -1464.0023    83.444885 
   52800    584.40242   -110.54564   0.52877959   -110.01686    12170.996    4.3641111    4.3641111    4.3641111    12170.996    33791.204    11419.339    -8697.556   -3764.8482    10880.203    1804.0749    83.116529 
   52900    668.76812   -110.62193   0.60511545   -110.01682   -9211.7579    4.3806686    4.3806686    4.3806686   -9211.7579   -2053.0353   -17951.426   -7630.8126   -1278.5328   -7597.6038    1347.2693     84.06616 
   53000    692.74485   -110.64275    0.6268101   -110.01594   -387.92127     4.366077     4.366077     4.366077   -387.92127   -7644.9793    12214.489   -5733.2733    4773.8448    11111.207    1660.0629    83.228902 
   53100    659.26605    -110.6131   0.59651777   -110.01658    -4201.543    4.3712784    4.3712784    4.3712784    -4201.543    7063.6753    -1896.559   -17771.745   -3043.7795    10413.996    3134.5413    83.526714 
   53200    397.28871   -110.37741   0.35947517   -110.01793   -2673.6755    4.3763192    4.3763192    4.3763192   -2673.6755    28026.788   -27936.989   -8110.8257    7972.7649   -11223.377   -1531.9412     83.81601 
   53300    462.45678   -110.43604   0.41844061    -110.0176    2764.5839    4.3679071    4.3679071    4.3679071    2764.5839    13583.563   -6033.1882    743.37729    102.09535    8536.7704    1253.4113    83.333609 
   53400    773.77128   -110.71623   0.70012452   -110.01611   -2777.6936    4.3704344    4.3704344    4.3704344   -2777.6936   -8330.2338    5402.4821   -5405.3292    -812.9724     9669.752   -3242.1152    83.478345 
   53500    707.76638   -110.65935    0.6404019   -110.01895   -5221.5338    4.3758916    4.3758916    4.3758916   -5221.5338   -4854.0357   -14840.168    4029.6028    4532.5299   -3225.2764   -3527.4687    83.791444 
   53600    574.93162   -110.53904   0.52021021   -110.01883    5993.5131    4.3677157    4.3677157    4.3677157    5993.5131    24851.601    10950.929   -17821.991   -1301.6702    16451.685   -2298.2458     83.32265 
   53700    496.49044   -110.46755   0.44923498   -110.01832   -453.96135    4.3734609    4.3734609    4.3734609   -453.96135    25241.662    -18831.24   -7772.3063    4478.0405     1173.532   -353.40602    83.651887 
   53800    590.04366   -110.55055    0.5338839   -110.01667   -12638.715    4.3745149    4.3745149    4.3745149   -12638.715   -4229.6033   -27952.375   -5734.1671    5718.3719   -6768.4462   -1686.7607    83.712384 
   53900    662.61915   -110.61577   0.59955174   -110.01621   -1680.2681    4.3672275    4.3672275    4.3672275   -1680.2681   -1728.8478   -505.78219   -2806.1744    66.430029    15248.563    3230.5869    83.294717 
   54000    634.94706   -110.59201   0.57451345    -110.0175    1630.7624    4.3762642    4.3762642    4.3762642    1630.7624     22660.59    -7431.898   -10336.405   -3089.4572     3002.891    3714.5022    83.812845 
   54100    522.31847    -110.4905   0.47260472    -110.0179    9751.2351    4.3695996    4.3695996    4.3695996    9751.2351    30219.109   -5488.6951    4523.2911   -1887.9554    243.73888    -1164.943    83.430515 
   54200    613.75616   -110.57376   0.55533947   -110.01842   -304.71603    4.3677463    4.3677463    4.3677463   -304.71603     614.9258    12690.573   -14219.647   -481.24415    14641.856    5490.1401    83.324403 
   54300    611.45941   -110.57075   0.55326132   -110.01748   -7332.7089     4.376503     4.376503     4.376503   -7332.7089   -7572.4012   -17848.448    3422.7229   -3137.2165   -4802.4262     499.7437    83.826567 
   54400    585.28762   -110.54801   0.52958054   -110.01843    -5500.866    4.3697635    4.3697635    4.3697635    -5500.866     11040.03   -15644.592   -11898.035    4065.9882    2250.5995    2823.1234    83.439905 
   54500    533.00466   -110.50263   0.48227382   -110.02036     8778.867    4.3663559    4.3663559    4.3663559     8778.867    31517.844    1681.8482   -6863.0916   -4344.5826    13225.469    584.60959    83.244856 
   54600    686.50541   -110.63888   0.62116453   -110.01772   -7945.6913    4.3798704    4.3798704    4.3798704   -7945.6913    3976.0282   -14024.825   -13788.277   -5488.7539     777.6127    1311.2636    84.020211 
   54700    646.12697    -110.6005   0.58462926   -110.01587    801.34574    4.3661699    4.3661699    4.3661699    801.34574   -8806.8369    6608.4891     4602.385    3479.4148    4930.6567    3683.6532    83.234216 
   54800    550.45814    -110.5159   0.49806609   -110.01783    4915.2912    4.3694198    4.3694198    4.3694198    4915.2912    8510.8033    10117.014   -3881.9437   -2944.9209     7010.438   -1244.6152    83.420219 
   54900    512.38619   -110.48034    0.4636178   -110.01672   -748.08776    4.3793681    4.3793681    4.3793681   -748.08776    15827.509   -15461.732   -2610.0403    5384.0599   -7927.0528     1983.941    83.991308 
   55000    562.41392   -110.52368   0.50888394   -110.01479    13084.046     4.361906     4.361906     4.361906    13084.046    33321.258    11494.268   -5563.3885     5229.446     5734.056   -3153.3323    82.990601 
   55100    669.33498   -110.62283   0.60562835   -110.01721   -11209.325    4.3766644    4.3766644    4.3766644   -11209.325   -10336.689   -6409.0959   -16882.191   -2891.6934    9738.7125   -1471.7153    83.835846 
   55200    781.41361    -110.7219   0.70703945   -110.01486   -8356.8852    4.3699942    4.3699942    4.3699942   -8356.8852   -8316.8103   -7246.5512    -9507.294   -4387.8224   -3104.6149   -4403.5362    83.453122 
   55300    509.62989   -110.47777   0.46112383   -110.01664    3708.9743     4.369678     4.369678     4.369678    3708.9743        13369   -2979.2929    737.21555   -905.76311    5480.4929   -441.25759    83.435008 
   55400    464.26832    -110.4372   0.42007973   -110.01712    2784.7389    4.3755178    4.3755178    4.3755178    2784.7389    18484.373   -6057.2024   -4072.9536   -593.36594    909.60859    2846.0294    83.769969 
   55500    611.76373   -110.56819   0.55353668   -110.01465    12191.338    4.3651972    4.3651972    4.3651972    12191.338    19142.682    4715.2987    12716.032   -2177.7928   -7462.3582      589.373      83.1786 
   55600    653.22773   -110.60847   0.59105417   -110.01742   -7201.2064    4.3747001    4.3747001    4.3747001   -7201.2064   -17404.609    12303.681   -16502.692     3356.275    10939.234     8213.588    83.723015 
   55700    652.87065   -110.60746   0.59073108   -110.01672   -3416.9032     4.369566     4.369566     4.369566   -3416.9032   -5510.4902    4829.8661   -9570.0854   -11512.287    5252.4831    2661.5632    83.428589 
   55800    551.85163   -110.51613   0.49932695   -110.01681    168.97112    4.3724027    4.3724027    4.3724027    168.97112    25421.614   -8525.5805   -16389.121     -6224.75    1811.6758    2110.2992    83.591183 
   55900     482.1466   -110.45305   0.43625637   -110.01679     2931.101    4.3713158    4.3713158    4.3713158     2931.101    27015.033   -9511.2976   -8710.4327   -1629.0219    9246.6413    2125.6293    83.528857 
   56000     660.5231   -110.61351   0.59765518   -110.01586   -216.62921     4.370857     4.370857     4.370857   -216.62921    956.82657   -1214.4163   -392.29791   -9137.9863   -2584.3255   -1404.2838    83.502561 
   56100    800.51085   -110.73996   0.72431904   -110.01564   -1624.3748     4.372002     4.372002     4.372002   -1624.3748    -4222.437   -1858.0855    1207.3981    5419.6195    2410.7991     1099.762    83.568204 
   56200    537.19577   -110.50453   0.48606602   -110.01847    7824.8205    4.3677451    4.3677451    4.3677451    7824.8205    19175.245    15353.537   -11054.321    -4356.492    11763.238   -3492.1627    83.324334 
   56300    455.26607   -110.43153   0.41193431    -110.0196    2241.9418    4.3735282    4.3735282    4.3735282    2241.9418    26249.041   -7106.1127   -12417.103   -8449.3275    972.44077    -768.1415    83.655751 
   56400    628.20775   -110.58446   0.56841557   -110.01604    1360.8165    4.3692127    4.3692127    4.3692127    1360.8165    18377.135   -4096.0788   -10198.607    1796.3762    6657.1894   -1598.8514    83.408355 
   56500    630.20329   -110.58871   0.57022118   -110.01849   -12352.225    4.3713103    4.3713103    4.3713103   -12352.225   -19125.969   -9916.9702   -8013.7365   -3629.1242     7004.711   -2370.8637    83.528543 
   56600    653.53489   -110.61005    0.5913321   -110.01871    5777.4772    4.3693528    4.3693528    4.3693528    5777.4772    17275.092   -1969.1394    2026.4787   -5214.3611   -7684.3121   -2251.1934    83.416381 
   56700    632.55156   -110.58936   0.57234595   -110.01702    2830.1123    4.3746232    4.3746232    4.3746232    2830.1123    24204.192   -1475.4546     -14238.4    2577.4781    5967.9533   -3218.0196    83.718599 
   56800    465.06447   -110.43831   0.42080011   -110.01751   -1070.8596    4.3708357    4.3708357    4.3708357   -1070.8596    6892.0332   -1556.5143   -8548.0977   -9802.0533    9376.7446     510.9605    83.501343 
   56900     743.2391   -110.68626   0.67249836   -110.01376   -3603.7529    4.3699829    4.3699829    4.3699829   -3603.7529    2633.3538    -7289.143   -6155.4696   -14090.998   -2008.2282   -1760.9605    83.452473 
   57000    685.83641   -110.63527    0.6205592   -110.01471   -12115.938    4.3762803    4.3762803    4.3762803   -12115.938   -7746.1173   -11294.034   -17307.663    2705.0284      13665.9    2394.4808    83.813773 
   57100    444.76771   -110.42107   0.40243517   -110.01863    8125.7326     4.365167     4.365167     4.365167    8125.7326    32393.476   -7416.8804   -599.39826   -8730.3249   -653.51454    3323.9132    83.176871 
   57200    610.63348   -110.57093   0.55251401   -110.01842     4518.947    4.3730098    4.3730098    4.3730098     4518.947    16162.702   -179.95797   -2425.9027    -4615.871   -5405.7469    3101.0944    83.626007 
   57300    659.62104   -110.61482   0.59683898   -110.01798   -1346.2413    4.3703259    4.3703259    4.3703259   -1346.2413   -5785.5844    11218.066   -9471.2055    5031.5194     13637.67    4046.3184    83.472123 
   57400    503.33349   -110.47476   0.45542672   -110.01933   -1236.0074    4.3720941    4.3720941    4.3720941   -1236.0074   -5205.3946   -30.850821    1528.2232   -16909.899    740.53415   -286.95789    83.573482 
   57500    683.72345   -110.63467   0.61864735   -110.01602    2105.5727    4.3709647    4.3709647    4.3709647    2105.5727    26791.703   -10929.091    -9545.894   -4626.7023    6198.0323    694.27702    83.508733 
   57600    517.69381   -110.48748   0.46842024   -110.01906    1666.2866    4.3712246    4.3712246    4.3712246    1666.2866    31657.664   -13113.205   -13545.599    916.53089    11328.242    -2732.498     83.52363 
   57700    659.28724   -110.61424   0.59653695    -110.0177   -12848.335    4.3735621    4.3735621    4.3735621   -12848.335   -6894.0861   -19826.287   -11824.632   -9928.0991   -6741.8977   -2420.0199    83.657695 
   57800    838.83087   -110.77274    0.7589918   -110.01375   -2409.2985    4.3673689    4.3673689    4.3673689   -2409.2985   -1933.0116    1735.1767   -7030.0605    4845.9825    1453.9082   -525.98399    83.302805 
   57900    465.41652   -110.43993   0.42111865   -110.01881   -5285.7651    4.3753873    4.3753873    4.3753873   -5285.7651    16981.257   -10077.124   -22761.429    -4860.184     9001.227   -1873.4961    83.762474 
   58000     377.8903   -110.36143   0.34192309    -110.0195    17595.172    4.3650645    4.3650645    4.3650645    17595.172    38197.338   -2932.6646    17520.843   -14971.246   -3147.1513   -1140.2563    83.171012 
   58100    775.76182    -110.7186    0.7019256   -110.01667   -4976.5603    4.3749645    4.3749645    4.3749645   -4976.5603    3032.5588    -4717.307   -13244.933    348.45391     5522.068   -1941.6915    83.738193 
   58200    632.88473   -110.59151    0.5726474   -110.01886    -2884.552     4.369726     4.369726     4.369726    -2884.552   -3451.8915   -6936.6732    1734.9086   -4457.3823    6585.5278    201.92979    83.437758 
   58300    652.54738   -110.61036   0.59043858   -110.01992    3536.6255    4.3674076    4.3674076    4.3674076    3536.6255    21438.605   -7110.6781   -3718.0501   -10095.837   -10792.688   -1250.1691    83.305023 
   58400    518.72568   -110.48732   0.46935389   -110.01797    2483.4099    4.3753926    4.3753926    4.3753926    2483.4099    33765.829    -7414.862   -18900.737    7159.5788    8528.6395   -1681.8305    83.762782 
   58500    581.97636   -110.54416   0.52658444   -110.01758    -9610.566     4.367833     4.367833     4.367833    -9610.566   -4116.0787   -12927.386   -11788.233   -10170.184    6790.2135   -1657.2051    83.329368 
   58600    647.41319   -110.60359   0.58579306    -110.0178   -4881.9477    4.3704372    4.3704372    4.3704372   -4881.9477   -10668.664   -13242.443    9265.2644   -12421.982   -6118.3016    191.79072    83.478501 
   58700    701.68209   -110.65199    0.6348967   -110.01709    1022.8074    4.3733192    4.3733192    4.3733192    1022.8074    21046.632   -3834.2676   -14143.942    10454.885    11407.712     1859.668    83.643757 
   58800    479.07475   -110.45229    0.4334769   -110.01882    7196.7489    4.3710466    4.3710466    4.3710466    7196.7489    26839.917   -7680.2513    2430.5807   -7239.4489   -4086.0735    158.92959    83.513426 
   58900    632.50926   -110.58908   0.57230767   -110.01677    3877.5662    4.3679425    4.3679425    4.3679425    3877.5662    10338.889    5286.7865   -3992.9774    2877.5297   -6776.3648    5371.6458    83.335635 
   59000    569.75218   -110.53156   0.51552375   -110.01604    -13277.47     4.377599     4.377599     4.377599    -13277.47    -19342.24   -3399.9756   -17090.195    6606.7186    10940.719    2504.6235     83.88956 
   59100     536.8606   -110.50223   0.48576275   -110.01647     -3335.28    4.3651904    4.3651904    4.3651904     -3335.28    2339.8411   -8996.4766   -3349.2046   -17390.084   -5517.0656     242.8323    83.178209 
   59200     488.7163   -110.46247   0.44220077   -110.02027    13223.234    4.3686062    4.3686062    4.3686062    13223.234    41936.356   -7625.6271    5358.9724    4056.3324    753.99851    1545.5635    83.373627 
   59300    762.83302   -110.70864   0.69022734   -110.01841   -6795.8323    4.3774243    4.3774243    4.3774243   -6795.8323    12281.715   -14703.266   -17965.946    5631.6654    2098.6577   -4607.5763    83.879517 
   59400    760.41115   -110.70385   0.68803599   -110.01582    2126.0321    4.3661482    4.3661482    4.3661482    2126.0321    1816.0998   -1311.0436    5873.0402   -8388.0136   -8406.9732   -1800.2962    83.232974 
   59500    609.61118   -110.56802     0.551589   -110.01643   -9783.6999    4.3764316    4.3764316    4.3764316   -9783.6999   -2300.3302   -11528.393   -15522.377    7345.8633   -2769.2596   -3283.3283    83.822468 
   59600    452.26226   -110.42567    0.4092164   -110.01646    6856.4766    4.3678287    4.3678287    4.3678287    6856.4766    40185.959    -11722.21   -7894.3199   -3236.5272    3266.7676   -2704.4732    83.329121 
   59700    515.59819   -110.48464   0.46652408   -110.01812   -1341.7786    4.3728708    4.3728708    4.3728708   -1341.7786    14556.713   -10953.105   -7628.9439   -16373.249    -3073.674   -551.75815    83.618032 
   59800    696.03672   -110.64641   0.62978865   -110.01662   -1747.4762    4.3701938    4.3701938    4.3701938   -1747.4762   -6240.8972   -1337.2382    2335.7068    9039.2554    607.91849   -1280.4618    83.464558 
   59900    777.46774   -110.71984   0.70346915   -110.01637    974.43303    4.3690429    4.3690429    4.3690429    974.43303    3226.4873    3262.2802   -3565.4685    3726.4864    3289.2251   -29.856963    83.398633 
   60000    494.47145   -110.46586   0.44740816   -110.01845   -240.84013    4.3759445    4.3759445    4.3759445   -240.84013    13603.733   -9741.3211   -4584.9324   -5189.0689    -10385.15   -1187.7557    83.794479 
   60100    446.65084   -110.42193   0.40413906   -110.01779    11874.467    4.3641344    4.3641344    4.3641344    11874.467    33243.458    -4547.378    6927.3198    14742.277    2965.3379    1187.3247    83.117862 
   60200      653.804   -110.60881    0.5915756   -110.01723   -11674.156    4.3749333    4.3749333    4.3749333   -11674.156    -735.9704   -22446.244   -11840.252   -7121.6823     5192.116   -4035.3959    83.736404 
   60300    676.69695   -110.63011   0.61228962   -110.01782   -11354.331    4.3720702    4.3720702    4.3720702   -11354.331   -12047.954   -18033.246   -3981.7926    -5045.453   -7006.3138    3043.8828    83.572112 
   60400    638.71838   -110.59776   0.57792581   -110.01984    8917.5686    4.3658081    4.3658081    4.3658081    8917.5686    30330.952   -6522.5648    2944.3184    14813.981    4272.9842   -981.32913    83.213527 
   60500    628.37688   -110.58623    0.5685686   -110.01766    2745.6865    4.3776049    4.3776049    4.3776049    2745.6865    34276.324   -12397.036   -13642.228   -2056.1703   -8312.1319   -2868.5475      83.8899 
   60600    533.45359    -110.4996   0.48268002   -110.01692    6533.3782     4.367249     4.367249     4.367249    6533.3782    11933.409   -697.71168    8364.4369    5819.7484   -10845.138    6618.3266    83.295943 
   60700    515.40094   -110.48382    0.4663456   -110.01748    -2675.849    4.3707605    4.3707605    4.3707605    -2675.849   -9133.7531   -8101.6413    9207.8475    9141.3264    941.51759   -5920.7532    83.497029 
   60800    648.23362    -110.6041    0.5865354   -110.01757   -5637.9166    4.3727176    4.3727176    4.3727176   -5637.9166   -1500.3387   -14078.785   -1334.6263   -10486.037   -2464.6244    76.240587    83.609242 
   60900    534.45458   -110.50361   0.48358574   -110.02002     4272.134    4.3681891    4.3681891    4.3681891     4272.134    22820.975   -14984.091    4979.5178     2869.543    1553.7574   -1576.5131    83.349747 
   61000    633.21595   -110.59168    0.5729471   -110.01873   -2487.5535    4.3757126    4.3757126    4.3757126   -2487.5535    28869.345   -24985.494   -11346.512     9070.919   -451.61144   -8923.8069     83.78116 
   61100    850.42474   -110.78247   0.76948218   -110.01299    324.76025    4.3681724    4.3681724    4.3681724    324.76025    12258.645   -8552.8342   -2731.5305   -456.75256   -1720.5178   -544.43664    83.348792 
   61200    528.86584   -110.49711   0.47852892   -110.01858   -6278.0879    4.3698041    4.3698041    4.3698041   -6278.0879   -11197.145   -12282.382    4645.2631    7731.0519   -6561.1435   -1882.6629    83.442229 
   61300    389.22464    -110.3746   0.35217863   -110.02243   -1826.1692    4.3731973    4.3731973    4.3731973   -1826.1692    15521.412   -17725.543   -3274.3765    4338.2543     5632.346   -5613.3291    83.636761 
   61400    635.00355   -110.59167   0.57456456    -110.0171    14465.884    4.3657073    4.3657073    4.3657073    14465.884    42129.589    1001.0289     267.0332   -10393.426   -2455.7857    2502.6708    83.207762 
   61500    468.99786   -110.44824   0.42435912   -110.02388   -2535.5493    4.3741378    4.3741378    4.3741378   -2535.5493    17405.479   -16038.764   -8973.3626    8174.2158   -925.20287   -1996.1031    83.690734 
   61600    785.73527   -110.72953   0.71094978   -110.01858    -7995.238    4.3708958    4.3708958    4.3708958    -7995.238    1080.5757   -16597.886    -8468.404    6817.9858     2463.119   -5542.9428    83.504783 
   61700    860.42284   -110.79318   0.77852867   -110.01465   -465.77977    4.3676969    4.3676969    4.3676969   -465.77977    10357.651    -10810.72   -944.27042    3302.6801   -5288.2607    1253.5553    83.321575 
   61800    316.78285     -110.309   0.28663178   -110.02237   -10623.217    4.3762852    4.3762852    4.3762852   -10623.217    17188.547   -33001.227   -16056.973    12628.289   -1698.5771   -7602.2563    83.814057 
   61900     482.9076   -110.45644   0.43694495   -110.01949    14494.615    4.3650347    4.3650347    4.3650347    14494.615    36689.493   -9076.5686    15870.922   -672.68436    5809.4386   -1431.3765    83.169309 
   62000    756.28191   -110.70163   0.68429977   -110.01733   -4186.8646    4.3755753    4.3755753    4.3755753   -4186.8646    3465.7554   -6443.5333   -9582.8158   -5772.8729   -7693.9784    1604.4012    83.773272 
   62100    482.27501   -110.45673   0.43637256   -110.02036   -11768.215    4.3724286    4.3724286    4.3724286   -11768.215   -15278.868   -13759.383   -6266.3946    9465.0423    1215.0811   -8767.9461    83.592667 
   62200    792.32626   -110.73419   0.71691345   -110.01728    5782.6312    4.3637368    4.3637368    4.3637368    5782.6312    17905.466   -7745.6018    7188.0295    874.94599   -5161.9907    4942.6619    83.095143 
   62300    603.21857   -110.56424   0.54580484   -110.01843   -5041.0416    4.3801091    4.3801091    4.3801091   -5041.0416    27495.898   -28325.559   -14293.464    4150.2595   -3877.6191   -4514.7911    84.033953 
   62400    369.43433    -110.3548   0.33427195   -110.02053    10198.798    4.3642273    4.3642273    4.3642273    10198.798    50780.281   -18092.257   -2091.6295    11549.711     1807.847   -8413.9085    83.123169 
   62500    753.70551   -110.69943   0.68196859   -110.01746   -1753.9305    4.3721241    4.3721241    4.3721241   -1753.9305   -3854.8553   -11125.319    9718.3824   -3899.7226    7621.9796    2588.8182    83.575205 
   62600    729.76892   -110.67746   0.66031026   -110.01715   -15791.463    4.3764015    4.3764015    4.3764015   -15791.463   -20683.166   -15680.737   -11010.487   -2465.6892    16.979967    -6960.277    83.820735 
   62700    444.38932   -110.42107    0.4020928   -110.01898    9702.9602    4.3644405    4.3644405    4.3644405    9702.9602    32336.933   -14295.012     11066.96     11375.06   -4433.2608   -4337.1106    83.135352 
   62800     643.8217   -110.59936   0.58254341   -110.01682    2356.7038    4.3768818    4.3768818    4.3768818    2356.7038    40531.122   -25874.348   -7586.6628   -3900.0422   -1388.6963    2943.9013    83.848338 
   62900    526.61276   -110.49465   0.47649029   -110.01816    6400.3085    4.3691321    4.3691321    4.3691321    6400.3085    32867.587   -16568.909    2902.2474     5995.421   -6786.6374    -6596.542    83.403739 
   63000    729.57702   -110.67814   0.66013662     -110.018   -5578.2659    4.3664507    4.3664507    4.3664507   -5578.2659   -6458.0017   -8659.5082   -1617.2878    8476.0544   -1089.1784   -2301.2843    83.250278 
   63100    621.37595   -110.58056   0.56223402   -110.01833   -4821.8303    4.3767194    4.3767194    4.3767194   -4821.8303   -8727.3409   -5241.1819   -496.96803   -12215.269    5564.4442    1726.3158    83.839003 
   63200    443.99325   -110.42023   0.40173442    -110.0185     6612.249    4.3678904    4.3678904    4.3678904     6612.249    39279.628    -12073.96   -7368.9218    1128.4414   -7135.2513   -9979.7556    83.332648 
   63300    498.02516   -110.46864   0.45062363   -110.01802    5500.0413    4.3713762    4.3713762    4.3713762    5500.0413    30486.089   -13155.971    -829.9941    4171.5553    1254.2376    3023.8963    83.532321 
   63400    788.84167    -110.7305   0.71376052   -110.01674    -10246.43     4.371811     4.371811     4.371811    -10246.43   -3188.1349    -24054.02   -3497.1333   -9100.6296   -5931.7962   -2256.2633    83.557249 
   63500    685.19989    -110.6378   0.61998326   -110.01782   -1954.5683    4.3707162    4.3707162    4.3707162   -1954.5683    10993.241   -19290.506    2433.5599    8328.3886   -2306.7703   -5299.0227     83.49449 
   63600    680.57776   -110.63354   0.61580106   -110.01773   -1636.7519    4.3727203    4.3727203    4.3727203   -1636.7519     24569.12   -18493.058   -10986.318   -4355.7356    5640.4733    6152.9276    83.609401 
   63700    362.53864   -110.34784   0.32803258   -110.01981    17264.345    4.3665497    4.3665497    4.3665497    17264.345     44119.76   -7320.7728    14994.046   -16070.298    1870.2043   -3214.7954    83.255941 
   63800    618.45898   -110.57647   0.55959468   -110.01688   -14936.377    4.3779739    4.3779739    4.3779739   -14936.377   -11503.292   -15856.279   -17449.561    1038.5662   -1854.7706    1931.6558    83.911115 
   63900    611.65547   -110.56866   0.55343872   -110.01522    1570.9727    4.3660656    4.3660656    4.3660656    1570.9727   -6417.6172    5940.2761    5190.2591   -3047.5338    2093.6548    3199.7604    83.228252 
   64000    617.48575    -110.5779   0.55871408   -110.01918   -1449.3464    4.3713192    4.3713192    4.3713192   -1449.3464    26577.444   -18624.588   -12300.895   -5708.7696    1965.7652   -3171.9264    83.529055 
   64100    574.69621   -110.53881   0.51999721   -110.01882    6277.8056    4.3746067    4.3746067    4.3746067    6277.8056     39168.96   -8172.3848   -12163.158    11667.038   -4812.1069    941.46867    83.717651 
   64200    697.78393   -110.64837   0.63136956     -110.017    2991.8431    4.3640705    4.3640705    4.3640705    2991.8431    16354.969   -8446.5419    1067.1026   -6653.3923    5965.0158   -2841.6837    83.114207 
   64300    496.50885   -110.46712   0.44925164   -110.01787   -19999.898    4.3788326    4.3788326    4.3788326   -19999.898   -30086.396   -25820.393   -4092.9043   -10510.642   -598.65791    -4364.121    83.960499 
   64400    642.24445   -110.59608   0.58111627   -110.01497    1139.1864    4.3658778    4.3658778    4.3658778    1139.1864    16677.573   -7985.4871   -5274.5267    5652.0909   -13648.642    352.65957    83.217511 
   64500    420.82668   -110.40048   0.38077282   -110.01971    12529.837    4.3694388    4.3694388    4.3694388    12529.837    45272.262   -11500.292    3817.5404   -7780.5255    2525.5579   -1519.4986    83.421304 
   64600    692.30623   -110.64536   0.62641323   -110.01895   -7629.2321    4.3766694    4.3766694    4.3766694   -7629.2321    16365.562   -19703.292   -19549.967    -1814.599   -8650.9382   -4618.0288    83.836133 
   64700      843.558   -110.77802   0.76326901   -110.01475    2241.8341    4.3653367    4.3653367    4.3653367    2241.8341    3980.8883    6999.5624   -4254.9483    3068.8238   -3873.6272     1417.547    83.186576 
   64800    502.56261   -110.47434   0.45472921   -110.01961   -9146.4525    4.3731667    4.3731667    4.3731667   -9146.4525    2969.4973   -20893.095   -9515.7596   -19610.809    6162.6299   -3979.3601    83.635006 
   64900    349.50331   -110.33623   0.31623794      -110.02    4361.1757    4.3734811    4.3734811    4.3734811    4361.1757    36721.321   -15588.431   -8049.3634   -3517.6247    -10386.23   -1767.7855    83.653048 
   65000    652.52048   -110.60667   0.59041425   -110.01626    4315.0304    4.3664243    4.3664243    4.3664243    4315.0304     25766.99   -10210.085   -2611.8131   -3601.9543   -5491.8098    2605.6763    83.248769 
   65100     633.9122   -110.59493   0.57357708   -110.02135   -10511.738      4.37277      4.37277      4.37277   -10511.738   -13350.275    -19435.03    1250.0904   -11433.278    2736.7382   -6877.5889     83.61225 
   65200    751.87119   -110.69974   0.68030886   -110.01943   -2005.8032    4.3710649    4.3710649    4.3710649   -2005.8032    18069.091   -10663.973   -13422.528    3806.5702   -5624.4382    5419.9863    83.514478 
   65300    544.79675   -110.51154   0.49294355    -110.0186    7093.4975     4.370079     4.370079     4.370079    7093.4975    40831.221    -12301.42   -7249.3091   -6632.8486    4397.7367   -608.91755     83.45798 
   65400    436.19344   -110.41388   0.39467699   -110.01921   -7584.1795     4.373587     4.373587     4.373587   -7584.1795    6659.5582   -23404.699   -6007.3975   -17490.638    4258.1678   -1686.0498    83.659124 
   65500    699.31236   -110.64756   0.63275252    -110.0148   -3340.5259    4.3674629    4.3674629    4.3674629   -3340.5259   -8470.1516    3364.1052   -4915.5314    1152.0089   -7573.4859    7077.7328    83.308188 
   65600    584.65549   -110.54702   0.52900857   -110.01801   -8267.1794    4.3753389    4.3753389    4.3753389   -8267.1794   -2096.6754   -13787.245   -8917.6175   -2357.9278   -3515.9385   -5080.5009    83.759698 
   65700    494.05262   -110.46709   0.44702919   -110.02006    10300.407    4.3665305    4.3665305    4.3665305    10300.407    39498.374   -2769.4574   -5827.6946   -4395.8806    2682.4915   -222.19598    83.254838 
   65800    697.01447   -110.64904   0.63067334   -110.01837    4742.8763     4.372445     4.372445     4.372445    4742.8763    26391.361   -653.63839   -11509.094    6288.5334   -10118.649   -1082.2479    83.593605 
   65900    630.44213   -110.58801   0.57043729   -110.01757   -9783.6553    4.3733622    4.3733622    4.3733622   -9783.6553   -3513.9638   -12755.603   -13081.399   -9651.0807    168.77702   -7089.8707    83.646223 
   66000    604.16164   -110.56286   0.54665815    -110.0162   -5399.2372    4.3670517    4.3670517    4.3670517   -5399.2372   -7501.8542   -7944.7711   -751.08624   -14548.387   -2748.5197   -1582.5296    83.284655 
   66100    590.70074   -110.55136   0.53447844   -110.01688   -6594.8165    4.3756892    4.3756892    4.3756892   -6594.8165    11132.176   -10395.758   -20520.867    4423.4199   -13491.256   -2645.1581    83.779814 
   66200    438.87623   -110.41574   0.39710444   -110.01863    8715.5506     4.364894     4.364894     4.364894    8715.5506    42233.728   -13064.206   -3022.8697   -9446.3545    1735.8961   -4912.0795    83.161266 
   66300    690.75936   -110.64296   0.62501358   -110.01795   -9606.8524    4.3759602    4.3759602    4.3759602   -9606.8524    -4163.627   -3582.1933   -21074.737    446.34124   -3811.8992     1170.248    83.795382 
   66400     744.2703   -110.68902   0.67343141   -110.01559   -3172.2745    4.3698404    4.3698404    4.3698404   -3172.2745   -1077.8136   -3209.8721   -5229.1378    527.29476   -5375.1392   -2316.9492    83.444307 
   66500    510.37508   -110.48109    0.4617981   -110.01929    3027.4047    4.3654616    4.3654616    4.3654616    3027.4047    19116.269    -3756.089   -6277.9656    -18050.76    5196.3374   -5216.4195    83.193718 
   66600    518.25062   -110.48764   0.46892405   -110.01871    404.26624    4.3767087    4.3767087    4.3767087    404.26624    23368.979   -13050.164   -9106.0167   -5414.9735   -8228.1594    3417.7272     83.83839 
   66700    573.10919   -110.53591   0.51856124   -110.01735    4142.0149    4.3658293    4.3658293    4.3658293    4142.0149    28180.717   -4418.6663   -11336.006    2250.3633   -5511.3896   -3720.7394    83.214738 
   66800    637.93054   -110.59531   0.57721295    -110.0181   -13767.379    4.3728608    4.3728608    4.3728608   -13767.379   -16108.723   -16685.142   -8508.2719   -9089.2156    880.42667   -2009.8027    83.617456 
   66900    737.41089   -110.68296   0.66722487   -110.01574   -5657.1996    4.3739257    4.3739257    4.3739257   -5657.1996    12781.268   -8572.0087   -21180.858    2739.1244   -2039.3416    4562.1753    83.678561 
   67000    465.08869   -110.43945   0.42082202   -110.01862    10645.221    4.3665028    4.3665028    4.3665028    10645.221    45020.544   -13106.054    21.171874    595.97846   -725.19298   -6089.1778    83.253258 
   67100    612.40091   -110.57256   0.55411321   -110.01845     1357.979    4.3727798    4.3727798    4.3727798     1357.979     14016.28   -4394.5706   -5547.7727   -15413.253    4510.3092    3545.5533    83.612814 
   67200    710.06522   -110.65943   0.64248194   -110.01695   -2588.8387    4.3704571    4.3704571    4.3704571   -2588.8387   -6522.7782    4487.6883   -5731.4264   -839.91203    -7785.335   -1044.9292    83.479645 
   67300    509.63635   -110.48058   0.46112968   -110.01945   -3419.9862    4.3665825    4.3665825    4.3665825   -3419.9862   -7969.9937     8515.609   -10805.574    2622.9604     -7287.68   -6485.5559    83.257817 
   67400    530.97662   -110.49917    0.4804388   -110.01873   -5266.3261    4.3767336    4.3767336    4.3767336   -5266.3261    17651.624   -14836.367   -18614.235   -9768.3449   -30.530696    1769.9641    83.839822 
   67500    569.01799   -110.53154   0.51485943   -110.01668    4848.4087    4.3674185    4.3674185    4.3674185    4848.4087    41086.043   -852.50987   -25688.307    4802.4545   -5876.4194   -7248.4404    83.305644 
   67600    714.32418   -110.66492   0.64633553   -110.01859   -4365.1329    4.3684746    4.3684746    4.3684746   -4365.1329    1651.1788   -16673.919    1927.3411   -9577.4422   -883.32711   -4097.4414    83.366093 
   67700    818.81417   -110.75686   0.74088027   -110.01598   -11623.979    4.3763911    4.3763911    4.3763911   -11623.979   -12626.377    -12364.92   -9880.6404   -9688.0024    398.96347 -0.013431054    83.820138 
   67800    489.30888   -110.46064   0.44273696    -110.0179    5211.8949    4.3666061    4.3666061    4.3666061    5211.8949    20994.248    3553.1631   -8911.7269    6384.6472    -9011.064   -4179.3846    83.259164 
   67900    379.72479   -110.36346   0.34358297   -110.01987    6419.4612    4.3709657    4.3709657    4.3709657    6419.4612    27575.112   -3309.2073   -5007.5208    1554.5126    1739.5602   -490.20933    83.508793 
   68000    607.48822   -110.56648   0.54966811   -110.01681   -4561.2005    4.3731073    4.3731073    4.3731073   -4561.2005    9152.3291   -4478.6059   -18357.325    -1203.073   -3343.0519    1932.1057    83.631601 
   68100    705.63164   -110.65542   0.63847033   -110.01695   -6192.1811    4.3675023    4.3675023    4.3675023   -6192.1811   -6699.0301    7116.7359   -18994.249    2646.5852   -7580.7973    204.11314    83.310438 
   68200    746.18648   -110.69257   0.67516521    -110.0174   -4631.4659    4.3711027    4.3711027    4.3711027   -4631.4659    4724.2212   -21934.404    3315.7848   -6038.9533    2304.1955   -617.90762    83.516642 
   68300    491.35756   -110.46281   0.44459065   -110.01822    68.586102     4.373197     4.373197     4.373197    68.586102     22882.85   -6069.8448   -16607.247   -6630.6946   -2645.2819    5884.1088    83.636747 
   68400    495.81352   -110.46491   0.44862249   -110.01629    2244.3317    4.3687832    4.3687832    4.3687832    2244.3317    17210.945   -1418.6184   -9059.3315    10913.235   -9092.8802    40.329385    83.383764 
   68500    585.49584   -110.54565   0.52976894   -110.01588     -2488.06    4.3708976    4.3708976    4.3708976     -2488.06   -8362.5558   -4715.5182     5613.894   -2165.0706    762.64473    2862.7476    83.504888 
   68600    680.77369   -110.63346   0.61597835   -110.01749   -11176.688    4.3742281    4.3742281    4.3742281   -11176.688   -9931.5369    745.94566   -24344.473   -5231.8148    -3678.518    6951.3381    83.695919 
   68700     603.9741   -110.56351   0.54648846   -110.01702    9361.5907    4.3682633    4.3682633    4.3682633    9361.5907     30628.59    2647.7431   -5191.5611   -2636.8472   -1610.2095   -2350.6199    83.353997 
   68800    517.52793   -110.48635   0.46827015   -110.01808    2666.0518    4.3733954    4.3733954    4.3733954    2666.0518    34733.968   -17054.262   -9681.5502   -12511.184    2432.5374    6047.0318    83.648128 
   68900    586.60902   -110.54662   0.53077617   -110.01584   -1667.7444     4.371041     4.371041     4.371041   -1667.7444    7145.3211    10741.059   -22889.613    -2460.854   -6453.8055   -1707.2445    83.513105 
   69000    644.17857   -110.59764    0.5828663   -110.01477    -11697.22    4.3727933    4.3727933    4.3727933    -11697.22   -18282.333    -9347.787   -7461.5417    6170.4014   -6876.5179   -2086.8393    83.613583 
   69100    519.68184   -110.48671   0.47021905   -110.01649   -533.63477    4.3712586    4.3712586    4.3712586   -533.63477    8164.9052   -7967.3365    -1798.473    1619.4604   -95.193541    5048.9121    83.525578 
   69200    714.10871   -110.66153   0.64614056   -110.01539     1964.595    4.3698653    4.3698653    4.3698653     1964.595    29392.383   -3181.4118   -20317.186     1071.499   -10834.445   -6400.3222    83.445734 
   69300    575.30924   -110.53915   0.52055189    -110.0186    2915.3939    4.3714316    4.3714316    4.3714316    2915.3939    16439.645    -10928.53    3235.0663   -267.38626    1629.7579    4998.3679    83.535495 
   69400    734.32182   -110.68143   0.66442981     -110.017   -5667.5497    4.3702712    4.3702712    4.3702712   -5667.5497    -3823.878    447.97966   -13626.751   -2609.4795    2394.2081     5870.316    83.468992 
   69500    538.58536   -110.50374   0.48732335   -110.01642   -6029.3555    4.3732374    4.3732374    4.3732374   -6029.3555   -11463.729    13611.357   -20235.694     2239.938   -9083.3671    962.84448    83.639066 
   69600    392.20074   -110.37296   0.35487147   -110.01809    1983.0112    4.3689899    4.3689899    4.3689899    1983.0112    20326.324   -8437.2051   -5940.0855    11852.935   -793.04497    7908.6937    83.395598 
   69700      514.994   -110.48354    0.4659774   -110.01756    12244.618    4.3710762    4.3710762    4.3710762    12244.618    33370.015     3137.608    226.23074   -506.47335    -4411.835    3612.1888    83.515122 
   69800    790.67516    -110.7309    0.7154195   -110.01548   -7632.0847    4.3737361    4.3737361    4.3737361   -7632.0847    4319.1762   -9986.5648   -17228.866    2532.7971   -11309.711    2628.4665    83.667679 
   69900    689.41688   -110.64073   0.62379888   -110.01693    2064.3509    4.3681007    4.3681007    4.3681007    2064.3509    7875.7886   -11127.847    9445.1115    173.85942    3882.8445    2926.8239    83.344688 
   70000    731.84517   -110.67808   0.66218889   -110.01589   -7233.6908    4.3715265    4.3715265    4.3715265   -7233.6908    5835.1226   -5127.7108   -22408.484   -5704.1189   -7360.8938    1661.8126     83.54094 
   70100      319.867   -110.30846   0.28942239   -110.01904    1735.1798    4.3717034    4.3717034    4.3717034    1735.1798    24464.751   -2838.0747   -16421.137    4786.5518   -6419.0894   -2452.2697    83.551081 
   70200    598.32961   -110.55775   0.54138121   -110.01637   -659.91162    4.3688118    4.3688118    4.3688118   -659.91162    15950.003   -11686.132   -6243.6054    4523.2977   -15.252368    4229.6208    83.385401 
   70300     643.2078   -110.59939   0.58198794    -110.0174    4449.9005    4.3684611    4.3684611    4.3684611    4449.9005   -1542.5428    11779.015    3113.2288    308.23548   -9065.1065   -1369.4115    83.365317 
   70400    667.75715    -110.6241    0.6042007    -110.0199   -9095.2467    4.3754767    4.3754767    4.3754767   -9095.2467   -575.42821   -12015.776   -14694.536   0.94095571   -2431.3914   -2202.2735    83.767611 
   70500     623.0056   -110.58065   0.56370856   -110.01694    16835.764    4.3654277    4.3654277    4.3654277    16835.764    44239.818   -431.99282    6699.4672   -160.18116    8561.6456    6096.4536     83.19178 
   70600    587.03552   -110.55013   0.53116207   -110.01897   -5191.7441    4.3725639    4.3725639    4.3725639   -5191.7441    15245.487   -5590.0138   -25230.705   -2214.0596   -12573.207   -7539.7544    83.600429 
   70700    520.94984   -110.48905   0.47136637   -110.01769   -10622.041    4.3735375    4.3735375    4.3735375   -10622.041   -2882.7421   -11759.842   -17223.539    7423.3466   -3294.4253    1501.2298    83.656282 
   70800    821.63113   -110.75722   0.74342911   -110.01379   -1509.8126    4.3644981    4.3644981    4.3644981   -1509.8126    1182.0022   -4909.9816   -801.45849    8849.4875   -1018.7517   -178.49121    83.138639 
   70900    427.64389    -110.4054   0.38694118   -110.01846   -4397.6105    4.3781242    4.3781242    4.3781242   -4397.6105    12941.869    -7706.206   -18428.495   -4607.3495   -12163.927   -4555.0014    83.919759 
   71000    675.00222   -110.62592   0.61075619   -110.01516    5333.5115    4.3683427    4.3683427    4.3683427    5333.5115    34441.142    -10212.28    -8228.328    4445.5841    2151.3494    4736.6169    83.358543 
   71100     647.4444   -110.60094    0.5858213   -110.01512    7760.9954    4.3690175    4.3690175    4.3690175    7760.9954    10314.283    6653.0521     6315.651   -2356.4087    1389.7644   -283.66153     83.39718 
   71200    552.80965   -110.51839   0.50019379   -110.01819   -9991.9433    4.3734894    4.3734894    4.3734894   -9991.9433   -8642.2181     2574.213   -23907.825   -2125.4541   -15881.484    2450.5443    83.653522 
   71300     517.1466    -110.4855   0.46792511   -110.01757    3892.6058    4.3700204    4.3700204    4.3700204    3892.6058    16425.311   -4169.0554   -578.43844    11035.641    1660.8237    2074.4577     83.45462 
   71400    548.88454    -110.5139   0.49664226   -110.01726     4521.151    4.3677157    4.3677157    4.3677157     4521.151    26957.531   -1593.6006   -11800.478    5058.8388   -8886.4761   -1685.4821    83.322653 
   71500    506.23056    -110.4783   0.45804805   -110.02025   -4308.8557    4.3749345    4.3749345    4.3749345   -4308.8557    13342.869   -4453.7531   -21815.683   -603.48737   -8621.9183    -3600.535    83.736474 
   71600    968.86003   -110.88941   0.87664492   -110.01277    -10756.15    4.3725827    4.3725827    4.3725827    -10756.15   -1533.0585   -16748.747   -13986.646   -1655.2066    6651.8496   -1033.4447    83.601508 
   71700    553.88605   -110.51752   0.50116774   -110.01635    8105.8599    4.3665359    4.3665359    4.3665359    8105.8599    30413.624   -1961.0405   -4135.0041   -2021.0361   -11521.315   -4859.9659     83.25515 
   71800    540.12355   -110.50626   0.48871514   -110.01754   -5793.4879    4.3761222    4.3761222    4.3761222   -5793.4879    22053.518   -15312.087   -24121.894    581.57648   -8533.1699   -3067.3328    83.804688 
   71900    555.25494   -110.51627   0.50240634   -110.01387    5964.8907    4.3701949    4.3701949    4.3701949    5964.8907    24373.489    -10500.68    4021.8634    11316.243    1465.6768    1896.6157    83.464622 
   72000    529.40712   -110.49788   0.47901869   -110.01886   -7428.0822    4.3686777    4.3686777    4.3686777   -7428.0822   -3556.4411    -1887.195   -16840.611    2781.4743   -15297.532   -5920.8512    83.377721 
   72100    630.36317   -110.59012   0.57036585   -110.01976   -2313.9646     4.374241     4.374241     4.374241   -2313.9646    2518.2632     2637.344   -12097.501    915.64973    1544.1439    4437.7672    83.696661 
   72200    714.70396   -110.66409   0.64667916   -110.01741    3126.4352    4.3718847    4.3718847    4.3718847    3126.4352    35016.525   -9855.8009   -15781.419    2630.5888    4358.1176   -784.60612    83.561477 
   72300    397.08967    -110.3813   0.35929508   -110.02201    7084.9948    4.3674603    4.3674603    4.3674603    7084.9948    27469.764    3475.4509   -9690.2308   -8026.1405    -15083.25   -3992.3841    83.308039 
   72400    777.87427   -110.72103   0.70383699    -110.0172   -13350.066    4.3768091    4.3768091    4.3768091   -13350.066   -10040.053   -16578.653   -13431.492    5470.3704   -3964.5452    3826.2342    83.844157 
   72500    627.83321   -110.58475   0.56807669   -110.01667   -2187.8062    4.3684265    4.3684265    4.3684265   -2187.8062    3138.1673   -14255.626    4554.0405    5659.5512   -2182.7937   -7071.0382     83.36334 
   72600    420.20364   -110.40155   0.38020909   -110.02134    1302.6896    4.3695192    4.3695192    4.3695192    1302.6896    31752.796   -9440.2538   -18404.474   -1278.3449   -15695.235    99.938227     83.42591 
   72700    650.73604   -110.60673   0.58879964   -110.01793   -256.91714    4.3786175    4.3786175    4.3786175   -256.91714     22341.74   -9658.0471   -13454.444   -2240.4884    7343.4756    1283.4401     83.94813 
   72800    719.71604   -110.66789    0.6512142   -110.01668    6840.7886    4.3592965    4.3592965    4.3592965    6840.7886    24029.269    4524.5635   -8031.4668   -3761.6408   -5050.2489   -1841.2306    82.841742 
   72900    521.37202   -110.49371   0.47174836   -110.02197   -16164.842    4.3814397    4.3814397    4.3814397   -16164.842   -25613.964    1862.1999   -24742.761   -197.15999   -18543.221    1261.6724    84.110561 
   73000    778.23799   -110.71938   0.70416609   -110.01522    6534.0225    4.3689603    4.3689603    4.3689603    6534.0225    23960.954   -3080.7361   -1278.1504   -16.173697    7556.1832   -1467.4563      83.3939 
   73100    325.57959   -110.31419   0.29459126    -110.0196    3378.8705    4.3688416    4.3688416    4.3688416    3378.8705    24857.791   -4952.2539   -9768.9254    8595.0387   -11502.848   -2566.7899    83.387104 
   73200     458.0011   -110.43311   0.41440902    -110.0187   -9824.5617    4.3770276    4.3770276    4.3770276   -9824.5617    896.13934   -6361.9812   -24007.843   -1401.3623   -10471.248   -2116.2269    83.856718 
   73300    876.06016   -110.80474   0.79267764   -110.01206    7095.3177    4.3652938    4.3652938    4.3652938    7095.3177    10488.601    8028.8865    2768.4656   -261.32713    6335.4593    527.81063    83.184124 
   73400     567.1866   -110.53327   0.51320236   -110.02007   -19548.251    4.3791627    4.3791627    4.3791627   -19548.251   -9888.0128   -12288.411   -36468.328   -3860.7954   -19685.071   -2610.1198    83.979492 
   73500    566.44285   -110.53167   0.51252939   -110.01914    15009.946    4.3632302    4.3632302    4.3632302    15009.946     38123.55    5870.1916    1036.0961   -3105.7687    -10902.81    1995.3171    83.066209 
   73600    670.74249   -110.62469    0.6069019   -110.01778   -3490.8524    4.3766961    4.3766961    4.3766961   -3490.8524    23301.405   -19395.093    -14378.87    4938.1462    3557.5429    221.66059    83.837664 
   73700    355.99107   -110.34185    0.3221082   -110.01974   -8443.1831    4.3731056    4.3731056    4.3731056   -8443.1831   -5965.2885   -1638.8423   -17725.418    3886.0031   -17404.206   -71.145324    83.631501 
   73800    793.83188   -110.73319   0.71827576   -110.01492    5243.3661    4.3657515    4.3657515    4.3657515    5243.3661     7193.132    7504.3584    1032.6078   -1330.8054    1071.5178     2591.383    83.210292 
   73900    703.54307   -110.65154   0.63658055   -110.01496   -7301.7621    4.3814829    4.3814829    4.3814829   -7301.7621    5594.5294   -6521.4711   -20978.345    -4703.574   -2812.4553   -3430.1666    84.113048 
   74000    415.60198   -110.39423    0.3760454   -110.01819     14279.58    4.3631934    4.3631934    4.3631934     14279.58    43733.829    9219.2103   -10114.299   -4346.7899   -21971.849    3335.1694    83.064106 
   74100    677.21872   -110.62764   0.61276173   -110.01488    3182.2047    4.3752041    4.3752041    4.3752041    3182.2047    11971.618   -3954.1504    1529.1464   -7923.5868   -1825.9725   -1585.7705    83.751955 
   74200    631.41396   -110.58839   0.57131662   -110.01707   -13276.587    4.3712249    4.3712249    4.3712249   -13276.587   -11025.779   -13361.848   -15442.133   -973.37445   -4989.6264   -902.97245    83.523648 
   74300    384.09741   -110.36899   0.34753941   -110.02145   -254.10178    4.3683754    4.3683754    4.3683754   -254.10178   -1251.0197   -2447.1473    2935.8616    2909.1797     -15685.6    1798.3754    83.360414 
   74400    827.64428   -110.76571   0.74886994   -110.01684    765.27865    4.3751476    4.3751476    4.3751476    765.27865    23495.381   -13990.523   -7209.0219   -7344.8915    9409.9698   -1939.3106     83.74871 
   74500    510.29689   -110.48223   0.46172735   -110.02051    9679.4028    4.3686307    4.3686307    4.3686307    9679.4028    32560.096    1995.6032   -5517.4907   -1916.3862   -12769.298      2411.26    83.375027 
   74600    643.96523    -110.6018   0.58267328   -110.01913   -7257.1794    4.3740801    4.3740801    4.3740801   -7257.1794   -6223.7246    576.16356   -16123.977   -6372.6344   -15849.216   -3000.9867    83.687423 
   74700    724.99924   -110.67032   0.65599455   -110.01433    2048.8397    4.3700293    4.3700293    4.3700293    2048.8397   -5728.7474    7799.2574    4076.0091   -2969.1945     4599.922    1443.4312    83.455131 
   74800    371.31068   -110.35501    0.3359697   -110.01904    -2081.687    4.3699791    4.3699791    4.3699791    -2081.687    7674.2786    4426.9946   -18346.334    5500.1301   -16534.245   -2943.0819    83.452257 
   74900    447.33642   -110.42388    0.4047594   -110.01912    6532.9448    4.3731878    4.3731878    4.3731878    6532.9448    25143.565   -1640.0307   -3904.7002    2928.2832   -5027.7181   -1186.4447    83.636216 
   75000    842.69857   -110.77774   0.76249138   -110.01525    4937.7129     4.368322     4.368322     4.368322    4937.7129    13232.724   -806.52554    2386.9408    275.92516    5438.1426    2888.5115    83.357357 
   75100     609.3191   -110.57194   0.55132472   -110.02062   -5978.8377    4.3715157    4.3715157    4.3715157   -5978.8377   -2135.0696   -2882.0623   -12919.381   -2498.2927    -23739.73    245.44094    83.540321 
   75200    773.92183    -110.7179   0.70026074   -110.01764   -9316.9924    4.3744773    4.3744773    4.3744773   -9316.9924   -3396.0808   -12019.964   -12534.933   -4190.5629   -1151.6015    3975.0268    83.710223 
   75300     492.1788   -110.46135   0.44533372   -110.01602    11919.792    4.3659692    4.3659692    4.3659692    11919.792    31340.006    4380.3842    38.985482    -6095.412    1860.6652    -2634.126    83.222738 
   75400    354.55261   -110.34119   0.32080665   -110.02038   -11150.073    4.3772646    4.3772646    4.3772646   -11150.073    6170.7867   -8228.1255   -31392.881    5879.6607   -15916.182    651.34098    83.870337 
   75500    710.49878   -110.65743   0.64287423   -110.01455    4653.4141    4.3694107    4.3694107    4.3694107    4653.4141    2618.8203    2606.7704    8734.6515   -2109.6752    5369.7745   -4851.8972    83.419697 
   75600    789.98069   -110.73095   0.71479113   -110.01616    693.88029    4.3674672    4.3674672    4.3674672    693.88029   -5975.2817    13822.148   -5765.2259   -5190.5268    -6823.973   -2382.3969    83.308433 
   75700    477.31558   -110.45242   0.43188517   -110.02054   -7132.9853    4.3801104    4.3801104    4.3801104   -7132.9853    5725.3243   -2608.2322   -24516.048   -2614.5184   -19251.501    -1686.514    84.034024 
   75800    623.40032   -110.57763   0.56406571   -110.01356    19177.959    4.3624382    4.3624382    4.3624382    19177.959     47785.81    7713.4069    2034.6597   -12505.046    4247.1804   -2989.3422     83.02098 
   75900     384.3684   -110.36678   0.34778461   -110.01899   -12369.711     4.379038     4.379038     4.379038   -12369.711   -1175.1677   -6836.8028   -29097.163   -2526.7184   -11393.235    3869.6002    83.972319 
   76000     682.2141   -110.63166   0.61728166   -110.01438   -12821.378    4.3695411    4.3695411    4.3695411   -12821.378   -13645.464   -5661.2923   -19157.377    1737.1896   -13532.056   -4864.2088    83.427167 
   76100    780.70758    -110.7214   0.70640063     -110.015    6778.4014    4.3677018    4.3677018    4.3677018    6778.4014    21465.449   -7651.6362    6521.3913    1894.3185    6326.3474    3057.6017    83.321855 
   76200    553.83325   -110.52039   0.50111996   -110.01927   -12926.773    4.3781546    4.3781546    4.3781546   -12926.773    9468.9935    -15621.98   -32627.331   -2979.1725   -18617.726   -1249.4363    83.921509 
   76300    606.78258   -110.56542   0.54902963   -110.01639    14612.009    4.3640621    4.3640621    4.3640621    14612.009    41181.426    449.33423    2205.2673   -1837.4972   -8142.6296   -2904.8515    83.113728 
   76400    689.65574    -110.6401   0.62401501   -110.01608      -9714.1    4.3775842    4.3775842    4.3775842      -9714.1    -16210.57   -3823.5222   -9108.2081   -6372.3715    2347.2015    1526.2073    83.888713 
   76500    359.94378   -110.34653    0.3256847   -110.02085   -639.83023    4.3671377    4.3671377    4.3671377   -639.83023    4265.5562    12467.414   -18652.461    630.85063   -17696.277   -5894.8405    83.289579 
   76600    626.11423   -110.58724   0.56652131   -110.02072    7508.6774      4.37224      4.37224      4.37224    7508.6774    31854.608    30.938866    -9359.515    9660.3957    -296.9877    574.19614    83.581851 
   76700    634.42673    -110.5929   0.57404264   -110.01886    3033.8615    4.3739139    4.3739139    4.3739139    3033.8615    24121.581     1906.008   -16926.005    382.47663   -849.52406   -1844.2002    83.677884 
   76800    527.26383    -110.4973    0.4770794   -110.02022   -4123.9483    4.3675273    4.3675273    4.3675273   -4123.9483    1312.6441    9963.5781   -23648.067   -718.19078   -20581.705   -440.66818    83.311868 
   76900    805.37636   -110.74471   0.72872146   -110.01599   -7047.0462    4.3760397    4.3760397    4.3760397   -7047.0462    5989.7835   -17549.996   -9580.9258   -4126.8764    8035.7234   -25.409324    83.799952 
   77000    401.96261   -110.38257   0.36370422   -110.01887    3344.8736    4.3721751    4.3721751    4.3721751    3344.8736    20807.182   -7246.0421   -3526.5194   -6807.1943   -7906.0071    531.43152    83.578128 
   77100    522.87215   -110.49185   0.47310571   -110.01875     -1308.85    4.3682458    4.3682458    4.3682458     -1308.85    14827.479   -1159.0903   -17594.939    2522.7688   -14130.464   -1618.4601    83.352994 
   77200     810.8664    -110.7501   0.73368896   -110.01641   -6139.4184    4.3752841    4.3752841    4.3752841   -6139.4184   -2974.3514   -17390.007     1946.103    5600.8271    3179.2701   -4445.7082    83.756547 
   77300    599.64149   -110.56322   0.54256822   -110.02065   -7928.4617    4.3686615    4.3686615    4.3686615   -7928.4617    -3942.045    7542.4467   -27385.787    -2948.402   -17037.197    2283.8191    83.376792 
   77400    431.59642   -110.41237   0.39051751   -110.02185     5659.289     4.369537     4.369537     4.369537     5659.289    42691.992   -433.26722   -25280.858   -3538.7648   -7722.6285   -5501.9385     83.42693 
   77500     662.6987   -110.61873   0.59962371    -110.0191   -4128.8289    4.3768539    4.3768539    4.3768539   -4128.8289    9568.9631   -8825.2882   -13130.162    3192.9866    4466.6687    3180.5585    83.846733 
   77600    493.30512   -110.46482   0.44635284   -110.01847    2368.2955    4.3700486    4.3700486    4.3700486    2368.2955    596.21303    15384.765   -8876.0913   -3152.2768   -12311.154   -604.00781    83.456239 
   77700    783.13748   -110.72325   0.70859925   -110.01465   -4867.7229    4.3732041    4.3732041    4.3732041   -4867.7229    3467.6276   -2471.0231   -15599.773    10261.489   -4193.7649   -2941.1486    83.637153 
   77800    520.90881   -110.48853   0.47132924    -110.0172    7729.1086    4.3739754    4.3739754    4.3739754    7729.1086    28219.372   -4390.7823   -641.26444    9191.3195   -2066.9226    3663.9211    83.681413 
   77900    525.39323   -110.49397   0.47538684   -110.01859   -2131.7601    4.3699869    4.3699869    4.3699869   -2131.7601    21596.736    1136.4399   -29128.456   -8568.6507   -16122.278   -6342.0226    83.452704 
   78000    782.80099    -110.7238   0.70829479    -110.0155   -1509.1763    4.3691563    4.3691563    4.3691563   -1509.1763    8076.4559   -1215.6238   -11388.361    3052.2246    1293.5554    543.09817    83.405125 
   78100    618.24117   -110.57828    0.5593976   -110.01888    -10958.91    4.3793353    4.3793353    4.3793353    -10958.91   -4579.2137    -6778.517   -21518.999    3274.0273   -2440.6414   -2237.3409    83.989422 
   78200     425.7146   -110.40567   0.38519552   -110.02047    7671.3259    4.3681364    4.3681364    4.3681364    7671.3259    27539.067    11981.104   -16506.193    3285.9496   -14190.291   -5439.3097    83.346729 
   78300     643.7646    -110.6008   0.58249173   -110.01831    6725.0279    4.3689751    4.3689751    4.3689751    6725.0279    20700.962    7404.7055   -7930.5838    9549.7745    4880.2962   -740.58679    83.394748 
   78400     512.6628   -110.48301   0.46386808   -110.01914   -16349.952    4.3819352    4.3819352    4.3819352   -16349.952   -21750.678   -978.12428   -26321.052    3499.6482   -11965.618   -1167.1608      84.1391 
   78500    715.28996   -110.66253   0.64720939   -110.01532    8178.4046    4.3582843    4.3582843    4.3582843    8178.4046    13947.824    12425.723   -1838.3332   -10040.081    -12640.55   -496.05304    82.784049 
   78600    634.55386   -110.59416   0.57415767      -110.02   -3636.0424     4.378956     4.378956     4.378956   -3636.0424    26155.294   -22157.093   -14906.329    8879.3812    5600.6936    1559.4057    83.967599 
   78700    485.00191   -110.45798   0.43883992   -110.01914   -4315.2364    4.3745478    4.3745478    4.3745478   -4315.2364    16588.461   -13876.233   -15657.938    4687.1131    -13970.34   -99.407533    83.714269 
   78800    764.05832   -110.70466   0.69133603   -110.01332     5899.518    4.3626764    4.3626764    4.3626764     5899.518    3041.5266    21621.684   -6964.6563     2439.929   -7347.9446   -164.10983    83.034583 
   78900    595.94708   -110.55459   0.53922544   -110.01536   -15969.722    4.3848389    4.3848389    4.3848389   -15969.722   -5729.7868   -15692.895   -26486.484    11869.514    429.51516    2396.3067    84.306473 
   79000    409.57108   -110.38903   0.37058852   -110.01844    6405.5178    4.3643779    4.3643779    4.3643779    6405.5178    20816.362    18752.927   -20352.736   -6253.4494   -21438.975      407.815    83.131772 
   79100    697.25237   -110.64949    0.6308886    -110.0186    14939.555    4.3659983    4.3659983    4.3659983    14939.555    38101.229    1067.8422    5649.5933   -400.29075    2543.9068    1755.4085    83.224402 
   79200    734.00812   -110.68341   0.66414598   -110.01927   -21717.897    4.3837623    4.3837623    4.3837623   -21717.897   -20485.736    -24057.71   -20610.246    14061.435   -1712.8581    125.57009    84.244389 
   79300    557.21085   -110.52217   0.50417608   -110.01799    5359.6575    4.3603269    4.3603269    4.3603269    5359.6575    2570.2033    6946.9853    6561.7838     2996.932    -18561.39   -255.35255    82.900499 
   79400    675.97385   -110.62953   0.61163535    -110.0179   -1009.3083    4.3757395    4.3757395    4.3757395   -1009.3083     28050.57   -13523.029   -17555.466    1161.7917    3025.1372   -2427.8131    83.782706 
   79500    327.35962   -110.31713   0.29620187   -110.02093   -11277.779    4.3788088    4.3788088    4.3788088   -11277.779     9733.163   -17437.428    -26129.07    6093.7225   -13251.521    235.10463    83.959131 
   79600    697.48902   -110.64776   0.63110272   -110.01666    3038.7466    4.3613951    4.3613951    4.3613951    3038.7466    3210.9747    16681.097   -10775.832   -7483.7822   -12674.738   -5375.8728     82.96144 
   79700     865.4132   -110.79593   0.78304405   -110.01289   -10290.319    4.3828654    4.3828654    4.3828654   -10290.319   -9051.5604   -17731.628   -4087.7698   -696.39398     8260.276   -4128.3556    84.192693 
   79800    445.58424   -110.42081   0.40317399   -110.01763    5426.8309    4.3654365    4.3654365    4.3654365    5426.8309    18543.898    8164.3391   -10427.745      14911.3    -11186.59   -884.21279    83.192282 
   79900    491.69427   -110.46545   0.44489531   -110.02056    11425.797    4.3698758    4.3698758    4.3698758    11425.797    31546.073    8234.3625   -5503.0445    1227.4552   -7143.1361    -4515.113    83.446336 
   80000    637.29602   -110.59236   0.57663883   -110.01572   -826.90339    4.3766443    4.3766443    4.3766443   -826.90339    6454.7069   -2848.0248   -6087.3922    8205.4653    599.50566    3284.2438    83.834691 
   80100    493.21278   -110.46505   0.44626929   -110.01878    -7740.182    4.3694617    4.3694617    4.3694617    -7740.182   -13199.259    9454.0078   -19475.295     3863.774   -18519.665   -78.473039    83.422619 
   80200    773.55889   -110.71635   0.69993234   -110.01642    1373.8518    4.3733911    4.3733911    4.3733911    1373.8518    21515.681   -5315.4849   -12078.641   -8625.5434    -6232.606    3508.7913    83.647882 
   80300    648.71917   -110.60399   0.58697474   -110.01701     8261.136     4.369882     4.369882     4.369882     8261.136    34446.152   -12322.542    2659.7978     4939.437      4924.88    4631.9114    83.446692 
   80400    428.68461   -110.40841   0.38788284   -110.02052    -18081.62    4.3762701    4.3762701    4.3762701    -18081.62   -9667.2144   -13718.812   -30858.835    8366.7499   -21327.363   -2662.9006    83.813188 
   80500    807.08213   -110.74454   0.73026487   -110.01428    1204.5365    4.3658042    4.3658042    4.3658042    1204.5365   -2681.1933   -3476.4728    9771.2757    1355.4942   -3190.8649    3033.9763    83.213303 
   80600    581.37737   -110.54562   0.52604246   -110.01958   -8763.5881    4.3759536    4.3759536    4.3759536   -8763.5881    2610.7367   -18369.363   -10532.138    9510.8719   -4893.0739   -2384.3819    83.795003 
   80700    396.88702   -110.38159   0.35911172   -110.02247    1038.5192    4.3723745    4.3723745    4.3723745    1038.5192    30331.359   -8862.4158   -18353.386    965.81031   -21429.488   -276.89774    83.589565 
   80800     908.4557   -110.83818   0.82198981   -110.01619    5976.9486    4.3698082    4.3698082    4.3698082    5976.9486     23066.39   -6475.2217    1339.6778   -9274.0175    9540.3264   -938.99544    83.442463 
   80900    612.19137   -110.57368   0.55392361   -110.01976   -12660.836    4.3754001    4.3754001    4.3754001   -12660.836   -12858.793   -4571.9566   -20551.759    3489.9475    -12326.18   -1755.6674    83.763213 
   81000    377.35893   -110.36367   0.34144229   -110.02223   -5763.9929    4.3716333    4.3716333    4.3716333   -5763.9929    7420.3392    1325.7102   -26038.028    7923.0875   -13983.639   -1595.4998    83.547064 
   81100    639.33026   -110.59581   0.57847945   -110.01733     18711.06    4.3676288    4.3676288    4.3676288     18711.06    49307.251   -721.94682    7547.8773   -112.09064    7888.9788   -1775.0498    83.317681 
   81200    471.21718   -110.45006   0.42636721   -110.02369   -2432.9475    4.3745905    4.3745905    4.3745905   -2432.9475    5152.6538   -1545.3355   -10906.161    12210.043   -17562.007   -55.867277     83.71672 
   81300     663.3951   -110.62165   0.60025383   -110.02139   -7631.9438    4.3730944    4.3730944    4.3730944   -7631.9438   -11985.537   -5090.4835   -5819.8109    662.52039   -8749.3755   -2693.9536    83.630858 
   81400    864.69173   -110.79838   0.78239125   -110.01599    8180.7336    4.3660656    4.3660656    4.3660656    8180.7336    26184.645   -4875.0091    3232.5646   -3912.9186    4636.0434    6045.1801     83.22825 
   81500    279.50677   -110.27731    0.2529036   -110.02441   -5529.4388    4.3767113    4.3767113    4.3767113   -5529.4388    17977.862   -6484.7833   -28081.395    2711.7102   -18621.332   -3118.7688     83.83854 
   81600    609.69626    -110.5705   0.55166598   -110.01884   -138.38347    4.3716077    4.3716077    4.3716077   -138.38347    21572.938   -4058.7762   -17929.312    4220.8265   -5695.2449    3084.7708    83.545593 
   81700    858.08516    -110.7914   0.77641349   -110.01498    -2299.851    4.3705077    4.3705077    4.3705077    -2299.851   -3403.3851   -8083.7571    4587.5893    775.31788    928.81073    4128.2487    83.482541 
   81800    452.64097   -110.43118   0.40955906   -110.02162   -6789.6402    4.3713997    4.3713997    4.3713997   -6789.6402    -6028.328   -5403.3125   -8937.2801    7486.7075   -19666.622   -1528.8812    83.533666 
   81900    592.60874   -110.55625   0.53620484   -110.02004    8376.1247    4.3740618    4.3740618    4.3740618    8376.1247    34211.496   -7211.3129   -1871.8094    -2793.473   -2185.8036    1838.0095    83.686373 
   82000    612.33668   -110.57259   0.55405509   -110.01853     12329.17    4.3675097    4.3675097    4.3675097     12329.17    32358.677    3226.3218    1402.5105   -6114.1083   -536.25817   -3598.5277    83.310865 
   82100     468.5625   -110.44638    0.4239652   -110.02242   -8218.4094     4.373619     4.373619     4.373619   -8218.4094   -8051.6363    7844.5926   -24448.184    7882.2847   -18691.626   -1289.7476    83.660962 
   82200     821.2268   -110.75894   0.74306326   -110.01588   -7868.6624    4.3754519    4.3754519    4.3754519   -7868.6624   -7646.2016    -4927.938   -11031.848    2781.8323     8223.896   -4139.3949    83.766184 
   82300    518.02674   -110.48611   0.46872148   -110.01739    13126.045    4.3662144    4.3662144    4.3662144    13126.045    32664.365    4960.3031    1753.4675    3890.7824   -3634.2005   -3887.6027    83.236762 
   82400    351.95904   -110.33936   0.31845994    -110.0209    -7368.137     4.378297     4.378297     4.378297    -7368.137    17543.757   -17983.085   -21665.083    9208.7939   -12280.879   -2109.7747    83.929694 
   82500      779.864    -110.7194   0.70563733   -110.01376    2302.6618    4.3686855    4.3686855    4.3686855    2302.6618    13780.975   -10760.183    3887.1926   -4669.9228    9346.3006   -2391.5956    83.378166 
   82600    686.97214   -110.64018   0.62158683   -110.01859   -7143.7016    4.3724694    4.3724694    4.3724694   -7143.7016   -7552.2395   -3688.1396   -10190.726   -333.21414   -13306.479    1710.0171    83.595008 
   82700    562.73939   -110.53098   0.50917843    -110.0218   -6150.3846     4.373988     4.373988     4.373988   -6150.3846     9062.765   -7945.6573   -19568.261    7853.6506   -10468.658   -2315.6043    83.682139 
   82800    645.44118   -110.60117   0.58400874   -110.01716    8067.4502    4.3724012    4.3724012    4.3724012    8067.4502    39282.026   -9246.3191   -5833.3565    3851.9566     7424.783    5802.2906    83.591094 
   82900    508.10602   -110.47835   0.45974501   -110.01861   -3377.2759    4.3723742    4.3723742    4.3723742   -3377.2759    5621.6656    3322.5756   -19076.069    8495.3165   -9555.6598    315.61433    83.589545 
   83000    553.23498   -110.51814   0.50057863   -110.01756   -6460.3058    4.3738299    4.3738299    4.3738299   -6460.3058   -4262.4358   -2908.9062   -12209.575    7543.3039   -5172.4788   -2887.3173    83.673061 
   83100    765.44986   -110.70754   0.69259512   -110.01494   -4583.4655    4.3758488    4.3758488    4.3758488   -4583.4655    1246.3422    699.93604   -15696.675   -8202.3778    4675.2945    5388.0913    83.788982 
   83200    445.16698   -110.42156   0.40279644   -110.01876    14035.442    4.3653134    4.3653134    4.3653134    14035.442    32956.056    16576.044   -7425.7728   -972.20633   -10626.595   -3342.8355     83.18524 
   83300    629.47127   -110.58857   0.56955883   -110.01901   -8865.6183    4.3795207    4.3795207    4.3795207   -8865.6183    9300.9906   -17635.009   -18262.837    4079.9597   -2455.7533    -3905.675    84.000092 
   83400     716.1107   -110.66206   0.64795201   -110.01411    1033.1147    4.3687087    4.3687087    4.3687087    1033.1147    6565.1601   -3211.3693   -254.44666   -2496.2402    6579.8428   -124.81884    83.379497 
   83500     537.3916   -110.50464   0.48624322    -110.0184   -11822.371      4.36914      4.36914      4.36914   -11822.371   -9991.3101   -5962.1684   -19513.634    8910.0552   -14600.304   -5852.3785    83.404191 
   83600    515.63183    -110.4858   0.46655452   -110.01925    -7308.037    4.3767943    4.3767943    4.3767943    -7308.037    12176.356   -17968.117    -16132.35    3989.1904    2953.1812    -4036.715    83.843309 
   83700    637.67501   -110.59436   0.57698175   -110.01738    4323.2187    4.3699958    4.3699958    4.3699958    4323.2187    30204.143     1987.115   -19221.602   -6419.4226    3569.9681   -794.67738    83.453214 
   83800    587.46912    -110.5511   0.53155441   -110.01955   -1480.7653    4.3702496    4.3702496    4.3702496   -1480.7653   -2038.5169     6007.603   -8411.3822   -67.257179   -11928.065    -4141.076    83.467756 
   83900    726.94929   -110.67537   0.65775899   -110.01761   -6398.9772    4.3756027    4.3756027    4.3756027   -6398.9772   -2818.0878   -6514.2303   -9864.6136    6350.9141    9177.9616    274.79157    83.774847 
   84000    512.87861   -110.48206   0.46406335   -110.01799   -3028.5227    4.3736713    4.3736713    4.3736713   -3028.5227    5104.2171   -2222.4462   -11967.339    1616.1402   -2447.1629   -188.37861     83.66396 
   84100    374.76768   -110.35785   0.33909767   -110.01875    9790.5526    4.3639149    4.3639149    4.3639149    9790.5526    39958.069   -338.19746   -10248.214    9217.5716   -11012.328     -2137.26    83.105321 
   84200    651.11255   -110.60761   0.58914032   -110.01847   -8621.5396    4.3802109    4.3802109    4.3802109   -8621.5396    7398.2481   -18313.008   -14949.859    1609.5466    5977.8677    2228.2955    84.039811 
   84300    828.59836   -110.76655   0.74973321   -110.01682   -4074.7468    4.3658344    4.3658344    4.3658344   -4074.7468   -5761.8199    4804.1281   -11266.549   -1919.5708   -5884.5852   -295.43721    83.215032 
   84400    574.67756    -110.5403   0.51998034   -110.02032   -1787.2333    4.3744318    4.3744318    4.3744318   -1787.2333    11112.959   -16724.127     249.4686    2617.3667   -6901.2931   -4118.5252    83.707611 
   84500    633.18487    -110.5893   0.57291898   -110.01638   -5554.2243    4.3765137    4.3765137    4.3765137   -5554.2243    26980.345   -26051.389   -17591.629    1549.3492     11805.69    2874.7281    83.827185 
   84600     412.8923   -110.39176   0.37359363   -110.01817    12325.205    4.3618967    4.3618967    4.3618967    12325.205    23174.265    5149.0219    8652.3264    2402.6661   -6276.5599   -2402.4341     82.99007 
   84700    611.79537   -110.57291   0.55356531   -110.01934   -15683.824    4.3798247    4.3798247    4.3798247   -15683.824   -13778.482   -12963.751    -20309.24     9964.286   -6536.2398   -7159.8159    84.017581 
   84800    775.30886   -110.71823   0.70151575   -110.01672    3900.9595    4.3659493    4.3659493    4.3659493    3900.9595   -931.32244    9106.7392    3527.4618   -4152.8934    5584.2327    380.00853    83.221603 
   84900    453.61631   -110.43283   0.41044157   -110.02239    2337.6003    4.3734263    4.3734263    4.3734263    2337.6003    24290.126    3306.8318   -20584.157    -6032.652   -7993.8283   -5284.6451    83.649901 
   85000    515.00971    -110.4847   0.46599161   -110.01871    3743.4032    4.3733388    4.3733388    4.3733388    3743.4032    31960.232   -14064.133   -6665.8896    3079.4531   -3641.0955   -2929.2293    83.644883 
   85100    760.56928   -110.70439   0.68817907   -110.01621   -5316.8218    4.3692098    4.3692098    4.3692098   -5316.8218    1522.3351    -7337.728   -10135.073    3196.0683    11873.361    469.37511     83.40819 
   85200    507.67417   -110.47762   0.45935425   -110.01827   -8033.0352    4.3765927    4.3765927    4.3765927   -8033.0352    -5759.649   -10131.373   -8208.0837    3382.3467   -9663.6489   -6112.1874    83.831721 
   85300    721.82379   -110.67017   0.65312133   -110.01705     3026.616    4.3682499    4.3682499    4.3682499     3026.616    24682.727   -11254.182   -4348.6974    7630.2612   -157.21446   -855.47038    83.353226 
   85400    561.40942   -110.52727   0.50797504    -110.0193    4758.6239    4.3738363    4.3738363    4.3738363    4758.6239    24228.513   -6037.0282    -3915.613   -1862.8638    2602.6336    552.63756    83.673428 
   85500    524.45631   -110.49442   0.47453909   -110.01988   -3748.6535    4.3717735    4.3717735    4.3717735   -3748.6535    12336.804    -5411.963   -18170.801   -3972.9628   -12740.618   -5656.3208    83.555097 
   85600    730.55626   -110.67759   0.66102266   -110.01657   -7745.7869    4.3699612    4.3699612    4.3699612   -7745.7869   -8059.4177   -11686.578   -3491.3644    1399.1144    1120.0204    2425.6173    83.451232 
   85700    590.61411    -110.5531   0.53440006    -110.0187   -5073.4235    4.3737355    4.3737355    4.3737355   -5073.4235    11895.434   -7747.0669   -19368.638    4182.0225    1574.0478   -1163.1756    83.667647 
   85800    353.62953   -110.34208   0.31997143   -110.02211     5220.982    4.3718802    4.3718802    4.3718802     5220.982    36113.235   -9995.8528   -10454.436    7127.5965   -12362.698   -4239.8728    83.561217 
   85900    759.79388    -110.7038   0.68747747   -110.01632    2942.6208    4.3704032    4.3704032    4.3704032    2942.6208    19086.524   -8182.2148   -2076.4466    9339.5892    4541.7406    3842.8405    83.476555 
   86000    622.81606   -110.58147   0.56353706   -110.01793   -5026.5756    4.3751088    4.3751088    4.3751088   -5026.5756   -1107.7957   -5173.3168   -8798.6142   -2846.6083   -4371.7175   -5379.2962    83.746485 
   86100    551.19054   -110.51803   0.49872879    -110.0193   -9950.0843    4.3690406    4.3690406    4.3690406   -9950.0843    -4117.478   -14415.034   -11317.741    1358.5305   -6073.9613   -2223.4685    83.398502 
   86200     628.2457   -110.58736   0.56844991   -110.01891    611.39562    4.3729167    4.3729167    4.3729167    611.39562     31488.68   -24723.883   -4930.6098     2518.063    977.95892    4182.4208    83.620665 
   86300    514.01665   -110.48522   0.46509307   -110.02013    525.00656     4.372305     4.372305     4.372305    525.00656    37907.762   -16111.256   -20221.486   -780.11295   -478.64481   -9985.8271    83.585579 
   86400    631.47901   -110.59204   0.57137547   -110.02066   -3779.6852    4.3671932    4.3671932    4.3671932   -3779.6852    10267.882     -13587.4   -8019.5374     3517.318   -9825.4406    3610.3805    83.292755 
   86500     845.7129   -110.78297   0.76521881   -110.01775   -12383.338    4.3772148    4.3772148    4.3772148   -12383.338   -10999.299   -18295.278   -7855.4366    5861.6195    3594.0368    2812.5052    83.867478 
   86600    479.98652   -110.45431   0.43430189      -110.02    2276.9549    4.3677809    4.3677809    4.3677809    2276.9549    17132.336   -7330.0773   -2971.3944   -4034.2497    767.60761   -7268.3726    83.326383 
   86700    304.12632   -110.29864   0.27517988   -110.02346    1040.6797    4.3744643    4.3744643    4.3744643    1040.6797    36849.914   -19700.635    -14027.24   -2188.0467   -6096.9044    8712.9037     83.70948 
   86800    678.61057   -110.63076   0.61402111   -110.01674     4886.154    4.3726537    4.3726537    4.3726537     4886.154    32892.722   -15541.324    -2692.936   -492.12608    4157.5885    215.15352     83.60558 
   86900    728.95619   -110.67952   0.65957488   -110.01995   -6856.3347    4.3694227    4.3694227    4.3694227   -6856.3347    1738.5559   -8829.6699    -13477.89     1806.446   -8220.7474    -2631.027    83.420385 
   87000    655.31659   -110.61357   0.59294422   -110.02062   -18315.426    4.3767344    4.3767344    4.3767344   -18315.426    -10333.62   -21946.676   -22665.982    7359.5612     -9944.24    9638.0528    83.839867 
   87100    644.42166   -110.60052   0.58308626   -110.01744    8993.9901    4.3665217    4.3665217    4.3665217    8993.9901    38251.714   -13114.579    1844.8352    4906.6795     2756.497    -3002.996    83.254338 
   87200    398.24011    -110.3833   0.36033602   -110.02297    1686.7856    4.3729712    4.3729712    4.3729712    1686.7856    37775.565   -24001.633   -8713.5755   -4837.1541    -4302.529    2512.2037    83.623793 
   87300    468.63616   -110.44536   0.42403185   -110.02133   -4455.7258    4.3756481    4.3756481    4.3756481   -4455.7258    7856.6978   -19007.736   -2216.1391   -64.649295   -314.61894    7816.9882    83.777454 
   87400    990.05676   -110.90997   0.89582417   -110.01415   -1325.8642    4.3676412    4.3676412    4.3676412   -1325.8642   -5232.5547   -4376.1669     5631.129   -56.577635    1267.8933    -2339.639    83.318391 
   87500    540.39302   -110.50969   0.48895896   -110.02073    1066.3701    4.3747832    4.3747832    4.3747832    1066.3701    21647.987   -11253.443   -7195.4341    672.38416   -7673.4354    7522.0557    83.727789 
   87600    424.66888   -110.40655   0.38424932    -110.0223    1962.2504    4.3743502    4.3743502    4.3743502    1962.2504    35202.103   -11812.753   -17502.599    8206.6519    -3227.367    3254.5267    83.702926 
   87700    633.32873   -110.58886   0.57304915   -110.01581    12883.298    4.3663781    4.3663781    4.3663781    12883.298    40285.855   -5959.2923    4323.3307    6362.4264    3211.7743   -2998.7654    83.246125 
   87800    544.79081    -110.5141   0.49293817   -110.02116   -17422.377    4.3775077    4.3775077    4.3775077   -17422.377   -14727.197   -20719.652   -16820.283   -595.90653   -5046.5215    8980.6598    83.884315 
   87900    558.30433   -110.52675   0.50516549   -110.02158    225.58905    4.3689575    4.3689575    4.3689575    225.58905    -4412.062    3104.9347    1983.8945   -608.54449   -3737.9584   -2072.9332    83.393744 
   88000    787.90309    -110.7309   0.71291127   -110.01799    6885.6139    4.3715994    4.3715994    4.3715994    6885.6139    41112.037   -13855.024   -6600.1709   -1720.2484    4710.4222    2748.8908    83.545118 
   88100    414.59749   -110.39724   0.37513652   -110.02211    1577.7245    4.3765699    4.3765699    4.3765699    1577.7245    29756.589   -15809.201   -9214.2136   -2228.1417   -9557.4349    8172.6443    83.830414 
   88200    702.95494   -110.65391    0.6360484   -110.01786    376.00519    4.3656596    4.3656596    4.3656596    376.00519    8792.5891   -971.83293   -6692.7406    6308.5855     1173.283   -1286.7899    83.205035 
   88300    771.48166   -110.71463   0.69805282   -110.01658   -12600.474    4.3773352    4.3773352    4.3773352   -12600.474   -6376.3048   -28859.839   -2565.2776    2938.0024    1068.9416    7522.1336      83.8744 
   88400    429.68189   -110.40942   0.38878521   -110.02064   -629.25327    4.3694965    4.3694965    4.3694965   -629.25327     26301.04    -12925.43    -15263.37   -454.01352   -10641.656    4870.3966    83.424612 
   88500    487.63423   -110.46254   0.44122169   -110.02132    6228.9849    4.3694086    4.3694086    4.3694086    6228.9849    26331.066    27.287921   -7671.3989    2071.2411    1585.6558   -473.60242    83.419576 
   88600    812.65318   -110.75252   0.73530567   -110.01722   -6461.2686    4.3756182    4.3756182    4.3756182   -6461.2686    9082.5669   -14839.096   -13627.277   -3646.0198   -2417.3282    4960.6837    83.775737 
   88700    543.51943   -110.51243    0.4917878   -110.02065    360.94208    4.3689709    4.3689709    4.3689709    360.94208    -2305.288    3981.2248   -593.11065    1381.8252   -7551.7557   -710.48428    83.394512 
   88800    561.57585   -110.52941   0.50812563   -110.02129    4191.4066    4.3714508    4.3714508    4.3714508    4191.4066    24848.473    -5229.999   -7044.2547    8043.0835    5743.8761   -1514.3445    83.536596 
   88900    602.22256   -110.56431   0.54490363   -110.01941    2892.3373     4.376369     4.376369     4.376369    2892.3373    31187.068   -20259.641   -2250.4148    2522.2833    -3846.029    1620.0664    83.818871 
   89000     501.0008   -110.47397   0.45331605   -110.02065   -453.50196    4.3655877    4.3655877    4.3655877   -453.50196    4913.8313    8314.3103   -14588.647     2243.102   -11867.255   -1898.7029    83.200924 
   89100    644.46007   -110.60431   0.58312101   -110.02119   -11752.307    4.3740873    4.3740873    4.3740873   -11752.307   -11233.255   -10747.313   -13276.351    577.44022    4616.2661   -763.52985    83.687837 
   89200    696.28973   -110.64909   0.63001758   -110.01907   -3858.2648    4.3743597    4.3743597    4.3743597   -3858.2648    21187.603   -13041.834   -19720.563   -2903.5905   -3684.4199    3135.9043    83.703472 
   89300    394.63466   -110.37846   0.35707374   -110.02139    15372.341    4.3633125    4.3633125    4.3633125    15372.341    46127.125    104.16301   -114.26454   -709.24588   -5249.8567   -1183.8141    83.070906 
   89400    785.20597   -110.73008   0.71047086   -110.01961   -15807.448    4.3815916    4.3815916    4.3815916   -15807.448   -10257.663   -20822.107   -16342.574    7492.4433     9263.814     704.6265    84.119309 
   89500    764.26637   -110.70846   0.69152428   -110.01694    2677.3011    4.3656333    4.3656333    4.3656333    2677.3011    6107.9403   -2317.2399    4241.2029   -245.38332   -10276.866    3514.9175     83.20353 
   89600    335.37888   -110.32685   0.30345786    -110.0234    605.82901    4.3701085    4.3701085    4.3701085    605.82901    22427.301    2386.1926   -22996.007    1057.3791   -5896.0479   -1505.9789    83.459672 
   89700     555.7074   -110.52231   0.50281573   -110.01949   -3270.3869    4.3776611    4.3776611    4.3776611   -3270.3869    23781.752   -16810.601   -16782.311     2253.582    9079.5094    3659.9263    83.893131 
   89800    741.24931   -110.68818   0.67069795   -110.01749   -20.985688     4.365382     4.365382     4.365382   -20.985688    4445.6416    4708.5002   -9217.0989   -6244.8677   -12282.995    1385.9926    83.189167 
   89900     597.6942    -110.5626   0.54080627    -110.0218   -8651.0772    4.3751156    4.3751156    4.3751156   -8651.0772   -4098.8499   -6792.3811       -15062    7300.3201   -5007.1708     1172.819    83.746871 
   90000    595.98795   -110.55827   0.53926243     -110.019    7637.7414    4.3735374    4.3735374    4.3735374    7637.7414    43033.654    -6933.673   -13186.757    10841.473    1662.7792     3837.612    83.656276 
   90100    433.88084   -110.41303    0.3925845   -110.02045    9637.6152    4.3686654    4.3686654    4.3686654    9637.6152    27694.188    10734.541   -9515.8828    3830.2865   -15741.949   -1472.9024    83.377014 
   90200     605.8747   -110.56754   0.54820816   -110.01933   -7435.8071     4.376078     4.376078     4.376078   -7435.8071   -9153.4257    2902.6764   -16056.672    5973.3277    6390.1389     2344.153    83.802149 
   90300    704.57819   -110.65515   0.63751716   -110.01764   -2551.9118    4.3719174    4.3719174    4.3719174   -2551.9118   -2943.9791    2493.4235   -7205.1799   -5266.2142    2857.8932    -612.9358    83.563348 
   90400    439.51258   -110.41856   0.39768022   -110.02088    9491.1714    4.3688797    4.3688797    4.3688797    9491.1714    46727.172   -1782.5846   -16471.073   -6579.6989   -11132.528   -3045.2935    83.389288 
   90500    670.46156   -110.62552   0.60664771   -110.01887   -10798.721    4.3778891    4.3778891    4.3778891   -10798.721    10373.721   -20110.391   -22659.494    3226.5227    4859.0851   -1307.7558    83.906243 
   90600    780.53363   -110.72279   0.70624323   -110.01655   -2742.4063    4.3661654    4.3661654    4.3661654   -2742.4063    3459.6967   -109.12559    -11577.79    4997.4398    -5567.002   -4703.7433    83.233962 
   90700    527.13702   -110.49768   0.47696465   -110.02072   -8095.5516    4.3780455    4.3780455    4.3780455   -8095.5516     10667.51   -7462.5813   -27491.584    1943.0737   -11441.474   -1532.9893    83.915233 
   90800    578.57705   -110.54196   0.52350868   -110.01845    10427.744    4.3694045    4.3694045    4.3694045    10427.744     42390.21   -9189.5701    -1917.407    3944.1783    11719.596   -2418.6839    83.419341 
   90900    620.55784   -110.58142   0.56149378   -110.01993   -5955.8188    4.3736625    4.3736625    4.3736625   -5955.8188   -2752.9892   -4793.9291   -10320.538   -5517.1427   -5450.8765   -941.85826    83.663454 
   91000    662.14215   -110.61778   0.59912013   -110.01866   -9298.4873    4.3734772    4.3734772    4.3734772   -9298.4873   -9422.4712   -4894.1298   -13578.861   -4972.7993   -9351.2023    2984.4717    83.652825 
   91100    646.54563   -110.60217   0.58500807   -110.01716    4886.1097    4.3693169    4.3693169    4.3693169    4886.1097    32252.576   -7209.4562   -10384.791    6074.1772    4702.1922    1557.6412    83.414326 
   91200    376.56459   -110.36102   0.34072355    -110.0203    672.34466    4.3766444    4.3766444    4.3766444    672.34466     37500.83   -4781.3851   -30702.411    4104.7279    -18819.82    1066.1091    83.834695 
   91300     637.9634   -110.59512   0.57724269   -110.01788    2136.4496    4.3684172    4.3684172    4.3684172    2136.4496    10058.142    10766.523   -14415.316    4271.3266   -3118.5106    6593.3746    83.362804 
   91400    803.32261   -110.74391   0.72686318   -110.01705   -2805.8661    4.3705711    4.3705711    4.3705711   -2805.8661   -12600.122    1665.3892    2517.1346     4835.336    5683.6746    3746.9348    83.486179 
   91500    376.39503   -110.36266   0.34057013   -110.02209    1293.7269    4.3759601    4.3759601    4.3759601    1293.7269    22246.807    7410.2592   -25775.886    -6980.268    -13287.64    737.31223    83.795378 
   91600     513.3988   -110.48378   0.46453403   -110.01925    7440.2708    4.3692944    4.3692944    4.3692944    7440.2708    39202.196   -7504.1255   -9377.2586    455.83528    3358.3099    3453.6732    83.413035 
   91700    754.88074   -110.70193   0.68303196   -110.01889    215.06347    4.3665347    4.3665347    4.3665347    215.06347    17270.079   -5243.7024   -11381.186    2400.6144   -486.97181   -4492.2317    83.255084 
   91800     595.9829   -110.56306   0.53925785    -110.0238    -22429.32    4.3798227    4.3798227    4.3798227    -22429.32   -18836.976    -12689.56   -35761.424    2672.3894   -19505.517     1962.123     84.01747 
   91900    787.64761   -110.73157   0.71268011   -110.01889    12460.497    4.3629991    4.3629991    4.3629991    12460.497    43915.277   -1846.3335   -4687.4522   -69.130786    4168.7522   -2036.8854    83.053011 
   92000    508.64294   -110.48262   0.46023082   -110.02239   -1681.2358    4.3753803    4.3753803    4.3753803   -1681.2358    31413.594   -16951.749   -19505.553     64.62784   -3293.7715   -4113.8321    83.762075 
   92100    372.08586   -110.35965    0.3366711   -110.02298   -11801.869     4.372553     4.372553     4.372553   -11801.869   -3268.4988    298.22456   -32435.333   -5013.5334   -14592.035    4919.1097    83.599801 
   92200    816.44119   -110.75661   0.73873315   -110.01788    8066.3541    4.3652272    4.3652272    4.3652272    8066.3541    15039.904    3028.5553    6130.6027   -347.85886    3061.6522   -3622.5814    83.180314 
   92300    543.92718   -110.51428   0.49215674   -110.02212   -7362.9376    4.3794122    4.3794122    4.3794122   -7362.9376    19717.961   -12030.591   -29776.184    7010.6184   -7762.9641   -433.19259    83.993846 
   92400    442.20285   -110.42431   0.40011443   -110.02419    11861.356    4.3636343    4.3636343    4.3636343    11861.356     46321.93    2029.3173    -12767.18    75.857056   -12655.644    4081.1112    83.089289 
   92500    900.15402   -110.83405   0.81447827   -110.01957   -2865.1919    4.3721439    4.3721439    4.3721439   -2865.1919    5115.5218   -6609.2538   -7101.8436   -2571.2532     5539.935   -718.19494     83.57634 
   92600    514.03207   -110.48769   0.46510702   -110.02259   -18183.187    4.3778371    4.3778371    4.3778371   -18183.187   -9495.4762   -9692.4544    -35361.63    1127.7791   -12000.127    1012.3349    83.903249 
   92700    391.72695   -110.37656   0.35444277   -110.02212    6294.1983    4.3656562    4.3656562    4.3656562    6294.1983    41731.034   -1374.2613   -21474.178   -7468.9129   -13904.548    4130.4025    83.204838 
   92800    712.03275   -110.66251   0.64426219   -110.01825    11116.928    4.3713093    4.3713093    4.3713093    11116.928    41020.372   -4418.4686   -3251.1206    3353.1547    3537.9969    408.05271    83.528488 
   92900    597.75087    -110.5625   0.54085755   -110.02164   -18859.646    4.3795698    4.3795698    4.3795698   -18859.646   -17856.263        -7693   -31029.674     8158.119   -18873.172   -533.30298    84.002914 
   93000    808.10512   -110.74719   0.73119049     -110.016    239.85263    4.3643801    4.3643801    4.3643801    239.85263    2461.7546     1031.712   -2773.9087    1204.1244   -7182.7326    3092.2304    83.131899 
   93100     628.2975   -110.58482   0.56849678   -110.01632    5509.8773     4.376218     4.376218     4.376218    5509.8773    38557.726   -8441.6403   -13586.454   -2784.6715    5276.6617   -970.08847    83.810195 
   93200    247.45212   -110.24453   0.22389988   -110.02063   -256.81644    4.3754412    4.3754412    4.3754412   -256.81644    39553.984   -1526.4226   -38798.011   -6482.5216   -18832.732    3568.4322    83.765571 
   93300    715.02433   -110.66182   0.64696904   -110.01485     5286.003    4.3672223    4.3672223    4.3672223     5286.003    9510.3023    11458.159   -5110.4521   -8647.5945   -2618.4138   -1002.1925    83.294421 
   93400    790.64994   -110.73135   0.71539668   -110.01595   -10173.108    4.3767417    4.3767417    4.3767417   -10173.108   -17054.404    7185.5274   -20650.446    534.35058   -4918.0759    -4676.113    83.840285 
   93500    343.36958   -110.33266   0.31068802   -110.02197    2963.9758     4.370757     4.370757     4.370757    2963.9758    24798.378    9534.3665   -25440.817    10325.044   -16370.474    4341.4922    83.496831 
   93600    631.73017   -110.59025   0.57160273   -110.01865    9939.1701    4.3714903    4.3714903    4.3714903    9939.1701    51694.194   -8613.4513   -13263.232    308.27304    7268.2677   -6986.3236    83.538862 
   93700    637.19234   -110.59635   0.57654502   -110.01981   -2028.2938    4.3736454    4.3736454    4.3736454   -2028.2938    15220.514   -9152.9765   -12152.419    1319.4855   -4961.8666    2536.8885    83.662475 
   93800    651.66309    -110.6108   0.58963846   -110.02116   -16821.957     4.371998     4.371998     4.371998   -16821.957   -20661.541   -10043.853   -19760.476   -2851.4326   -17091.213    2750.6231    83.567973 
   93900    734.16911   -110.68177   0.66429163   -110.01748    6885.6243    4.3725994    4.3725994    4.3725994    6885.6243    34996.876   -12495.225    -1844.778   -8296.4027    2888.8992    -1624.172    83.602461 
   94000    435.25793   -110.41362   0.39383052   -110.01979   -4278.8114    4.3759094    4.3759094    4.3759094   -4278.8114    36963.774   -15956.312   -33843.896    4401.2235   -14329.584    6694.8861    83.792465 
   94100    516.64404   -110.48606   0.46747038   -110.01859   -4681.1632    4.3665093    4.3665093    4.3665093   -4681.1632     5450.285    982.53935   -20476.314    8618.0555   -9998.0662   -206.30093    83.253626 
   94200    889.26071   -110.82134   0.80462178   -110.01672   -13687.667    4.3781076    4.3781076    4.3781076   -13687.667   -523.41722   -14092.468   -26447.115     166.3968    5130.3774    3947.1873    83.918807 
   94300    443.42246   -110.42476   0.40121796   -110.02354    1721.2793    4.3715985    4.3715985    4.3715985    1721.2793    27375.496   -1601.6394   -20610.018   -1117.7046   -15704.231    5165.7448    83.545067 
   94400    560.80139   -110.52815   0.50742489   -110.02072     13548.46    4.3654243    4.3654243    4.3654243     13548.46    45214.961    5472.4414   -10042.022    -3376.751   -5807.1637   -565.48816     83.19158 
   94500    708.54515   -110.65825   0.64110654   -110.01714    -9915.338     4.379899     4.379899     4.379899    -9915.338   -6622.0534   -5374.0956   -17749.865   -4536.1302    2045.4612     2731.176    84.021857 
   94600    476.85443   -110.45045   0.43146791   -110.01898   -3770.4154    4.3656036    4.3656036    4.3656036   -3770.4154   -4878.0571    11758.182   -18191.372    4228.5543   -18328.152    2188.7838    83.201832 
   94700    479.03811   -110.45361   0.43344375   -110.02017    4883.6104    4.3718689    4.3718689    4.3718689    4883.6104    40189.764   -4472.0637   -21066.869    6125.0925    4735.4852   -3394.9951    83.560571 
   94800    648.65647   -110.60605   0.58691801   -110.01913   -2855.0465    4.3755667    4.3755667    4.3755667   -2855.0465    34327.027   -18333.877    -24558.29   -2488.4555   -814.29242    2264.2856     83.77278 
   94900    760.69343   -110.70592    0.6882914   -110.01762   -7301.9581    4.3671629    4.3671629    4.3671629   -7301.9581   -5039.9161   -1259.0531   -15606.905    560.46916   -20112.468    1615.3863    83.291021 
   95000    745.08139   -110.69197    0.6741653   -110.01781   -10078.743     4.373112     4.373112     4.373112   -10078.743    4275.5697   -18880.814   -15630.986   -322.73783     5651.804   -1307.3921    83.631869 
   95100    425.39483   -110.40585   0.38490618   -110.02094   -2686.7642    4.3747234    4.3747234    4.3747234   -2686.7642    33672.664   -13506.752   -28226.204    719.31674    -5305.328    5047.2694    83.724355 
   95200    444.75905   -110.42215   0.40242733   -110.01972    11052.902    4.3660593    4.3660593    4.3660593    11052.902     36555.71    2909.6512   -6306.6562    7169.3129   -9099.8433   -1773.2594     83.22789 
   95300    709.04091   -110.66103   0.64155511   -110.01948   -14997.952    4.3791143    4.3791143    4.3791143   -14997.952   -10224.442   -10945.474   -23823.939    4385.1607    11144.798      423.658    83.976709 
   95400    702.77081   -110.65472    0.6358818   -110.01884   -518.27247    4.3694892    4.3694892    4.3694892   -518.27247    12259.193    429.75164   -14243.762   -4251.7511   -12063.911    5106.6951     83.42419 
   95500    557.00269     -110.523   0.50398774   -110.01901    12843.502    4.3676972    4.3676972    4.3676972    12843.502    49264.614     6132.076   -16866.186   -3136.2224   -11525.157   -4022.6734    83.321592 
   95600    417.34828   -110.39906   0.37762549   -110.02144   -8091.9414    4.3794238    4.3794238    4.3794238   -8091.9414    29428.885   -18125.653   -35579.056   -444.22131    6822.6605    4678.2769    83.994512 
   95700    682.42923   -110.63407   0.61747631   -110.01659   -2293.2813    4.3646147    4.3646147    4.3646147   -2293.2813    -365.2157    10149.846   -16664.474    2542.6514   -11623.467    4023.2934    83.145304 
   95800     650.8857   -110.60751   0.58893506   -110.01858   -10759.242    4.3787161    4.3787161    4.3787161   -10759.242   -4126.4613   -15267.936   -12883.329     6385.133    1335.8098   -2291.3832    83.953803 
   95900    492.32634    -110.4653   0.44546722   -110.01984    642.87885     4.373512     4.373512     4.373512    642.87885     44267.49   -18721.386   -23617.467    7087.4237    8029.1186    7623.1205    83.654821 
   96000    697.05829   -110.64714   0.63071299   -110.01643    9914.8124    4.3692797    4.3692797    4.3692797    9914.8124    39523.465   -4555.9444   -5223.0838    -7587.225   -12880.565    1571.2821    83.412192 
   96100    749.84566   -110.69438   0.67847611    -110.0159   -18959.065    4.3802846    4.3802846    4.3802846   -18959.065   -2676.2905   -24126.373   -30074.531   -1252.3679    1386.2241    256.74897    84.044051 
   96200    587.72462   -110.54933   0.53178559   -110.01755   -4369.2753    4.3682774    4.3682774    4.3682774   -4369.2753    14228.394    -3762.594   -23573.626   -471.06356    4498.5535    5785.7618    83.354801 
   96300    584.61216    -110.5465   0.52896937   -110.01753    5131.9881    4.3741784    4.3741784    4.3741784    5131.9881    44697.136   -8788.9707   -20512.201    1904.3678   -3773.3095   -3475.0297    83.693065 
   96400    417.52696   -110.39899   0.37778717   -110.02121     4537.275    4.3740213    4.3740213    4.3740213     4537.275    41595.275   -10468.457   -17514.993    9270.7345    9730.3242    2161.9605    83.684049 
   96500     654.4223   -110.61119   0.59213505   -110.01905   -3259.1703     4.371471     4.371471     4.371471   -3259.1703   -2467.6294    10113.382   -17423.264    6024.9058    8816.1897    1929.4476    83.537755 
   96600    760.27595   -110.70545   0.68791366   -110.01754   -1306.3631    4.3742721    4.3742721    4.3742721   -1306.3631    9387.8435   -335.62468   -12971.308   -5135.1057   -7296.3851     -6597.12    83.698442 
   96700     312.5588   -110.30655   0.28280977   -110.02374    10199.389    4.3716142    4.3716142    4.3716142    10199.389    53733.802   -657.42782   -22478.206   -6261.8901    5040.9064    5186.5869    83.545963 
   96800    616.35518   -110.57876   0.55769112   -110.02107    1657.3869    4.3739551    4.3739551    4.3739551    1657.3869    33051.861   -3455.5337   -24624.167   -3297.0141    7578.1895   -691.02408    83.680246 
   96900    790.49738   -110.73329   0.71525864   -110.01803   -4814.6946    4.3736448    4.3736448    4.3736448   -4814.6946    7838.5189   -9277.2267   -13005.376    913.88875   -1750.3583    237.28356    83.662439 
   97000    543.55957   -110.51221   0.49182412   -110.02039   -6928.7073     4.370547     4.370547     4.370547   -6928.7073    6625.2708    -3804.873    -23606.52    6254.7355    12547.144    8768.5906    83.484796 
   97100    498.87317   -110.47224   0.45139093   -110.02085   -86.446157    4.3759995    4.3759995    4.3759995   -86.446157    34282.007   -8989.7254    -25551.62    8725.3276    3154.4612   -1672.3037    83.797644 
   97200    577.68795   -110.54157    0.5227042   -110.01886    11600.847    4.3675485    4.3675485    4.3675485    11600.847    59152.166    -6909.805   -17439.822   -1675.2839   -9170.2495    5477.4655    83.313084 
   97300    676.58296   -110.63375   0.61218648   -110.02156   -13641.192    4.3759853    4.3759853    4.3759853   -13641.192   -14262.622   -10347.537   -16313.415    632.51015    14527.941    3264.7828    83.796825 
   97400    817.43323   -110.75937   0.73963077   -110.01974   -1471.0272    4.3710902    4.3710902    4.3710902   -1471.0272    22438.954   -11001.232   -15850.803   -1856.3876    7590.2329   -133.30568    83.515929 
   97500    420.14805   -110.40176   0.38015879    -110.0216    12190.153    4.3710087    4.3710087    4.3710087    12190.153    61167.092   -13295.728   -11300.905    123.72199    2462.8313    4134.9391    83.511258 
   97600     522.8068   -110.49442   0.47304658   -110.02137   -11082.618    4.3751272    4.3751272    4.3751272   -11082.618    2678.1169   -5022.9269   -30903.043    3593.9311    17722.157   -2464.8756    83.747541 
   97700    667.49009   -110.62244   0.60395906   -110.01848   -1337.6351    4.3657177    4.3657177    4.3657177   -1337.6351    17168.888   -3536.9485   -17644.845    4787.1056   -2886.3208    1480.0403    83.208357 
   97800    549.12827   -110.51967    0.4968628   -110.02281   -6274.5711    4.3771724    4.3771724    4.3771724   -6274.5711    27746.019   -12509.811   -34059.921   -6067.8539     2109.547    2861.9348     83.86504 
   97900    555.53227   -110.52406   0.50265727    -110.0214    10668.015    4.3689713    4.3689713    4.3689713    10668.015    44923.005    -836.4017   -12082.559     4223.574    13892.741   -1206.3536    83.394534 
   98000     786.1525   -110.73157   0.71132731   -110.02024   -8298.8541    4.3707094    4.3707094    4.3707094   -8298.8541    14520.527   -18078.581   -21338.508    1946.1553    1161.0099    2768.9695      83.4941 
   98100    646.68155   -110.60569   0.58513106   -110.02056   -1710.1909    4.3762743    4.3762743    4.3762743   -1710.1909    18017.622   -9054.4252   -14093.769    5357.6999    3952.5022    2456.1055    83.813429 
   98200     530.7553    -110.4993   0.48023855   -110.01906    1982.4671      4.37053      4.37053      4.37053    1982.4671    30559.371   -7417.8577   -17194.111    944.78356    7615.9464    914.08062    83.483821 
   98300    437.43895   -110.41762   0.39580395   -110.02182    781.36308    4.3705035    4.3705035    4.3705035    781.36308    40890.581   -14237.646   -24308.846   -837.38216   -7024.0481    3231.3531      83.4823 
   98400    746.11315    -110.6938   0.67509886    -110.0187   -3288.4998    4.3763441    4.3763441    4.3763441   -3288.4998    6075.2356    1331.4459   -17272.181   -8026.5063    5048.0714    493.55845    83.817438 
   98500    744.92616   -110.69346   0.67402484   -110.01943   -6109.1283    4.3684985    4.3684985    4.3684985   -6109.1283   -4746.3412    4470.6175   -18051.661    4198.3558    8833.9795    3341.1095     83.36746 
   98600    403.95115   -110.38885   0.36550349   -110.02334    8954.2897    4.3716252    4.3716252    4.3716252    8954.2897    48337.217    6457.0407   -27931.389    7463.9809   -6050.8738    3349.6041    83.546597 
   98700     558.9145   -110.52169   0.50571759   -110.01597    2476.1401    4.3809751    4.3809751    4.3809751    2476.1401    34625.511   -434.86902   -26762.221    7871.7785     3899.336    46.772867    84.083807 
   98800    511.76403   -110.47862   0.46305485   -110.01556     11363.35    4.3625388    4.3625388    4.3625388     11363.35    31081.927    6240.4834   -3232.3618    2792.2686   -196.13431    6483.6321    83.026727 
   98900    741.00065    -110.6882   0.67047296   -110.01773   -15340.838    4.3792784    4.3792784    4.3792784   -15340.838   -9077.0386   -12533.759   -24411.717   -2326.5363   -11355.515     4071.712    83.986148 
   99000    773.28945   -110.71371   0.69968854   -110.01402   -1701.0678    4.3760119    4.3760119    4.3760119   -1701.0678    7577.9307   -8768.7155   -3912.4187   -10369.816    9236.1814    805.21903    83.798355 
   99100    385.54732   -110.36561   0.34885132   -110.01676    6968.8672    4.3650398    4.3650398    4.3650398    6968.8672    60765.498   -17597.619   -22261.278   -411.60667    4385.5231    3028.4894    83.169601 
   99200    504.29854   -110.47366   0.45629992   -110.01736   -8994.6979    4.3804656    4.3804656    4.3804656   -8994.6979    21494.075   -12704.958   -35773.211    5029.5037   -7251.6903   -2642.2237    84.054472 
   99300    874.74339   -110.80441    0.7914862   -110.01292   -2946.6213     4.369889     4.369889     4.369889   -2946.6213     7877.422    186.39578   -16903.682     8059.289    4885.0075     1005.526    83.447093 
   99400    536.35883   -110.50442   0.48530875   -110.01911   -2836.9536    4.3717799    4.3717799    4.3717799   -2836.9536    11402.965   -3317.6535   -16596.172   -1331.5804    -8403.437    1311.9516    83.555465 
   99500    617.29941   -110.57751   0.55854548   -110.01897    1220.1947    4.3748971    4.3748971    4.3748971    1220.1947    26542.668    983.70848   -23865.792    -1262.965   -10994.857   -1914.0782    83.734327 
   99600    499.99049   -110.47047    0.4524019   -110.01806    10866.194    4.3710994    4.3710994    4.3710994    10866.194    47590.812   -9827.6527   -5164.5783   -9407.0116    6791.3547    6182.6506    83.516457 
   99700    445.06235    -110.4229   0.40270177    -110.0202   -2477.6822    4.3699764    4.3699764    4.3699764   -2477.6822    20556.926   -5108.4302   -22881.542   -1037.0477   -3943.5617   -290.27908      83.4521 
   99800    734.34963   -110.68265   0.66445498    -110.0182   -8155.3215     4.373658     4.373658     4.373658   -8155.3215   -5467.8177    3391.6786   -22389.826    1110.4675   -9518.5511    1100.0965    83.663196 
   99900    679.49896   -110.63361   0.61482493   -110.01878    2259.0695    4.3722453    4.3722453    4.3722453    2259.0695    42230.662   -16241.861   -19211.593    875.43583    258.73124    5866.8562    83.582152 
  100000    456.53036   -110.43425   0.41307826   -110.02117    7269.5171    4.3682992    4.3682992    4.3682992    7269.5171    39173.928   -1328.6536   -16036.723   -819.23568   -13564.375   -2904.3199    83.356049 
Loop time of 22.041 on 1 procs for 100000 steps with 8 atoms

Pair  time (%) = 6.7444 (30.5994)
Kspce time (%) = 5.41039 (24.5469)
Neigh time (%) = 0 (0)
Comm  time (%) = 1.10315 (5.00502)
Outpt time (%) = 0.0265665 (0.120532)
Other time (%) = 8.75647 (39.7281)

Nlocal:    8 ave 8 max 8 min
Histogram: 1 0 0 0 0 0 0 0 0 0
Nghost:    2189 ave 2189 max 2189 min
Histogram: 1 0 0 0 0 0 0 0 0 0
Neighs:    2056 ave 2056 max 2056 min
Histogram: 1 0 0 0 0 0 0 0 0 0

Total # of neighbors = 2056
Ave neighs/atom = 257
Neighbor list builds = 0
Dangerous builds = 0
unfix 20
unfix 21
print "seeds:9950067"
seeds:9950067
