LAMMPS (10 Feb 2015)
# ---- initialize simulations
clear
units metal
dimension 3
boundary p p p
atom_style charge
atom_modify map array
# ---- create atoms
read_data /Users/eugeneragasa/pyflamestk_git/pypospack/tests/tests_integration/workflow/WorkflowLammpsThermalExpansion/param_8221/MgO_NaCl_unit.npt.T1800/lammps.structure
  triclinic box = (0 0 0) to (4.2565 4.2565 4.2565) with tilt (0 0 0)
  1 by 1 by 1 MPI processor grid
  reading atoms ...
  8 atoms
# ---- define interatomic potential
include potential.mod
mass 1 24.305
mass 2 15.999

group Mg type 1
4 atoms in group Mg
group O type 2
4 atoms in group O

set group Mg charge 1.65389423724
  4 settings made for charge
set group O charge -1.65389423724
  4 settings made for charge

variable R_cut equal 10.0

pair_style buck/coul/long ${R_cut}
pair_style buck/coul/long 10
pair_coeff 1 1 0.0 0.5 0.0 ${R_cut}
pair_coeff 1 1 0.0 0.5 0.0 10
pair_coeff 1 2 1300.0678519 0.288744572517 0.0 ${R_cut}
pair_coeff 1 2 1300.0678519 0.288744572517 0.0 10
pair_coeff 2 2 40472.9144105 0.202420171096 26.2679081719 ${R_cut}
pair_coeff 2 2 40472.9144105 0.202420171096 26.2679081719 10

kspace_style pppm 1.0e-5

neighbor 1.0 bin
neigh_modify every 1 delay 0 check yes
# ---- define settings
compute eng all pe/atom
compute eatoms all reduce sum c_eng
# ---- run minimization
reset_timestep 0
fix 1 all box/relax iso 0.0 vmax 0.001
thermo 10
thermo_style custom step pe lx ly lz xy xz yz press pxx pyy pzz pxy pxz pyz c_eatoms
min_style cg
minimize 1e-25 1e-25 5000 10000
PPPM initialization ...
  G vector (1/distance) = 0.352799
  grid = 8 8 8
  stencil order = 5
  estimated absolute RMS force accuracy = 3.93787e-05
  estimated relative force accuracy = 2.7347e-06
  using double precision FFTs
  3d grid and FFT values/proc = 3375 512
Neighbor list info ...
  1 neighbor list requests
  update every 1 steps, delay 0 steps, check yes
  master list distance cutoff = 11
Memory usage per processor = 4.06549 Mbytes
Step PotEng Lx Ly Lz Xy Xz Yz Press Pxx Pyy Pzz Pxy Pxz Pyz eatoms 
       0   -110.27609       4.2565       4.2565       4.2565            0            0            0    110960.29    110960.29    110960.29    110960.29 9.3314123e-11 1.6239754e-10 5.8891323e-11   -110.27609 
      10   -110.39349     4.299065     4.299065     4.299065            0            0            0    52923.265    52923.265    52923.265    52923.265 1.8718586e-11 -3.674075e-11 -9.001309e-11   -110.39349 
      20   -110.43343      4.34163      4.34163      4.34163            0            0            0    2089.5567    2089.5567    2089.5567    2089.5567 6.9298069e-11 -1.296578e-10 -9.997383e-11   -110.43343 
      22   -110.43352     4.343513     4.343513     4.343513            0            0            0   -5.7193123   -5.7193123   -5.7193123   -5.7193123 4.586585e-11 9.062077e-11 2.6249224e-10   -110.43352 
Loop time of 0.013412 on 1 procs for 22 steps with 8 atoms

Minimization stats:
  Stopping criterion = linesearch alpha is zero
  Energy initial, next-to-last, final = 
        -110.276087498     -110.433524975     -110.433524975
  Force two-norm initial, final = 16.0227 0.00180648
  Force max component initial, final = 16.0227 0.000859982
  Final line search alpha, max atom move = 0.00390625 3.35931e-06
  Iterations, force evaluations = 22 39

Pair  time (%) = 0.0035851 (26.7305)
Kspce time (%) = 0.00219798 (16.3882)
Neigh time (%) = 0 (0)
Comm  time (%) = 0.000401735 (2.99534)
Outpt time (%) = 2.67029e-05 (0.199097)
Other time (%) = 0.00720048 (53.6868)

Nlocal:    8 ave 8 max 8 min
Histogram: 1 0 0 0 0 0 0 0 0 0
Nghost:    2189 ave 2189 max 2189 min
Histogram: 1 0 0 0 0 0 0 0 0 0
Neighs:    2344 ave 2344 max 2344 min
Histogram: 1 0 0 0 0 0 0 0 0 0

Total # of neighbors = 2344
Ave neighs/atom = 293
Neighbor list builds = 0
Dangerous builds = 0
unfix 1
# ---- define output variables ----
variable natoms equal "count(all)"
variable tot_energy equal "c_eatoms"
variable length_x equal "lx"
variable length_y equal "ly"
variable length_z equal "lz"
variable tilt_xy equal "xy"
variable tilt_xz equal "xz"
variable tilt_yz equal "yz"
variable tot_press equal "press"
variable press_xx equal "pxx"
variable press_yy equal "pyy"
variable press_zz equal "pzz"
variable press_xy equal "pxy"
variable press_xz equal "pxz"
variable press_yz equal "pyz"

# ---- output ----
print "pypospack:output_section:begin"
pypospack:output_section:begin
print "tot_energy = ${tot_energy}"
tot_energy = -110.433524975286
print "num_atoms = ${natoms}"
num_atoms = 8
print "xx = ${length_x}"
xx = 4.34351296178449
print "yy = ${length_y}"
yy = 4.34351296178449
print "zz = ${length_z}"
zz = 4.34351296178449
print "xy = ${tilt_xy}"
xy = 0
print "xz = ${tilt_xz}"
xz = 0
print "yz = ${tilt_yz}"
yz = 0
print "tot_press = ${tot_press}"
tot_press = -5.71931225965551
print "pxx = ${press_xx}"
pxx = -5.71931225981032
print "pyy = ${press_yy}"
pyy = -5.71931225968463
print "pzz = ${press_zz}"
pzz = -5.71931225947158
print "pxy = ${press_xy}"
pxy = 4.5865850341772e-11
print "pxz = ${press_xz}"
pxz = 9.06207702771322e-11
print "pyz = ${press_yz}"
pyz = 2.62492238241466e-10
print "pypospack:output_section:done"
pypospack:output_section:done
print "pypospack:lammps_sim:done"
pypospack:lammps_sim:done
#------------------------------------------------------------------------------
# RUN THERMOSTAT
# running using an NPT Nose-Hoover style thermostat
#------------------------------------------------------------------------------
variable tempdamp equal 0.1
variable pressdamp equal 1.0
# set initial velocities
velocity all create 1800 3788445 mom yes dist gaussian loop all
# fix for Nose-Hoover style thermostat
fix 20 all npt temp 1800 1800 0.1 aniso 0.0 0.0 1.0 drag 1.0 couple xyz
variable boxx equal lx
variable boxy equal ly
variable boxz equal lz
variable boxp equal press
variable boxt equal temp
# calculate averages every 10000 steps
reset_timestep 0
fix 21 all ave/time 10 10 100 v_boxx v_boxy v_boxz v_boxp v_boxt file lattice.out
thermo_style custom step temp pe ke etotal press lx ly lz press pxx pyy pzz pxy pxz pyz vol
thermo_modify flush yes
thermo 100
run 100000
PPPM initialization ...
  G vector (1/distance) = 0.351923
  grid = 8 8 8
  stencil order = 5
  estimated absolute RMS force accuracy = 4.10067e-05
  estimated relative force accuracy = 2.84776e-06
  using double precision FFTs
  3d grid and FFT values/proc = 3375 512
Memory usage per processor = 3.06549 Mbytes
Step Temp PotEng KinEng TotEng Press Lx Ly Lz Press Pxx Pyy Pzz Pxy Pxz Pyz Volume 
       0         1800   -110.43354    1.6286778   -108.80486    21221.273     4.343513     4.343513     4.343513    21221.273    32357.318    26228.164    5078.3371    16027.016    481.67231   -2046.2847    81.945171 
     100    1023.3462    -109.5293   0.92594516   -108.60336     14586.09    4.3790473    4.3790473    4.3790473     14586.09    56706.752    9553.0445   -22501.527   -21950.355    779.46243   -526.57624    83.972852 
     200    1147.3533   -109.19446    1.0381494   -108.15631   -22277.391    4.4304798    4.4304798    4.4304798   -22277.391    30090.337   -33590.152    -63332.36   -5305.9995   -7127.2163    -2335.236    86.966556 
     300    1165.0544   -108.81376    1.0541657    -107.7596   -26925.762    4.4428502    4.4428502    4.4428502   -26925.762     23803.63   -35207.006   -69373.911    20650.016   -1540.7304    9832.5271    87.697058 
     400    803.70901   -108.16616    0.7272128   -107.43895    41173.732    4.4175721    4.4175721    4.4175721    41173.732    25846.455    126364.75    -28690.01   -24431.446    7089.7874    15037.625     86.20867 
     500    1724.0359   -108.80368    1.5599439   -107.24373    27759.815    4.4037493    4.4037493    4.4037493    27759.815    101153.43    2978.2265   -20852.212    10100.854     18104.83    210.95008    85.401943 
     600    2033.0281   -109.04388    1.8395266   -107.20435   -2057.0319    4.4238009    4.4238009    4.4238009   -2057.0319    9347.3852    29611.682   -45130.163   -6129.3423   -20455.099    5491.5212     86.57385 
     700     1395.738   -108.40995    1.2628931   -107.14705   -34827.258    4.4496107    4.4496107    4.4496107   -34827.258   -14199.397    11229.946   -101512.32    10473.718   -23027.191   -1231.2612    88.097998 
     800    1581.7508   -108.52506    1.4312013   -107.09386   -38544.075    4.4298226    4.4298226    4.4298226   -38544.075    -56862.75   -38925.592   -19843.882    2756.6057   -4958.4729   -13494.965    86.927861 
     900    1318.6754   -108.29925    1.1931652   -107.10609    14940.844     4.421832     4.421832     4.421832    14940.844   -18428.271     103540.2   -40289.401    3582.1645    9494.8813   -4355.3668    86.458305 
    1000    1990.1365   -108.93717    1.8007173   -107.13645   -23825.492    4.4288293    4.4288293    4.4288293   -23825.492   -31456.605    24288.414   -64308.284    22002.729    1305.5747    4098.3784    86.869402 
    1100    2424.7265   -109.32462    2.1939435   -107.13068    10554.892    4.4177371    4.4177371    4.4177371    10554.892     9632.315    64833.444   -42801.081   -10856.753    4154.4671    3488.6852    86.218327 
    1200     1886.735   -108.86893    1.7071575   -107.16177   -5609.2305    4.4347128    4.4347128    4.4347128   -5609.2305   -2733.9772    49781.747   -63875.462   -218.65579    508.60522   -671.91637    87.216065 
    1300    1792.2077   -108.74776    1.6216272   -107.12613    -9387.609    4.4423296    4.4423296    4.4423296    -9387.609    -52361.18     63512.89   -39314.538    17627.137    13751.006   -7618.9706    87.666231 
    1400    1314.7423    -108.2938    1.1896064    -107.1042   -29758.811    4.4330301    4.4330301    4.4330301   -29758.811   -75564.444      7042.34    -20754.33    8973.9288   -13370.257    2697.3095    87.116828 
    1500    1863.5349   -108.78242    1.6861655   -107.09625   -22119.999    4.4190812    4.4190812    4.4190812   -22119.999   -32856.764    1286.2106   -34789.445   -11997.187   -6208.7353   -4335.6853    86.297049 
    1600    1398.5501   -108.38171    1.2654376   -107.11627    50348.732    4.4197378    4.4197378    4.4197378    50348.732    30535.064    101410.63    19100.499    10611.399   -4199.8289    4007.9681    86.335524 
    1700    1539.5983   -108.51725    1.3930609   -107.12419    14281.703     4.445723     4.445723     4.445723    14281.703    8534.7818    74413.325   -40102.999    686.80039   -9118.1393    17021.454    87.867284 
    1800    2315.4254   -109.17392    2.0950455   -107.07888    -18577.21     4.441164     4.441164     4.441164    -18577.21   -43907.469    22168.595   -33992.758   -17851.325     5030.162    26907.095    87.597242 
    1900    1419.8242   -108.35044    1.2846868   -107.06575    41521.071    4.4114683    4.4114683    4.4114683    41521.071     43994.04     85827.27   -5258.0977    23442.557    7862.8427    687.71865    85.851818 
    2000     1449.567   -108.42114    1.3115987   -107.10954   -2664.7516    4.4161292    4.4161292    4.4161292   -2664.7516    3957.5843    14024.639   -25976.478   -16159.658    680.76655    520.71735    86.124225 
    2100    1187.7145   -108.21369    1.0746691   -107.13902   -8577.0019    4.4336824    4.4336824    4.4336824   -8577.0019    30532.815   -45868.947   -10394.874    7466.4545   -749.95334    8040.1632    87.155289 
    2200    2230.6142   -109.14498    2.0183066   -107.12667   -29888.552    4.4335025    4.4335025    4.4335025   -29888.552    -42341.77   -43415.733   -3908.1527    30734.422   -1148.5559    1565.0032     87.14468 
    2300    2152.9045   -109.05862    1.9479932   -107.11063    31328.947    4.4135549    4.4135549    4.4135549    31328.947     36260.68    42919.478    14806.684    9701.1678   -13910.322    2503.9342    85.973697 
    2400    2001.5344   -108.95016    1.8110304   -107.13913    12433.894    4.4166539    4.4166539    4.4166539    12433.894   -31442.628    20731.331    48012.979    3752.0377    -2502.154   -7285.0427    86.154924 
    2500     1520.149   -108.51144    1.3754628   -107.13598    19904.494    4.4313754    4.4313754    4.4313754    19904.494     47741.16   -15568.702    27541.023    7539.5691     2454.438    22201.176    87.019308 
    2600    1382.5694   -108.36442    1.2509778   -107.11344   -22729.089     4.433339     4.433339     4.433339   -22729.089   -45906.436   -52261.803    29980.971   -539.75667   -10622.131    25476.056    87.135039 
    2700    1144.7179   -108.14601    1.0357648   -107.11025   -1804.0518    4.4270983    4.4270983    4.4270983   -1804.0518    10373.225   -38585.008    22799.628     10334.44   -16333.131    529.08764    86.767584 
    2800    2363.6971   -109.25014    2.1387228   -107.11142   -2299.6862    4.4124712    4.4124712    4.4124712   -2299.6862     15140.89   -14742.657   -7297.2913    10313.137    18295.426    18556.543    85.910382 
    2900    2196.1277   -109.14138    1.9871025   -107.15428    853.93522    4.4153343    4.4153343    4.4153343    853.93522   -14677.715   -23358.527    40598.047   -14295.181   -16782.203    4592.2206    86.077725 
    3000    1665.3784   -108.67254    1.5068694   -107.16567    490.92002    4.4316304    4.4316304    4.4316304    490.92002    46373.025   -51092.316    6192.0514   -1713.0189   -3590.9884   -18309.702    87.034329 
    3100     2044.294   -108.98773    1.8497202   -107.13801   -19913.581    4.4279246    4.4279246    4.4279246   -19913.581    2666.0857   -61208.905   -1197.9247    7948.7757   -23822.046   -4328.5509    86.816178 
    3200    1144.2294     -108.171    1.0353228   -107.13568    47682.123    4.4206723    4.4206723    4.4206723    47682.123    16269.556    53213.759    73563.052   -1455.5919    5700.4379   -1826.7436    86.390295 
    3300     1685.496    -108.6624    1.5250722   -107.13733    15443.762    4.4341752    4.4341752    4.4341752    15443.762    72292.399    5375.5666    -31336.68     10214.98   -8109.6685    1659.9956    87.184353 
    3400    2151.6575   -109.08803    1.9468649   -107.14117   -13420.453    4.4343815    4.4343815    4.4343815   -13420.453   -3567.7524    11409.152   -48102.759    -3867.482    4526.0365   -2347.6815     87.19652 
    3500    2087.1916   -109.02985    1.8885348   -107.14132    2349.1312    4.4214158    4.4214158    4.4214158    2349.1312   -16327.085   -3137.3333    26511.811    7093.6144   -10848.444   -4617.6204    86.433893 
    3600    1816.8456   -108.79893    1.6439201   -107.15501   -1698.9866     4.422838     4.422838     4.422838   -1698.9866    60312.756   -74830.674    9420.9581    15387.616    20379.865    17084.228    86.517328 
    3700     1820.877   -108.78917    1.6475678    -107.1416   -9390.2916    4.4214895    4.4214895    4.4214895   -9390.2916    18358.168   -34004.192   -12524.851   -10325.393   -17019.184   -12753.376    86.438214 
    3800    1589.6782   -108.58272    1.4383742   -107.14434    19301.582    4.4211769    4.4211769    4.4211769    19301.582    66637.477   -6629.8112   -2102.9204    8908.1246   -7644.1141   -6872.1979    86.419882 
    3900     1901.936   -108.86174    1.7209116   -107.14083   -13666.177    4.4312385    4.4312385    4.4312385   -13666.177    -27588.94   -4852.0354   -8557.5559     3303.066    4428.2533   -11530.571    87.011247 
    4000    2239.7463   -109.15257    2.0265695     -107.126    -7940.794    4.4307423    4.4307423    4.4307423    -7940.794   -29385.981   -31450.754    37014.352    10371.292    5829.7598   -7337.9846    86.982016 
    4100    1268.2903    -108.2792    1.1475757   -107.13163    4070.3041    4.4323933    4.4323933    4.4323933    4070.3041    54417.066   -1772.2765   -40433.877   -13487.772     19928.82   -3773.8582    87.079286 
    4200    2031.2141   -108.95727    1.8378852   -107.11938   -14485.357    4.4203957    4.4203957    4.4203957   -14485.357   -14658.315   -23828.738   -4969.0178   -7825.3601    20006.307   -7116.8861    86.374084 
    4300    2101.3528   -109.01962    1.9013482   -107.11827    347.44063    4.4106985    4.4106985    4.4106985    347.44063    57029.452    -14862.83     -41124.3    1275.5109   -6064.5092   -10430.705    85.806881 
    4400    1417.2012   -108.44009    1.2823134   -107.15777    -8755.317    4.4367573    4.4367573    4.4367573    -8755.317    57827.003   -29253.969   -54838.985   -15134.835     3945.619    18538.813    87.336749 
    4500    1791.0358   -108.74721    1.6205669   -107.12664   -20926.878    4.4567901    4.4567901    4.4567901   -20926.878    1022.7828    -83961.56    20158.142    -9368.848   -8118.6459    5516.2777    88.525125 
    4600    2142.6214    -109.0307    1.9386889   -107.09201   -3394.4603    4.4349797    4.4349797    4.4349797   -3394.4603   -20200.948   -44888.076    54905.644    13929.572   -8290.8973    6494.8969    87.231813 
    4700    2068.7725   -108.95457    1.8718688    -107.0827    4988.9797    4.4092302    4.4092302    4.4092302    4988.9797   -21720.729   -21613.823    58301.492   -2644.1765    -7032.971    3438.5279    85.721215 
    4800    1839.8548   -108.78489    1.6647393   -107.12015   -6459.1659    4.4189665    4.4189665    4.4189665   -6459.1659   -44143.394   -391.98408     25157.88   -6082.5974    -5183.545   -4124.2768    86.290327 
    4900     1812.489   -108.78073    1.6399781   -107.14075     11883.75    4.4404902    4.4404902    4.4404902     11883.75   -23223.881    4024.8464    54850.284    6743.0448    736.59742    15984.265    87.557381 
    5000    1339.1278   -108.33608     1.211671   -107.12441   -26640.081    4.4690428    4.4690428    4.4690428   -26640.081   -76510.421   -59880.871    56471.049     3321.453   -19652.656   -8361.9715    89.257257 
    5100    2307.3007   -109.14443    2.0876942   -107.05673    -17216.48     4.452244     4.452244     4.452244    -17216.48   -84747.701   -36227.763    69326.025   -2883.3957   -15235.644   -17925.566    88.254505 
    5200    1429.0232   -108.35012    1.2930102   -107.05711    28120.691    4.4281446    4.4281446    4.4281446    28120.691    -24234.63   -8099.1829    116695.89   -4926.8027    20979.255    5476.5227    86.829114 
    5300    1665.2919   -108.59229    1.5067911    -107.0855    9527.9939    4.4232898    4.4232898    4.4232898    9527.9939   -22062.406    34359.363    16287.025    9980.5763    5293.0366    -20869.46    86.543846 
    5400    1509.7832   -108.49835    1.3660836   -107.13227   -8378.5266     4.449591     4.449591     4.449591   -8378.5266   -45007.686    17183.841     2688.266      -1036.4     2166.269    4459.4304    88.096827 
    5500    1676.5336   -108.61393    1.5169628   -107.09697    -29723.58    4.4576244    4.4576244    4.4576244    -29723.58   -34023.806   -11259.461   -43887.473    2980.1837    -7224.497    20032.135    88.574849 
    5600    2126.9732   -108.98493      1.92453    -107.0604     13947.87    4.4209884    4.4209884    4.4209884     13947.87   -20238.134    4226.9504    57854.792    4033.2575    13614.439   -24511.219    86.408831 
    5700     2198.288   -109.06015    1.9890572   -107.07109    17459.885    4.4108071    4.4108071    4.4108071    17459.885    418.30977     25372.95    26588.397   -14738.799   -5254.4758     4809.803    85.813216 
    5800    1753.0758   -108.70495    1.5862198   -107.11873   -3904.8188    4.4278285    4.4278285    4.4278285   -3904.8188   -56031.538    52127.456   -7810.3746    26345.881   -17506.669     10607.68    86.810525 
    5900    1444.0878   -108.43014     1.306641    -107.1235    3438.6825    4.4307828    4.4307828    4.4307828    3438.6825   -38750.908    13015.791    36051.164    19399.666   -6068.6151   -2711.6322    86.984403 
    6000     1482.703   -108.45179    1.3415808   -107.11021     13137.77    4.4198227    4.4198227    4.4198227     13137.77   -12670.159    100258.27   -48174.802   -18763.229   -46.518077   -8334.2139    86.340497 
    6100    1748.6282   -108.69648    1.5821956   -107.11428   -8036.9894    4.4092196    4.4092196    4.4092196   -8036.9894   -37235.496   -5788.6629    18913.191    24891.696    3406.9995   -13017.107    85.720599 
    6200    2328.8519   -109.22085    2.1071941   -107.11365    15154.889    4.4055389    4.4055389    4.4055389    15154.889   -26802.977     28444.73    43822.916     5241.821    1372.0154   -26083.396    85.506102 
    6300    1944.3086   -108.90403    1.7592513   -107.14478   -14527.787    4.4262255    4.4262255    4.4262255   -14527.787   -51998.579     4894.231    3520.9852    11693.835    2147.1873    16867.646    86.716272 
    6400     1894.505   -108.83991     1.714188   -107.12573   -35748.254    4.4338158    4.4338158    4.4338158   -35748.254   -24584.187   -30208.512   -52452.062    26281.332    2017.6738   -2389.1503    87.163156 
    6500    1585.8346   -108.52712    1.4348965   -107.09223    50395.498    4.4079484    4.4079484    4.4079484    50395.498    6148.9947    87630.202    57407.299   -21092.391     10678.94   -13983.019    85.646478 
    6600    1808.0421   -108.75343    1.6359545   -107.11747   -11000.609    4.4152271    4.4152271    4.4152271   -11000.609   -44752.138   -1210.6667    12960.978    15814.533   -5737.1437    19505.564    86.071456 
    6700    1649.3376   -108.61587    1.4923553   -107.12352    1948.6318    4.4279617    4.4279617    4.4279617    1948.6318    -38530.89    9686.4196    34690.366    9653.9889    6475.1431      4224.04    86.818359 
    6800    2513.5043   -109.38286    2.2742715   -107.10859   -4586.4155    4.4231099    4.4231099    4.4231099   -4586.4155   -984.74526   -355.79468   -12418.707    5394.8038   -7528.2047   -2264.9677    86.533287 
    6900    1945.8498   -108.87218    1.7606458   -107.11154   -10986.992    4.4336656    4.4336656    4.4336656   -10986.992   -23115.442   -14462.459    4616.9254     15174.31   -18794.661    8930.0234    87.154296 
    7000    1435.0075   -108.39128     1.298425   -107.09286   -15638.873    4.4325824    4.4325824    4.4325824   -15638.873   -60467.941    71281.656   -57730.334   -590.80443   -23566.868    13174.602    87.090433 
    7100    2004.5644   -108.89708     1.813772    -107.0833     4944.919    4.4154429    4.4154429    4.4154429     4944.919   -15031.804    11533.841    18332.721   -15451.871    12136.396   -27170.976    86.084076 
    7200    1659.3187   -108.60811    1.5013864   -107.10673    28519.051    4.4170006    4.4170006    4.4170006    28519.051   -28334.339    78710.802     35180.69    11873.875   -7538.1441    16034.005    86.175214 
    7300    2289.2803   -109.19761    2.0713889   -107.12622   -13762.072    4.4252213    4.4252213    4.4252213   -13762.072   -60705.546   -3935.0993    23354.429   -11914.692   -7103.8524    9756.7552    86.657267 
    7400    1798.5588   -108.74427    1.6273738   -107.11689    5294.5256    4.4202519    4.4202519    4.4202519    5294.5256   -1764.9854   -7566.7051    25215.267   -20285.027    2945.1053   -18159.788    86.365655 
    7500    1581.3491   -108.53136    1.4308379   -107.10052   -5925.1591    4.4143145    4.4143145    4.4143145   -5925.1591    -5009.352    35578.263   -48344.388    8179.3794   -5935.9142    4669.4562    86.018096 
    7600    1471.1764   -108.44304    1.3311513   -107.11188   -17277.284    4.4272819    4.4272819    4.4272819   -17277.284   -25211.127   -5081.1387   -21539.588   -11928.104   -6368.7469    8939.9759    86.778376 
    7700    1922.7578   -108.83736    1.7397517   -107.09761   -35852.661    4.4339963    4.4339963    4.4339963   -35852.661   -29642.268   -64407.634   -13508.082   -4019.5522    225.35344    30598.035    87.173801 
    7800    2352.6694   -109.21246    2.1287447   -107.08371    15366.739    4.4154617    4.4154617    4.4154617    15366.739   -34375.562    24688.694    55787.086    9799.1969   -12879.335     5562.981    86.085172 
    7900    2037.4293   -108.94869    1.8435089   -107.10518   -2767.1119    4.4159256    4.4159256    4.4159256   -2767.1119   -31199.305   -23350.849    46248.819   -23381.945    7762.0087   -18022.234    86.112311 
    8000    1642.9518   -108.59394    1.4865773   -107.10736    -15349.19    4.4216567    4.4216567    4.4216567    -15349.19    9992.8868   -20824.347    -35216.11   -5701.3352   -7883.5927    4022.1925    86.448024 
    8100    1346.7422   -108.31603    1.2185607   -107.09747    14896.703    4.4265988    4.4265988    4.4265988    14896.703   -8336.2754    12130.948    40895.437   -2326.1618   -17483.673    9815.9228    86.738219 
    8200    1696.5809   -108.64108     1.535102   -107.10598   -14160.374    4.4389394    4.4389394    4.4389394   -14160.374   -43286.648    37202.154   -36396.627   -4385.8156   -11467.871    6317.1029    87.465672 
    8300     2273.893   -109.15041    2.0574662   -107.09295   -13620.838    4.4300428    4.4300428    4.4300428   -13620.838    -45741.12   -25049.929    29928.535    3868.6807   -26914.296   -19470.272    86.940826 
    8400    1767.1656   -108.69505    1.5989686   -107.09608    19744.713    4.4130566    4.4130566    4.4130566    19744.713    51885.262   -47311.372     54660.25   -10314.012    8990.8807   -27045.369    85.944577 
    8500     1407.354   -108.39435    1.2734034   -107.12094   -10217.677    4.4166847    4.4166847    4.4166847   -10217.677    38739.632    17205.625   -86598.286    11102.684   -23832.418    552.39134    86.156724 
    8600    1543.0815   -108.53695    1.3962126   -107.14074   -12021.613    4.4400291    4.4400291    4.4400291   -12021.613    3933.8152   -20252.742   -19745.912    16389.095   -5199.4909   -912.09252    87.530105 
    8700     1421.276   -108.39742    1.2860004   -107.11142   -16881.835     4.454717     4.454717     4.454717   -16881.835    33910.905    -83030.88   -1525.5296   -1254.1602    12033.378     -22404.1    88.401647 
    8800    2067.6108   -108.93987    1.8708177   -107.06906    3259.9442    4.4283985    4.4283985    4.4283985    3259.9442   -12481.476    27873.172   -5611.8631   -10169.048   -1677.8119   -19960.924    86.844052 
    8900      2168.96   -109.02457    1.9625206   -107.06205    18587.646    4.4139116    4.4139116    4.4139116    18587.646    49905.965    3755.1174    2101.8553    28416.984    14768.749     13654.63    85.994541 
    9000    1641.2989   -108.58777    1.4850817   -107.10268   -13579.422    4.4303113    4.4303113    4.4303113   -13579.422    13437.469    295.54107   -54471.276    -5241.759   -18199.621    6057.5505    86.956639 
    9100    1739.9461   -108.67543    1.5743398   -107.10109   -17622.408    4.4357176    4.4357176    4.4357176   -17622.408   -44489.702    3605.3669   -11982.888    11057.416    4108.7847   -13329.507    87.275362 
    9200    1849.4922   -108.77122    1.6734594   -107.09776   -19895.068    4.4167791    4.4167791    4.4167791   -19895.068   -5779.8165    -50678.13   -3227.2591    22970.159    16848.957   -7133.2813    86.162251 
    9300    1967.6193   -108.89289    1.7803433   -107.11255    36887.951    4.3971032    4.3971032    4.3971032    36887.951    35854.616    49451.443    25357.795     -545.292   -7087.9644    20140.119    85.015864 
    9400    2443.9112   -109.36092    2.2113022   -107.14962   -10751.857    4.4214939    4.4214939    4.4214939   -10751.857   -7906.8521    -23232.05   -1116.6697   -2669.7036    11442.424    10119.859    86.438475 
    9500    1154.7505   -108.18417    1.0448425   -107.13933   -35628.263    4.4578409    4.4578409    4.4578409   -35628.263   -19443.263   -31412.518   -56029.008   -7986.2514     6890.339   -7777.4189    88.587755 
    9600      1472.04   -108.41188    1.3319327   -107.07995   -9373.6626    4.4439301    4.4439301    4.4439301   -9373.6626    29348.606   -10672.799   -46796.795    1259.7816   -29225.853    905.82226    87.761019 
    9700    2211.4541   -109.04917    2.0009702    -107.0482     14741.06    4.4071756    4.4071756    4.4071756     14741.06    48118.987   -34682.574    30786.766    3461.3969    16431.382   -4620.1175    85.601441 
    9800    2317.9211   -109.20798    2.0973037   -107.11067   -9054.9664    4.4107852    4.4107852    4.4107852   -9054.9664    28689.317   -39979.689   -15874.527   -24802.094   -23517.112    -14332.37    85.811939 
    9900    1943.0031   -108.91089      1.75807   -107.15282    -6259.632    4.4407835    4.4407835    4.4407835    -6259.632    27849.043   -20875.899    -25752.04   -1932.0441   -17688.266   -9918.0933     87.57473 
   10000    1281.4541   -108.29128    1.1594866   -107.13179   -23668.888     4.455002     4.455002     4.455002   -23668.888    17897.054   -78448.419   -10455.298   -42594.957    13340.074    12920.252    88.418616 
   10100      1657.93   -108.61033    1.5001299    -107.1102   -15605.347    4.4273084    4.4273084    4.4273084   -15605.347    10400.834   -23848.319   -33368.556   -14651.603   -17757.442    7048.1786    86.779935 
   10200    2235.6242   -109.11179    2.0228397   -107.08895     20375.09    4.4039415    4.4039415    4.4039415     20375.09    73500.604   -33068.433    20693.098    -5691.897    5395.9761   -4359.3827     85.41313 
   10300    2107.2585   -109.04107    1.9066918   -107.13437   -26453.718    4.4228025    4.4228025    4.4228025   -26453.718   -23738.827   -62578.112    6955.7866   -26250.075    10298.776   -1931.4521    86.515246 
   10400    2073.6331    -108.9904    1.8762668   -107.11413   -37287.276    4.4426944    4.4426944    4.4426944   -37287.276   -19035.975   -46566.876   -46258.978    17305.778   -6875.7754    3225.0621    87.687829 
   10500    1509.3633   -108.46382    1.3657036   -107.09812   -10549.875     4.438151     4.438151     4.438151   -10549.875    6479.1802    13071.193   -51199.998   -2949.8955   -46.024014    12835.398     87.41908 
   10600     1428.346   -108.38499    1.2923974   -107.09259    10988.652    4.4186691    4.4186691    4.4186691    10988.652    70418.311   -5393.5553   -32058.798   -3510.9868    1562.5712   -5613.5434    86.272908 
   10700    2184.1297   -109.07426    1.9762465   -107.09801     20511.09    4.4088631    4.4088631    4.4088631     20511.09    18641.809   -19532.129    62423.591    795.32511   -11006.505   -13018.612    85.699806 
   10800    1640.6537   -108.61499     1.484498    -107.1305    24333.062    4.4244028    4.4244028    4.4244028    24333.062     46699.31    22084.835    4215.0417   -19676.887    11540.438   -2752.6336    86.609192 
   10900    1775.0639   -108.72107    1.6061151   -107.11495   -10914.834    4.4298671    4.4298671    4.4298671   -10914.834   -21344.338    6684.3588   -18084.524    17127.154    2053.9856   -11739.161    86.930485 
   11000    1248.7859   -108.22846    1.1299278   -107.09853    21862.974    4.4229522    4.4229522    4.4229522    21862.974    84478.398   -28020.251    9130.7749    2220.0488   -30712.208    -822.1915     86.52403 
   11100    1695.0023   -108.65054    1.5336737   -107.11687   -3789.2605    4.4189342    4.4189342    4.4189342   -3789.2605    -5172.689    3448.5991   -9643.6916   -19322.376    14906.728    9150.3105    86.288437 
   11200    2009.6703   -108.94198    1.8183919   -107.12359    34110.475    4.4152569    4.4152569    4.4152569    34110.475    23896.816    19545.021    58889.589    6269.8438   -13313.347   -5550.6371    86.073199 
   11300    1808.7894   -108.78113    1.6366306    -107.1445    18686.561    4.4343991    4.4343991    4.4343991    18686.561    16812.839    40690.191   -1443.3482    -18982.93     -7672.59   -2958.9351    87.197561 
   11400    1965.7864   -108.89417    1.7786849   -107.11548   -12334.301     4.439999     4.439999     4.439999   -12334.301   -9372.8655     16920.77   -44550.809   -7099.9455    7416.6749    14440.269    87.528327 
   11500     1795.652   -108.71014    1.6247436    -107.0854    175.77829    4.4221001    4.4221001    4.4221001    175.77829    42423.412   -10129.833   -31766.244    1916.5838   -10624.027     170.8971     86.47403 
   11600    1401.8996    -108.3687    1.2684683   -107.10023    8819.2601    4.4150306    4.4150306    4.4150306    8819.2601   -20449.414    40432.616    6474.5787   -3139.9578    29756.559    -1493.938    86.059965 
   11700    1926.6193    -108.8705    1.7432456   -107.12725    10249.278    4.4297095    4.4297095    4.4297095    10249.278    57201.869   -40803.305    14349.269    4563.7878   -590.74505   -7685.7294    86.921207 
   11800    2211.0445    -109.1159    2.0005995    -107.1153   -11184.727    4.4341831    4.4341831    4.4341831   -11184.727    -32152.39    -10510.74    9108.9501   -66.825587   -18710.916   -9015.2358    87.184816 
   11900     1592.846   -108.55509    1.4412405   -107.11385     19862.28    4.4265958    4.4265958    4.4265958     19862.28     6912.191    11875.897    40798.752   -8726.7349    3385.5602   -5194.0406    86.738041 
   12000    2115.7548   -109.02461    1.9143794   -107.11023    9671.5709    4.4289623    4.4289623    4.4289623    9671.5709    48085.765   -7704.9656   -11366.087   -2413.5212    10267.089     8306.561    86.877225 
   12100    1515.1135    -108.4872    1.3709066   -107.11629   -11442.283    4.4284178    4.4284178    4.4284178   -11442.283   -33366.107   -34927.568    33966.827   -6203.1356    9679.1314    9060.1304    86.845188 
   12200    1429.3716   -108.41226    1.2933255   -107.11893   -20819.781    4.4317368    4.4317368    4.4317368   -20819.781   -38211.455   -17275.377   -6972.5099     4467.075    911.54945    -1501.618    87.040599 
   12300    2295.8594   -109.18804    2.0773418    -107.1107   -26206.366    4.4278963    4.4278963    4.4278963   -26206.366   -35222.338   -19587.302   -23809.458   -8864.0469   -13158.918    19587.817    86.814512 
   12400    1562.7526   -108.54606    1.4140114   -107.13205    25004.412    4.4159628    4.4159628    4.4159628    25004.412    511.42087    48364.559    26137.256   -13503.151    11423.193   -2025.7615    86.114485 
   12500    1714.8386    -108.6942     1.551622   -107.14258    51492.353    4.4199082    4.4199082    4.4199082    51492.353    68370.896     97815.45   -11709.288    21855.601    18258.894    -6670.191    86.345509 
   12600    1985.8167   -108.93207    1.7968087   -107.13526   -778.66467    4.4365892    4.4365892    4.4365892   -778.66467   -30650.976    53896.599   -25581.616    18154.603    4132.6679   -13330.644    87.326821 
   12700    726.71418   -107.77862   0.65754626   -107.12108   -4616.7397    4.4383266    4.4383266    4.4383266   -4616.7397    4789.9951    19681.729   -38321.943    -14331.22   -4232.7674   -5403.1478    87.429457 
   12800    1564.7394   -108.50443    1.4158091   -107.08862     -23221.8    4.4212661    4.4212661    4.4212661     -23221.8   -20428.301   -4150.1751   -45086.923    7727.6061   -18397.521    4763.4177    86.425113 
   12900    1828.6117   -108.75067    1.6545663    -107.0961    18153.379     4.406361     4.406361     4.406361    18153.379    61541.076    6303.1395   -13384.078   -8393.7124    12629.514    6538.8566     85.55398 
   13000    1845.8705   -108.80869    1.6701825   -107.13851    2865.7202    4.4134959    4.4134959    4.4134959    2865.7202    22388.374   -5321.3419   -8469.8713   -31905.641    21441.353    5204.0423    85.970249 
   13100    2609.4948   -109.50366    2.3611258   -107.14253   -28129.452    4.4220859    4.4220859    4.4220859   -28129.452   -9384.3187    -36027.11   -38976.927    5867.9734   -24759.831   -9555.4407    86.473199 
   13200     1747.708   -108.72882    1.5813629   -107.14746    -14695.21    4.4360211    4.4360211    4.4360211    -14695.21   -18120.146   -83464.685      57499.2   -31986.135   -3691.0409   -5237.0535    87.293279 
   13300    1472.5902   -108.45691    1.3324305   -107.12448   -13661.379    4.4314624    4.4314624    4.4314624   -13661.379    17015.203   -52362.288   -5637.0504     7708.066   -5201.0453   -5028.3424    87.024433 
   13400     1726.865   -108.67279    1.5625037   -107.11029   -7581.0582    4.4178887    4.4178887    4.4178887   -7581.0582   -6924.7339   -16241.988    423.54731    3248.3902   -3628.4682   -9745.5046    86.227205 
   13500    2222.6575   -109.14839    2.0111072   -107.13729   -12145.816    4.4305498    4.4305498    4.4305498   -12145.816   -4917.7612   -32924.281    1404.5936     922.1443   -9257.2922   -3598.3315    86.970683 
   13600    2057.5085   -108.98084    1.8616769   -107.11917   -26716.351    4.4296299    4.4296299    4.4296299   -26716.351   -13769.134   -18289.087   -48090.832    17292.901   -35735.142    3181.9082    86.916522 
   13700    1402.8281    -108.3667    1.2693083   -107.09739    41883.227    4.4042405    4.4042405    4.4042405    41883.227    90361.762   -7653.8143    42941.733   -18495.325    11203.638   -2602.8845    85.430527 
   13800    1659.0538    -108.6305    1.5011467   -107.12936    22016.844    4.4154406    4.4154406    4.4154406    22016.844    38316.708    25316.342    2417.4833   -3703.7288    27592.413    9274.2163     86.08394 
   13900    1919.6313   -108.86302    1.7369228    -107.1261    -12155.83    4.4367772    4.4367772    4.4367772    -12155.83   -28850.152   -39708.547    32091.209    9006.0639   -6698.5367    6144.5943    87.337926 
   14000    1990.6631   -108.90596    1.8011938   -107.10477   -11794.706    4.4471915    4.4471915    4.4471915   -11794.706   -24743.121   -13292.483    2651.4859   -1361.4954    1914.8444   -10895.901    87.954385 
   14100    1823.0216   -108.72835    1.6495083   -107.07885   -35858.826      4.44184      4.44184      4.44184   -35858.826   -53525.351    3509.6668   -57560.794    -1375.871   -19626.423   -17039.238    87.637247 
   14200    1514.5547   -108.43413    1.3704009   -107.06373    2445.7444    4.4076186    4.4076186    4.4076186    2445.7444    18612.467   -41425.706    30150.472   -25724.069   -19841.837    2205.5094    85.627256 
   14300    2006.9093   -108.90799    1.8158937   -107.09209    10961.688    4.3954349    4.3954349    4.3954349    10961.688    58046.527   -54156.359    28994.896   -5106.6398    9128.2303    12105.068    84.919131 
   14400    1708.3935   -108.72094    1.5457903   -107.17515   -11806.208    4.4299931    4.4299931    4.4299931   -11806.208     37197.92   -15911.124   -56705.421    16020.321    -2847.077   -4633.5583      86.9379 
   14500    2130.5115   -109.05579    1.9277316   -107.12806   -39424.161    4.4529727    4.4529727    4.4529727   -39424.161   -24944.989   -42847.667   -50479.828   -3269.6857   -17645.157   -7432.1894    88.297844 
   14600    2156.1842   -109.03231    1.9509608   -107.08135    -28744.58    4.4245042    4.4245042    4.4245042    -28744.58    9147.5274   -63527.173   -31854.095   -12081.557    19814.023   -20834.286    86.615146 
   14700    1121.2168     -108.097    1.0145005    -107.0825    43179.379    4.3983017    4.3983017    4.3983017    43179.379     142100.2   -37556.362    24994.295    20073.339   -21681.201    5137.2187    85.085402 
   14800    1643.9563   -108.64189    1.4874862    -107.1544    6211.4399    4.4127698    4.4127698    4.4127698    6211.4399    77678.117   -43867.834   -15175.964    2697.7481   -1902.4894   -10579.212    85.927826 
   14900    1936.9351    -108.9135    1.7525795   -107.16092   -11744.772    4.4367625    4.4367625    4.4367625   -11744.772    71532.664   -47061.395   -59705.585    9756.0753    14529.021   -18191.819    87.337054 
   15000     2270.844   -109.19617    2.0547074   -107.14146    -17103.88    4.4429341    4.4429341    4.4429341    -17103.88    37328.759   -45598.492   -43041.907   -12285.115   -19884.984    -4408.759    87.702023 
   15100    2003.5648   -108.94275    1.8128676   -107.12988   -35606.542    4.4339941    4.4339941    4.4339941   -35606.542     292.8415   -67073.282   -40039.184    973.68163   -6297.6547    2985.6284    87.173672 
   15200    1390.2739   -108.39488     1.257949   -107.13693   -13998.603    4.4189846    4.4189846    4.4189846   -13998.603    17532.857   -25947.212   -33581.452      217.652    40554.294    16440.187    86.291388 
   15300    2194.6096   -109.12416    1.9857289   -107.13843    19332.547    4.4117243    4.4117243    4.4117243    19332.547    59541.074   -488.69572    -1054.738     4571.537   -13335.065   -11923.764    85.866761 
   15400    1866.9518   -108.84853    1.6892572   -107.15928   -26680.127    4.4349122    4.4349122    4.4349122   -26680.127    24964.924   -29828.411   -75176.894    8384.2877    4497.0753   -9395.3057    87.227833 
   15500    1424.2779    -108.4434    1.2887166   -107.15468   -23436.493    4.4238827    4.4238827    4.4238827   -23436.493   -4079.1325   -16012.877   -50217.469   -15723.615    13646.732    18876.233    86.578648 
   15600    2373.0211   -109.27557    2.1471593   -107.12841    12624.138    4.4024155    4.4024155    4.4024155    12624.138    32180.215    -17643.15    23335.348    15214.217   -177.06309   -16026.674    85.324368 
   15700    2096.5501   -109.04212    1.8970026   -107.14512   -4522.9341    4.4184437    4.4184437    4.4184437   -4522.9341    55365.858    -36547.85   -32386.811   -833.82388   -9996.9912    7356.6223    86.259709 
   15800    1635.9773   -108.63126    1.4802667   -107.15099   -2399.9476    4.4271354    4.4271354    4.4271354   -2399.9476    13294.997   -42750.896    22256.056    7108.5272    21448.742    3492.6652    86.769763 
   15900    2003.5041   -108.94357    1.8128126   -107.13076    18590.167    4.4315411    4.4315411    4.4315411    18590.167    68427.915    3078.4723   -15735.885    9862.2429    17298.825   -1265.2258    87.029073 
   16000    1516.3253   -108.49621     1.372003   -107.12421   -11355.103    4.4264028    4.4264028    4.4264028   -11355.103    11501.369      5673.04   -51239.718   -1719.4606    8189.6124    8208.1136    86.726695 
   16100    1372.5893   -108.36681    1.2419477   -107.12486   -34138.019    4.4188289    4.4188289    4.4188289   -34138.019    -76374.17   -27784.167    1744.2802    4175.8593    11354.624   -6867.3965    86.282266 
   16200     1844.702   -108.80246    1.6691252   -107.13334    26692.284    4.4229152    4.4229152    4.4229152    26692.284    120969.97   -36265.936   -4627.1801    14165.023   -17769.441    2987.0202     86.52186 
   16300    1948.4969   -108.91729    1.7630409   -107.15425    -24049.31    4.4309938    4.4309938    4.4309938    -24049.31    19193.887   -45181.702   -46160.115   -14488.462    8931.4843    10937.394    86.996831 
   16400    2021.7002    -108.9746    1.8292768   -107.14533   -24773.023    4.4136006    4.4136006    4.4136006   -24773.023   -10129.638   -45672.147   -18517.284   -4362.1803    8110.2766   -3440.9046     85.97637 
   16500    1943.2867   -108.89482    1.7583266    -107.1365    437.13863    4.4077582    4.4077582    4.4077582    437.13863    20272.284     8311.002    -27271.87     1233.553    9904.9852    12017.653    85.635389 
   16600    999.58113   -108.06484   0.90444201   -107.16039    15562.005    4.4221238    4.4221238    4.4221238    15562.005    71046.292   -10114.551   -14245.725     4111.856    27314.608    7450.5525     86.47542 
   16700     1439.924   -108.45755    1.3028735   -107.15467    -16672.17     4.429698     4.429698     4.429698    -16672.17   -10729.925   -51186.665    11900.081    19831.853    15842.462   -5417.9012    86.920527 
   16800    2371.1416   -109.27067    2.1454587   -107.12522   -19618.839    4.4148667    4.4148667    4.4148667   -19618.839    10257.925   -48883.781   -20230.661   -3078.3497   -13496.565    13763.524    86.050379 
   16900    1470.6048   -108.47265    1.3306341   -107.14202    20173.421    4.4032043    4.4032043    4.4032043    20173.421    86413.945   -50797.806    24904.123    5658.4815    23422.136   -2945.3409    85.370244 
   17000    2455.0799   -109.37938    2.2214079   -107.15797   -12151.318    4.4162568    4.4162568    4.4162568   -12151.318    26366.491   -34347.255    -28473.19    8001.3905   -7580.0703    5022.2528    86.131687 
   17100    2537.4658   -109.45664    2.2959524   -107.16069   -32666.056    4.4305247    4.4305247    4.4305247   -32666.056    5590.9413   -46266.606   -57322.502    14431.575   -7931.3778    3470.4759    86.969204 
   17200    822.65097   -107.91977   0.74435189   -107.17542   -8339.1667    4.4363628    4.4363628    4.4363628   -8339.1667     23553.19   -29522.657   -19048.033   -24515.085    14798.131   -6167.7452    87.313456 
   17300    1367.9189   -108.38803    1.2377217   -107.15031    37970.886    4.4198367    4.4198367    4.4198367    37970.886    127956.41   -5481.5954   -8562.1575    6835.1955    1669.5646   -693.21051    86.341315 
   17400    2151.5432   -109.10477    1.9467615   -107.15801    1596.7341    4.4071766    4.4071766    4.4071766    1596.7341    5260.2197    22788.178   -23258.196    6262.0076    13785.117   -1160.3514      85.6015 
   17500    1991.0862     -108.981    1.8015766   -107.17942    -8846.291    4.4068995    4.4068995    4.4068995    -8846.291   -39613.667    52720.713   -39645.919   -4265.6824    21453.059    -5541.157    85.585354 
   17600    1514.3334   -108.54438    1.3702007   -107.17418    22611.658    4.4227471    4.4227471    4.4227471    22611.658    122578.75   -16207.786   -38535.993   -4167.0063   -5140.9367   -4021.9572    86.511995 
   17700    2020.4521   -108.96921    1.8281475   -107.14106   -19080.836    4.4259946    4.4259946    4.4259946   -19080.836    23194.308   -58023.509   -22413.308    642.50634   -1180.3392    7363.8225    86.702702 
   17800    1357.9684   -108.35829    1.2287183   -107.12958    7428.7009    4.4198363    4.4198363    4.4198363    7428.7009    35963.186   -24168.579    10491.496   -16409.643    967.38175    -9447.541    86.341291 
   17900    2154.9169   -109.07275    1.9498141   -107.12294   -1576.4404    4.4202793    4.4202793    4.4202793   -1576.4404   -6464.2751    33959.438   -32224.484   -15639.665   -13991.579    9581.7111     86.36726 
   18000    2011.8911    -108.9514    1.8204014     -107.131    8165.4545     4.399581     4.399581     4.399581    8165.4545   -9251.2469    15193.279    18554.331    17014.455    33863.359   -1335.8943    85.159666 
   18100    1521.2252   -108.51261    1.3764366   -107.13618     19605.16    4.3833538    4.3833538    4.3833538     19605.16    34256.757    23310.447    1248.2768   -14910.521    1191.6737   -6530.9292    84.220844 
   18200    1691.5937   -108.68162    1.5305895   -107.15103    9468.6068    4.4043591    4.4043591    4.4043591    9468.6068    38153.691   -44768.518    35020.647    5171.1676   -2672.7642    9556.3881     85.43743 
   18300    1464.5905   -108.46512    1.3251923   -107.13993   -19659.663    4.4238242    4.4238242    4.4238242   -19659.663    21481.801   -44500.427   -35960.363   -7217.6563    34211.128   -14014.538    86.575214 
   18400    2666.0683   -109.51259    2.4123146   -107.10028   -16310.579    4.4178126    4.4178126    4.4178126   -16310.579   -22940.887    7856.5078   -33847.359   -1115.4514    2468.0138   -13290.858    86.222752 
   18500    2214.8334   -109.09784    2.0040278   -107.09381     1760.525    4.4019053    4.4019053    4.4019053     1760.525   -13482.141    7301.7268    11461.989   -6168.2966     15282.71   -1313.9797    85.294707 
   18600    1245.9719   -108.23653    1.1273815   -107.10915    15411.389    4.3947228    4.3947228    4.3947228    15411.389    26999.942    15150.317    4083.9076   -110.91603    21515.997   -12851.173    84.877869 
   18700    1844.9136   -108.77872    1.6693166   -107.10941    16908.276    4.4055164    4.4055164    4.4055164    16908.276    23086.402    10229.751    17408.675    15089.495   -14732.492   -4783.8708    85.504793 
   18800    1441.0666   -108.42167    1.3039073   -107.11776    -34327.97    4.4290607    4.4290607    4.4290607    -34327.97   -48022.909   -8613.5735   -46347.428    -17034.03    36386.279   -2754.1893    86.883019 
   18900    2305.0884   -109.17062    2.0856924   -107.08493   -15592.794    4.4238318    4.4238318    4.4238318   -15592.794    10470.082   -27938.031   -29310.433   -14002.562   -7489.1188    6247.1703    86.575663 
   19000    2255.9735   -109.12316    2.0412523   -107.08191    11766.127    4.3970705    4.3970705    4.3970705    11766.127    4447.3721    24521.252    6329.7573     14667.38    17478.523   -6680.9297    85.013967 
   19100    1679.6486   -108.62798    1.5197813    -107.1082   -22036.528    4.3934258    4.3934258    4.3934258   -22036.528   -28402.415   -17879.698   -19827.471   -11148.074    46576.644   -12402.778    84.802739 
   19200    1686.2538   -108.65015    1.5257579   -107.12439   -10608.499     4.409352     4.409352     4.409352   -10608.499    9071.7892   -67530.338    26633.052   -8671.3598   -18600.957    7122.2084     85.72832 
   19300    1279.8637   -108.28252    1.1580476   -107.12448   -32275.533    4.4233336    4.4233336    4.4233336   -32275.533   -47802.155   -7067.0872   -41957.358    5504.2586    51579.372    14334.717    86.546413 
   19400    1883.3278   -108.81169    1.7040746   -107.10761   -17989.769    4.4081331    4.4081331    4.4081331   -17989.769   -13207.071   -3343.4285   -37418.808   -18217.081    17400.688   -2608.8492    85.657243 
   19500    2618.4771   -109.46789    2.3692531   -107.09864     12511.16    4.3898244    4.3898244    4.3898244     12511.16    16835.023    23198.233    -2499.777    17229.278   -4844.0605   -2249.7046     84.59437 
   19600    1580.6566   -108.56655    1.4302113   -107.13634   -23154.787    4.4054241    4.4054241    4.4054241   -23154.787   -52778.139    55355.385   -72041.608   -1142.1224     52505.79    344.12254    85.499422 
   19700    1617.5805   -108.58094    1.4636208   -107.11732    1465.1463    4.4076104    4.4076104    4.4076104    1465.1463   -25161.525    26114.048    3442.9155    -34795.53   -1865.8638   -1768.2508    85.626777 
   19800    1534.2639   -108.50996    1.3882342   -107.12173   -11438.735    4.4201487    4.4201487    4.4201487   -11438.735    19507.789   -49658.521   -4165.4718    5809.7682    12078.697   -2678.2575    86.359606 
   19900    1713.8162   -108.65449    1.5506969    -107.1038    -40982.35    4.4235378    4.4235378    4.4235378    -40982.35   -30020.934    -93900.54    974.42533    -30500.26    22283.903    3293.8868    86.558401 
   20000    1993.0407    -108.8888    1.8033451   -107.08545    36212.876    4.3863068    4.3863068    4.3863068    36212.876    61511.349   -31564.323    78691.602   -14556.899   -10580.979    2646.9747    84.391174 
   20100     2421.598   -109.30643    2.1911128   -107.11531    10994.342    4.3915628    4.3915628    4.3915628    10994.342    9661.2755    9617.6925    13704.059    2571.5615    12265.472    7055.9456    84.694904 
   20200    1050.2129   -108.08668    0.9502547   -107.13642    1219.4677    4.4184518    4.4184518    4.4184518    1219.4677     336.8783   -39332.457    42653.982   -49669.985    13642.572    4820.3226    86.260183 
   20300    1924.3299   -108.84817    1.7411741     -107.107   -22679.637    4.4196723    4.4196723    4.4196723   -22679.637    -33329.42   -47132.557    12423.066    4898.1914   -6067.5464   -12022.529    86.331685 
   20400    1677.4688   -108.61916     1.517809   -107.10135     -11319.9    4.4182217    4.4182217    4.4182217     -11319.9   -33912.055   -1554.1929     1506.549   -19175.716    17391.032    11130.285    86.246707 
   20500     1798.889   -108.73346    1.6276726   -107.10579    -6370.243    4.4101576    4.4101576    4.4101576    -6370.243    17917.694   -31086.051   -5942.3721   -43221.851    5559.0308    595.32277    85.775319 
   20600    2652.1319   -109.49067    2.3997047   -107.09096    13971.484    4.3932196    4.3932196    4.3932196    13971.484    12453.313    37237.271   -7776.1335    8392.3904   -8243.9384   -17052.601    84.790799 
   20700    1353.4332   -108.35711    1.2246148   -107.13249   -33262.489    4.4052485    4.4052485    4.4052485   -33262.489   -96992.779    4816.6046   -7611.2929   -63747.877    15545.608   -6086.1643    85.489196 
   20800     1734.102   -108.69334    1.5690519   -107.12428   -22959.345    4.4178988    4.4178988    4.4178988   -22959.345    -49265.15   -14077.408   -5535.4765   -2809.9981    5213.6928   -16529.279    86.227797 
   20900    1904.0964   -108.83422    1.7228664   -107.11135    27515.689    4.4113154    4.4113154    4.4113154    27515.689    57827.735   -5228.3756    29947.707   -13474.018   -13684.012    8875.4837    85.842888 
   21000    2054.6316   -108.97731    1.8590739   -107.11824     -10730.4    4.4143889    4.4143889    4.4143889     -10730.4   -36872.062   -6877.6617    11558.524   -33735.178    11350.017   -1715.2479    86.022442 
   21100    2266.9844   -109.15314    2.0512151   -107.10192    5618.7474    4.4169233    4.4169233    4.4169233    5618.7474    23835.992    22325.908   -29305.658    13100.984     6179.629   -6764.8059    86.170691 
   21200    1098.3327   -108.09327   0.99379448   -107.09947    658.02174    4.4191651    4.4191651    4.4191651    658.02174   -10641.073    20902.356   -8287.2172   -30080.855   -1992.9018     8419.985    86.301962 
   21300    1467.1482   -108.41765    1.3275065   -107.09015    -14413.63    4.4132807    4.4132807    4.4132807    -14413.63   -60964.265    22035.338   -4311.9636   -4810.2925    10009.303    8796.9081    85.957673 
   21400    1791.0146   -108.71307    1.6205477   -107.09252    7187.8292    4.4117646    4.4117646    4.4117646    7187.8292   -18384.537     14458.05    25489.974    18685.997   -10352.649    20845.636    85.869115 
   21500    1903.0353   -108.82429    1.7219063   -107.10238   -13644.211    4.4237568    4.4237568    4.4237568   -13644.211   -41739.189   -7215.6285    8022.1858   -17284.961    8091.0061   -2193.8864    86.571261 
   21600    2343.4702   -109.19665    2.1204211   -107.07623   -35536.989    4.4289519    4.4289519    4.4289519   -35536.989   -61209.291    989.01871   -46390.694    6900.1778    6242.8613    2338.0483    86.876618 
   21700    1335.0123   -108.28549    1.2079472   -107.07755   -23559.304    4.4198637    4.4198637    4.4198637   -23559.304    -92417.35    6645.9539    15093.483   -22786.066    1379.1806   -11993.428      86.3429 
   21800     1543.535   -108.47605    1.3966229   -107.07943   -11937.721    4.4037373    4.4037373    4.4037373   -11937.721   -38501.733    11949.486   -9260.9165   -7546.9662    23426.468    5242.7424    85.401245 
   21900    2137.4489   -109.02377    1.9340087   -107.08976    26272.706    4.3923104    4.3923104    4.3923104    26272.706    55291.042     26142.88   -2615.8038   -13320.883   -1373.3624    -2409.851    84.738171 
   22000    2023.5526   -108.95722    1.8309529   -107.12627   -27287.579    4.4152763    4.4152763    4.4152763   -27287.579   -46819.737   -19422.259   -15620.741   -20915.098    17903.491   -8415.7897    86.074333 
   22100    1652.0928   -108.60128    1.4948483   -107.10644   -789.44047    4.4210917    4.4210917    4.4210917   -789.44047   -10493.457    26366.121   -18240.986    15582.937    20409.027    8575.7558     86.41489 
   22200    1793.9604     -108.715    1.6232131   -107.09178    15067.292    4.4012295    4.4012295    4.4012295    15067.292     8373.035    7754.9067    29073.934   -24013.952   -17522.473    15654.645    85.255429 
   22300    1558.9222   -108.53242    1.4105455   -107.12187   -6430.5405    4.4090842    4.4090842    4.4090842   -6430.5405   -58204.986    51023.161   -12109.797   -12931.775    19540.329    74.446746    85.712698 
   22400    2223.1673   -109.11802    2.0115685   -107.10645   -15172.684    4.4179852    4.4179852    4.4179852   -15172.684   -2487.3134   -9898.5615   -33132.179    11315.012    13996.553   -1535.5815    86.232856 
   22500    1869.4265   -108.79017    1.6914964   -107.09868     1985.763    4.4108535    4.4108535    4.4108535     1985.763   -23426.714   -20029.859    49413.862   -41791.813    304.98483    6922.1958    85.815925 
   22600    1359.5199   -108.32864    1.2301221   -107.09851    725.76167    4.4116383    4.4116383    4.4116383    725.76167   -86091.514    34542.173    53726.626    9384.4747    14001.081    2095.7748    85.861741 
   22700    1564.7794   -108.50985    1.4158453     -107.094   -9079.2354    4.4063687    4.4063687    4.4063687   -9079.2354   -45542.505    7904.7731    10400.026     -12596.5   -11777.637    3045.2506    85.554432 
   22800    1560.0286   -108.51797    1.4115466   -107.10642     36133.29     4.401622     4.401622     4.401622     36133.29   -1848.1798   -8629.9507       118878   -24206.226    24987.462    2641.0614    85.278239 
   22900    2480.7378   -109.36067    2.2446237   -107.11604   -6237.8771    4.4181083    4.4181083    4.4181083   -6237.8771     7808.165   -26218.973   -302.82333    11598.706    13059.493     2299.554    86.240063 
   23000    2102.4391   -109.00619    1.9023311   -107.10385   -17809.901    4.4233707    4.4233707    4.4233707   -17809.901   -18645.161    -34996.65     212.1089   -15350.528   -7949.3267    6626.8346    86.548593 
   23100    1482.1019   -108.42251    1.3410369   -107.08148    13280.489    4.4123271    4.4123271    4.4123271    13280.489   -31548.109    22130.605     49258.97    2226.8692    39605.775   -490.61703    85.901964 
   23200    1098.3131   -108.07641   0.99377679   -107.08263    39128.481    4.4058765    4.4058765    4.4058765    39128.481    539.40248    36806.467    80039.573   -10183.236   -25088.454   -13748.297    85.525762 
   23300    1944.9054    -108.8578    1.7597913   -107.09801    11968.814     4.414318     4.414318     4.414318    11968.814     20503.71   -4815.8283    20218.561   -8369.2758    8444.8424   -7186.8546    86.018301 
   23400    2263.7428   -109.13905    2.0482821   -107.09076   -6088.9773    4.4274782    4.4274782    4.4274782   -6088.9773    13457.093   -16620.587   -15103.439     2154.987    25459.423   -8761.8753    86.789922 
   23500    1378.0727    -108.3343    1.2469091   -107.08739     5226.328    4.4142953    4.4142953    4.4142953     5226.328   -23779.015    7333.7976    32124.202   -12386.748   -15091.834    3824.2543     86.01697 
   23600    1652.3354   -108.57184    1.4950678   -107.07677   -5769.2587    4.4021404    4.4021404    4.4021404   -5769.2587   -41133.905    10255.186    13570.943   -1509.7919    14659.358   -5711.3946    85.308375 
   23700    1608.4048   -108.56734    1.4553184   -107.11202   -13221.389    4.4114279    4.4114279    4.4114279   -13221.389   -52358.681    24701.889   -12007.375   -21882.816   -7487.7826   -1949.4747    85.849457 
   23800    2536.4528   -109.40024    2.2950358    -107.1052   -33960.895    4.4206712    4.4206712    4.4206712   -33960.895   -22220.708   -46498.586   -33163.391   -4462.6758    14378.839    13059.077    86.390234 
   23900    2202.3846   -109.08131    1.9927638   -107.08855   -10108.824    4.4215747    4.4215747    4.4215747   -10108.824   -16839.087    2412.8149   -15900.199    6552.8649     8528.666    5846.3398    86.443212 
   24000     1142.361   -108.11923    1.0336322    -107.0856    -42376.17    4.4284686    4.4284686    4.4284686    -42376.17   -107502.74   -38723.728    19097.954   -23921.004   -19031.672    4634.9834    86.848176 
   24100    1676.4417   -108.59192    1.5168797   -107.07504   -23793.581    4.4155651    4.4155651    4.4155651   -23793.581   -69207.979   -22781.439    20608.673    33817.639    20765.274    15913.373    86.091221 
   24200    2268.7476    -109.1307    2.0528105   -107.07789    22135.778    4.4028788    4.4028788    4.4028788    22135.778    39267.422   -12285.896    39425.808   -13825.988   -11410.373     3143.756    85.351308 
   24300    1869.6466   -108.80742    1.6916956   -107.11573   -2569.9981    4.4190001    4.4190001    4.4190001   -2569.9981   -15068.351   -22342.885    29701.242    10192.181    3289.3368    7310.1954      86.2923 
   24400    2077.9886   -108.97117    1.8802077   -107.09096   -19066.619    4.4231972    4.4231972    4.4231972   -19066.619   -40849.123    -34423.14    18072.406    19380.801   -13430.072   -213.26422    86.538407 
   24500    1209.9451   -108.18689    1.0947837    -107.0921    17205.909    4.4247602    4.4247602    4.4247602    17205.909    22734.117   -5235.1463    34118.756   -20364.511   -2582.8131   -10001.385    86.630182 
   24600    1937.1466   -108.85232     1.752771   -107.09955   -42173.778    4.4291051    4.4291051    4.4291051   -42173.778   -42919.792   -68679.976   -14921.565    15483.451    15188.529    12324.922     86.88563 
   24700    2669.6199   -109.50407    2.4155282   -107.08855    19715.435      4.39452      4.39452      4.39452    19715.435    47218.468    17875.087    -5947.251   -5321.2606   -17358.406   -6065.0087    84.866116 
   24800     2035.081   -108.97602    1.8413841   -107.13464    4920.5502    4.3993397    4.3993397    4.3993397    4920.5502    -9073.832   -35850.793    59686.276    9.0943921    129.22468   -632.44705    85.145658 
   24900     1335.971   -108.33968    1.2088146   -107.13086   -39891.183    4.4359523    4.4359523    4.4359523   -39891.183   -97131.977   -2354.9448   -20186.629    14100.282    15806.618   -6122.3333    87.289215 
   25000    1827.8107   -108.74434    1.6538416    -107.0905   -36923.709    4.4270765    4.4270765    4.4270765   -36923.709   -53319.719    -5668.209   -51783.198   -20610.752   -9440.9679    687.41439    86.766301 
   25100    1815.5243   -108.72447    1.6427245   -107.08174   -7397.6275    4.4107815    4.4107815    4.4107815   -7397.6275    -5790.572   -41134.705    24732.394    9329.9952   -11942.857     10868.17    85.811728 
   25200    2592.2171     -109.433    2.3454925   -107.08751    670.19473    4.4099528    4.4099528    4.4099528    670.19473    28867.822   -8090.9485   -18766.289    16136.466    17226.547    6630.7146     85.76337 
   25300    2236.7139   -109.13802    2.0238257    -107.1142   -14529.769    4.4241171    4.4241171    4.4241171   -14529.769    34197.478   -34106.735    -43680.05   -25070.575   -9819.1931     10954.34    86.592415 
   25400      1387.86   -108.37712    1.2557649   -107.12136    -44616.73     4.425084     4.425084     4.425084    -44616.73   -99644.778   -63669.623     29464.21   -4074.6307   -1976.1037   -2942.2267      86.6492 
   25500    1371.9977   -108.33588    1.2414123   -107.09447    53796.551    4.3886906    4.3886906    4.3886906    53796.551    26499.533    60627.138    74262.981    22719.709    7673.1483    3452.3639    84.528837 
   25600     1590.349   -108.57566    1.4389812   -107.13668    20921.596    4.4001618    4.4001618    4.4001618    20921.596   -10759.122    13924.089    59599.821    -16436.29   -2362.8152   -4086.9162    85.193398 
   25700    2282.1459   -109.17375    2.0649336   -107.10882   -47067.758    4.4364627    4.4364627    4.4364627   -47067.758   -38000.745   -73881.372   -29321.157    1210.3186    -9414.258    -3038.746    87.319349 
   25800    2346.4956   -109.19357    2.1231585   -107.07041   -7611.1244    4.4175461    4.4175461    4.4175461   -7611.1244    6986.6904   -11407.227   -18412.837   -31614.984   -13663.837    10972.102    86.207145 
   25900    1333.5764   -108.28544     1.206648   -107.07879    35112.111    4.3976153    4.3976153    4.3976153    35112.111    -10977.23   -7711.8787    124025.44     16774.02   -3135.4051   -17315.541    85.045573 
   26000    2120.2913   -109.02442    1.9184842   -107.10593   -2142.0471    4.4116772    4.4116772    4.4116772   -2142.0471   -40298.816   -11687.313    45559.988    13861.334   -4313.8637   -22447.708    85.864011 
   26100    1351.7324   -108.34522    1.2230759   -107.12214   -4708.5103    4.4271285    4.4271285    4.4271285   -4708.5103   -21376.292   -61425.849     68676.61   -20674.579   -4292.9398     6439.042    86.769356 
   26200    2184.4005   -109.06688    1.9764915   -107.09039    -9585.767    4.4327216    4.4327216    4.4327216    -9585.767    4504.2554   -57385.154    24123.597    10084.311    20395.826   -8370.5357    87.098637 
   26300    1597.9222   -108.52271    1.4458336   -107.07687   -18744.077    4.4237126    4.4237126    4.4237126   -18744.077   -41417.387   -18752.425    3937.5798   -26380.912    18541.244   -17294.183    86.568663 
   26400    1608.8237   -108.52727    1.4556975   -107.07157   -2485.9295    4.4094402    4.4094402    4.4094402   -2485.9295   -58718.593   -27488.004    78748.808    38955.018   -3755.6491   -14725.698    85.733461 
   26500    1693.7259   -108.62033    1.5325188   -107.08781    30170.433    4.4138505    4.4138505    4.4138505    30170.433    63354.129    4220.3991     22936.77   -22499.862    32756.741   -906.74882    85.990972 
   26600    1417.1371   -108.39671    1.2822554   -107.11446   -33124.678    4.4348379    4.4348379    4.4348379   -33124.678   -49021.967   -63037.489    12685.421   -8044.3684     6990.024    13890.744    87.223448 
   26700     2322.412   -109.17176    2.1013672   -107.07039   -26371.119    4.4270628    4.4270628    4.4270628   -26371.119   -11047.946   -63674.392     -4391.02    34401.018   -4661.5806    10689.221    86.765497 
   26800    1799.9644   -108.69718    1.6286456   -107.06853   -17335.235    4.4168783    4.4168783    4.4168783   -17335.235   -1697.9927   -39258.101   -11049.612   -9409.2397    7975.3397     6447.578    86.168055 
   26900    1452.7553   -108.40441    1.3144836   -107.08993   -12573.693    4.4250422    4.4250422    4.4250422   -12573.693    -20967.63   -26356.352    9602.9031    25949.231    6610.1206    5563.4659    86.646745 
   27000    2576.6208   -109.40815    2.3313806   -107.07677   -8048.5113    4.4168503    4.4168503    4.4168503   -8048.5113   -11595.907   -8403.7374   -4145.8897   -23848.044   -1586.2248   -13425.105    86.166419 
   27100    1226.6663   -108.21768    1.1099135   -107.10776   -4534.7404    4.4148482    4.4148482    4.4148482   -4534.7404    26268.598   -71848.724    31975.905    20091.457    5048.4745    -798.7713    86.049296 
   27200    2394.0991   -109.26264    2.1662312   -107.09641   -12428.549    4.4132162    4.4132162    4.4132162   -12428.549    8357.8835   -54941.092    9297.5621    14666.208     7583.779   -9817.8993    85.953903 
   27300    1597.5794   -108.55318    1.4455234   -107.10766    16105.839    4.4159304    4.4159304    4.4159304    16105.839    30823.167    12855.384    4638.9656   -20501.795   -2214.9464   -10050.649    86.112591 
   27400     1607.603   -108.55754     1.454593   -107.10295    2406.0936    4.4198826    4.4198826    4.4198826    2406.0936   -2337.0522    3797.7108    5757.6221    13780.996   -14280.609   -23.201102    86.344005 
   27500    2214.4851   -109.09286    2.0037127   -107.08915   -20113.212    4.4122822    4.4122822    4.4122822   -20113.212   -17545.057   -35986.151    -6808.428    3677.5547    19517.314   -7629.5356    85.899342 
   27600    1493.6192   -108.46515     1.351458   -107.11369    21391.376    4.4004952    4.4004952    4.4004952    21391.376    23071.142    10092.817    31010.171     11732.91    7997.6132   -4073.5403    85.212766 
   27700     2089.294   -109.01958    1.8904371   -107.12915   -11325.146    4.4192267    4.4192267    4.4192267   -11325.146    36989.146   -56102.096   -14862.487    17087.134    5597.7456   -26148.379    86.305573 
   27800    1970.4299    -108.9008    1.7828864   -107.11791   -26942.085     4.415932     4.415932     4.415932   -26942.085    6235.5809    -59558.19   -27503.646   -20626.521      14181.3   -20820.882    86.112686 
   27900    1760.2864   -108.69729    1.5927441   -107.10454    25235.837    4.3901696    4.3901696    4.3901696    25235.837    33159.758     29377.54    13170.213    8415.2401   -4705.0074    11920.203    84.614325 
   28000    2018.6977   -108.95054    1.8265601   -107.12398   -9885.3667    4.4094498    4.4094498    4.4094498   -9885.3667    -477.8685    13428.835   -42607.066    1873.0845    4046.0562   -29902.006    85.734022 
   28100    1108.0081   -108.11834     1.002549   -107.11579   -9080.3716    4.4251454    4.4251454    4.4251454   -9080.3716   -47778.271   -21043.468    41580.624   -15263.562    8446.7297   -22535.539    86.652808 
   28200     1979.347   -108.88461    1.7909547   -107.09365   -18297.538    4.4189468    4.4189468    4.4189468   -18297.538   -32442.504   -49963.742    27513.634    4578.4793   -4267.0652    11953.868    86.289175 
   28300    2062.7501   -108.95523    1.8664196   -107.08881   -28733.223     4.414919     4.414919     4.414919   -28733.223    14440.309   -75139.703   -25500.276   -7706.6844   -13934.441   -20420.559    86.053436 
   28400    2144.8866   -109.04276    1.9407385   -107.10202    9650.8068    4.3963978    4.3963978    4.3963978    9650.8068   -14571.327   -16895.242     60418.99    20742.394    7125.2074    5199.1737    84.974958 
   28500    2049.6759   -108.98275    1.8545898   -107.12816    5414.1044    4.3995463    4.3995463    4.3995463    5414.1044    32007.196     12008.23   -27773.114    6306.6151   -15264.102   -20342.064    85.157649 
   28600    1561.7509   -108.55233     1.413105   -107.13922   -25048.163    4.4278062    4.4278062    4.4278062   -25048.163    1037.0961   -37030.782   -39150.802   -862.86643   -8249.8363   -49.400718    86.809211 
   28700    1483.2989   -108.44065      1.34212   -107.09853    13000.756    4.4185829    4.4185829    4.4185829    13000.756   -36416.313   -8642.8143    84061.394   -2755.6113    1953.6057    143.16833    86.267861 
   28800    1704.0104   -108.62525    1.5418244   -107.08343    40386.528    4.3955163    4.3955163    4.3955163    40386.528    37296.671    76891.654    6971.2592   -1235.1568   -14714.574   -31541.394     84.92385 
   28900    2829.3148    -109.6647    2.5600235   -107.10468   -8738.6926    4.4096091    4.4096091    4.4096091   -8738.6926   -10905.955   -11025.078    -4285.045    13849.287    1857.0818    3667.9731    85.743317 
   29000    2035.7614   -108.94454    1.8419997   -107.10254     2479.294    4.4199011    4.4199011    4.4199011     2479.294   -17664.354    12755.068    12347.168   -394.88153    -3211.735   -15746.004    86.345092 
   29100    1135.2937   -108.12952    1.0272376   -107.10229    11879.101    4.4227743    4.4227743    4.4227743    11879.101   -11732.945    82944.522   -35574.275   -5627.1848   -17963.551    -7086.238     86.51359 
   29200     1889.285   -108.79494    1.7094648   -107.08548   -17876.395    4.4265546    4.4265546    4.4265546   -17876.395   -16079.829   -28482.574   -9066.7809   -8709.7253    13289.032    1079.3644    86.735617 
   29300    1574.0119   -108.51354     1.424199   -107.08934    15285.518    4.4046625    4.4046625    4.4046625    15285.518     27106.22    6873.6542     11876.68   -5434.2728   -9656.2142   -27739.527    85.455087 
   29400     2268.978   -109.15869     2.053019   -107.10567    24089.353     4.403777     4.403777     4.403777    24089.353    699.57747    93149.625   -21581.143     8368.366    9126.6314    18848.522    85.403558 
   29500    2309.4549   -109.20788    2.0896433   -107.11823   -26995.019    4.4175101    4.4175101    4.4175101   -26995.019       -14461   -35485.254   -31038.804   -40060.772    24455.869   -18834.005    86.205037 
   29600    1800.6953   -108.74261     1.629307    -107.1133   -5636.5562    4.4103304    4.4103304    4.4103304   -5636.5562   -22023.782     45122.69   -40008.577   -10627.185   -27584.373   -16847.704    85.785401 
   29700    1938.5641   -108.85379    1.7540535   -107.09974   -1163.4412    4.4069581    4.4069581    4.4069581   -1163.4412   -27965.639    28505.432   -4030.1161    7554.1789     2382.647    5380.6148    85.588767 
   29800    1037.3967   -108.05641   0.93865836   -107.11775   -7454.4326    4.4014632    4.4014632    4.4014632   -7454.4326    13173.259   -15962.087    -19574.47   -6417.2589    4408.6038   -31227.122    85.269013 
   29900    2038.3859   -108.96622    1.8443744   -107.12185     2429.319     4.402673     4.402673     4.402673     2429.319   -5355.7086    31535.126    -18891.46   -10937.132   -18030.304   -4956.5377    85.339342 
   30000    2400.0082   -109.29427    2.1715779   -107.12269   -3494.6889    4.4238023    4.4238023    4.4238023   -3494.6889    18009.128    17378.434    -45871.63   -3685.7401   -2546.4457   -4383.2037    86.573929 
   30100    1703.0322   -108.65437    1.5409393   -107.11343   -22627.705    4.4258102    4.4258102    4.4258102   -22627.705    29719.564   -12766.098    -84836.58    8462.8555   -10216.095   -22456.118    86.691865 
   30200    1972.0478   -108.87288    1.7843503   -107.08853    15237.807    4.4118642    4.4118642    4.4118642    15237.807    23192.757    52008.116   -29487.453   -2592.5051   -3885.6378     18328.81    85.874935 
   30300    1579.4418    -108.5248    1.4291121   -107.09569   -12268.204    4.4039224    4.4039224    4.4039224   -12268.204      10410.3    1628.9145   -48843.826   -5067.0511    19111.045   -34889.511    85.412017 
   30400     1179.989   -108.18818    1.0676788    -107.1205   -1375.0735     4.407105     4.407105     4.407105   -1375.0735   -1656.6577     51612.22   -54080.783   -4239.6223   -16653.922   -10482.154    85.597325 
   30500    2197.8603   -109.10045    1.9886702   -107.11178   -3882.2212    4.4129174    4.4129174    4.4129174   -3882.2212   -10741.669    20003.821   -20908.816    17005.297    562.07165    19804.322    85.936446 
   30600    1944.3302    -108.8766    1.7592708   -107.11733    4644.8629    4.4025016    4.4025016    4.4025016    4644.8629   -1467.9163    53545.815    -38143.31   -1209.5971    3236.7495   -44582.648    85.329376 
   30700    2190.8583   -109.12315    1.9823347   -107.14082     4109.165    4.4055203    4.4055203    4.4055203     4109.165   -6039.8518    63913.521   -45546.174    2210.4756   -18032.384   -6808.0233    85.505023 
   30800    1929.8761    -108.8824    1.7461924   -107.13621    34889.011    4.4106259    4.4106259    4.4106259    34889.011    15699.526    105612.47   -16644.966    15042.775    10805.657   -1228.4684    85.802643 
   30900    1320.2238   -108.33048    1.1945662   -107.13592   -14401.834    4.4187277    4.4187277    4.4187277   -14401.834   -43128.775    17172.499   -17249.225    -21414.38   -11727.693   -26188.285     86.27634 
   31000    1881.9347   -108.81386     1.702814   -107.11104   -34916.636    4.4180636    4.4180636    4.4180636   -34916.636   -80298.622   -28303.089    3851.8011   -4842.7053    5498.1132     4895.297    86.237447 
   31100    1722.1388   -108.65468    1.5582274   -107.09645    31213.211    4.4023803    4.4023803    4.4023803    31213.211   -9356.8275    87344.793    15651.669    16031.179    3074.5397     -29911.8    85.322322 
   31200    2186.4935   -109.09282    1.9783852   -107.11443   -23971.348    4.4164317    4.4164317    4.4164317   -23971.348   -21942.724    3990.3923   -53961.713   -19157.531   -20438.977     -24177.6    86.141923 
   31300    2672.1558   -109.52175    2.4178227   -107.10393    2571.5214    4.4054783    4.4054783    4.4054783    2571.5214    -26315.09    40016.702   -5987.0472   -15418.525    14022.117    5143.4338    85.502578 
   31400    1383.8495   -108.37065    1.2521361   -107.11852    40754.956    4.3969697    4.3969697    4.3969697    40754.956   -10710.825    92166.377    40809.317    6517.6588   -6181.9147   -33011.509    85.008118 
   31500    1961.3532   -108.89523    1.7746736   -107.12055   -28619.582    4.4206823    4.4206823    4.4206823   -28619.582   -28487.108   -34924.719   -22446.919   -2665.5658   -6223.3877    5115.6032    86.390886 
   31600    1375.9455   -108.35983    1.2449844   -107.11485    7094.5828     4.412008     4.412008     4.412008    7094.5828   -34870.729    14802.184    41352.294    10416.834    3653.2549   -416.70387    85.883329 
   31700    1416.9922   -108.40517    1.2821244   -107.12305    3419.6457    4.4064511    4.4064511    4.4064511    3419.6457   -5985.8282    64150.318   -47905.553    10289.491    7168.3824   -48406.157    85.559232 
   31800    3130.9552     -109.951    2.8329541   -107.11805    3667.4646    4.4029908    4.4029908    4.4029908    3667.4646   -14544.049    15623.377    9923.0656    -5733.296    1976.9794    21468.268    85.357821 
   31900     1766.148   -108.74946    1.5980478   -107.15141    21923.461    4.4007907    4.4007907    4.4007907    21923.461    10281.036    42648.146    12841.201     6640.528    -7928.126   -28780.498     85.22993 
   32000    1820.9333   -108.81449    1.6476187   -107.16687   -12954.284    4.4291634    4.4291634    4.4291634   -12954.284    17527.419   -24697.339   -31692.933    18648.292    14338.981    -10544.81     86.88906 
   32100    2026.4159   -108.94251    1.8335437   -107.10896     -3414.05    4.4350565    4.4350565    4.4350565     -3414.05   -45466.136     3181.307    32042.679    2563.9619    10247.269   -1286.4281    87.236349 
   32200     1176.866    -108.1606    1.0648531   -107.09575    29657.829    4.4227581    4.4227581    4.4227581    29657.829   -6075.6048   -6723.5853    101772.68     1588.068   -9391.8768   -21846.123     86.51264 
   32300    2090.7063   -108.98247     1.891715   -107.09076   -1526.8461     4.429146     4.429146     4.429146   -1526.8461    -33961.08    15689.975    13690.568    -12329.52   -2324.4381     -165.546    86.888035 
   32400    1980.5825   -108.88905    1.7920727   -107.09698    8383.0868    4.4259492    4.4259492    4.4259492    8383.0868   -9318.5731     44155.01   -9687.1762   -4775.1148   -9964.9169   -22092.918    86.700038 
   32500    1273.2314   -108.26301    1.1520465   -107.11096    13740.254    4.4198982    4.4198982    4.4198982    13740.254   -36354.354     54278.69    23296.427    10424.655   -5759.0522    -29511.24    86.344921 
   32600    2247.5802    -109.1309    2.0336578   -107.09724   -4919.7802    4.4082086    4.4082086    4.4082086   -4919.7802   -23838.647   -9483.3478    18562.654     4496.805    9884.5579     27531.54    85.661646 
   32700    1206.8908   -108.22013    1.0920201   -107.12811    40040.923    4.4125011    4.4125011    4.4125011    40040.923    7345.3198    28094.177    84683.272    7598.2465   -6191.9082   -38384.848    85.912128 
   32800    1657.1109   -108.62554    1.4993888   -107.12615    2110.5659    4.4332906    4.4332906    4.4332906    2110.5659   -19017.213    59584.097   -34235.186    8468.7319    400.54211   -16221.114    87.132184 
   32900    1387.9887   -108.36434    1.2558814   -107.10846   -11301.581    4.4440877    4.4440877    4.4440877   -11301.581   -22890.019    29362.363   -40377.088      9747.92   -3221.7814   -6146.0322    87.770359 
   33000    2070.5544   -108.94178    1.8734811    -107.0683   -23318.011    4.4289328    4.4289328    4.4289328   -23318.011   -42739.543    21747.308   -48961.799   -8879.3941   -1072.5121   -17834.385    86.875494 
   33100    1876.8246    -108.7743    1.6981904   -107.07611    40061.538     4.405426     4.405426     4.405426    40061.538   -23592.976    61636.986    82140.604    1875.5573    5546.4821   -6402.6979    85.499531 
   33200    1777.7898   -108.73008    1.6085816    -107.1215    7300.1984    4.4098736    4.4098736    4.4098736    7300.1984    12989.572    8255.7015    655.32137   -9623.9346    1070.0887   -2146.1924    85.758744 
   33300    1557.9334   -108.54668    1.4096509   -107.13703     21158.32    4.4223165    4.4223165    4.4223165     21158.32   -3461.7205    -179.4916    67116.172   -9971.3322    13011.421   -7944.8721     86.48673 
   33400    1798.0722   -108.74605    1.6269335   -107.11912   -46288.969    4.4513179    4.4513179    4.4513179   -46288.969   -45608.675   -13834.474   -79423.759     4221.527    16140.467    10866.437    88.199444 
   33500    1497.6082    -108.4354    1.3550674   -107.08033   -30345.575    4.4450974    4.4450974    4.4450974   -30345.575    -5242.643   -54258.837   -31535.246    4983.0542   -2596.4753    13481.868    87.830193 
   33600    2318.9182   -109.16202     2.098206   -107.06381    23289.026    4.4051408    4.4051408    4.4051408    23289.026    20703.547     12231.64    36931.892    3899.9789    18267.118   -13900.555    85.482925 
   33700    2116.2671    -109.0047    1.9148429   -107.08985    28885.468    4.3917316    4.3917316    4.3917316    28885.468    83653.685    38483.054   -35480.337    4462.0464   -3227.6957    9679.4289    84.704671 
   33800    897.31894   -107.97909   0.81191304   -107.16718    36768.788     4.418607     4.418607     4.418607    36768.788    2880.9736    27098.315    80327.075    3905.1881   -8484.1289    11425.318    86.269269 
   33900     1886.364   -108.84473    1.7068218   -107.13791   -47584.736    4.4548982    4.4548982    4.4548982   -47584.736   -36980.442   -51622.719   -54151.048    10936.074   -10170.248   -3265.6301    88.412438 
   34000    1899.2615   -108.80087    1.7184917   -107.08238   -35859.163    4.4474652    4.4474652    4.4474652   -35859.163   -11389.185   -52352.152   -43836.153   -6663.0385    1964.0439   -21067.994    87.970628 
   34100    1853.6752   -108.73919    1.6772442   -107.06195   -14012.337    4.4177593    4.4177593    4.4177593   -14012.337   -55956.725   -43373.235     57292.95   -27154.909    4477.1378   -14012.117    86.219631 
   34200     2255.976   -109.11855    2.0412545    -107.0773    3189.9572     4.391365     4.391365     4.391365    3189.9572   -28842.913    20534.333    17878.451   -7691.0923    5889.1254    12348.592    84.683461 
   34300    1539.3954    -108.5473    1.3928773   -107.15442    40967.337    4.4051567    4.4051567    4.4051567    40967.337   -18768.761    25277.437    116393.34    1197.9674    11171.125   -22008.096     85.48385 
   34400    1742.8807   -108.72808     1.576995   -107.15108    -32944.32    4.4485762    4.4485762    4.4485762    -32944.32    -76584.53    17829.263   -40077.694    -19479.89   -3001.5641   -12777.121    88.036567 
   34500     1806.825   -108.74138    1.6348533   -107.10652   -32178.104    4.4397496    4.4397496    4.4397496   -32178.104   -33389.826    1254.5731   -64399.058   -1747.9333   -5747.2286   -4252.1575    87.513575 
   34600    1662.6121   -108.57499    1.5043663   -107.07062    29657.321    4.4103919    4.4103919    4.4103919    29657.321    22568.839    52099.554    14303.571    9592.3836    -8237.433   -20175.949    85.788989 
   34700    2506.8312   -109.35206    2.2682335   -107.08383    470.09252     4.418867     4.418867     4.418867    470.09252   -14584.293   -2916.0884    18910.659    23507.807    8364.3062    18531.444    86.284501 
   34800    900.36341   -107.93364   0.81466773   -107.11898   -41854.141    4.4401651    4.4401651    4.4401651   -41854.141   -28364.916   -28770.491   -68427.015    2932.6443     8624.625   -15105.227    87.538148 
   34900    1995.9331   -108.90083    1.8059622   -107.09486   -37520.203     4.421708     4.421708     4.421708   -37520.203   -41029.948    20787.291   -92317.953   -9977.4763   -16670.602   -6294.6071    86.451032 
   35000    1846.3032   -108.75918    1.6705739   -107.08861    51581.391    4.3898513    4.3898513    4.3898513    51581.391    22577.114    46861.332    85305.728    22221.436    -4222.787   -4529.5105    84.595924 
   35100    1316.5874   -108.34082     1.191276   -107.14955   -30077.124    4.4016086    4.4016086    4.4016086   -30077.124   -15342.242   -6725.1673   -68163.962   -1966.2027    2651.6005   -35215.958    85.277459 
   35200    2048.1266   -108.99236     1.853188   -107.13917    13856.318    4.4182417    4.4182417    4.4182417    13856.318   -52079.295    51972.631    41675.619    95.066304    -8616.259   -1967.0288    86.247876 
   35300    1772.3718   -108.73432    1.6036793   -107.13064   -26310.903    4.4318182    4.4318182    4.4318182   -26310.903   -9139.1596   -28429.861   -41363.687    7849.5497    6909.4746   -735.26722    87.045399 
   35400    1469.2832   -108.43949    1.3294384   -107.11005   -31389.668    4.4284846    4.4284846    4.4284846   -31389.668   -15355.855   -25115.668   -53697.481    -3402.101   -16854.306   -19637.603    86.849121 
   35500    2215.6948   -109.10234    2.0048072   -107.09753    10997.311    4.3925421    4.3925421    4.3925421    10997.311   -1987.4147    41777.564   -6798.2168   -17603.011    14189.407    19446.143     84.75158 
   35600    1321.3444   -108.32979    1.1955802   -107.13421    30267.044    4.3876097    4.3876097    4.3876097    30267.044    22991.439    47346.599    20463.095    14235.961    27258.414    -27807.45    84.466396 
   35700    2490.6239    -109.4062    2.2535688   -107.15263   -30575.237    4.4168432    4.4168432    4.4168432   -30575.237   -41597.247   -52362.299    2233.8337   -7924.2084   -19466.162   -8444.6794    86.166005 
   35800    1606.7957   -108.58263    1.4538625   -107.12876   -16206.764    4.4360896    4.4360896    4.4360896   -16206.764   -39621.298     21734.08   -30733.074   -19234.361    33621.296    16325.478    87.297322 
   35900    1390.4606   -108.35865     1.258118   -107.10053   -620.74055     4.419967     4.419967     4.419967   -620.74055    27215.784    46690.131   -75768.137    6102.3382    7804.0995   -41742.896    86.348956 
   36000    1967.4893   -108.86418    1.7802257   -107.08395    5497.8311    4.3983852    4.3983852    4.3983852    5497.8311    3544.4103    11407.205    1541.8777   -25056.639    -20033.73    2828.2416    85.090249 
   36100    1805.0769    -108.7634    1.6332715   -107.13013    -21151.17    4.3938782    4.3938782    4.3938782    -21151.17     4780.441   -17179.523   -51054.427   -12464.373    15986.155   -21463.386    84.828938 
   36200    1506.8648    -108.5308    1.3634429   -107.16735    22694.084     4.416603     4.416603     4.416603    22694.084    1916.2099    42291.002     23875.04    10230.572   -1365.0677   -8569.1693    86.151944 
   36300    2241.6692   -109.15329    2.0283094   -107.12498   -38826.228    4.4345225    4.4345225    4.4345225   -38826.228   -72087.747   -19641.468   -24749.468   -30139.244   -24443.096    -6128.262    87.204837 
   36400    1725.6504   -108.65761    1.5614048    -107.0962   -8173.3503    4.4092883    4.4092883    4.4092883   -8173.3503   -786.43024    -37445.77    13712.149   -10145.986    9441.7194   -45592.198    85.724603 
   36500    1714.6663   -108.65761    1.5514661   -107.10615    29337.344    4.3975862    4.3975862    4.3975862    29337.344    -183.0999    63593.864    24601.269      6989.45    8973.8046     12013.63    85.043886 
   36600    1895.8475   -108.84998    1.7154026   -107.13458   -19317.605    4.4144702    4.4144702    4.4144702   -19317.605   -23573.682   -299.26212   -34079.872    12357.676   -20792.777   -17866.918    86.027194 
   36700    2007.8675   -108.95551    1.8167607   -107.13875    2798.4077    4.4282331    4.4282331    4.4282331    2798.4077    46710.735   -40872.208    2556.6964   -13400.542    22336.371   -24808.824    86.834324 
   36800    2345.3839   -109.22942    2.1221526   -107.10727   -26877.979    4.4373932    4.4373932    4.4373932   -26877.979   -50506.667   -16189.633   -13937.638   -530.85845    23177.694    2119.5861    87.374306 
   36900    1555.7273   -108.49193    1.4076547   -107.08427    13570.122    4.4302678    4.4302678    4.4302678    13570.122    29805.303   -29425.037    40330.101   -4343.6085    -454.1045   -3245.4906    86.954078 
   37000    1498.3607   -108.43129    1.3557482   -107.07554    2093.5408    4.4351898    4.4351898    4.4351898    2093.5408   -23274.012   -11371.152    40925.787    9524.5694   -7221.2592     6224.902    87.244213 
   37100     2103.766   -108.96879    1.9035317   -107.06526   -11959.168    4.4318798    4.4318798    4.4318798   -11959.168   -47051.098     18982.24   -7808.6464    7371.9491   -5294.3341   -6868.9952    87.049026 
   37200    900.34444   -107.90354   0.81465057   -107.08889     48960.69    4.4163551    4.4163551    4.4163551     48960.69    1170.3516    11721.917     133989.8   -37704.641    6910.3875    27325.401    86.137441 
   37300     1786.255   -108.72434    1.6162411    -107.1081      14891.2    4.4292692    4.4292692    4.4292692      14891.2   -35586.805    63474.596    16785.808    14054.684    7759.3257    29408.955    86.895289 
   37400    1476.6409   -108.44466    1.3360957   -107.10857   -3820.8766    4.4497656    4.4497656    4.4497656   -3820.8766   -93586.041    76298.059    5825.3518   -8871.2008    134.24451    16000.697      88.1072 
   37500    1207.6218   -108.18872    1.0926816   -107.09604    41989.079    4.4300729    4.4300729    4.4300729    41989.079    -37013.38    73108.906    89871.709   -10249.482   -431.16165    39285.247    86.942597 
   37600    1811.6325   -108.75647    1.6392032   -107.11727    31280.834    4.4243813    4.4243813    4.4243813    31280.834   -10596.448    126337.01   -21898.054    4218.1206    2262.6658     10312.96    86.607928 
   37700    1854.9441   -108.80669    1.6783924    -107.1283     15404.75    4.4369791    4.4369791    4.4369791     15404.75   -46000.603    29658.906    62555.946   -11191.896   -799.07455    19114.316    87.349845 
   37800    1217.5844   -108.21124    1.1016959   -107.10955    23660.287    4.4478064    4.4478064    4.4478064    23660.287   -33932.539    54452.634    50460.767    19645.748   -7589.0601    28281.251    87.990871 
   37900    962.58681   -107.95959   0.87096877   -107.08862    12651.431    4.4497804    4.4497804    4.4497804    12651.431   -14649.396   -29114.107    81717.798   -20552.935   -3448.8868    15447.508    88.108081 
   38000    2418.8915   -109.24394    2.1886639   -107.05528   -7564.0461    4.4336142    4.4336142    4.4336142   -7564.0461   -40215.735   -34684.227    52207.824    1703.9445     11360.95    16624.405    87.151264 
   38100    1200.3216   -108.16759    1.0860762   -107.08152    48127.232    4.4226528    4.4226528    4.4226528    48127.232    35915.171   -34797.741    143264.27   -5010.3539     3272.527   -8097.7918    86.506457 
   38200    1755.7935   -108.70843    1.5886788   -107.11975   -34037.415    4.4435996    4.4435996    4.4435996   -34037.415   -21531.581   -75164.174   -5416.4901   -2109.1515   -14155.939   -10996.859    87.741441 
   38300    2131.9776   -109.02146    1.9290581    -107.0924   -7303.4043    4.4408386    4.4408386    4.4408386   -7303.4043    2928.0778    -55444.43     30606.14    9446.1843   -14820.116    25374.574     87.57799 
   38400    2092.9123   -108.98784     1.893711   -107.09413   -50942.836    4.4390392    4.4390392    4.4390392   -50942.836    -803.4404   -88953.389   -63071.679   -20922.988    18114.614   -28375.084    87.471576 
   38500    1902.5273   -108.80431    1.7214467   -107.08286    16774.603    4.4360876    4.4360876    4.4360876    16774.603    94511.263   -50001.921    5814.4659   -6494.8398    18466.788    -2364.493    87.297203 
   38600    1798.6561   -108.72687    1.6274619   -107.09941   -18947.774    4.4500437    4.4500437    4.4500437   -18947.774    11840.695   -40499.768   -28184.249   -24965.963    9813.0054   -23001.106    88.123721 
   38700    2316.9045   -109.17857    2.0963839   -107.08219   -40222.927    4.4683329    4.4683329    4.4683329   -40222.927   -38005.798    -48323.31   -34339.674   -7624.6461     5557.772    4201.4421     89.21473 
   38800    1120.5732   -108.07494    1.0139182   -107.06102     16788.42     4.445645     4.445645     4.445645     16788.42    13649.469   -32069.031    68784.822   -1527.7361   -40337.859   -10857.168    87.862657 
   38900    2116.2751   -108.94455    1.9148501    -107.0297     18132.59    4.4132039    4.4132039    4.4132039     18132.59    35374.309    20017.691   -994.22874    10719.152   -1882.3873   -225.20212    85.953189 
   39000     1865.707   -108.79453    1.6881309    -107.1064   -26086.395     4.436661     4.436661     4.436661   -26086.395    16566.665   -70962.523   -23863.328   -2838.0267    3321.9125    6599.2469    87.331059 
   39100    1162.4061   -108.15667    1.0517695    -107.1049   -46648.568    4.4533457    4.4533457    4.4533457   -46648.568    -26388.08    -78869.04   -34688.583   -18917.678   -35064.402     5042.654    88.320036 
   39200    2360.3182   -109.19232    2.1356655   -107.05666   -9205.8809    4.4317583    4.4317583    4.4317583   -9205.8809    43788.089   -39332.023   -32073.709    10311.132     3619.233   -407.00094    87.041866 
   39300    1408.8266   -108.36244    1.2747359    -107.0877   -23584.322    4.4343785    4.4343785    4.4343785   -23584.322   -7238.6119   -81809.366    18295.011   -16214.457    2050.7001    23559.964    87.196343 
   39400    1711.9828   -108.63818     1.549038   -107.08915   -2476.6762    4.4352925    4.4352925    4.4352925   -2476.6762   -8934.3614     8987.653   -7483.3201   -217.94961   -24017.375    2912.0202    87.250272 
   39500    2142.9384   -109.03793    1.9389757   -107.09895   -50.907835    4.4328635    4.4328635    4.4328635   -50.907835   -9175.0305   -52834.625    61856.932   -8679.5965     22425.99   -4215.2161    87.107004 
   39600    1326.9974    -108.3251    1.2006951   -107.12441   -13954.871    4.4278955    4.4278955    4.4278955   -13954.871   -9649.6122   -50221.604    18006.603   -36152.075   -24290.347    3554.3522    86.814462 
   39700    1511.0397   -108.47697    1.3672204   -107.10975    47676.712    4.4132233    4.4132233    4.4132233    47676.712    50621.461    26736.494    65672.182   -2721.9067     1320.488   -4606.6699    85.954318 
   39800    2490.9369   -109.38062    2.2538521   -107.12676   -6166.4794    4.4287922    4.4287922    4.4287922   -6166.4794    3486.9809   -32952.694    10966.275   -13939.329    10728.514   -5733.4696    86.867215 
   39900    1452.1718   -108.44295    1.3139556   -107.12899    -24130.84    4.4539395    4.4539395    4.4539395    -24130.84   -20920.787   -40855.394   -10616.337   -15660.356   -48476.662   -37.498605    88.355369 
   40000    1999.2538   -108.88188    1.8089669   -107.07292    10147.679    4.4365413    4.4365413    4.4365413    10147.679    1713.6615   -13628.135    42357.511     4780.483    11679.499    10416.836     87.32399 
   40100    1594.6987   -108.50952    1.4429169    -107.0666    35727.585    4.4130913    4.4130913    4.4130913    35727.585    73736.192    30078.399    3368.1639   -13513.896   -24315.635    6554.8467    85.946605 
   40200    1792.0354   -108.72986    1.6214713   -107.10839    2832.5242     4.416685     4.416685     4.416685    2832.5242    35182.068    -11352.96   -15331.535   -794.13318   -29196.273    -1777.422    86.156743 
   40300    2189.8479   -109.09635    1.9814204   -107.11493    16746.196    4.4161544    4.4161544    4.4161544    16746.196   -9933.2157    16508.121    43663.684    4778.1341    30891.498   -4337.1602    86.125695 
   40400    1693.1069   -108.69934    1.5319587   -107.16738   -12292.417     4.429755     4.429755     4.429755   -12292.417   -20663.669   -20444.735     4231.152   -27757.388    -11644.31    16425.036    86.923884 
   40500    2070.3929   -109.02024     1.873335   -107.14691   -27165.478    4.4509426    4.4509426    4.4509426   -27165.478   -50911.167   -16597.792   -13987.476    7949.7283    17196.839    3613.1799    88.177135 
   40600    2393.5316   -109.25225    2.1657177   -107.08653   -1887.3086    4.4353531    4.4353531    4.4353531   -1887.3086   -27158.956    2552.2156    18944.815   -7466.7486    12315.208   -8100.0988    87.253851 
   40700    1384.8182   -108.32306    1.2530126   -107.07005    53994.441    4.4200802    4.4200802    4.4200802    53994.441    76032.723    74305.036    11645.564   -6653.9651   -30775.931   -5824.0438    86.355591 
   40800    2053.8944   -108.93089    1.8584068   -107.07248    11591.783    4.4387622    4.4387622    4.4387622    11591.783   -15711.755   -14364.845    64851.948   -2403.6189    20320.147    333.96239    87.455203 
   40900    1571.2757   -108.51383    1.4217233   -107.09211    779.23993    4.4380815    4.4380815    4.4380815    779.23993   -31018.421    21786.401    11569.739   -20398.301   -24096.706    4399.7244    87.414972 
   41000    1759.0873   -108.67998    1.5916591   -107.08832    28433.214    4.4311377    4.4311377    4.4311377    28433.214    26694.569    23275.401    35329.672    3258.7949     25192.54   -11654.597    87.005303 
   41100    1888.8454   -108.80125     1.709067   -107.09219   -8520.3546    4.4352517    4.4352517    4.4352517   -8520.3546   -3558.8184   -60331.638    38329.393   -41368.628   -1651.6335   -4447.0569    87.247868 
   41200    1850.9391   -108.76486    1.6747686   -107.09009    2552.1902    4.4346107    4.4346107    4.4346107    2552.1902   -48728.069   -14355.453    70740.093     7417.977   -12730.447   -7185.5296    87.210042 
   41300    1722.1123   -108.67846    1.5582034   -107.12026     -22887.1    4.4357771    4.4357771    4.4357771     -22887.1   -48123.941   -31309.852    10772.491   -35172.157    15888.805   -15738.393    87.278876 
   41400    1883.6806   -108.82351    1.7043938   -107.11911    2810.7954     4.426718     4.426718     4.426718    2810.7954   -9639.7084   -9565.5024    27637.597   -7231.2105   -13863.141    13551.214    86.745221 
   41500    1593.7724   -108.55912    1.4420787   -107.11704    27577.538     4.411736     4.411736     4.411736    27577.538    22131.083    50343.539    10257.991   -6999.7928   -36893.977    625.61146    85.867445 
   41600    2362.2165   -109.26369    2.1373832   -107.12631    -10555.49    4.4327976    4.4327976    4.4327976    -10555.49   -27698.598   -17983.661    14015.788   -18590.163    14785.678   -2798.5707    87.103119 
   41700    1599.5686   -108.54987    1.4473233   -107.10254   -56682.524    4.4761976    4.4761976    4.4761976   -56682.524   -78856.025       -22201   -68990.547    4744.3472   -10004.996    19080.581    89.686637 
   41800    1399.9017   -108.31446    1.2666605   -107.04779   -25299.131    4.4615217    4.4615217    4.4615217   -25299.131   -54160.932    1624.2061   -23360.667   -42055.887    215.88668    306.85855    88.807376 
   41900    2399.6336   -109.18231     2.171239   -107.01108    22392.751    4.4114407    4.4114407    4.4114407    22392.751    25314.534    581.81401    41281.905    15348.186    16077.976   -12535.541    85.850207 
   42000    1888.8348   -108.76621    1.7090574   -107.05715   -59.763055    4.3958948    4.3958948    4.3958948   -59.763055   -17568.604    13954.764    3434.5508   -35498.229   -6417.2418   -15663.858    84.945794 
   42100    1892.2259   -108.87236    1.7121257   -107.16023   -2081.3935    4.4338464    4.4338464    4.4338464   -2081.3935   -46294.375   -35465.548    75515.743   -4723.3087   -16813.305   -12150.774    87.164962 
   42200    2006.5921   -108.91915    1.8156067   -107.10355   -49218.887    4.4731117    4.4731117    4.4731117   -49218.887   -47092.424    -30417.17   -70147.066   -13464.239    13116.346    5897.4262    89.501279 
   42300    1217.6026   -108.14392    1.1017124   -107.04221    17271.545    4.4588135    4.4588135    4.4588135    17271.545    -21147.95    19223.792    53738.795   -33148.658   -11440.146    -12062.88    88.645754 
   42400    1899.1119   -108.72366    1.7183563    -107.0053    48059.188    4.4302199    4.4302199    4.4302199    48059.188     32659.84    52033.442     59484.28    4951.8582    345.58974    8316.5191    86.951256 
   42500    1534.9697   -108.43875    1.3888729   -107.04988    8912.5332    4.4275074    4.4275074    4.4275074    8912.5332   -28023.708    51306.514    3454.7939   -60626.008   -221.80638    8158.7513    86.791638 
   42600     2256.951   -109.11108    2.0421367   -107.06894   -16740.041    4.4332377    4.4332377    4.4332377   -16740.041   -27574.473    37420.236   -60065.885   -4010.9292   -11032.061   -17969.488    87.129064 
   42700    1096.4823   -108.09116    0.9921202   -107.09904    33027.828    4.4234699    4.4234699    4.4234699    33027.828    40645.416    9527.8833    48910.184   -40308.964    19912.474    17510.657    86.554415 
   42800    1859.8369   -108.78626    1.6828195   -107.10344    36964.681     4.426231     4.426231     4.426231    36964.681   -23782.173     32903.57    101772.65   -5472.3124    3611.0243    27457.359    86.716596 
   42900     1823.152   -108.76721    1.6496262   -107.11758    -11526.23    4.4343922    4.4343922    4.4343922    -11526.23   -13985.364    -48238.82    27645.495   -30033.762   -1672.2291   -9857.3087     87.19715 
   43000    1447.7732   -108.42734    1.3099756   -107.11737    13259.205    4.4270708    4.4270708    4.4270708    13259.205   -24943.997    8905.1778    55816.435   -35346.616    9712.2446     11491.12    86.765963 
   43100    2309.5178   -109.19652    2.0897003   -107.10681   -2640.2926     4.425327     4.425327     4.425327   -2640.2926   -42527.311    50291.645   -15685.212   -15358.539    7216.8512    6746.1332    86.663477 
   43200    1594.1195   -108.55959    1.4423928    -107.1172   -23916.189      4.43978      4.43978      4.43978   -23916.189   -53535.038   -1116.2786    -17097.25   -56600.829   -4234.5383   -19004.583    87.515376 
   43300    2012.3829   -108.91517    1.8208463   -107.09433    3768.1585     4.437624     4.437624     4.437624    3768.1585   -27996.435    67083.325   -27782.414     15686.11   -37.813926    4722.6714     87.38794 
   43400    961.42529   -107.97624   0.86991781   -107.10632     15659.05    4.4267014    4.4267014    4.4267014     15659.05   -32594.485    20323.908    59247.729   -58234.849    5223.7599    5971.2788    86.744248 
   43500    2322.3418   -109.18789    2.1013036   -107.08659    2581.1951    4.4173418    4.4173418    4.4173418    2581.1951   -29432.565    8123.9986    29052.151    8308.8013    11982.657    9552.6616    86.195184 
   43600    1572.2041   -108.54822    1.4225633   -107.12566   -23469.977    4.4174719    4.4174719    4.4174719   -23469.977   -27198.244   -44020.124    808.43743   -24500.673     4527.741   -4016.4189      86.2028 
   43700    1467.0182   -108.46169    1.3273889    -107.1343    26909.357    4.4235485    4.4235485    4.4235485    26909.357   -31646.975    121438.11   -9063.0624   -31059.507    -8234.286   -7830.6705    86.559032 
   43800    2661.6476   -109.52809    2.4083147   -107.11978   -42062.709    4.4398116    4.4398116    4.4398116   -42062.709   -37576.667   -53897.507   -34713.953    6977.5952    567.81227   -20846.453    87.517244 
   43900    725.31034   -107.77077   0.65627604    -107.1145    22841.999    4.4274452    4.4274452    4.4274452    22841.999   -74187.112    106121.39    36591.716   -17027.723    11674.207   -275.98729    86.787983 
   44000     2653.466   -109.48235    2.4009118   -107.08144   -10048.305    4.4227319    4.4227319    4.4227319   -10048.305   -22468.581      12252.4   -19928.733     2008.815    7039.4072    -1024.432    86.511103 
   44100    1797.1439   -108.74061    1.6260935   -107.11451   -69305.023    4.4368891    4.4368891    4.4368891   -69305.023   -79533.761   -112844.73    -15536.58   -40680.475    13278.461    14069.379     87.34453 
   44200    1986.9224   -108.89715    1.7978091   -107.09934    3266.7576    4.4266823    4.4266823    4.4266823    3266.7576   -5782.1364    35071.267   -19488.858    8077.9642    20680.809   -226.27085    86.743127 
   44300    1998.3185   -108.89841    1.8081206   -107.09029     8573.506    4.4134177    4.4134177    4.4134177     8573.506   -16771.495    -14439.06    56931.072   -33989.791   -2793.5572   -15379.898    85.965681 
   44400    1273.8582    -108.2725    1.1526137   -107.11988     24838.46    4.4246405    4.4246405    4.4246405     24838.46    4868.8182    21957.434    47689.127   -25357.305   -26630.807     6647.732    86.623151 
   44500    2405.0152   -109.25483    2.1761083   -107.07872   -35892.809    4.4417432    4.4417432    4.4417432   -35892.809    10407.126   -59110.909   -58974.645    2453.1757    -1962.851    6078.2022    87.631519 
   44600    1096.3143   -108.06369   0.99196822   -107.07172    5333.7982    4.4336759    4.4336759    4.4336759    5333.7982    4690.9401   -44183.352    55493.807    -37141.74    1257.5204   -10113.609    87.154904 
   44700    2026.6623    -108.8943    1.8337667   -107.06054    14167.819     4.425707     4.425707     4.425707    14167.819    43003.832   -29565.558    29065.184    20556.067    1694.1294   -1494.1485    86.685802 
   44800    1333.0655   -108.27407    1.2061857   -107.06788    7695.1904    4.4337064    4.4337064    4.4337064    7695.1904    56995.603   -34359.007    448.97542    -49159.21     12110.84   -2975.4124    87.156703 
   44900    1395.6863   -108.31503    1.2628463   -107.05218     8370.513    4.4383809    4.4383809    4.4383809     8370.513    34094.556    6883.6747   -15866.692   -9637.5373   -6413.8111     7161.581    87.432663 
   45000    1907.7233   -108.77934    1.7261482   -107.05319   -11762.315    4.4323103    4.4323103    4.4323103   -11762.315     11748.17   -51144.965    4109.8499   -18002.987    5629.7413    10107.312    87.074396 
   45100    1715.7844   -108.61986    1.5524778   -107.06738    10794.274    4.4218534    4.4218534    4.4218534    10794.274   -15096.866    41437.393     6042.297   -26472.063    13641.325   -9323.8359    86.459557 
   45200    1860.5081   -108.76145    1.6834268   -107.07802    27403.273    4.4051045    4.4051045    4.4051045    27403.273    13438.501    92584.541   -23813.224    15259.838    -26440.88    2566.7201    85.480815 
   45300    1612.5726   -108.58835    1.4590896   -107.12926    9344.4582    4.4117101    4.4117101    4.4117101    9344.4582   -56588.751    33527.822    51094.303   -42494.839    15265.687    5664.0444    85.865936 
   45400    2041.3302   -108.95743    1.8470385   -107.11039     9805.685    4.4285549    4.4285549    4.4285549     9805.685    13005.501    44187.982   -27776.428    5710.9434   -462.02523   -7557.5896    86.853256 
   45500    1641.2809   -108.58081    1.4850655   -107.09574    28861.831     4.419653     4.419653     4.419653    28861.831    19663.782    38051.663    28870.047   -8727.9856   -21251.306    5492.4293    86.330549 
   45600    1937.8523   -108.84333    1.7534095   -107.08992     17110.78    4.4295735    4.4295735    4.4295735     17110.78    27059.897    32238.906   -7966.4633   -3523.0082   -6137.1453   -9216.8835    86.913198 
   45700    1706.6198   -108.62155    1.5441854   -107.07736   -9200.9996    4.4362471    4.4362471    4.4362471   -9200.9996    5840.4198   -14938.406   -18505.013   -5933.3264    -26057.74   -2839.2612    87.306623 
   45800    1094.0513    -108.0645   0.98992065   -107.07458    46609.899    4.4185729    4.4185729    4.4185729    46609.899   -4483.6377     62941.84    81371.494   -34958.029   -6844.8983    5587.3161    86.267275 
   45900    2416.7599   -109.26755    2.1867352   -107.08082   -3259.2149    4.4222576    4.4222576    4.4222576   -3259.2149    17351.096   -13980.138   -13148.603    14526.513   -6861.4617   -14488.813    86.483274 
   46000    1481.0536   -108.44998    1.3400884   -107.10989    2799.5018    4.4207272    4.4207272    4.4207272    2799.5018    19580.296   -11753.688    571.89741   -24187.705   -30134.795     21964.88    86.393518 
   46100    2428.8579   -109.29515    2.1976817   -107.09746    15252.532    4.4223284    4.4223284    4.4223284    15252.532   -2763.7311    44246.272    4275.0549   -5100.6427   -18882.096   -8052.5879    86.487428 
   46200    1679.9775    -108.6163     1.520079   -107.09622   -14329.671    4.4384294    4.4384294    4.4384294   -14329.671   -64848.855   -10813.128    32672.969    360.39397    2559.8488    17405.195    87.435531 
   46300    1524.8801   -108.48003    1.3797436   -107.10029   -16608.782    4.4301166    4.4301166    4.4301166   -16608.782   -24177.383   -41933.196    16284.233    -36519.06    -12690.61    3745.0558    86.945173 
   46400     1967.846   -108.86795    1.7805484    -107.0874    26457.554    4.4228955    4.4228955    4.4228955    26457.554    19666.528    30617.735    29088.399     26616.42    4876.8956   -6421.4046      86.5207 
   46500    1538.5987   -108.48768    1.3921565   -107.09552   -18637.801    4.4275135    4.4275135    4.4275135   -18637.801    -23660.93   -16735.506   -15516.965   -13776.495    537.41187    22685.847    86.791996 
   46600    2252.5089   -109.11523    2.0381174   -107.07711       -14488    4.4279249    4.4279249    4.4279249       -14488   -37893.245   -13068.177    7497.4222    -18082.02    5220.9958   -9671.2924    86.816193 
   46700     1965.338   -108.84596    1.7782792   -107.06768   -26661.367    4.4301662    4.4301662    4.4301662   -26661.367   -17297.798   -15815.499   -46870.804    14367.263    14766.434     14733.85    86.948093 
   46800    1845.5829   -108.73672    1.6699222    -107.0668   -15582.896    4.4254271    4.4254271    4.4254271   -15582.896    7313.3523   -23696.306   -30365.733   -25251.263   -8065.3098   -4017.8432    86.669355 
   46900    1646.9567   -108.56739    1.4902011   -107.07719    8445.0076    4.4280994    4.4280994    4.4280994    8445.0076    11912.104     14316.15   -893.23156    26265.159    1749.5331   -15522.454    86.826459 
   47000    1962.5354   -108.84919    1.7757433   -107.07345   -31157.206    4.4354089    4.4354089    4.4354089   -31157.206   -12920.076   -14230.713   -66320.828    4500.9998    21257.382    12031.204    87.257143 
   47100    1596.9181   -108.53323    1.4449251   -107.08831    4840.4283    4.4276762    4.4276762    4.4276762    4840.4283   -15577.021    21547.723    8550.5829    12289.224   -3553.3234   -7688.4408    86.801567 
   47200    1737.7284   -108.66694    1.5723332   -107.09461   -3869.3861    4.4083079    4.4083079    4.4083079   -3869.3861   -713.73862     15325.74   -26220.159    35580.663   -5304.3183   -23390.561    85.667433 
   47300    2135.5851   -109.03931    1.9323222   -107.10699    6931.5818     4.395047     4.395047     4.395047    6931.5818   -12503.458    32821.717    476.48615   -2839.3375    27762.769    19800.379    84.896654 
   47400    1494.0772   -108.49048    1.3518724   -107.13861    4436.8158    4.4157758    4.4157758    4.4157758    4436.8158   -6175.7759   -15720.146    35206.369    25901.371    -13619.16   -6829.2825    86.103545 
   47500    2013.5989   -108.93004    1.8219466   -107.10809   -47161.225    4.4321689    4.4321689    4.4321689   -47161.225    4435.4125   -73596.139   -72322.949     -2733.31    19466.478   -11218.399    87.066065 
   47600    1403.3564   -108.36189    1.2697864    -107.0921   -8584.4635    4.4305538    4.4305538    4.4305538   -8584.4635    -40377.24   -41223.902    55847.751    18914.448    21590.608    19813.057    86.970915 
   47700    2143.1264   -109.02327    1.9391458   -107.08413    -7957.262    4.4176677    4.4176677    4.4176677    -7957.262   -25317.564   -52961.325    54407.103    23992.528   -11559.452   -16906.046    86.214268 
   47800    2311.3771   -109.18494    2.0913826   -107.09356    24294.948    4.3889803    4.3889803    4.3889803    24294.948    18101.584    14430.563    40352.698   -13614.463    7258.7248    739.68072     84.54558 
   47900    1426.1532   -108.44753    1.2904134   -107.15711    19703.435    4.3969997    4.3969997    4.3969997    19703.435    -20541.14    1156.3123    78495.133    38286.264     22959.95    10031.008     85.00986 
   48000    2431.7609   -109.34104    2.2003084   -107.14073   -24613.745    4.4279138    4.4279138    4.4279138   -24613.745   -50799.392    755.50004   -23797.342   -1914.0695   -3656.0875   -22377.059    86.815539 
   48100    1353.2431   -108.34211    1.2244428   -107.11767   -10029.295    4.4360073    4.4360073    4.4360073   -10029.295   -12030.332   -18453.689    396.13496    10476.976    14089.897    13306.132    87.292462 
   48200    1675.9961    -108.5929    1.5164765   -107.07642   -23383.899    4.4290052    4.4290052    4.4290052   -23383.899   -31723.627   -30267.864    -8160.206    7626.3706    3436.9961   -2742.3991    86.879749 
   48300    2405.2571   -109.23887    2.1763272   -107.06254    13562.879    4.4066641    4.4066641    4.4066641    13562.879   -27714.772    28372.969     40030.44    5562.3474   -9911.8299   -4039.0295     85.57164 
   48400    1769.0729   -108.71032    1.6006943   -107.10963   -10194.449    4.4064221    4.4064221    4.4064221   -10194.449    15822.528    -24594.69   -21811.184    22079.197    5426.0759    33001.293    85.557542 
   48500      2440.34   -109.32556    2.2080709   -107.11749    -4238.819    4.4204237    4.4204237    4.4204237    -4238.819   -2144.9535   -26554.077    15982.573    4124.2154   -3641.8976   -31194.363    86.375722 
   48600    1925.9496   -108.87066    1.7426397   -107.12802   -20364.703    4.4330202    4.4330202    4.4330202   -20364.703   -63929.628   -51995.738    54831.257    18503.082   -12572.023    -26756.71    87.116244 
   48700    1895.6559   -108.83287    1.7152293   -107.11764    40377.157    4.4029756    4.4029756    4.4029756    40377.157   -22354.877    14670.253    128816.09   -13883.097    373.44692    7225.6905    85.356938 
   48800    1135.6107   -108.17388    1.0275244   -107.14635    44062.292    4.3929924    4.3929924    4.3929924    44062.292    37639.412    34603.485    59943.979    2253.6177   -4309.0922    -36888.83    84.777649 
   48900    1680.2822   -108.66723    1.5203547   -107.14687   -14974.237    4.4260271    4.4260271    4.4260271   -14974.237   -51538.896    13506.084   -6889.8989    8921.9224   -19923.519   -8883.1538    86.704613 
   49000    2093.3537   -108.99815    1.8941104   -107.10404    10955.144    4.4365144    4.4365144    4.4365144    10955.144   -34054.298    86556.479   -19636.747    21577.209     7334.099   -17168.853    87.322405 
   49100    1145.9452   -108.15152    1.0368753   -107.11464    -36137.47    4.4379628    4.4379628    4.4379628    -36137.47   -13472.724   -24479.161   -70460.525    13663.222   -13247.829   -38213.071    87.407955 
   49200    2565.7596    -109.3918    2.3215532   -107.07025   -17680.692    4.4134676    4.4134676    4.4134676   -17680.692   -53331.518    21375.345   -21085.903   -9226.5901   -26236.754    3673.3902    85.968593 
   49300    1339.3362   -108.27577    1.2118596   -107.06391    51017.888    4.3927103    4.3927103    4.3927103    51017.888   -8480.4491    129824.26    31709.852    5311.4314   -1283.8436   -49512.166    84.761317 
   49400    2150.3232   -109.06742    1.9456576   -107.12176   -25936.562    4.4237265    4.4237265    4.4237265   -25936.562     -53344.9   -6316.2295   -18148.556   -3886.9029   -26916.815   -15685.752    86.569481 
   49500    2595.2412   -109.42612    2.3482288   -107.07789   -20448.268    4.4448873    4.4448873    4.4448873   -20448.268   -52169.412    20753.273   -29928.665   -21228.011    2392.1715    1596.2899    87.817743 
   49600     1585.799   -108.50936    1.4348643    -107.0745     -42997.3    4.4317626    4.4317626    4.4317626     -42997.3   -49084.385    -17416.82   -62490.694    11416.748    -27727.22    -47172.37    87.042122 
   49700    2188.1082    -109.0494    1.9798463   -107.06955   -13700.165    4.4089919    4.4089919    4.4089919   -13700.165   -28329.428   -3553.4566   -9217.6101   -8595.8366    4721.4272   -15802.706    85.707316 
   49800     2055.491   -108.96856    1.8598515   -107.10871   -14613.053    4.4080633    4.4080633    4.4080633   -14613.053   -34665.216    5328.9219   -14502.866   -7279.7994   -21658.896    -9875.888    85.653177 
   49900    1937.0025   -108.88672    1.7526406   -107.13408   -9296.8337     4.426156     4.426156     4.426156   -9296.8337   -37405.967    19863.536    -10348.07    3973.6021   -11403.613   -41720.875    86.712187 
   50000    2107.4178   -109.01092     1.906836   -107.10408   -22634.607    4.4380277    4.4380277    4.4380277   -22634.607   -49573.364   -27163.209    8832.7516   -7502.1163    9199.7367   -9103.7221    87.411791 
   50100    1911.0162   -108.81038    1.7291276   -107.08125   -19262.246    4.4130286    4.4130286    4.4130286   -19262.246   -2956.7601   -25439.614   -29390.364    15138.769   -31625.893   -23860.493    85.942945 
   50200    1934.4274   -108.82668    1.7503106   -107.07637    23076.717    4.4063534    4.4063534    4.4063534    23076.717    36325.732   -27884.629    60789.049   -14180.935    13581.239   -31586.678    85.553538 
   50300    1516.7309   -108.47878      1.37237   -107.10641   -36593.632    4.4367735    4.4367735    4.4367735   -36593.632   -32604.595   -50918.724   -26257.577    6421.4908   -35472.198    12484.007    87.337707 
   50400    2419.8748   -109.28542    2.1895536   -107.09587   -44073.904    4.4333008    4.4333008    4.4333008   -44073.904   -46683.972   -44921.424   -40616.315   -10377.206    10159.511   -4752.3688    87.132786 
   50500     1911.672   -108.83777     1.729721   -107.10805    38746.956    4.3845021    4.3845021    4.3845021    38746.956   -251.36397   -21101.099    137593.33     18071.25    8098.0653    33.847252    84.287047 
   50600    1322.5925   -108.33168    1.1967095   -107.13497    32830.402    4.3707247    4.3707247    4.3707247    32830.402    8359.1085     13325.06    76807.037    7697.1293   -20393.413     9096.371    83.494977 
   50700    1968.6946   -108.94402    1.7813163    -107.1627    197.02081    4.4210002    4.4210002    4.4210002    197.02081    1012.5198   -52027.236    51605.778    58.798941    12351.811    9508.2515    86.409519 
   50800    1929.4313   -108.86011      1.74579   -107.11432   -47179.806    4.4419868    4.4419868    4.4419868   -47179.806   -65550.151   -50910.177    -25079.09    35291.817   -12116.058   -272.00977    87.645936 
   50900    1369.1519   -108.33314    1.2388374    -107.0943    3053.9772    4.4151105    4.4151105    4.4151105    3053.9772   -1333.2801    21548.824   -11053.612   -8101.2522   -12479.579    16836.286    86.064633 
   51000    2574.4376   -109.41285    2.3294052   -107.08345    5899.1012      4.40539      4.40539      4.40539    5899.1012   -26202.145   -654.56945    44554.018    19393.327    2291.1062   -22240.687    85.497435 
   51100    1187.7734    -108.1863    1.0747223   -107.11157   -26657.679    4.4339504    4.4339504    4.4339504   -26657.679   -41449.981   -7920.6889   -30602.368   -962.07042   -32833.333    11123.079    87.171092 
   51200    2443.6207   -109.29262    2.2110394   -107.08159   -42069.558    4.4239766    4.4239766    4.4239766   -42069.558    -22188.78   -54009.497   -50010.396    1452.2875     5880.553    8158.2033    86.584163 
   51300     2122.751   -109.00488    1.9207097   -107.08417    4462.3063     4.394098     4.394098     4.394098    4462.3063   -19155.848    13992.932    18549.835    15271.718   -36087.591   -23040.451    84.841672 
   51400    1766.5899   -108.71903    1.5984477   -107.12058   -1842.3968    4.4104458    4.4104458    4.4104458   -1842.3968   -16187.012    38297.439   -27637.618    27772.216   -9838.5138    11740.824    85.792136 
   51500    2169.0138   -109.06302    1.9625692   -107.10045   -30409.898    4.4364624    4.4364624    4.4364624   -30409.898   -61592.301   -21428.162   -8209.2321   -830.97321   -1491.9566   -3301.3322    87.319335 
   51600    1702.5369   -108.61383    1.5404912   -107.07334   -10652.033    4.4411193    4.4411193    4.4411193   -10652.033   -12865.769   -4926.7544   -14163.577    20964.157   -14018.615    1031.2326    87.594594 
   51700    1761.6017   -108.63317    1.5939343   -107.03923    214.99981    4.4374312    4.4374312    4.4374312    214.99981    8952.6681   -54970.028    46662.359   -17879.791    31260.669      30312.8     87.37655 
   51800    1167.4945   -108.09344    1.0563736   -107.03707    17362.289    4.4159938    4.4159938    4.4159938    17362.289   -50503.822    26125.726    76464.964    8145.6079    -31560.41    5443.7229    86.116301 
   51900    1825.0097   -108.70594    1.6513071   -107.05464    5545.1842    4.4000287    4.4000287    4.4000287    5545.1842   -40148.346    16843.459     39940.44    17677.063    1060.1515    24143.328    85.185666 
   52000    2272.4301   -109.14546    2.0561425   -107.08932   -4971.9037    4.4025838    4.4025838    4.4025838   -4971.9037   -21439.292    12675.911   -6152.3299   -11776.247   -5349.5771     10498.87    85.334157 
   52100    1528.4141   -108.50361    1.3829412   -107.12067   -14593.544    4.4258381    4.4258381    4.4258381   -14593.544    -75310.18    45081.187    -13551.64    19397.792   -34850.948   -2828.3907    86.693507 
   52200    2351.5487   -109.20135    2.1277307   -107.07362   -28958.438    4.4381976    4.4381976    4.4381976   -28958.438   -42195.845   -6713.4475   -37966.022    11226.217    7659.8632     14645.04    87.421833 
   52300    1504.8553    -108.4387    1.3616247   -107.07708    -29966.45    4.4176653    4.4176653    4.4176653    -29966.45   -65675.036    11627.068   -35851.382    11737.469   -50160.102   -1981.4921    86.214123 
   52400    2291.1255   -109.13988    2.0730585   -107.06682   -3718.9407    4.3965356    4.3965356    4.3965356   -3718.9407   -20839.687    11320.695   -1637.8294    13645.384    -20568.85   -4359.3533    84.982946 
   52500     2057.657   -108.97092    1.8618113   -107.10911   -2283.3106    4.4130247    4.4130247    4.4130247   -2283.3106   -25114.154    31148.866   -12884.645    4036.7725   -21982.576    3066.8999    85.942717 
   52600    1405.1484   -108.37843    1.2714078   -107.10703   -19014.872    4.4282057    4.4282057    4.4282057   -19014.872   -73667.525    57568.509   -40945.599   -1368.2196    -38995.98    2548.9869     86.83271 
   52700    2494.9528   -109.33605    2.2574857   -107.07856   -9089.2141    4.4272028    4.4272028    4.4272028   -9089.2141    9310.5969   -24151.911   -12426.328    12018.544    8386.5116    6332.7613    86.773729 
   52800    1511.0952   -108.45116    1.3672707   -107.08389   -52831.288    4.4176093    4.4176093    4.4176093   -52831.288   -91851.355    5203.2566   -71845.766   -14067.447   -75151.201   -1815.2828    86.210849 
   52900    1847.7989   -108.75536    1.6719273   -107.08343    28464.795    4.3911412    4.3911412    4.3911412    28464.795    38165.436    41040.114    6188.8354    227.45022    27638.896    -14242.86    84.670519 
   53000    1643.1637   -108.60307     1.486769    -107.1163    1573.0964    4.3922742    4.3922742    4.3922742    1573.0964    2021.9631    38622.864   -35925.537    8656.0029   -37606.204    13816.397    84.736076 
   53100    1306.7885   -108.33164    1.1824097   -107.14923   -16849.106    4.4168066    4.4168066    4.4168066   -16849.106   -16603.474    38478.552   -72422.396   -16636.408   -13595.739   -14529.276     86.16386 
   53200    2529.3877   -109.37954    2.2886431    -107.0909   -11910.696    4.4338283    4.4338283    4.4338283   -11910.696    18376.072   -18890.105   -35218.055    33.591144     11144.99   -1449.0899    87.163894 
   53300    1165.9359   -108.14253    1.0549633   -107.08757   -34363.952      4.42853      4.42853      4.42853   -34363.952   -7001.9029    -23252.72   -72837.233    8687.0747   -48921.239   -11353.156    86.851787 
   53400    1905.0832   -108.78215    1.7237593   -107.05839    4831.3663    4.4065576    4.4065576    4.4065576    4831.3663    55828.524    11062.619   -52397.045    9871.1359    52377.838   -4295.7598    85.565436 
   53500    1489.2986    -108.4296    1.3475486   -107.08205    8894.8319    4.4013674    4.4013674    4.4013674    8894.8319   -19279.243    80517.475   -34553.736    23005.716   -58443.334    5041.6955    85.263442 
   53600    2416.5763   -109.27885     2.186569   -107.09229   -36279.766    4.4309039    4.4309039    4.4309039   -36279.766   -29533.468   -27666.475   -51639.357    5153.5658    12917.576     7248.741    86.991534 
   53700     1975.353   -108.87385    1.7873409   -107.08651   -28792.709    4.4210623    4.4210623    4.4210623   -28792.709   -46618.744    10684.885   -50444.267    -12169.17   -35061.575    19391.258    86.413163 
   53800    1700.9149   -108.59603    1.5390235   -107.05701    49949.384    4.3790066    4.3790066    4.3790066    49949.384    69365.119     114684.2   -34201.162      12506.2   -35906.307   -5406.7395    83.970511 
   53900    1893.4467   -108.81357    1.7132303   -107.10034    14424.941    4.3900949    4.3900949    4.3900949    14424.941    7171.0816   -5854.5618    41958.304    8907.7129   -112.53534   -14105.772    84.610006 
   54000    1536.4869   -108.50501    1.3902457   -107.11476   -2007.9927    4.4173259    4.4173259    4.4173259   -2007.9927    36009.608    3391.5636   -45425.149   -1366.4303   -53138.048    10686.326    86.194258 
   54100    2029.1283   -108.92862    1.8359979   -107.09263    29153.131    4.4178382    4.4178382    4.4178382    29153.131    31062.312    31122.379    25274.702    9040.1806    10049.924   -25179.904    86.224246 
   54200    1216.1913   -108.20799    1.1004355   -107.10755   -2807.4432    4.4148167    4.4148167    4.4148167   -2807.4432   -30132.693   -20250.637        41961    11516.783   -56996.048    -7962.407    86.047458 
   54300    2354.0262   -109.22022    2.1299724   -107.09025    16465.656     4.405187     4.405187     4.405187    16465.656    18033.456    6912.7838    24450.727    9225.6983   -20675.093    435.56958    85.485616 
   54400    1576.7265   -108.53609    1.4266553   -107.10943    31041.394    4.4069598    4.4069598    4.4069598    31041.394   -38256.327    69379.484    62001.025    3738.4937   -2214.9054   -13256.428    85.588863 
   54500    1398.3875   -108.37876    1.2652904   -107.11347   -8226.7947    4.4287536    4.4287536    4.4287536   -8226.7947   -38615.894   -5060.3566    18995.866   -2145.0611   -42919.016   -1262.1062    86.864948 
   54600    2103.4732   -108.95955    1.9032667   -107.05628   -23930.849    4.4275338    4.4275338    4.4275338   -23930.849   -30605.877   -31797.256   -9389.4128   -4227.9237    25130.927    16191.703    86.793192 
   54700    1251.8025   -108.18615    1.1326572   -107.05349   -8518.8996    4.4115732    4.4115732    4.4115732   -8518.8996   -77992.589    50288.092    2147.7984    17973.154   -38188.611    33.667495    85.857943 
   54800    2742.4427   -109.53156    2.4814198   -107.05014    4044.7319    4.4114089    4.4114089    4.4114089    4044.7319    -981.5267     15197.06   -2081.3374   -21619.209    9061.9682     14979.72    85.848346 
   54900    1594.7186   -108.53236    1.4429349   -107.08943   -3993.6999     4.418518     4.418518     4.418518   -3993.6999   -27444.126    59516.756    -44053.73    -5455.499   -33089.735    12427.933     86.26406 
   55000     2372.518   -109.22225    2.1467042   -107.07555    6476.5465    4.4196759    4.4196759    4.4196759    6476.5465   -10434.167    27036.455    2827.3511    7945.0936   -2697.7234   -2933.1764    86.331893 
   55100    1486.2832   -108.42892    1.3448203    -107.0841   -8811.8394    4.4180482    4.4180482    4.4180482   -8811.8394   -18428.692    50586.211   -58593.038   -12314.811    1463.4282     -9613.15    86.236547 
   55200     2238.288   -109.09964      2.02525   -107.07439   -24063.539     4.413607     4.413607     4.413607   -24063.539   -32104.597    2521.3756   -42607.396   -5558.0709   -39031.112   -5609.3997    85.976739 
   55300    2080.9928   -108.96273    1.8829261    -107.0798    10076.553    4.4082371    4.4082371    4.4082371    10076.553    54035.069    34008.604   -57814.016    9761.3055     12789.65   -6581.2041    85.663307 
   55400     1368.815   -108.33996    1.2385326   -107.10143   -33064.986     4.422006     4.422006     4.422006   -33064.986   -20953.945   -5278.6916   -72962.321   -14146.391    -56010.65   -1081.0393    86.468512 
   55500    2092.7861   -108.96576    1.8935968   -107.07217     12965.03    4.4168051    4.4168051    4.4168051     12965.03    9287.4965    23303.506    6304.0867    7321.3718    21032.012    8914.2585    86.163774 
   55600    942.33941   -107.93957   0.85264851   -107.08693    14568.467    4.4100141    4.4100141    4.4100141    14568.467   -13198.721    133652.14   -76748.023    3708.8347   -58970.575   -5448.1248    85.766945 
   55700     2545.152   -109.36454     2.302907   -107.06163    7806.6217    4.4085677    4.4085677    4.4085677    7806.6217    4331.6489     46819.37   -27731.154    7766.1687    7074.7397    6551.8853    85.682582 
   55800    1368.2404   -108.32471    1.2380127    -107.0867     29901.97    4.4020453    4.4020453    4.4020453     29901.97   -8093.6176    99123.891   -1324.3638    3983.7706   -45488.109     3927.364    85.302844 
   55900    2042.7211   -108.92843     1.848297   -107.08014   -6529.6428     4.419153     4.419153     4.419153   -6529.6428   -12699.951    22414.556   -29303.533     9509.418    7625.8441   -2795.4308    86.301257 
   56000    1195.2924   -108.14816    1.0815257   -107.06664   -11901.397    4.4236901    4.4236901    4.4236901   -11901.397   -32292.178   -30542.486    27130.474    3607.2707   -35015.224    5834.5594    86.567342 
   56100    1984.6938   -108.85807    1.7957927   -107.06227   -4340.0087    4.4039619    4.4039619    4.4039619   -4340.0087    -17785.37    2497.1038    2268.2405    3898.0052   -21523.385    4057.7003    85.414314 
   56200    2748.8175   -109.55954    2.4871879   -107.07235     13979.05    4.3889304    4.3889304    4.3889304     13979.05    6419.9447    25442.003    10075.203    9331.2324    14410.352   -5684.6737    84.542691 
   56300    1270.3571   -108.27276    1.1494458   -107.12332    2743.5463    4.3914543    4.3914543    4.3914543    2743.5463   -33895.479    40460.978    1665.1398   -3410.6372   -76473.895    1015.1539    84.688632 
   56400    2628.2547   -109.49274    2.3781001   -107.11464   -21312.686    4.4163377    4.4163377    4.4163377   -21312.686   -37612.908   -7224.6509     -19100.5    5085.4569    18312.352    1372.2377    86.136419 
   56500    897.67041    -107.9056   0.81223105   -107.09336   -32321.344     4.433649     4.433649     4.433649   -32321.344   -121967.17     19902.24    5100.8962   -1084.4072   -56567.857   -2265.8513    87.153316 
   56600    2376.4605   -109.18638    2.1502714   -107.03611    12173.804    4.4176848    4.4176848    4.4176848    12173.804    17644.354   -17296.922     36173.98    13636.146    10043.886    7078.9561    86.215267 
   56700    1692.8458   -108.58176    1.5317224   -107.05004   -5976.1579    4.4008421    4.4008421    4.4008421   -5976.1579    7798.0577    2016.9997   -27743.531    168.13504   -52881.176   -5791.7486    85.232919 
   56800    1711.5527   -108.62884    1.5486489   -107.08019    19787.579    4.4029929    4.4029929    4.4029929    19787.579      19520.4   -5175.1149    45017.451    1210.1645    -38841.99     3172.734    85.357945 
   56900    2173.7218   -109.05503    1.9668292    -107.0882   -8387.6575    4.4111276    4.4111276    4.4111276   -8387.6575    1664.5133     9702.655   -36530.141    16842.401    -4126.651    1165.4418    85.831926 
   57000    1100.6946   -108.10799   0.99593162   -107.11206   -9650.7447    4.4025294    4.4025294    4.4025294   -9650.7447   -40847.594    47303.802   -35408.442   -6922.9964   -53989.816    -940.2959     85.33099 
   57100    2589.4169   -109.43601    2.3429589   -107.09305         1403    4.3991365    4.3991365    4.3991365         1403    31022.569   -14447.161   -12366.408    4095.1454     7906.527     -19713.2    85.133861 
   57200    1417.9721   -108.39781     1.283011    -107.1148   -2293.8067    4.4058459    4.4058459    4.4058459   -2293.8067    20665.533    15628.564   -43175.517    5732.2542   -56458.431   -6681.7067    85.523983 
   57300    1916.2441   -108.84806    1.7338579    -107.1142   -5432.0882    4.4115278    4.4115278    4.4115278   -5432.0882    -10279.65    30149.526   -36166.141    -17765.05    16667.399   -4043.1622     85.85529 
   57400    1797.6272    -108.7259    1.6265309   -107.09937   -7138.8354    4.4192024    4.4192024    4.4192024   -7138.8354   -5963.4497    23369.845   -38822.902    4440.0047   -40730.499    297.46823    86.304149 
   57500    1075.2548   -108.06144   0.97291314   -107.08853    14619.757    4.4144092    4.4144092    4.4144092    14619.757    217.25417    45288.644   -1646.6267   -4616.2397   -26714.832    18405.331    86.023629 
   57600    2271.5752   -109.12065     2.055369   -107.06529    14443.142    4.3969524    4.3969524    4.3969524    14443.142   -25517.481    37126.781    31720.126    5533.1658     10686.93    13013.615     85.00712 
   57700    1572.5575   -108.51828    1.4228831    -107.0954    21394.996    4.3998068    4.3998068    4.3998068    21394.996    10050.376    61869.236   -7734.6254    -6362.278   -58635.055    189.48593    85.172777 
   57800    2126.0229   -109.01705    1.9236702   -107.09338   -2441.8625    4.4084451    4.4084451    4.4084451   -2441.8625   -21497.905   -12443.911    26616.228   -13377.288     48903.24    9423.7712    85.675436 
   57900    1499.8155     -108.455    1.3570646   -107.09794   -19225.661    4.4269449    4.4269449    4.4269449   -19225.661   -59547.493    -9319.466    11189.975    3367.1647   -48840.142   -11661.576    86.758563 
   58000    1691.6209   -108.60146    1.5306141   -107.07084   -20651.912    4.4225421    4.4225421    4.4225421   -20651.912   -64427.158    31748.613   -29277.191   -10683.717    16371.416    -120.9868    86.499966 
   58100    1639.4972   -108.55589    1.4834515   -107.07244    19076.371    4.3862571    4.3862571    4.3862571    19076.371   -10348.172    42751.733    24825.553    9557.9186    17602.535   -5343.5277    84.388305 
   58200    2534.9305   -109.37187    2.2936584   -107.07821    30971.036    4.3966782    4.3966782    4.3966782    30971.036    23238.948    47579.577    22094.583   -13094.739   -29098.329    770.21992    84.991215 
   58300    1149.5633   -108.14619     1.040149   -107.10604   -34782.087     4.416683     4.416683     4.416683   -34782.087   -82439.937      17812.7   -39719.025   -8278.2668    50405.248    5599.1576    86.156628 
   58400    1806.7343   -108.73133    1.6347711   -107.09656    23798.018     4.406184     4.406184     4.406184    23798.018     40141.04   -3503.8047    34756.818    7143.6965   -9125.3492    1186.9665    85.543671 
   58500    1919.1572   -108.83504    1.7364937   -107.09855   -12308.137     4.408037     4.408037     4.408037   -12308.137   -51508.714    27358.209   -12773.908   -20750.914    10204.638   -5484.2201    85.651642 
   58600    1348.8978   -108.33779     1.220511   -107.11727   -5765.3267    4.3977624    4.3977624    4.3977624   -5765.3267   -37160.662    11707.011    8157.6706    16094.341    19471.543   -11754.214    85.054108 
   58700    2652.0939   -109.50262    2.3996703   -107.10295    16643.754     4.407483     4.407483     4.407483    16643.754     10724.16     3897.454    35309.648    2581.6562   -11960.193    -2631.498     85.61935 
   58800    1234.6571   -108.22548    1.1171437   -107.10834   -31841.311    4.4233226    4.4233226    4.4233226   -31841.311   -103468.73    2245.9793    5698.8216   -12216.213    13636.247   -6196.2321     86.54577 
   58900    1617.5438   -108.55579    1.4635876    -107.0922    25656.636    4.4091616    4.4091616    4.4091616    25656.636   -54525.191    33239.596    98255.504   -332.34059    11157.373    700.95338    85.717215 
   59000    1761.3814   -108.69209    1.5937349   -107.09835    31886.973    4.3979435    4.3979435    4.3979435    31886.973   -12648.658   -8959.9631    117269.54   -14813.583   -24834.049    -13980.93    85.064614 
   59100    1472.5422   -108.46778    1.3323872   -107.13539    4968.3594    4.4083738    4.4083738    4.4083738    4968.3594   -36664.619    29123.415    22446.282    17436.466    25494.787   -13844.451    85.671279 
   59200    2088.0414   -108.99674    1.8893037   -107.10744    8615.8486    4.4182255    4.4182255    4.4182255    8615.8486   -5869.1836    24582.802    7133.9276   -15256.956   -4021.8145   -1309.5526    86.246925 
   59300    1296.3381   -108.27745    1.1729539    -107.1045   -16214.084    4.4154619    4.4154619    4.4154619   -16214.084   -43105.855   -19718.587    14182.191    2237.9469    6704.7413   -2863.0885    86.085188 
   59400     2051.472    -108.9309     1.856215   -107.07469    8971.9108    4.4111916    4.4111916    4.4111916    8971.9108     11733.09    8056.5748    7126.0673   -7113.0874    15920.857   -11565.321     85.83566 
   59500    1595.0098   -108.53285    1.4431984   -107.08966    23019.265    4.4116131    4.4116131    4.4116131    23019.265    36155.283    1824.5835    31077.929   -35024.765   -26768.158   -9921.3528    85.860273 
   59600    2162.6065   -109.04122    1.9567718   -107.08445    4261.3289    4.4220709    4.4220709    4.4220709    4261.3289     23552.12   -6062.7558    -4705.377    10498.081    14908.793   -13882.854    86.472319 
   59700    1745.3993   -108.65807     1.579274   -107.07879   -4821.4283     4.426541     4.426541     4.426541   -4821.4283   -22004.456   -20339.472    27879.643    -33354.66    -27037.75   -4566.0934    86.734821 
   59800    1810.7869   -108.70668     1.638438   -107.06824    3525.3358    4.4216298    4.4216298    4.4216298    3525.3358   -27251.098    46873.876   -9046.7701   -2143.0511    15185.483    11909.667    86.446442 
   59900    1994.9839    -108.8542    1.8051033    -107.0491   -31381.845    4.4326806    4.4326806    4.4326806   -31381.845   -68848.142   -33641.394    8343.9999   -15796.203    5995.2887    1867.2245    87.096222 
   60000    1337.1313   -108.25695    1.2098645   -107.04709    737.44095    4.4229743    4.4229743    4.4229743    737.44095   -23036.081    4114.8089    21133.595   -26949.557   -19595.305   -6436.0762    86.525325 
   60100    2414.7141   -109.22068    2.1848841   -107.03579    16715.659    4.4079193    4.4079193    4.4079193    16715.659    11135.408    47440.761   -8429.1916   -3286.1038    21252.516    10907.641    85.644782 
   60200    1040.6127   -108.02023   0.94156828   -107.07867    3602.8564    4.4186804    4.4186804    4.4186804    3602.8564   -67210.621    27996.834    50022.356   -52930.731   -27455.702   -19251.358    86.273568 
   60300    1747.6257   -108.65946    1.5812884   -107.07817   -14334.368    4.4263658    4.4263658    4.4263658   -14334.368   -38247.196     8312.065   -13067.974    2162.3277    18679.522    4175.6477    86.724522 
   60400    1790.3161   -108.68177    1.6199157   -107.06186   -9329.8305    4.4228446    4.4228446    4.4228446   -9329.8305   -40331.609   -42976.109    55318.226   -24168.518   -5419.5923    2609.2171    86.517715 
   60500    1977.8433   -108.86544    1.7895942   -107.07585      -9939.7    4.4134834    4.4134834    4.4134834      -9939.7   -9404.4025   -13891.057   -6523.6407   -3882.7376   -27837.004   -5777.4942     85.96952 
   60600     2571.041   -109.40976    2.3263319   -107.08343     836.4098    4.4088592    4.4088592    4.4088592     836.4098   -22658.346    15800.087    9367.4886   -12363.313    11459.924    5159.3284    85.699576 
   60700    1239.6163   -108.25388    1.1216309   -107.13225   -17619.172    4.4186933    4.4186933    4.4186933   -17619.172   -28646.022   -43285.097    19073.604   -43157.294   -3005.2041    -8131.678    86.274325 
   60800    2008.3351   -108.92702    1.8171838   -107.10984   -12125.341    4.4205461    4.4205461    4.4205461   -12125.341   -29459.668   -5129.5967   -1786.7567    14998.715   -33844.027   -17717.595    86.382901 
   60900    1743.9713   -108.68363    1.5779818   -107.10565    13158.003    4.4154507    4.4154507    4.4154507    13158.003   -16381.182   -4620.2983    60475.489   -45325.156    11525.745    20165.405    86.084529 
   61000    1825.4029   -108.76206    1.6516629   -107.11039   -26797.937    4.4174596    4.4174596    4.4174596   -26797.937    2922.1575   -52723.886   -30592.083   -9116.1743   -16964.112   -42807.921    86.202082 
   61100    1953.4298   -108.86243    1.7675043   -107.09492    14851.939    4.4110096    4.4110096    4.4110096    14851.939     15909.16   -18138.477    46785.133   -11085.465   -2301.1565   -5999.2786    85.825037 
   61200    2134.1952   -109.03683    1.9310646   -107.10576   -35233.665     4.431612     4.431612     4.431612   -35233.665   -41554.588   -69338.103    5191.6946    -34257.33    5656.8601    2628.5999     87.03325 
   61300    1203.9328   -108.16689    1.0893437   -107.07754     3866.589     4.453556     4.453556     4.453556     3866.589     43269.85   -15784.732   -15885.351    17705.792   -29825.267   -14917.348    88.332547 
   61400    2185.3754   -109.01019    1.9773736   -107.03282    1352.6867    4.4380209    4.4380209    4.4380209    1352.6867    15530.079   -27944.533    16472.514   -2432.5855    11846.587    8315.0974    87.411393 
   61500    1857.7589    -108.7331    1.6809393   -107.05216   -23047.122    4.3983411    4.3983411    4.3983411   -23047.122    7356.5801   -83602.648    7104.7013    20777.059   -5727.2899    -37606.49    85.087686 
   61600    1068.2419   -108.06627   0.96656772   -107.09971    12007.721      4.37889      4.37889      4.37889    12007.721    45943.936   -35782.507    25861.734    9065.6648   -9471.3774     14751.35    83.963806 
   61700    2496.0443   -109.40518    2.2584733   -107.14671   -3324.7012    4.4054161    4.4054161    4.4054161   -3324.7012    11618.672   -41111.144    19518.368   -7061.8993     10514.52    11495.394    85.498957 
   61800    1517.8668   -108.50609    1.3733977   -107.13269   -7749.4395    4.4357188    4.4357188    4.4357188   -7749.4395   -7718.2545   -75624.215    60094.151    24426.854   -14080.478   -18560.683    87.275437 
   61900    1605.9378   -108.55786    1.4530863   -107.10477   -20950.465    4.4235897    4.4235897    4.4235897   -20950.465   -1799.8276   -61742.784    691.21698   -2829.2207    8225.1774    29997.881    86.561445 
   62000    2398.5807   -109.24002    2.1702863   -107.06974    20393.576    4.4058178    4.4058178    4.4058178    20393.576   -21147.364   -30744.852    113072.94    -8467.698    7507.9188   -19641.883    85.522344 
   62100    1482.2421   -108.43508    1.3411638   -107.09392    1122.0888    4.4013543    4.4013543    4.4013543    1122.0888    25218.957   -32599.809    10747.118    19765.948   -2500.4257    4693.8767    85.262682 
   62200    1374.3758   -108.36812    1.2435641   -107.12456    -621.8316     4.413079     4.413079     4.413079    -621.8316   -16584.226   -17193.922    31912.653   -11528.632   -16936.896    6759.2996    85.945891 
   62300    2511.3901   -109.39092    2.2723585   -107.11856   -7808.1847    4.4271189    4.4271189    4.4271189   -7808.1847   -9341.7924   -51585.166    37502.405   -8227.6441    6543.5528    3065.9663    86.768793 
   62400    1378.0211   -108.36229    1.2468624   -107.11543    -11702.68    4.4401902    4.4401902    4.4401902    -11702.68   -47260.709   -20015.703    32168.373   -9622.0597   -15357.652    23254.984    87.539635 
   62500    1311.6733   -108.26104    1.1868296   -107.07421    4434.0646     4.436696     4.436696     4.436696    4434.0646   -40196.271    40074.637    13423.829   -32315.214   -6794.8994    -1593.579    87.333127 
   62600    1879.7887     -108.748    1.7008723   -107.04712   -11493.871    4.4224344    4.4224344    4.4224344   -11493.871    26096.062   -15653.688   -44923.988   -2457.3277     10662.28    51128.946    86.493647 
   62700    1499.3193   -108.42849    1.3566156   -107.07188   -15815.327    4.4079866    4.4079866    4.4079866   -15815.327   -29032.466   -30495.657    12082.143   -30268.122   -3469.3919    4309.9503    85.648702 
   62800    2305.4106   -109.16848     2.085984    -107.0825   -9524.0816    4.4077081    4.4077081    4.4077081   -9524.0816   -1860.8121   -45148.293     18436.86   -8540.2431    2126.2468   -11524.519    85.632474 
   62900    1784.1504   -108.72607    1.6143368   -107.11173   -27928.421    4.4350891    4.4350891    4.4350891   -27928.421   -46397.282   -45725.026    8337.0434     5723.116   -9263.8389    11126.457    87.238268 
   63000    1414.6779   -108.37122    1.2800303   -107.09119   -45034.799    4.4352746    4.4352746    4.4352746   -45034.799   -57207.922   -74483.076   -3413.3984   -40888.388    3836.1307   -25619.837    87.249217 
   63100    2427.7138    -109.2635    2.1966465   -107.06686    31757.287    4.3938436    4.3938436    4.3938436    31757.287    75337.246    12433.564    7501.0505     28199.43    3843.4547   -18624.578    84.826936 
   63200    2037.2049   -108.93822    1.8433058   -107.09492   -4818.2447    4.3858997    4.3858997    4.3858997   -4818.2447   -38315.378    -29734.08    53594.724    -36990.04   -2006.3745   -3398.5518    84.367674 
   63300    1222.1729   -108.24571    1.1058477   -107.13986    27452.363    4.4081057    4.4081057    4.4081057    27452.363    93381.553    -41964.15    30939.687    -23140.24    4436.0273    -37157.77    85.655648 
   63400     2131.146   -109.03559    1.9283056   -107.10728    -30038.01    4.4326455    4.4326455    4.4326455    -30038.01   -30514.182   -20091.028   -39508.821     10321.75    7368.1754   -5113.1894    87.094154 
   63500    1523.0577    -108.4772    1.3780947   -107.09911    -47237.47    4.4214199    4.4214199    4.4214199    -47237.47   -81686.878   -37643.496   -22382.036   -40213.936   -11642.231   -17954.279    86.434132 
   63600    2336.1319   -109.19688    2.1137812   -107.08309    6032.1718    4.3908221    4.3908221    4.3908221    6032.1718    41349.522   -21281.065    -1971.942    2611.9627   -2900.1407   -27512.574    84.652057 
   63700    1965.5976   -108.90396     1.778514   -107.12544    4701.0667    4.3956707    4.3956707    4.3956707    4701.0667   -30191.975    53597.753   -9302.5783   -21234.445    7200.7347   -3374.9097    84.932804 
   63800    1521.3055   -108.52034    1.3765092   -107.14384   -24332.272    4.4141118    4.4141118    4.4141118   -24332.272   -41655.386    -36.91031   -31304.519   -22101.589   -4965.8913   -815.67111    86.006245 
   63900    1811.2819   -108.75819     1.638886    -107.1193   -13230.544    4.4114236    4.4114236    4.4114236   -13230.544   -51366.441    37218.713   -25543.903     26880.74    5817.0771   -26285.933    85.849207 
   64000    1505.3006   -108.47319    1.3620277   -107.11117   -2515.4966    4.4147582    4.4147582    4.4147582   -2515.4966   -23438.229    24452.744   -8561.0041   -36074.439   -9724.5609    8686.8266    86.044036 
   64100     1594.299   -108.55012    1.4425552   -107.10757    7220.9929    4.4039734    4.4039734    4.4039734    7220.9929    59713.047   -10227.102   -27822.966    3813.6531   -18425.072   -34639.604    85.414981 
   64200    2319.4747   -109.21044    2.0987094   -107.11173    5204.3087     4.404899     4.404899     4.404899    5204.3087   -6523.3855     29508.58   -7372.2681    24799.094     21801.44    3264.5963    85.468852 
   64300    2207.4842    -109.0995    1.9973781   -107.10212   -58167.362    4.4365555    4.4365555    4.4365555   -58167.362   -48714.258   -62077.753   -63710.075   -28289.122   -4822.0813   -18060.625    87.324829 
   64400    1319.4786    -108.2862     1.193892   -107.09231   -6726.3285    4.4227437    4.4227437    4.4227437   -6726.3285   -7838.5299    34326.474    -46666.93    29015.145    3046.9314   -34764.258    86.511797 
   64500    2070.4048   -108.95086    1.8733457   -107.07752    25953.271    4.3916905    4.3916905    4.3916905    25953.271    3456.1041    26086.261    48317.447    179.83184   -8241.4349    32988.193    84.702293 
   64600    1547.3131    -108.5153    1.4000414   -107.11526    22999.453    4.3866131    4.3866131    4.3866131    22999.453    44320.304    48164.997   -23486.942   -995.65218    8500.0947   -48752.886    84.408852 
   64700     2469.258   -109.36627    2.2342366   -107.13203   -8089.6618    4.4095572    4.4095572    4.4095572   -8089.6618   -1971.0653    6571.4895    -28869.41    31431.833   -5483.9155   -15226.449    85.740291 
   64800    1727.7957   -108.68872    1.5633459   -107.12537    826.22485    4.4167328    4.4167328    4.4167328    826.22485    32158.992    1737.8852   -31418.203   -9308.3121   -4363.5671    34805.441    86.159539 
   64900    1570.0267   -108.54383    1.4205931   -107.12324   -1973.2824        4.405        4.405        4.405   -1973.2824    35908.408   -39606.232   -2222.0224   -3614.8454   -711.03073   -57760.664     85.47473 
   65000     2308.079   -109.20395    2.0883984   -107.11555   -5648.4234    4.3978544    4.3978544    4.3978544   -5648.4234    -39978.78    16900.902    6132.6088    7766.5724    -8270.926    16476.517    85.059442 
   65100    1134.7337    -108.1769    1.0267309   -107.15017    4270.0331    4.4002442    4.4002442    4.4002442    4270.0331   -6899.5566    10382.173    9327.4832   -6056.1604   -2246.2638   -12217.728    85.198186 
   65200    1784.7726   -108.76382    1.6148998   -107.14892   -8510.1361    4.4205264    4.4205264    4.4205264   -8510.1361   -9567.8886    15829.476   -31791.996   -20211.375    1326.6378   -39422.121    86.381741 
   65300    2185.5382   -109.08987    1.9775209   -107.11235    5867.4803    4.4245118    4.4245118    4.4245118    5867.4803    3026.6261    21437.562   -6861.7473    15153.649   -1456.5935      2900.01    86.615588 
   65400    987.68305   -108.00649   0.89367638   -107.11282    8267.0213    4.4131708    4.4131708    4.4131708    8267.0213    37074.211   -73404.346    61131.199   -477.31097    8238.8402   -43140.754     85.95125 
   65500      2356.89   -109.22884    2.1325636   -107.09627   -9589.6636    4.3994268    4.3994268    4.3994268   -9589.6636   -55168.477   -22739.025    49138.511   -22947.553    364.15469    8378.4405    85.150714 
   65600    1726.0007   -108.67084    1.5617217   -107.10912    57708.888    4.3838349    4.3838349    4.3838349    57708.888    48545.802    58402.612     66178.25    8346.8498    6803.0511    -52067.57    84.248574 
   65700    1492.8331       -108.5    1.3507467   -107.14925   -18264.474    4.4207017    4.4207017    4.4207017   -18264.474    -12012.59   -40366.506   -2414.3251   -9617.8754    391.46652    4763.6462    86.392021 
   65800    1934.8226   -108.84621    1.7506681   -107.09554   -43687.013    4.4324055    4.4324055    4.4324055   -43687.013   -67061.095   -59063.234   -4936.7107    8162.7167    6096.2085    3980.4117    87.080006 
   65900    1707.8238   -108.62969    1.5452749   -107.08442    -12825.86    4.3946739    4.3946739    4.3946739    -12825.86    22701.821   -19961.241   -41218.161    13835.885    4256.3711   -44446.973    84.875037 
   66000     1615.788   -108.56158    1.4619989   -107.09958    22173.446    4.3766048    4.3766048    4.3766048    22173.446    78126.218   -20782.676    9176.7963   -18094.197    4279.8151    46588.642    83.832416 
   66100    2315.4592   -109.22165    2.0950761   -107.12657   -4547.6028    4.3971401    4.3971401    4.3971401   -4547.6028   -26485.963   -14604.674    27447.828    18693.458    15946.268   -19739.652    85.018006 
   66200    1361.1521   -108.36483    1.2315991   -107.13323   -22207.415    4.4238729    4.4238729    4.4238729   -22207.415    60001.935   -88372.648   -38251.533    2008.7964   -5411.3769    30695.887    86.578077 
   66300    1874.4492    -108.7946    1.6960411   -107.09856   -11363.848    4.4267697    4.4267697    4.4267697   -11363.848    11201.725   -56767.956    11474.688    -3527.104    19686.391    9083.5144     86.74826 
   66400    2002.8617   -108.89765    1.8122313   -107.08542     1235.707    4.4025099    4.4025099    4.4025099     1235.707    16483.715   -12454.032   -322.56186     16771.11    15.151927    3160.6562    85.329856 
   66500    1387.3712   -108.35616    1.2553226   -107.10083    19594.341    4.3845225    4.3845225    4.3845225    19594.341    108990.56   -69706.459    19498.918   -2227.5391   -689.17085    33879.403    84.288226 
   66600    2836.5468   -109.68589    2.5665672   -107.11932    723.30835    4.4082383    4.4082383    4.4082383    723.30835   -5917.7649   -17339.942    25427.632   -4924.7128   -17287.116   -5368.1745    85.663379 
   66700    978.99303   -108.00601   0.88581347   -107.12019    19899.866    4.4334721    4.4334721    4.4334721    19899.866    111509.22   -31287.393   -20522.233    6968.2103    14466.249    54023.809    87.142888 
   66800    2039.7618   -108.90733    1.8456194   -107.06172   -10414.522    4.4371129    4.4371129    4.4371129   -10414.522    6704.4432   -57558.903    19610.893    5830.4172   -2309.5909   -28588.878    87.357748 
   66900    1559.8916   -108.45886    1.4114227   -107.04744   -27076.563    4.4248912    4.4248912    4.4248912   -27076.563   -35645.883   -42711.665   -2872.1407   -21488.629   -15923.375    40539.195    86.637877 
   67000    1958.1797   -108.83119    1.7718022   -107.05938   -17364.487     4.401964     4.401964     4.401964   -17364.487    35086.785   -46378.868   -40801.377    9625.0173    6621.6659    494.65153     85.29812 
   67100     2436.337    -109.2882    2.2044489   -107.08375    22422.936    4.3884453    4.3884453    4.3884453    22422.936    22599.849    27499.796    17169.162   -12055.211   -8637.7644   -19308.796    84.514663 
   67200    1318.8814   -108.33513    1.1933516   -107.14178   -22091.137    4.4139339    4.4139339    4.4139339   -22091.137    17136.101   -26194.653   -57214.861   -8817.0364    19980.703    54371.396    85.995846 
   67300    2847.8368   -109.67433    2.5767825   -107.09755   -32022.606    4.4353495    4.4353495    4.4353495   -32022.606   -35953.378    2248.3685    -62362.81    398.15592   -5672.2831   -21655.034    87.253637 
   67400    1077.1166   -108.06857   0.97459776   -107.09397    929.94592    4.4196174    4.4196174    4.4196174    929.94592   -6017.2839    58209.304   -49402.182    5021.3272   -17230.344    44342.252    86.328469 
   67500    2160.4005   -109.02556    1.9547758   -107.07078    12367.346      4.39712      4.39712      4.39712    12367.346   -2943.3148    55234.281    -15188.93   -17207.135      12937.7   -1500.0055    85.016836 
   67600    1766.7384   -108.69064     1.598582   -107.09206    37097.442    4.3947424    4.3947424    4.3947424    37097.442    30168.997    66654.113    14469.216    13084.595    2945.4931    3547.6154    84.879001 
   67700    1574.7224   -108.55164    1.4248419    -107.1268   -18157.413     4.409568     4.409568     4.409568   -18157.413    33949.364   -58316.457   -30105.147    1198.2923   -4420.0214    63890.493    85.740919 
   67800    2050.2308   -108.97054    1.8550919   -107.11545    -3762.517    4.4176918    4.4176918    4.4176918    -3762.517   -14499.444   -21106.154    24318.046   -4386.8858    -6187.351   -30521.337    86.215679 
   67900    1219.0878   -108.21864    1.1030562   -107.11558    14271.233    4.4141545    4.4141545    4.4141545    14271.233     54228.46   -5952.8986   -5461.8616    15405.504    22314.662    19939.937    86.008742 
   68000    1857.6324   -108.77652    1.6808248    -107.0957    27439.913    4.4043666    4.4043666    4.4043666    27439.913    68262.594   -15296.288    29353.432    6852.1765    8084.6915    28243.156    85.437863 
   68100    1872.9579   -108.80689    1.6946916   -107.11219   -3723.8936    4.4017873    4.4017873    4.4017873   -3723.8936    47265.619   -40877.993   -17559.308   -12874.621    -2602.107   -32836.206    85.287848 
   68200     1528.882   -108.50013    1.3833646   -107.11677    7035.2783    4.4146369    4.4146369    4.4146369    7035.2783    42906.574   -528.94667   -21271.792    15380.052    4705.0239    36974.531    86.036944 
   68300     1734.393    -108.6664    1.5693153   -107.09709   -516.91969     4.411788     4.411788     4.411788   -516.91969    20047.639   -50320.313    28721.915    40034.244   -14066.872   -20062.625    85.870481 
   68400    1675.4236   -108.61712    1.5159585   -107.10116   -13988.967    4.4012595    4.4012595    4.4012595   -13988.967     38319.41   -55036.941   -25249.369   -11991.793    10958.309    -12078.32    85.257171 
   68500    2057.1043   -108.96753    1.8613112   -107.10622   -3566.5328    4.4002246    4.4002246    4.4002246   -3566.5328    17656.099   -20137.917   -8217.7804    12697.801    1123.1352    22942.029    85.197047 
   68600    1629.2546   -108.59844    1.4741838   -107.12426    6365.9339    4.4080181    4.4080181    4.4080181    6365.9339    23741.956   -54639.818    49995.664    41068.604   -1375.6638   -17717.633    85.650543 
   68700     2166.204   -109.06859    1.9600269   -107.10857   -45252.109    4.4297921    4.4297921    4.4297921   -45252.109   -19624.484   -85453.061   -30678.783   -17185.007    10995.844    2905.3565    86.926069 
   68800    1129.4467    -108.1278    1.0219471   -107.10586   -43548.483    4.4206336    4.4206336    4.4206336   -43548.483   -40042.515   -86436.515   -4166.4181    60281.434    15527.924    1897.6354    86.388025 
   68900    2496.7738   -109.33139    2.2591334   -107.07225    42337.315     4.377502     4.377502     4.377502    42337.315    72482.813    5482.3463    49046.785   -12921.433   -5058.9939    -13206.15    83.883986 
   69000    1837.0252   -108.78353     1.662179   -107.12135   -6708.0982    4.3851878    4.3851878    4.3851878   -6708.0982   -31542.582   -28659.433    40077.721    55912.278   -2823.6295    8207.8438    84.326598 
   69100    1832.0337   -108.78443    1.6576626   -107.12677   -23348.366    4.4160444    4.4160444    4.4160444   -23348.366   -12075.499   -42264.431   -15705.167    16436.364    26268.192    4666.5022    86.119262 
   69200    1688.9435   -108.62321    1.5281916   -107.09502    19233.254    4.4220425    4.4220425    4.4220425    19233.254    44182.078   -26927.561    40445.246    9425.0908   -7507.1759   -4336.2709    86.470654 
   69300    1345.7655   -108.31672    1.2176769   -107.09905   -31369.418    4.4140188    4.4140188    4.4140188   -31369.418   -51627.691   -62527.037    20046.474    45098.008    10079.997    4123.1058    86.000807 
   69400    2019.9745   -108.91866    1.8277154   -107.09094     8349.111     4.391235     4.391235     4.391235     8349.111    66230.431   -2890.2819   -38292.816   -14706.932    18115.467    30492.924    84.675942 
   69500    1875.6097   -108.80838     1.697091   -107.11129    20181.605    4.3933249    4.3933249    4.3933249    20181.605   -4526.6309    25371.901    39699.544     48604.28   -16704.025    5573.1857    84.796898 
   69600    2026.5514    -108.9484    1.8336663   -107.11473   -11122.994    4.4102678    4.4102678    4.4102678   -11122.994   -40051.221   -15739.269    22421.508   -13452.271    12518.483    18540.725    85.781747 
   69700    1620.9574   -108.57724    1.4666763   -107.11056   -13800.803    4.4109474    4.4109474    4.4109474   -13800.803    17620.802   -22702.428   -36320.783   -4875.0778    3278.7177   -5754.0135     85.82141 
   69800    1786.1288   -108.71614    1.6161268   -107.10001    11926.903    4.4065758    4.4065758    4.4065758    11926.903    16910.085   -5870.0234    24740.648    32703.622   -10392.408   -4379.5258    85.566494 
   69900    1261.7318   -108.25194    1.1416414    -107.1103   -7331.4816    4.4037682    4.4037682    4.4037682   -7331.4816   -8212.9259    7435.3891   -21216.908   -18644.129    19027.502    43728.248    85.403045 
   70000    1990.8025   -108.90888      1.80132   -107.10756    11568.795    4.4033952    4.4033952    4.4033952    11568.795    29169.088    21213.694   -15676.397   -5359.7858     12006.14   -20869.003    85.381344 
   70100    2104.6617   -109.02207    1.9043422   -107.11773   -24100.469    4.4213778    4.4213778    4.4213778   -24100.469    2468.1736   -31252.062   -43517.518    8606.4772   -6131.0591    48646.379    86.431665 
   70200    1813.0448   -108.73626    1.6404811   -107.09578   -37013.037    4.4203399    4.4203399    4.4203399   -37013.037   -31712.937   -40638.931   -38687.242   -12413.239     9105.486    9463.9035    86.370809 
   70300    2042.8109   -108.92515    1.8483782   -107.07677   -3717.1312    4.4033485    4.4033485    4.4033485   -3717.1312    69418.951   -56656.955    -23913.39   -3023.1391    889.54941    17587.889    85.378631 
   70400      1212.37   -108.20657    1.0969778   -107.10959   -39541.588     4.403498     4.403498     4.403498   -39541.588    40193.547   -90157.808   -68660.504   -13628.982   -2792.0483    70117.937    85.387328 
   70500     2336.558   -109.21847    2.1141668    -107.1043    7484.9705    4.4026864    4.4026864    4.4026864    7484.9705   -17302.995    26124.963    13632.943   -16081.601    4444.5543   -21465.729    85.340123 
   70600    1984.5738   -108.91386    1.7956841   -107.11817   -20662.318    4.4199174    4.4199174    4.4199174   -20662.318    4694.0794    -20851.42   -45829.613    15214.634   -4007.9995    55934.778    86.346048 
   70700    1807.2078   -108.72537    1.6351996   -107.09017   -16740.643    4.4282654    4.4282654    4.4282654   -16740.643   -12931.884    12993.225   -50283.268   -17615.259   -1368.2837    5012.0253    86.836225 
   70800    1930.8413   -108.80875    1.7470658   -107.06168    22687.919    4.4063086    4.4063086    4.4063086    22687.919    1346.1637    47621.703     19095.89    3357.6694    2754.7512    24493.367    85.550927 
   70900    1002.2304   -108.00216    0.9068391   -107.09532    1405.0581    4.4019777    4.4019777    4.4019777    1405.0581    15079.212    4750.7579   -15614.796   -27766.607    108.66567    53772.648    85.298918 
   71000     2160.757   -109.03198    1.9550984   -107.07688    17475.271     4.410528     4.410528     4.410528    17475.271   -8788.8607    62416.036   -1201.3613   -25121.687   -1666.7052   -25050.565    85.796929 
   71100    1515.9949   -108.46417     1.371704   -107.09247   -725.87439    4.4082679    4.4082679    4.4082679   -725.87439    40129.836   -4273.9249   -38033.534    12089.289   -3256.6474    81851.463    85.665105 
   71200     2047.907   -108.92691    1.8529893   -107.07392   -3395.1381    4.4109086    4.4109086    4.4109086   -3395.1381   -30651.861   -2655.4671    23121.913   -18330.629    5014.3513   -26344.002    85.819143 
   71300    1152.6234   -108.13027    1.0429179   -107.08735    4033.4869    4.4055435    4.4055435    4.4055435    4033.4869    42606.809    6561.0836   -37067.432   -2382.3712    -2276.395    66983.001     85.50637 
   71400    1953.8062   -108.85026    1.7678449   -107.08242   -1550.3636    4.3957463    4.3957463    4.3957463   -1550.3636    28590.399   -14982.517   -18258.973    -17553.31    14312.626    22203.367    84.937186 
   71500    1860.5512    -108.7892    1.6834658   -107.10573    -2908.204    4.3966607    4.3966607    4.3966607    -2908.204   -473.62108   -25204.708    16953.717   -7770.9265    -6616.235   -6087.7239    84.990202 
   71600     2090.151   -108.99621    1.8912125     -107.105    238.33259    4.4098423    4.4098423    4.4098423    238.33259    45285.162   -16112.326   -28457.838    7441.2472   -906.35971    45267.405    85.756918 
   71700    1902.8153   -108.82323    1.7217073   -107.10153   -19798.994     4.411945     4.411945     4.411945   -19798.994   -10531.281   -32442.936   -16422.766   -36012.078   -11530.752    -22563.56    85.879654 
   71800    1567.1971   -108.51492    1.4180329   -107.09689    1097.6738    4.4077111    4.4077111    4.4077111    1097.6738    54981.502    -53868.41    2179.9284    8120.1117    11889.628    33765.408    85.632648 
   71900    1846.0105   -108.75858    1.6703091   -107.08827   -2429.9866    4.3983544    4.3983544    4.3983544   -2429.9866    24227.976   -39469.667    7951.7312   -17802.103   -1891.3893    8911.4068     85.08846 
   72000    1938.6974   -108.86412    1.7541742   -107.10995   -21482.422    4.3972353    4.3972353    4.3972353   -21482.422   -15516.424   -40055.091   -8875.7513   -34774.225   -6156.6914   -9231.8476    85.023528 
   72100    2263.4231   -109.16174    2.0479928   -107.11375    16656.345    4.4116386    4.4116386    4.4116386    16656.345    69333.018    2818.2665    -22182.25    2396.6278    5393.6692    21696.644    85.861761 
   72200    1363.6369   -108.35135    1.2338473    -107.1175   -34098.601    4.4250508    4.4250508    4.4250508   -34098.601   -57710.862   -28310.296   -16274.644   -40862.271    455.29636   -12015.571    86.647248 
   72300    2300.4995    -109.1582    2.0815403   -107.07666     11050.55    4.4149959    4.4149959    4.4149959     11050.55    64067.339    3534.3801    -34450.07    13844.981   -3726.4754    7863.5794    86.057931 
   72400    1307.7323   -108.27532    1.1832637   -107.09206    8465.9606    4.3995824    4.3995824    4.3995824    8465.9606   -16479.882    52623.461   -10745.698   -33430.075   -2513.5923   -36086.747    85.159749 
   72500    1585.1104   -108.55435    1.4342412   -107.12011    1120.9145    4.4075516    4.4075516    4.4075516    1120.9145    2128.1595    12157.296   -10922.712   -9025.7151    2806.7097   -2704.4476    85.623348 
   72600    2495.9015   -109.36106    2.2583441   -107.10272    2847.9221    4.4117204    4.4117204    4.4117204    2847.9221   -627.22912    24133.046    -14962.05   -125.56647     3595.924   -3718.2289    85.866536 
   72700    993.11744   -108.01875   0.89859353   -107.12016   -3512.4652    4.4077525    4.4077525    4.4077525   -3512.4652    -12486.26   -26607.532    28556.396   -60655.072   -8407.8402   -20744.861    85.635061 
   72800    2357.8306     -109.229    2.1334147   -107.09559    5045.8893    4.4037464    4.4037464    4.4037464    5045.8893    1787.8876   -18252.351    31602.132    14640.523     4465.316     11357.36    85.401775 
   72900    1193.6817   -108.19551    1.0800683   -107.11544    35150.388    4.4028558    4.4028558    4.4028558    35150.388    27847.673     17896.67    59706.822   -31173.647   -2911.1648   -19188.004    85.349972 
   73000    2087.1367   -109.00408    1.8884852   -107.11559   -9820.8059    4.4303076    4.4303076    4.4303076   -9820.8059    6369.4194   -25285.503   -10546.334   -14177.351   -2851.8232   -16017.136    86.956417 
   73100    2589.1417   -109.41938    2.3427098   -107.07667   -26710.014     4.435255     4.435255     4.435255   -26710.014   -64187.685   -6793.8465   -9148.5112     -12975.8   -1515.0323    19194.639    87.248058 
   73200    1358.5539    -108.3141    1.2292481   -107.08485   -9781.9333    4.3996579    4.3996579    4.3996579   -9781.9333   -28867.457   -11926.033    11447.689   -59014.932     3119.417   -26277.919    85.164134 
   73300    2239.8159   -109.10558    2.0266325   -107.07895    45256.511    4.3716982    4.3716982    4.3716982    45256.511    51882.989    36961.427    46925.117    26215.087    5284.2655    7746.4484    83.550784 
   73400    1177.7277   -108.20925    1.0656328   -107.14362    29923.983    4.3880404    4.3880404    4.3880404    29923.983    -17949.76    58785.792    48935.918   -38444.012   -2255.2921   -4090.8845     84.49127 
   73500    2000.6958   -108.94431    1.8102716   -107.13404   -19067.973     4.423165     4.423165     4.423165   -19067.973   -17160.395   -9511.7161   -30531.809   -34921.219    9188.7084    3018.2356    86.536516 
   73600     1947.044   -108.85544    1.7617263   -107.09371    17376.335     4.416703     4.416703     4.416703    17376.335     -18275.5    78881.393   -8476.8872    2455.6838   -5286.6063    2661.6092    86.157797 
   73700    1160.1305   -108.14565    1.0497104   -107.09594    12558.156     4.400501     4.400501     4.400501    12558.156   -9794.5381     -3712.87    51181.875   -72457.831    6259.3094    -18659.52    85.213102 
   73800    2469.1071   -109.31663       2.2341   -107.08253    24439.906    4.3924848    4.3924848    4.3924848    24439.906    13992.456    84437.669   -25110.408    19538.654   -17644.333    10261.023    84.748262 
   73900    1140.9064   -108.15214    1.0323161   -107.11982   -20392.558    4.4064334    4.4064334    4.4064334   -20392.558    1474.8467   -57044.239   -5608.2812   -44687.133   -1264.3284    6316.8322    85.558197 
   74000    1833.4748   -108.76687    1.6589666   -107.10791   -18545.649    4.4205089    4.4205089    4.4205089   -18545.649    1185.4136   -49319.088   -7503.2716   -10128.651    -6183.705   -9402.6804     86.38072 
   74100    1998.8697   -108.89847    1.8086194   -107.08985    1813.2104    4.4076745    4.4076745    4.4076745    1813.2104    57083.649   -9125.1728   -42518.844   -2833.3671   -1835.9906    1768.1746    85.630512 
   74200    1460.6155   -108.41605    1.3215956   -107.09445    23841.857    4.4008615    4.4008615    4.4008615    23841.857    18465.097    21122.336    31938.137   -41891.451    6033.6482   -1780.4624    85.234046 
   74300    2042.1175   -108.93148    1.8477509   -107.08373   -8505.7667    4.4182379    4.4182379    4.4182379   -8505.7667    16393.868    2157.3958   -44068.564    23512.529    19818.334    6213.8996    86.247655 
   74400    1020.1821     -108.003   0.92308217   -107.07991   -35396.323    4.4258543    4.4258543    4.4258543   -35396.323   -60784.047    -13598.25   -31806.672   -69450.707     7416.267    8114.5459    86.694461 
   74500    2114.1812   -108.97783    1.9129556   -107.06487    11565.295    4.4028003    4.4028003    4.4028003    11565.295    5805.3205    21641.967    7248.5957    9513.7769   -17806.671   -22125.969    85.346743 
   74600    1524.2021    -108.4747    1.3791301   -107.09557    25584.827    4.3790049    4.3790049    4.3790049    25584.827   -26174.155    100541.86    2386.7756   -5015.8758    31051.875   -17498.889    83.970415 
   74700    1740.3665   -108.70895    1.5747201   -107.13423    13150.802    4.3889825    4.3889825    4.3889825    13150.802   -45256.731    36922.147     47786.99   -47553.846    6233.8863   -5850.6478    84.545704 
   74800    2241.9361   -109.16017    2.0285509   -107.13162   -757.28569    4.4140068    4.4140068    4.4140068   -757.28569   -32884.465    35874.171   -5261.5626    39993.777    1093.7096   -12092.886    86.000106 
   74900    1195.6946   -108.20005    1.0818896   -107.11816   -44910.916    4.4292937    4.4292937    4.4292937   -44910.916   -64601.401   -28463.617    -41667.73   -48644.606   -7658.0322    623.90057    86.896727 
   75000    2186.1326   -109.04671    1.9780587   -107.06865    11562.846    4.4033198    4.4033198    4.4033198    11562.846    16958.142    46645.171   -28914.776    9262.3997   -4861.6076    3809.9568     85.37696 
   75100    1494.0868   -108.42952    1.3518811   -107.07764    9386.0015    4.3906682    4.3906682    4.3906682    9386.0015   -26208.536     -2991.74     57358.28   -15872.889    21118.411   -27027.554    84.643158 
   75200    1876.8089   -108.79661    1.6981762   -107.09843   -7574.5677     4.400738     4.400738     4.400738   -7574.5677   -43193.801   -40170.129    60640.227     -39299.9   -2295.6106    4363.7504    85.226868 
   75300     2315.645   -109.19824    2.0952443     -107.103    2653.6922    4.4095616    4.4095616    4.4095616    2653.6922    -2404.379    9299.4951    1065.9607    14081.918    20263.221    22038.009    85.740544 
   75400    1461.3031   -108.43201    1.3222178   -107.10979   -6376.2301    4.4153766    4.4153766    4.4153766   -6376.2301   -55757.064   -43656.016    80284.389   -58897.867    12743.478   -20755.904    86.080199 
   75500    2090.2379   -108.97471    1.8912912   -107.08342    2136.1946    4.4087799    4.4087799    4.4087799    2136.1946    8960.0051    45092.727   -47644.149    12193.818    8550.4231     6420.159    85.694954 
   75600    1437.6297   -108.39174    1.3007976   -107.09094   -8848.8469     4.403741     4.403741     4.403741   -8848.8469   -14214.405    23785.133   -36117.268   -35548.129    16172.022    12804.657    85.401462 
   75700    2393.7849   -109.24783    2.1659469   -107.08189   -11457.763    4.4053757    4.4053757    4.4053757   -11457.763    3016.8463   -17536.313   -19853.823   -16127.553   -7415.9125    -1976.808    85.496602 
   75800     1570.366   -108.51628    1.4209002   -107.09538    6032.5327    4.4150787    4.4150787    4.4150787    6032.5327    2806.3527    56999.499   -41708.254   -1197.2191    13311.056    38166.391    86.062775 
   75900    2168.7594   -109.03126     1.962339   -107.06892   -2569.3278    4.4126927    4.4126927    4.4126927   -2569.3278   -41280.355    43058.256   -9485.8841   -23366.418    21620.935   -14855.127     85.92332 
   76000    1108.1028    -108.0771    1.0026347   -107.07447    20241.803    4.3968012    4.3968012    4.3968012    20241.803    25387.086    71742.231   -36403.908    3324.8295   -4721.5271    51707.979    84.998348 
   76100    2084.9578   -108.97555    1.8865136   -107.08904   -14104.362     4.398457     4.398457     4.398457   -14104.362   -16457.203    2767.0021   -28622.885   -14619.644   -3203.2858    -15046.53    85.094412 
   76200    1904.3638   -108.81612    1.7231084   -107.09301   -8739.2903    4.4028405    4.4028405    4.4028405   -8739.2903   -8549.3082    -7612.567   -10055.996   -14748.301   -10736.746    38072.713    85.349084 
   76300    1655.0088   -108.60652    1.4974867   -107.10904   -19736.661    4.4006745    4.4006745    4.4006745   -19736.661    15144.911   -42217.807   -32137.087   -3519.3939   -6808.2776    34108.505    85.223184 
   76400    2461.4901   -109.31996    2.2272079   -107.09275    17960.697    4.3999498    4.3999498    4.3999498    17960.697   -24566.134    15857.577    62590.648    18951.299    10263.922   -22329.057    85.181084 
   76500    1460.1586   -108.43567    1.3211822   -107.11448   -13995.301    4.3985252    4.3985252    4.3985252   -13995.301   -975.50902   -4299.4231    -36710.97   -1173.5862   -12366.875    71221.266    85.098374 
   76600    1926.9046   -108.85044    1.7435037   -107.10694    26365.265    4.3934238    4.3934238    4.3934238    26365.265    19975.126    62640.536   -3519.8655   -1337.0005    -12833.52   -28938.257    84.802624 
   76700    1406.1649   -108.38166    1.2723276   -107.10933    24595.176    4.3988519    4.3988519    4.3988519    24595.176    47413.929     5278.491    21093.108     5130.933    1729.0029    48554.697    85.117334 
   76800    1847.6456   -108.78037    1.6717885   -107.10858   -30140.123    4.4079046    4.4079046    4.4079046   -30140.123   -37444.504    10248.671   -63224.536    3116.1649   -24893.406    26872.696    85.643926 
   76900    2166.7836   -109.05384    1.9605513   -107.09328    4593.2177     4.408842     4.408842     4.408842    4593.2177    22119.341    6753.0963   -15092.785   -3055.4882    14158.638   -1732.3859    85.698573 
   77000    1660.0466   -108.60147     1.502045   -107.09943   -21839.159    4.4015223    4.4015223    4.4015223   -21839.159    24571.221   -23435.715   -66652.981   -2193.1797   -32387.523    66416.923    85.272448 
   77100    2164.2216   -109.04595    1.9582332   -107.08771    8824.5067    4.3959605    4.3959605    4.3959605    8824.5067    11371.921    44390.954   -29289.355   -240.11064   -3345.0303    -40765.87    84.949604 
   77200    1392.3899   -108.36455    1.2598637   -107.10468   -6775.5722    4.3991875    4.3991875    4.3991875   -6775.5722    39932.179   -22692.204   -37566.691     5535.361    10593.836    62005.051    85.136817 
   77300    2023.6778   -108.92856    1.8310662    -107.0975     11610.99    4.3998457    4.3998457    4.3998457     11610.99   -11731.531    39775.685    6788.8165    9105.7995   -11437.555    14013.559    85.175036 
   77400    1820.9661   -108.76035    1.6476484    -107.1127    -5726.305    4.4023605    4.4023605    4.4023605    -5726.305    6848.3506   -8530.1415   -15497.124    -4346.007     14853.86   -21246.445    85.321173 
   77500    1774.8677   -108.73883    1.6059376    -107.1329   -12385.976    4.4080623    4.4080623    4.4080623   -12385.976    12003.662   -38139.221   -11022.369   -12219.866   -4649.2586    54051.037    85.653117 
   77600    2410.5976   -109.28702    2.1811594   -107.10586   -17896.907    4.4135033    4.4135033    4.4135033   -17896.907   -38327.309    4635.0139   -19998.426    11190.545   -12228.003   -26024.199    85.970681 
   77700    965.23545   -107.98706   0.87336532   -107.11369   -7251.7888    4.4008719    4.4008719    4.4008719   -7251.7888    31880.175   -14896.882   -38738.659    7444.8945    21197.493    21736.826    85.234652 
   77800    2183.1072   -109.08636    1.9753212   -107.11104    15708.375    4.3971075    4.3971075    4.3971075    15708.375   -3605.1047    27826.274    22903.956    9289.9168    2610.5424    228.33175    85.016114 
   77900     1818.493    -108.7703    1.6454106   -107.12489    6863.3892    4.4044411    4.4044411    4.4044411    6863.3892    16332.859   -788.84878    5046.1576    5152.1244   -328.22683    6846.3353    85.442199 
   78000    1346.0228   -108.34517    1.2179097   -107.12726   -29118.265    4.4103424    4.4103424    4.4103424   -29118.265    16302.282    -74853.36   -28803.718   -1756.7596    1901.2489    39484.507    85.786097 
   78100    2069.6113    -108.9782    1.8726278   -107.10558    8485.4714    4.3945411    4.3945411    4.3945411    8485.4714   -47685.314     31692.72    41449.009   -5207.0625   -26993.242   -14558.127     84.86734 
   78200    1741.6518   -108.68881    1.5758831   -107.11292    29666.876    4.3810436    4.3810436    4.3810436    29666.876    42112.315   -7381.7892    54270.101   -3477.3948    13392.869    36582.212    84.087747 
   78300    1473.7465   -108.48104    1.3334768   -107.14756   -21353.944     4.405755     4.405755     4.405755   -21353.944   -16518.235   -53949.008    6405.4114   -2124.1648   -6605.7803   -5489.7143    85.518687 
   78400    2270.6008   -109.16313    2.0544873   -107.10864    -10413.36    4.4088402    4.4088402    4.4088402    -10413.36   -39119.068   -26497.284    34376.272    12165.693   -22933.076    7420.1856    85.698473 
   78500    1051.8167   -108.06893   0.95170586   -107.11722    20223.797    4.3960142    4.3960142    4.3960142    20223.797    48496.162    15877.443   -3702.2155    1436.9187    13148.561    47759.152    84.952716 
   78600    2220.0984   -109.12432    2.0087917   -107.11553    2926.0685     4.390428     4.390428     4.390428    2926.0685   -11106.067    27922.443    -8038.171    11319.817   -6597.6573   -40171.117    84.629266 
   78700    1670.1759   -108.64332    1.5112103   -107.13211    36758.451    4.3922376    4.3922376    4.3922376    36758.451     22086.71    67331.786    20856.858   -2897.6768    207.04932    52307.383    84.733957 
   78800     1798.681   -108.75732    1.6274843   -107.12984   -10289.015     4.416438     4.416438     4.416438   -10289.015     14430.86   -29287.708   -16010.196    12163.065    2573.6729     11935.66    86.142289 
   78900     2051.018   -108.94954    1.8558042   -107.09374   -2179.5056    4.4159216    4.4159216    4.4159216   -2179.5056   -6925.6428    10765.941   -10378.815   -6426.0108   -8282.5663   -11790.595    86.112075 
   79000    1169.7918   -108.16176    1.0584522    -107.1033    4580.2457    4.3905034    4.3905034    4.3905034    4580.2457    242.81586   -20173.464    33671.386   -896.53781    7542.0749    64951.874     84.63363 
   79100    2587.7873   -109.44462    2.3414843   -107.10313    31778.609    4.3825203    4.3825203    4.3825203    31778.609    25016.653    58327.983    11991.192    1754.0605    15607.884    -23898.98    84.172808 
   79200    1561.5747   -108.55961    1.4129456   -107.14667    449.03415    4.4062116    4.4062116    4.4062116    449.03415    42908.816   -19831.735   -21729.978   -17269.898    3676.0031    51107.906    85.545277 
   79300    1253.4522   -108.24438    1.1341499   -107.11023   -17778.819    4.4356309    4.4356309    4.4356309   -17778.819   -30153.017    9421.8912    -32605.33    12526.311    7172.2018    11279.702    87.270249 
   79400    2230.2734   -109.08066    2.0179983   -107.06266   -17906.498    4.4212197    4.4212197    4.4212197   -17906.498   -17211.385   -17159.967    -19348.14   -7349.7921   -14105.172    8411.2112    86.422392 
   79500     1707.001   -108.60537    1.5445304   -107.06084    21784.998    4.3822403    4.3822403    4.3822403    21784.998    47709.851    29855.424    -12210.28   -16783.986     4969.242    52505.181    84.156672 
   79600    2187.8003   -109.06561    1.9795677   -107.08604    33168.202    4.3736644    4.3736644    4.3736644    33168.202    31703.765    45847.563     21953.28    15605.385    3893.0211    -24460.24    83.663566 
   79700    1793.3733   -108.75674    1.6226819   -107.13406    9097.6735    4.3902231    4.3902231    4.3902231    9097.6735    27303.003   -31679.525    31669.542   -17944.364   -6534.5037    5640.0237    84.617417 
   79800    1469.7437   -108.47309     1.329855   -107.14323   -17909.639    4.4150219    4.4150219    4.4150219   -17909.639   -29381.814   -8819.8104   -15527.293    1203.8709    15851.854    33445.394    86.059455 
   79900    2006.3222   -108.92101    1.8153625   -107.10564   -13748.935    4.4140247    4.4140247    4.4140247   -13748.935    2604.2662   -51466.787    7615.7159    3330.8266   -10122.609   -39905.057    86.001155 
   80000    1367.8212   -108.33234    1.2376334    -107.0947    23439.939    4.3985548    4.3985548    4.3985548    23439.939    32201.355   -4796.3981     42914.86   -6198.8874    10468.023    21198.274    85.100092 
   80100    2486.5037   -109.33265    2.2498408   -107.08281   -12878.534    4.3964715    4.3964715    4.3964715   -12878.534   -9969.7272   -11884.464    -16781.41   -14160.172    23413.075   -3172.9987    84.979231 
   80200    1335.5071   -108.31931    1.2083949   -107.11091     19265.77    4.3925282    4.3925282    4.3925282     19265.77    58749.874   -24817.562    23864.997   -11234.395   -15132.114   -31873.683    84.750772 
   80300    1702.9815   -108.67241    1.5408935   -107.13151    10666.772    4.4044094    4.4044094    4.4044094    10666.772     47272.23   -16635.644    1363.7311    13968.876    6940.6347    30521.954    85.440352 
   80400    2311.4116   -109.20425    2.0914138   -107.11284   -8231.4253    4.4135681    4.4135681    4.4135681   -8231.4253   -28302.544   -13659.836    17268.105   -558.71138    7370.8252   -23421.757    85.974465 
   80500    1045.3547   -108.06301   0.94585893   -107.11715     7026.747    4.4014512    4.4014512    4.4014512     7026.747    26769.488    -65979.87    60290.622   -3858.9911    102.49858    12811.405    85.268315 
   80600    2304.0696   -109.18866    2.0847706   -107.10389     1156.731    4.3999639    4.3999639    4.3999639     1156.731    26698.692   -44663.352    21434.853   -1301.0582    12752.954    12923.846    85.181906 
   80700    1300.7044   -108.30106    1.1769047   -107.12416    21350.408    4.3951962    4.3951962    4.3951962    21350.408    34843.443    -60806.19    90013.972    7814.9944   -6274.8848    -5725.495    84.905299 
   80800    1468.8027   -108.46738    1.3290036   -107.13838   -12662.111    4.4066175    4.4066175    4.4066175   -12662.111    59155.073   -78546.335   -18595.072    -4291.358    14046.485     19034.43    85.568921 
   80900     2689.045   -109.52873    2.4331044   -107.09562    13905.442    4.4133788    4.4133788    4.4133788    13905.442   -12859.263    12761.181    41814.408   -1501.6085    3534.9957    7788.3608    85.963407 
   81000    1493.4473   -108.45594    1.3513025   -107.10464   -8201.9501    4.4091312    4.4091312    4.4091312   -8201.9501    52995.661   -72830.606   -4770.9053    12661.806    12103.299    8847.6543    85.715441 
   81100    2258.1209    -109.1327    2.0431953   -107.08951   -14129.418    4.4099541    4.4099541    4.4099541   -14129.418    4817.4702   -38220.882   -8984.8412    3657.1532   -12428.852   -287.45643    85.763442 
   81200    1941.1733   -108.84926    1.7564144   -107.09284    21978.823    4.4009253    4.4009253    4.4009253    21978.823   -30420.968    26149.415    70208.022    1810.9894   -9773.1113    7606.2136    85.237756 
   81300    1039.9301   -108.06549   0.94095062   -107.12454   -9015.0255    4.3952017    4.3952017    4.3952017   -9015.0255    26800.259   -72012.527    18167.192    4143.3616    14131.933     24487.12    84.905618 
   81400    2031.8824   -108.96774    1.8384899   -107.12925    9472.8767    4.3956618    4.3956618    4.3956618    9472.8767   -39267.376    23608.173    44077.833    1725.3993   -14420.519   -13183.373    84.932288 
   81500    2301.4415   -109.21259    2.0823926    -107.1302   -4477.8012    4.4041145    4.4041145    4.4041145   -4477.8012    7567.5632   -29398.882    8397.9155   -1767.0915   -4031.7021    28980.089    85.423192 
   81600    1204.0978    -108.2227     1.089493   -107.13321    8806.3333    4.4039784    4.4039784    4.4039784    8806.3333    46741.047   -39209.663    18887.615    2583.8188    5746.1384     10410.75    85.415273 
   81700    2631.0226    -109.4922    2.3806045   -107.11159    5794.7606    4.3914861    4.3914861    4.3914861    5794.7606   -20575.185    22263.798    15695.669    1386.7832   -19054.477   -31517.809    84.690467 
   81800    1756.3065   -108.72688     1.589143   -107.13773    39109.066    4.3928072    4.3928072    4.3928072    39109.066    43988.328    14348.114    58990.757   -3959.4619    3619.7171    42664.669    84.766927 
   81900    1240.9529   -108.26753    1.1228403   -107.14469   -17593.034    4.4118348    4.4118348    4.4118348   -17593.034   -4540.3515    -12261.74    -35977.01    13383.408    -7362.673    -19868.04    85.873216 
   82000    1898.2289   -108.83744    1.7175574   -107.11988   -3306.6618    4.4004416    4.4004416    4.4004416   -3306.6618   -47077.681    32190.714    4966.9822    10520.468   -26895.688   -10145.471    85.209649 
   82100     1872.624   -108.81229    1.6943896    -107.1179    8519.3612    4.3819186    4.3819186    4.3819186    8519.3612   -6462.9981   -13374.157    45395.239   -3546.9957    6190.2426    50057.666     84.13814 
   82200    1462.2494   -108.47041     1.323074   -107.14734    27730.813    4.3909776    4.3909776    4.3909776    27730.813   -6475.2948    66798.973     22868.76   -578.70293   -3976.5896   -43587.514    84.661054 
   82300    2371.1849   -109.27952    2.1454979   -107.13402    1634.2003    4.4117057    4.4117057    4.4117057    1634.2003   -43415.828   -11112.564    59430.993    7063.6006    5190.0417    23261.466    85.865678 
   82400    1778.0147   -108.73501     1.608785   -107.12622   -3176.1093    4.4079455    4.4079455    4.4079455   -3176.1093   -10278.863    2183.9875   -1433.4523   -4046.0965    566.00627    3377.6588    85.646308 
   82500    1614.8006   -108.58296    1.4611055   -107.12185    17563.222    4.3850727    4.3850727    4.3850727    17563.222   -9343.4174    13961.021    48072.064   -1540.7921    8016.3449   -57234.527     84.31996 
   82600    2033.8103   -108.97104    1.8402343    -107.1308    8590.0971    4.3901746    4.3901746    4.3901746    8590.0971   -50376.038    35068.249    41078.079    2401.5759    15313.588    21946.593    84.614616 
   82700    1115.2126   -108.15158    1.0090678   -107.14251   -1427.2543    4.4092787    4.4092787    4.4092787   -1427.2543   -8390.4073    3982.2294    126.41505    9892.5316   -12153.793    -55752.25    85.724046 
   82800    2452.6928   -109.33552    2.2192479   -107.11627   -1579.3982    4.4095641    4.4095641    4.4095641   -1579.3982   -14590.124     -36365.1    46217.029    7209.9164     12457.21    -11876.29    85.740691 
   82900    1893.5439   -108.82144    1.7133183   -107.10812    21479.199    4.4030726    4.4030726    4.4030726    21479.199    34729.282      26002.1     3706.215   -16496.832    -6129.076   -19577.684    85.362582 
   83000    1424.8674   -108.39963      1.28925   -107.11038    18650.036    4.4057332    4.4057332    4.4057332    18650.036    53100.397    14060.111   -11210.399   -3056.8324    1604.1073    -32808.19    85.517418 
   83100     2303.137   -109.16295    2.0839268   -107.07903   -1756.1204    4.4134424    4.4134424    4.4134424   -1756.1204   -40894.994   -20253.266    55879.899    -7729.698    3812.7977    17453.656    85.967123 
   83200    1253.3426   -108.23285    1.1340507    -107.0988   -26478.143    4.4218945    4.4218945    4.4218945   -26478.143   -2822.5528   -19399.386    -57212.49   -1612.6057   -20133.957   -54565.579    86.461969 
   83300    2126.9252   -109.01111    1.9244867   -107.08662   -11119.023    4.4092434    4.4092434    4.4092434   -11119.023   -25019.636   -7216.0384   -1121.3947    9089.7661    1002.0486    30755.861    85.721984 
   83400    1614.6057   -108.55219    1.4609292   -107.09126    30537.556    4.3857753    4.3857753    4.3857753    30537.556    5191.9644    61511.307    24909.398   -33610.836     10707.04   -25193.249    84.360499 
   83500    2003.4509   -108.93108    1.8127645   -107.11832    5568.3415    4.3944633    4.3944633    4.3944633    5568.3415    41497.527    3063.5778    -27856.08    26883.823   -2914.2256   -41172.562    84.862833 
   83600    2130.7933   -109.05086    1.9279866   -107.12288   -7855.8266    4.4115522    4.4115522    4.4115522   -7855.8266   -4149.2365   -1195.4229    -18222.82   -2595.1549   -3239.9716    19169.939    85.856713 
   83700    1548.1192   -108.52748    1.4007708   -107.12671   -38347.918    4.4201128    4.4201128    4.4201128   -38347.918   -35472.205   -57348.172   -22223.376   -39011.572   -12269.369   -32059.239    86.357498 
   83800    1900.4307   -108.81818    1.7195496   -107.09863   -19105.378    4.4036185    4.4036185    4.4036185   -19105.378   -32228.874   -28808.252    3720.9903     42902.09   -6153.8068   -1971.3622    85.394336 
   83900    1461.2465   -108.42856    1.3221666   -107.10639    15239.501    4.3977839    4.3977839    4.3977839    15239.501    6476.0516   -4980.7922    44223.243   -28348.908    7286.0722    647.02517    85.055354 
   84000    2267.7353   -109.16939    2.0518946   -107.11749   -8947.6423    4.4087967    4.4087967    4.4087967   -8947.6423    9841.6702    -13846.22   -22838.377   -9011.9727   -22607.986   -23914.876    85.695932 
   84100    1776.8108    -108.7259    1.6076958   -107.11821   -8087.9119    4.4097857    4.4097857    4.4097857   -8087.9119   -28195.843   -30591.527    34523.634    25310.525    2449.0379   -4377.7319    85.753618 
   84200    1780.2324    -108.7138    1.6107917     -107.103    22280.271    4.4099239    4.4099239    4.4099239    22280.271     17309.82    11171.117    38359.875   -34840.055    9701.5695   -602.27914    85.761683 
   84300    1598.1016   -108.53836    1.4459959   -107.09236    10564.814    4.4148689    4.4148689    4.4148689    10564.814   -12059.438   -1667.0872    45420.968    36316.014   -2801.6105   -11702.083    86.050508 
   84400    1688.8744   -108.60963    1.5281291    -107.0815    5005.5966    4.4130943    4.4130943    4.4130943    5005.5966   -32492.856   -46457.712    93967.358    2280.0144     7991.264    14030.254    85.946781 
   84500    2341.1367   -109.19376    2.1183097   -107.07545   -21237.925    4.4181999    4.4181999    4.4181999   -21237.925   -11182.623   -36510.727   -16020.425   -3291.1943   -26310.813    22393.689    86.245429 
   84600     1416.134   -108.37601    1.2813478   -107.09466   -3677.6342    4.4128039    4.4128039    4.4128039   -3677.6342   -7865.3197   -50326.529    47158.946    33655.702     -2795.84   -5845.2221    85.929814 
   84700     1801.179   -108.72553    1.6297446   -107.09578   -1319.7705    4.4012798    4.4012798    4.4012798   -1319.7705   -19054.815    -26922.32    42017.823   -13934.045     323.0959    13108.305    85.258351 
   84800    1664.0022   -108.62481    1.5056242   -107.11919   -1958.7556    4.3926429    4.3926429    4.3926429   -1958.7556   -18845.668    32658.964   -19689.563    17818.726   -41347.367    18722.701    84.757413 
   84900    2108.8978   -109.02694     1.908175   -107.11877    -722.8607     4.411896     4.411896     4.411896    -722.8607   -24019.514    6195.1568    15655.775    17695.169    7882.9415    6789.0939    85.876789 
   85000    1485.0862   -108.46417    1.3437372   -107.12043   -28515.152    4.4158856    4.4158856    4.4158856   -28515.152    -29222.47    22047.356   -78370.341   -12286.483   -25028.642    10413.454    86.109973 
   85100    1430.5403     -108.406    1.2943829   -107.11162    29470.736    4.4049218    4.4049218    4.4049218    29470.736   -1548.1265    22605.014    67355.321    11800.799   -38812.302    11571.428    85.470176 
   85200    2283.0326   -109.18857    2.0657359   -107.12283    4838.6322    4.3932304    4.3932304    4.3932304    4838.6322   -16166.355    29982.439    699.81233     6660.122    30857.933   -11507.952    84.791427 
   85300    1213.2506   -108.24667    1.0977747    -107.1489    38089.724    4.3829842    4.3829842    4.3829842    38089.724    54614.339    34821.549    24833.283   -18707.941   -58748.328    15183.954    84.199537 
   85400    2857.4515   -109.71782    2.5854822   -107.13233   -16889.672    4.4085234    4.4085234    4.4085234   -16889.672   -4816.7635   -17156.953     -28695.3    3353.0982    8378.4052   -1112.8666    85.679998 
   85500    1303.4683   -108.30216    1.1794055   -107.12275    14596.469    4.4099181    4.4099181    4.4099181    14596.469    32458.771    46024.934   -34694.298    5150.6148   -26021.076   -15482.489    85.761343 
   85600    1769.6168   -108.70113    1.6011864   -107.09995   -6263.4738    4.4074692    4.4074692    4.4074692   -6263.4738    24731.113    24780.984   -68302.518    -26075.17    -21561.03   -2669.6135    85.618547 
   85700    2124.2503    -109.0211    1.9220663   -107.09904   -15348.692    4.4003969    4.4003969    4.4003969   -15348.692    14729.275   -30995.988   -29779.364    29433.887   -2670.6887    12210.682    85.207052 
   85800    1167.1728   -108.18503    1.0560825   -107.12895    44768.552     4.375721     4.375721     4.375721    44768.552      40965.8    96389.109    -3049.252   -1267.7855    -43316.88   -12453.032    83.781641 
   85900    2464.3894   -109.37581    2.2298314   -107.14598    6737.5833    4.4021916    4.4021916    4.4021916    6737.5833    32686.881    -360.0873   -12114.043    5046.7422    31019.723   -694.01729     85.31135 
   86000    1877.4783   -108.83482    1.6987819   -107.13604   -12509.235    4.4060867    4.4060867    4.4060867   -12509.235    12687.235   -5262.8717   -44952.067    26833.438   -46293.576    6104.8874    85.538004 
   86100    1354.4137    -108.3506     1.225502    -107.1251    36657.198    4.3918053    4.3918053    4.3918053    36657.198    84298.792    61986.154   -36313.351   -491.83034   -3154.5785   -10390.556    84.708937 
   86200    1799.3689   -108.75462    1.6281068   -107.12651   -28022.687    4.4116021    4.4116021    4.4116021   -28022.687   -19988.885    -4435.573   -59643.604     20641.82    36028.768    -7400.829    85.859628 
   86300    1484.2592   -108.46365    1.3429889   -107.12066    27583.854     4.396032     4.396032     4.396032    27583.854     77471.78    32238.376   -26958.593    20171.157   -19555.636    20552.538    84.953748 
   86400    2573.8551   -109.45005    2.3288781   -107.12117    5747.6567    4.3907672    4.3907672    4.3907672    5747.6567    3834.1412    30073.291   -16664.462   -14478.283    15337.183   -13699.269    84.648882 
   86500    1515.9183   -108.50999    1.3716348   -107.13836   -19489.637      4.41214      4.41214      4.41214   -19489.637    7032.7658   -26122.951   -39378.727    27493.593    6486.7064    22659.621    85.891038 
   86600    1188.4438   -108.21338    1.0753289   -107.13805    83.226295    4.3959621    4.3959621    4.3959621    83.226295    44329.874   -9072.7874   -35007.408   -902.45075   -315.90852    20956.495    84.949694 
   86700    2288.2244   -109.19906    2.0704335   -107.12863    21882.063    4.3934282    4.3934282    4.3934282    21882.063    16904.103    54937.237   -6195.1519   -16264.295    9789.3669   -10518.902     84.80288 
   86800    1861.6118    -108.8195    1.6844254   -107.13508   -12357.171    4.4066044    4.4066044    4.4066044   -12357.171   -17972.381    1251.4928   -20350.625    41735.415    -5151.876    22338.397    85.568159 
   86900    1559.0183   -108.54671    1.4106325   -107.13608   -3906.6449     4.401395     4.401395     4.401395   -3906.6449   -7093.8051    -7308.098    2681.9685   -10717.942    9543.1627    8632.1639     85.26505 
   87000    2004.3494   -108.94152    1.8135774   -107.12794   -1949.6326    4.4107636    4.4107636    4.4107636   -1949.6326   -1656.8478   -18302.312    14110.261    9.0136547   -2471.5533   -20363.126    85.810679 
   87100    1592.5241   -108.54557    1.4409493   -107.10462   -29894.503    4.4198798    4.4198798    4.4198798   -29894.503   -65232.728   -38560.647    14109.867    65728.298     2439.619    6089.1708    86.343844 
   87200    1799.8621   -108.70413    1.6285531   -107.07557    22026.501    4.3982962    4.3982962    4.3982962    22026.501    46357.742    13127.405    6594.3561   -20587.946    7019.7668   -3777.5808    85.085081 
   87300    1760.2513   -108.69067    1.5927124   -107.09795   -5291.1866    4.4005406    4.4005406    4.4005406   -5291.1866   -24403.324    -11820.98    20350.744    29973.739     3782.001   -25984.809      85.2154 
   87400    1953.3724   -108.86708    1.7674524   -107.09962   -9294.7724    4.4109834    4.4109834    4.4109834   -9294.7724    3886.0775   -27725.194   -4045.2013    35341.552    15217.409    15699.627    85.823511 
   87500    1543.4027   -108.49832    1.3965032   -107.10182    31767.886    4.3999352    4.3999352    4.3999352    31767.886    75832.389    35329.782   -15858.514   -2041.5971   -4289.2231   -28347.756    85.180236 
   87600    1770.1679   -108.72125    1.6016852   -107.11957   -32833.055    4.4060355    4.4060355    4.4060355   -32833.055   -69889.726    6457.7826   -35067.221    29588.211    19411.788   -12191.534    85.535022 
   87700    1952.2015   -108.88459     1.766393    -107.1182     5938.542    4.3997372    4.3997372    4.3997372     5938.542   -12754.422    46767.982   -16197.934   -11709.771     707.8097    12490.616    85.168737 
   87800      1492.67     -108.484    1.3505992    -107.1334    19650.235    4.3948657    4.3948657    4.3948657    19650.235    41782.019    43090.886   -25922.199    26698.505    -10973.45    -36412.87     84.88615 
   87900    2063.4733   -109.00159     1.867074   -107.13452   -13018.152    4.4053948    4.4053948    4.4053948   -13018.152   -17005.006    21313.693   -43363.144    14613.722    19446.176    6765.9826    85.497714 
   88000    2325.1048   -109.22528    2.1038037   -107.12148    15684.824    4.4033391    4.4033391    4.4033391    15684.824     44388.74    23075.497   -20409.765    -21547.31    -2144.706   -22570.962     85.37808 
   88100    1671.8418   -108.64436    1.5127176   -107.13164    8596.8434    4.3998515    4.3998515    4.3998515    8596.8434    25898.264   -1270.1959    1162.4622     27803.38   -8609.8563    -847.0356    85.175377 
   88200    1313.2173   -108.32767    1.1882266   -107.13944   -9084.3019    4.3991436    4.3991436    4.3991436   -9084.3019   -16254.153     21281.88   -32280.632   -2395.6705    18173.182    15443.643    85.134271 
   88300     2597.493   -109.46958    2.3502663   -107.11931    1402.7465    4.4013015    4.4013015    4.4013015    1402.7465     19482.33     2872.471   -18146.561    7189.2934   -13652.476   -13873.848    85.259616 
   88400     1622.339   -108.60442    1.4679264   -107.13649   -30801.058    4.4110986    4.4110986    4.4110986   -30801.058   -35692.687   -37755.135   -18955.353    23592.558     16152.53    11156.092    85.830236 
   88500     1376.985   -108.37301     1.245925   -107.12708    4044.4813    4.4097291    4.4097291    4.4097291    4044.4813    73874.106   -14336.636   -47404.026   -8391.0881    10157.215    5997.5819    85.750317 
   88600    2345.1536   -109.22976    2.1219443   -107.10781    19497.033    4.4035207    4.4035207    4.4035207    19497.033    29943.358    26278.598    2269.1445   -1648.0599   -20183.772   -31.762238    85.388643 
   88700    1568.6108   -108.55384     1.419312   -107.13453   -5591.0357     4.404904     4.404904     4.404904   -5591.0357    21759.061   -9460.4722   -29071.696    25211.086    29900.851    15621.199     85.46914 
   88800    1903.3789   -108.86354    1.7222172   -107.14132    -12783.85    4.4093273    4.4093273    4.4093273    -12783.85    -16222.38   -294.36183    -21834.81    8260.7202   -11028.697    16777.276     85.72688 
   88900    1715.0719   -108.68086    1.5518331   -107.12902     26490.01    4.3989898    4.3989898    4.3989898     26490.01    6016.1006    58299.074    15154.854   -23187.284   -11083.908   -13361.615    85.125341 
   89000    1521.5124   -108.51934    1.3766964   -107.14265   -21196.331    4.4023542    4.4023542    4.4023542   -21196.331    -51539.96     10896.36   -22945.394      16074.9    33518.203    5103.6012    85.320804 
   89100    2009.6979   -108.95083    1.8184169   -107.13242    6722.6858    4.4043488    4.4043488    4.4043488    6722.6858    29580.628    22457.907   -31870.478   -7670.2627    441.06305   -11763.409     85.43683 
   89200    1990.3734   -108.92946    1.8009316   -107.12853    14173.857    4.4024275    4.4024275    4.4024275    14173.857   -11052.773    15758.448    37815.895    1598.4235    2511.4737   -14257.313    85.325069 
   89300    1070.4713   -108.10895   0.96858497   -107.14037    5108.0773    4.4132931    4.4132931    4.4132931    5108.0773    9148.3938    6166.6425    9.1955382    11704.673    38874.306   -4239.6021    85.958398 
   89400    2267.0897     -109.168    2.0513104   -107.11669   -16457.395    4.4147812    4.4147812    4.4147812   -16457.395   -9154.2329    4925.1683    -45143.12   -12323.255   -19239.357   -23606.414    86.045378 
   89500    1825.5448   -108.76101    1.6517913   -107.10922   -3513.5999    4.4145827    4.4145827    4.4145827   -3513.5999   -26258.973    39952.749   -24234.575    17779.784    25426.923    6970.4426    86.033772 
   89600    1616.1839   -108.55965    1.4623572   -107.09729   -9201.3177    4.4180474    4.4180474    4.4180474   -9201.3177   -6347.6914     29090.04   -50346.302    9374.0395     17370.65   -17596.397      86.2365 
   89700    1641.5033   -108.57932    1.4852667   -107.09406    14474.314    4.4053195    4.4053195    4.4053195    14474.314    65934.831    28553.697   -51065.587   -22934.588   -12167.552    -34738.17    85.493328 
   89800    1734.4995   -108.67769    1.5694116   -107.10827    13973.719    4.4021783    4.4021783    4.4021783    13973.719    25880.401     27005.53   -10964.774    17602.212    34292.725    6745.0099    85.310579 
   89900    2282.7131   -109.18314    2.0654467   -107.11769   -19405.042    4.4210751    4.4210751    4.4210751   -19405.042    19554.576   -29888.918   -47880.784    2613.9204    872.95883   -21100.661    86.413912 
   90000    1662.4352   -108.61764    1.5042063   -107.11343    13553.686    4.4159597    4.4159597    4.4159597    13553.686    65372.615   -2502.2826   -22209.275   -14764.058    14707.429   -7459.7161    86.114306 
   90100    1327.6891   -108.32123     1.201321   -107.11991   -3798.2689    4.4066168    4.4066168    4.4066168   -3798.2689   -25305.762   -11496.828    25407.784    50543.058    4475.4086   -4342.5969     85.56888 
   90200    2559.7089   -109.41903    2.3160784   -107.10295   -5465.6095    4.4034762    4.4034762    4.4034762   -5465.6095    16258.577   -25721.509   -6933.8959   -20046.287   -2680.3939   -6198.5113    85.386058 
   90300     1470.083   -108.45525     1.330162   -107.12508    4606.0803    4.4021939    4.4021939    4.4021939    4606.0803    24711.562    -17490.77     6597.449    20343.032    29982.452    13638.708    85.311484 
   90400    1271.2118   -108.29245    1.1502192   -107.14223   -13191.551    4.4153987    4.4153987    4.4153987   -13191.551   -11677.995   -26677.727   -1218.9314    28493.159   -7792.5896   -4811.1254     86.08149 
   90500     2387.771   -109.27638    2.1605054   -107.11587    -19106.02    4.4104978    4.4104978    4.4104978    -19106.02   -9158.0453   -30622.219   -17537.795   -42971.904    449.11691    1985.1516    85.795166 
   90600    1999.8195    -108.9182    1.8094787   -107.10872   -16716.655    4.3964261    4.3964261    4.3964261   -16716.655   -29785.321   -6461.4745    -13903.17    41218.238     19048.19    12499.732    84.976595 
   90700    1342.4096    -108.3438    1.2146404   -107.12915   -9504.9258    4.3978317    4.3978317    4.3978317   -9504.9258   -53706.918   -14527.381    39719.522    6408.9666   -10102.812      13910.8    85.058127 
   90800    1984.2714   -108.92909    1.7954105   -107.13368     -11638.9    4.3990489    4.3990489    4.3990489     -11638.9   -20343.468   -44630.144    30056.911   -62354.894   -33688.728    -1770.014    85.128769 
   90900    1786.3149   -108.75758    1.6162953   -107.14128    7321.5748    4.4070801    4.4070801    4.4070801    7321.5748    -7681.552   -33405.609    63051.885    42714.882    12156.206     312.4433    85.595872 
   91000    1263.2042   -108.27925    1.1429737   -107.13627   -27051.027    4.4174282    4.4174282    4.4174282   -27051.027   -40938.301   -50478.746    10263.964   -25143.052   -891.26106    23077.116    86.200245 
   91100    1756.9662   -108.69961      1.58974   -107.10987    13141.389    4.4053585    4.4053585    4.4053585    13141.389    19657.308    1065.0326    18701.826   -14536.427   -16532.427   -7642.2979    85.495601 
   91200    2177.4879   -109.07796    1.9702368   -107.10772    12849.022     4.402178     4.402178     4.402178    12849.022     6319.648   -18185.604    50413.021    5582.5505     14982.32    10564.177    85.310563 
   91300    1141.8752   -108.16461    1.0331926   -107.13142    1414.2761    4.4130148    4.4130148    4.4130148    1414.2761   -48431.243   -46734.972    99409.044   -31893.134   -17813.958    4050.7265    85.942135 
   91400    2151.5608   -109.06749    1.9467775   -107.12071    13499.665    4.4078144    4.4078144    4.4078144    13499.665    34205.401    1618.0731    4675.5206    10907.419   -15415.776   -22680.062    85.638669 
   91500    1759.4895   -108.71061    1.5920231   -107.11858    18094.188    4.4098488    4.4098488    4.4098488    18094.188    19400.805     5021.014    29860.744   -34871.824   -1406.3384     10192.49    85.757297 
   91600    1232.7382   -108.23589    1.1154075   -107.12048   -3474.1096    4.4186556    4.4186556    4.4186556   -3474.1096    3823.9422    23978.861   -38225.132   -10628.057   -28619.335   -4235.0584    86.272118 
   91700      2100.64   -108.98939    1.9007032   -107.08869   -14607.983     4.412253     4.412253     4.412253   -14607.983    12913.188   -40741.785   -15995.351   -7792.0891    10152.524   -23444.852    85.897636 
   91800    1581.9741   -108.52551    1.4314034   -107.09411   -8000.1952    4.4053795    4.4053795    4.4053795   -8000.1952   -38322.213    6582.3419     7739.285   -23405.297   -18914.518    30577.054    85.496823 
   91900    2187.5952    -109.0657    1.9793821   -107.08632   -10325.482    4.4147309    4.4147309    4.4147309   -10325.482   -40027.709    5270.2018    3781.0614    11609.473   -39575.925   -13386.978    86.042439 
   92000    1773.3618   -108.69061     1.604575   -107.08603   -13582.244     4.429074     4.429074     4.429074   -13582.244    15472.918   -44656.456   -11563.195   -25624.218     7622.125    12406.923    86.883799 
   92100     1684.051   -108.58078    1.5237647   -107.05701   -16948.576    4.4373171    4.4373171    4.4373171   -16948.576   -32514.126    19054.237   -37385.839    7599.1263   -29493.626    6240.7299    87.369812 
   92200    1782.0089   -108.66569    1.6123991   -107.05329   -16530.265    4.4155065    4.4155065    4.4155065   -16530.265   -26602.985   -52548.384    29560.575   -31086.902   -12314.532   -29940.336    86.087797 
   92300    1435.1344   -108.36984    1.2985398    -107.0713    27001.405    4.3831781    4.3831781    4.3831781    27001.405     42206.15   -18055.513    56853.577   -36280.465    12589.713    27159.761    84.210717 
   92400    2045.7363   -108.96206    1.8510252   -107.11104     3193.364    4.3993647    4.3993647    4.3993647     3193.364   -20210.713     32994.41   -3203.6048    5916.2656   -37809.101   -9509.1587    85.147106 
   92500    1437.8482   -108.43213    1.3009953   -107.13113    8585.7074    4.4198921    4.4198921    4.4198921    8585.7074   -28779.795   -36238.065    90774.983   -28456.668   -5100.0072    -12117.61    86.344566 
   92600    2199.3536    -109.0944    1.9900213   -107.10438    14910.825    4.4318797    4.4318797    4.4318797    14910.825   -14599.335    39224.524    20107.286     17725.99   -13531.466    5706.9085    87.049019 
   92700    1356.4749   -108.31205     1.227367   -107.08468   -35219.901    4.4363873    4.4363873    4.4363873   -35219.901   -57722.924   -63165.977    15229.198   -27019.469    10756.602    4468.8473    87.314901 
   92800    2030.5011   -108.89268    1.8372401   -107.05544     7000.187    4.3970112    4.3970112    4.3970112     7000.187   -6276.7549    12961.922    14315.394   -15597.455    2976.7065    444.13549     85.01053 
   92900    2017.1438   -108.90083    1.8251541   -107.07567    27105.669    4.3887811    4.3887811    4.3887811    27105.669   -10341.524    15586.902    76071.629    5946.0671   -6659.9483    -17249.78    84.534066 
   93000    1651.1439   -108.61239    1.4939897    -107.1184   -34982.197    4.4181336    4.4181336    4.4181336   -34982.197   -59583.807    -63043.66    17680.876   -45348.389     5323.974    4028.5526    86.241544 
   93100    2406.3099   -109.27016    2.1772798   -107.09288   -17451.173    4.4198532    4.4198532    4.4198532   -17451.173   -35541.186   -355.39164   -16456.942    4179.0559    3468.4004    6987.7718    86.342285 
   93200    1051.0807   -108.06346   0.95103989   -107.11242   -23524.522     4.422511     4.422511     4.422511   -23524.522   -24843.334   -91382.544    45652.313   -6275.9992    4620.0191   -3274.6862    86.498141 
   93300      1825.13   -108.74419     1.651416   -107.09278   -9085.1381     4.408468     4.408468     4.408468   -9085.1381    26160.335   -50169.102   -3246.6471   -29679.485    2181.8316    8569.1776    85.676769 
   93400     2218.401   -109.09174    2.0072558   -107.08448    23482.467    4.3943659    4.3943659    4.3943659    23482.467    37412.598    15236.829    17797.975     18285.21    991.29873   -3459.7806    84.857191 
   93500    1410.8806   -108.39802    1.2765944   -107.12143   -10383.556    4.4121104    4.4121104    4.4121104   -10383.556    17848.695   -79801.314    30801.951   -605.96983   -3138.0556    10201.885     85.88931 
   93600    1790.5307   -108.72268    1.6201098   -107.10257   -4409.9963    4.4208455    4.4208455    4.4208455   -4409.9963   -42544.331    65050.501   -35736.159   -23422.571    21194.255   -9660.3185    86.400454 
   93700    1934.1985    -108.8362    1.7501034   -107.08609   -7246.0103    4.4190322    4.4190322    4.4190322   -7246.0103    3118.7699   -39984.962    15128.161    14767.556   -4608.5414    3738.4775     86.29418 
   93800     1586.532   -108.52225    1.4355275   -107.08672   -30086.362    4.4089928    4.4089928    4.4089928   -30086.362   -42198.248   -54402.578    6341.7415   -14047.893    12140.515    7464.0921    85.707371 
   93900     1951.952   -108.85157    1.7661672    -107.0854    33557.985    4.3894484    4.3894484    4.3894484    33557.985    36309.609    68993.217   -4628.8707   -11978.159    16613.555   -15821.113    84.572632 
   94000     1983.424   -108.91309    1.7946437   -107.11845    12128.574    4.4013871    4.4013871    4.4013871    12128.574     9743.952   -20907.814    47549.586    1940.9265   -17025.288     2648.686     85.26459 
   94100    1603.7707   -108.57704    1.4511255   -107.12591   -16534.676    4.4206495    4.4206495    4.4206495   -16534.676   -40378.423   -25707.901    16482.295   -11628.568    28293.616   -1583.8196    86.388961 
   94200    2157.0571    -109.0469    1.9517506   -107.09515    16740.054    4.4102508    4.4102508    4.4102508    16740.054    68006.839   -20227.121    2440.4431   -9976.4318   -5199.2176   -11624.111    85.780756 
   94300    1110.4294   -108.10996    1.0047398   -107.10522    19162.595    4.4079001    4.4079001    4.4079001    19162.595   -7436.2599    22011.514    42912.531   -15720.615    573.86582   -4252.2069     85.64366 
   94400    2528.7923   -109.37488    2.2881044   -107.08678   -27854.293    4.4127509    4.4127509    4.4127509   -27854.293   -12222.419   -33381.959   -37958.501    7583.9416    18108.315   -7249.0008    85.926723 
   94500    1425.4212   -108.38931    1.2897511   -107.09956    2914.8973    4.4091535    4.4091535    4.4091535    2914.8973    35953.452   -12106.081   -15102.679   -20345.406   -34191.133   -7338.9091     85.71674 
   94600    1667.2567   -108.63115    1.5085689   -107.12258   -6076.6366    4.4109165    4.4109165    4.4109165   -6076.6366     5455.248   -18765.696   -4919.4618    2830.5944     6984.506    2621.2017    85.819603 
   94700     2384.673    -109.2647    2.1577023     -107.107    33153.752    4.4024979    4.4024979    4.4024979    33153.752    75914.078    21019.217    2527.9593    2557.0146   -3712.3874    3825.3145     85.32916 
   94800    1030.2111   -108.07313   0.93215667   -107.14097    5135.8963    4.4100236    4.4100236    4.4100236    5135.8963    20272.027    -39277.74    34413.402   -15974.299   -20696.578    9096.3634    85.767497 
   94900    2098.2869   -109.00464    1.8985741   -107.10607    -38799.83    4.4212127    4.4212127    4.4212127    -38799.83    -37467.44   -85155.535    6223.4847    15741.356     9953.638    4793.5528    86.421985 
   95000    2076.7435   -108.96778    1.8790812    -107.0887    16454.861    4.3915376    4.3915376    4.3915376    16454.861    46317.829    21369.227   -18322.473   -23535.436    8773.7718   -13967.246    84.693448 
   95100    1512.9232   -108.49083    1.3689247   -107.12191    12968.938    4.3880037    4.3880037    4.3880037    12968.938    18499.981   -36391.459    56798.292   -30140.016   -23318.669    30551.873    84.489155 
   95200     2067.036   -108.99214    1.8702976   -107.12184    7638.5236    4.4026388    4.4026388    4.4026388    7638.5236    24752.129   -3687.9373    1851.3785    26131.397    6150.9779     3085.975    85.337355 
   95300    1187.1944   -108.20244    1.0741985   -107.12824    17868.067    4.4076599    4.4076599    4.4076599    17868.067    28577.974    4089.5511    20936.676   -30039.421    8637.6152    -13274.21    85.629662 
   95400    2172.5783   -109.07874    1.9657945   -107.11294   -31189.245    4.4172885    4.4172885    4.4172885   -31189.245   -36879.781   -64693.211    8005.2554   -29518.494   -13949.658    18064.789     86.19207 
   95500    1597.8005   -108.54784    1.4457235   -107.10212    26577.522     4.400581     4.400581     4.400581    26577.522    62591.179    39686.491   -22545.105    1275.7792    38438.306   -126.75947    85.217747 
   95600    1751.8417   -108.69281    1.5851032   -107.10771    13563.411    4.3960153    4.3960153    4.3960153    13563.411   -30763.636    67594.809    3859.0609   -44057.403   -21071.104   -4177.4733     84.95278 
   95700     2437.711   -109.31542    2.2056922   -107.10973   -8921.9171    4.4106966    4.4106966    4.4106966   -8921.9171   -17421.811   -12336.788    2992.8475    6998.7815     11012.74    12110.225    85.806769 
   95800    1660.8801   -108.61668    1.5027992   -107.11388    20963.712    4.3997253    4.3997253    4.3997253    20963.712    21461.986    65142.503   -23713.353   -6405.5921    9461.4357     8444.876    85.168046 
   95900    1863.8564   -108.80115    1.6864565   -107.11469    8066.1527    4.3966692    4.3966692    4.3966692    8066.1527    -48519.66    54392.565    18325.553   -33612.362   -21562.885   -4343.6665    84.990691 
   96000    1679.0315   -108.63513     1.519223   -107.11591   -21012.674    4.4147973    4.4147973    4.4147973   -21012.674    -39085.59    4268.2011   -28220.634    31871.458    26234.064   -4651.4689    86.046319 
   96100    1701.5873   -108.63631    1.5396319   -107.09667    2890.8826    4.4147537    4.4147537    4.4147537    2890.8826   -12257.115    59542.312   -38612.549   -14918.446   -27156.387    18456.825    86.043773 
   96200    2310.6544   -109.18048    2.0907287   -107.08976   -20482.806    4.4033755    4.4033755    4.4033755   -20482.806   -26706.964    3767.9222   -38509.378     8578.751    23127.757   -21859.646    85.380201 
   96300    772.47547   -107.82782   0.69895204   -107.12887   -10271.902    4.3933231    4.3933231    4.3933231   -10271.902   -9910.3052    7374.1664   -28279.567    33611.668    26163.928    18798.997    84.796796 
   96400    2914.0329   -109.75192    2.6366782   -107.11524    10343.255    4.3980656    4.3980656    4.3980656    10343.255    3129.8811    38549.513   -10649.628    13321.648   -6051.7155    5612.7407      85.0717 
   96500     942.7054    -107.9829   0.85297965   -107.12992   -7997.1878    4.4206605    4.4206605    4.4206605   -7997.1878   -19984.159     56729.32   -60736.724    6161.6108    38413.122   -9480.1747    86.389605 
   96600     2153.261   -109.01692    1.9483158    -107.0686    6837.1205    4.4186329    4.4186329    4.4186329    6837.1205    4632.0818    44028.939   -28149.659    8475.9775    3448.5212     12496.74     86.27079 
   96700    1219.7139   -108.17617    1.1036228   -107.07255   -12192.023    4.4285364    4.4285364    4.4285364   -12192.023   -51483.814    54193.458   -39285.714   -18716.029    3233.7152   -18374.188    86.852169 
   96800    1981.7727    -108.8491    1.7931496   -107.05595   -13012.453    4.4230228    4.4230228    4.4230228   -13012.453    -23692.44     15828.03   -31172.947    12747.155   -3478.5595   -15645.129    86.528172 
   96900    1818.3247   -108.71037    1.6452584   -107.06511    54752.018    4.3919913    4.3919913    4.3919913    54752.018    11979.291    89725.373    62551.391   -16919.734    5811.1971    4805.2589    84.719699 
   97000    991.98589   -108.01799   0.89756968   -107.12042    11461.851    4.4005081    4.4005081    4.4005081    11461.851   -12162.423    50578.605   -4030.6291   -11657.219    19025.739   -27659.417    85.213511 
   97100    2434.6402   -109.29777    2.2029136   -107.09485   -13334.416    4.4219711    4.4219711    4.4219711   -13334.416    -12734.32   -12433.484   -14835.445    1085.5861   -13338.046   -16744.938    86.466463 
   97200    1407.8661   -108.38079    1.2738669   -107.10693   -12453.335    4.4194744    4.4194744    4.4194744   -12453.335   -60937.179   -17597.488    41174.663   -13141.225    44902.715    20068.189    86.320086 
   97300    1914.2978   -108.83736    1.7320969   -107.10526    -4412.427     4.395663     4.395663     4.395663    -4412.427   -8305.9391   -21665.866    16734.524   -1705.7796    25308.347   -26013.931    84.932356 
   97400    1945.4544    -108.8768     1.760288   -107.11652    40086.597    4.3796761    4.3796761    4.3796761    40086.597     40655.25   -24412.488    104017.03    6939.4374    -15796.65    12312.939    84.009031 
   97500    1414.2406   -108.44268    1.2796346   -107.16304    449.87006    4.3844106    4.3844106    4.3844106    449.87006   -40281.944   -9776.6672    51408.222   -20010.745    44371.872    20724.914    84.281772 
   97600    2629.6708   -109.55134    2.3793814   -107.17195   -6989.6806    4.4111353    4.4111353    4.4111353   -6989.6806    17909.064   -31257.865   -7620.2411    6494.3438   -9917.3326   -24761.379    85.832377 
   97700    1370.2398   -108.39538    1.2398218   -107.15555   -2991.8469    4.4265873    4.4265873    4.4265873   -2991.8469   -24418.469   -51635.265    67078.193   -16281.366   -6532.5772    18944.438     86.73754 
   97800    1773.4619   -108.73358    1.6046656   -107.12891   -2812.4519    4.4094419    4.4094419    4.4094419   -2812.4519   -7778.9708   -48345.494    47687.109   -3863.9348    33256.632   -8407.4928    85.733563 
   97900    2257.7468    -109.1464    2.0428568   -107.10354    19062.619    4.3960406    4.3960406    4.3960406    19062.619    25369.147   -18764.401     50583.11    6720.9351    -25719.23   -1157.5599    84.954242 
   98000     1228.654   -108.24063     1.111712   -107.12892    13002.208    4.3932667    4.3932667    4.3932667    13002.208     -15996.4    12698.422    42304.602   -22946.362    17845.338    20116.794    84.793528 
   98100     2319.571   -109.23123    2.0987966   -107.13244   -17273.294    4.4105139    4.4105139    4.4105139   -17273.294   -37259.249    2874.8838   -17435.516   -4867.0706    24918.894   -16232.305    85.796106 
   98200    1597.2121   -108.57148    1.4451911   -107.12629   -13434.654    4.4227596    4.4227596    4.4227596   -13434.654    7148.1739   -13745.649   -33706.488    9004.8247    -22169.91   -23182.358    86.512729 
   98300    1656.0457    -108.5995    1.4984249   -107.10108    20.260585    4.4098074    4.4098074    4.4098074    20.260585   -26082.045   -13982.645    40125.472   -18940.807    18855.561    29537.954    85.754883 
   98400     2251.116   -109.13303    2.0368571   -107.09617   -26294.663    4.4101903    4.4101903    4.4101903   -26294.663   -13851.517   -33708.997   -31323.476    10529.374      10701.1   -36884.646    85.777222 
   98500    1697.7152    -108.6265    1.5361284   -107.09038   -1601.7467      4.41814      4.41814      4.41814   -1601.7467   -50941.049   -46789.847    92925.656   -18675.117    -5041.672    12546.117    86.241921 
   98600    1617.0777   -108.55004    1.4631659   -107.08688   -29993.512    4.4088503    4.4088503    4.4088503   -29993.512    10953.408   -52205.144   -48728.799   -11752.019   -8053.4977    10525.136    85.699062 
   98700    2193.4936   -109.06307    1.9847191   -107.07835    21447.852    4.3914247    4.3914247    4.3914247    21447.852    26316.624    -2328.564    40355.496   -1363.0661     -10073.5   -31741.427    84.686917 
   98800    1839.4691   -108.77481    1.6643903   -107.11042    -21649.05    4.4160984    4.4160984    4.4160984    -21649.05   -47961.539    -56184.86    39199.251   -29048.834    11174.732    29063.994    86.122422 
   98900    2052.3487   -108.93944    1.8570082   -107.08243   -42206.287    4.4224144    4.4224144    4.4224144   -42206.287   -27934.306   -66784.359   -31900.194    28175.495    3696.9034   -39221.422    86.492469 
   99000    1977.3446   -108.87082    1.7891429   -107.08167   -29341.727    4.4076332    4.4076332    4.4076332   -29341.727   -42818.781   -55713.492    10507.093   -50969.423    9114.8505   -4212.1482    85.628108 
   99100    1908.8573   -108.81183    1.7271742   -107.08466    -7143.344     4.403415     4.403415     4.403415    -7143.344     22398.95   -28603.125   -15225.857    1274.0986    8691.5097    7940.5355      85.3825 
   99200     1098.129   -108.09473   0.99361016   -107.10112    11676.737    4.4087971    4.4087971    4.4087971    11676.737    47161.133   -11964.342   -166.58127   -87.301597   -4922.3883   -28356.595    85.695956 
   99300    2076.3784   -108.97211    1.8787508   -107.09336   -9721.2487    4.4281143    4.4281143    4.4281143   -9721.2487   -6894.1078   -73185.925    50916.287   -22505.182   -18995.164    18877.559    86.827334 
   99400     2194.834    -109.0615    1.9859319   -107.07557   -7090.3572    4.4233572    4.4233572    4.4233572   -7090.3572    11933.487   -40612.367     7407.808    12664.001   -8690.1574   -39242.636      86.5478 
   99500    964.55475   -107.96021   0.87274941   -107.08746    27630.679    4.3972075    4.3972075    4.3972075    27630.679    27370.882   -20611.025    76132.181   -47596.304   -1826.6408   -16709.491    85.021914 
   99600    2355.9923   -109.22661    2.1317513   -107.09486    4158.1314    4.3956562    4.3956562    4.3956562    4158.1314     22434.91    -34484.81    24524.294    16620.063    -25099.09    23204.916    84.931963 
   99700    1695.7419   -108.65293    1.5343429   -107.11859    23201.488    4.4044545    4.4044545    4.4044545    23201.488    21417.067   -15950.327    64137.724   -32890.788    4558.2167   -10407.933    85.442977 
   99800    1387.2582   -108.37446    1.2552204   -107.11924   -8286.2097    4.4282634    4.4282634    4.4282634   -8286.2097     51099.31   -44390.499    -31567.44    137.77501   -18460.453    4056.0585    86.836105 
   99900    1794.4849   -108.69417    1.6236877   -107.07049   -49602.165    4.4432206    4.4432206    4.4432206   -49602.165   -42364.121   -88372.003   -18070.372    729.02527    7058.8657    35569.046    87.718992 
  100000    1852.0867   -108.71376     1.675807   -107.03795   -33635.713    4.4189343    4.4189343    4.4189343   -33635.713   -74798.414   -61180.593    35071.868   -62846.674    10231.174   -13177.908    86.288445 
Loop time of 23.4084 on 1 procs for 100000 steps with 8 atoms

Pair  time (%) = 7.00408 (29.9212)
Kspce time (%) = 5.89357 (25.1771)
Neigh time (%) = 0.206467 (0.88202)
Comm  time (%) = 1.01696 (4.3444)
Outpt time (%) = 0.0296593 (0.126703)
Other time (%) = 9.25771 (39.5486)

Nlocal:    8 ave 8 max 8 min
Histogram: 1 0 0 0 0 0 0 0 0 0
Nghost:    1618 ave 1618 max 1618 min
Histogram: 1 0 0 0 0 0 0 0 0 0
Neighs:    2001 ave 2001 max 2001 min
Histogram: 1 0 0 0 0 0 0 0 0 0

Total # of neighbors = 2001
Ave neighs/atom = 250.125
Neighbor list builds = 2664
Dangerous builds = 0
unfix 20
unfix 21
print "seeds:3788445"
seeds:3788445
