LAMMPS (10 Feb 2015)
# ---- initialize simulations
clear
units metal
dimension 3
boundary p p p
atom_style charge
atom_modify map array
# ---- create atoms
read_data /Users/eugeneragasa/pyflamestk_git/pypospack/tests/tests_integration/workflow/WorkflowLammpsThermalExpansion/param_1256/MgO_NaCl_unit.npt.T1500/lammps.structure
  triclinic box = (0 0 0) to (4.2565 4.2565 4.2565) with tilt (0 0 0)
  1 by 1 by 1 MPI processor grid
  reading atoms ...
  8 atoms
# ---- define interatomic potential
include potential.mod
mass 1 24.305
mass 2 15.999

group Mg type 1
4 atoms in group Mg
group O type 2
4 atoms in group O

set group Mg charge 1.66039996869
  4 settings made for charge
set group O charge -1.66039996869
  4 settings made for charge

variable R_cut equal 10.0

pair_style buck/coul/long ${R_cut}
pair_style buck/coul/long 10
pair_coeff 1 1 0.0 0.5 0.0 ${R_cut}
pair_coeff 1 1 0.0 0.5 0.0 10
pair_coeff 1 2 1528.2261267 0.282600919639 0.0 ${R_cut}
pair_coeff 1 2 1528.2261267 0.282600919639 0.0 10
pair_coeff 2 2 6677.06285722 0.138925130231 8.13419383626 ${R_cut}
pair_coeff 2 2 6677.06285722 0.138925130231 8.13419383626 10

kspace_style pppm 1.0e-5

neighbor 1.0 bin
neigh_modify every 1 delay 0 check yes
# ---- define settings
compute eng all pe/atom
compute eatoms all reduce sum c_eng
# ---- run minimization
reset_timestep 0
fix 1 all box/relax iso 0.0 vmax 0.001
thermo 10
thermo_style custom step pe lx ly lz xy xz yz press pxx pyy pzz pxy pxz pyz c_eatoms
min_style cg
minimize 1e-25 1e-25 5000 10000
PPPM initialization ...
  G vector (1/distance) = 0.352851
  grid = 8 8 8
  stencil order = 5
  estimated absolute RMS force accuracy = 3.9608e-05
  estimated relative force accuracy = 2.75062e-06
  using double precision FFTs
  3d grid and FFT values/proc = 3375 512
Neighbor list info ...
  1 neighbor list requests
  update every 1 steps, delay 0 steps, check yes
  master list distance cutoff = 11
Memory usage per processor = 4.06549 Mbytes
Step PotEng Lx Ly Lz Xy Xz Yz Press Pxx Pyy Pzz Pxy Pxz Pyz eatoms 
       0   -110.92329       4.2565       4.2565       4.2565            0            0            0    120138.29    120138.29    120138.29    120138.29 1.5343687e-10 -1.0407196e-10 -1.3145771e-10   -110.92329 
      10   -111.05478     4.299065     4.299065     4.299065            0            0            0    61836.089    61836.089    61836.089    61836.089 1.0666232e-10 -5.0344756e-11 -1.3613158e-10   -111.05478 
      20   -111.10767      4.34163      4.34163      4.34163            0            0            0    10591.608    10591.608    10591.608    10591.608 -1.2465538e-10 -9.1160209e-12 2.8254225e-10   -111.10767 
      25   -111.10952     4.351169     4.351169     4.351169            0            0            0   -6.6622077   -6.6622077   -6.6622077   -6.6622077 -1.5540302e-10 -3.5403029e-11 3.0098099e-10   -111.10952 
Loop time of 0.0144019 on 1 procs for 25 steps with 8 atoms

Minimization stats:
  Stopping criterion = linesearch alpha is zero
  Energy initial, next-to-last, final = 
        -110.923293971     -111.109518965     -111.109518965
  Force two-norm initial, final = 17.348 0.0010058
  Force max component initial, final = 17.348 0.0010053
  Final line search alpha, max atom move = 0.00777135 7.8125e-06
  Iterations, force evaluations = 25 41

Pair  time (%) = 0.00403452 (28.0138)
Kspce time (%) = 0.00236154 (16.3974)
Neigh time (%) = 0 (0)
Comm  time (%) = 0.000436783 (3.03281)
Outpt time (%) = 2.28882e-05 (0.158925)
Other time (%) = 0.00754619 (52.3971)

Nlocal:    8 ave 8 max 8 min
Histogram: 1 0 0 0 0 0 0 0 0 0
Nghost:    2189 ave 2189 max 2189 min
Histogram: 1 0 0 0 0 0 0 0 0 0
Neighs:    2344 ave 2344 max 2344 min
Histogram: 1 0 0 0 0 0 0 0 0 0

Total # of neighbors = 2344
Ave neighs/atom = 293
Neighbor list builds = 0
Dangerous builds = 0
unfix 1
# ---- define output variables ----
variable natoms equal "count(all)"
variable tot_energy equal "c_eatoms"
variable length_x equal "lx"
variable length_y equal "ly"
variable length_z equal "lz"
variable tilt_xy equal "xy"
variable tilt_xz equal "xz"
variable tilt_yz equal "yz"
variable tot_press equal "press"
variable press_xx equal "pxx"
variable press_yy equal "pyy"
variable press_zz equal "pzz"
variable press_xy equal "pxy"
variable press_xz equal "pxz"
variable press_yz equal "pyz"

# ---- output ----
print "pypospack:output_section:begin"
pypospack:output_section:begin
print "tot_energy = ${tot_energy}"
tot_energy = -111.109518965105
print "num_atoms = ${natoms}"
num_atoms = 8
print "xx = ${length_x}"
xx = 4.35116899821938
print "yy = ${length_y}"
yy = 4.35116899821938
print "zz = ${length_z}"
zz = 4.35116899821938
print "xy = ${tilt_xy}"
xy = 0
print "xz = ${tilt_xz}"
xz = 0
print "yz = ${tilt_yz}"
yz = 0
print "tot_press = ${tot_press}"
tot_press = -6.66220766530753
print "pxx = ${press_xx}"
pxx = -6.66220766529406
print "pyy = ${press_yy}"
pyy = -6.66220766581444
print "pzz = ${press_zz}"
pzz = -6.6622076648141
print "pxy = ${press_xy}"
pxy = -1.55403020158447e-10
print "pxz = ${press_xz}"
pxz = -3.54030294322521e-11
print "pyz = ${press_yz}"
pyz = 3.00980987063428e-10
print "pypospack:output_section:done"
pypospack:output_section:done
print "pypospack:lammps_sim:done"
pypospack:lammps_sim:done
#------------------------------------------------------------------------------
# RUN THERMOSTAT
# running using an NPT Nose-Hoover style thermostat
#------------------------------------------------------------------------------
variable tempdamp equal 0.1
variable pressdamp equal 1.0
# set initial velocities
velocity all create 1500 5887242 mom yes dist gaussian loop all
# fix for Nose-Hoover style thermostat
fix 20 all npt temp 1500 1500 0.1 aniso 0.0 0.0 1.0 drag 1.0 couple xyz
variable boxx equal lx
variable boxy equal ly
variable boxz equal lz
variable boxp equal press
variable boxt equal temp
# calculate averages every 10000 steps
reset_timestep 0
fix 21 all ave/time 10 10 100 v_boxx v_boxy v_boxz v_boxp v_boxt file lattice.out
thermo_style custom step temp pe ke etotal press lx ly lz press pxx pyy pzz pxy pxz pyz vol
thermo_modify flush yes
thermo 100
run 100000
PPPM initialization ...
  G vector (1/distance) = 0.351894
  grid = 8 8 8
  stencil order = 5
  estimated absolute RMS force accuracy = 4.14019e-05
  estimated relative force accuracy = 2.8752e-06
  using double precision FFTs
  3d grid and FFT values/proc = 3375 512
Memory usage per processor = 3.06549 Mbytes
Step Temp PotEng KinEng TotEng Press Lx Ly Lz Press Pxx Pyy Pzz Pxy Pxz Pyz Volume 
       0         1500   -111.10953    1.3572315    -109.7523    17588.825     4.351169     4.351169     4.351169    17588.825    16512.675    23239.289     13014.51    3965.5184   -9517.0846    -7879.156    82.379254 
     100    586.82767   -110.10124   0.53097401   -109.57026   -530.06985    4.3774511    4.3774511    4.3774511   -530.06985   -11938.737    13017.925   -2669.3976    6629.3393    29948.739    1678.8236    83.881059 
     200    891.68311   -110.00307   0.80681362   -109.19626   -25211.642     4.403988     4.403988     4.403988   -25211.642   -38832.071   -20358.059   -16444.796    3049.2217    8751.7639    10677.032    85.415835 
     300    1314.7506   -110.06041     1.189614    -108.8708   -13693.621     4.407659     4.407659     4.407659   -13693.621   -19760.142   -20984.834   -335.88638    4660.6494     -3687.17    648.23827    85.629609 
     400    921.15067   -109.44426   0.83347648   -108.61078   -15655.267    4.4031995    4.4031995    4.4031995   -15655.267   -30893.819    26529.819     -42601.8    15576.179    44321.491    6782.1184     85.36996 
     500    1946.5745   -110.18719    1.7613015   -108.42589    34783.054    4.3927129    4.3927129    4.3927129    34783.054    18634.357    60380.274    25334.532   -151.94374    3686.7262    1504.0748    84.761465 
     600    1310.5598   -109.54917     1.185822   -108.36335   -1812.6685     4.416693     4.416693     4.416693   -1812.6685   -2023.3324    4113.5901   -7528.2632   -10791.478     25857.91    14992.977    86.157211 
     700    1270.7196   -109.46702    1.1497738   -108.31725   -34787.364    4.4353384    4.4353384    4.4353384   -34787.364   -8582.6965   -54112.039   -41667.355     9114.303    3760.3204   -3313.3177    87.252985 
     800    1581.8401   -109.72637    1.4312822   -108.29509    15577.935    4.4096528    4.4096528    4.4096528    15577.935    9459.3167    8410.7764    28863.713   -4387.5156    12067.863   -10739.216    85.745863 
     900    1158.1651   -109.35952    1.0479322   -108.31159    44612.447    4.3959031    4.3959031    4.3959031    44612.447    27840.294    33133.891    72863.157   -5507.4088    47367.183    19060.301    84.946276 
    1000    1828.0528   -109.98402    1.6540606   -108.32996    20334.502    4.4137209    4.4137209    4.4137209    20334.502    43205.581   -31713.657    49511.584     10061.57    -1470.311   -3369.0704    85.983399 
    1100    822.70808   -109.08832   0.74440356   -108.34391    24815.219    4.4175446    4.4175446    4.4175446    24815.219    53410.842   -17873.805    38908.619   -8100.9133    40532.036    6185.2769    86.207061 
    1200    1377.1645   -109.58381    1.2460874   -108.33772    7569.4266    4.4091897    4.4091897    4.4091897    7569.4266        29229   -29353.177    22832.457    19659.467    26936.355    153.01682    85.718855 
    1300    1878.5477   -110.03093    1.6997495   -108.33118    9817.9869    4.4057699    4.4057699    4.4057699    9817.9869    29366.395    -18499.44    18587.006    -5678.688    4648.3071    817.36456    85.519557 
    1400    1373.3664    -109.5948    1.2426508   -108.35215   -1806.4836    4.4123892    4.4123892    4.4123892   -1806.4836   -4681.5941   -18907.167     18169.31    8519.3537    18749.651    17034.309     85.90559 
    1500    1623.6308   -109.80731    1.4690953   -108.33822   -24992.765    4.4286072    4.4286072    4.4286072   -24992.765   -27118.079   -74387.439    26527.222    18823.057   -11964.361   -894.50847    86.856335 
    1600     2014.622   -110.15208    1.8228723   -108.32921   -20581.459    4.4092845    4.4092845    4.4092845   -20581.459   -28401.467   -20662.742   -12680.167   -11229.364    -4018.325    9965.3671    85.724381 
    1700     1457.047    -109.6524    1.3183667   -108.33403    16964.483    4.3933863    4.3933863    4.3933863    16964.483    1182.0634    11936.225     37775.16    14761.283    14227.301    16662.105    84.800455 
    1800    2012.7075   -110.15953      1.82114   -108.33839   -16416.748    4.4159655    4.4159655    4.4159655   -16416.748   -9633.5164   -32659.267   -6957.4618    -6995.601   -13926.799   -293.33514    86.114644 
    1900    1385.5347   -109.59177    1.2536609   -108.33811   -16808.229    4.4198665    4.4198665    4.4198665   -16808.229   -25326.627   -23453.009   -1645.0508    461.88133     20866.59    13565.907    86.343066 
    2000    1615.1363   -109.78531    1.4614093    -108.3239    22973.601    4.4142776    4.4142776    4.4142776    22973.601    13059.004    -7625.565    63487.364   -109.03967    4895.9212    23846.875    86.015936 
    2100    1244.2223   -109.45167    1.1257985   -108.32587   -4749.2764    4.4182354    4.4182354    4.4182354   -4749.2764   -2386.5462    1658.4967    -13519.78   -11130.781    22553.186    11543.414    86.247505 
    2200    870.54904   -109.11926   0.78769107   -108.33157    32313.647    4.4016412    4.4016412    4.4016412    32313.647    35563.413    5498.0469     55879.48    3252.0141    45996.186    18249.703    85.279358 
    2300    1928.8686   -110.08475    1.7452808   -108.33947    8469.8337    4.4073876    4.4073876    4.4073876    8469.8337    63010.326    -41195.58    3594.7552   -7218.8647    12114.656    5641.3778    85.613795 
    2400    981.40066   -109.24201   0.88799194   -108.35402    16549.315    4.4113008    4.4113008    4.4113008    16549.315    42745.272   -2779.1463    9681.8203    12324.627    34022.322   -7297.2727    85.842035 
    2500    1442.0884   -109.65342    1.3048319   -108.34859   -3089.3461     4.413803     4.413803     4.413803   -3089.3461    16560.969   -3172.7787   -22656.229   -5477.8117   -211.52186    2975.7563    85.988194 
    2600    1577.4077   -109.76782    1.4272716   -108.34055   -20560.162     4.421438     4.421438     4.421438   -20560.162   -16395.545   -13701.442   -31583.499   -9152.6016    11102.587     4134.353    86.435197 
    2700    1606.8114   -109.77887    1.4538767   -108.32499    -14481.35    4.4174506    4.4174506    4.4174506    -14481.35   -11038.363   -37124.664    4718.9765    14403.041    17039.644    9739.4135    86.201557 
    2800    2179.8902   -110.28367    1.9724105   -108.31126   -12135.672    4.4149297    4.4149297    4.4149297   -12135.672   -26148.163   -16442.865    6184.0128   -10759.532   -13544.265   -6726.1016    86.054061 
    2900     1113.838   -109.32704     1.007824   -108.31921   -29894.596    4.4221994    4.4221994    4.4221994   -29894.596   -68495.764    23184.852   -44372.875    -12233.26    23469.481    3945.6452    86.479858 
    3000    1623.1693   -109.78208    1.4686777   -108.31341   -9441.8638    4.4196735    4.4196735    4.4196735   -9441.8638   -29791.626    12333.736   -10867.701    233.50803   -1348.6827     19702.62    86.331751 
    3100    1903.0293   -110.04159    1.7219009   -108.31969   -9222.3159    4.4184115    4.4184115    4.4184115   -9222.3159   -9710.0644    9466.9087   -27423.792   -4499.9927    10912.272   -9741.9917    86.257818 
    3200    1331.4168   -109.52941    1.2046939   -108.32471   -25913.444    4.4259881    4.4259881    4.4259881   -25913.444   -23856.793   -32174.344   -21709.195   -3783.9007    23046.134    5358.5256    86.702319 
    3300    1963.4143   -110.08793    1.7765385   -108.31139   -10399.451    4.4212858    4.4212858    4.4212858   -10399.451    15116.529   -38494.707   -7820.1753   -11562.493   -13261.923    942.90515    86.426272 
    3400    1127.6547   -109.37016    1.0203257   -108.34983   -12837.744    4.4213661    4.4213661    4.4213661   -12837.744   -9001.0467   -8730.8321   -20781.353   -6987.6651     20585.96     4734.186    86.430978 
    3500    1732.0866   -109.91663    1.5672284    -108.3494    8151.5061    4.4091125    4.4091125    4.4091125    8151.5061    72108.054   -25182.963   -22470.573   -3985.2062    -14902.47    5448.8489    85.714353 
    3600    1400.1926    -109.6369    1.2669237   -108.36997    21115.297    4.4137162    4.4137162    4.4137162    21115.297    33853.482    9577.4064    19915.003   -29434.725    3484.2031   -14999.703    85.983125 
    3700    1028.3405   -109.29649   0.93046411   -108.36602   -4866.9171    4.4295259    4.4295259    4.4295259   -4866.9171   -23886.842     18926.61   -9640.5188   -12270.634   -247.65883    3436.2608    86.910397 
    3800    1849.8863   -110.00809     1.673816   -108.33428   -15383.502    4.4317385    4.4317385    4.4317385   -15383.502    -34312.65   -13637.366    1799.5085   -12719.647    7903.8877    4218.8416      87.0407 
    3900    1038.2478   -109.27456   0.93942844   -108.33513    5613.4429    4.4154047    4.4154047    4.4154047    5613.4429   -46727.689     26349.69    37218.328   -17563.623    18568.117   -14312.026    86.081841 
    4000    1491.1321   -109.69151    1.3492077   -108.34231    14261.727    4.3950807    4.3950807    4.3950807    14261.727    26421.756    31388.467   -15025.041    5336.7001    32512.127    7020.7294    84.898609 
    4100    1718.6829   -109.93251    1.5551004   -108.37741    1652.4508    4.4118342    4.4118342    4.4118342    1652.4508   -34709.381    19734.821    19931.912   -6779.3864   -10943.608    4230.6066    85.873178 
    4200    1144.6979    -109.4029    1.0357467   -108.36715   -31893.049      4.44765      4.44765      4.44765   -31893.049   -30623.204    23892.783   -88948.727    2232.9385    39054.454    9507.8515    87.981591 
    4300     1672.129    -109.8403    1.5129775   -108.32733    4495.3292    4.4249968    4.4249968    4.4249968    4495.3292    51683.685   -14009.249   -24188.449    11608.975    17424.964   -4501.3918    86.644079 
    4400    1299.9712   -109.49696    1.1762413   -108.32072    9869.5845    4.3946406    4.3946406    4.3946406    9869.5845    5920.1836    16309.895    7378.6751   -2127.9553    17431.925   -5713.6646    84.873104 
    4500    1235.5494   -109.47172    1.1179511   -108.35377    3929.6995    4.4054871    4.4054871    4.4054871    3929.6995    23201.492    42298.898   -53711.292    5844.7213    14679.926    6790.0599    85.503087 
    4600    1783.7764   -109.97291    1.6139984   -108.35891    1502.5063    4.4236647    4.4236647    4.4236647    1502.5063   -29809.101    -10060.62     44377.24    15121.617   -6611.4389    -7119.563    86.565849 
    4700    1290.8181   -109.52735    1.1679593   -108.35939   -40407.339    4.4371916    4.4371916    4.4371916   -40407.339   -48357.126   -1990.7304   -70874.161    -12971.13    26446.164   -12853.004    87.362398 
    4800     1703.782   -109.87216    1.5416178   -108.33054    7445.0902    4.4097801    4.4097801    4.4097801    7445.0902   -248.00022    18371.027    4212.2437    4622.8681   -9611.4028   -790.01729    85.753291 
    4900    973.64637   -109.22786    0.8809757   -108.34688    37999.089    4.3971262    4.3971262    4.3971262    37999.089    41997.844     23803.99    48195.433   -8320.7035    23702.388   -6322.0102    85.017199 
    5000     1638.836   -109.84208    1.4828533   -108.35923    452.02078    4.4199507    4.4199507    4.4199507    452.02078   -161.48996    20498.997   -18981.444   -17209.237    10935.602    18864.481    86.347997 
    5100    1177.8339   -109.40432    1.0657289    -108.3386    511.01525    4.4424406    4.4424406    4.4424406    511.01525   -16670.637   -6087.1422    24290.825    4645.4587    8867.6931   -3436.1306    87.672803 
    5200    1308.6221   -109.50727    1.1840688    -108.3232   -42527.078    4.4388326    4.4388326    4.4388326   -42527.078   -46377.435   -39934.022   -41269.776   -17148.647     16893.01    4070.2537    87.459364 
    5300     2045.432   -110.15778    1.8507499   -108.30703    31105.877    4.3871721    4.3871721    4.3871721    31105.877    18677.563    42274.682    32365.386    8585.0613   -3797.9542     952.5623    84.441126 
    5400    995.95638   -109.24456   0.90116227    -108.3434    53750.693    4.3798624    4.3798624    4.3798624    53750.693    41364.002    75366.439    44521.639   -3840.1285    31474.995   -13665.599    84.019753 
    5500    1873.6573   -110.06656    1.6953245   -108.37124   -34034.604     4.434297     4.434297     4.434297   -34034.604   -52170.316   -24717.819   -25215.676   -6565.0808    7799.8563   -5571.7591    87.191539 
    5600    1686.3667   -109.86191      1.52586   -108.33605    1316.4156    4.4287598    4.4287598    4.4287598    1316.4156    9532.1009    14688.541   -20271.395    7737.0436   -2554.8289   -5198.3826    86.865312 
    5700    857.70559   -109.10932   0.77607004   -108.33325    14445.661    4.3904447    4.3904447    4.3904447    14445.661   -7428.9116   -8991.6113    59757.505    8965.4337    30413.378    -9409.053    84.630234 
    5800    2409.4475   -110.52116    2.1801187   -108.34104     6426.481    4.3927643    4.3927643    4.3927643     6426.481   -11715.725    6387.4062    24607.762   -15728.711   -16033.461    909.34324    84.764439 
    5900    1208.2499    -109.4614    1.0932499   -108.36815   -23595.489    4.4349883    4.4349883    4.4349883   -23595.489    -51416.79   -40794.345    21424.667     22549.47    19513.787    -13275.16    87.232322 
    6000    1699.1724   -109.85063    1.5374469   -108.31318   -36935.323    4.4486229    4.4486229    4.4486229   -36935.323   -18292.315   -73542.259   -18971.394   -58.126235    6681.8312   -4137.7872    88.039338 
    6100    1643.5681   -109.79751     1.487135   -108.31038    17725.804    4.3960867    4.3960867    4.3960867    17725.804    2006.5256    57109.669   -5938.7825    -9540.815    7758.9515    3595.0702    84.956919 
    6200    1179.8209   -109.38601    1.0675268   -108.31848    23256.719    4.3734211    4.3734211    4.3734211    23256.719   -13596.202    48800.983    34565.377    15385.241    22301.253    1846.1283    83.649602 
    6300    1862.4837   -110.04125    1.6852144   -108.35604   -11315.336    4.4198676    4.4198676    4.4198676   -11315.336   -8164.9836   -2308.2628   -23472.761   -643.59295   -13534.172    9842.2047    86.343128 
    6400    1280.1051    -109.4871     1.158266   -108.32883   -55957.723    4.4374974    4.4374974    4.4374974   -55957.723   -63146.287   -49435.619   -55291.264    202.49108    33055.692    4823.4106     87.38046 
    6500    1856.0667   -109.97549    1.6794081   -108.29608   -17474.715    4.4048471    4.4048471    4.4048471   -17474.715   -3718.8086   -51556.172    2850.8352    9622.7683    9131.3212   -15877.605    85.465829 
    6600    1536.6928   -109.69555    1.3904319   -108.30512    20134.626    4.3911255    4.3911255    4.3911255    20134.626    26152.603    27651.249    6600.0254   -5594.5693    4169.3619    28965.312    84.669606 
    6700    1624.3526     -109.816    1.4697484   -108.34625   -13997.714    4.3944514    4.3944514    4.3944514   -13997.714   -14794.009   -6873.3178   -20325.815    23842.468    27712.067   -5746.8996    84.862145 
    6800    1830.0109   -110.03144    1.6558323   -108.37561   -12148.882    4.4106595    4.4106595    4.4106595   -12148.882     14337.95   -45298.526   -5486.0684    729.88768   -14075.868    1150.7829    85.804607 
    6900    1473.8913    -109.6978    1.3336078   -108.36419   -12541.124    4.4213029    4.4213029    4.4213029   -12541.124    4992.9724   -21478.445   -21137.899    177.42245    4873.3214    18447.523    86.427274 
    7000    1657.5816   -109.83614    1.4998147   -108.33633   -2894.6535    4.4076273    4.4076273    4.4076273   -2894.6535    6948.6895    -4937.151   -10695.499    23128.073    2484.9835   -13970.644    85.627762 
    7100    1763.4463    -109.9259    1.5956032    -108.3303   -32630.914    4.4190566    4.4190566    4.4190566   -32630.914   -34773.134   -39223.926   -23895.683   -12193.278   -8251.8907   -3037.4531    86.295608 
    7200    1986.7022   -110.10781    1.7976099    -108.3102   -6688.8735    4.4149824    4.4149824    4.4149824   -6688.8735    2052.4406   -8093.1247   -14025.936    19436.606    9625.4267    6440.3925    86.057146 
    7300    1481.2807   -109.66816    1.3402939   -108.32787   -24484.051    4.4044317    4.4044317    4.4044317   -24484.051   -19687.698   -57558.069    3793.6133    12550.431   -15683.161     -15813.9    85.441652 
    7400    1706.7263   -109.88014    1.5442818   -108.33586    847.18679    4.4068764    4.4068764    4.4068764    847.18679   -1085.8513   -11055.988      14683.4   -7406.1188   -1140.4756   -1673.9741    85.584005 
    7500    1835.9448   -110.00072    1.6612014   -108.33952   -38448.514    4.4174777    4.4174777    4.4174777   -38448.514   -61259.744   -42863.489   -11222.308    20679.321   -3005.2337   -2121.6811    86.203142 
    7600    1492.6225   -109.68603    1.3505562   -108.33548   -34541.127     4.411961     4.411961     4.411961   -34541.127     -28420.2   -67035.055    -8168.128   -18692.533   -2173.1388   -4088.4071    85.880583 
    7700    1899.8203   -110.03867    1.7189973   -108.31967    11066.855    4.3986196    4.3986196    4.3986196    11066.855    19140.704   -19255.486    33315.347    9260.7846   -4181.8258   -400.46454     85.10385 
    7800    943.45208   -109.19399   0.85365527   -108.34033   -1394.6343    4.3950335    4.3950335    4.3950335   -1394.6343   -35138.586    -4738.414    35693.097   -12819.575    6544.7874    2468.5506    84.895872 
    7900     1719.036   -109.90448    1.5554199   -108.34906    3074.4436    4.4052486    4.4052486    4.4052486    3074.4436   -7443.5639   -6522.0112    23188.906   -8023.5491   -8953.1631    7190.6493    85.489204 
    8000    1278.8279   -109.50348    1.1571104   -108.34637    -2188.447    4.4167554    4.4167554    4.4167554    -2188.447   -29775.488    26652.087   -3441.9398   -9133.9382   -5167.5767    12504.712    86.160865 
    8100    1192.4284   -109.42138    1.0789343   -108.34244   -6426.3015    4.4030917    4.4030917    4.4030917   -6426.3015   -31517.804   -9270.1932    21509.093   -21408.468   -4440.1706     7753.615     85.36369 
    8200    1777.2962   -109.93798     1.608135   -108.32985    23841.508    4.3844837    4.3844837    4.3844837    23841.508    47298.558   -833.69877    25059.664    4050.9795   -12097.685    898.04939    84.285988 
    8300    996.88728   -109.26778   0.90200456   -108.36578   -18276.091    4.4023525    4.4023525    4.4023525   -18276.091   -42140.875   -31220.489    18533.091   -4130.7853    12841.591   -1734.4612    85.320704 
    8400    2190.6572   -110.32776    1.9821527   -108.34561    -13290.83    4.4130847    4.4130847    4.4130847    -13290.83   -5191.0789   -18786.126   -15895.284    3076.4561   -22150.358   -4087.4734    85.946223 
    8500    1628.5744   -109.81392    1.4735684   -108.34035   -20640.076    4.4073967    4.4073967    4.4073967   -20640.076    -7728.708   -45817.394   -8374.1258    623.62284   -4700.9357   -8249.4507    85.614323 
    8600    1128.3224   -109.36491    1.0209299   -108.34399   -20247.239    4.3983775    4.3983775    4.3983775   -20247.239   -39506.463   -19366.114   -1869.1405   -13518.052   -8104.0942    2734.2062    85.089801 
    8700    1856.4767   -110.01169    1.6797791   -108.33191   -3197.4111     4.400372     4.400372     4.400372   -3197.4111    19729.105   -2374.1134   -26947.225   -3678.0116   -12017.583    -3543.946    85.205605 
    8800    1321.2831   -109.53933    1.1955247    -108.3438   -31726.226    4.4221765    4.4221765    4.4221765   -31726.226    23251.799   -76002.428   -42428.048   -7313.5328   -4004.3165   -7074.6595    86.478514 
    8900    1879.3041   -110.01272    1.7004338   -108.31229    -5501.218    4.4178972    4.4178972    4.4178972    -5501.218    16333.482   -857.92399   -31979.212   -19743.111   -8.2889846   -1433.1504    86.227703 
    9000    1144.8742   -109.34704    1.0359062   -108.31113    -8855.227    4.4138988    4.4138988    4.4138988    -8855.227    50365.073   -24526.427   -52404.328    5175.2563   -3087.4218    -5156.403    85.993796 
    9100    1858.0698   -109.98374    1.6812206   -108.30252   -15099.282    4.4138736    4.4138736    4.4138736   -15099.282    -20847.25    637.37304    -25087.97   -3310.5208   -2774.5422    7684.5588    85.992323 
    9200     1656.847   -109.80391      1.49915   -108.30476    12573.665    4.3984571    4.3984571    4.3984571    12573.665    8789.6757     52757.09   -23825.772     -13739.8    4042.6856    -19329.67    85.094418 
    9300    1569.3501   -109.75231    1.4199809   -108.33233   -8081.9468    4.4099504    4.4099504    4.4099504   -8081.9468    32527.809   -43538.073   -13235.577   -9881.2811   -6084.7608      9215.36    85.763228 
    9400    2100.9992    -110.2177    1.9010282   -108.31667   -18229.757    4.4118421    4.4118421    4.4118421   -18229.757   -18333.327   -8878.2377   -27477.705   -13056.476    463.27397    4637.0454     85.87364 
    9500    1035.2044   -109.26968   0.93667468   -108.33301    10233.546     4.401798     4.401798     4.401798    10233.546    10861.458    15559.226    4279.9525   -12759.846    -7285.996    -25808.18    85.288472 
    9600    2004.9741   -110.13888    1.8141427   -108.32473   -12733.027    4.4120262    4.4120262    4.4120262   -12733.027   -36681.424    23972.868   -25490.524   -3669.2368    6435.9556    17796.048    85.884391 
    9700    1409.7537   -109.61339    1.2755747   -108.33781    -8814.434    4.4026661    4.4026661    4.4026661    -8814.434    1016.9176   -3142.7137   -24317.506    -109.7385    7692.6375   -31676.281    85.338944 
    9800    1378.6621   -109.57877    1.2474425   -108.33133      34048.7     4.383435     4.383435     4.383435      34048.7    55720.985    31967.836    14457.278   -8041.2075   -13924.629   -8407.3656    84.225522 
    9900    1713.4667   -109.89542    1.5503807   -108.34503    5704.4195    4.3889303    4.3889303    4.3889303    5704.4195    3841.3338    28062.514    -14790.59   -1948.2402    11890.423   -4883.9815    84.542689 
   10000    712.65317   -109.02129   0.64482356   -108.37647    27045.574    4.4101589    4.4101589    4.4101589    27045.574    21400.082     7854.752     51881.89    1829.5096     1255.315   -40017.206    85.775393 
   10100    2348.2549   -110.46392    2.1247504   -108.33917   -12814.274     4.417261     4.417261     4.417261   -12814.274   -27343.977    -12456.76    1357.9152   -14611.916   -3584.4925    8246.2066    86.190458 
   10200    931.39661   -109.19131   0.84274722   -108.34856     26183.32    4.3810593    4.3810593    4.3810593     26183.32    51279.892   -23714.394    50984.461    7165.9721    15699.811   -44557.787     84.08865 
   10300    1727.7277   -109.91762    1.5632844   -108.35434    14290.045    4.3764461    4.3764461    4.3764461    14290.045    805.85382    29346.093    12718.189   -21090.093   -12745.906   -15818.151    83.823301 
   10400     1656.569   -109.85802    1.4988984   -108.35913   -2692.5491    4.4098497    4.4098497    4.4098497   -2692.5491   -29867.891    10794.866    10995.377    3508.4148    -461.0494    993.23104    85.757353 
   10500    1254.1141    -109.4875    1.1347488   -108.35275   -32661.783    4.4191998    4.4191998    4.4191998   -32661.783   -52668.154   -38106.648    -7210.548    3528.6107    9462.9642   -31348.009    86.303997 
   10600    2126.5784   -110.24659    1.9241728   -108.32242    10189.322    4.4035026    4.4035026    4.4035026    10189.322     -3982.22    32042.641    2507.5448   -12540.538   -18813.182    15685.616    85.387596 
   10700    1364.4982   -109.57017    1.2346266   -108.33554     451.0502    4.3942107    4.3942107    4.3942107     451.0502    31387.568   -13991.936   -16042.482   -2685.1093   -5404.0286   -20220.562      84.8482 
   10800    1300.0282   -109.53146    1.1762928   -108.35517   -4394.9212     4.404297     4.404297     4.404297   -4394.9212   -20091.201    39188.983   -32282.545   -18408.753     7180.629   -4872.1897    85.433811 
   10900    1840.1684   -110.00432     1.665023   -108.33929   -1619.2274    4.4077249    4.4077249    4.4077249   -1619.2274    3595.2118   -15826.645    7373.7506   -2491.9746   -13203.462    6362.4678    85.633452 
   11000    1085.7082   -109.32228   0.98237163    -108.3399    20214.245    4.3979559    4.3979559    4.3979559    20214.245    11429.434    48865.809    347.49112    5973.3721   -1292.2139   -37513.819    85.065331 
   11100    1908.3014   -110.05086    1.7266712   -108.32419     13433.92    4.3964986    4.3964986    4.3964986     13433.92    7024.8386    20879.606    12397.315   -8553.0172   -4720.2879     5188.284      84.9808 
   11200    775.43652    -109.0473   0.70163126   -108.34567    15026.206     4.393714     4.393714     4.393714    15026.206   -794.94689    29418.126    16455.438    10177.223   -3932.6706     -31815.1    84.819433 
   11300    1827.3291   -110.00439    1.6534058   -108.35098   -8356.5026    4.4075165    4.4075165    4.4075165   -8356.5026   -42777.094     21250.05    -3542.464   -2138.5881   -2106.3336   -12236.249    85.621305 
   11400    1732.7704   -109.90736    1.5678471   -108.33951   -7363.4729    4.4091929    4.4091929    4.4091929   -7363.4729   -21261.674   -16506.082    15677.337    -2780.711   -11225.863   -23348.096    85.719037 
   11500    1327.9576   -109.54737     1.201564   -108.34581   -23038.486     4.384673     4.384673     4.384673   -23038.486    18881.285   -42515.005   -45481.739    10768.396    11631.228   -19292.246    84.296903 
   11600    1896.8669   -110.06833    1.7163251     -108.352    6191.7434    4.3870082    4.3870082    4.3870082    6191.7434   -17274.251    18462.857    17386.624   -2827.2506   -11729.746    12782.296    84.431664 
   11700    1141.8925   -109.39701    1.0332084    -108.3638   -19075.547    4.4062072    4.4062072    4.4062072   -19075.547   -25834.121   -33705.743    2313.2232    8063.4259   -20243.776   -36220.065    85.545023 
   11800    1643.5674   -109.83971    1.4871343   -108.35257    -3628.062     4.402556     4.402556     4.402556    -3628.062   -15272.709   -7040.1986    11428.722    755.97239   -4489.6678   -8817.6226    85.332541 
   11900    1366.3342   -109.58162    1.2362879   -108.34533    18755.177    4.4002236    4.4002236    4.4002236    18755.177   -23555.061    39749.931     40070.66    -7334.969    -16345.38   -19108.703    85.196988 
   12000    1175.0172   -109.41629    1.0631802   -108.35311   -1053.8863    4.3901859    4.3901859    4.3901859   -1053.8863    4772.0026     9285.782   -17219.443   -1671.7296    -3413.783   -44125.291    84.615267 
   12100    1561.5147   -109.76697    1.4128913   -108.35408    2583.2794    4.3902133    4.3902133    4.3902133    2583.2794   -20661.559    42382.875   -13971.478   -7421.5544   -2894.9538    9119.1964     84.61685 
   12200    1702.1374   -109.89974    1.5401297   -108.35961    -31566.56    4.4068521    4.4068521    4.4068521    -31566.56   -41343.852   -13344.056   -40011.772   -10659.667    -28980.62   -20810.779    85.582592 
   12300    1737.3758    -109.9255    1.5720142   -108.35349    4449.6067    4.3948485    4.3948485    4.3948485    4449.6067   -5096.1061    11569.588    6875.3379    1737.0029    5885.1916   -24051.603    84.885149 
   12400    1542.4796   -109.74708    1.3956679   -108.35141   -1130.8925    4.3900224    4.3900224    4.3900224   -1130.8925   -7018.9138   -4989.3556    8615.5918   -15686.948   -6320.7488    13717.094    84.605815 
   12500    1061.8463   -109.32018   0.96078089    -108.3594    -12763.68    4.3974266    4.3974266    4.3974266    -12763.68   -14840.148   -23645.594    194.70256   -3961.3064     -11294.9   -33696.604    85.034624 
   12600    1436.6937    -109.6545    1.2999506   -108.35455    28144.409     4.393281     4.393281     4.393281    28144.409      24626.9    48591.557    11214.769    5510.0749     21019.92   -16633.776    84.794355 
   12700    1890.7576    -110.0642    1.7107972    -108.3534    15307.563    4.3961173    4.3961173    4.3961173    15307.563     5535.116   -13148.005    53535.578   -12939.855   -13392.612    13981.189    84.958694 
   12800    1093.0048   -109.34479    0.9889737   -108.35582    7526.3016    4.3997696    4.3997696    4.3997696    7526.3016    55881.117   -21045.647   -12256.565    14840.974    15739.195   -11066.656    85.170621 
   12900    1327.1351   -109.53864    1.2008197   -108.33782    12395.482    4.4007064    4.4007064    4.4007064    12395.482    38430.336    22913.925   -24157.813   -5837.9945    15920.645    2426.6598    85.225032 
   13000     1422.661    -109.6289    1.2872536   -108.34165   -10757.619    4.4017673    4.4017673    4.4017673   -10757.619   -10217.197   -6071.5615   -15984.097    10128.287   -12363.253   -6660.4699    85.286683 
   13100     1667.017   -109.85375     1.508352    -108.3454    2170.4909    4.3884355    4.3884355    4.3884355    2170.4909    23001.577   -5126.5141    -11363.59    11411.983    8020.2052   -1906.3969    84.514097 
   13200    1901.8146   -110.06961    1.7208018   -108.34881    5219.6184    4.3883713    4.3883713    4.3883713    5219.6184   -2554.4036    2699.8101    15513.449   -13922.738    8776.4208    18052.616    84.510389 
   13300     1191.218   -109.43941     1.077839   -108.36157    -32353.59    4.4047932    4.4047932    4.4047932    -32353.59   -23574.286   -37567.686   -35918.798    17753.705   -7069.2545   -21034.536    85.462694 
   13400    1419.1338   -109.63712     1.284062   -108.35306    7246.4227    4.3985964    4.3985964    4.3985964    7246.4227    17453.951    8844.8033    -4559.486   -7593.9467   -1356.2003    18201.022    85.102506 
   13500    2033.9196    -110.1874    1.8403332   -108.34706   -6077.8813    4.4048373    4.4048373    4.4048373   -6077.8813   -37178.696   -7420.8417    26365.894    2421.0402   -604.87218    8532.9314    85.465259 
   13600    1736.2692   -109.91695    1.5710128   -108.34593   -10995.415    4.3971649    4.3971649    4.3971649   -10995.415   -18365.055   -21575.308    6954.1192    19055.008   -2350.4874   -10887.745    85.019446 
   13700    1143.6554   -109.38183    1.0348035   -108.34702     16959.74    4.3718315    4.3718315    4.3718315     16959.74    27830.505    237.07411    22811.641    -7952.212    1885.9804    30114.549    83.558425 
   13800    1122.5956    -109.3919    1.0157481   -108.37615   -20591.493    4.3955737    4.3955737    4.3955737   -20591.493   -26291.834   -29425.452   -6057.1945    20978.809    2328.0135    2348.9352    84.927179 
   13900    2000.5365   -110.17252    1.8101274   -108.36239   -20352.915    4.4004149    4.4004149    4.4004149   -20352.915   -37417.533   -23845.383    204.16949    24614.357   -3445.4206    4975.2328    85.208099 
   14000      1472.58   -109.69495    1.3324213   -108.36253    20849.665    4.3910914    4.3910914    4.3910914    20849.665    28490.418    20801.241    13257.336   -5762.2293    8695.5893     4445.116    84.667636 
   14100     1588.814   -109.79445    1.4375923   -108.35686   -28729.439    4.3983364    4.3983364    4.3983364   -28729.439   -37674.342   -51088.108    2574.1339     30681.93   -5593.4052   -5814.4604    85.087413 
   14200    1340.3521   -109.56662    1.2127787   -108.35385    22028.286    4.3836473    4.3836473    4.3836473    22028.286    33633.641    26606.814    5844.4035   -2054.7186   -1846.3513    4467.2175    84.237763 
   14300    1438.3678   -109.66106    1.3014654    -108.3596    357.76514    4.3889531    4.3889531    4.3889531    357.76514   -6179.5176    6925.6403    327.17265    12880.034    11159.408    6076.8853    84.544004 
   14400    1127.3783   -109.38353    1.0200756   -108.36345   -33954.273    4.4025177    4.4025177    4.4025177   -33954.273   -52874.869    -40262.06   -8725.8901    22237.596   -4119.5864   -16982.321    85.330311 
   14500    2126.9616   -110.27203    1.9245196   -108.34751   -4180.3659    4.3852967    4.3852967    4.3852967   -4180.3659   -17755.215     17658.26   -12444.143   -13405.623    6663.3594   -785.40228    84.332882 
   14600    1426.3638   -109.64909     1.290604   -108.35848    7221.0511    4.3913029    4.3913029    4.3913029    7221.0511    13147.413   -16859.317    25375.058    20963.345   -517.72165   -5678.6487    84.679869 
   14700    1321.8068   -109.55994    1.1959985   -108.36394   -31623.317    4.3969713    4.3969713    4.3969713   -31623.317   -32470.409   -42199.833   -20199.708    5543.2771    13977.804   -23815.968    85.008217 
   14800    1350.0205   -109.57811     1.221527   -108.35658     33212.16    4.3894186    4.3894186    4.3894186     33212.16    38354.842    28028.882    33252.757    4997.4134    382.26775    4724.9013    84.570906 
   14900    1296.4125   -109.53613    1.1730213   -108.36311   -15694.474    4.3963644    4.3963644    4.3963644   -15694.474   -21704.244   -41563.931    16184.752    29521.843   -4732.7277   -16740.326    84.973017 
   15000    1829.5765   -110.00746    1.6554393   -108.35202    8518.1295    4.3903608    4.3903608    4.3903608    8518.1295    14468.211    12073.495   -987.31684    3827.6942    16822.628   -17915.658     84.62538 
   15100    1356.5218   -109.58472    1.2274095   -108.35732     229.7499    4.3933896    4.3933896    4.3933896     229.7499   -7085.3939   -27465.982    35240.625     28998.21   -5606.7637    17131.199    84.800643 
   15200    1315.1361   -109.53991    1.1899627   -108.34995   -27421.897    4.3982384    4.3982384    4.3982384   -27421.897   -38194.664   -28167.892   -15903.133    7102.4722    1928.6441   -7235.1308    85.081729 
   15300    1566.6059   -109.76206    1.4174979   -108.34456   -13922.257     4.390828     4.390828     4.390828   -13922.257   -22127.668    6485.2791   -26124.382   -2146.9125    7541.5467   -1593.5779    84.652401 
   15400    1040.4215   -109.30553   0.94139524   -108.36413   -12147.252    4.3951682    4.3951682    4.3951682   -12147.252    -6392.864   -50971.218    20922.326    36083.432   -12122.246    36091.735    84.903679 
   15500    2252.5724    -110.3831    2.0381748   -108.34492   -2522.9787    4.3955823    4.3955823    4.3955823   -2522.9787    6178.8929   -22780.459    9032.6306   -19578.635    3147.2062   -1974.7879    84.927678 
   15600    1525.2286   -109.73144    1.3800589   -108.35138   -27497.467    4.3950183    4.3950183    4.3950183   -27497.467   -23568.659   -41532.666   -17391.077    12349.558   -4981.7327     11449.47     84.89499 
   15700    609.23222   -108.91448   0.55124612   -108.36323     3443.298    4.3972874    4.3972874    4.3972874     3443.298     55.26913   -35959.145    46233.769    32175.237   -7084.3851    23510.584    85.026549 
   15800    2219.9846   -110.35123    2.0086887   -108.34254    15446.224    4.3909663    4.3909663    4.3909663    15446.224    28736.607   -3579.6662    21181.732   -17413.981   -2483.6797    -198.9864    84.660397 
   15900    1225.6395   -109.47969    1.1089844    -108.3707    11822.084    4.3874819    4.3874819    4.3874819    11822.084    35849.224   -24872.614    24489.643    34910.617   -8352.5543    16929.132    84.459017 
   16000    1903.5292   -110.08285    1.7223532    -108.3605    -1418.607    4.4030041    4.4030041    4.4030041    -1418.607   -14206.163   -28002.612    37952.955   -1078.5725    7837.6887    6309.0205    85.358599 
   16100    1062.0304   -109.30948   0.96094747   -108.34853   -15080.562    4.4093074    4.4093074    4.4093074   -15080.562   -34706.081   -14244.224      3708.62    14704.175   -2320.1467    4422.1193     85.72572 
   16200    1011.3027   -109.26349   0.91504793   -108.34844   -21751.104    4.3883301    4.3883301    4.3883301   -21751.104   -36819.162   -26047.858   -2386.2916     24129.78   -17932.465     22369.81    84.508007 
   16300    2181.6353   -110.30777    1.9739894   -108.33378    48083.708    4.3769302    4.3769302    4.3769302    48083.708    70989.153    8983.1421     64278.83   -11713.572    12029.543   -12690.668    83.851117 
   16400    1407.4505    -109.6468    1.2734908    -108.3733   -27166.586    4.4040107    4.4040107    4.4040107   -27166.586   -38016.522   -26395.745   -17087.492    28568.752   -11684.128     16366.59    85.417156 
   16500    1363.2078   -109.59367    1.2334591   -108.36021   -4652.6291    4.4040649    4.4040649    4.4040649   -4652.6291    2647.2217    -21050.73     4445.621    10238.665   -13175.502    18800.675    85.420307 
   16600    1402.7407   -109.62172    1.2692293    -108.3525    20331.417    4.3838348    4.3838348    4.3838348    20331.417    661.47783     28623.97    31708.804   -3410.4982    3129.2346   -17979.922    84.248573 
   16700    1280.6852    -109.5307    1.1587909   -108.37191   -11253.059    4.3907068    4.3907068    4.3907068   -11253.059   -286.76894   -16947.786   -16524.623    35429.417   -7629.9457    21669.547    84.645388 
   16800    2247.7309   -110.39033    2.0337942   -108.35653    1449.3088    4.4039595    4.4039595    4.4039595    1449.3088    8677.9575   -7266.7202    2936.6891   -4891.6686    5799.8667    -6236.404    85.414174 
   16900    1203.4386   -109.43845    1.0888965   -108.34956   -22007.073    4.4119977    4.4119977    4.4119977   -22007.073   -49747.563   -32324.001    16050.346    21820.482   -2368.6081   -5490.5726    85.882729 
   17000    1067.9768   -109.30442   0.96632786   -108.33809   -12151.164    4.3935507    4.3935507    4.3935507   -12151.164    4103.2011   -6469.2036   -34087.489    15819.727    -21073.99    16908.613    84.809976 
   17100    1711.9422   -109.88726    1.5490013   -108.33826    17778.093    4.3783297    4.3783297    4.3783297    17778.093    17908.871   -10865.839    46291.246    -5787.437    5911.1198    -16382.67     83.93158 
   17200    1488.1383   -109.71435    1.3464988   -108.36785   -1041.5561     4.395945     4.395945     4.395945   -1041.5561    8573.0332   -14930.419    3232.7178    33414.982    557.66164    253.63959    84.948701 
   17300    1924.9078   -110.09229    1.7416971   -108.35059   -18518.875     4.410127     4.410127     4.410127   -18518.875   -17172.063   -19955.776   -18428.787   -21417.631   -13120.526   -1562.6726    85.773528 
   17400    1075.0398   -109.31254   0.97271859   -108.33982   -19657.159    4.4061581    4.4061581    4.4061581   -19657.159   -46313.079   -57525.736    44867.337    26060.902    131.07066   -15270.888    85.542164 
   17500    1307.3718   -109.51453    1.1829374    -108.3316   -2962.4957    4.3944746    4.3944746    4.3944746   -2962.4957   -1404.8949    10080.523   -17563.115    22731.275   -9989.7578    3721.5517    84.863489 
   17600    1718.1384    -109.8931    1.5546077    -108.3385   -4182.9324    4.3957875    4.3957875    4.3957875   -4182.9324    14484.441   -1255.4807   -25777.757    -15175.51   -18733.587   -15112.859    84.939572 
   17700    1323.6352   -109.55458    1.1976529   -108.35693    793.09399    4.3990952    4.3990952    4.3990952    793.09399    4885.4724   -14013.492    11507.301    21605.795   -4944.9402   -12834.198    85.131459 
   17800    1501.1796   -109.71186    1.3582988   -108.35356    6624.3123    4.4004501    4.4004501    4.4004501    6624.3123    4981.6419    31667.225    -16775.93    1374.8543   -22869.029    1182.2389    85.210145 
   17900    982.32768   -109.24349   0.88883073   -108.35466   -5041.9431    4.3971637    4.3971637    4.3971637   -5041.9431    11291.051   -2053.4869   -24363.393    -4560.766   -9787.7112   -17754.626    85.019374 
   18000    1315.2471   -109.54842    1.1900632   -108.35835    16374.639    4.3950182    4.3950182    4.3950182    16374.639    14853.666   -3482.8331    37753.083     32357.36   -5985.9118   -3541.4733    84.894982 
   18100    1925.4524   -110.09606    1.7421898   -108.35387   -3005.4733    4.4136355    4.4136355    4.4136355   -3005.4733    11265.042   -3204.3399   -17077.122   -18145.962   -20075.578   -7970.9614    85.978406 
   18200    1152.3012   -109.40359    1.0426263   -108.36097   -16959.431     4.401275     4.401275     4.401275   -16959.431   -15173.073   -49285.594    13580.375    28077.155    13914.004   -16539.305    85.258074 
   18300    1940.0452   -110.09726    1.7553937   -108.34186    11076.236    4.3749865    4.3749865    4.3749865    11076.236   -5015.6948   -3414.2167    41658.618    10838.876   -3957.3487    8487.5728    83.739462 
   18400    1434.7782   -109.66339    1.2982175   -108.36517   -9680.1846    4.3970499    4.3970499    4.3970499   -9680.1846    13896.555   -24911.681   -18025.428    -10487.85   -81.417466     2187.994     85.01277 
   18500    1018.1721   -109.27709   0.92126352   -108.35583   -31028.427    4.4201941    4.4201941    4.4201941   -31028.427   -13644.593     -60697.8   -18742.887    9697.1661    3434.5867    2891.3967    86.362267 
   18600     1864.012   -110.01534    1.6865972   -108.32874    10317.917    4.4107634    4.4107634    4.4107634    10317.917   -158.26923    31295.571   -183.55252   -14194.799    14583.486    13070.324    85.810669 
   18700    1307.4262    -109.5124    1.1829867   -108.32941    4701.2772    4.3998156    4.3998156    4.3998156    4701.2772   -27162.424    25062.036     16204.22   -12250.635    1170.1501   -9225.9087    85.173291 
   18800    1167.5711   -109.39629    1.0564429   -108.33985    16085.909    4.3935843    4.3935843    4.3935843    16085.909   -5989.7401    69392.507   -15145.041    3892.2227    540.11884   -8270.2802     84.81192 
   18900    1655.8515   -109.84676    1.4982492   -108.34851   -21224.745     4.400898     4.400898     4.400898   -21224.745    4870.3962   -542.04915   -68002.581   -3558.5149    6046.6472    22609.958    85.236164 
   19000    1500.0213    -109.7139    1.3572508   -108.35665   -31585.661    4.4128199    4.4128199    4.4128199   -31585.661   -41703.012   -18168.231   -34885.739    7488.0205     5961.252   -10826.503    85.930753 
   19100    1852.4469   -110.02898    1.6761329   -108.35284    617.21604    4.4041919    4.4041919    4.4041919    617.21604   -23004.858    56599.618   -31743.111    12136.326    5068.8572    5073.9701    85.427697 
   19200    1281.8983   -109.51658    1.1598886   -108.35669    21719.057    4.3803088    4.3803088    4.3803088    21719.057    19696.174    78526.681   -33065.684   -1746.4337   -6634.2176    10869.112    84.045444 
   19300      1142.43   -109.40338    1.0336947   -108.36969   -11067.781    4.3804227    4.3804227    4.3804227   -11067.781   -21646.931    17446.487   -29002.899    4100.4018    12562.002    -16884.45       84.052 
   19400    1786.6499    -109.9916    1.6165984   -108.37501   -18528.507    4.3968848    4.3968848    4.3968848   -18528.507   -8687.9379    4291.5024   -51189.086    8979.0077   -795.80853    19665.826    85.003196 
   19500    1735.6629   -109.93567    1.5704642    -108.3652   -7057.2007    4.4083747    4.4083747    4.4083747   -7057.2007   -20225.763    31847.008   -32792.848   -15491.662    4923.1347    10509.515    85.671329 
   19600    1260.1043   -109.49635    1.1401689   -108.35618    160.87316    4.3936231    4.3936231    4.3936231    160.87316   -32106.392      46985.9   -14396.888    418.89947   -4875.0261   -14257.654    84.814164 
   19700    1243.2662   -109.47132    1.1249334   -108.34639     20992.68    4.3754852    4.3754852    4.3754852     20992.68    30264.182    42257.005   -9543.1467    865.83056   -7654.2967      34579.2    83.768096 
   19800    1520.5771     -109.736    1.3758501   -108.36014   -15138.267    4.3918305    4.3918305    4.3918305   -15138.267    9815.0806   -3886.4365   -51343.445   -213.14286    3476.2709   -26638.234    84.710398 
   19900    1639.4683   -109.84341    1.4834254   -108.35999   -21701.158    4.4032651    4.4032651    4.4032651   -21701.158   -53115.698   -14558.984    2571.2064    2914.8205   -11587.202   -3065.1988    85.373777 
   20000    1861.8445   -110.03762     1.684636   -108.35298    801.29038    4.3916557    4.3916557    4.3916557    801.29038    7220.1721   -11361.987    6545.6862    4302.6486    2049.2714   -1968.0409     84.70028 
   20100    1014.6951   -109.27774   0.91811749   -108.35962    2252.5138    4.3770551    4.3770551    4.3770551    2252.5138    31429.501    61359.012   -86030.971   -4031.5268   -3752.1505   -37308.268    83.858297 
   20200     1547.508   -109.77137    1.4002178   -108.37115   -16208.758    4.3917023    4.3917023    4.3917023   -16208.758   -32636.683    24674.724   -40664.316   -353.78957   -17707.737    3975.2939    84.702977 
   20300    1592.1987   -109.80238    1.4406549   -108.36173   -16918.722    4.4060381    4.4060381    4.4060381   -16918.722   -4206.7623   -25849.528   -20699.876   -2002.3164    5036.1393   -34787.307    85.535172 
   20400    1665.9762   -109.85601    1.5074103    -108.3486   -12825.022    4.3910197    4.3910197    4.3910197   -12825.022    14602.911   -13772.042   -39305.937    2758.5111   -5818.4598   -16826.254     84.66349 
   20500    1446.2401   -109.65761    1.3085884   -108.34902   -8517.6268     4.385055     4.385055     4.385055   -8517.6268   -14236.637    15065.003   -26381.247    7785.8352   -7357.5916    14626.995    84.318938 
   20600    1068.7006   -109.32815    0.9669828   -108.36117    3942.6855    4.3832007    4.3832007    4.3832007    3942.6855    48021.554   -8884.6621   -27308.835    12551.448   -7377.7374   -29241.461     84.21202 
   20700    1697.1953   -109.90213     1.535658   -108.36647    2227.2104    4.3951239    4.3951239    4.3951239    2227.2104    13525.658    8197.7086   -15041.735   -6160.8089   -1630.9609    12394.238    84.901109 
   20800    1769.6022    -109.9582    1.6011732   -108.35703   -17493.345    4.4024307    4.4024307    4.4024307   -17493.345   -46303.192    -16421.33    10244.489    767.49189    9828.1019    5801.2065    85.325252 
   20900    1061.2726   -109.31994   0.96026178   -108.35968    9244.4643    4.3794648    4.3794648    4.3794648    9244.4643    50908.344   -3998.6183   -19176.333    3896.6071   -14140.433   -30102.289    83.996871 
   21000    1429.7771   -109.65388    1.2936924   -108.36019    12713.807    4.3784849    4.3784849    4.3784849    12713.807    52277.701    25439.071    -39575.35   -8262.6423     9135.117    17887.177    83.940503 
   21100    1388.8287   -109.62572    1.2566414   -108.36908   -11662.571    4.3922263    4.3922263    4.3922263   -11662.571    15414.731   -28580.599   -21821.844   -6695.5751    3104.8652   -22653.937    84.733302 
   21200    1590.8831   -109.80854    1.4394644   -108.36908   -8551.5122    4.3914997    4.3914997    4.3914997   -8551.5122    19735.512   -32858.213   -12531.835    5712.7769   -15030.783   -18176.153    84.691257 
   21300    1824.4591   -110.01036    1.6508089   -108.35955   -11321.631    4.3932626    4.3932626    4.3932626   -11321.631    12326.188    -15324.14   -30966.942   -3784.4512   -1996.9526    8209.2939    84.793289 
   21400    1178.1793   -109.42308    1.0660414   -108.35704   -1956.8512    4.3836449    4.3836449    4.3836449   -1956.8512    48158.045   -7782.0506   -46246.547    725.83837    1956.7556   -36337.687    84.237619 
   21500    1526.2555   -109.74091    1.3809881   -108.35992   -10998.794    4.3876096    4.3876096    4.3876096   -10998.794     8323.738   -4489.3497   -36830.771    3384.6423   -16575.765    7800.1472     84.46639 
   21600    1643.2671   -109.84701    1.4868626   -108.36015   -26189.815    4.4042946    4.4042946    4.4042946   -26189.815   -379.14072   -38136.566   -40053.738   -2265.2968    3099.0943   -19928.515    85.433674 
   21700    1710.3906   -109.90371    1.5475973   -108.35612   -12196.915    4.3881913    4.3881913    4.3881913   -12196.915    14339.883    -29339.97   -21590.659   -7298.8703    2187.7938   -44392.565    84.499988 
   21800    1714.6222   -109.90443    1.5514262   -108.35301    5632.2069    4.3775334    4.3775334    4.3775334    5632.2069    11385.588    4674.4151    836.61705    3681.6131   -61.701345    20977.289    83.885789 
   21900    834.70529   -109.13025   0.75525889   -108.37499   -26703.648    4.3918396    4.3918396    4.3918396   -26703.648     48409.51   -46005.675   -82514.778   -4747.8824    2059.8297   -42248.358    84.710925 
   22000    1708.1864   -109.91113    1.5456029   -108.36553   -1656.5056    4.3934685    4.3934685    4.3934685   -1656.5056    19323.855   -653.76065   -23639.612   -16889.238    2481.8694   -9401.2159    84.805216 
   22100     1924.776   -110.10075    1.7415777   -108.35917    1838.2046     4.392476     4.392476     4.392476    1838.2046    25374.615   -18269.494   -1590.5074   -10981.381    11032.048    2400.8109    84.747752 
   22200    1408.2292   -109.63704    1.2741953   -108.36284   -3569.3123    4.3853323    4.3853323    4.3853323   -3569.3123    26251.317   -13392.179   -23567.074    3997.3281    3200.7194   -34038.158    84.334935 
   22300    1422.0125   -109.64161    1.2866668   -108.35494    19470.814    4.3874971    4.3874971    4.3874971    19470.814    54631.895    29731.455   -25950.908   -1218.4127   -358.98437    12030.218    84.459893 
   22400    1010.6701    -109.2738   0.91447555   -108.35933   -29630.314      4.39692      4.39692      4.39692   -29630.314    32393.763   -59721.958   -61562.746   -9407.2631    4212.3287   -50322.491    85.005241 
   22500    1981.7407   -110.13609    1.7931207   -108.34296    8140.8272    4.3887362    4.3887362    4.3887362    8140.8272    7539.7089   -2618.8751    19501.648    6576.1354    3997.8958     11737.91     84.53147 
   22600    1785.1012   -109.96687    1.6151971   -108.35167    4901.7296    4.3904052    4.3904052    4.3904052    4901.7296    36929.011   -12073.131   -10150.691      599.681   -3739.8612   -26898.263    84.627946 
   22700    1520.9607   -109.73015    1.3761972   -108.35395   -20600.165    4.3929231    4.3929231    4.3929231   -20600.165    12405.302   -49726.113   -24479.683   -16473.874    4537.1144   -38925.114    84.773635 
   22800    1372.7611   -109.59351    1.2421031   -108.35141    5105.0035    4.3843186    4.3843186    4.3843186    5105.0035    10026.798    9668.3362   -4380.1238   -1387.2099   -247.36113     12348.01    84.276468 
   22900    1249.3977   -109.49443    1.1304813   -108.36395   -12696.553    4.3916963    4.3916963    4.3916963   -12696.553    45060.919   -32116.544   -51034.033    1372.1504   -4677.1255   -50961.604    84.702631 
   23000    1897.2746    -110.0768     1.716694   -108.36011    6120.7162    4.3826504    4.3826504    4.3826504    6120.7162     7326.479    -22925.09    33960.759   -10546.918    13389.175   -12247.003    84.180301 
   23100     1482.459   -109.71007      1.34136   -108.36871    2943.0153    4.3781509    4.3781509    4.3781509    2943.0153    32434.436    14462.964   -38068.354   -7595.9101   -5290.9767   -8207.1675    83.921294 
   23200    1279.7285   -109.53026    1.1579252   -108.37233   -16182.842    4.3977666    4.3977666    4.3977666   -16182.842    48609.153   -57291.365   -39866.315    8756.5278   -7570.4635   -34761.918    85.054349 
   23300    1475.7026   -109.69175    1.3352467    -108.3565    13319.684    4.3864817    4.3864817    4.3864817    13319.684    19490.032   -11682.495    32151.514    -4655.355    6527.7714     7552.906    84.401266 
   23400    1115.5327   -109.37983    1.0093574   -108.37048   -20672.942    4.3832516    4.3832516    4.3832516   -20672.942   -4907.7161   -13466.611   -43644.498   -164.05811   -4107.3993   -25681.403    84.214953 
   23500    2161.0349   -110.31463    1.9553498   -108.35928     5222.499    4.3873086    4.3873086    4.3873086     5222.499    16614.764   -28820.273    27873.005    5281.0478    432.57582   -18479.776    84.449008 
   23600    1566.2662   -109.78339    1.4171905    -108.3662    -14501.63    4.3887853    4.3887853    4.3887853    -14501.63    8683.9458    -7690.605   -44498.231   -13208.065    1533.8732    18792.613    84.534308 
   23700     722.9338   -109.02776   0.65412569   -108.37363   -28566.012    4.3898847    4.3898847    4.3898847   -28566.012   -21665.957   -24252.364   -39779.716    9517.7574   -5074.0765   -30638.197    84.597852 
   23800    1691.1727   -109.89424    1.5302086   -108.36403   -7308.7269     4.383664     4.383664     4.383664   -7308.7269    2666.8518   -28678.211    4085.1788    10826.287       2519.8    13431.027    84.238721 
   23900    1791.1213   -109.98951    1.6206442   -108.36886   -8872.0148     4.386846     4.386846     4.386846   -8872.0148   -12435.753    2501.0308   -16681.322   -8753.1236   -8307.1598    12310.881    84.422299 
   24000    1636.0436   -109.84399    1.4803267   -108.36367   -7866.9454    4.3858145    4.3858145    4.3858145   -7866.9454   -20053.894   -18053.251    14506.309    14547.269   -10623.551   -12094.037    84.362761 
   24100    1511.4029   -109.72878    1.3675491   -108.36123   -14713.502    4.3913059    4.3913059    4.3913059   -14713.502    9337.7225   -46529.207   -6949.0221    3894.7481    1841.9544    35981.282    84.680042 
   24200    1114.4412   -109.37021    1.0083698   -108.36184   -13756.907     4.387917     4.387917     4.387917   -13756.907   -3515.1844    -29476.68    -8278.857   -5795.2027   -13921.475   -18873.138    84.484144 
   24300    1245.6765   -109.49872    1.1271142    -108.3716   -27694.506    4.3797067    4.3797067    4.3797067   -27694.506   -18691.813   -39488.877   -24902.827    16814.727   -1953.2534    5716.0101    84.010794 
   24400    2128.5435   -110.29595    1.9259509      -108.37    -3661.115    4.3834262    4.3834262    4.3834262    -3661.115    11214.378   -21521.669   -676.05382    3685.5131    7187.3333    33119.225    84.225015 
   24500    1729.8029   -109.93411     1.565162   -108.36895   -14794.723    4.3898384    4.3898384    4.3898384   -14794.723   -14859.633   -30118.561    594.02509    3647.6568   -6808.1948   -36775.996    84.595179 
   24600    926.44681   -109.21141   0.83826854   -108.37314   -27789.707    4.3955494    4.3955494    4.3955494   -27789.707   -23446.867   -47911.376   -12010.878        13908   -7413.1229    14115.852    84.925771 
   24700    1531.0382   -109.74548    1.3853156   -108.36017    20486.677    4.3804961    4.3804961    4.3804961    20486.677    33653.333    12262.937    15543.759   -635.30334    10085.913    4025.8723    84.056226 
   24800     1629.378   -109.83955    1.4742955   -108.36526    7039.3997    4.3776701    4.3776701    4.3776701    7039.3997    13959.082    -8791.254    15950.371    10505.309   -9352.9479   -24729.385     83.89365 
   24900    1685.4206   -109.89583     1.525004   -108.37083   -7718.6891    4.3951555    4.3951555    4.3951555   -7718.6891    9761.9322   -20551.462   -12366.537    3071.7965   -929.72479    22766.831    84.902942 
   25000    1553.8283   -109.76559    1.4059365   -108.35965    6226.7134    4.3947229    4.3947229    4.3947229    6226.7134    20291.065   -16063.701    14452.776   -244.85698    30521.695   -11098.804    84.877872 
   25100    1390.4029    -109.6147    1.2580658   -108.35664   -146.55334    4.3902511    4.3902511    4.3902511   -146.55334    35806.439   -20762.428   -15483.671    17704.342   -7099.1195   -711.89566    84.619039 
   25200    1347.0025   -109.57682    1.2187962   -108.35803    17204.469     4.384181     4.384181     4.384181    17204.469    16141.034    13160.525    22311.849   -4118.8114      17024.3    16498.302    84.268531 
   25300    1802.9665   -109.99029     1.631362   -108.35892    10192.604    4.3837602    4.3837602    4.3837602    10192.604    15943.154   -9113.7777    23748.436   -4769.7133    26485.074   -19848.077     84.24427 
   25400    1633.9801   -109.84033    1.4784595   -108.36187   -9508.3801    4.3950685    4.3950685    4.3950685   -9508.3801   -5427.9984   -35398.547    12301.405    12221.314   -14502.117    5718.7128    84.897898 
   25500    1341.7392   -109.57484    1.2140338   -108.36081   -22630.828    4.3897431    4.3897431    4.3897431   -22630.828   -23272.093   -13491.545   -31128.846    -4244.325    29469.436    1458.7332    84.589665 
   25600    1474.5112   -109.69714    1.3341687   -108.36297   -568.76071    4.3862337    4.3862337    4.3862337   -568.76071    60700.335   -25363.155   -37043.463     6060.591    2325.0502   -13208.902    84.386952 
   25700    1701.2077   -109.90911    1.5392885   -108.36983   -5733.4375    4.3896134    4.3896134    4.3896134   -5733.4375   -11219.117   -9470.2656    3489.0706   -1400.8889     4591.914    15034.025    84.582171 
   25800      1231.81   -109.48812    1.1145676   -108.37355    18829.366    4.3917343    4.3917343    4.3917343    18829.366    37478.684   -5556.9593    24566.374    156.69416     32548.43   -10485.736    84.704828 
   25900    1652.8364   -109.85888    1.4955211   -108.36336   -4176.8392    4.3960257    4.3960257    4.3960257   -4176.8392    24453.803    -61398.59     24414.27    9038.9243   -8465.3106    8362.9763    84.953382 
   26000    1436.0957    -109.6638    1.2994096   -108.36439   -20409.691    4.3916523    4.3916523    4.3916523   -20409.691    3868.8585   -24618.564   -40479.367   -2766.4014    27268.952    22598.691    84.700083 
   26100    1613.6166   -109.82138    1.4600342   -108.36135    7930.5343    4.3718454    4.3718454    4.3718454    7930.5343     21264.39    17727.031   -15199.818    9067.4701    12422.833   -20542.519    83.559222 
   26200    1320.5379   -109.57622    1.1948505   -108.38137    7871.8042        4.387        4.387        4.387    7871.8042    15012.483   -15495.962    24098.891   -2673.7696   -9513.4424     20576.43    84.431187 
   26300    1495.3244    -109.7168     1.353001    -108.3638   -3126.5443    4.4028876    4.4028876    4.4028876   -3126.5443   -21396.149   -20366.218    32382.734    6221.5302    21252.132      3080.08    85.351823 
   26400    1172.2652   -109.41918    1.0606902   -108.35849    262.18282    4.3965168    4.3965168    4.3965168    262.18282    20855.478   -46418.826    26349.897    5757.0246   -1356.9499   -6311.7414    84.981855 
   26500    1780.6917   -109.96356    1.6112072   -108.35236   -5108.0975    4.3875752    4.3875752    4.3875752   -5108.0975    25811.537   -17159.898   -23975.932   -4452.0448   -6165.4864    29150.734    84.464403 
   26600    1974.6986   -110.14241    1.7867488   -108.35566    14880.679    4.3778292    4.3778292    4.3778292    14880.679    22172.734    25194.393    -2725.089    6735.6341    14278.813   -19063.691    83.902795 
   26700    985.40352   -109.27646   0.89161382   -108.38485   -4814.2934    4.3895972    4.3895972    4.3895972   -4814.2934     31801.29   -41623.457   -4620.7133   -1260.9815    11325.335    7424.6518     84.58123 
   26800    1710.6107   -109.91478    1.5477965   -108.36698   -6070.3379    4.3960699    4.3960699    4.3960699   -6070.3379   -12998.818   -40450.823    35238.627    6848.5418   -18801.497     11716.43    84.955945 
   26900     1527.422   -109.74801    1.3820435   -108.36597     5033.555    4.3854661    4.3854661    4.3854661     5033.555     13085.46    -26526.43    28541.636   -3462.8457    -100.1374   -14975.647    84.342655 
   27000    1655.7115   -109.86189    1.4981226   -108.36377   -1334.6622     4.382739     4.382739     4.382739   -1334.6622    8867.9532    3299.7007   -16171.641   -5.2017934    1924.3691    4740.7475    84.185408 
   27100    1452.4616   -109.67954    1.3142177   -108.36532    10687.796    4.3864206    4.3864206    4.3864206    10687.796    28984.929    10291.078   -7212.6191   -760.59475   -37371.712    2855.6881    84.397741 
   27200    1448.8851    -109.6801    1.3109817   -108.36911     7728.001    4.3941504    4.3941504    4.3941504     7728.001    41691.947   -32364.661    13856.716    2921.3479    7733.3869   -12760.753    84.844704 
   27300    1493.1498    -109.7097    1.3510333   -108.35867    23424.207    4.3946786    4.3946786    4.3946786    23424.207    28043.313    13853.984    28375.325   -3222.4474    -7090.117    9898.5862    84.875305 
   27400    1256.2512   -109.50012    1.1366825   -108.36344   -3031.8302    4.3859908    4.3859908    4.3859908   -3031.8302   -25110.333   -11528.927    27543.769   -1126.8022   -16132.815    -8844.084    84.372933 
   27500     1502.397   -109.72061    1.3594004   -108.36121    13165.163    4.3792065    4.3792065    4.3792065    13165.163    -6428.837     3926.692    41997.634    14888.003     3854.826   -14021.018    83.982013 
   27600    2077.7605   -110.24299    1.8800013   -108.36299   -3207.5018    4.3892307    4.3892307    4.3892307   -3207.5018    11356.194    15868.245   -36846.945   -3206.9499   -12831.598   -303.74431    84.560046 
   27700    1044.6157   -109.31622   0.94519028   -108.37103   -29828.681     4.397982     4.397982     4.397982   -29828.681   -15666.392   -74876.555    1056.9031   -576.21034   -12788.672   -19285.981     85.06685 
   27800    1633.4831   -109.83607    1.4780098   -108.35806   -11074.257    4.3836252    4.3836252    4.3836252   -11074.257   -21584.592     -28958.1    17319.921   -3215.1673    5634.2859   -1761.8474    84.236485 
   27900    1646.8272   -109.85392    1.4900838   -108.36384    17241.546    4.3824921    4.3824921    4.3824921    17241.546    4658.9136    9004.9396    38060.786    4665.6352   -4805.1128    1007.9247    84.171184 
   28000    1201.7834   -109.46676    1.0873989   -108.37936   -17150.793     4.398617     4.398617     4.398617   -17150.793   -13549.788   -38917.053    1014.4609   -869.60074   -3173.3775   -8799.0617      85.1037 
   28100    1822.9489   -110.00779    1.6494425   -108.35835   -13008.037    4.4012641    4.4012641    4.4012641   -13008.037    3010.4203   -27444.789   -14589.741   -13470.022    20838.007    7623.5829     85.25744 
   28200     1286.399   -109.51414    1.1639608   -108.35018    16554.604    4.3861853    4.3861853    4.3861853    16554.604    22561.241   -252.97866    27355.549    13981.982   -900.80538    -3607.547    84.384158 
   28300     1076.927   -109.33141   0.97442617   -108.35699    639.55701    4.3773419    4.3773419    4.3773419    639.55701   -19472.015     14084.93    7305.7558    1805.5129    10396.987    1067.4227    83.874781 
   28400    1612.0805   -109.83083    1.4586443   -108.37218   -1336.6058    4.3948083    4.3948083    4.3948083   -1336.6058    -2404.435    14654.723   -16260.106   -8771.2867    29815.398    3056.5458    84.882821 
   28500     1972.827    -110.1431    1.7850553   -108.35805   -19308.583    4.4050647    4.4050647    4.4050647   -19308.583    20197.284   -50321.113   -27801.921    2227.1756   -6639.6318   -13033.286    85.478496 
   28600      1325.26   -109.55871    1.1991231   -108.35959   -10373.081    4.3832535    4.3832535    4.3832535   -10373.081     1743.774   -4401.9856   -28461.031    13849.168     28084.94   -14084.327    84.215061 
   28700    1305.0053   -109.53748    1.1807962   -108.35668     28101.28    4.3750074    4.3750074    4.3750074     28101.28    59269.289    1165.2094    23869.341    -14715.23    9635.7039    18178.046     83.74066 
   28800    1198.2986    -109.4555    1.0842457   -108.37126   -17674.125    4.3985759    4.3985759    4.3985759   -17674.125    4754.6689   -25399.829   -32377.216    14005.858     -3247.65   -25399.557    85.101315 
   28900    1740.0794   -109.93302    1.5744604   -108.35856   -15516.985    4.4009982    4.4009982    4.4009982   -15516.985   -13845.038    13744.797   -46450.712    14088.615    29013.629    -7458.242    85.241988 
   29000    1827.0892   -110.00264    1.6531887   -108.34946    11243.604     4.386396     4.386396     4.386396    11243.604    54453.641   -6257.3014   -14465.528   -15962.843   -4957.4484    7952.3016    84.396322 
   29100    966.69558   -109.23535   0.87468648   -108.36066    2451.0348    4.3850282    4.3850282    4.3850282    2451.0348    28526.549   -28624.014    7450.5697    25352.566    10684.778   -27231.956    84.317393 
   29200    1826.6101   -110.01073    1.6527552   -108.35797   -16707.872    4.3915177    4.3915177    4.3915177   -16707.872   -33165.019    2834.2641   -19792.861   -8814.4212   -643.12576     9636.571    84.692296 
   29300    1239.6193    -109.4885    1.1216336   -108.36687   -2549.1742    4.3974177    4.3974177    4.3974177   -2549.1742    24414.665   -19039.695   -13022.493    5094.5702   -7630.9123   -24677.925     85.03411 
   29400    1342.4031   -109.58317    1.2146346   -108.36854   -3132.8386    4.3898179    4.3898179    4.3898179   -3132.8386    13061.997   -30520.143    8059.6297    19202.108    10288.955   -6598.6234    84.593993 
   29500    1967.4934   -110.14012    1.7802294   -108.35989     9326.537    4.3843313    4.3843313    4.3843313     9326.537    39410.836   -4436.5451   -6994.6798   -17535.938   -8941.7399    2870.6325    84.277199 
   29600    1407.4917   -109.64665    1.2735281   -108.37312   -15327.577     4.397383     4.397383     4.397383   -15327.577     10406.97   -51713.248   -4676.4547    19432.728   -8944.1262    -29774.28    85.032095 
   29700     1116.101   -109.38655    1.0098716   -108.37668    -39547.06    4.4005203    4.4005203    4.4005203    -39547.06   -66274.521   -41573.629   -10793.031    14398.591    17474.529    3815.8789    85.214222 
   29800    1754.1263   -109.94566    1.5871703   -108.35849    10986.591    4.3796429    4.3796429    4.3796429    10986.591    -23504.05    26928.651    29535.173   -11238.761   -2011.4759    1237.0751     84.00712 
   29900    1472.7881   -109.70242    1.3326096   -108.36981    4830.0631    4.3847154    4.3847154    4.3847154    4830.0631    35063.137   -35255.505    14682.558    34786.271   -480.93565     -17685.7    84.299352 
   30000    1308.4385   -109.55933    1.1839027   -108.37543   -27331.621    4.4040562    4.4040562    4.4040562   -27331.621    -35907.65    -54494.49    8407.2756   -11261.802    11900.744    8159.2475    85.419803 
   30100     1828.539   -110.00937    1.6545005   -108.35487    4949.1516    4.4048365    4.4048365    4.4048365    4949.1516    9285.6922    -906.2613    6468.0238     4572.601   -5116.6361    10226.505    85.465213 
   30200    1444.2046   -109.66385    1.3067467    -108.3571   -6019.4442    4.3890083    4.3890083    4.3890083   -6019.4442   -50454.707   -4010.4311    36406.806    12598.127    7600.2567   -26643.834    84.547195 
   30300     1108.068   -109.36307    1.0026032   -108.36047    10077.442    4.3770555    4.3770555    4.3770555    10077.442   -21304.294    2658.8288     48877.79   -24343.326    14272.781    19361.227    83.858318 
   30400    1671.5156   -109.87907    1.5124225   -108.36665   -10363.726     4.396219     4.396219     4.396219   -10363.726    5851.7784   -25993.131   -10949.827    19022.847   -4157.9071    7365.2192    84.964586 
   30500    1567.7536   -109.78003    1.4185364   -108.36149   -23481.518    4.4081985    4.4081985    4.4081985   -23481.518    -45478.32   -30760.363    5794.1295   -22843.436    12297.302   -25803.768     85.66106 
   30600    1361.2525   -109.58309    1.2316899    -108.3514   -4519.9866    4.3955564    4.3955564    4.3955564   -4519.9866   -17310.086    18436.512   -14686.386   -13981.398   -459.60375    28899.662    84.926176 
   30700    1726.7625   -109.90761     1.562411    -108.3452    2333.8884    4.3878785    4.3878785    4.3878785    2333.8884    19721.338    -15882.13     3162.457   -3766.8198    1543.9966    13568.297    84.481922 
   30800    1086.5124   -109.34025   0.98309926   -108.35715    5418.6684    4.3927368    4.3927368    4.3927368    5418.6684    22542.445   -30349.658    24063.218   -21769.117   -1461.6388   -4759.0884    84.762849 
   30900    1409.7514   -109.63403    1.2755727   -108.35846   -14914.639    4.4028855    4.4028855    4.4028855   -14914.639    12841.436   -6694.1172   -50891.237   -6448.4642    938.25267    33049.592    85.351701 
   31000    2050.3404   -110.19742    1.8551911   -108.34222   -610.75078    4.4012551    4.4012551    4.4012551   -610.75078    20355.718    2986.2564   -25174.227    -12070.83   -3164.8358   -1534.7521    85.256918 
   31100    1218.9282   -109.46112    1.1029119   -108.35821     9795.368    4.3815081    4.3815081    4.3815081     9795.368   -3429.2598    17449.341    15366.022   -9838.4805     1116.578    28009.639    84.114496 
   31200    1295.6112   -109.54405    1.1722962   -108.37176    8800.1517    4.3859167    4.3859167    4.3859167    8800.1517    39972.953   -4878.6237   -8693.8738    5314.5925    2639.0863    10630.665    84.368656 
   31300     1658.554   -109.86588    1.5006945   -108.36519   -907.06787    4.4044743    4.4044743    4.4044743   -907.06787   -33096.731    12789.223    17586.305    -6000.337   -9861.2716   -1753.1562    85.444132 
   31400    1098.2834   -109.35937   0.99374993   -108.36562    1156.8631    4.4067396    4.4067396    4.4067396    1156.8631    21332.018    5859.1217    -23720.55   -8385.3383   -2022.1264    26790.073    85.576036 
   31500    1934.1055   -110.09311    1.7500193   -108.34309    10151.663    4.3944102    4.3944102    4.3944102    10151.663   -2795.7572    20981.045      12269.7    8173.5938    2977.7463   -14374.711    84.859756 
   31600     1059.786    -109.3153   0.95891667   -108.35638    14845.065    4.3823754    4.3823754    4.3823754    14845.065     10361.25    33.098036    34140.849   -26519.418   -16243.233    17930.949    84.164456 
   31700    1484.6782   -109.71546     1.343368   -108.37209   -17590.606    4.3956812    4.3956812    4.3956812   -17590.606   -342.68902   -58164.432    5735.3022    381.09948   -7647.3211    34306.667    84.933411 
   31800    2146.2442   -110.29849    1.9419668   -108.35652   -10629.657    4.4115225    4.4115225    4.4115225   -10629.657   -15199.293   -8377.1777   -8312.5008    3113.0557   -231.66418   -3101.3486    85.854983 
   31900    1215.0189   -109.45366    1.0993746   -108.35428   -24186.325    4.4126346    4.4126346    4.4126346   -24186.325   -20854.547   -3065.6521   -48638.776   -18273.747   -19024.979    35051.177    85.919926 
   32000    1751.9931   -109.91944    1.5852401    -108.3342    1649.6726    4.3966409    4.3966409    4.3966409    1649.6726    15497.253    6055.2342    -16603.47     8575.985   -3317.7686    7431.7509    84.989053 
   32100    1685.0918   -109.86028    1.5247065   -108.33557    8092.5736     4.386317     4.386317     4.386317    8092.5736    3134.3128    2944.9057    18198.502   -8410.2671    -523.3931    7226.5677    84.391758 
   32200    1265.8197   -109.50373    1.1453403   -108.35839   -3120.9304    4.4038968    4.4038968    4.4038968   -3120.9304   -14292.676    18000.057   -13070.172   -8316.2022   -16708.947    36438.158    85.410528 
   32300     1893.569   -110.04183    1.7133411   -108.32849    1151.4315    4.4153101    4.4153101    4.4153101    1151.4315   -2657.4632    12505.481   -6393.7234    4350.5323    2451.4194   -14634.151    86.076306 
   32400    903.16434    -109.1558   0.81720207   -108.33859   -7050.8048      4.39601      4.39601      4.39601   -7050.8048     16670.48   -43673.221    5850.3259    2244.6387   -5134.3362    35048.607    84.952469 
   32500    1810.7641   -109.97629    1.6384174   -108.33787    2500.3344    4.3900324    4.3900324    4.3900324    2500.3344    -6052.723   -37287.219    50840.945     1745.856   -8387.4308    5207.4139    84.606392 
   32600    1826.6926   -110.00091    1.6528299   -108.34808    3984.6953    4.4007161    4.4007161    4.4007161    3984.6953    8595.5316   -16906.709    20265.263    6920.4925    13824.695    19266.211      85.2256 
   32700    1262.6152     -109.499    1.1424408   -108.35656   -4649.9127    4.4063538    4.4063538    4.4063538   -4649.9127    27443.482   -31410.312   -9982.9085   -4943.2131   -4623.0782    31499.448    85.553562 
   32800    1978.6623   -110.12778    1.7903352   -108.33745   -26381.353    4.4193995    4.4193995    4.4193995   -26381.353    -14164.87   -19360.014   -45619.173   -6.2907824    78.312171   -10128.943    86.315701 
   32900    1276.1529   -109.49397      1.15469   -108.33928    -15239.91    4.4038625    4.4038625    4.4038625    -15239.91     33033.73   -38509.438   -40244.023   -4787.8718    19012.071    50688.802     85.40853 
   33000    1534.3786   -109.71856     1.388338   -108.33022    16957.495    4.3795731    4.3795731    4.3795731    16957.495    9130.3631    34354.325    7387.7971   -16205.988    -16337.95   -6649.6675    84.003106 
   33100    1425.6947    -109.6447    1.2899985    -108.3547    12667.281    4.3940878    4.3940878    4.3940878    12667.281    25652.302    27422.346   -15072.804    976.12436   -268.28937   -1511.7604     84.84108 
   33200    1080.9742   -109.33806   0.97808815   -108.35997   -3999.5313    4.4118058    4.4118058    4.4118058   -3999.5313    14640.849   -4746.6422   -21892.801   -25917.366   -1758.3908    22038.858    85.871524 
   33300    1593.6502   -109.77695    1.4419682   -108.33499    10703.251    4.4197782    4.4197782    4.4197782    10703.251    25727.868   -1.5755759    6383.4611   -10514.597   -14093.254   -15608.392    86.337888 
   33400    1247.3824   -109.45017    1.1286578   -108.32151    4089.0542    4.4092724    4.4092724    4.4092724    4089.0542   -3015.1362   -2026.5399    17308.839   -5986.0656    10455.694    19726.366    85.723679 
   33500    1192.6095   -109.40371    1.0790981   -108.32462    18316.808    4.3831466    4.3831466    4.3831466    18316.808   -12591.895    28573.355    38968.963   -30211.208   -23018.878   -3982.2904    84.208896 
   33600    1542.1255   -109.74711    1.3953476   -108.35177    28330.569    4.3922496    4.3922496    4.3922496    28330.569    39572.563    55894.389   -10475.244    4340.4489   -9641.9314    1668.7364    84.734651 
   33700    1226.7539   -109.47095    1.1099927   -108.36096   -21363.848    4.4171442    4.4171442    4.4171442   -21363.848    8349.6949   -46435.579   -26005.659   -32648.501    -1793.746    22550.002    86.183619 
   33800    1564.7814   -109.75604    1.4158471   -108.34019    2087.5346     4.402352     4.402352     4.402352    2087.5346   -7966.8725   -18299.345    32528.822   -10434.256    -34118.45   -6529.5714    85.320675 
   33900    1618.0025   -109.79239    1.4640026   -108.32839    5388.6726    4.3870757    4.3870757    4.3870757    5388.6726   -10216.909    7274.0414    19108.885    2947.8697   -10429.591    6337.1313    84.435558 
   34000    897.92658   -109.16561   0.81246284   -108.35315   -5792.4631    4.3960988    4.3960988    4.3960988   -5792.4631   -32120.512    7452.5874    7290.5353   -34212.592   -6588.6382    21139.772     84.95762 
   34100    2128.8124   -110.27055    1.9261942   -108.34436   -14731.775    4.4063514    4.4063514    4.4063514   -14731.775   -20666.033   -8636.4532   -14892.839    21754.866   -20253.807   -15131.273    85.553423 
   34200    1458.6623   -109.66529    1.3198283   -108.34546   -19690.773    4.4079256    4.4079256    4.4079256   -19690.773   -23888.585   -17727.654   -17456.081   -20255.392    7909.7705    23528.837    85.645151 
   34300    1248.2661   -109.46908    1.1294574   -108.33963    5581.6261    4.3977476    4.3977476    4.3977476    5581.6261   -33289.475     10604.61    39429.743   -14729.467    -14542.79    609.11172    85.053248 
   34400    1479.2993   -109.67842    1.3385011   -108.33992   -11823.216    4.3894254    4.3894254    4.3894254   -11823.216    15712.378   -14308.349   -36873.678    9524.6407   -4453.4646    25044.793    84.571304 
   34500    1393.3716    -109.6195    1.2607519   -108.35875    11354.243    4.3898474    4.3898474    4.3898474    11354.243    8717.1435   -15167.085    40512.669   -15943.764   -6924.5578    10039.614    84.595698 
   34600    1632.4331   -109.83168    1.4770598   -108.35462    1870.6252    4.4047872    4.4047872    4.4047872    1870.6252    483.08719    -2435.565    7564.3533   -10113.114   -3171.0558    6330.1165    85.462344 
   34700    1406.6446    -109.6202    1.2727616   -108.34743   -21356.863    4.3999927    4.3999927    4.3999927   -21356.863    -10794.54   -31367.699   -21908.351    -1718.995    4388.6101    34965.365    85.183575 
   34800    1684.8737   -109.85763    1.5245091   -108.33312    549.82535    4.3910991    4.3910991    4.3910991    549.82535   -20961.861    31320.946   -8709.6088    -14436.77    2509.6381   -10304.633    84.668083 
   34900     889.9254   -109.15723   0.80522321   -108.35201   -5352.0117    4.3980543    4.3980543    4.3980543   -5352.0117    22282.132   -20104.348   -18233.819    8740.6043   -13315.971    36147.703    85.071042 
   35000    1955.7645   -110.11565    1.7696168   -108.34604   -7476.4461    4.3930145    4.3930145    4.3930145   -7476.4461    22619.002   -25444.672   -19603.668     -9496.82    16632.098    9313.5461    84.778924 
   35100    1504.6132   -109.71574    1.3614056   -108.35433    16990.531    4.4012016    4.4012016    4.4012016    16990.531    27714.658     18465.38    4791.5541   -6151.4394     11907.64   -2806.6594     85.25381 
   35200    1317.2511   -109.55126    1.1918765   -108.35939   -31972.468    4.4053075    4.4053075    4.4053075   -31972.468   -27758.352   -27665.401    -40493.65    21706.492   -16626.743    24777.965    85.492629 
   35300     1612.778   -109.80286    1.4592754   -108.34359    29254.022    4.3842896    4.3842896    4.3842896    29254.022   -2817.6959    49464.134    41115.626    1127.7863     25384.55   -5127.1601    84.274794 
   35400    1300.2421   -109.54421    1.1764864   -108.36772   -7349.0209     4.400433     4.400433     4.400433   -7349.0209    19410.836   -9888.0309   -31569.868    16868.787   -2251.4442    26389.724    85.209153 
   35500    1627.1052   -109.82641     1.472239   -108.35417   -6595.2831    4.4018759    4.4018759    4.4018759   -6595.2831    5817.0004   -23500.153    -2102.697    18690.087   -6504.9422    15358.002       85.293 
   35600     1695.779   -109.87671    1.5343765   -108.34233    3677.0816    4.3940876    4.3940876    4.3940876    3677.0816   -1257.6456    48817.055   -36528.165    3788.1893    18830.884   -2718.0729    84.841068 
   35700    1018.6519   -109.27511   0.92169764   -108.35342   -21093.907     4.402869     4.402869     4.402869   -21093.907    22276.232   -41213.965   -44343.987    7005.4804   -11042.447    47172.612    85.350743 
   35800    1759.1251   -109.93994    1.5916933   -108.34825   -11121.454    4.3817971    4.3817971    4.3817971   -11121.454    -9354.066   -27547.719    3537.4228     9219.588    2590.1082   -1196.3443    84.131145 
   35900    1543.7626   -109.76565    1.3968288   -108.36882    4512.3086    4.3914968    4.3914968    4.3914968    4512.3086    26005.882   -19629.704    7160.7481    -2877.641    17610.281    8560.0666    84.691086 
   36000    1123.2829   -109.37629    1.0163699   -108.35992   -37488.863    4.4135407    4.4135407    4.4135407   -37488.863    4993.6804   -72501.874   -44958.396    7796.3479   -12802.465    44569.746    85.972867 
   36100    1659.8984   -109.84145     1.501911   -108.33954     12942.67    4.3907271    4.3907271    4.3907271     12942.67   -6710.3163    16909.865    28628.461   -142.36031    16012.236   -10311.948    84.646564 
   36200     1475.951   -109.68859    1.3354715   -108.35311     3387.611    4.3875811    4.3875811    4.3875811     3387.611    13359.175   -31275.763    28079.421   -1191.4997    24488.064    23456.784    84.464747 
   36300    1388.7583   -109.62453    1.2565777   -108.36795   -2617.4071    4.3962304    4.3962304    4.3962304   -2617.4071    380.85178   -33315.824    25082.751    15145.549   -19414.514     3229.576    84.965247 
   36400    1662.0749   -109.86568    1.5038803    -108.3618    1595.9503       4.4032       4.4032       4.4032    1595.9503   -5619.7403    3353.1081    7054.4831   -6989.3656     13145.56   -10070.299    85.369992 
   36500    1341.1618   -109.57296    1.2135114   -108.35944   -25402.144    4.3978858    4.3978858    4.3978858   -25402.144    12863.186   -40330.249    -48739.37   -1464.9014   -2312.4308    27640.504    85.061267 
   36600    1161.5768   -109.40377    1.0510191   -108.35275    44027.845    4.3819944    4.3819944    4.3819944    44027.845    15739.428    49428.946     66915.16    9651.0767   -15721.846    -6809.946    84.142511 
   36700    2119.7938   -110.27317     1.918034   -108.35514   -5001.5284    4.3956954    4.3956954    4.3956954   -5001.5284   -18589.728   -1880.7482    5465.8911    -7064.121    6328.0417    21472.604    84.934232 
   36800    692.73911   -108.99585   0.62680491   -108.36904    5687.6468    4.4048286    4.4048286    4.4048286    5687.6468    36390.166   -45633.681    26306.456    9573.8947   -19428.438    24902.116    85.464753 
   36900    2058.5682   -110.20815    1.8626358   -108.34551   -4609.6925    4.4039181    4.4039181    4.4039181   -4609.6925    9226.7745   -15334.263    -7721.589   -5142.6135    61.896311   -13926.381    85.411765 
   37000    1338.2436   -109.56974    1.2108709   -108.35887   -17285.334    4.3949473    4.3949473    4.3949473   -17285.334    5509.1238   -35675.002   -21690.125    1486.7567    1100.7765    26869.337    84.890873 
   37100    1406.8489    -109.6309    1.2729464   -108.35796    8852.6706    4.3807915    4.3807915    4.3807915    8852.6706    24282.796   -1.8781955    2277.0942   -11367.491   -12156.914    3330.7548    84.073236 
   37200    1813.4507   -110.00268    1.6408483   -108.36183   -47.281285    4.3995555    4.3995555    4.3995555   -47.281285   -3650.7281   -12440.905     15949.79    5283.6053    13199.471   -9894.5679    85.158188 
   37300    1170.2394   -109.41875    1.0588572   -108.35989   -4983.0325    4.4052694    4.4052694    4.4052694   -4983.0325    7955.1572   -52033.353    29129.099    3949.2033    6223.1168    25028.522    85.490415 
   37400    1800.3938   -109.97241    1.6290341   -108.34338    10508.454    4.3926126    4.3926126    4.3926126    10508.454   -6424.5899    2884.2921    35065.661   -15197.201   -19416.355   -5216.9869    84.755661 
   37500    1580.7805   -109.77795    1.4303234   -108.34763   -22908.064    4.4018932    4.4018932    4.4018932   -22908.064   -31515.042   -42508.814    5299.6639    24932.663    5929.7197    13628.511    85.294005 
   37600    1574.9644   -109.76472    1.4250609   -108.33966    -2031.813    4.4036145    4.4036145    4.4036145    -2031.813    22375.472    -41408.16    12937.249    928.22687   -18928.027    8152.9536    85.394105 
   37700    1652.9167   -109.83187    1.4955937   -108.33627   -4643.4128    4.3995237    4.3995237    4.3995237   -4643.4128    17406.139    -12385.99   -18950.387    7019.9424   -15061.357    1329.2998    85.156337 
   37800    1060.1185   -109.31434   0.95921749   -108.35512   -12229.596    4.3971298    4.3971298    4.3971298   -12229.596     58886.08   -59759.809   -35815.058    12807.178    11360.363    21436.595    85.017408 
   37900    1975.4673   -110.13761    1.7874443   -108.35017    15491.167     4.398074     4.398074     4.398074    15491.167    38155.159    63.019075    8255.3237   -6951.8715    2748.5606   -8753.9974    85.072187 
   38000    1568.5279   -109.77839     1.419237   -108.35915    4074.7083    4.3950443    4.3950443    4.3950443    4074.7083    -3282.191    -10211.45    25717.766    19816.611    9775.0687    16813.722    84.896495 
   38100    1095.3658   -109.35941   0.99110997    -108.3683   -6205.5405    4.3946645    4.3946645    4.3946645   -6205.5405   -3174.0348   -53848.141    38405.554    4424.2561    19613.599    13407.107    84.874487 
   38200    1805.1235   -109.98739    1.6333137   -108.35408    12767.023    4.3997019    4.3997019    4.3997019    12767.023   -21796.441    27499.381     32598.13     2880.853   -8422.6817   -9239.7386    85.166689 
   38300    1211.6539   -109.45526    1.0963299   -108.35893   -15731.364    4.4040858    4.4040858    4.4040858   -15731.364   -42049.834   -24920.148     19775.89    27062.442    11192.647     20469.01    85.421524 
   38400    1729.5612   -109.91173    1.5649433   -108.34679    2171.3683    4.3933388    4.3933388    4.3933388    2171.3683     11651.07   -24943.231    19806.266   -10483.372     -4448.62    5352.6203    84.797702 
   38500    1610.1909   -109.80648    1.4569346   -108.34955    21752.376    4.3861777    4.3861777    4.3861777    21752.376    2737.8809    23449.728     39069.52    14591.604   -12743.275   -4238.2244    84.383718 
   38600    1042.2962   -109.31468   0.94309149   -108.37159   -17036.868    4.4029527    4.4029527    4.4029527   -17036.868    25447.861   -47891.221   -28667.244    3317.1315    5446.0846    26398.703    85.355609 
   38700    1765.5683   -109.94667    1.5975233   -108.34915    -5827.403    4.4124718    4.4124718    4.4124718    -5827.403    11587.106     17814.87   -46884.185     2136.286    1122.7459    3094.8187    85.910417 
   38800      1419.37    -109.6261    1.2842758   -108.34182   -5004.6644    4.4076188    4.4076188    4.4076188   -5004.6644    43865.904   -32842.414   -26037.483    29114.544   -7274.9471    12425.391    85.627268 
   38900    1532.1251   -109.72237     1.386299   -108.33607   -3499.3044    4.3994934    4.3994934    4.3994934   -3499.3044     44667.01   -34436.875   -20728.049   -3396.1316    20941.164    22552.083    85.154579 
   39000    1471.5451   -109.67061    1.3314849   -108.33912    21734.313     4.395724     4.395724     4.395724    21734.313    12111.097     21188.13    31903.712    24601.921    11193.013   -5764.1582     84.93589 
   39100    1060.6032   -109.31439   0.95965604   -108.35473   -3853.7052    4.4115364    4.4115364    4.4115364   -3853.7052   -3316.3718   -20881.777    12637.033     13468.79    6659.3148    33885.197     85.85579 
   39200    1954.2174   -110.10054     1.768217   -108.33233   -4344.9665    4.4118941    4.4118941    4.4118941   -4344.9665   -22768.331   -9287.2786     19020.71   -2578.0167    14163.788   -8205.2416    85.876679 
   39300    1391.0383   -109.59993    1.2586407   -108.34129    25359.931    4.3811218    4.3811218    4.3811218    25359.931     1876.956    16931.269    57271.569    10964.495    -3160.246    16440.066    84.092252 
   39400    1572.0551   -109.78114    1.4224285   -108.35871   -8419.4176    4.3900172    4.3900172    4.3900172   -8419.4176    -10925.32   -25467.993    11135.061    4295.2755   -9397.7413    32473.219    84.605511 
   39500    2294.1056   -110.42664     2.075755   -108.35089   -6215.9631    4.4069556    4.4069556    4.4069556   -6215.9631   -20705.892   -12762.159    14820.161   -1501.0259   -3372.2981   -14655.304    85.588618 
   39600    687.35151   -108.98653   0.62193009    -108.3646   -20230.658     4.405982     4.405982     4.405982   -20230.658   -27071.637    94.544212   -33714.882     14193.48   -24518.122    33629.018    85.531905 
   39700    1611.7873   -109.80772     1.458379   -108.34934     7796.466    4.3905716    4.3905716    4.3905716     7796.466   -12983.379    15514.935    20857.842     4580.761   -8362.4586   -8915.1619    84.637573 
   39800    2062.8704   -110.21424    1.8665285   -108.34772     15721.26    4.3816155    4.3816155    4.3816155     15721.26   -1911.2886   -22849.709    71924.777    7800.1379    586.69948    19560.769    84.120684 
   39900     1351.255   -109.60373    1.2226439   -108.38108    -21341.19    4.3943315    4.3943315    4.3943315    -21341.19   -3951.8426   -35030.262   -25041.465    20442.783   -5591.5117    44607.853    84.855199 
   40000    1772.4758   -109.96529    1.6037734   -108.36152    10715.424    4.4042351    4.4042351    4.4042351    10715.424    13290.213    7222.6978    11633.363   -1052.8628    6849.6082   -9251.8104    85.430213 
   40100     1074.713   -109.32915   0.97242294   -108.35673   -37417.512    4.4104167    4.4104167    4.4104167   -37417.512   -16977.799   -64467.501   -30807.236    18251.973   -3736.6099    35493.676    85.790434 
   40200    1536.0109   -109.73389     1.389815   -108.34408    6496.4623     4.390949     4.390949     4.390949    6496.4623    17041.083   -4101.4986    6549.8031     15549.79   -8350.8989    12435.406    84.659396 
   40300    1951.0355    -110.1118    1.7653379   -108.34646    25335.013     4.385882     4.385882     4.385882    25335.013    43166.011    9824.4195    23014.608   -14609.821   -90.172406    1759.8759    84.366655 
   40400     1492.548   -109.71933    1.3504888   -108.36884   -12539.639    4.3949353    4.3949353    4.3949353   -12539.639    19202.432   -36642.039   -20179.308    16983.336    -8702.239    27616.483     84.89018 
   40500    1481.8028   -109.69949    1.3407663   -108.35873    15927.031    4.3906538    4.3906538    4.3906538    15927.031    11509.009    14661.976    21610.108    17989.795   -3423.7143    -12190.86    84.642322 
   40600    1166.3086   -109.41579    1.0553005   -108.36049   -1079.0611    4.3988548    4.3988548    4.3988548   -1079.0611    4986.0756    -11384.13    3160.8714    1531.8868     10825.57    23909.758    85.117502 
   40700    1227.4731    -109.4686    1.1106435   -108.35795    8791.9694    4.3980576    4.3980576    4.3980576    8791.9694     58904.92   -33352.016    823.00407    48234.124   -1010.6454    1395.3655    85.071234 
   40800    1668.4005    -109.8637    1.5096038    -108.3541    13654.442    4.3920796    4.3920796    4.3920796    13654.442    21777.534     16896.17    2289.6229    290.85812    11884.496     1554.941    84.724809 
   40900    1540.8136   -109.75067    1.3941606   -108.35651    6103.5605    4.4015307    4.4015307    4.4015307    6103.5605    34268.685   -9330.1313   -6627.8717    18678.057   -3836.5225    15499.216    85.272934 
   41000    1207.3997   -109.44057    1.0924806   -108.34809   -26956.517     4.410393     4.410393     4.410393   -26956.517   -64188.886   -12295.289   -4385.3753    15035.972   -5493.4737   -9807.0198    85.789052 
   41100    1464.7234   -109.66351    1.3253125   -108.33819   -15815.147    4.3970496    4.3970496    4.3970496   -15815.147   -33499.503    3889.0954   -17835.032   -28107.607    11379.746     16143.41    85.012754 
   41200    1678.1126   -109.85467    1.5183915   -108.33628   -1283.0242     4.383374     4.383374     4.383374   -1283.0242   -243.85122   -20112.017    16506.796    36352.278   -8245.0613    9213.3226    84.222009 
   41300    1872.2819   -110.04147      1.69408   -108.34739   -9808.0752     4.399697     4.399697     4.399697   -9808.0752    15561.176   -30644.386   -14341.015    -21022.11    3647.1052   -1665.0035    85.166403 
   41400    1313.1702   -109.53526     1.188184   -108.34707   -10181.534    4.4043799    4.4043799    4.4043799   -10181.534     10561.85   -43647.738    2541.2848    9345.2139    10117.642      8983.52    85.438636 
   41500    1212.7264   -109.44392    1.0973003   -108.34662    2211.4167    4.3889809    4.3889809    4.3889809    2211.4167   -39769.255    11091.551    35311.954    48226.539   -5520.8142   -7864.4533    84.545612 
   41600    1499.5091   -109.70907    1.3567874   -108.35228    20135.896     4.390039     4.390039     4.390039    20135.896        23787    41028.505   -4407.8188   -35319.942    4757.0084    3102.0619    84.606773 
   41700    1451.4491   -109.67707    1.3133017   -108.36377    -527.5065    4.3919246    4.3919246    4.3919246    -527.5065   -25826.549    3437.9856    20806.044    56909.711    6710.1608    7378.8205    84.715842 
   41800    1915.4665   -110.08947    1.7331543   -108.35631    14498.777    4.4001731    4.4001731    4.4001731    14498.777    14979.064    3336.2298    25181.037    4745.6213   -8331.0403   -12404.347    85.194056 
   41900    1234.3735   -109.47028    1.1168871    -108.3534   -24214.986     4.406597     4.406597     4.406597   -24214.986       -33715   -48076.009    9146.0495     6269.575   -8385.6618   -8.8802841    85.567729 
   42000    1317.1673   -109.53315    1.1918007   -108.34134   -13600.528    4.3862815    4.3862815    4.3862815   -13600.528    -39146.53   -7370.1275    5715.0747    49200.331     5559.611    9763.9624    84.389712 
   42100     1959.612   -110.11607    1.7730981   -108.34297    26175.317    4.3864611    4.3864611    4.3864611    26175.317    27920.859    61272.855   -10667.762   -15047.125    7969.3359   -6504.8274    84.400076 
   42200     1084.852   -109.34682   0.98159689   -108.36522   -4458.5263    4.4037445    4.4037445    4.4037445   -4458.5263   -32520.992    -1948.012    21093.425    54287.946   -6051.6124    6547.6964    85.401667 
   42300     1574.521   -109.76596    1.4246597    -108.3413   -6905.6211     4.407419     4.407419     4.407419   -6905.6211   -33359.904    27567.705   -14924.664    5156.2365    3272.0293    6413.2633    85.615623 
   42400    1379.7933   -109.58489    1.2484659   -108.33643   -5828.0069    4.3933323    4.3933323    4.3933323   -5828.0069   -18842.175    6526.1288   -5167.9744     42775.14    3379.0697   -2628.8259    84.797324 
   42500    1128.5062   -109.37206    1.0210961   -108.35096     19206.59    4.3942946    4.3942946    4.3942946     19206.59     42518.69   -14080.514    29181.594    21842.719    6725.2796    7524.4902    84.853058 
   42600    1824.6389   -109.99607    1.6509716    -108.3451   -2067.8666    4.4053941    4.4053941    4.4053941   -2067.8666    18247.533   -1387.7425   -23063.391   -5067.4207    9977.3552   -10212.634    85.497675 
   42700    1281.1032   -109.50064    1.1591691   -108.34147     11.94746     4.403031     4.403031     4.403031     11.94746    22276.327   -23621.062    1380.5773    52909.109   -4592.9446    727.76523    85.360162 
   42800    1729.4628   -109.89524    1.5648543   -108.33038   -15481.233    4.3985694    4.3985694    4.3985694   -15481.233   -20943.566   -15021.602   -10478.531   -28787.659   -6362.9442    312.81228    85.100936 
   42900    1057.1977   -109.29751   0.95657468   -108.34093    7090.3321    4.3927404    4.3927404    4.3927404    7090.3321   -10933.237   -20350.805    52555.038    26962.521    15546.212   -8514.9038    84.763056 
   43000     1971.357   -110.12762    1.7837252   -108.34389   -27263.424    4.3981099    4.3981099    4.3981099   -27263.424    -25962.31   -39237.749   -16590.213     18667.88   -10520.308   -3297.9643    85.074271 
   43100    1329.3284   -109.55375    1.2028043   -108.35095   -17358.241     4.403717     4.403717     4.403717   -17358.241    35817.633   -41140.103   -46752.254   -25472.067   -3270.0013   -4706.3161    85.400064 
   43200    1537.1953   -109.73549    1.3908866    -108.3446   -16742.645    4.4013604    4.4013604    4.4013604   -16742.645   -52111.777   -31774.015    33657.857    32923.681    17119.499   -3225.8824    85.263039 
   43300    1500.7987    -109.7018    1.3579542   -108.34385    14996.532    4.3860162    4.3860162    4.3860162    14996.532    54842.624   -25482.462    15629.433   -7539.1886   -10321.765   -4049.1443    84.374397 
   43400    1151.2604   -109.41198    1.0416846   -108.37029   -6195.6783    4.3889129    4.3889129    4.3889129   -6195.6783   -15734.025   -33205.387    30352.377   -12729.297   -9073.5609   -3005.7838    84.541684 
   43500    2116.1468   -110.26896    1.9147341   -108.35422   -11619.344    4.4061448    4.4061448    4.4061448   -11619.344    9132.2112   -14269.579   -29720.664    26742.961    -6299.842    2925.2635    85.541389 
   43600    982.36644   -109.24871    0.8888658   -108.35984   -23938.135    4.3976492    4.3976492    4.3976492   -23938.135    24168.536   -45281.158   -50701.784   -19903.672    1874.8768   -7748.6542    85.047541 
   43700    1815.4583   -109.99009    1.6426649   -108.34743    5989.3815    4.3926449    4.3926449    4.3926449    5989.3815   -8872.2344    21211.355     5629.024    6178.8301   -10965.589   -1537.0024     84.75753 
   43800    1479.6468   -109.68811    1.3388155   -108.34929    3319.8328    4.4015902    4.4015902    4.4015902    3319.8328    59910.089   -30445.663   -19504.928    8393.0223   -1589.8399    366.69542     85.27639 
   43900    1154.7465   -109.40397    1.0448389   -108.35913   -21278.077    4.3996372    4.3996372    4.3996372   -21278.077    -3793.702   -21387.286   -38653.244   -15648.236     2355.822   -10192.696    85.162928 
   44000    1847.1886    -110.0117     1.671375   -108.34032     32918.05    4.3897116    4.3897116    4.3897116     32918.05    49543.369    53965.318   -4754.5356    14279.667   -4296.1138   -5749.2199    84.587846 
   44100    1147.7019   -109.39685    1.0384648   -108.35838    5303.7922    4.3895333    4.3895333    4.3895333    5303.7922    37552.686   -15438.217   -6203.0926   -12641.636    1936.7051   -9329.3993    84.577539 
   44200    1862.2913   -110.02699    1.6850403   -108.34195    -6615.203    4.4083516    4.4083516    4.4083516    -6615.203   -17579.634    15823.271   -18089.245    470.86759    11114.645    -557.9335    85.669982 
   44300    1294.6687   -109.50819    1.1714434   -108.33675   -12707.311    4.4051336    4.4051336    4.4051336   -12707.311   -5178.7495   -34033.422    1090.2385    18316.913     9176.981   -18172.246    85.482505 
   44400    1521.5094   -109.70437    1.3766937   -108.32767    10698.068    4.3784362    4.3784362    4.3784362    10698.068    26974.926   -20765.592     25884.87   -24530.598   -4369.8335   -7663.7074      83.9377 
   44500    1425.9367   -109.63249    1.2902175   -108.34227    15421.963     4.381161     4.381161     4.381161    15421.963    8980.3806    9891.7066    27393.802    16508.831    2072.7309   -20.497752    84.094509 
   44600    1233.8129   -109.48511    1.1163799   -108.36873    -18830.04     4.406264     4.406264     4.406264    -18830.04   -21822.011   -42257.377    7589.2685    5925.2781   -1122.9725   -5390.2543    85.548331 
   44700    1946.6976   -110.10645    1.7614129   -108.34504   -4592.9105    4.4086009    4.4086009    4.4086009   -4592.9105   -2730.3635   -41989.108     30940.74   -10802.328   -12178.825   -2049.4961     85.68452 
   44800    1198.7802   -109.42896    1.0846815   -108.34428   -7909.2803      4.39766      4.39766      4.39766   -7909.2803    19467.201    -49179.81    5984.7688    26448.652   -2053.2946   -739.44065    85.048162 
   44900    1908.5967   -110.06543    1.7269384   -108.33849   -17942.826    4.4016529    4.4016529    4.4016529   -17942.826    9594.2621     -30586.5    -32836.24   -18203.843    2613.9432   -8231.7874    85.280034 
   45000    1321.9287   -109.53152    1.1961089   -108.33541   -472.63421    4.4101874    4.4101874    4.4101874   -472.63421    22299.652   -2944.6863   -20772.868    27376.935    12645.901    8635.4735    85.777058 
   45100    1663.7687   -109.83499    1.5054129   -108.32958   -27041.862    4.4135918    4.4135918    4.4135918   -27041.862   -40598.363   -22054.193   -18473.031    9441.4511    19784.614   -10496.301    85.975854 
   45200    2123.2196   -110.24413    1.9211337     -108.323    1673.6815    4.3965873    4.3965873    4.3965873    1673.6815    17578.038   -36828.524    24271.531   -2283.3261   -1670.4579    11504.123    84.985946 
   45300    1250.2965   -109.46366    1.1312946   -108.33236    26686.727    4.3793526    4.3793526    4.3793526    26686.727    37732.787    25294.821    17032.572    34906.832     19906.98    1358.0542    83.990416 
   45400    1762.6247   -109.94353    1.5948599   -108.34867    26871.091    4.4038518    4.4038518    4.4038518    26871.091    30711.662    4111.8296    45789.782     -5451.99    -2088.048   -9722.8922    85.407907 
   45500    1507.4943   -109.70705    1.3640125   -108.34304   -34374.036    4.4213157    4.4213157    4.4213157   -34374.036   -26416.633   -68480.971   -8224.5044    37309.931     3731.322    14760.968    86.428021 
   45600    1375.6041   -109.58045    1.2446755   -108.33578    6162.5612    4.3963434    4.3963434    4.3963434    6162.5612    1313.8074   -4094.3537     21268.23    3707.3742    8080.2662   -996.90097    84.971801 
   45700    2119.7848   -110.24029    1.9180258   -108.32226    32179.441    4.3776192    4.3776192    4.3776192    32179.441      43948.4    1341.3241    51248.598     10714.22   -15773.836   -701.11207    83.890725 
   45800    1141.5691    -109.3956    1.0329157   -108.36269   -15804.858    4.3916107    4.3916107    4.3916107   -15804.858    2731.4954    -40358.86   -9787.2095    27176.499    17745.477    26029.049    84.697677 
   45900    1589.6915   -109.78748    1.4383862    -108.3491    -1953.527    4.4082079    4.4082079    4.4082079    -1953.527   -30637.474   -3059.8654    27836.758    -7014.863    793.67806    2837.5263    85.661602 
   46000    1227.7272   -109.45926    1.1108734   -108.34839   -18259.228    4.4065086    4.4065086    4.4065086   -18259.228   -2323.7573   -60467.002    8013.0759    29376.256   -4271.7661    2047.3692    85.562576 
   46100    1512.8108    -109.7158     1.368823   -108.34698    1555.2672    4.3941521    4.3941521    4.3941521    1555.2672   -2728.9148   -14362.919    21757.635    7128.6406    24060.187    16915.639    84.844808 
   46200    2152.0792   -110.29217    1.9472464   -108.34492    6084.1206    4.3866358    4.3866358    4.3866358    6084.1206    7929.4861    5255.6273    5067.2483   -1066.3059   -7173.0043   -20123.649    84.410161 
   46300    1143.3671    -109.4032    1.0345426   -108.36866    4026.4342    4.3899886    4.3899886    4.3899886    4026.4342   -10650.358   -30690.786    53420.447     16216.22    1787.6248    4851.2086    84.603862 
   46400    1675.1381   -109.87414    1.5157002   -108.35844   -5564.4617    4.4092699    4.4092699    4.4092699   -5564.4617    -18706.58    20661.901   -18648.706   -5528.0392    20444.465   -2219.2598    85.723531 
   46500    1075.9205   -109.33533   0.97351547   -108.36182   -9948.7514    4.4008261    4.4008261    4.4008261   -9948.7514   -20801.884   -46378.973    37334.602    12352.873   -13255.786   -14146.825    85.231989 
   46600    2017.5418   -110.17041    1.8255143    -108.3449    13690.085    4.3792972    4.3792972    4.3792972    13690.085   -448.14388    18319.988    23198.411    2164.3028    22476.581    8582.1188    83.987228 
   46700    1689.7023   -109.87838    1.5288781   -108.34951    17348.701    4.3935163    4.3935163    4.3935163    17348.701   -3314.5642    5909.7283    49450.939    82.104044   -5861.6766   -1708.1343    84.807982 
   46800    1040.2424   -109.29773   0.94123322    -108.3565   -38140.904    4.4052907    4.4052907    4.4052907   -38140.904   -54655.211   -66995.034    7227.5321    23772.013    -3103.021    -7177.157    85.491653 
   46900    1893.8657   -110.04778    1.7136095   -108.33417    7792.6858     4.405927     4.405927     4.405927    7792.6858    11792.123    2269.5835     9316.351   -4422.2871    6024.1114    1593.7395    85.528702 
   47000     1207.376   -109.44505    1.0924592   -108.35259   -21431.027    4.3939977    4.3939977    4.3939977   -21431.027   -11709.825   -53964.407    1381.1517    12947.102   -10473.672   -7374.2793    84.835859 
   47100    1569.6265   -109.77417    1.4202311   -108.35394    33292.647    4.3761823    4.3761823    4.3761823    33292.647    20426.553    29977.422    49473.965    24175.179    933.64101    -10236.72    83.808142 
   47200    1981.4567   -110.15476    1.7928636    -108.3619   -4938.0924    4.3952048    4.3952048    4.3952048   -4938.0924    6002.6901    1718.7144   -22535.682   -13124.299   -7243.4864    9981.7877      84.9058 
   47300    883.06314   -109.16567   0.79901408   -108.36665   -14889.547     4.400776     4.400776     4.400776   -14889.547    -24134.72   -44997.997    24464.075    19106.022    1938.4298   -7275.4369    85.229076 
   47400    1839.7515   -110.01317    1.6646459   -108.34852    3962.2128    4.3991632    4.3991632    4.3991632    3962.2128    3853.7714    11489.126   -3456.2595   -2365.5741    -5821.074   -258.00216    85.135411 
   47500    1508.5084   -109.71997    1.3649301   -108.35504   -11046.996    4.3956727    4.3956727    4.3956727   -11046.996   -17887.503   -21273.877    6020.3922    11286.299   -392.91398    14372.118    84.932916 
   47600    1427.8251    -109.6474    1.2919261   -108.35548    14458.566    4.3869397    4.3869397    4.3869397    14458.566   -40005.988    58162.663    25219.023    19634.078   -1294.1552   -17490.807    84.427704 
   47700    1696.8025    -109.8907    1.5353026    -108.3554   -6145.7328    4.3951648    4.3951648    4.3951648   -6145.7328    2775.1528   -3539.2561   -17673.095   -12270.902    6633.0683    23610.324     84.90348 
   47800    1135.0827   -109.38632    1.0270467   -108.35927    2189.3138    4.3914739    4.3914739    4.3914739    2189.3138   -18660.815     2344.011    22884.746    21654.204    2657.5033   -2669.0139    84.689763 
   47900    1847.2464   -110.03029    1.6714274   -108.35886    2439.4248    4.3940801    4.3940801    4.3940801    2439.4248    14380.987   -25725.309    18662.596    12381.686    8719.2791     -5900.15    84.840633 
   48000    1470.1016   -109.69306    1.3301788   -108.36288    2055.2827    4.3928525    4.3928525    4.3928525    2055.2827    -10170.05    42049.967   -25714.068   -2812.4719    16271.054    24954.517    84.769548 
   48100    1325.3779   -109.56455    1.1992298   -108.36532    849.18193    4.3868984    4.3868984    4.3868984    849.18193   -38479.442    4443.0871    36583.901    28310.902   -4152.6562   -1053.6558    84.425324 
   48200    1682.6368   -109.87816    1.5224851   -108.35568     7641.923    4.3936414    4.3936414    4.3936414     7641.923    5367.1986    16058.794    1499.7758   -3732.3706    16989.752    7395.3234    84.815228 
   48300    1362.5182    -109.5986    1.2328351   -108.36577    -7829.221    4.3952763    4.3952763    4.3952763    -7829.221     24102.31   -36900.505   -10689.468    17542.663    9188.3634    22732.387    84.909943 
   48400    1832.2795   -110.02838     1.657885    -108.3705   -4350.5272    4.3993938    4.3993938    4.3993938   -4350.5272    -16233.25   -17022.362     20204.03    22943.456   -6797.6158   -2523.4901    85.148794 
   48500    1590.0171    -109.8049    1.4386809   -108.36622     10569.22    4.3958129    4.3958129    4.3958129     10569.22    26022.466    7989.6173   -2304.4224    3132.2287     9323.409    11982.489    84.941044 
   48600    957.66933   -109.23641   0.86651934   -108.36989   -10541.477    4.4017509    4.4017509    4.4017509   -10541.477   -2324.5271   -49441.628    20141.724    34622.942   -5185.3562    8178.1101    85.285731 
   48700    2163.7975   -110.30439    1.9578494   -108.34655    4739.4663    4.3935515    4.3935515    4.3935515    4739.4663   -5574.2409     6554.905    13237.735    3341.4699    574.43356   -10460.692    84.810017 
   48800    1243.3168   -109.49028    1.1249792    -108.3653    -286.0821    4.3936571    4.3936571    4.3936571    -286.0821    24160.015   -48929.388    23911.127    25338.203   -2846.8799    19758.627    84.816136 
   48900    1217.6059   -109.47542    1.1017154    -108.3737   -30537.065    4.4002532    4.4002532    4.4002532   -30537.065   -66430.006    -37144.96     11963.77    40703.395   -955.78758     1751.636    85.198709 
   49000    1887.8524   -110.06515    1.7081685   -108.35698    11482.473    4.3849508    4.3849508    4.3849508    11482.473   -16284.271    25991.118    24740.573   -7650.4404   -14757.297    214.55823    84.312929 
   49100    1243.1448   -109.50279    1.1248235   -108.37796   -38639.021    4.4052423    4.4052423    4.4052423   -38639.021   -39281.391   -82498.373    5862.7008    50583.215    5229.8576    19696.816    85.488834 
   49200    1656.5126   -109.85432    1.4988474   -108.35548   -8103.5422      4.40287      4.40287      4.40287   -8103.5422    -5934.307    -1980.538   -16395.782   -1468.4613   -7731.4016     11072.04    85.350796 
   49300     1386.417   -109.60783    1.2544592   -108.35337    18824.433    4.3849551    4.3849551    4.3849551    18824.433   -10753.778     48279.23    18947.847    9990.1288   -2221.8479   -9539.2105    84.313175 
   49400    1016.1852   -109.29241   0.91946571   -108.37295   -30866.804    4.4064617    4.4064617    4.4064617   -30866.804   -27031.081   -30501.144   -35068.186    35546.451    4974.1857     39131.77    85.559848 
   49500    2198.9448   -110.34256    1.9896515   -108.35291    393.23351    4.3967511    4.3967511    4.3967511    393.23351   -8267.9336    8854.6104    593.02373   -20497.871   -6918.4071    6804.8576    84.995443 
   49600    1262.0545   -109.51759    1.1419334   -108.37566   -2847.3137     4.397123     4.397123     4.397123   -2847.3137   -12434.619   -14699.807    18592.485    32658.886   -1520.2555   -8376.7431    85.017013 
   49700    1301.9309   -109.54828    1.1780144   -108.37026   -18992.911    4.4043036    4.4043036    4.4043036   -18992.911    -32295.09    18114.485   -42798.127   -5706.8934    18784.423    18394.569      85.4342 
   49800     1512.614   -109.72315    1.3686449   -108.35451   -5567.1315    4.4121203    4.4121203    4.4121203   -5567.1315   -33027.406    21502.371   -5176.3588    6831.8901   -10129.218   -13505.204    85.889888 
   49900    1531.3389   -109.73341    1.3855876   -108.34782   -32664.445    4.4095623    4.4095623    4.4095623   -32664.445   -49931.127     -54113.3    6051.0924    34240.047   -3956.0241    10267.909    85.740587 
   50000    1474.4311    -109.6768    1.3340962   -108.34271    34538.443    4.3932702    4.3932702    4.3932702    34538.443    62915.223    34352.908    6347.1979   -20968.575    24722.272    9772.9792    84.793731 
   50100     1648.601   -109.84776    1.4916888   -108.35607    135.71285    4.3944389    4.3944389    4.3944389    135.71285   -20640.422    -32430.22     53477.78    34895.478   -11328.627   -3405.3319    84.861417 
   50200    1206.5242   -109.46289    1.0916885    -108.3712   -152.13429    4.4037193    4.4037193    4.4037193   -152.13429    9008.4034    270.83808   -9735.6444    6255.2375    692.05855     22475.94    85.400199 
   50300    1530.3948   -109.75094    1.3847333   -108.36621   -22585.336    4.4149654    4.4149654    4.4149654   -22585.336    -28022.66   -23529.373   -16203.974    -1796.239    13949.454    786.71969    86.056147 
   50400    1483.8466   -109.70186    1.3426156   -108.35925    3429.1055    4.3974737    4.3974737    4.3974737    3429.1055    -15540.51   -18313.493     44141.32    21924.214   -15935.062    11930.525    85.037358 
   50500    1863.2291   -110.03633    1.6858888   -108.35044    5854.6394    4.3963426    4.3963426    4.3963426    5854.6394    30922.354    13050.032   -26408.468    940.38767    2875.1769     22843.44    84.971755 
   50600    1510.1346   -109.71614    1.3664016   -108.34974   -26421.036    4.4131355    4.4131355    4.4131355   -26421.036    -47764.29   -22154.157   -9344.6604    18074.136    12387.818   -2885.9581     85.94919 
   50700    779.76323   -109.05195   0.70554616    -108.3464    18036.887    4.4096048    4.4096048    4.4096048    18036.887    13283.359    27311.461    13515.841    17338.231   -9985.4853    16132.273    85.743065 
   50800    2328.0239   -110.43487     2.106445   -108.32843   -460.06679    4.4107396    4.4107396    4.4107396   -460.06679    9751.8921   -13091.658    1959.5652    6443.0323    12718.067    12896.585    85.809282 
   50900    1168.8462   -109.40213    1.0575966   -108.34454    4603.3616     4.407762     4.407762     4.407762    4603.3616   -2337.1708    13583.234    2564.0211    29466.996   -11763.822   -4455.6678    85.635615 
   51000    1118.4717   -109.36189    1.0120167   -108.34988    11949.129    4.3984064    4.3984064    4.3984064    11949.129    16763.516   -21634.735    40718.607    4366.5711   -2446.1884    17286.365    85.091476 
   51100    1652.1158   -109.85023    1.4948691   -108.35536    6309.8565    4.4091748    4.4091748    4.4091748    6309.8565   -16149.014    3198.0817    31880.501    6925.4811    7362.0007   -9984.9298    85.717987 
   51200    1429.4285   -109.65327    1.2933769   -108.35989   -2935.3386    4.4099663    4.4099663    4.4099663   -2935.3386   -4563.4652    11478.647   -15721.197    19782.417   -8862.1471    5426.3192    85.764155 
   51300    1472.9237   -109.68443    1.3327323    -108.3517    9195.6588    4.4093173    4.4093173    4.4093173    9195.6588    11591.485   -24451.748     40447.24   -37233.629    2252.4701    17800.137    85.726297 
   51400    1679.5331   -109.86348    1.5196768    -108.3438   -7363.9594    4.4031431    4.4031431    4.4031431   -7363.9594   -21234.839   -7480.8338    6623.7946    12669.481   -77.979052   -3732.7561    85.366679 
   51500    1059.5238   -109.31493   0.95867939   -108.35625   -10906.728    4.4051232    4.4051232    4.4051232   -10906.728   -30227.734    -9975.143    7482.6924    604.83883   -27397.829    24997.433    85.481903 
   51600    1779.3227   -109.95245    1.6099685   -108.34248    5082.5757    4.4168286    4.4168286    4.4168286    5082.5757    961.80494   -21030.059    35315.981    -26641.44    907.11724   -6470.1551    86.165148 
   51700    1819.5247   -109.98677    1.6463442   -108.34043   -18146.318    4.4044568    4.4044568    4.4044568   -18146.318    3567.4436    -22890.49   -35115.906    19562.747      5114.92    18008.788    85.443116 
   51800    997.57717   -109.25335   0.90262878   -108.35072   -335.83415     4.396865     4.396865     4.396865   -335.83415   -25647.925    14085.574    10554.848   -17301.951   -17989.741    15131.554    85.002048 
   51900    1510.7076   -109.71715      1.36692   -108.35023    917.86496    4.4132021    4.4132021    4.4132021    917.86496   -10429.168   -21898.722    35081.484   -2906.5777    4612.0865    3093.4775    85.953083 
   52000    1530.8052   -109.72884    1.3851047   -108.34374   -12398.052    4.4080929    4.4080929    4.4080929   -12398.052   -15405.461     1334.243   -23122.938    15806.564    5337.5105    33868.546    85.654903 
   52100    1698.2038    -109.8799    1.5365705   -108.34333   -4545.7187    4.4065922    4.4065922    4.4065922   -4545.7187   -50918.284     15372.19    21908.938   -20282.469   -7409.2811    12783.641    85.567452 
   52200     1344.102   -109.56148    1.2161717   -108.34531   -5030.0877    4.4140661    4.4140661    4.4140661   -5030.0877   -20608.061    -2258.939    7776.7371   -1181.7233    8482.7047    19300.321    86.003575 
   52300    1339.1758   -109.55669    1.2117144   -108.34498    -15603.14      4.39795      4.39795      4.39795    -15603.14   -1652.9088   -10338.273   -34818.239    1739.3765   -9064.9982    32322.954    85.064989 
   52400    1866.2619   -110.04638     1.688633   -108.35775   -6475.5645    4.4034843    4.4034843    4.4034843   -6475.5645   -39345.488    14079.211    5839.5834   -38962.186    11640.862   -8375.2009    85.386528 
   52500    1626.0891   -109.82883    1.4713196   -108.35752   -28849.096    4.4210823    4.4210823    4.4210823   -28849.096    14772.074   -52662.817   -48656.543    15219.427    4869.6386    30268.254    86.414334 
   52600    1265.8013   -109.49481    1.1453236   -108.34948   -20696.211    4.4117519    4.4117519    4.4117519   -20696.211   -26546.701   -5986.6098   -29555.321   -23516.485   -13183.281    7703.9504    85.868374 
   52700    1783.0193   -109.94598    1.6133133   -108.33267   -13287.997    4.4008958    4.4008958    4.4008958   -13287.997   -17544.087    6090.0431   -28409.949   -18401.963    16114.743    12301.807     85.23604 
   52800    1231.9119   -109.46684    1.1146598   -108.35218    17414.675    4.4074656    4.4074656    4.4074656    17414.675    52161.419    16339.021   -16256.416    7653.4197   -9558.7581    37472.575    85.618338 
   52900    1734.8821   -109.91547    1.5697578   -108.34572   -5498.9802    4.4107616    4.4107616    4.4107616   -5498.9802   -6739.0515    7043.4505    -16801.34   -5191.4749    1577.5604   -685.21421    85.810561 
   53000    1334.4922   -109.56233    1.2074766   -108.35486   -34236.774    4.4217962    4.4217962    4.4217962   -34236.774   -6117.3166   -45709.123   -50883.882   -6274.5463    11391.844    32368.183    86.456206 
   53100    1366.0961   -109.57912    1.2360725   -108.34305   -1645.3715    4.4138756    4.4138756    4.4138756   -1645.3715    24224.258   -10185.547   -18974.825   -677.19551    -8833.987    9957.5491    85.992438 
   53200    1607.2497   -109.78317    1.4542733    -108.3289    21623.179    4.3875467    4.3875467    4.3875467    21623.179    -823.3165    11042.867    54649.986   -6178.9974    10491.912    12316.841    84.462755 
   53300    1349.5082   -109.58015    1.2210634   -108.35908    501.73677     4.406394     4.406394     4.406394    501.73677    36014.981    11171.051   -45680.822   -2415.1048   -3034.4119    20903.305    85.555904 
   53400    1676.6857   -109.85773    1.5171005   -108.34063    4493.9695    4.4160695    4.4160695    4.4160695    4493.9695    15409.903    27528.673   -29456.667   -2855.5226   -9068.3715   -14422.081    86.120731 
   53500    1082.3427   -109.32869   0.97932641   -108.34936   -27215.091    4.4150941    4.4150941    4.4150941   -27215.091   -24237.386   -46608.556   -10799.332   -134.89026    2352.4241    33512.913    86.063674 
   53600    1247.5389   -109.47402    1.1287994   -108.34522    12628.536    4.4062854    4.4062854    4.4062854    12628.536    60090.528   -11652.654   -10552.267    2944.9331   -1157.5629   -19277.133    85.549576 
   53700    1972.3089   -110.12579    1.7845865   -108.34121    2092.0054    4.3936832    4.3936832    4.3936832    2092.0054    28606.741   -10674.107   -11656.618   -6039.1909      1256.66     9199.243    84.817647 
   53800    1136.2334   -109.39785    1.0280879   -108.36976   -13028.995    4.4122835    4.4122835    4.4122835   -13028.995    30860.376   -16887.882   -53059.478   -6801.8927    2372.4074    39284.202    85.899418 
   53900     1943.578    -110.1091    1.7585903   -108.35051   -10314.783    4.4182618    4.4182618    4.4182618   -10314.783    -5485.248     10692.93   -36152.031      10101.7   -385.25105   -17666.846    86.249053 
   54000    838.54388   -109.11775   0.75873212   -108.35902   -30072.602    4.4242393    4.4242393    4.4242393   -30072.602   -18653.725   -20851.519   -50712.563   -636.38167    769.92117    47816.521    86.599587 
   54100    1482.9681    -109.6736    1.3418207   -108.33178    4986.0266    4.4111715    4.4111715    4.4111715    4986.0266   -1199.9734    10193.862    5964.1914   -6971.6656    14981.418     16751.28     85.83449 
   54200    2023.9917   -110.16882    1.8313502   -108.33747   -19447.099    4.4053282    4.4053282    4.4053282   -19447.099   -11975.041   -38304.626   -8061.6287    17222.189   -14590.041    342.78073    85.493839 
   54300    872.05308   -109.14589   0.78905195   -108.35684   -24196.263    4.4205827    4.4205827    4.4205827   -24196.263   -8187.6947   -43901.176   -20499.918    3678.9517   -3106.3043    52975.854    86.385044 
   54400    1655.8352   -109.82053    1.4982345   -108.32229    4638.3697    4.4089865    4.4089865    4.4089865    4638.3697   -32862.908    27938.966    18839.051   -12247.293    11529.277    8610.8474    85.707003 
   54500    1393.2601   -109.59516     1.260651   -108.33451    5847.9581    4.4073302    4.4073302    4.4073302    5847.9581    25574.805   -539.07778   -7491.8527    5794.5321   -13776.261    22135.778     85.61045 
   54600    1500.6932   -109.70166    1.3578588    -108.3438    -18688.66    4.4209083    4.4209083    4.4209083    -18688.66    -23296.47   -38724.972     5955.462    5741.7079    2328.0322    6128.0622    86.404134 
   54700    1521.8987   -109.71103    1.3770459   -108.33398     32780.69     4.404003     4.404003     4.404003     32780.69    3042.9555    88423.675     6875.439     506.7636    8700.6683    9163.5709    85.416706 
   54800    1383.8872   -109.60806    1.2521702   -108.35589    19351.242    4.4101878    4.4101878    4.4101878    19351.242    14852.421    5641.7895    37559.516   -3163.7519   -1883.8442    27274.917    85.777081 
   54900    1470.6245   -109.66996     1.330652    -108.3393   -3524.4862    4.4286496    4.4286496    4.4286496   -3524.4862   -32960.439    -3884.035    26271.016   -8404.1271    7512.2176   -5810.3532    86.858825 
   55000    1307.6562   -109.50983    1.1831948   -108.32664    28220.322    4.4101279    4.4101279    4.4101279    28220.322    21829.071    27114.674    35717.219     12431.42   -12353.271    23118.796    85.773584 
   55100    1826.1865   -109.98962    1.6523719   -108.33725    2647.4031    4.4116864    4.4116864    4.4116864    2647.4031    29414.305   -10985.026   -10487.071   -23672.997   -2885.4904    13588.787    85.864551 
   55200    1631.2914   -109.81913    1.4760267    -108.3431   -576.86772    4.4191848    4.4191848    4.4191848   -576.86772   -26646.753    30203.946   -5287.7956   -13932.605     8075.756   -13215.347    86.303117 
   55300    980.44319   -109.23462    0.8871256    -108.3475    24392.922    4.4160368    4.4160368    4.4160368    24392.922    26434.733    73541.975   -26797.943    905.61186    -10852.87    23703.452    86.118816 
   55400    1813.1634   -109.97308    1.6405883   -108.33249    1255.9594    4.4252778    4.4252778    4.4252778    1255.9594    25114.233   -14298.293   -7048.0624   -15119.582   -8494.4347   -4619.3403    86.660586 
   55500    1484.4194   -109.67181    1.3431339   -108.32868     4964.416    4.4120743    4.4120743    4.4120743     4964.416    10502.274    12512.587   -8121.6127   -7785.9491   -2825.3627    2913.6193    85.887201 
   55600    1301.9142   -109.51077    1.1779994   -108.33277    28730.418    4.4055031    4.4055031    4.4055031    28730.418    42137.468    55234.181   -11180.394    1370.4689     3750.728    15500.352    85.504021 
   55700    1957.7358   -110.10827    1.7714005   -108.33687   -10010.525    4.4243212    4.4243212    4.4243212   -10010.525   -13646.676    728.31565   -17113.213   -592.98723    -2065.417    2936.4734      86.6044 
   55800    1295.8728   -109.52466     1.172533   -108.35212   -14657.383    4.4125796    4.4125796    4.4125796   -14657.383    4522.7218    15620.743   -64115.614    -402.3277    7983.9277    22757.498    85.916714 
   55900    1416.5237   -109.63269    1.2817004   -108.35098    23906.777    4.4005502    4.4005502    4.4005502    23906.777   -3241.1957    91572.871   -16611.343   -4723.0046    6856.4015   -569.50866    85.215962 
   56000    1783.6662   -109.96894    1.6138986   -108.35504    3231.8321    4.4192337    4.4192337    4.4192337    3231.8321    -9023.911    53485.958   -34766.551   -11294.833   -1972.5806    15601.572    86.305982 
   56100    1568.4464   -109.78601    1.4191633   -108.36685   -48222.911    4.4290766    4.4290766    4.4290766   -48222.911   -36025.867    -28291.41   -80351.457    8592.6547   -10288.472    10637.902    86.883951 
   56200    1588.9666   -109.81548    1.4377303   -108.37775   -20986.631    4.4004508    4.4004508    4.4004508   -20986.631   -44018.127    27130.211   -46071.977    29055.258   -2360.5871   -16980.564    85.210186 
   56300    1741.2695    -109.9598    1.5755373   -108.38427    39185.207    4.3791951    4.3791951    4.3791951    39185.207   -426.51952    100752.17    17229.966   -16281.284   -6099.2812      18351.3    83.981358 
   56400    1057.9734   -109.39538   0.95727656   -108.43811   -5703.7857    4.4155683    4.4155683    4.4155683   -5703.7857   -27892.327    52559.346   -41778.377    -2286.815   -10468.747    1726.1568    86.091408 
   56500    1181.0894   -109.48363    1.0686745   -108.41496   -36866.014    4.4255511    4.4255511    4.4255511   -36866.014   -68828.969    11260.251   -53029.324    22785.428     -3153.96   -15078.564     86.67664 
   56600    2018.9076   -110.20675      1.82675      -108.38    12759.746    4.4000944    4.4000944    4.4000944    12759.746   -10668.641    18368.955    30578.925    247.59329   -6222.1551    25831.137    85.189483 
   56700    1101.5189   -109.39389   0.99667745   -108.39721   -29883.901    4.4063276    4.4063276    4.4063276   -29883.901   -26244.623   -40651.083   -22755.996    22338.886   -19361.881   -14164.604    85.552034 
   56800     1293.686   -109.56061    1.1705543   -108.39006    -7249.512     4.413726     4.413726     4.413726    -7249.512   -13184.073    13098.311   -21662.774    8947.8165   -1374.2796   -11430.237    85.983693 
   56900    2101.0882   -110.26201    1.9011087    -108.3609    2188.7659    4.4166869    4.4166869    4.4166869    2188.7659   -26756.249    34137.045   -814.49868    -6711.014    3023.4309    6011.7584    86.156857 
   57000    752.47342   -109.05749   0.68085377   -108.37664   -29344.741    4.4130675    4.4130675    4.4130675   -29344.741   -47157.061   -30747.771   -10129.391    39040.599   -9897.1803   -21298.971    85.945216 
   57100    1684.9392   -109.88517    1.5245684    -108.3606    19746.291    4.3893533    4.3893533    4.3893533    19746.291   -8278.5259    64920.309    2597.0888    1366.4316    8531.6348    -20901.92    84.567133 
   57200    1715.4445   -109.92357    1.5521703    -108.3714    12382.527     4.399826     4.399826     4.399826    12382.527    2756.6012    157.77455    34233.207     10778.82   -14750.203    3215.8818    85.173896 
   57300    679.80746   -108.99668   0.61510407   -108.38158   -36096.518    4.4242916    4.4242916    4.4242916   -36096.518   -44422.406   -52788.313   -11078.835    25556.998   -4244.6227    -9644.919    86.602662 
   57400    1839.7091   -110.00963    1.6646075   -108.34502     11028.11    4.4054648    4.4054648    4.4054648     11028.11     41062.54    457.77386   -8435.9839   -4713.3838    16218.151    6458.2275    85.501793 
   57500    1618.3984     -109.816    1.4643608   -108.35164   -7046.6912    4.4045287    4.4045287    4.4045287   -7046.6912    229.57208    -4742.303   -16627.343    12356.277    -3880.181   -11597.031    85.447298 
   57600    1186.8174   -109.43913    1.0738573   -108.36527   -10495.671    4.4058791    4.4058791    4.4058791   -10495.671    40717.317   -53846.488   -18357.842    10705.678    12022.231    -3678.563    85.525917 
   57700    1782.2016   -109.97749    1.6125734   -108.36491   -13439.128    4.4122693    4.4122693    4.4122693   -13439.128   -1759.0832   -30616.319   -7941.9806    3979.8483    10532.721    7349.3204    85.898587 
   57800    1223.7091     -109.466    1.1072377   -108.35876    -9145.407    4.4188214    4.4188214    4.4188214    -9145.407   -27543.438    -38852.37    38959.587    42052.297    -7780.306    -11075.39    86.281831 
   57900     1763.619   -109.93159    1.5957595   -108.33583   -10383.907    4.4100488    4.4100488    4.4100488   -10383.907    27904.733   -29942.962   -29113.493   -16172.348    15535.066    4251.4557     85.76897 
   58000    1188.0399   -109.42076    1.0749635    -108.3458   -21804.223    4.4153388    4.4153388    4.4153388   -21804.223    -29492.47    -33218.14   -2702.0596    38226.227   -8695.2561    4525.2695    86.077988 
   58100    1608.0645   -109.79856    1.4550106   -108.34355    5742.0106    4.3966348    4.3966348    4.3966348    5742.0106     -7617.55   -42419.767    67263.349    17005.764   -3256.9006   -21354.461      84.9887 
   58200    1947.2622    -110.1203    1.7619237   -108.35838    9206.1047    4.3971026    4.3971026    4.3971026    9206.1047    25173.513    7316.1796   -4871.3783    747.68457    11362.869    8436.2348    85.015827 
   58300    942.20554   -109.22124   0.85252738   -108.36871   -8698.2237    4.4224916    4.4224916    4.4224916   -8698.2237   -54708.303   -72365.505    100979.14    22306.204   -1773.6968    66.207165    86.497002 
   58400    1835.3738   -110.00908    1.6606848    -108.3484   -17607.574    4.4101897    4.4101897    4.4101897   -17607.574   -284.98626   -39958.581   -12579.154   -9432.7468    11990.654    -8505.562    85.777188 
   58500    1410.8074   -109.61548    1.2765282   -108.33895    33068.928    4.3881222    4.3881222    4.3881222    33068.928     5666.955    20543.983    72995.847    32300.802   -2279.1739   -348.82749    84.495997 
   58600    1433.6175   -109.66661    1.2971672   -108.36944   -15102.262    4.4117533    4.4117533    4.4117533   -15102.262   -9423.6528   -45561.481    9678.3488   -19498.787   -11718.067    -11722.36    85.868459 
   58700    1315.0458   -109.54364    1.1898811   -108.35376    9156.2191    4.4214384    4.4214384    4.4214384    9156.2191     10563.78   -52391.656    69296.533   -2661.8561   -5143.5402    5431.7031     86.43522 
   58800    1662.3295   -109.85135    1.5041107   -108.34724   -758.43172    4.4087321    4.4087321    4.4087321   -758.43172   -16898.063   -43737.455    58360.223    19791.987    4445.2354    -2555.372    85.692169 
   58900    910.25091   -109.18735   0.82361415   -108.36373   -29176.549    4.4029773    4.4029773    4.4029773   -29176.549      -7107.4   -76473.522    -3948.726   -29109.377   -1475.5725   -40494.573     85.35704 
   59000    1734.4825   -109.92556    1.5693962   -108.35617     32749.29    4.3841038    4.3841038    4.3841038     32749.29    18095.556   -14084.112    94236.427     14722.66    8019.7416    14738.951    84.264082 
   59100    1366.2688    -109.6361    1.2362288   -108.39987   -26747.446    4.4137837    4.4137837    4.4137837   -26747.446   -15112.776   -61283.818    -3845.743   -16543.716    11050.515   -24092.837    85.987067 
   59200    1538.5844   -109.75922    1.3921435   -108.36707   -27587.343    4.4235809    4.4235809    4.4235809   -27587.343    -23049.12   -70754.436    11041.527   -3087.4129    14050.375   -15195.453    86.560933 
   59300      2083.01   -110.23311    1.8847512   -108.34836    11309.769    4.3926725    4.3926725    4.3926725    11309.769     32089.26   -22520.844    24360.892   -208.29471   -7063.1356    11188.233    84.759126 
   59400    1008.3379    -109.2812   0.91236529   -108.36883    35074.524    4.3794301    4.3794301    4.3794301    35074.524    29324.243   -16458.526    92357.855   -23882.424   -9686.4301   -31953.447    83.994879 
   59500    1452.0416    -109.7028    1.3138377   -108.38896    -20889.46    4.4137822    4.4137822    4.4137822    -20889.46   -13338.422   -30243.136   -19086.823    6829.0522   -4710.3419   -15899.501    85.986983 
   59600    1669.3837    -109.8658    1.5104935   -108.35531   -9017.6576    4.4178316    4.4178316    4.4178316   -9017.6576   -14358.356   -44530.261    31835.644   -25301.627    11373.795   -734.14262    86.223861 
   59700    1060.6438   -109.31397   0.95969284   -108.35428    16733.566    4.4072157    4.4072157    4.4072157    16733.566   -15818.279   -1799.1045    67818.081    4279.8785   -2563.3163   -20289.665    85.603777 
   59800    1917.1087   -110.08494    1.7346403    -108.3503   -6597.7668    4.4013171    4.4013171    4.4013171   -6597.7668   -37294.996   -12188.554    29690.249   -17747.346    640.89513    3137.9835    85.260517 
   59900    1530.9299   -109.74204    1.3852175   -108.35682   -5800.4717    4.3991167    4.3991167    4.3991167   -5800.4717   -11846.031   -27763.225    22207.841   -13013.157    9558.6424   -14636.774    85.132709 
   60000    1194.2759   -109.44301    1.0806059   -108.36241   -1296.6196    4.4078167    4.4078167    4.4078167   -1296.6196    1272.2557   -17010.657    11848.542   -440.30072    8951.3739   -23837.951    85.638801 
   60100    1600.2232   -109.80378    1.4479156   -108.35587   -4538.7881    4.4080482    4.4080482    4.4080482   -4538.7881   -43886.816   -46979.726    77250.177   -21813.726     12015.24    9516.5139    85.652298 
   60200    1297.1505   -109.53519     1.173689    -108.3615    19730.877    4.3879799    4.3879799    4.3879799    19730.877    34867.095   -6471.4026    30796.937    11342.653     20879.11   -20865.567    84.487777 
   60300    1990.0503   -110.16637    1.8006393   -108.36573   -16254.019    4.3965569    4.3965569    4.3965569   -16254.019    -20294.38    -38521.48    10053.802   -20717.777   -60.976838    2990.6031    84.984182 
   60400    1209.1645   -109.45689    1.0940774   -108.36281   -16235.518      4.41633      4.41633      4.41633   -16235.518    1437.2999    -52540.87    2397.0163   -6983.5479     6655.674   -298.35129    86.135971 
   60500    1211.9781   -109.45502    1.0966233    -108.3584   -20567.898    4.4137666    4.4137666    4.4137666   -20567.898    28433.786   -40015.325   -50122.155     5432.656    15381.729   -21699.593    85.986066 
   60600    1920.8776   -110.09178    1.7380504   -108.35373    1608.7096    4.3948737    4.3948737    4.3948737    1608.7096    1670.4278   -33778.227    36933.928   -31697.426   -10224.743    9375.0871    84.886612 
   60700    1445.5199   -109.67003    1.3079368   -108.36209    1035.9791    4.3995352    4.3995352    4.3995352    1035.9791    23918.995   -16607.567   -4203.4916    20577.703    2653.9855   -18634.492    85.157009 
   60800     1253.876    -109.4967    1.1345333   -108.36217   -24407.453    4.4093814    4.4093814    4.4093814   -24407.453   -19073.287   -42328.736   -11820.337   -15445.547    9194.7758    -9235.198    85.730032 
   60900    1496.8227   -109.70059    1.3543566   -108.34624     26580.15     4.400637     4.400637     4.400637     26580.15    36003.995    10141.422    33595.033   -3780.7541   -12833.208    6468.5637    85.221001 
   61000    1289.9311   -109.52584    1.1671567   -108.35869   -28299.941    4.4078914    4.4078914    4.4078914   -28299.941   -6778.5556     -33260.8   -44860.468    20497.903    11365.386   -23020.358    85.643152 
   61100      1938.44   -110.10134    1.7539412    -108.3474     16334.91    4.3951223    4.3951223    4.3951223     16334.91    29864.591    2864.2893    16275.849    -19808.81    15492.908    1797.3203    84.901018 
   61200    1519.9464     -109.733    1.3752795   -108.35772    23580.455    4.3891871    4.3891871    4.3891871    23580.455    54206.432   -18520.744    35055.676    15120.501    6366.5888   -2759.6649     84.55753 
   61300    706.14585   -109.01611   0.63893561   -108.37717   -47404.026     4.409323     4.409323     4.409323   -47404.026    5058.8636   -71156.039   -76114.902    13161.046      15399.7   -31472.637    85.726626 
   61400    2243.0154   -110.37359    2.0295275   -108.34406    16554.606     4.391097     4.391097     4.391097    16554.606    29816.694    1568.9765    18278.147   -5861.3672    11691.847   -2418.6606    84.667962 
   61500    1554.4654   -109.77748    1.4065129   -108.37097   -12256.365     4.395596     4.395596     4.395596   -12256.365    1938.3022   -40298.969    1591.5704    17790.335   -10500.468   -22353.118    84.928471 
   61600     1064.931   -109.33295   0.96357193   -108.36937   -11512.663    4.4116335    4.4116335    4.4116335   -11512.663    36999.772   -50340.203   -21197.556    5281.3811    16315.231   -9230.9068    85.861463 
   61700    1740.9238   -109.92345    1.5752244   -108.34822    280.91272    4.4097734    4.4097734    4.4097734    280.91272    27469.625   -33412.167    6785.2801   -4196.4719   -11010.899   -8313.5236    85.752898 
   61800    1068.2745    -109.3266    0.9665972   -108.36001    384.29694    4.4021733    4.4021733    4.4021733    384.29694    58236.296   -35104.646   -21978.759     29056.82    25831.698   -17785.841    85.310285 
   61900    1556.0286   -109.75472    1.4079274   -108.34679    24827.803    4.3908382    4.3908382    4.3908382    24827.803    26303.456    15092.864    33087.089   -17023.504    8750.8309    8065.0531     84.65299 
   62000    1818.9227   -110.00176    1.6457995   -108.35596   -9981.8935    4.4068422    4.4068422    4.4068422   -9981.8935   -1995.4244   -17781.711   -10168.545   -8683.2932   -4038.2167   -10660.954    85.582015 
   62100    1089.9197   -109.33478   0.98618226    -108.3486   -764.92535    4.4162162    4.4162162    4.4162162   -764.92535   -8676.4495    17065.972   -10684.299    23950.969     17598.38    2140.2992     86.12931 
   62200    1478.2208   -109.66934    1.3375252   -108.33182    2502.5807    4.4015368    4.4015368    4.4015368    2502.5807    20528.292   -29558.179    16537.629   -33258.331   -2629.6883    116.92398    85.273291 
   62300    1890.6051   -110.04014    1.7106592   -108.32948    3376.0194    4.3974162    4.3974162    4.3974162    3376.0194     27025.63    391.27462   -17288.846    208.43142    15165.541   -6148.6033    85.034022 
   62400    1260.3471   -109.49218    1.1403886   -108.35179    20603.431    4.3918364    4.3918364    4.3918364    20603.431    52088.242   -17662.928    27384.978    -19358.95     9264.577    2375.7863    84.710739 
   62500    1376.0695   -109.62307    1.2450966   -108.37798   -16193.399     4.408281     4.408281     4.408281   -16193.399   -33299.373   -25258.388    9977.5639   -21293.172    440.55199   -7340.3892    85.665864 
   62600    1865.8811   -110.04168    1.6882885   -108.35339    6755.0476    4.4081861    4.4081861    4.4081861    6755.0476    64288.134   -28552.877   -15470.114    7495.8278   -3813.9159    -3785.312    85.660333 
   62700    1356.5186   -109.57992    1.2274066   -108.35252   -6860.5319    4.3958797    4.3958797    4.3958797   -6860.5319   -29750.991   -13582.102    22751.498   -37848.473    8205.6864    9869.7243    84.944918 
   62800    1601.1365   -109.79604     1.448742   -108.34729      154.702    4.4086958    4.4086958    4.4086958      154.702   -11796.597   -5873.0294    18133.732    17065.994   -7539.2505   -2940.6166     85.69005 
   62900    1499.5387   -109.70233    1.3568141   -108.34552   -4966.4855    4.4056638    4.4056638    4.4056638   -4966.4855    23153.714   -19755.621    -18297.55   -29943.382    3089.3793    8774.9769    85.513377 
   63000    1093.0537    -109.3435     0.989018   -108.35448    16611.121    4.3973517    4.3973517    4.3973517    16611.121     14683.46     7742.812    27407.092   -14354.795    10421.577    16521.387    85.030277 
   63100    1731.4576   -109.91275    1.5666592   -108.34609    2868.4048    4.4007184    4.4007184    4.4007184    2868.4048    21780.104   -17040.556    3865.6669    8643.1242   -18525.642   -1673.3048    85.225729 
   63200     1386.972   -109.61165    1.2549615   -108.35668   -21603.277    4.4085406    4.4085406    4.4085406   -21603.277   -52521.064   -6848.3472   -5440.4195   -46537.114   -1034.2295    20690.289       85.681 
   63300    1386.9429    -109.6051    1.2549351   -108.35016   -14907.469    4.4153838    4.4153838    4.4153838   -14907.469   -51093.047    22111.766   -15741.125    17215.659    12860.552    16959.181    86.080616 
   63400    1477.3088   -109.67437       1.3367   -108.33767    26530.231    4.3955814    4.3955814    4.3955814    26530.231    11964.403    6468.8049    61157.484   -1201.1814   -19666.487    3668.0497    84.927623 
   63500    1703.8586   -109.89056    1.5416871   -108.34887   -8437.5053    4.3991119    4.3991119    4.3991119   -8437.5053   -2815.1622   -22906.727    409.37326   -7312.8082   -1435.8012    25299.683    85.132432 
   63600    1111.0992   -109.35713    1.0053459   -108.35178    1742.8056    4.4089741    4.4089741    4.4089741    1742.8056    23212.589   -2440.8919   -15543.281    32173.673   -12640.454    2493.0454    85.706277 
   63700    1654.9708   -109.83713    1.4974524   -108.33968    1007.9014    4.4019078    4.4019078    4.4019078    1007.9014    13767.735   -18691.454    7947.4238    2198.0329    -28468.63    6416.4346    85.294851 
   63800    1415.7813   -109.63524    1.2810287   -108.35421   -8080.2553    4.4103675    4.4103675    4.4103675   -8080.2553    6862.6475   -11039.741   -20063.673    1270.9065    11179.047    16436.896    85.787564 
   63900     1531.276   -109.73374    1.3855307   -108.34821   -13878.739    4.4146469    4.4146469    4.4146469   -13878.739    16400.881   -28716.118   -29320.979    26027.053   -28978.778   -5911.2853    86.037525 
   64000    2071.2461   -110.22446     1.874107   -108.35035     6048.924    4.3935038    4.3935038    4.3935038     6048.924     55464.84   -31032.684   -6285.3848   -1391.8269   -10437.452    19481.137    84.807256 
   64100    1559.4052   -109.77215    1.4109826   -108.36117    53433.824    4.3737662    4.3737662    4.3737662    53433.824    100024.67    42164.753    18112.045    8740.8731    10866.305   -2380.6368    83.669406 
   64200     969.4187   -109.27445   0.87715042    -108.3973   -22055.132    4.4121554    4.4121554    4.4121554   -22055.132    -29010.44    -6875.564   -30279.391    7228.6142   -19792.872    5902.5497     85.89194 
   64300    1872.9572   -110.05268    1.6946911   -108.35799   -24768.408     4.417657     4.417657     4.417657   -24768.408    6777.6821   -53944.051   -27138.855   -10050.908    15841.922    12157.742    86.213639 
   64400    1444.2773   -109.65366    1.3068124   -108.34685    33912.882    4.3821992    4.3821992    4.3821992    33912.882    24003.757    74286.943    3447.9454    27565.008   -9685.9955   -2509.8774    84.154309 
   64500    1429.3577   -109.66208    1.2933129   -108.36877    1815.3649    4.3895516    4.3895516    4.3895516    1815.3649    11540.555     9738.657   -15833.117    5253.1146   -20287.666    2936.9133    84.578595 
   64600    1778.2668   -109.98011    1.6090132    -108.3711    -2422.369    4.4094938    4.4094938    4.4094938    -2422.369   -23413.223    39752.261   -23606.145   -10506.109    10345.909   -7424.9034    85.736592 
   64700    1056.3408   -109.33667   0.95579934   -108.38087   -24665.889    4.4224471    4.4224471    4.4224471   -24665.889    -42881.24   -14230.281   -16886.146    23665.063   -21279.911    249.17125    86.494387 
   64800    1926.6455   -110.10898    1.7432694   -108.36571    14842.465    4.3882957    4.3882957    4.3882957    14842.465    25862.094    27273.496   -8608.1963   -14875.453   -297.51421   -7815.6275    84.506023 
   64900    1600.1666   -109.81978    1.4478644   -108.37192    17623.206    4.3808083    4.3808083    4.3808083    17623.206    4887.1636    32931.625    15050.829   -10848.006    7653.5377   -681.98505      84.0742 
   65000    1247.1377   -109.51629    1.1284364   -108.38786   -13427.664    4.4064379    4.4064379    4.4064379   -13427.664    17379.108   -23125.621    -34536.48    39970.948   -16023.469   -16256.822     85.55846 
   65100    1938.0181   -110.11782    1.7535595   -108.36426    -12379.17    4.4122775    4.4122775    4.4122775    -12379.17    -9766.294     2462.611   -29833.828   -9308.0381    9407.3585   -7350.1485    85.899071 
   65200    1030.4486   -109.30073   0.93237156   -108.36836   -884.36977    4.4046589    4.4046589    4.4046589   -884.36977   -7278.1646   -42207.993    46833.048   -10406.536   -736.02738    5321.5853    85.454877 
   65300    1728.1429   -109.92762      1.56366   -108.36396   -16029.119     4.386845     4.386845     4.386845   -16029.119   -31653.476   -15790.807   -643.07417    41115.782   -21985.538   -22723.524    84.422239 
   65400    1598.6367    -109.8209    1.4464801   -108.37442    33472.231    4.3986481    4.3986481    4.3986481    33472.231     12873.33    25112.962      62430.4   -22485.185   -1555.7527    6300.5919    85.105507 
   65500    1306.7631   -109.55563    1.1823868   -108.37324    -42872.73    4.4194076    4.4194076    4.4194076    -42872.73    -61060.82   -46535.087   -21022.285    19107.191   -9589.3573   -6637.5785     86.31617 
   65600    1159.1284   -109.40949    1.0488037   -108.36068    22782.178    4.4085578    4.4085578    4.4085578    22782.178    23842.206   -2165.7956    46670.122    15178.361   -22742.028   -4298.5207    85.682003 
   65700    2275.5763   -110.39876    2.0589893   -108.33977    4022.9488    4.4028498    4.4028498    4.4028498    4022.9488   -16915.289    23139.765    5844.3701   -17640.202   -1127.7292    10478.079    85.349623 
   65800     697.2796   -108.99226   0.63091324   -108.36134    1125.1157    4.3971773    4.3971773    4.3971773    1125.1157   -2388.2025    3655.8392    2107.7105    31322.368   -8865.5285   -11260.037    85.020165 
   65900    1799.6939   -109.99136    1.6284008   -108.36296   -3470.7699    4.4040687    4.4040687    4.4040687   -3470.7699   -16535.551    28274.756   -22151.514   -15232.562   -17833.097    12340.686    85.420526 
   66000    1484.3379   -109.70152    1.3430602   -108.35846    21765.673    4.4161919    4.4161919    4.4161919    21765.673    22922.209   -5501.2426    47876.054    9491.0527    3534.6722   -5445.0427    86.127889 
   66100    1224.9611   -109.46205    1.1083706   -108.35368    -21944.79     4.416073     4.416073     4.416073    -21944.79   -29167.354   -14126.398   -22540.617    10327.753   -12994.045   -6666.4221    86.120931 
   66200    1757.3774   -109.92987     1.590112   -108.33976    8029.9618      4.39585      4.39585      4.39585    8029.9618    14855.469   -9535.9103    18770.327   -25690.249    826.11079    13929.339    84.943196 
   66300    1661.0337   -109.85501    1.5029382   -108.35207    23166.698    4.3889527    4.3889527    4.3889527    23166.698    23119.489     18107.91    28272.696    29209.049   -8651.0933   -8732.2593    84.543981 
   66400    1348.7423   -109.59315    1.2203704   -108.37278   -13090.257    4.4095948    4.4095948    4.4095948   -13090.257   -26165.457    -8505.705   -4599.6087    3924.6747   -16504.039   -4766.3274    85.742485 
   66500     1795.443   -109.97356    1.6245546     -108.349    9112.7175    4.4197323    4.4197323    4.4197323    9112.7175    1844.2032    20311.429    5182.5207   -4033.2351    14360.899   -1289.3907    86.335199 
   66600    1287.1603   -109.50042    1.1646496   -108.33577   -8786.1388     4.421375     4.421375     4.421375   -8786.1388    2276.4114   -9160.0784   -19474.749    17854.717   -30714.613    -6569.049    86.431503 
   66700    1146.3092    -109.3658    1.0372046    -108.3286    978.49661    4.4079316    4.4079316    4.4079316    978.49661   -35149.118    23200.435    14884.173   -21505.227    8970.5686    -11592.53    85.645498 
   66800    1613.1593    -109.7964    1.4596205   -108.33678    32025.514     4.392868     4.392868     4.392868    32025.514    32929.191    74163.009   -11015.658    -15490.73   -4613.6179   -4365.3393    84.770445 
   66900    1757.8644   -109.95138    1.5905526   -108.36082    5788.4713    4.4040617    4.4040617    4.4040617    5788.4713   -25236.315    26838.659    15763.069   -10077.044   -26288.089   -8224.2539     85.42012 
   67000    1247.4045   -109.48805    1.1286778   -108.35937   -7386.0423    4.4258955    4.4258955    4.4258955   -7386.0423   -16904.623   -14121.339    8867.8352   -14114.323    10740.939   -12529.223    86.696882 
   67100    1182.1423   -109.40058    1.0696272   -108.33095    9151.7188    4.4182222    4.4182222    4.4182222    9151.7188    16445.563    10513.514    496.07887   -1021.1209    -30425.85    749.07205    86.246732 
   67200     1855.411   -109.99393    1.6788149   -108.31512    6524.2813    4.4000663    4.4000663    4.4000663    6524.2813    3764.2364   -20677.278    36485.885   -24629.532   -5417.4796   -2057.7516    85.187852 
   67300    1663.4681   -109.83716    1.5051409   -108.33202   -5372.4564    4.4000505    4.4000505    4.4000505   -5372.4564   -32788.864    7402.7926    9268.7021   -10421.105   -19456.353   -3395.6804    85.186934 
   67400    1365.6744   -109.60141    1.2356909   -108.36572    2318.7475    4.4143137    4.4143137    4.4143137    2318.7475   -26283.093   -10150.133    43389.468   -9991.3045   -30376.189    9302.1752    86.018048 
   67500    1585.3517   -109.78961    1.4344595   -108.35516   -28943.959     4.429574     4.429574     4.429574   -28943.959   -18978.616   -53264.964   -14588.298   -24117.631     17522.16    -18396.85    86.913232 
   67600    1017.1869   -109.27416   0.92037213   -108.35379    39429.977     4.387293     4.387293     4.387293    39429.977   -5012.7199    60450.485    62852.165   -14016.301    -36399.96    997.14415    84.448107 
   67700    2064.2024    -110.2139    1.8677337   -108.34617    11444.368    4.3774914    4.3774914    4.3774914    11444.368     36303.53   -2864.4563    894.03016   -14534.031   -8122.6347    8563.0211    83.883378 
   67800    1107.0886   -109.37489     1.001717   -108.37317   -20145.925    4.4196814    4.4196814    4.4196814   -20145.925   -11723.757   -55575.936    6861.9162   -9782.5328    3044.2059   -35028.734    86.332216 
   67900    1573.0013   -109.76156    1.4232846   -108.33827   -14077.278     4.422923     4.422923     4.422923   -14077.278   -6419.5517    17460.749   -53273.031   -4283.0142    -27397.03    19256.151    86.522313 
   68000    1164.3345   -109.38358    1.0535143   -108.33007     3312.917    4.4156033    4.4156033    4.4156033     3312.917    36604.121   -35661.887    8996.5173   -14069.064   -3933.5659   -11034.202    86.093457 
   68100     1598.617   -109.76059    1.4464622   -108.31413      14709.9    4.4103009    4.4103009    4.4103009      14709.9     11649.24   -22348.032     54828.49   -458.07486   -18936.383   -26587.702    85.783678 
   68200    1088.2751   -109.31827    0.9846942   -108.33358    22901.052    4.4138285    4.4138285    4.4138285    22901.052    24998.389   -13233.825    56938.592   -6364.8942   -25002.538    23078.116    85.989686 
   68300     1439.547   -109.63333    1.3025324    -108.3308    4531.8777    4.4304439    4.4304439    4.4304439    4531.8777    46846.707    -18783.08   -14467.993   -12834.117   -13687.809   -16941.366    86.964447 
   68400    1109.4095   -109.32773    1.0038171   -108.32391    -45975.88    4.4319144    4.4319144    4.4319144    -45975.88   -40355.638   -29933.448   -67638.553    2579.2391   -18328.211    18300.977    87.051067 
   68500    1439.2367   -109.63046    1.3022516   -108.32821    28331.245    4.3836511    4.3836511    4.3836511    28331.245    113478.17   -9431.8274   -19052.613    7097.1139   -13053.522    6201.0805    84.237977 
   68600     1926.687   -110.08022    1.7433069   -108.33691    36195.859    4.3698046    4.3698046    4.3698046    36195.859    36867.088    40960.226    30760.261   -5411.0904     7282.132    1552.5355    83.442256 
   68700    904.16027   -109.20839   0.81810321   -108.39029   -37761.611    4.4241054    4.4241054    4.4241054   -37761.611   -18770.218   -27160.451   -67354.166     25396.02   -6989.0594    21262.825    86.591727 
   68800    2293.2577   -110.39369    2.0749877    -108.3187   -31804.591     4.437941     4.437941     4.437941   -31804.591   -36494.303   -17128.603   -41790.868    4516.2741   -4160.4059   -7107.7428    87.406667 
   68900    1012.8029    -109.2456   0.91640537   -108.32919    31088.233    4.3959121    4.3959121    4.3959121    31088.233    65692.301    36645.875    -9073.476   -6662.0635    10230.088    19940.084    84.946797 
   69000     1906.696   -110.04806    1.7252186   -108.32284    14608.649     4.397494     4.397494     4.397494    14608.649    62750.032   -3950.6811   -14973.405    8446.9473   -14694.819   -3462.9125    85.038536 
   69100    1461.7367   -109.65456    1.3226101   -108.33195   -5816.7582    4.4125931    4.4125931    4.4125931   -5816.7582     83101.28   -34353.104    -66198.45   -4278.7862    -4031.874   -1350.5711    85.917501 
   69200    1555.2197   -109.74743    1.4071955   -108.34023   -9262.9403    4.4135943    4.4135943    4.4135943   -9262.9403   -16799.736    32970.546   -43959.631   -8795.6993   -6645.8649    16650.393       85.976 
   69300    1866.1438    -110.0198    1.6885261   -108.33128   -20052.699    4.4131927    4.4131927    4.4131927   -20052.699     47125.06   -51503.053   -55780.105   -13839.971    6419.8574   -30908.988    85.952535 
   69400    1359.7984   -109.57311    1.2303742   -108.34274   -20207.292    4.4140519    4.4140519    4.4140519   -20207.292    15596.319   -16983.184    -59235.01   -16742.174    5539.8063    24692.084    86.002745 
   69500    1409.2759   -109.61449    1.2751425   -108.33935    12031.818    4.4064126    4.4064126    4.4064126    12031.818     59409.24   -10996.315   -12317.471   -974.31205   -6734.4939   -22774.868    85.556987 
   69600    1907.4135   -110.06961    1.7258678   -108.34374   -12398.528    4.4175638    4.4175638    4.4175638   -12398.528    42038.499   -30466.718   -48767.364   -779.79922   -4296.3224    642.54651    86.208181 
   69700    1228.4086     -109.452    1.1114899   -108.34051   -12705.803    4.4200234    4.4200234    4.4200234   -12705.803   -19892.526    615.54385   -18840.426   -6454.0364   -5427.9726     3669.526    86.352259 
   69800    1289.0863   -109.50253    1.1663923   -108.33614    16035.453    4.3999069    4.3999069    4.3999069    16035.453     20169.86    40105.075   -12168.577    3996.8951     290.7772   -30467.104    85.178593 
   69900    2265.2817   -110.38859    2.0496745   -108.33892     774.9696    4.4014926    4.4014926    4.4014926     774.9696    6326.8733    9126.2622   -13128.227    6823.4365   -2326.9986     21799.14    85.270722 
   70000    883.55266   -109.16678   0.79945701   -108.36732   -5556.8774    4.4154084    4.4154084    4.4154084   -5556.8774   -13389.767    19494.075    -22774.94   -3895.1031    7810.4516   -32334.282    86.082057 
   70100    1769.9346   -109.94796    1.6014741   -108.34649   -16181.484    4.4245053    4.4245053    4.4245053   -16181.484   -3806.6579   -36316.379    -8421.416   -1989.5099   -8322.5616      6014.05    86.615208 
   70200    1981.4272   -110.12101     1.792837   -108.32818   -19508.536    4.4156332    4.4156332    4.4156332   -19508.536   -25532.763    9327.5627   -42320.408    3208.2712    7523.1171   -18314.278    86.095208 
   70300    972.54869   -109.21878   0.87998249    -108.3388   -15586.122    4.4133825    4.4133825    4.4133825   -15586.122   -42744.608   -19592.389    15578.629    685.78863    5247.2983   -15539.301    85.963624 
   70400    1943.2993   -110.09141     1.758338   -108.33307    4833.1919    4.4118922    4.4118922    4.4118922    4833.1919   -4147.5135    52546.627   -33899.537    2440.4758    3087.6331    5397.0868    85.876568 
   70500    1277.4778     -109.515    1.1558887   -108.35911    6786.2808    4.4065099    4.4065099    4.4065099    6786.2808    6215.8501    29528.204   -15385.211    702.19032    9242.6054   -45440.963    85.562656 
   70600    1852.6116   -110.04168    1.6762819    -108.3654   -29333.382    4.4178896    4.4178896    4.4178896   -29333.382   -53030.823    8294.4601   -43263.784   -22706.773    477.70151   -4338.3437     86.22726 
   70700    1756.9766   -109.93671    1.5897493   -108.34696    -20710.66    4.4305919    4.4305919    4.4305919    -20710.66   -5559.8715   -23090.195   -33481.914   -4689.2519    73.541866   -15066.498    86.973158 
   70800    1754.5381   -109.91758    1.5875429   -108.33004   -10244.309    4.4179043    4.4179043    4.4179043   -10244.309    -13632.93    4190.2353   -21290.234   -14074.219    12627.387   -14611.548    86.228122 
   70900    1230.9711   -109.45442    1.1138085   -108.34062   -3796.8238     4.416339     4.416339     4.416339   -3796.8238     23805.08   -32887.949   -2307.6021   -19625.014   -1131.7385    2014.6806    86.136498 
   71000    1718.4177   -109.88959    1.5548604   -108.33473   -16673.342    4.4162273    4.4162273    4.4162273   -16673.342    16112.861   -15162.159   -50970.726   -10428.523    6625.4355   -30860.377    86.129962 
   71100    1698.1038   -109.86873      1.53648   -108.33225   -11889.529     4.415333     4.415333     4.415333   -11889.529   -49869.781    26097.449   -11896.255   -7404.0168    8638.5909    17359.868     86.07765 
   71200    1463.2204     -109.661    1.3239526   -108.33705   -20987.328     4.426015     4.426015     4.426015   -20987.328   -24112.647    2520.0047   -41369.342     2443.108    1552.7776    7484.5091    86.703899 
   71300    1429.7966   -109.61565      1.29371   -108.32194     10578.79    4.4263751    4.4263751    4.4263751     10578.79    19928.076    14767.081    -2958.788   -7018.8124    15702.149   -4116.6169    86.725065 
   71400    1393.1795   -109.58316    1.2605781   -108.32259    707.12782    4.4342026    4.4342026    4.4342026    707.12782    8441.6558   -20177.207    13856.935   -4564.7917    11481.754    22597.999    87.185968 
   71500    1502.8618   -109.67324    1.3598209   -108.31342   -38219.442    4.4345579    4.4345579    4.4345579   -38219.442   -17348.684   -44256.853    -53052.79    15647.389    6135.3677   -7302.7798    87.206926 
   71600    1631.8619   -109.77815    1.4765429   -108.30161     1910.663    4.3873548    4.3873548    4.3873548     1910.663   -36933.041    6361.9365    36303.094   -2106.4021    11821.415   -2045.0259    84.451675 
   71700    1271.5172   -109.49599    1.1504955   -108.34549    22667.234    4.3857695    4.3857695    4.3857695    22667.234    45438.863   -8314.9819    30877.822    1440.9039   -6578.5779    29632.059    84.360165 
   71800    1323.1952   -109.57078    1.1972548   -108.37352   -44125.136    4.4281453    4.4281453    4.4281453   -44125.136   -69710.843   -13822.893   -48841.672    11896.397    17294.993   -8058.7634    86.829157 
   71900    1626.2771   -109.81826    1.4714897   -108.34677   -24494.966    4.4291525    4.4291525    4.4291525   -24494.966   -56856.217   -28100.152    11471.471   -8856.8884    19244.287    13298.605    86.888423 
   72000    1445.5982   -109.64177    1.3080076   -108.33376   -13858.363    4.4122841    4.4122841    4.4122841   -13858.363   -4765.7682   -14069.773   -22739.547    1939.0335   -6827.5829    22725.345    85.899453 
   72100    1700.4167    -109.8732    1.5385728   -108.33462    1653.3184    4.4031973    4.4031973    4.4031973    1653.3184   -20945.046    16553.235    9351.7658    26518.618    22649.935   -22267.683    85.369832 
   72200    1141.8716   -109.38189    1.0331894    -108.3487    31164.912    4.4055675    4.4055675    4.4055675    31164.912    39771.573    -26467.32    80190.484   -11246.682   -14334.102    46438.674    85.507772 
   72300    1961.9098   -110.12141    1.7751772   -108.34623   -53194.463    4.4361876    4.4361876    4.4361876   -53194.463   -40007.596   -74845.423    -44730.37    12824.759   -407.97373   -21074.207    87.303109 
   72400    1348.5818   -109.56283    1.2202251   -108.34261    4888.9352    4.4071538    4.4071538    4.4071538    4888.9352    15307.221   -47438.365    46797.949    12221.894   -1693.9617    21323.635    85.600167 
   72500    1475.6201   -109.65435    1.3351721   -108.31918    52915.599    4.3785403    4.3785403    4.3785403    52915.599    67190.436    56127.348    35429.014    -6793.284    6279.7579    12005.725    83.943689 
   72600    1564.9005   -109.76152    1.4159549   -108.34557   -30166.934    4.4242704    4.4242704    4.4242704   -30166.934    8933.4002   -65337.094   -34097.109    14247.664    4898.5973    1168.8936    86.601414 
   72700    1402.0049   -109.58829    1.2685635   -108.31973   -20287.431      4.43151      4.43151      4.43151   -20287.431    17481.885   -49051.595   -29292.582    6821.0792   -4066.5046    47731.781    87.027237 
   72800    1902.9137   -110.01781    1.7217963   -108.29601     24730.36    4.4080722    4.4080722    4.4080722     24730.36     12388.69    58670.052     3132.339    1450.8007    6132.9556    -13207.67    85.653691 
   72900    1188.4283   -109.40572    1.0753149   -108.33041   -31388.039    4.4097206    4.4097206    4.4097206   -31388.039    33865.479   -61060.093   -66969.503    12381.806   -2457.4409    65070.581    85.749821 
   73000    2011.4543   -110.14344    1.8200061   -108.32344    2926.2316    4.4193532    4.4193532    4.4193532    2926.2316    5682.8754     4821.222   -1725.4025    7642.6084    4416.1691   -11516.564    86.312988 
   73100     1019.507   -109.25018   0.92247135   -108.32771   -8891.9475    4.4212068    4.4212068    4.4212068   -8891.9475    42681.453    6824.4147   -76181.711   -1663.7303   -3093.3479     42094.34    86.421635 
   73200    1401.0532   -109.60075    1.2677024   -108.33305   -22507.797    4.4089309    4.4089309    4.4089309   -22507.797   -11453.075   -25327.837   -30742.478      14007.7   -1534.4598    24093.453     85.70376 
   73300    1679.3108    -109.8538    1.5194757   -108.33432    20673.453     4.401849     4.401849     4.401849    20673.453    18668.745    52324.546    -8972.931   -2019.0232    8723.8959    3048.1163    85.291436 
   73400    1294.3748   -109.52426    1.1711775   -108.35308   -25027.477    4.4228194    4.4228194    4.4228194   -25027.477    38064.317   -46707.562   -66439.185   -7808.6616   -9702.7047    43167.192    86.516236 
   73500    1437.8431   -109.62106    1.3009907   -108.32007   -7385.6012    4.4264186    4.4264186    4.4264186   -7385.6012   -7249.3257   -21800.945    6893.4668    17419.318   -2355.2494   -8335.3906    86.727625 
   73600    1336.6035   -109.51828    1.2093869    -108.3089    31393.149    4.4090979    4.4090979    4.4090979    31393.149     94263.65     20404.51   -20488.713   -2693.9646   -411.06305    31943.493    85.713501 
   73700    1478.3896   -109.65767     1.337678   -108.31999    -11374.16    4.4135304    4.4135304    4.4135304    -11374.16   -17986.057   -4541.4125   -11595.011    17157.249   -1285.6941     -13075.5    85.972262 
   73800    1248.2553   -109.46223    1.1294476   -108.33279    4390.2376    4.4067975    4.4067975    4.4067975    4390.2376     37712.99   -39442.011    14899.734    11006.393    934.07372    22919.717    85.579407 
   73900    1378.6452   -109.58648    1.2474271   -108.33905    17241.894    4.4109125    4.4109125    4.4109125    17241.894    38572.524    20219.437   -7066.2777   -4487.4283   -192.87936   -22780.967    85.819371 
   74000    1195.2803   -109.42158    1.0815147   -108.34006   -33452.582    4.4158546    4.4158546    4.4158546   -33452.582   -25354.299   -28310.193   -46693.253    5079.7707    1352.7697    -29248.59    86.108155 
   74100    1614.3782   -109.78037    1.4607233   -108.31964    13097.353    4.3992984    4.3992984    4.3992984    13097.353    45548.945    33322.223   -39579.107    5975.7733    1204.9204     43058.77    85.143259 
   74200    1238.3702   -109.46936    1.1205034   -108.34886   -30633.624    4.4068775    4.4068775    4.4068775   -30633.624   -31108.867   -16691.575    -44100.43   -10196.645   -1918.5518    -25914.77    85.584068 
   74300    1698.1958   -109.88969    1.5365633   -108.35313   -13904.574    4.4160967    4.4160967    4.4160967   -13904.574   -24553.589    6549.0352   -23709.167      22102.4    4055.9513    4940.6331    86.122318 
   74400    1545.9693   -109.74378    1.3988255   -108.34496    12658.594     4.408443     4.408443     4.408443    12658.594     41351.35     3617.706   -6993.2731   -8383.1268    824.10478   -1620.3684    85.675308 
   74500    1273.5277   -109.50269    1.1523146   -108.35038   -17138.053    4.4085893    4.4085893    4.4085893   -17138.053    9722.1656   -25611.133   -35525.192   -15251.721   -1350.9959   -28503.134    85.683839 
   74600    1777.9925   -109.94682     1.608765   -108.33806    13434.693     4.418576     4.418576     4.418576    13434.693    47728.329    29212.796   -36637.046   -5091.3034   -3906.0351   -2677.0823    86.267458 
   74700    1206.8528   -109.43271    1.0919858   -108.34072    6497.3121    4.4089417    4.4089417    4.4089417    6497.3121    41579.844     13130.42   -35218.328   -19898.953   -7874.7701   -25573.688    85.704389 
   74800    1675.1717   -109.84257    1.5157306   -108.32684    13486.079    4.4071915    4.4071915    4.4071915    13486.079   -6145.4169    42840.523    3763.1307   -15473.577     4193.634    2988.8914    85.602365 
   74900    1479.1699   -109.67187     1.338384   -108.33349   -3519.0602    4.4072893    4.4072893    4.4072893   -3519.0602    44748.916   -2404.0461    -52902.05   -1910.8328   -19400.671   -20142.337    85.608067 
   75000    1393.9814   -109.60251    1.2613037    -108.3412    16627.843    4.3957944    4.3957944    4.3957944    16627.843    19237.556    35843.736   -5197.7643   -9429.3416   -7660.4799   -11209.871     84.93997 
   75100    1600.9813   -109.80538    1.4486016   -108.35678    5451.1136    4.4119309    4.4119309    4.4119309    5451.1136    20555.125   -4527.4254    325.64138   -23102.812     1762.414    27628.538    85.878827 
   75200    1448.4502   -109.65886    1.3105882   -108.34827   -7763.2742    4.4172355    4.4172355    4.4172355   -7763.2742    21611.066   -24259.548    -20641.34    10298.571   -13896.954   -8156.9829    86.188966 
   75300     1310.338   -109.52717    1.1856214   -108.34154    15701.917    4.4053515    4.4053515    4.4053515    15701.917    12893.247    6770.8616    27441.643   -31248.026    9165.7308    3288.8692    85.495191 
   75400    1324.3231   -109.54054    1.1982753   -108.34226    22828.576    4.4042567    4.4042567    4.4042567    22828.576    76388.121    1013.7981   -8916.1907   -2359.6337     14371.65    20845.057     85.43147 
   75500    1658.2941   -109.84616    1.5004593    -108.3457   -6324.3748     4.401911     4.401911     4.401911   -6324.3748    2114.5914   -27134.824    6047.1082   -20796.559    370.10164   -18707.305    85.295037 
   75600    1292.5508   -109.53111    1.1695271   -108.36159    12746.549    4.4093927    4.4093927    4.4093927    12746.549    54288.166   -16843.918    795.39985    -15404.28   -6642.3305    46701.241    85.730694 
   75700    1727.0486   -109.91232    1.5626698   -108.34965   -32547.222    4.4219173    4.4219173    4.4219173   -32547.222   -14618.482   -37190.697   -45832.485    4559.4848    2674.9735    3411.0166     86.46331 
   75800    1007.1903   -109.25153   0.91132698    -108.3402    16351.927    4.4008674    4.4008674    4.4008674    16351.927     15347.78   -5765.2712    39473.274   -16097.114   -17570.083   -1604.8236     85.23439 
   75900    1954.5902   -110.10368    1.7685543   -108.33512   -3731.4644    4.3977753    4.3977753    4.3977753   -3731.4644    38836.608   -15896.951   -34134.051   -4071.8914    8771.4231    45933.671    85.054856 
   76000    1320.5439   -109.54111    1.1948559   -108.34625   -5115.4473    4.4106897    4.4106897    4.4106897   -5115.4473   -6100.0175   -12986.468    3740.1438   -9270.2818   -17571.836   -33974.855    85.806365 
   76100    1563.4535   -109.75757    1.4146456   -108.34293    -3245.756    4.3986286    4.3986286    4.3986286    -3245.756   -6555.2704   -11675.388    8493.3902   -4832.0961   -9947.5901    35749.727    85.104372 
   76200    1393.9008   -109.61671    1.2612308   -108.35548    18580.955    4.4139931    4.4139931    4.4139931    18580.955    16416.064    56356.606   -17029.805    1622.8188   -8557.6552    6128.4991    85.999304 
   76300    1844.9826   -110.01123     1.669379   -108.34185   -35498.072     4.417785     4.417785     4.417785   -35498.072   -49677.198   -40842.989   -15974.028    -13954.37   -19634.157   -22585.101    86.221131 
   76400    988.41619   -109.23032   0.89433974   -108.33598    43083.235    4.3879306    4.3879306    4.3879306    43083.235    53101.144     43678.15    32470.412   -11317.081    11250.923    40798.787    84.484931 
   76500    1935.3924   -110.10379    1.7511837    -108.3526    -5107.691    4.3924844    4.3924844    4.3924844    -5107.691   -7409.3739    15639.505   -23553.204    26925.081   -27035.361   -16361.248    84.748241 
   76600    1403.5345   -109.63691    1.2699475   -108.36696   -12335.916    4.4095416    4.4095416    4.4095416   -12335.916   -24113.808   -26339.372    13445.433   -37242.418   -1992.3013    16525.653    85.739381 
   76700    1363.1437   -109.59327    1.2334011   -108.35986   -22681.835    4.4178356    4.4178356    4.4178356   -22681.835   -21653.461   -56908.961    10516.916    8089.0041    -10637.66    20424.697    86.224097 
   76800    1725.1997   -109.89592    1.5609969   -108.33493    14009.855    4.4037197    4.4037197    4.4037197    14009.855    17253.302    14254.636    10521.628    15478.983    -16183.78   -17647.607    85.400223 
   76900    1174.9393    -109.4074    1.0631097   -108.34429    7553.4522    4.3940017    4.3940017    4.3940017    7553.4522   -14564.606    21602.739    15622.223   -16585.957    3041.0398    44154.014    84.836094 
   77000    1453.3914   -109.67742    1.3150591   -108.36236    18294.116    4.4036433    4.4036433    4.4036433    18294.116    12584.271   -634.96265    42933.041      10817.4    -10386.61   -3981.2781    85.395781 
   77100    1415.0153   -109.63969    1.2803356   -108.35935   -18703.814    4.4215556    4.4215556    4.4215556   -18703.814   -13194.003     6236.827   -49154.267   -9125.1456    11817.801    23611.578    86.442092 
   77200     1424.239    -109.6447    1.2886814   -108.35602   -15592.234    4.3938759    4.3938759    4.3938759   -15592.234    6024.0782   -36486.786   -16313.993    4285.2822    204.38959    36186.544    84.828809 
   77300    2461.3055   -110.57201     2.227041   -108.34497    6890.7006    4.3834519    4.3834519    4.3834519    6890.7006   -7838.1289    8.2121051    28502.018    16773.611    7616.2172   -11583.946    84.226496 
   77400    663.42803   -108.98872   0.60028363   -108.38843   -6978.2749    4.4092024    4.4092024    4.4092024   -6978.2749    37043.395    6500.2675   -64478.487   -14167.082     6149.339    29540.188    85.719594 
   77500    1715.0752    -109.9268    1.5518361   -108.37496    -38911.69    4.4144059    4.4144059    4.4144059    -38911.69   -47452.011   -49916.969   -19366.089   -8567.0857    19639.211    2793.8336    86.023435 
   77600    1635.2354   -109.83133    1.4795953   -108.35174    23314.077    4.4034036    4.4034036    4.4034036    23314.077    37510.153    40121.257   -7689.1794     4193.522   -9884.9911    13785.486    85.381834 
   77700    1193.5647   -109.43756    1.0799624    -108.3576   -21478.063    4.3974081    4.3974081    4.3974081   -21478.063    5509.7543   -24521.376   -45422.567   -6854.9833    13325.739    34751.009     85.03355 
   77800    1466.5285   -109.67949    1.3269458   -108.35254    25399.941     4.397099     4.397099     4.397099    25399.941    25386.208    20815.817    29997.797   -6235.0597   -4094.3838   -10872.618    85.015622 
   77900    1799.5026   -109.99096    1.6282278   -108.36274   -35902.291    4.4117128    4.4117128    4.4117128   -35902.291   -20525.797   -45574.315   -41606.762    2317.0897   -17710.813    46353.771    85.866094 
   78000    1143.2534   -109.40059    1.0344397   -108.36615    2766.9117    4.4073322    4.4073322    4.4073322    2766.9117     23944.69    -10738.75    -4905.205   -15358.521    5189.4982   -16814.148    85.610565 
   78100    1862.5058   -110.04227    1.6852344   -108.35704   -12781.968    4.4027142    4.4027142    4.4027142   -12781.968   -8692.7554    -9309.585   -20343.564    89.575169   -12605.777    11056.509    85.341736 
   78200    1289.6056   -109.53261    1.1668623   -108.36575   -14475.729    4.4132142    4.4132142    4.4132142   -14475.729    11951.878   -12402.536    -42976.53     1837.752    610.12553    8559.9414    85.953789 
   78300    1419.4663   -109.65117    1.2843629    -108.3668   -3819.9904    4.3979973    4.3979973    4.3979973   -3819.9904   -4325.6343    592.63178   -7726.9687   -14702.334    -17069.74   -37145.542    85.067737 
   78400    1902.2806   -110.07709    1.7212235   -108.35587    10455.487    4.3925048    4.3925048    4.3925048    10455.487    22565.582    6797.4863    2003.3932    3255.4505    14238.638    12920.336     84.74942 
   78500    1302.9398   -109.54876    1.1789273   -108.36983    -12030.17    4.4124491    4.4124491    4.4124491    -12030.17    17853.161   -4384.0257   -49559.644   -26.645654    -15303.14   -29582.068    85.909094 
   78600    1354.9125    -109.5844    1.2259533   -108.35845   -19395.423    4.4184531    4.4184531    4.4184531   -19395.423   -19947.742    -39133.94    895.41261   -18532.749    5292.7925   -8068.0153    86.260256 
   78700    2218.3867   -110.34226    2.0072429   -108.33502    5427.8714    4.4019009    4.4019009    4.4019009    5427.8714   -2094.6065    15068.613    3309.6077    7274.1345    10240.165   -9306.0029    85.294452 
   78800      1226.08   -109.46134     1.109383   -108.35196    5856.6714    4.3983276    4.3983276    4.3983276    5856.6714    21188.708    10704.003   -14322.696   -7882.1068   -13017.236   -32124.096    85.086907 
   78900    1324.0403   -109.56043    1.1980195   -108.36241    15178.608     4.407941     4.407941     4.407941    15178.608   -27734.528    37712.353        35558   -9482.0869     12460.12    12576.018    85.646045 
   79000     1937.954   -110.11003    1.7535015   -108.35652   -1598.3599    4.4163177    4.4163177    4.4163177   -1598.3599    25359.272    6482.7166   -36637.069     5419.397   -10093.429   -12015.915    86.135253 
   79100    1317.9107    -109.5655    1.1924733   -108.37303   -20802.233    4.4028859    4.4028859    4.4028859   -20802.233   -37432.838   -38285.211    13311.349   -13340.378    4288.3617   -17051.065    85.351722 
   79200    1524.8177   -109.75441    1.3796871   -108.37472    24849.215    4.3862953    4.3862953    4.3862953    24849.215    50542.407    37907.498   -13902.258   -8667.4847   -9230.3574    23748.599     84.39051 
   79300    2017.5235   -110.20458    1.8254977   -108.37908    2196.9473    4.3974755    4.3974755    4.3974755    2196.9473    4097.6215   -5705.3928    8198.6131    2287.2802    3176.6736    3273.8419    85.037462 
   79400    989.97272   -109.27853   0.89574812   -108.38278   -6987.3516     4.413737     4.413737     4.413737   -6987.3516   -7712.3174   -45222.042    31972.305   -24447.307    16591.431    -6767.696    85.984341 
   79500    1660.7477   -109.86748    1.5026794   -108.36481     129.1572     4.410775     4.410775     4.410775     129.1572    20488.354     10780.77   -30881.652    1956.2092    2951.2638    38179.167    85.811347 
   79600    1765.1562   -109.94876    1.5971504   -108.35161     1846.001    4.4116036    4.4116036    4.4116036     1846.001   -27552.931   -12531.872    45622.806   -9047.0078    861.49266   -12720.961    85.859715 
   79700    1132.4335   -109.37854    1.0246496   -108.35389    11394.724    4.3945096    4.3945096    4.3945096    11394.724    40193.965   -12092.446    6082.6513   -12373.253    5460.0682    36240.539    84.865517 
   79800    1893.7071   -110.08109     1.713466   -108.36762    6182.9132    4.4001989    4.4001989    4.4001989    6182.9132    25718.699     6954.647   -14124.606    8847.3417   -14659.487    4081.0505    85.195552 
   79900    1643.6497   -109.85198    1.4872088   -108.36477    20008.877    4.4086171    4.4086171    4.4086171    20008.877   -2214.5559   -32424.347    94665.535   -22458.868     9515.648   -6565.3238    85.685462 
   80000    923.74788    -109.2185    0.8358265   -108.38267   -11780.306    4.4058932    4.4058932    4.4058932   -11780.306   -8978.2279    7436.7748   -33799.464    7245.3257    1986.6074    51679.198    85.526738 
   80100    1903.0344   -110.08723    1.7219055   -108.36532   -8544.5419     4.402468     4.402468     4.402468   -8544.5419   -15292.278   -13321.716    2980.3681    8267.8903   -9900.8534   -26899.729    85.327419 
   80200    1114.6942    -109.3771    1.0085988   -108.36851    29421.443    4.3938475    4.3938475    4.3938475    29421.443    38955.573    32395.982    16912.773   -4828.7255    9030.7561    36395.983    84.827163 
   80300    1720.8848   -109.91927    1.5570927   -108.36218    -26244.09    4.4039267    4.4039267    4.4039267    -26244.09    9045.3585   -35140.422   -52637.206    13370.326    3132.3059    19769.261    85.412265 
   80400    1527.6097   -109.72803    1.3822133   -108.34582    15700.841    4.4104489    4.4104489    4.4104489    15700.841   -12063.272    21375.194    37790.599    6747.8753   -2074.2781    -21303.62    85.792312 
   80500    1270.4815   -109.49606    1.1495584    -108.3465   -23284.469    4.4127385    4.4127385    4.4127385   -23284.469   -25345.756   -476.21077   -44031.439    732.55952    1034.8852     62128.25    85.925994 
   80600     1872.842   -110.03416    1.6945868   -108.33957    4273.6527    4.3979703    4.3979703    4.3979703    4273.6527   -30576.337    6212.1471    37185.148    8306.1595    -9709.156   -25246.557    85.066169 
   80700    1437.6575   -109.66195    1.3008227   -108.36113    18439.888    4.3880982    4.3880982    4.3880982    18439.888    21422.538    44608.194   -10711.068    -3338.671   -13860.419    13122.738    84.494611 
   80800    1328.6909   -109.58039    1.2022274   -108.37816   -4136.2613    4.4004847    4.4004847    4.4004847   -4136.2613    -8726.994   -5185.1185    1503.3287   -14648.938    3572.6465    35125.883    85.212156 
   80900    1675.9453     -109.882    1.5164306   -108.36557   -19530.766     4.410545     4.410545     4.410545   -19530.766   -44589.298    24193.754   -38196.754    7673.0409   -7082.6507   -16041.843    85.797925 
   81000    1291.3736   -109.52799     1.168462   -108.35952   -2240.4192     4.405288     4.405288     4.405288   -2240.4192    32918.904   -32500.426   -7139.7361   -5718.4352    1739.7828    5072.2542    85.491496 
   81100    1656.3184   -109.85359    1.4986717   -108.35492   -474.44184    4.3847293    4.3847293    4.3847293   -474.44184   -22432.882    33584.274   -12574.717   -15408.312   -4285.2386    6637.8915     84.30015 
   81200    1434.2763   -109.67183    1.2977634   -108.37407    2477.8564    4.3864677    4.3864677    4.3864677    2477.8564    13499.965    23205.197   -29271.592    12662.251    1563.1831    -21712.47    84.400458 
   81300    1703.2879   -109.90614    1.5411707   -108.36497   -22745.769    4.4118469    4.4118469    4.4118469   -22745.769   -6874.2712   -21600.742   -39762.295    1006.0798    1697.1718    11598.193    85.873925 
   81400    1432.4403   -109.64813    1.2961021   -108.35203   -25594.081    4.4108636    4.4108636    4.4108636   -25594.081   -62068.948    27694.359   -42407.652   -10228.868   -4537.4217     6585.319    85.816518 
   81500    1227.2813   -109.46301    1.1104699   -108.35254   -26699.032    4.3995999    4.3995999    4.3995999   -26699.032   -12661.679    -25502.84   -41932.577    10032.445     15704.68   -33329.235    85.160763 
   81600    1923.7248   -110.08933    1.7406267   -108.34871    22886.339     4.386156     4.386156     4.386156    22886.339    13096.034    19066.818    36496.165      7934.45    4335.8278    24274.389    84.382468 
   81700    1493.9125   -109.72177    1.3517235   -108.37005   -3883.6326    4.3956145    4.3956145    4.3956145   -3883.6326   -26179.575    34563.255   -20034.578    -7057.574    5636.6977   -22600.192    84.929547 
   81800    1030.4713   -109.30971   0.93239209   -108.37732   -35719.366    4.4131771    4.4131771    4.4131771   -35719.366   -54556.679   -61116.082    8514.6637    14925.406    16327.485   -22855.732    85.951623 
   81900    1768.6696   -109.95738    1.6003294   -108.35705    15663.652    4.3923869    4.3923869    4.3923869    15663.652    4532.0781     16215.68    26243.198   -2610.2856    4313.4172    14197.947    84.742595 
   82000    1252.8963   -109.50637    1.1336469   -108.37273   -2765.5979     4.392948     4.392948     4.392948   -2765.5979   -16771.501    25597.711   -17123.003   -2774.6505    88.656567   -8788.2541    84.775077 
   82100    1650.3207   -109.85767    1.4932449   -108.36443   -31260.817    4.4132438    4.4132438    4.4132438   -31260.817   -5143.3325   -56355.134   -32283.986   -1762.8499    9012.6567   -15191.279    85.955516 
   82200    1881.1315   -110.05119    1.7020873    -108.3491    10441.076    4.4014139    4.4014139    4.4014139    10441.076   -6682.6347    10537.206    27468.656   -18928.487   -6395.1336    5361.6496    85.266144 
   82300    1039.9018   -109.30556   0.94092503   -108.36463    5949.5544    4.3885569    4.3885569    4.3885569    5949.5544   -25316.636    42182.818     982.4812     7471.685    3843.6856   -23301.672    84.521111 
   82400    1292.3512    -109.5426    1.1693465   -108.37325     10340.01    4.4060627    4.4060627    4.4060627     10340.01   -2837.8632   -22007.781    55865.673   -5335.2522   -8419.7022   -2444.9092    85.536605 
   82500    2203.0224   -110.34071     1.993341   -108.34737   -4989.7598    4.4168281    4.4168281    4.4168281   -4989.7598   -36946.269   -6461.3215    28438.311   -5860.3682   -13965.284     1089.766    86.165118 
   82600    1076.1166   -109.33569   0.97369294   -108.36199    1176.7662    4.4005271    4.4005271    4.4005271    1176.7662   -27980.206    -1868.584    33379.089    4447.7142    1989.7475   -31677.549    85.214619 
   82700    1301.0638    -109.5432    1.1772299   -108.36597   -18876.131    4.3825206    4.3825206    4.3825206   -18876.131   -24670.848   -8744.0976   -23213.448   -9961.8593   -9567.8145    34285.647    84.172826 
   82800    2004.5213   -110.19426     1.813733   -108.38053    8911.7257    4.3920369    4.3920369    4.3920369    8911.7257    332.74678    23023.735    3378.6951    10271.047    -15954.07   -2461.0586    84.722341 
   82900    1729.9124   -109.93194    1.5652611   -108.36668   -40138.255    4.4258522    4.4258522    4.4258522   -40138.255   -25014.027   -42198.776   -53201.961    5013.8407    6414.7456   -12278.203    86.694337 
   83000    1106.7734   -109.35778    1.0014318   -108.35634   -14666.007    4.4073898    4.4073898    4.4073898   -14666.007   -41606.102    31641.217   -34033.137   -12178.278   -14759.046    35982.153    85.613918 
   83100    2299.0087   -110.40814    2.0801914   -108.32795    22244.839    4.3906608    4.3906608    4.3906608    22244.839    17890.431   -10220.782    59064.868    5801.9929   -6707.1158   -6663.9234    84.642729 
   83200    1411.6845   -109.63109    1.2773218   -108.35377   -3758.6287    4.3955165    4.3955165    4.3955165   -3758.6287   -28034.711   -2590.2474    19349.072   -5581.6586     7578.419    22757.991    84.923865 
   83300     1167.992   -109.43139    1.0568237   -108.37456   -20156.029    4.4140133    4.4140133    4.4140133   -20156.029   -65446.899     2667.801    2311.0129    2132.3904   -2350.2164    8972.7631    86.000486 
   83400     2153.405   -110.29288    1.9484461   -108.34444   -25551.686    4.4197358    4.4197358    4.4197358   -25551.686   -49728.093   -24195.694   -2731.2711    6792.1724    14500.954    11596.703    86.335404 
   83500    1751.9958    -109.9276    1.5852426   -108.34236    1060.6492     4.390397     4.390397     4.390397    1060.6492   -4250.2951   -23046.226    30478.468    1332.1492    3895.6163      22644.8    84.627477 
   83600    1360.4654   -109.59376    1.2309777   -108.36278    -15121.05    4.3918961    4.3918961    4.3918961    -15121.05   -57209.922    24340.709   -12493.936   -1522.5894    7000.6464    2117.8606     84.71419 
   83700    1680.4386   -109.87941    1.5204961   -108.35891   -11917.889    4.4148124    4.4148124    4.4148124   -11917.889   -31120.093   -54153.883     49520.31     19464.93    7927.6468    4676.7167    86.047203 
   83800    1719.6997    -109.8972    1.5560205   -108.34118   -25953.171    4.4251407    4.4251407    4.4251407   -25953.171   -42658.564   -20015.861   -15185.087    -4423.105   -22460.771    16684.191    86.652534 
   83900    1267.5507   -109.48782    1.1469065   -108.34092   -33078.837    4.4077925    4.4077925    4.4077925   -33078.837   -41563.398    6884.9115   -64558.023    7481.6152    11492.581   -24850.199     85.63739 
   84000    1960.2114   -110.10316    1.7736405   -108.32952    16103.773    4.3731003    4.3731003    4.3731003    16103.773    21343.881     -5171.96    32139.398     14485.09     -5278.14    -13345.84    83.631195 
   84100    1550.3218   -109.76561    1.4027638   -108.36285   -22552.517    4.3900544    4.3900544    4.3900544   -22552.517   -49494.296    19130.263   -37293.518   -3824.4014   -3977.3142   -964.02352    84.607665 
   84200    911.45433    -109.2056   0.82470303    -108.3809   -33078.005    4.4087059    4.4087059    4.4087059   -33078.005   -40486.878    3282.9284   -62030.065    7406.3226    30253.154   -28512.886    85.690642 
   84300    2115.8643   -110.27066    1.9144785   -108.35618    2561.3501     4.402606     4.402606     4.402606    2561.3501   -4362.5496   -9135.1845    21181.784    814.81728   -9385.6445   -12683.114    85.335446 
   84400    1548.9235   -109.76074    1.4014985   -108.35924   -10721.618    4.4013831    4.4013831    4.4013831   -10721.618   -18004.157    18980.455   -33141.151   -3390.6814    19834.845    -1073.811    85.264358 
   84500     792.9916   -109.09268   0.71751547   -108.37517    873.40384    4.3851959    4.3851959    4.3851959    873.40384    19971.925   -4737.9498   -12613.764    1417.4317    14685.689   -34166.124    84.327068 
   84600    1595.9661   -109.82645    1.4440637   -108.38238    26802.229    4.3930958    4.3930958    4.3930958    26802.229    15770.472    27090.879    37545.336   -9068.6138    -1788.668    9959.0683    84.783631 
   84700     1820.809   -110.02726    1.6475062   -108.37976   -12336.898    4.4031368    4.4031368    4.4031368   -12336.898     4796.317   -24616.328   -17190.683   -4745.2108    8223.2041   -19051.689    85.366313 
   84800    916.89826    -109.2092   0.82962881   -108.37958    18091.617    4.3915563    4.3915563    4.3915563    18091.617    26422.134     2182.176    25670.541    14019.826    1006.3102   -14543.732    84.694531 
   84900     1743.862   -109.95117     1.577883   -108.37329   -8817.5282    4.3969081    4.3969081    4.3969081   -8817.5282   -25566.492   -4408.2966    3522.2034    13724.576    -14540.99     23916.39    85.004549 
   85000    1775.1368   -109.97321    1.6061811   -108.36703     9582.941    4.3912103    4.3912103    4.3912103     9582.941    10341.491    11882.876    6524.4565     731.8506   -1720.5362   -29068.623    84.674516 
   85100    918.24084   -109.21014   0.83084361   -108.37929   -459.17696    4.4022211    4.4022211    4.4022211   -459.17696   -8906.7009    13274.063   -5744.8926    21593.983   -6756.9815    18880.467    85.313067 
   85200    1508.0362   -109.72468    1.3645028   -108.36018   -22404.585    4.4041032    4.4041032    4.4041032   -22404.585   -11889.416   -20702.455   -34621.883    7097.6853   -10149.684    15249.194    85.422537 
   85300     1955.655   -110.11454    1.7695177   -108.34502    26861.179    4.3852791    4.3852791    4.3852791    26861.179    8422.9543    45682.522    26478.062    3074.8074    7101.3723   -28278.056    84.331869 
   85400    1175.6532   -109.43626    1.0637557   -108.37251   -27523.537    4.4006486    4.4006486    4.4006486   -27523.537   -53696.001    26823.012   -55697.623    13893.062    -11095.91    11944.374    85.221679 
   85500    1815.9294   -109.99486     1.643091   -108.35177    4435.8912    4.4129312    4.4129312    4.4129312    4435.8912    7244.9773    12709.438    -6646.742   -16032.305    11723.276   -4438.6544    85.937252 
   85600    1595.6114   -109.78314    1.4437427    -108.3394   -26668.764     4.426372     4.426372     4.426372   -26668.764   -46471.917    19032.931   -52567.307   -3878.0402   -7417.2253   -4916.3521    86.724883 
   85700    1291.1627    -109.4863    1.1682711   -108.31803   -16292.136    4.4086044    4.4086044    4.4086044   -16292.136   -8439.3937     15852.74   -56289.753   -5063.2972    13213.758    20627.067     85.68472 
   85800    2149.9999   -110.25333    1.9453651   -108.30796    3106.0884    4.3807899    4.3807899    4.3807899    3106.0884   -5317.3073    7297.3237    7338.2489   -16926.571   -6709.5843   -15622.823    84.073141 
   85900    1018.0664   -109.27756   0.92116789   -108.35639   -15809.611    4.3901665    4.3901665    4.3901665   -15809.611   -32487.049    29961.724   -44903.509    178.64314    -25381.54    7350.8534    84.614144 
   86000    1946.8622   -110.11559    1.7615618   -108.35402    9125.5468    4.4027106    4.4027106    4.4027106    9125.5468    11016.048    37055.804   -20695.211   -1915.4249    25818.485    6181.8922    85.341527 
   86100     1017.856   -109.27846   0.92097751   -108.35748   -291.95249    4.4185507    4.4185507    4.4185507   -291.95249    2955.8911    33474.776   -37306.524    2060.2621   -34965.812   -7769.2069    86.265973 
   86200    1450.2044     -109.645    1.3121754   -108.33283   -4043.9853    4.4139681    4.4139681    4.4139681   -4043.9853   -315.55057    35765.147   -47581.552    6510.5665   -1958.1318    13974.768    85.997846 
   86300    1437.6046   -109.61987    1.3007749    -108.3191    13346.197    4.3882138    4.3882138    4.3882138    13346.197   -27860.373    52259.728    15639.237   -10409.278    969.47725   -4058.0957    84.501288 
   86400    1160.5129   -109.40032    1.0500564   -108.35027   -4940.8591    4.3923662    4.3923662    4.3923662   -4940.8591    2417.9143   -12102.194   -5138.2975     1080.674   -23360.084   -9480.6362      84.7414 
   86500    2551.6233   -110.64793    2.3087624   -108.33916    3035.6867    4.4058665    4.4058665    4.4058665    3035.6867    12572.921    1304.1842   -4770.0448    10444.234    18930.924     11647.86    85.525182 
   86600    1134.1715   -109.38942    1.0262223    -108.3632   -1926.6618    4.3904753    4.3904753    4.3904753   -1926.6618   -13896.095   -20322.389    28438.499   -1833.1843   -22134.967   -5654.1285    84.632002 
   86700    1455.5601   -109.67948    1.3170213   -108.36246    11336.174    4.3883143    4.3883143    4.3883143    11336.174    16632.815    11553.761    5821.9449    5061.7879    6614.3815   -2403.1494    84.507097 
   86800    1588.4641   -109.78695    1.4372757   -108.34967   -13038.668    4.4040324    4.4040324    4.4040324   -13038.668   -40522.824    27534.472   -26127.651    7855.9195     2312.581    21729.755    85.418419 
   86900    1409.5127   -109.61771    1.2753567   -108.34235    8955.6991    4.4022412    4.4022412    4.4022412    8955.6991   -17736.424    27873.497    16730.024   -9510.9106   -19092.133     208.4899    85.314233 
   87000    1817.3157   -109.97797    1.6443454   -108.33362    7949.2693    4.3988199    4.3988199    4.3988199    7949.2693   -8741.8926    39212.847   -6623.1469    8205.2177    7236.6654    15655.577    85.115479 
   87100    889.32545   -109.16044   0.80468036   -108.35576   -25030.869    4.3826697    4.3826697    4.3826697   -25030.869    -78547.65     52114.92   -48659.878   -8639.5895    -35084.05    5422.4308    84.181414 
   87200    1934.6695   -110.10755    1.7505296   -108.35703    24790.441    4.3816911    4.3816911    4.3816911    24790.441   -22890.028    22053.422    75207.929    -7748.756    4566.8957    -1239.788    84.125038 
   87300    1495.6656   -109.72343    1.3533097   -108.37012   -36097.187    4.4029234    4.4029234    4.4029234   -36097.187   -68714.878    919.30971   -40495.992    8218.1947   -38483.247   -13630.986    85.353906 
   87400    1093.6682   -109.34939   0.98957396   -108.35981    14979.182    4.3964129    4.3964129    4.3964129    14979.182   -40513.603    62247.238     23203.91   -8872.5763   -5398.4995    14685.734    84.975829 
   87500    1915.5286   -110.07023    1.7332105   -108.33702   -9222.7995    4.3972493    4.3972493    4.3972493   -9222.7995    -27906.42   -7719.4314    7957.4532   -4640.0259   -3405.8664   -39514.667    85.024337 
   87600    843.57704   -109.11691   0.76328623   -108.35362   -15915.519    4.3904375    4.3904375    4.3904375   -15915.519    -80141.54    55258.652   -22863.668    10132.191   -20845.871    6354.8017    84.629818 
   87700    2038.9973   -110.18559    1.8449276   -108.34066    28277.088    4.3748613    4.3748613    4.3748613    28277.088    24728.597    27277.405    32825.261   -4116.2201    14542.158   -18272.815    83.732269 
   87800    1226.5276   -109.47942    1.1097879   -108.36964   -3261.4477    4.3938968    4.3938968    4.3938968   -3261.4477   -18087.854    23947.774   -15644.263    4642.6082   -14238.376   -34300.099    84.830017 
   87900    1480.6715   -109.68907    1.3397427   -108.34933   -18635.214     4.408699     4.408699     4.408699   -18635.214   -63540.433    11950.577   -4315.7855    4745.7999    4139.4169    9568.8265    85.690237 
   88000    1671.5165   -109.85217    1.5124232   -108.33975    6724.1741    4.3965443    4.3965443    4.3965443    6724.1741   -3073.8712    -9690.903    32937.297    2228.9907    5657.3759   -30939.522    84.983449 
   88100    978.62066   -109.24405   0.88547653   -108.35857   -10300.128    4.3740093    4.3740093    4.3740093   -10300.128    -30375.74    31946.231   -32470.875    10071.967   -27329.814   -11871.147    83.683362 
   88200    2023.5148   -110.19219    1.8309187   -108.36127    25866.296    4.3779585    4.3779585    4.3779585    25866.296    3410.0638    22775.301    51413.524   -2632.6105    19724.079   -2738.1239     83.91023 
   88300    1299.4092   -109.53766    1.1757327   -108.36193   -19799.783    4.4097613    4.4097613    4.4097613   -19799.783    8261.3332   -28265.968   -39394.715   -4629.0862    -7936.614    401.51004    85.752195 
   88400    1637.3583   -109.82918    1.4815162   -108.34766   -11482.012    4.3955297    4.3955297    4.3955297   -11482.012   -55203.567    26496.376    -5738.843    10551.155    -30135.36   -9194.0052    84.924627 
   88500    1341.2852   -109.55462     1.213623     -108.341    41980.568     4.370476     4.370476     4.370476    41980.568    69627.746    23780.296    32533.663   -7873.3235    21620.134    31026.927    83.480728 
   88600    1429.4933   -109.65255    1.2934356   -108.35912   -8771.6479    4.3842649    4.3842649    4.3842649   -8771.6479   -12259.781   -9401.4398   -4653.7227   -6082.4502   -31902.093    6863.7999    84.273368 
   88700    1776.2024   -109.95972    1.6071452   -108.35258    14566.514    4.3973906    4.3973906    4.3973906    14566.514    1729.1715    34436.759    7533.6123    5843.9917   -10181.463    11007.246    85.032536 
   88800    1462.3972   -109.67536    1.3232077   -108.35215   -11570.668    4.3990951    4.3990951    4.3990951   -11570.668    11598.555   -36836.472    -9474.088   -5339.0087   -3451.2871    42445.238    85.131451 
   88900     1164.756   -109.41189    1.0538957   -108.35799    710.10805    4.3859449    4.3859449    4.3859449    710.10805   -59885.105    57396.066    4619.3632   -5921.1271   -37112.825   -14023.378    84.370286 
   89000    1660.0933    -109.8563    1.5020873   -108.35421    18011.781    4.3790519    4.3790519    4.3790519    18011.781      26412.4    3720.1924    23902.752    14662.187    6910.5795    41179.144    83.973119 
   89100    1455.8261   -109.67914    1.3172621   -108.36188   -12779.481    4.3994474    4.3994474    4.3994474   -12779.481   -18111.596   -4804.2571   -15422.589   -11145.445   -24796.224     14156.46    85.151908 
   89200    1477.3733   -109.67942    1.3367584   -108.34267    4494.1913    4.4006587    4.4006587    4.4006587    4494.1913   -28344.718    6241.0133    35586.279   -2249.2403   -9908.8322    2691.0596    85.222261 
   89300    1679.7533   -109.85837    1.5198761   -108.33849   -7192.8877    4.3953222    4.3953222    4.3953222   -7192.8877    29598.688    -29299.59   -21877.761    10975.005    4393.6524    43197.371    84.912601 
   89400    1101.9718   -109.34265   0.99708722   -108.34556    3338.9573    4.3926538    4.3926538    4.3926538    3338.9573   -58778.279    23249.758    45545.393   -11370.362   -24651.102   -712.98314    84.758043 
   89500    1529.1464   -109.73941    1.3836038    -108.3558   -7412.2342    4.3953593    4.3953593    4.3953593   -7412.2342    23060.412   -21179.286   -24117.829    10533.663   -1525.5646    16918.051    84.914752 
   89600    1786.4863   -109.96625    1.6164503    -108.3498   -6181.1596    4.3978555    4.3978555    4.3978555   -6181.1596    9993.3569   -12427.462   -16109.374   -298.07449   -8165.4173    14860.043     85.05951 
   89700    1356.3177   -109.56525    1.2272247   -108.33802    4110.1875    4.3971703    4.3971703    4.3971703    4110.1875   -1862.4479    6292.5419    7900.4684   -7486.0084   -27138.986   -5985.6076    85.019755 
   89800     1447.412   -109.64854    1.3096488   -108.33889    715.06703     4.398385     4.398385     4.398385    715.06703    57460.055   -41779.175   -13535.679    6660.6265    3088.0158    24538.898    85.090238 
   89900    1607.5882   -109.79835    1.4545796   -108.34377   -13597.086     4.405233     4.405233     4.405233   -13597.086   -19024.513   -12232.984   -9533.7623   -8264.0207   -34611.872   -12032.641    85.488295 
   90000    1803.6781   -109.97442    1.6320059   -108.34241     10287.74    4.3967961    4.3967961    4.3967961     10287.74    47413.247   -23366.635    6816.6096   -17341.385    14823.883    5897.2186    84.998053 
   90100    1425.1324   -109.63651    1.2894897   -108.34702    -11502.11    4.3957626    4.3957626    4.3957626    -11502.11   -26060.456    1323.1097    -9768.984    12394.526   -37726.405    9224.9463     84.93813 
   90200    1601.0777   -109.79182    1.4486888   -108.34313    -851.4302    4.4072615    4.4072615    4.4072615    -851.4302   -13276.845    26129.129   -15406.575   -15094.915   -6709.9015   -7672.2344    85.606445 
   90300    1181.7138   -109.40473    1.0692395   -108.33549   -5761.3039    4.4136715    4.4136715    4.4136715   -5761.3039   -6945.5921    11952.253   -22290.572   -10786.689   -11873.073    17355.024    85.980513 
   90400    1206.9092   -109.42008    1.0920368   -108.32805    22451.247    4.4088551    4.4088551    4.4088551    22451.247    9247.9154     81766.46   -23660.635   -3157.7946   -22088.935   -9736.3889    85.699337 
   90500     1594.709   -109.76275    1.4429262   -108.31983    200.33279    4.4024747    4.4024747    4.4024747    200.33279    -8833.991    49369.905   -39934.916   -15667.626    20875.278    14904.834     85.32781 
   90600    1159.8229    -109.3868    1.0494321   -108.33737   -8052.6754    4.3990277    4.3990277    4.3990277   -8052.6754    5722.3226    15728.439   -45608.788    2055.2905    -41340.42     17036.31    85.127542 
   90700    1735.0293   -109.90645     1.569891   -108.33656   -10021.604    4.4038728    4.4038728    4.4038728   -10021.604   -15340.756    1416.4179   -16140.472    16210.147    33420.361   -12601.332    85.409129 
   90800    1555.2076   -109.75413    1.4071845   -108.34695   -23665.296    4.3971275    4.3971275    4.3971275   -23665.296   -17557.925   -6116.4971   -47321.467   -6146.0821     -11195.1    46354.262    85.017271 
   90900    1602.0179   -109.79501    1.4495395   -108.34547    15912.757    4.3926088    4.3926088    4.3926088    15912.757    23243.231    33032.186   -8537.1457    18596.091   -3330.1874    910.50949    84.755441 
   91000    1339.9721   -109.56102     1.212435   -108.34858   -18235.501    4.4025808    4.4025808    4.4025808   -18235.501    -47259.28    9006.4913   -16453.715    3987.5066    25786.286    16433.116    85.333979 
   91100    1279.7599   -109.50846    1.1579536   -108.35051     1859.713    4.4091153    4.4091153    4.4091153     1859.713   -5407.4002    37861.462   -26874.922    -11654.57   -15244.048    30526.669    85.714516 
   91200    1781.2634   -109.95654    1.6117246   -108.34482     4733.126    4.3957302    4.3957302    4.3957302     4733.126   -16598.671    56041.311   -25243.262    805.56974    33917.891   -7815.0019    84.936253 
   91300    1025.0324   -109.27137    0.9274709    -108.3439    41958.764    4.3837921    4.3837921    4.3837921    41958.764     56911.29    65653.132    3311.8706    5291.7375   -17901.348    30972.958    84.246108 
   91400    1765.4091   -109.94433    1.5973792   -108.34695   -12537.901    4.4015464    4.4015464    4.4015464   -12537.901   -13705.703    5819.0381   -29727.037   -11295.624    18405.639    -605.6401    85.273844 
   91500    1429.1857   -109.63027    1.2931572   -108.33712    3274.8428    4.4055553    4.4055553    4.4055553    3274.8428    2414.3385    20761.587   -13351.397    5060.0844    17206.678    1540.1982    85.507061 
   91600    1594.9713   -109.77945    1.4431636   -108.33629   -6288.2567    4.4016245    4.4016245    4.4016245   -6288.2567    14276.387   -12528.905   -20612.253    9068.0663   -4431.5858    23865.847    85.278384 
   91700    1680.7758   -109.86597    1.5208012   -108.34517    2193.8666     4.394871     4.394871     4.394871    2193.8666    1026.6628    42486.537     -36931.6    -8143.166    42444.156   -40464.441    84.886452 
   91800    1449.3469   -109.66172    1.3113995   -108.35032    32196.226    4.3909538    4.3909538    4.3909538    32196.226    27026.368    85254.826   -15692.515    22216.488   -24453.485    1794.0733    84.659676 
   91900    1483.0853   -109.69332    1.3419268   -108.35139    12110.126    4.3966128    4.3966128    4.3966128    12110.126   -15284.946    52858.941   -1243.6177    18061.607    26437.305    -7634.812    84.987422 
   92000    1026.6264   -109.28684   0.92891318   -108.35793   -3539.7432    4.4037786    4.4037786    4.4037786   -3539.7432    13806.696    21812.299   -46238.225    11389.113    788.35403   -27597.732    85.403648 
   92100     1674.485   -109.85956    1.5151092   -108.34445    2330.1151    4.3960865    4.3960865    4.3960865    2330.1151   -6880.2078    50585.931   -36715.378    22494.933   -20569.872    3235.4762    84.956904 
   92200    1477.8261   -109.68109    1.3371681   -108.34392    22670.007    4.3910914    4.3910914    4.3910914    22670.007    58100.081    13865.285   -3955.3455   -5227.7313    39860.748   -31074.779    84.667635 
   92300    1359.7993   -109.58169     1.230375   -108.35131   -19534.765    4.4107865    4.4107865    4.4107865   -19534.765   -31993.498    10974.679   -37585.475     7364.659   -42928.866   -8740.2156    85.812016 
   92400    1638.0315   -109.81264    1.4821254   -108.33051    7654.9467    4.4078941    4.4078941    4.4078941    7654.9467    38220.738    2859.0029   -18114.901    3240.9731   -134.47376    329.61417    85.643312 
   92500    1382.1725   -109.58415    1.2506187   -108.33353    6615.8204     4.392627     4.392627     4.392627    6615.8204    19478.527     3769.291   -3400.3567     -16374.7   -1023.3052   -28369.705    84.756492 
   92600     1222.879   -109.46017    1.1064866   -108.35368   -3053.1279    4.3956395    4.3956395    4.3956395   -3053.1279   -332.97717        18214   -27040.407   -5717.3369   -58062.314    6905.3099    84.930993 
   92700    1616.7828   -109.81344     1.462899   -108.35054    20181.376    4.3968344    4.3968344    4.3968344    20181.376      65777.2   -32992.006    27758.936    1424.3481   -3664.8688   -4273.3075    85.000273 
   92800    1512.4063   -109.71844     1.368457   -108.34998    11890.998     4.398328     4.398328     4.398328    11890.998    46168.635   -6996.8355   -3498.8061   -3508.1406   -48122.539   -10610.178    85.086925 
   92900    1444.2483   -109.65334    1.3067863   -108.34655    147.56405    4.4088288    4.4088288    4.4088288    147.56405   -4109.6513   -10548.873    15101.217    13929.922   -12410.745    10875.737    85.697806 
   93000    1234.0365   -109.45794    1.1165821   -108.34135    3457.5925    4.3990963    4.3990963    4.3990963    3457.5925    20272.264   -33352.722    23453.236   -14896.114   -13327.726   -3779.3685    85.131522 
   93100    1479.3313   -109.68515    1.3385301   -108.34662     3545.478     4.379988     4.379988     4.379988     3545.478   -4452.1164    1025.9446    14062.606   -10866.579   -38523.428   -11314.721     84.02698 
   93200    2169.5369   -110.32039    1.9630426   -108.35735     16809.24    4.3845995    4.3845995    4.3845995     16809.24    2118.4542   -680.94226    48990.208    22750.554    22989.959    15810.216    84.292666 
   93300    647.36564   -108.96676   0.58575003   -108.38101   -22649.812     4.413986     4.413986     4.413986   -22649.812   -44276.416    24115.927   -47788.948   -20047.974   -38533.976   -16080.213    85.998889 
   93400    1852.4274   -110.01656    1.6761152   -108.34044   -6451.3771    4.4115809    4.4115809    4.4115809   -6451.3771   -7554.8763    4580.4765   -16379.732   -10248.973     8678.079   -5794.7484    85.858391 
   93500    1544.0098   -109.73289    1.3970525   -108.33583    7051.3676    4.3879523    4.3879523    4.3879523    7051.3676   -21117.768    25295.237    16976.634    3521.0667   -16354.445    14623.669    84.486185 
   93600    803.71919   -109.08977   0.72722202   -108.36255   -33742.704     4.383307     4.383307     4.383307   -33742.704   -40664.676   -22414.586    -38148.85   -24059.886   -39607.892   -26435.309    84.218141 
   93700    2142.1836   -110.29981    1.9382928   -108.36152   -4947.0407    4.3896402    4.3896402    4.3896402   -4947.0407   -5983.5393   -11197.648    2340.0655    15818.825    16992.093    3269.8139    84.583716 
   93800    1298.8594   -109.54565    1.1752353   -108.37041   -42582.123    4.4100642    4.4100642    4.4100642   -42582.123    -54383.56     3915.245   -77278.053   -8588.2062   -56323.263   -9806.5031    85.769865 
   93900    1353.4895    -109.5852    1.2246657   -108.36053   -27593.042    4.3941124    4.3941124    4.3941124   -27593.042    1103.9858   -55576.489   -28306.622   -15356.296   -0.2672665   -31391.989    84.842506 
   94000    1679.9391   -109.86865    1.5200442   -108.34861   -8699.4349    4.3801308    4.3801308    4.3801308   -8699.4349    -24205.63    9201.2749    -11093.95    15618.841   -16539.292    7908.0884    84.035203 
   94100     1327.225   -109.56631    1.2009011   -108.36541   -11063.915    4.4004318    4.4004318    4.4004318   -11063.915   -7504.4177    22169.365   -47856.692   -2284.7726   -36148.932   -18379.602    85.209081 
   94200    1419.1773   -109.63301    1.2841015   -108.34891    5122.1939    4.4007739    4.4007739    4.4007739    5122.1939    17992.433   -13115.454    10489.603   -5006.3857    5554.0487   -29582.277    85.228959 
   94300    1326.8749   -109.54836    1.2005843   -108.34778   -3314.9356    4.3954722    4.3954722    4.3954722   -3314.9356   -39289.651    27308.613    2036.2318    4404.2903   -34772.822    9240.9851    84.921296 
   94400    1487.4454   -109.69949    1.3458719   -108.35362   -359.41077    4.3996442    4.3996442    4.3996442   -359.41077    14043.345   -1165.2862   -13956.291    1828.5951    13050.673   -20588.169    85.163335 
   94500    1559.7519    -109.7618    1.4112963   -108.35051    11686.126    4.3936603    4.3936603    4.3936603    11686.126    32264.254    2630.7233    163.40122   -7764.0191     3783.095   -7418.3537    84.816322 
   94600    1313.1177   -109.55789    1.1881365   -108.36976   -20500.622    4.3950263    4.3950263    4.3950263   -20500.622   -44755.469    8062.2161   -24808.613    8240.5207   -17044.746    15007.739    84.895457 
   94700    1241.5827    -109.4958    1.1234101   -108.37239    13771.576    4.3892589    4.3892589    4.3892589    13771.576   -5511.8131    30412.582     16413.96   -6002.1021    29216.984   -19029.727    84.561676 
   94800    1652.0891   -109.85993     1.494845   -108.36509    25719.544     4.389694     4.389694     4.389694    25719.544     16066.38    45387.062    15705.191   -923.26674    -22733.49    1758.7125    84.586826 
   94900    1475.5226   -109.70446    1.3350839   -108.36938   -9695.5078    4.4012637    4.4012637    4.4012637   -9695.5078   -22351.711    13620.119    -20354.93     17343.33    11828.722    11999.733    85.257414 
   95000    1499.9558   -109.72263    1.3571915   -108.36544   -11892.538    4.4008494    4.4008494    4.4008494   -11892.538   -2774.2766    16302.933    -49206.27   -14203.632    24715.998   -16554.975    85.233345 
   95100    1658.9041   -109.85899    1.5010113   -108.35798    11507.536    4.3904263    4.3904263    4.3904263    11507.536     10077.03    13990.749     10454.83    14815.836   -8112.7627   -2077.4785     84.62917 
   95200    1104.9502    -109.3745   0.99978213   -108.37471   -6026.9784    4.3897747    4.3897747    4.3897747   -6026.9784    5491.9822    15036.683     -38609.6    15201.478    33254.412    13176.999    84.591495 
   95300    1671.7589   -109.88087    1.5126426   -108.36823   -11500.603    4.3991471    4.3991471    4.3991471   -11500.603    12541.962   -6470.9396   -40572.831   -14944.789    4542.4385   -19208.037    85.134476 
   95400    1868.9052   -110.04531    1.6910247   -108.35428   -325.14976    4.4009043    4.4009043    4.4009043   -325.14976   -4813.0567    26622.477   -22784.869    17591.176    17218.523   -2931.8586    85.236532 
   95500    1005.9493   -109.27345   0.91020406   -108.36325    9859.5461    4.3930161    4.3930161    4.3930161    9859.5461    26062.024    36070.244   -32553.629    12936.978    17251.545    3298.3861    84.779018 
   95600    1544.0954   -109.75697    1.3971299   -108.35984    1860.9576    4.3846069    4.3846069    4.3846069    1860.9576    6961.9874    16575.479   -17954.594   -6500.1521   -24235.616   -25288.838    84.293094 
   95700    1877.1224   -110.06711    1.6984598   -108.36865    13442.533    4.3855902    4.3855902    4.3855902    13442.533   -9438.6799     55667.53   -5901.2509    7272.5582    25048.596    15368.507    84.349814 
   95800    1337.6835   -109.59503    1.2103641   -108.38466    19891.106    4.3954083    4.3954083    4.3954083    19891.106    48752.306    40781.401   -29860.389    15186.734   -17709.621   -7090.0674    84.917592 
   95900    1281.6613   -109.53495    1.1596741   -108.37527   -31853.112    4.4137161    4.4137161    4.4137161   -31853.112   -1521.0503   -11437.996    -82600.29   -12401.852   -13566.506   -3540.4444    85.983118 
   96000    1764.8184    -109.9572    1.5968448   -108.36035    6639.1176    4.3837907    4.3837907    4.3837907    6639.1176   -11364.373    24276.092    7005.6336    16239.379     9713.525    7469.0724    84.246028 
   96100    1560.2213   -109.76376     1.411721   -108.35204    37682.454    4.3637047    4.3637047    4.3637047    37682.454    74083.708    45894.992   -6931.3372    18091.549   -31670.785   -4190.7266    83.093311 
   96200    1559.2262   -109.78792    1.4108206    -108.3771   -13196.874    4.3978666    4.3978666    4.3978666   -13196.874    7967.0736   -10656.292   -36901.404   -14015.714   -445.30525    14337.795    85.060152 
   96300    1434.6147   -109.66474    1.2980695   -108.36667   -1123.4801    4.4011101    4.4011101    4.4011101   -1123.4801    20286.064   -20411.958   -3244.5462    21818.569   -14670.165    5732.7289    85.248491 
   96400    1553.1661   -109.76591    1.4053373   -108.36057    24289.458    4.3894689    4.3894689    4.3894689    24289.458    3026.8481    46311.193    23530.334   -4768.4154   -21264.653    981.88041    84.573818 
   96500    1613.3723   -109.82134    1.4598132   -108.36153    8509.4899    4.3931651    4.3931651    4.3931651    8509.4899    27123.891    4723.0311   -6318.4522    7020.9649    10444.715     25320.73    84.787643 
   96600    1150.4202   -109.41455    1.0409244   -108.37362    7626.8805    4.3895714    4.3895714    4.3895714    7626.8805   -15652.432    15247.059    23286.014    13797.716   -18857.806   -10491.171    84.579739 
   96700    1723.7569   -109.93609    1.5596915    -108.3764   -4686.7558    4.3964178    4.3964178    4.3964178   -4686.7558   -29057.837    31544.991   -16547.422     -1090.83   -22534.412    12251.164    84.976118 
   96800    1733.7514   -109.94213    1.5687347    -108.3734    28632.961    4.3886477    4.3886477    4.3886477    28632.961    55530.208    38831.071   -8462.3947     9762.647     8270.836    14069.452    84.526358 
   96900    1315.9784   -109.57868    1.1907249   -108.38796    -7434.312    4.3820389    4.3820389    4.3820389    -7434.312   -54090.474    10477.968     21309.57    13280.945   -42175.791   -6271.2505    84.145069 
   97000    1591.3082    -109.8301    1.4398491   -108.39025   -5546.6661     4.392794     4.392794     4.392794   -5546.6661   -13929.229     21346.52    -24057.29    -27465.34   -3764.9887    6055.7663    84.766161 
   97100     1888.219    -110.0825    1.7085002     -108.374   -11600.133    4.3961305    4.3961305    4.3961305   -11600.133   -5364.3588   -227.03097   -29209.009    4872.2327    11915.976    6277.6385    84.959454 
   97200    1296.4278   -109.54816    1.1730351   -108.37513   -21217.031    4.3999894    4.3999894    4.3999894   -21217.031   -36447.536   -16602.402   -10601.156   -7297.0701   -37886.384    11777.128    85.183384 
   97300    1569.3335   -109.78117    1.4199659    -108.3612   -19303.726    4.3991618    4.3991618    4.3991618   -19303.726   -31800.869    7240.7716   -33351.081   -27788.489    36571.826   -7533.0123    85.135327 
   97400    1819.1791   -109.99968    1.6460315   -108.35365    10831.487    4.3889214    4.3889214    4.3889214    10831.487    24002.012    24855.001   -16362.552    6796.1942    -4034.001    28215.891    84.542176 
   97500    1442.7355   -109.67567    1.3054174   -108.37025    3396.2557    4.3825614    4.3825614    4.3825614    3396.2557   -24149.773    49797.931   -15459.391   -571.39309   -8477.5823   -7526.0117    84.175175 
   97600    1236.2569   -109.51117    1.1185912   -108.39257     14255.07     4.390594     4.390594     4.390594     14255.07   -3910.2919    39616.486    7059.0147   -5572.4874    44349.563   -487.58906    84.638864 
   97700    2002.8788   -110.17878    1.8122468   -108.36653    598.02857    4.4109551    4.4109551    4.4109551    598.02857   -43418.102    46755.515   -1543.3275    2164.8046   -13433.517    4997.7727    85.821858 
   97800    1277.5277   -109.53618    1.1559339   -108.38025    3895.2639    4.3875057    4.3875057    4.3875057    3895.2639   -53181.284    39268.561    25598.515   -2326.8458    28607.774   -18499.956    84.460392 
   97900    1037.3731   -109.31939   0.93863699   -108.38075     16815.36    4.3683933    4.3683933    4.3683933     16815.36   -39604.007    30295.453    59754.635   -14437.032    23901.546    -4394.684     83.36144 
   98000    2117.2894   -110.29334     1.915768   -108.37757    16997.676    4.3870274    4.3870274    4.3870274    16997.676    -13348.83    32386.998     31954.86    13277.496   -18555.149   -13495.989    84.432773 
   98100    1240.0906   -109.51246      1.12206    -108.3904   -31699.767    4.4096022    4.4096022    4.4096022   -31699.767   -67780.968    5589.1375   -32907.471   -22842.242    26964.644    3920.3508    85.742916 
   98200    1231.6185   -109.48246    1.1143943   -108.36806   -48149.316    4.4075219    4.4075219    4.4075219   -48149.316   -82244.222   -39297.256    -22906.47   -9481.7715   -3389.7701   -11852.745     85.62162 
   98300    1826.4124   -109.99891    1.6525763   -108.34634    33564.022    4.3685539    4.3685539    4.3685539    33564.022    10768.524    80990.066    8933.4774    17183.104   -17658.338    2659.5774    83.370634 
   98400    1592.0099   -109.80932     1.440484   -108.36884    564.41843    4.3760582    4.3760582    4.3760582    564.41843   -27304.453     19397.54    9600.1686   -52906.948    20975.264    2423.6078    83.801014 
   98500    1091.5991   -109.36958   0.98770177   -108.38188   -5179.1144    4.4014864    4.4014864    4.4014864   -5179.1144   -39274.733    61232.672   -37495.282    6027.4755   -28809.776    -2938.863    85.270359 
   98600    1734.8291   -109.92688    1.5697098   -108.35717    952.14658    4.4106475    4.4106475    4.4106475    952.14658    -4205.125    26398.816   -19337.251    17174.386   -2811.5154      13224.8    85.803906 
   98700    1724.2323   -109.92192    1.5601216    -108.3618   -20982.664    4.3953514    4.3953514    4.3953514   -20982.664   -42320.803   -1218.1932   -19408.996   -43691.576   -8167.6622   -5194.2784    84.914295 
   98800    1018.3315   -109.29224   0.92140778   -108.37083    23429.014    4.3703237    4.3703237    4.3703237    23429.014     -1791.18    78769.987   -6691.7644    27551.292   -36768.469   -9399.8872       83.472 
   98900    2073.9273   -110.25326     1.876533   -108.37672    4859.3146      4.38229      4.38229      4.38229    4859.3146   -23160.697    25475.572    12263.069    14460.978    14723.264    3413.6174    84.159539 
   99000    1377.7553   -109.62517     1.246622   -108.37855    1080.2558     4.393856     4.393856     4.393856    1080.2558   -47796.272    51508.157   -471.11773   -12643.005   -26764.658   -1693.3656    84.827656 
   99100    865.38544   -109.16864   0.78301893   -108.38562   -16827.104    4.3933314    4.3933314    4.3933314   -16827.104   -47301.513    7676.1317    -10855.93    40150.563   -14653.285   -5987.3047    84.797277 
   99200    1992.4033   -110.17544    1.8027684   -108.37267   -4114.3164    4.3886687    4.3886687    4.3886687   -4114.3164   -12949.459    10341.166   -9734.6561   -5955.0858    37491.712     4032.395    84.527573 
   99300    2002.1673   -110.17904    1.8116031   -108.36744    6185.6004    4.3731638    4.3731638    4.3731638    6185.6004   -3344.9422    23772.846   -1871.1026    20173.603   -21374.922   -6459.2557    83.634843 
   99400    745.30438   -109.06811   0.67436707   -108.39375   -12904.563    4.3878092    4.3878092    4.3878092   -12904.563   -4132.5216    -24801.17   -9779.9985    33883.565    11114.377   -5195.9126    84.477921 
   99500    1634.0742   -109.85336    1.4785447   -108.37482   -20411.826    4.3968653    4.3968653    4.3968653   -20411.826   -26702.761   -11303.988    -23228.73   -14332.607    39102.538   -2494.4239    85.002065 
   99600    1974.0484   -110.14928    1.7861605   -108.36312     4147.594    4.3921649    4.3921649    4.3921649     4147.594    14562.593   -15592.522    13472.711    18346.706   -9278.7486   -809.82243    84.729745 
   99700    1239.2662   -109.49829    1.1213141   -108.37698   -35071.181    4.3918836    4.3918836    4.3918836   -35071.181   -58232.255   -13938.888     -33042.4    12994.735    23117.029   -5618.9186    84.713467 
   99800    1222.4303   -109.48495    1.1060806   -108.37887    6266.5792    4.3759979    4.3759979    4.3759979    6266.5792   -33596.743    33665.136    18731.345   -40316.918    15152.775     1482.735    83.797551 
   99900    2243.7018   -110.40304    2.0301485   -108.37289    5902.3097    4.3894817    4.3894817    4.3894817    5902.3097   -18290.428    5443.2742    30554.083     979.0754   -5076.6122   -649.51594    84.574559 
  100000    1079.4403   -109.36827   0.97670022   -108.39157    8242.2258    4.3931841    4.3931841    4.3931841    8242.2258    -28932.55     16086.97    37572.257   -17936.206    24119.218    3809.8663    84.788748 
Loop time of 21.7378 on 1 procs for 100000 steps with 8 atoms

Pair  time (%) = 6.59288 (30.3291)
Kspce time (%) = 5.37365 (24.7203)
Neigh time (%) = 0.127132 (0.584842)
Comm  time (%) = 0.887523 (4.08285)
Outpt time (%) = 0.0254068 (0.116879)
Other time (%) = 8.73121 (40.166)

Nlocal:    8 ave 8 max 8 min
Histogram: 1 0 0 0 0 0 0 0 0 0
Nghost:    1756 ave 1756 max 1756 min
Histogram: 1 0 0 0 0 0 0 0 0 0
Neighs:    2018 ave 2018 max 2018 min
Histogram: 1 0 0 0 0 0 0 0 0 0

Total # of neighbors = 2018
Ave neighs/atom = 252.25
Neighbor list builds = 1657
Dangerous builds = 0
unfix 20
unfix 21
print "seeds:5887242"
seeds:5887242
