LAMMPS (10 Feb 2015)
# ---- initialize simulations
clear
units metal
dimension 3
boundary p p p
atom_style charge
atom_modify map array
# ---- create atoms
read_data /Users/eugeneragasa/pyflamestk_git/pypospack/tests/tests_integration/workflow/WorkflowLammpsThermalExpansion/param_7521/MgO_NaCl_unit.npt.T1000/lammps.structure
  triclinic box = (0 0 0) to (4.2565 4.2565 4.2565) with tilt (0 0 0)
  1 by 1 by 1 MPI processor grid
  reading atoms ...
  8 atoms
# ---- define interatomic potential
include potential.mod
mass 1 24.305
mass 2 15.999

group Mg type 1
4 atoms in group Mg
group O type 2
4 atoms in group O

set group Mg charge 1.63791250839
  4 settings made for charge
set group O charge -1.63791250839
  4 settings made for charge

variable R_cut equal 10.0

pair_style buck/coul/long ${R_cut}
pair_style buck/coul/long 10
pair_coeff 1 1 0.0 0.5 0.0 ${R_cut}
pair_coeff 1 1 0.0 0.5 0.0 10
pair_coeff 1 2 1465.92328509 0.282476486176 0.0 ${R_cut}
pair_coeff 1 2 1465.92328509 0.282476486176 0.0 10
pair_coeff 2 2 5816.20442115 0.096233749689 18.932341092 ${R_cut}
pair_coeff 2 2 5816.20442115 0.096233749689 18.932341092 10

kspace_style pppm 1.0e-5

neighbor 1.0 bin
neigh_modify every 1 delay 0 check yes
# ---- define settings
compute eng all pe/atom
compute eatoms all reduce sum c_eng
# ---- run minimization
reset_timestep 0
fix 1 all box/relax iso 0.0 vmax 0.001
thermo 10
thermo_style custom step pe lx ly lz xy xz yz press pxx pyy pzz pxy pxz pyz c_eatoms
min_style cg
minimize 1e-25 1e-25 5000 10000
PPPM initialization ...
  G vector (1/distance) = 0.35267
  grid = 8 8 8
  stencil order = 5
  estimated absolute RMS force accuracy = 3.88211e-05
  estimated relative force accuracy = 2.69597e-06
  using double precision FFTs
  3d grid and FFT values/proc = 3375 512
Neighbor list info ...
  1 neighbor list requests
  update every 1 steps, delay 0 steps, check yes
  master list distance cutoff = 11
Memory usage per processor = 4.06549 Mbytes
Step PotEng Lx Ly Lz Xy Xz Yz Press Pxx Pyy Pzz Pxy Pxz Pyz eatoms 
       0   -108.70031       4.2565       4.2565       4.2565            0            0            0    82041.316    82041.316    82041.316    82041.316 -4.6499549e-11 -1.1702618e-10 1.7098221e-10   -108.70031 
      10   -108.77917     4.299065     4.299065     4.299065            0            0            0    28384.418    28384.418    28384.418    28384.418 -2.893711e-10 1.1285336e-10 8.1895601e-11   -108.77917 
      19   -108.79132    4.3240425    4.3240425    4.3240425            0            0            0 -0.024351241 -0.024351241 -0.024351241 -0.024351241 1.5580285e-11 -3.1606067e-12 1.2588801e-10   -108.79132 
Loop time of 0.00819707 on 1 procs for 19 steps with 8 atoms

Minimization stats:
  Stopping criterion = linesearch alpha is zero
  Energy initial, next-to-last, final = 
        -108.700309346      -108.79131697      -108.79131697
  Force two-norm initial, final = 11.8468 7.13952e-05
  Force max component initial, final = 11.8468 1.5084e-05
  Final line search alpha, max atom move = 0.5 7.54202e-06
  Iterations, force evaluations = 19 24

Pair  time (%) = 0.00226712 (27.6577)
Kspce time (%) = 0.00134492 (16.4073)
Neigh time (%) = 0 (0)
Comm  time (%) = 0.000247478 (3.01911)
Outpt time (%) = 1.21593e-05 (0.148338)
Other time (%) = 0.00432539 (52.7675)

Nlocal:    8 ave 8 max 8 min
Histogram: 1 0 0 0 0 0 0 0 0 0
Nghost:    2189 ave 2189 max 2189 min
Histogram: 1 0 0 0 0 0 0 0 0 0
Neighs:    2344 ave 2344 max 2344 min
Histogram: 1 0 0 0 0 0 0 0 0 0

Total # of neighbors = 2344
Ave neighs/atom = 293
Neighbor list builds = 0
Dangerous builds = 0
unfix 1
# ---- define output variables ----
variable natoms equal "count(all)"
variable tot_energy equal "c_eatoms"
variable length_x equal "lx"
variable length_y equal "ly"
variable length_z equal "lz"
variable tilt_xy equal "xy"
variable tilt_xz equal "xz"
variable tilt_yz equal "yz"
variable tot_press equal "press"
variable press_xx equal "pxx"
variable press_yy equal "pyy"
variable press_zz equal "pzz"
variable press_xy equal "pxy"
variable press_xz equal "pxz"
variable press_yz equal "pyz"

# ---- output ----
print "pypospack:output_section:begin"
pypospack:output_section:begin
print "tot_energy = ${tot_energy}"
tot_energy = -108.791316969709
print "num_atoms = ${natoms}"
num_atoms = 8
print "xx = ${length_x}"
xx = 4.32404254484564
print "yy = ${length_y}"
yy = 4.32404254484564
print "zz = ${length_z}"
zz = 4.32404254484564
print "xy = ${tilt_xy}"
xy = 0
print "xz = ${tilt_xz}"
xz = 0
print "yz = ${tilt_yz}"
yz = 0
print "tot_press = ${tot_press}"
tot_press = -0.0243512411551094
print "pxx = ${press_xx}"
pxx = -0.0243512413415371
print "pyy = ${press_yy}"
pyy = -0.0243512409516822
print "pzz = ${press_zz}"
pzz = -0.024351241172109
print "pxy = ${press_xy}"
pxy = 1.55802849425254e-11
print "pxz = ${press_xz}"
pxz = -3.16060668162342e-12
print "pyz = ${press_yz}"
pyz = 1.25888006757422e-10
print "pypospack:output_section:done"
pypospack:output_section:done
print "pypospack:lammps_sim:done"
pypospack:lammps_sim:done
#------------------------------------------------------------------------------
# RUN THERMOSTAT
# running using an NPT Nose-Hoover style thermostat
#------------------------------------------------------------------------------
variable tempdamp equal 0.1
variable pressdamp equal 1.0
# set initial velocities
velocity all create 1000 8390513 mom yes dist gaussian loop all
# fix for Nose-Hoover style thermostat
fix 20 all npt temp 1000 1000 0.1 aniso 0.0 0.0 1.0 drag 1.0 couple xyz
variable boxx equal lx
variable boxy equal ly
variable boxz equal lz
variable boxp equal press
variable boxt equal temp
# calculate averages every 10000 steps
reset_timestep 0
fix 21 all ave/time 10 10 100 v_boxx v_boxy v_boxz v_boxp v_boxt file lattice.out
thermo_style custom step temp pe ke etotal press lx ly lz press pxx pyy pzz pxy pxz pyz vol
thermo_modify flush yes
thermo 100
run 100000
PPPM initialization ...
  G vector (1/distance) = 0.351996
  grid = 8 8 8
  stencil order = 5
  estimated absolute RMS force accuracy = 4.00454e-05
  estimated relative force accuracy = 2.781e-06
  using double precision FFTs
  3d grid and FFT values/proc = 3375 512
Memory usage per processor = 3.06549 Mbytes
Step Temp PotEng KinEng TotEng Press Lx Ly Lz Press Pxx Pyy Pzz Pxy Pxz Pyz Volume 
       0         1000   -108.79133   0.90482102   -107.88651    11952.164    4.3240425    4.3240425    4.3240425    11952.164    18760.765    6638.9011    10456.825    4832.5853   -5122.6371    1936.8322    80.848111 
     100    226.08989   -107.97555   0.20457089   -107.77098    21900.574    4.3503504    4.3503504    4.3503504    21900.574    66634.686   -31535.437    30602.473   -3328.8391    1365.3054   -1960.7298     82.33277 
     200    785.45717   -108.22702   0.71069815   -107.51632   -38667.247    4.3785528    4.3785528    4.3785528   -38667.247   -32429.991   -54644.877   -28926.874   -879.57493     6479.907   -5097.5214    83.944407 
     300    670.12835   -107.91438   0.60634621   -107.30804    34442.661    4.3453543    4.3453543    4.3453543    34442.661    76571.142   -21066.574    47823.415    334.79833   -8990.1251    1076.9451    82.049431 
     400    1094.6871   -108.14147   0.99049586   -107.15097    -1188.495    4.3512807    4.3512807    4.3512807    -1188.495    31397.691   -24997.789   -9965.3871   -8755.4318    14724.872     -13560.7    82.385597 
     500    822.97213   -107.77792   0.74464248   -107.03328   -14498.798    4.3881089    4.3881089    4.3881089   -14498.798    27934.255   -63498.754   -7931.8943    1431.5873   -5020.2712   -3100.1443    84.495232 
     600    1187.5305   -108.03771    1.0745025    -106.9632   -824.75747    4.3700096    4.3700096    4.3700096   -824.75747    18862.918   -23667.783    2330.5921   -2978.5702   -4008.9016   -2843.0363    83.454003 
     700    712.24025   -107.60327   0.64444994   -106.95882   -8090.1843    4.3708981    4.3708981    4.3708981   -8090.1843    5806.9026   -44361.017    14283.561   -1347.6753    3076.5106    323.32594    83.504915 
     800    733.96953   -107.63309   0.66411105   -106.96898    27825.713    4.3633743    4.3633743    4.3633743    27825.713    118532.66   -21832.517   -13223.004    12137.093    11883.466     5569.026    83.074436 
     900    1017.8947   -107.91875   0.92101248   -106.99774   -7546.0671    4.3813382    4.3813382    4.3813382   -7546.0671     31641.53   -38238.072   -16041.659   -4117.3737   -7461.2508   -2897.5806    84.104713 
    1000    803.70674   -107.72126   0.72721075   -106.99405   -25854.648    4.3841895    4.3841895    4.3841895   -25854.648    10429.552   -61015.648   -26977.848   -6281.5776    1255.2963    14320.456    84.269023 
    1100     1287.423   -108.14006    1.1648873   -106.97517    8668.7022    4.3551691    4.3551691    4.3551691    8668.7022    45132.642   -7584.4668   -11542.069   -4237.5993    4789.6744   -5560.9168    82.606658 
    1200     807.6606   -107.72018   0.73078828    -106.9894   -7074.6012    4.3792539    4.3792539    4.3792539   -7074.6012    15419.552   -49729.864    13086.508    50.939999   -3007.1946    4510.2447    83.984741 
    1300    763.15176   -107.67228   0.69051575   -106.98176    5920.0662    4.3823679    4.3823679    4.3823679    5920.0662    87462.796   -47819.266   -21883.332   -1497.7789    9139.6924    2324.3627    84.164025 
    1400     1430.348   -108.26595    1.2942089   -106.97174   -9613.1393    4.3740296    4.3740296    4.3740296   -9613.1393   -11456.876   -35375.215    17992.673    9099.1418    76.950332   -2766.5361    83.684523 
    1500     761.3129   -107.66552   0.68885191   -106.97666    12875.841    4.3663268    4.3663268    4.3663268    12875.841    86203.802   -44479.487    -3096.791   -5481.0356   -2147.1384    17207.405    83.243191 
    1600      748.827   -107.66667    0.6775544   -106.98911   -16110.793    4.3840309    4.3840309    4.3840309   -16110.793   -7213.3979   -35100.691   -6018.2887    11941.484    13701.858   -8041.7203    84.259877 
    1700    1069.3561   -107.94254   0.96757588   -106.97497   -5805.6405    4.3788427    4.3788427    4.3788427   -5805.6405    14855.915   -34780.564    2507.7279   -3164.1557   -3416.8867    13698.408    83.961086 
    1800    999.00879   -107.87583   0.90392415   -106.97191   -2432.5305     4.376755     4.376755     4.376755   -2432.5305    42340.703   -31170.219   -18468.075    2469.5432    6474.3381     2374.607    83.841049 
    1900    969.27137   -107.84837    0.8770171   -106.97135   -1065.8047    4.3768816    4.3768816    4.3768816   -1065.8047   -13424.352   -28021.153    38248.091    5301.0835    1303.1772   -4190.0854    83.848328 
    2000    741.24966   -107.65353   0.67069827   -106.98283    9814.0262    4.3839663    4.3839663    4.3839663    9814.0262    31912.802   -49193.347    46722.623   -4385.7531    993.65092    10003.846    84.256155 
    2100    1304.5032   -108.15671     1.180342   -106.97637   -8565.2078     4.380342     4.380342     4.380342   -8565.2078   -14298.591   -25213.766    13816.734     35.72957    9502.7197   -6911.4492    84.047356 
    2200    763.54183   -107.66859    0.6908687   -106.97772    15401.897    4.3697076    4.3697076    4.3697076    15401.897    70419.208   -28524.666     4311.151    4007.9944   -1004.8006    14378.114    83.436701 
    2300    1017.0804   -107.89798   0.92027568    -106.9777    3654.0709    4.3799484    4.3799484    4.3799484    3654.0709   -4701.8968   -33587.798    49251.907   -7168.6185    -12298.85   -413.94328      84.0247 
    2400    1037.9503   -107.91431   0.93915926   -106.97515   -9493.7652    4.3856982    4.3856982    4.3856982   -9493.7652    20877.295   -49078.707    -279.8833    3088.5324    8633.0516    7734.2684    84.356047 
    2500    1152.7764   -108.00701    1.0430563   -106.96396   -7926.8648    4.3790186    4.3790186    4.3790186   -7926.8648    2426.4723   -35480.883     9273.816   -1412.3377   -499.04831    9213.6502      83.9712 
    2600    696.69374    -107.5971   0.63038313   -106.96672    20610.108    4.3695615    4.3695615    4.3695615    20610.108    55275.859   -28378.927    34933.391   -7329.6661    13797.525   -738.10958    83.428331 
    2700    950.20484   -107.84691   0.85976531   -106.98714   -1123.1222    4.3763154    4.3763154    4.3763154   -1123.1222    6702.1831   -37644.703    27573.153    4292.6605   -9015.0531    4712.1143    83.815791 
    2800    1144.5251   -108.02823    1.0355904   -106.99264   -15675.237    4.3877988    4.3877988    4.3877988   -15675.237    8534.8825   -45023.965   -10536.627   -2465.1921   -16117.585   -3729.0972     84.47732 
    2900    1103.5764   -107.97407   0.99853908   -106.97553    10975.975    4.3715028    4.3715028    4.3715028    10975.975    11496.074   -35354.467    56786.317   -1956.4388    3123.8322    9500.4536    83.539579 
    3000    760.68038   -107.66772   0.68827959   -106.97944   -6101.8349    4.3793555    4.3793555    4.3793555   -6101.8349    9219.0118    -28951.74    1427.2236    6212.0897   -11196.818    3494.0722    83.990585 
    3100    1099.5708   -107.95941   0.99491478   -106.96449   -11759.771    4.3826464    4.3826464    4.3826464   -11759.771   -27029.456   -25568.802    17318.946   -2139.6835   -15247.301    894.08024    84.180072 
    3200     948.1806    -107.8197   0.85793373   -106.96177    14373.017    4.3720657    4.3720657    4.3720657    14373.017    30718.953   -33421.874    45821.971   -6175.9577    13011.849    12376.653    83.571855 
    3300     940.4774   -107.81793   0.85096372   -106.96697   -7756.7258    4.3861186    4.3861186    4.3861186   -7756.7258   -23302.498   -42680.709    42713.029    7340.2323   -23960.352    164.44098    84.380309 
    3400    1154.6756   -108.00187    1.0447747   -106.95709   -6755.4365     4.382074     4.382074     4.382074   -6755.4365      2193.28   -43322.796    20863.206   -2011.3734    15285.762    5549.3226    84.147093 
    3500    1026.8341   -107.89711   0.92910109   -106.96801   -3657.9205    4.3801591    4.3801591    4.3801591   -3657.9205    24525.641   -42955.165    7455.7621     2882.444    3703.5591    1955.6577    84.036828 
    3600     1095.283   -107.96794   0.99103504    -106.9769    2575.5459    4.3846084    4.3846084    4.3846084    2575.5459   -5157.1886   -46556.281    59440.107    341.45578   -9730.1239    3452.6258    84.293179 
    3700     776.3649   -107.68417   0.70247128    -106.9817    10260.464     4.381101     4.381101     4.381101    10260.464    22768.291   -42407.393    50420.494    3189.0174    406.99801    6375.8144    84.091054 
    3800    868.22168   -107.77043   0.78558522   -106.98484    3321.6333    4.3773116    4.3773116    4.3773116    3321.6333   -26794.885   -29957.962    66717.748    256.80844    15734.789    4805.4494    83.873039 
    3900    1010.5963   -107.89947   0.91440876   -106.98506    2725.6216    4.3807573    4.3807573    4.3807573    2725.6216    18921.818   -33692.891    22947.938   -96.586543   -7680.4465   -7385.1887    84.071264 
    4000    1068.1928   -107.94747   0.96652327   -106.98095   -7866.8111    4.3890075    4.3890075    4.3890075   -7866.8111    -25981.75   -28310.997    30692.314    4487.2728    7806.1118    8275.8108    84.547149 
    4100    956.40878   -107.83755   0.86537876   -106.97217   -10009.809    4.3933784    4.3933784    4.3933784   -10009.809   -39776.914   -59653.763    69401.251   -3335.7083   -8740.6678   -1594.0088    84.799996 
    4200    1285.4324    -108.1226    1.1630862   -106.95951    8040.3431    4.3656016    4.3656016    4.3656016    8040.3431    33099.332   -29338.794    20360.491   -1448.9373    9154.2927   -2380.4791    83.201718 
    4300     845.8486   -107.75371   0.76534159   -106.98836    4684.3955    4.3829498    4.3829498    4.3829498    4684.3955    -2274.303   -50641.455    66968.945    -4733.497   -5843.4332    8713.3845    84.197554 
    4400    912.18393   -107.79978   0.82536319   -106.97441   -9859.5567    4.3977672    4.3977672    4.3977672   -9859.5567   -33982.332   -58443.275    62846.937   -5647.5411   -7946.2562    449.36789    85.054383 
    4500    1091.5749   -107.95816    0.9876799   -106.97048    5865.6075    4.3674505    4.3674505    4.3674505    5865.6075    27137.467   -30890.609    21349.965   -413.94989    11689.344    12180.672    83.307477 
    4600    1160.5854   -108.04303    1.0501221   -106.99291   -3321.6953    4.3705176    4.3705176    4.3705176   -3321.6953    -4578.335   -26295.935    20909.184   -3005.7433    16601.797   -3633.6952    83.483108 
    4700    968.35652   -107.87519   0.87618933     -106.999   -15253.259     4.394587     4.394587     4.394587   -15253.259   -25312.209   -45459.835    25012.267   -903.77563   -22792.245    5632.0266    84.870001 
    4800    1148.8211   -108.02482    1.0394775   -106.98534   -6035.2859    4.3762052    4.3762052    4.3762052   -6035.2859   -2423.2381   -33864.902    18182.282   -329.19553    9318.5073   -2818.0944    83.809459 
    4900    864.41898   -107.76474   0.78214446    -106.9826    23830.492    4.3700219    4.3700219    4.3700219    23830.492   -35764.431   -4746.9721    112002.88   -928.05791   -12499.134    3698.8494    83.454708 
    5000    1224.7591   -108.09422    1.1081878   -106.98603   -25942.103    4.3900444    4.3900444    4.3900444   -25942.103    4590.1101   -51894.182   -30522.238   -1810.8702     10754.63    7772.6905    84.607088 
    5100    768.49621   -107.67009   0.69535152   -106.97474   -4383.9163    4.3843505    4.3843505    4.3843505   -4383.9163   -7093.2543   -31455.766    25397.272   -5318.8515   -2539.1584   -11704.404    84.278308 
    5200    1158.2021   -108.00767    1.0479656   -106.95971   -8461.8928    4.3772893    4.3772893    4.3772893   -8461.8928    2489.2196   -35524.409    7649.5104   -326.18809   -9415.8107      15958.9    83.871759 
    5300    607.64225   -107.51552   0.54980747   -106.96572    19731.937    4.3803233    4.3803233    4.3803233    19731.937    74754.105   -40666.694    25108.401   -2405.8205   -9905.4521   -6462.6847     84.04628 
    5400    1155.7333   -108.01169    1.0457318   -106.96596   -10537.309    4.3871125    4.3871125    4.3871125   -10537.309     11384.61   -39746.313    -3250.223   -1874.6398   -3996.1841    6417.3225    84.437685 
    5500    911.68595   -107.78497   0.82491261   -106.96006   -8191.0656    4.3872643    4.3872643    4.3872643   -8191.0656    23595.445   -50600.152    2431.5103    2002.2807    5331.7855    9659.5101    84.446451 
    5600    835.05986   -107.71262   0.75557971   -106.95704    7048.4269    4.3729586    4.3729586    4.3729586    7048.4269    12989.342   -14828.019    22983.958    3698.2127   -12583.769   -2759.9598    83.623068 
    5700    1211.6661   -108.06309     1.096341   -106.96675   -3783.5373    4.3762827    4.3762827    4.3762827   -3783.5373    11441.656   -15221.327   -7570.9412    9369.7477    4205.0614    5813.1378    83.813913 
    5800    951.60041   -107.82672   0.86102805   -106.96569   -18465.074    4.3962134    4.3962134    4.3962134   -18465.074    5329.1811   -38058.669   -22665.735    255.06971   -128.71372   -2956.3722    84.964265 
    5900    943.80647   -107.80856   0.85397593   -106.95458    9389.3728    4.3771924    4.3771924    4.3771924    9389.3728    28853.124   -28054.722    27369.717   -3111.8992    13921.326   -6045.9637    83.866186 
    6000    952.00653   -107.82263   0.86139551   -106.96123     12688.74    4.3720439    4.3720439    4.3720439     12688.74    13658.395   -6866.9568    31274.783   -11180.634   -5560.0871   -2639.5679    83.570605 
    6100    900.22419   -107.78532   0.81454177   -106.97078    8890.7427    4.3890264    4.3890264    4.3890264    8890.7427    35468.714   -23555.531    14759.046   -3707.0632   -3197.2991   -5188.0631     84.54824 
    6200    1199.4595   -108.04312    1.0852962   -106.95783   -15560.239    4.3902432    4.3902432    4.3902432   -15560.239    18608.858   -40981.202   -24308.374   -10125.561    8258.1625    14117.329    84.618582 
    6300     818.8966   -107.69764   0.74095485   -106.95668    707.97529    4.3777128    4.3777128    4.3777128    707.97529    18223.704   -21203.769    5103.9911    1593.3075    6815.7338   -3862.1592    83.896104 
    6400    1179.1947   -108.02361    1.0669601   -106.95665    6240.3248    4.3705435    4.3705435    4.3705435    6240.3248     3648.935   -3810.3175    18882.357    9080.5462    1845.6506    14677.534    83.484594 
    6500     880.9629   -107.76071   0.79711375    -106.9636   -8542.2688    4.3968269    4.3968269    4.3968269   -8542.2688    24698.308   -39542.856   -10782.259   -3468.3444   -11262.682   -1181.1198    84.999839 
    6600    984.42355   -107.84385   0.89072711   -106.95312    1151.1688    4.3785089    4.3785089    4.3785089    1151.1688    12355.842    -22803.54    13901.204    2746.3108   -1287.1127   -750.83351    83.941883 
    6700      1012.52   -107.86821   0.91614941   -106.95206    16307.761    4.3605415    4.3605415    4.3605415    16307.761    21649.327      2364.74    24909.216    541.44011      6975.19   -67.585642    82.912743 
    6800     1047.487   -107.91119   0.94778824    -106.9634   -12104.121     4.395177     4.395177     4.395177   -12104.121   -19906.894   -34146.867    17741.397   -7397.2817    -982.7138   -11212.825    84.904186 
    6900    1154.5943   -107.98658    1.0447012   -106.94188    -14896.48    4.3940561    4.3940561    4.3940561    -14896.48    -33724.09   -32289.487    21324.138   -5234.0502   -12201.573    6507.7594    84.839243 
    7000    838.70299   -107.69668   0.75887609   -106.93781   -3072.5329    4.3758649    4.3758649    4.3758649   -3072.5329    795.54823   -15635.739    5622.5924   -8433.0599   -6542.8171   -9223.4512    83.789909 
    7100     1296.504   -108.12157    1.1731041   -106.94846   -740.26499    4.3737752    4.3737752    4.3737752   -740.26499     149.7876   -138.70918   -2231.8734   -5906.1954   -5408.8956    7693.9235    83.669921 
    7200     1272.429   -108.12534    1.1513205   -106.97402   -18014.564     4.381838     4.381838     4.381838   -18014.564   -9378.8474   -36217.085   -8447.7586   -10155.588    7579.5658    9543.0241    84.133498 
    7300    612.99401   -107.53258   0.55464986   -106.97793     31602.31    4.3816638    4.3816638    4.3816638     31602.31    4525.3814   -28355.869    118637.42   -5082.5998    14543.945    7668.8805    84.123466 
    7400    763.48344   -107.66053   0.69081586   -106.96971   -1648.1185    4.3824754    4.3824754    4.3824754   -1648.1185   -14649.715   -17527.057    27232.416   -5057.5544    6374.7574    8332.0664    84.170223 
    7500    1027.9126   -107.90622    0.9300769   -106.97614    10915.859    4.3645348    4.3645348    4.3645348    10915.859    28270.282   -20216.206    24693.501   -4757.8089    7303.5744    6575.0678     83.14074 
    7600     1336.485   -108.19868    1.2092797    -106.9894   -13751.205    4.3836077    4.3836077    4.3836077   -13751.205    28914.227   -45746.553   -24421.291   -5049.1659   -1455.3309   -11772.567     84.23548 
    7700    684.24166   -107.59686   0.61911624   -106.97775    5691.3689    4.3891617    4.3891617    4.3891617    5691.3689   -9001.1652   -29135.656    55210.928   -7256.3867   -3339.0483    9473.8976    84.556061 
    7800     968.4967   -107.84187   0.87631616   -106.96556   -377.71653    4.3766865    4.3766865    4.3766865   -377.71653   -5438.2492   -14035.064    18340.164    2768.6289   -8016.8895    -16422.54    83.837111 
    7900    1283.1636    -108.1334    1.1610333   -106.97237   -9398.2329    4.3744376    4.3744376    4.3744376   -9398.2329   -2993.2102   -29520.923    4319.4345   -4159.1985   -9754.6655   -668.33359    83.707947 
    8000     868.3006    -107.7631   0.78565663   -106.97745   -5209.6084    4.3836339    4.3836339    4.3836339   -5209.6084   -27175.732   -25510.915    37057.822    5455.7135     4378.874   -1547.1709    84.236986 
    8100    684.03128   -107.58949   0.61892587   -106.97057    17460.881    4.3815668    4.3815668    4.3815668    17460.881    36523.916   -32781.155     48639.88    6270.0567    16642.305   -1127.8426     84.11788 
    8200    1070.6545   -107.94529   0.96875065   -106.97654   -3390.2735    4.3753256    4.3753256    4.3753256   -3390.2735    13888.401   -12802.773   -11256.448    1432.0172    -11185.17    7026.6602    83.758933 
    8300    1154.7577   -108.02868     1.044849   -106.98383    2437.3995     4.377356     4.377356     4.377356    2437.3995    46701.049   -30688.575    -8700.275    705.64235   -17426.962    7333.3016    83.875592 
    8400    836.19198   -107.73608   0.75660408   -106.97948    7499.6206    4.3975466    4.3975466    4.3975466    7499.6206   -22178.345   -19388.579    64065.786   -3195.6558    1858.0878   -4739.6248    85.041587 
    8500    1031.0766   -107.88966   0.93293973   -106.95672   -7829.9993    4.3905011    4.3905011    4.3905011   -7829.9993   -32989.799   -6633.1587    16132.959    1759.3715   -10563.346   -1784.8038    84.633493 
    8600    1277.6812    -108.1035    1.1560728   -106.94743    3602.9862    4.3747587    4.3747587    4.3747587    3602.9862    17217.126   -28610.673    22202.506   -3546.1601    22030.841    935.42161    83.726379 
    8700    1000.2908   -107.87573   0.90508418   -106.97064    3821.3671    4.3790448    4.3790448    4.3790448    3821.3671   -25138.938   -2088.2455    38691.285   -3155.9318   -9666.2746    7548.4245     83.97271 
    8800    1013.4293    -107.8887   0.91697211   -106.97173   -15644.137    4.3966146    4.3966146    4.3966146   -15644.137   -10293.728   -13809.864   -22828.819   -5673.0837    5319.3674   -12016.024    84.987529 
    8900    890.62609    -107.7598   0.80585721   -106.95394   -11821.411    4.3923885    4.3923885    4.3923885   -11821.411    2187.7681   -32290.695   -5361.3053    -4367.514   -10620.488    2310.0078    84.742687 
    9000    589.60768   -107.48219   0.53348942    -106.9487    35369.493    4.3678105    4.3678105    4.3678105    35369.493   -9236.9504   -10511.498    125856.93   -5520.8221   -21961.478   -10689.483    83.328081 
    9100    943.21246   -107.83699   0.85343846   -106.98355    9229.0572     4.385534     4.385534     4.385534    9229.0572   -3521.6491   -7349.0564    38557.877      1010.87     10418.19    4248.1154    84.346571 
    9200    1019.8899   -107.89514   0.92281781   -106.97232   -29869.142    4.4016453    4.4016453    4.4016453   -29869.142   -24102.188   -46244.863   -19260.374   -1111.5953    -11101.47    7135.8796    85.279597 
    9300    627.09542   -107.52345   0.56740911   -106.95604    26596.944    4.3714418    4.3714418    4.3714418    26596.944   -11467.328   -12582.056    103840.22    -6967.927    11066.781    5730.5142    83.536084 
    9400    1173.0841   -108.03091    1.0614311   -106.96948   -1223.1869    4.3735907    4.3735907    4.3735907   -1223.1869   -22023.545   -3873.4458    22227.431    3653.6495   -6150.7578     6744.467    83.659338 
    9500    885.07242   -107.77985   0.80083212   -106.97902   -17495.259    4.3982907    4.3982907    4.3982907   -17495.259   -49005.018   -43138.265    39657.505    193.51379   -19121.828   -11607.973     85.08476 
    9600    1331.4258   -108.17118    1.2047021   -106.96648   -18070.995    4.3855718    4.3855718    4.3855718   -18070.995   -32650.931   -33073.047    11510.995   -640.11999    11188.221   -2919.5533    84.348753 
    9700    1022.3987   -107.89731    0.9250878   -106.97222    5296.4865    4.3719841    4.3719841    4.3719841    5296.4865   -16077.184   -9706.4799    41673.123   -707.74548   -5469.1767    5880.9944    83.567177 
    9800    763.69438   -107.68292   0.69100672   -106.99191   -875.94265    4.3911023    4.3911023    4.3911023   -875.94265   -54784.048   -37824.027    89980.247    -2325.523    2804.1913    4852.6264    84.668265 
    9900    1106.2789   -107.98139    1.0009844   -106.98041   -4308.8863    4.3872522    4.3872522    4.3872522   -4308.8863   -2521.5439   -38757.388    28352.273    2402.3362   -6565.5353   -1074.3152    84.445752 
   10000     823.2711   -107.72679   0.74491299   -106.98187    14691.087    4.3767677    4.3767677    4.3767677    14691.087   -31324.917   -36120.391    111518.57    2373.6652   -8355.8955   -2826.4645    83.841781 
   10100    1228.4204   -108.10217    1.1115006   -106.99067   -17555.094    4.3851085    4.3851085    4.3851085   -17555.094   -28051.657   -24834.365    220.74073   -4247.5298   -755.33531   -4972.9129    84.322027 
   10200    985.54341   -107.88044   0.89174039    -106.9887    12898.811    4.3821944    4.3821944    4.3821944    12898.811   -6660.0993   -18640.224    63996.757    -10290.73   -2091.8109    4101.3981    84.154032 
   10300    755.85841   -107.66846   0.68391657   -106.98455    11385.871    4.3875525    4.3875525    4.3875525    11385.871       -22987   -43381.594    100526.21    5260.5563   -6509.7317    503.99006    84.463091 
   10400    1410.7699   -108.25389    1.2764942    -106.9774    -20853.74    4.3897581    4.3897581    4.3897581    -20853.74    -35169.17   -53051.566    25659.515    5798.8847    4463.3361   -5958.9881    84.590533 
   10500    774.48548    -107.6825   0.70077074   -106.98173    22451.371    4.3730414    4.3730414    4.3730414    22451.371    1088.2966   -33580.602    99846.417    -4117.005    -17362.57    4206.3672    83.627816 
   10600    935.21451    -107.8381   0.84620175   -106.99189   -1894.2703    4.3860446    4.3860446    4.3860446   -1894.2703   -12865.818   -30610.931    37793.938   -7377.6679    -235.3719   -4978.2242     84.37604 
   10700    1193.7781   -108.05851    1.0801555   -106.97835   -6398.7201    4.3864886    4.3864886    4.3864886   -6398.7201   -37440.593   -6312.8473     24557.28    1507.2413   -8731.9259    4615.2211    84.401667 
   10800    693.28779   -107.60281   0.62730136   -106.97551    6521.0428    4.3823385    4.3823385    4.3823385    6521.0428   -45.126107   -37879.836     57488.09    4575.0715    -10748.68   -252.33374    84.162333 
   10900    1451.9484   -108.28225    1.3137534    -106.9685   -21867.428    4.3871627    4.3871627    4.3871627   -21867.428   -24225.842   -24262.596   -17113.847   -7442.2189    494.50819   -7138.9296    84.440583 
   11000    597.56306    -107.5171   0.54068762   -106.97641    12452.044    4.3859005    4.3859005    4.3859005    12452.044   -32510.953     3467.194     66399.89    5009.5096   -8688.3792    65.018645    84.367722 
   11100    1064.0851   -107.93131   0.96280655    -106.9685    4514.0158    4.3762687    4.3762687    4.3762687    4514.0158    -15907.31   -12789.917    42239.274    12323.642    4456.2629   -3391.1148    83.813108 
   11200    1034.3872   -107.90762   0.93593529   -106.97168   -11830.225    4.3875581    4.3875581    4.3875581   -11830.225   -34716.439   -40544.483    39770.248   -1917.7304   -7193.9843   -3167.4805    84.463418 
   11300     1124.816   -107.97988    1.0177571   -106.96212   -15944.265    4.3883105    4.3883105    4.3883105   -15944.265   -44849.328   -33229.669    30246.203   -2502.4726   -3468.3447    3405.3898    84.506874 
   11400    1098.1633   -107.95405   0.99364125   -106.96041   -3089.2717    4.3790863    4.3790863    4.3790863   -3089.2717    2651.8098   -27998.591    16078.967     16287.43   -3110.9096   -2246.2917    83.975094 
   11500    685.51915   -107.59508   0.62027213   -106.97481    19286.243    4.3735799    4.3735799    4.3735799    19286.243   -9942.1294   -11255.908    79056.766    8825.2975   -11603.429   -3488.9994    83.658714 
   11600    942.57989   -107.83409   0.85286609   -106.98122   -2262.6325    4.3892964    4.3892964    4.3892964   -2262.6325    1918.5928   -35710.551    27004.061   -2297.8156   -2872.3726   -5230.6224    84.563849 
   11700    1094.9613   -107.95471   0.99074398   -106.96397   -23431.832    4.3915666    4.3915666    4.3915666   -23431.832   -27257.278   -60370.646    17332.429    4764.1226    9177.4276    -9039.486    84.695128 
   11800    865.56887   -107.73219    0.7831849   -106.94901    29001.241    4.3599122    4.3599122    4.3599122    29001.241    1878.1597    32932.066    52193.498    8080.4014   -15493.248    5826.0795     82.87685 
   11900    763.61817    -107.6706   0.69093777   -106.97966    7890.8238    4.3856288    4.3856288    4.3856288    7890.8238    -2601.447    -19152.75    45426.668    951.31885   -1950.2301    3649.6966    84.352041 
   12000    935.40918   -107.81738   0.84637788   -106.97101   -19070.409    4.4004662    4.4004662    4.4004662   -19070.409   -28178.885   -45724.648    16692.305    790.19233   -13334.031   -1322.7328    85.211077 
   12100    1279.3865   -108.11754    1.1576158   -106.95992   -2422.2625    4.3638387    4.3638387    4.3638387   -2422.2625     17674.58   -14461.146   -10480.222    5069.8418   -4274.2167     -5506.45    83.100968 
   12200    585.73129    -107.5098   0.52998198   -106.97982    28311.908    4.3745136    4.3745136    4.3745136    28311.908   -12514.539   -2205.4087    99655.671   -5169.7747   -8274.9283   -6648.8622    83.712307 
   12300    1255.0457   -108.10139    1.1355917   -106.96579   -38380.648    4.3972953    4.3972953    4.3972953   -38380.648   -58053.638   -37910.287    -19178.02    410.33874   -2013.1954   -3620.8349    85.027009 
   12400    1021.6978   -107.88335   0.92445366    -106.9589    10821.781    4.3738202    4.3738202    4.3738202    10821.781    46122.239   -41389.545     27732.65    7096.5114   -6546.2287   -6095.5355    83.672503 
   12500     964.8195   -107.84019   0.87298896    -106.9672   -1621.6509    4.3707497    4.3707497    4.3707497   -1621.6509   -528.76207   -23383.517    19047.326   -7137.4166    11464.381    31.587447    83.496411 
   12600    840.19214   -107.73425   0.76022351   -106.97403    5381.1515    4.3821337    4.3821337    4.3821337    5381.1515    18928.844   -17934.089    15148.699    4147.3768   -7393.0848   -6251.3144    84.150531 
   12700    1175.9045   -108.02136    1.0639831   -106.95738   -18094.879    4.3977575    4.3977575    4.3977575   -18094.879    -2111.141   -26100.003   -26073.492   -396.83395    9368.6122   -3181.3897    85.053821 
   12800    881.45812   -107.74434   0.79756183   -106.94678    24369.575    4.3664718    4.3664718    4.3664718    24369.575    47843.731   -20031.895    45296.887   -4130.2804   -3397.0138    4845.6704    83.251481 
   12900    1101.6954   -107.95832   0.99683714   -106.96148   -10008.379     4.367144     4.367144     4.367144   -10008.379   -241.55828   -16723.437   -13060.143     9504.674   -2839.9487   -17376.072    83.289938 
   13000    1064.9339   -107.93006   0.96357454   -106.96649   -2228.0518    4.3887288    4.3887288    4.3887288   -2228.0518    3035.2012   -26836.445    17117.088    -4620.715   -74.464411    1543.3857    84.531047 
   13100    888.78878   -107.77099   0.80419477    -106.9668    3312.8326    4.3835531    4.3835531    4.3835531    3312.8326     35719.24   -15716.152    -10064.59   -30.624894    4889.8567   -9223.1579    84.232328 
   13200    1157.7207   -108.00954      1.04753   -106.96201   -150.13101    4.3764826    4.3764826    4.3764826   -150.13101    24499.744   -35090.279    10140.141   -4576.7679   -3414.4181   -430.86498    83.825398 
   13300    1202.0207    -108.0492    1.0876135   -106.96159   -246.47905    4.3691394    4.3691394    4.3691394   -246.47905   -3149.4992   -7074.0834    9484.1454   -11782.218    1965.9594   -1100.6158    83.404156 
   13400    608.90565   -107.53131   0.55095063   -106.98036    2119.1403    4.3804448    4.3804448    4.3804448    2119.1403    38452.251   -24351.101    -7743.729    11130.332    -8289.394   -12433.537    84.053273 
   13500    1328.6003   -108.16552    1.2021454   -106.96337   -8939.4121    4.3852804    4.3852804    4.3852804   -8939.4121    6573.1047   -36811.514    3420.1734   -9144.8786   -908.20914    4680.1367     84.33194 
   13600    981.82731   -107.84747   0.88837798   -106.95909   -9470.6067    4.3732569    4.3732569    4.3732569   -9470.6067    1956.6321   -33163.692    2795.2393   -1207.5442    1006.8549   -9368.3763    83.640181 
   13700    920.91943   -107.79799   0.83326725   -106.96472    9386.5295    4.3717165    4.3717165    4.3717165    9386.5295    58712.653   -23033.928   -7519.1366    7033.6263   -9178.2247   -5149.6679    83.551829 
   13800    1116.4567   -107.97475    1.0101934   -106.96456   -3227.7323    4.3856805    4.3856805    4.3856805   -3227.7323    13141.114   -38395.742    15571.432   -3989.8424    4635.0616    473.67286    84.355029 
   13900    1071.4088   -107.93644   0.96943324   -106.96701   -10991.287    4.3715251    4.3715251    4.3715251   -10991.287    3900.3713   -15168.759   -21705.475   -6878.1486   -4128.7777   -17755.321     83.54086 
   14000     949.6486   -107.82901   0.85926201   -106.96975    20488.331    4.3699769    4.3699769    4.3699769    20488.331     52879.01    -5597.692    14183.677   -2291.7815    2652.4813    9991.1311    83.452132 
   14100    1139.7354    -107.9973    1.0312565   -106.96605   -19853.479    4.3876047    4.3876047    4.3876047   -19853.479   -13096.043   -43622.799   -2841.5936   -4002.6009   -11644.246   -10380.057    84.466107 
   14200     650.4854   -107.55489   0.58857286   -106.96632    21657.587    4.3683452    4.3683452    4.3683452    21657.587    43616.026    16339.012    5017.7227    3920.1685    5505.1249   -4404.4965    83.358682 
   14300    1439.1041   -108.26818    1.3021316   -106.96605   -832.96635    4.3692155    4.3692155    4.3692155   -832.96635    12818.226    -7028.305   -8288.8198   -3897.6329   -13561.318   -2967.1232    83.408518 
   14400    909.98989   -107.79054   0.82337798   -106.96717   -5831.3255     4.384882     4.384882     4.384882   -5831.3255    38153.846   -27378.226   -28269.597    5336.8582    8159.9893   -3377.7078    84.308958 
   14500    1076.8803   -107.93388   0.97438393    -106.9595   -11341.161    4.3760258    4.3760258    4.3760258   -11341.161   -16797.696   -3741.4795   -13484.309    2335.4052   -7692.2853    7204.8104    83.799152 
   14600    898.38377   -107.77569   0.81287652   -106.96281    21535.849    4.3722955    4.3722955    4.3722955    21535.849    78278.403   -14300.571    629.71446   -9496.9356     3292.958   -1775.9883    83.585032 
   14700    1046.8092   -107.91795   0.94717497   -106.97078   -19879.807    4.3826133    4.3826133    4.3826133   -19879.807   -35638.478   -25053.923    1052.9789    451.39373   -10655.454    5848.9134    84.178168 
   14800    921.05714   -107.80318   0.83339186   -106.96979   -9177.3828    4.3769457    4.3769457    4.3769457   -9177.3828    30367.759   -29940.648   -27959.259   -1702.8283    9597.7658    259.30169     83.85201 
   14900    869.91214   -107.75632   0.78711478    -106.9692    14552.931    4.3688501    4.3688501    4.3688501    14552.931     55818.58   -14458.058    2298.2722    8593.2979   -13675.882   -7192.6703    83.387592 
   15000    1005.7002   -107.88821   0.90997867   -106.97823   -19420.697    4.3781723    4.3781723    4.3781723   -19420.697   -20684.458   -8272.9544   -29304.678    -3066.287   -7719.9706    3622.8807    83.922527 
   15100    1307.0086   -108.15032    1.1826089   -106.96771   -7092.2004    4.3773726    4.3773726    4.3773726   -7092.2004     50343.94   -39943.384   -31677.157    378.43334    10032.607   -2937.0827    83.876548 
   15200    954.74554    -107.8284   0.86387383   -106.96453   -22059.085     4.383122     4.383122     4.383122   -22059.085   -11624.817   -34369.209   -20183.228    1765.9132   -13615.986    2057.5211    84.207479 
   15300    873.98034   -107.75272   0.79079578   -106.96192    2159.0608    4.3732989    4.3732989    4.3732989    2159.0608    49620.887   -28627.696   -14516.009   -18892.418    557.76297   -76.929201    83.642589 
   15400    1163.9838   -108.01992     1.053197   -106.96672    8478.5004    4.3707541    4.3707541    4.3707541    8478.5004     39905.32   -13420.439   -1049.3799    4015.2624   -6746.5049   -2938.6727    83.496662 
   15500    751.37258   -107.66179    0.6798577   -106.98194    929.31855    4.3844023    4.3844023    4.3844023    929.31855     15660.54   -30854.447    17981.863     -5407.93   -1066.3281      5621.71    84.281295 
   15600    956.23356   -107.84163   0.86522022   -106.97641    -15610.85    4.3857397    4.3857397    4.3857397    -15610.85     20057.15   -48766.552   -18123.148    342.94976   -8705.9799   -7246.2262    84.358443 
   15700     969.3291   -107.84274   0.87706934   -106.96567    16371.961    4.3608945    4.3608945    4.3608945    16371.961    26033.051   -15294.924    38377.755   -580.72249   -1027.9697    9082.0405    82.932879 
   15800    1099.0137   -107.97012   0.99441068   -106.97571   -16035.211    4.3738569    4.3738569    4.3738569   -16035.211    11001.447   -19493.826   -39613.254   -1342.3894   -16805.901   -9494.2661    83.674612 
   15900    1054.4697   -107.91574   0.95410631   -106.96163   -20568.433    4.3924481    4.3924481    4.3924481   -20568.433   -3072.0152   -46372.648   -12260.637   -1851.8594    12073.381   -1290.9165    84.746139 
   16000    712.83192   -107.60217    0.6449853   -106.95718   -2825.8243    4.3746586    4.3746586    4.3746586   -2825.8243    56330.433   -35148.249   -29659.658   -380.15828   -3138.1855    3025.1219    83.720632 
   16100    832.07166   -107.72575   0.75287592   -106.97287    25643.021    4.3569343    4.3569343    4.3569343    25643.021    75449.647   -18909.275    20388.691    -7563.129   -1543.4259   -10005.288    82.707145 
   16200    1238.6336   -108.11117    1.1207417   -106.99043   -21886.168    4.3821287    4.3821287    4.3821287   -21886.168    8741.5512   -51926.214    -22473.84   -7006.1635   -6184.1624    2883.4748    84.150243 
   16300    672.98979   -107.59301    0.6089353   -106.98408   -17973.779    4.3835951    4.3835951    4.3835951   -17973.779     20302.86   -54827.202   -19396.995   -8463.6696   -11249.079    -11559.43    84.234754 
   16400    1062.6788   -107.92424   0.96153414   -106.96271    25362.435    4.3597446    4.3597446    4.3597446    25362.435     70643.33   -9253.4307    14697.406    8584.3476    6657.1044    3432.2254    82.867293 
   16500    978.84064   -107.85558   0.88567558    -106.9699   -8472.9436    4.3808612    4.3808612    4.3808612   -8472.9436    54205.249   -49163.916   -30460.164    5042.9878    -592.4124   -10835.964    84.077246 
   16600    1161.8059    -108.0142    1.0512264   -106.96297   -23731.447    4.3846649    4.3846649    4.3846649   -23731.447    11729.992   -50568.951   -32355.382    2910.7375    -7486.773   -3478.2252    84.296436 
   16700    1044.2749   -107.90821   0.94488189   -106.96333    6054.1771     4.371339     4.371339     4.371339    6054.1771    34748.822   -34140.144    17553.853    1614.6667    4843.7614    2350.7547    83.530189 
   16800    1090.2804   -107.95662   0.98650863   -106.97011    7929.5148    4.3642531    4.3642531    4.3642531    7929.5148    68461.682   -31847.244   -12825.894   -12389.069   -7956.5365   -14368.036    83.124642 
   16900     746.4177   -107.65687   0.67537442   -106.98149    7506.5102    4.3814767    4.3814767    4.3814767    7506.5102    37979.005   -28776.962    13317.487    1801.5768   -28360.934    3857.0741     84.11269 
   17000    1070.7115   -107.93756   0.96880225   -106.96876   -6863.0322    4.3802955    4.3802955    4.3802955   -6863.0322    23993.186    -36025.38   -8556.9026   -630.34275   -2107.6778   -7308.8686    84.044677 
   17100    1129.8952   -107.98732    1.0223529   -106.96497   -19511.738    4.3759497    4.3759497    4.3759497   -19511.738   -6802.5776   -27113.433   -24619.204    2841.7347    -10939.09   -395.19354    83.794781 
   17200    984.36392   -107.86083   0.89067316   -106.97016     12078.66    4.3641402    4.3641402    4.3641402     12078.66    29581.042   -22080.864    28735.803    12080.629    6057.8756   -636.38147    83.118191 
   17300     1246.365   -108.10789    1.1277372   -106.98015   -20505.739    4.3843633    4.3843633    4.3843633   -20505.739    24035.446   -45830.398   -39722.264    1747.7875     3321.587   -2354.6462    84.279045 
   17400    348.60465   -107.28295   0.31542481   -106.96753     16563.47     4.383607     4.383607     4.383607     16563.47    42805.761   -32502.082    39386.732    14122.909   -15890.095    3972.8641    84.235439 
   17500    1275.2601   -108.10375    1.1538821   -106.94987   -866.58205    4.3631859    4.3631859    4.3631859   -866.58205    12085.156   -22247.887    7562.9842   -843.50874    7009.0355   -5789.1881    83.063676 
   17600    1235.8321   -108.08304    1.1182069   -106.96483   -13853.511    4.3751853    4.3751853    4.3751853   -13853.511   -14835.795   -20410.182   -6314.5569   -3859.7853   -8161.0637    8286.9985    83.750876 
   17700    684.17787   -107.58843   0.61905852   -106.96937   -13992.179    4.3886584    4.3886584    4.3886584   -13992.179    41160.976    -55262.52   -27874.993    4817.9685   -1920.0665   -12599.759    84.526978 
   17800    1208.0857   -108.05155    1.0931013   -106.95845   -2356.6844     4.369874     4.369874     4.369874   -2356.6844    28588.204   -35094.414   -563.84301   -6486.2362   -9766.6816    3087.9204    83.446235 
   17900    712.79181   -107.61111   0.64494901   -106.96616    31963.202    4.3610091    4.3610091    4.3610091    31963.202    22751.055   -6181.0491    79319.601    994.49227   -25209.673   -2024.9389    82.939419 
   18000    1106.0601   -107.97389    1.0007864    -106.9731   -18569.539    4.3948416    4.3948416    4.3948416   -18569.539   -16104.288   -53467.352    13863.024   -287.77164   -1045.6558   -6243.5095    84.884752 
   18100    1289.1707   -108.13101    1.1664687   -106.96454   -14929.575    4.3761415    4.3761415    4.3761415   -14929.575   -9315.3375    -40659.72    5186.3335     4767.958   -826.42463   -2120.9881      83.8058 
   18200    785.91753   -107.66787    0.7111147   -106.95676    36714.773    4.3417547    4.3417547    4.3417547    36714.773    38910.875     4602.822    66630.623    88.217501    -22195.84   -10030.882    81.845694 
   18300    970.60679    -107.8612   0.87822542   -106.98298    4504.0915    4.3885985    4.3885985    4.3885985    4504.0915    24653.467   -46728.744    35587.551   -2877.9095    7254.3017   -2694.7166    84.523515 
   18400    1026.4804   -107.89738   0.92878106    -106.9686   -27855.207    4.3873897    4.3873897    4.3873897   -27855.207   -24544.403   -47938.021   -11083.196    6887.9383    467.16609    92.273786    84.453691 
   18500    614.10679   -107.49777   0.55565673   -106.94211    60554.942    4.3436096    4.3436096    4.3436096    60554.942    74974.761    -5919.056    112609.12   -2454.5186   -10517.301   -14018.023     81.95064 
   18600    1449.5843   -108.28055    1.3116144   -106.96894   -19212.859    4.3786785    4.3786785    4.3786785   -19212.859   -18859.661   -24705.171   -14073.746    3280.4188     6697.396    722.93378    83.951641 
   18700    767.34943   -107.65879   0.69431389   -106.96448   -14347.433    4.3920492    4.3920492    4.3920492   -14347.433   -11113.316   -47524.901    15595.918    3320.4644   -11829.193   -7314.7653    84.723049 
   18800    1181.9895   -108.02738     1.069489   -106.95789    7517.0329     4.367764     4.367764     4.367764    7517.0329   -1506.7555   -17493.734    41551.588    2725.0617    4474.4604    1777.1734    83.325416 
   18900    1148.3399   -107.99781    1.0390421   -106.95877    18268.318    4.3544231    4.3544231    4.3544231    18268.318    30472.035   -4623.9446    28956.862    8511.5425   -16482.496    2404.0596    82.564218 
   19000    672.87397   -107.58582   0.60883051   -106.97699   -5742.0075    4.3840598    4.3840598    4.3840598   -5742.0075    20911.103    -25840.59   -12296.535    5146.5344    -7163.571   -11619.389    84.261543 
   19100    1233.8689   -108.07375    1.1164305   -106.95732   -8689.1684    4.3805028    4.3805028    4.3805028   -8689.1684   -3757.8847   -28140.442    5830.8218      2739.06    9008.3479   -1282.0597    84.056612 
   19200     1060.564   -107.90827   0.95962056   -106.94865    9969.9096    4.3558779    4.3558779    4.3558779    9969.9096    21915.592    -2171.207    10165.344    5329.2872   -6717.3357   -16156.445    82.646998 
   19300    884.22896   -107.75798   0.80006894   -106.95791    9429.8711    4.3812968    4.3812968    4.3812968    9429.8711    8916.5717   -8482.4177    27855.459    1894.8751    -7705.043   -8900.1213    84.102328 
   19400    904.93778   -107.76646   0.81880672   -106.94765   -12710.688    4.3870265    4.3870265    4.3870265   -12710.688    -38533.43   -533.16358    934.52946   -1359.3142   -15565.602   -10459.099    84.432721 
   19500    794.80488   -107.66587   0.71915616   -106.94672    9891.8393    4.3619393    4.3619393    4.3619393    9891.8393    32902.923    17452.026   -20679.431   -7442.9176   -14398.089   -2381.4283    82.992501 
   19600    1196.3482   -108.03823     1.082481   -106.95575     25036.24    4.3606911    4.3606911    4.3606911     25036.24   -821.84843    6946.4351    68984.134   -3646.5889    4966.2783     6359.052    82.921274 
   19700    803.38548   -107.70225   0.72692006   -106.97533   -1718.7332    4.3788675    4.3788675    4.3788675   -1718.7332    17905.472    15450.756   -38512.427    -3024.422   -9864.7347   -6662.9717    83.962511 
   19800    864.40075   -107.74198   0.78212797   -106.95985   -11328.586    4.3832548    4.3832548    4.3832548   -11328.586   -15039.542   -40556.287    21610.071   -230.95422   -9629.8488   -3708.1132    84.215135 
   19900    1464.0683   -108.27114    1.3247198   -106.94642   -6467.7968    4.3615779    4.3615779    4.3615779   -6467.7968   -13366.396    7009.7752    -13046.77    1590.6775   -10194.187   -6950.4535    82.971873 
   20000    742.04479   -107.63823   0.67141772   -106.96681    7665.3864    4.3703701    4.3703701    4.3703701    7665.3864     23226.55   -19513.949    19283.557    7009.7567   -10174.002   -5891.8554    83.474658 
   20100    1390.4925   -108.21086    1.2581469   -106.95271   -27797.859    4.3872646    4.3872646    4.3872646   -27797.859    -33312.01   -39623.444   -10458.124    1102.1489     12907.53   -2661.4998    84.446468 
   20200    849.72168   -107.71709   0.76884604   -106.94824    -4118.469    4.3722112    4.3722112    4.3722112    -4118.469    3712.9312    7883.9986   -23952.337    3821.8478   -11883.365    8036.6086    83.580197 
   20300    1176.5428   -108.01268    1.0645606   -106.94812    1731.4959    4.3694491    4.3694491    4.3694491    1731.4959    1689.1377    2734.8235    770.52645   -9864.0217    415.90145   -7164.8925    83.421895 
   20400    1117.1434   -107.96612    1.0108148    -106.9553   -1774.4327    4.3792897    4.3792897    4.3792897   -1774.4327    -38497.93    46558.732     -13384.1    2546.0318    18.010109    2754.1509    83.986797 
   20500    528.10463   -107.43664   0.47784016    -106.9588    2982.9515    4.3781327    4.3781327    4.3781327    2982.9515   -2941.7039    16157.012   -4266.4532   -12030.277   -15352.008   -32977.882     83.92025 
   20600    1051.3346   -107.90131   0.95126963   -106.95004    10688.621    4.3649503    4.3649503    4.3649503    10688.621   -9828.4971    31592.288    10302.073   -6103.2669    3018.4706   -11207.386    83.164487 
   20700    1045.1744   -107.91073    0.9456958   -106.96503   -6617.0981    4.3698659    4.3698659    4.3698659   -6617.0981   -7613.4942    -13113.37    875.57045    6567.2872   -27102.759   -3313.8307    83.445772 
   20800    908.63734    -107.7865   0.82215416   -106.96434   -8821.1812     4.380753     4.380753     4.380753   -8821.1812   -9895.9202   -9520.5474   -7047.0759   -4500.9374    826.30625   -4335.4495    84.071016 
   20900    1114.2158    -107.9587    1.0081659   -106.95054   -27340.856    4.3737854    4.3737854    4.3737854   -27340.856   -34742.885   -5612.4259   -41667.257    5789.9259    -22709.63    4766.3964     83.67051 
   21000    739.38815   -107.62391   0.66901394    -106.9549     21317.11    4.3657183    4.3657183    4.3657183     21317.11   -1874.5892    38881.544    26944.377     9082.357   -25.938311   -16269.223    83.208394 
   21100    1141.2186     -107.989    1.0325986    -106.9564   -11190.416    4.3797718    4.3797718    4.3797718   -11190.416   -35507.327   -4206.6249    6142.7053    5183.9644    -5456.425    -11001.85    84.014542 
   21200    708.65892   -107.59879   0.64120949   -106.95759   -14130.351    4.3765571    4.3765571    4.3765571   -14130.351   -50960.881   -8456.9713      17026.8   -3223.2644   -29924.842    1404.9006    83.829679 
   21300    1059.2098   -107.91256    0.9583953   -106.95416    1158.7057    4.3597228    4.3597228    4.3597228    1158.7057    4660.0048   -12887.225    11703.337    1872.4432    5381.8136   -11305.933    82.866048 
   21400     1116.952    -107.9791    1.0106416   -106.96846   -22379.832    4.3767274    4.3767274    4.3767274   -22379.832   -28780.473   -15250.818   -23108.207    523.61852   -19804.569    3084.3419    83.839462 
   21500    1009.3859   -107.86617   0.91331353   -106.95286   -28524.457    4.3878688    4.3878688    4.3878688   -28524.457   -26689.014   -37725.836   -21158.521   -1884.4054    -7657.572    2384.9814     84.48136 
   21600    1065.6941   -107.90622   0.96426244   -106.94195   -4049.3719    4.3643551    4.3643551    4.3643551   -4049.3719   -17926.729   -14225.253    20003.866    4534.6123    2409.8349   -14348.555    83.130471 
   21700     768.0175   -107.64624   0.69491837   -106.95132    13449.476     4.362288     4.362288     4.362288    13449.476   -2455.5277    42887.604   -83.647865    1675.1575   -28809.972   -10578.953    83.012405 
   21800    1282.3122   -108.11269    1.1602631   -106.95243   -28439.544    4.3888022    4.3888022    4.3888022   -28439.544    -6231.639   -29981.616   -49105.376   -12523.311    607.69807    1916.4062    84.535284 
   21900     840.1789   -107.70404   0.76021153   -106.94383    1510.2322    4.3792192    4.3792192    4.3792192    1510.2322   -2943.0079    12048.776   -4575.0718   -9068.9726   -13057.289   -4479.4273    83.982741 
   22000    799.54894   -107.66239   0.72344868   -106.93894    20238.342    4.3552113    4.3552113    4.3552113    20238.342    26681.259    34209.611   -175.84425   -5712.9075   -8105.8106   -10598.866    82.609061 
   22100    1196.9561   -108.04374     1.083031   -106.96071   -12664.035    4.3726083    4.3726083    4.3726083   -12664.035   -27407.257   -19090.009    8505.1596   -8830.3861   -2399.3028   -3236.8377    83.602976 
   22200    748.83921   -107.64363   0.67756545   -106.96606   -1812.2962    4.3821334    4.3821334    4.3821334   -1812.2962   -11008.429    17543.789   -11972.249    3798.3993   -17033.946   -12215.797    84.150516 
   22300    1059.7777   -107.91348   0.95890909   -106.95457    21107.611    4.3567513    4.3567513    4.3567513    21107.611    15706.223    49998.964   -2382.3531    2819.2806    18303.373   -1807.4188    82.696722 
   22400    1027.6715   -107.88979   0.92985881   -106.95994   -14370.569    4.3719106    4.3719106    4.3719106   -14370.569    -18050.08   -12961.174   -12100.453   -2131.0133   -26608.729    800.79998     83.56296 
   22500     921.6337   -107.78811   0.83391354    -106.9542    7437.5174     4.370995     4.370995     4.370995    7437.5174   -12799.311    63027.829   -27915.966    4003.6966    5974.7723   -6119.0029    83.510473 
   22600    1274.4067   -108.10823      1.15311   -106.95512   -16822.915    4.3727279    4.3727279    4.3727279   -16822.915   -23330.573    382.29737    -27520.47    1154.7765   -3400.9992    7776.9741    83.609834 
   22700     795.8179   -107.67814   0.72007276   -106.95807   -1067.1588    4.3719829    4.3719829    4.3719829   -1067.1588   -29315.347    39052.587   -12938.717    471.84821   -8640.9846   -1027.6309    83.567106 
   22800    1182.6525   -108.02219    1.0700888    -106.9521     4630.071    4.3606772    4.3606772    4.3606772     4630.071    11972.901    3757.4258   -1840.1141   -1254.2164    20873.092   -5236.4828    82.920481 
   22900    823.70262   -107.70498   0.74530344   -106.95968   -19042.058    4.3865096    4.3865096    4.3865096   -19042.058   -40388.791    17766.895   -34504.278   -4952.3421   -19440.274    3902.7949    84.402878 
   23000    833.09777   -107.70244   0.75380437   -106.94863    16153.312    4.3632368    4.3632368    4.3632368    16153.312   -2816.3425    20820.512    30455.767     4155.455    10444.037   -8492.5687    83.066586 
   23100    1130.5152   -107.97429    1.0229139   -106.95138   -4226.1744    4.3605466    4.3605466    4.3605466   -4226.1744   -15526.503     11114.73   -8266.7504    -10244.51   -10163.918   -9865.2996    82.913032 
   23200    824.10302    -107.7002   0.74566573   -106.95453   -20326.133    4.3873161    4.3873161    4.3873161   -20326.133   -37897.365   -16139.184   -6941.8505   -194.55087   -6242.0821   -3356.0638    84.449439 
   23300    1216.8608   -108.05034    1.1010413    -106.9493   -2265.5323    4.3612326    4.3612326    4.3612326   -2265.5323    3332.7394   -6142.2476   -3987.0887    2242.0262    11068.515    291.29453     82.95217 
   23400    760.26645   -107.65534   0.68790506   -106.96743    6148.7651    4.3598792    4.3598792    4.3598792    6148.7651   -22004.725    33842.323    6608.6967     1748.433   -25154.901   -5620.4541    82.874968 
   23500     949.9802   -107.82543   0.85956205   -106.96587   -3244.8609    4.3792918    4.3792918    4.3792918   -3244.8609   -7601.9648   -6111.0975    3978.4795    3870.1603    4805.5236   -5603.3819    83.986918 
   23600    1022.0051   -107.88425   0.92473168   -106.95952   -3663.1582    4.3778839    4.3778839    4.3778839   -3663.1582   -26512.882    33486.347   -17962.939   -2489.8999   -15786.449   -7794.0054    83.905941 
   23700    866.95737   -107.73616   0.78444125   -106.95172   -3294.8694    4.3744889    4.3744889    4.3744889   -3294.8694   -12534.293   -3717.2429    6366.9275   -6585.1176   -4164.8337    3185.8007    83.710887 
   23800    1160.7982   -107.99537    1.0503146   -106.94506    10668.142    4.3582603    4.3582603    4.3582603    10668.142    2041.4327    28810.966    1152.0283    8108.5766    11376.835   -129.37163    82.782683 
   23900    890.36402   -107.77309   0.80562008   -106.96747   -13539.219    4.3828718    4.3828718    4.3828718   -13539.219   -14419.331    9441.9095   -35640.235   -8539.1577   -18482.128    5752.7621    84.193063 
   24000    1273.5966   -108.10124     1.152377   -106.94886   -21426.002    4.3820106    4.3820106    4.3820106   -21426.002   -13244.003    -27946.64   -23087.364   -9289.8866    14364.965    8821.2153    84.143439 
   24100    1035.4316   -107.88311    0.9368803   -106.94623    760.98761    4.3574933    4.3574933    4.3574933    760.98761   -24560.112    43072.343   -16229.269   -3442.5054   -21161.448   -5362.9338    82.738986 
   24200    953.94596   -107.82547   0.86315035   -106.96232   -261.24455     4.366133     4.366133     4.366133   -261.24455   -16550.445    11878.904    3887.8078   -679.59423   -1517.8638   -1161.1534    83.232106 
   24300    1046.8997   -107.90816   0.94725683    -106.9609   -4374.6138    4.3774783    4.3774783    4.3774783   -4374.6138   -27394.584    8509.0039    5761.7387   -6099.5736    13768.026   -4933.3016    83.882624 
   24400    642.44721   -107.53707   0.58129974   -106.95577    9841.0149    4.3781128    4.3781128    4.3781128    9841.0149   -15951.759    40261.804    5212.9995   -6759.9775   -15882.494   -388.60659    83.919106 
   24500    1130.9131    -107.9679    1.0232739   -106.94462   -655.87451    4.3628908    4.3628908    4.3628908   -655.87451    2004.8703   -13288.608    9316.1139   -1269.3824    28733.336   -2134.6115    83.046823 
   24600    842.69294   -107.71803   0.76248628   -106.95554    386.71109    4.3671963    4.3671963    4.3671963    386.71109   -5843.2579    34803.667   -27800.276   -816.99675   -14480.654   -11563.574    83.292928 
   24700    1113.9409   -107.96356    1.0079171   -106.95565   -13578.081    4.3806977    4.3806977    4.3806977   -13578.081   -18972.184   -3574.6343   -18187.425   -1591.0875     1939.491    76.718849    84.067833 
   24800    998.34807   -107.86217   0.90332631   -106.95885   -10214.045    4.3692117    4.3692117    4.3692117   -10214.045   -17160.402    -15192.27    1710.5361    5418.1289   -6427.6163     -9348.13    83.408301 
   24900    924.47974   -107.79245    0.8364887   -106.95597    15058.497    4.3544466    4.3544466    4.3544466    15058.497   -19208.037    17238.304    47145.223   -1245.4714   -17137.563   -8929.4908    82.565555 
   25000    896.77259   -107.77351   0.81141868    -106.9621   -7337.2073    4.3783797    4.3783797    4.3783797   -7337.2073    -23866.66    12933.061   -11078.022    2240.3442    25305.079    -6241.849    83.934455 
   25100    856.06256   -107.73111   0.77458339   -106.95653   -21018.931    4.3738367    4.3738367    4.3738367   -21018.931    6450.8567       -30592    -38915.65    7909.0667   -11992.945   -13966.649    83.673451 
   25200    1216.5261   -108.04899    1.1007384   -106.94826    12679.162    4.3487752    4.3487752    4.3487752    12679.162    2055.2189    27661.974    8320.2926     -4665.34     4218.588    2568.2213    82.243368 
   25300    826.74625   -107.71393   0.74805738   -106.96587   -11292.852    4.3760207    4.3760207    4.3760207   -11292.852   -11674.219   -19645.993   -2558.3446    11431.486    5953.2166   -87.637789    83.798859 
   25400    817.32393   -107.69539   0.73953187   -106.95586   -16515.926    4.3757263    4.3757263    4.3757263   -16515.926   -24448.594   -29452.094    4352.9108   -6519.5477   -26948.363   -13700.443    83.781947 
   25500    1199.3172   -108.03001    1.0851674   -106.94484    19755.906    4.3509104    4.3509104    4.3509104    19755.906   -2181.9621    22669.426    38780.255    4052.4683    17470.014    7490.6529    82.364566 
   25600    926.38169   -107.80345   0.83820962   -106.96524    -17980.35    4.3742905    4.3742905    4.3742905    -17980.35    -21157.68   -15883.608   -16899.761      7610.09   -8540.4112   -3513.1657    83.699502 
   25700    1253.4543   -108.08924    1.1341518   -106.95509    -28193.07    4.3766582    4.3766582    4.3766582    -28193.07    -45971.83   -33578.815   -5028.5645   -8003.9063    -9290.787    -362.8368    83.835487 
   25800    818.82393   -107.69217    0.7408891   -106.95128    29814.531    4.3541885    4.3541885    4.3541885    29814.531    30876.503    31844.322    26722.769    3343.0278    7483.8076   -2302.7747    82.550872 
   25900    821.43353   -107.71117   0.74325032   -106.96792    -1800.197    4.3660206    4.3660206    4.3660206    -1800.197   -15401.622    6960.9387    3040.0921   -4426.4197   -30865.923   -8828.3446     83.22568 
   26000    1286.5924   -108.11965    1.1641359   -106.95551   -8594.7337     4.375265     4.375265     4.375265   -8594.7337   -11013.259     -20200.3    5429.3581    361.83381    11027.671    12326.954    83.755454 
   26100     936.6765   -107.80617   0.84752458   -106.95865   -5497.7121    4.3692044    4.3692044    4.3692044   -5497.7121   -18767.271    2136.9163    137.21862    444.14976   -7218.9032   -3483.4626    83.407882 
   26200    1017.5511   -107.87752   0.92070163   -106.95682    7276.3183    4.3594077    4.3594077    4.3594077    7276.3183   -20399.515    17542.552    24685.918   -2617.4312    -14115.65   -6337.7173    82.848085 
   26300    1163.2249   -108.01725    1.0525104   -106.96474   -14016.759    4.3736764    4.3736764    4.3736764   -14016.759   -7309.9503   -41766.383    7026.0557   -737.28541    6660.6918    4244.8934    83.664254 
   26400     619.6249   -107.52979   0.56064963   -106.96914    -16483.65    4.3741659    4.3741659    4.3741659    -16483.65    -41840.85   -10565.504     2955.404     4036.513   -35632.425   -6176.1972    83.692345 
   26500    1378.8072   -108.19556    1.2475738   -106.94799    15337.604    4.3507554    4.3507554    4.3507554    15337.604    43715.015    -1035.113    3332.9102   -11647.462     11168.98    7883.4949    82.355764 
   26600    829.73931   -107.71611   0.75076557   -106.96534   -13140.825    4.3740515    4.3740515    4.3740515   -13140.825   -15846.918   -19106.962   -4468.5959    2346.6521   -21170.708    3290.5196     83.68578 
   26700    1033.2057   -107.89414   0.93486623   -106.95928   -24013.704    4.3698719    4.3698719    4.3698719   -24013.704   -15964.573   -27135.514   -28941.024   -4747.4455   -19619.978   -387.38522    83.446117 
   26800    944.96198    -107.8112   0.85502146   -106.95618    21728.837    4.3544642    4.3544642    4.3544642    21728.837    21077.292    4513.5886    39595.631   -2514.3783   -6659.5044    12815.849    82.566556 
   26900    686.28057   -107.58979   0.62096108   -106.96883      323.778    4.3694569    4.3694569    4.3694569      323.778    30116.649   -6952.1244   -22193.191    7957.8704    -33318.48   -7757.8757    83.422343 
   27000    1131.1269   -107.98734    1.0234674   -106.96387   -13583.041    4.3722259    4.3722259    4.3722259   -13583.041    13327.037   -25807.479    -28268.68   -6971.9869    8626.7459    4532.9044    83.581041 
   27100    1033.3685   -107.89675   0.93501354   -106.96173    374.28925     4.356392     4.356392     4.356392    374.28925   -2253.1446     804.4286    2571.5837    6320.9588    -28008.32    2371.4869    82.676269 
   27200    1038.0086   -107.90561   0.93921204    -106.9664   -11339.736    4.3559117    4.3559117    4.3559117   -11339.736   -16750.963   -4312.3416   -12955.904   -5080.5688   -4794.4496    -3893.987    82.648926 
   27300    764.47082   -107.65962   0.69170927   -106.96791    10117.821     4.374624     4.374624     4.374624    10117.821    17409.742   -21917.771    34861.492   -10484.238   -6353.0832    7140.5953    83.718644 
   27400    1078.0356   -107.93248   0.97542927   -106.95705   -20589.295    4.3751374    4.3751374    4.3751374   -20589.295   -19683.745   -23509.142   -18574.997    6613.1743   -27703.234    4559.3914    83.748124 
   27500    818.77468   -107.68925   0.74084453    -106.9484    3612.8498    4.3530994    4.3530994    4.3530994    3612.8498    25065.995   -28373.003    14145.558   -5804.2952    2110.8166    17873.941    82.488945 
   27600    988.16176   -107.84778   0.89410953   -106.95367     1967.929      4.36393      4.36393      4.36393     1967.929   -22184.949    4387.3683    23701.368   -3229.7046   -18893.337    4913.1416    83.106179 
   27700    1185.0385   -108.02601    1.0722477   -106.95376   -16650.515    4.3719988    4.3719988    4.3719988   -16650.515    -9859.986   -15439.492   -24652.067    4208.9231   -5885.4245    6020.3152    83.568018 
   27800    861.28925   -107.73579   0.77931261   -106.95648   -2796.7616    4.3683893    4.3683893    4.3683893   -2796.7616   -8241.7141   -32853.719    32705.148    17.981261    289.89429    21516.679    83.361211 
   27900    1108.4134   -107.95522    1.0029157   -106.95231    10996.499    4.3599227    4.3599227    4.3599227    10996.499    2281.2994    25004.442    5703.7566    3111.9055   -10799.337   -4474.6696    82.877447 
   28000    820.72117   -107.70506   0.74260576   -106.96245    6922.9493    4.3630969    4.3630969    4.3630969    6922.9493    27609.579   -33352.373    26511.642    8194.1842   -197.65048    14580.379    83.058594 
   28100    1105.7068   -107.96155    1.0004668   -106.96109   -15885.102    4.3778966    4.3778966    4.3778966   -15885.102    5168.5574   -21591.067   -31232.795     -4170.06    15136.338   -2552.8846    83.906671 
   28200    828.11711   -107.70156   0.74929776   -106.95226    24697.864    4.3609624    4.3609624    4.3609624    24697.864     54113.95   -16241.479    36221.122    8397.5601    2439.6695    1557.2979    82.936752 
   28300    878.76001   -107.75287   0.79512052   -106.95775    -16708.93    4.3685758    4.3685758    4.3685758    -16708.93    3766.8943   -26401.667   -27492.017    -4147.698    12189.531    12587.989    83.371887 
   28400    1203.4226   -108.03609     1.088882    -106.9472    -6561.236    4.3642709    4.3642709    4.3642709    -6561.236   -20182.291   -11167.502    11666.084   -5109.7524    12308.947   -5284.6641     83.12566 
   28500    944.42979   -107.81418   0.85453993   -106.95964    7688.7523    4.3599077    4.3599077    4.3599077    7688.7523    16973.809   -2705.4137    8797.8612   -846.94937   -13837.457    21696.561    82.876593 
   28600    1037.6649   -107.90008   0.93890102   -106.96118   -23612.218    4.3785315    4.3785315    4.3785315   -23612.218   -14192.142   -27896.419   -28748.094   -2428.7073    22329.929   -8071.4995    83.943186 
   28700    1005.8614   -107.86689   0.91012452   -106.95677    16748.703    4.3582865    4.3582865    4.3582865    16748.703    26677.505   -5779.2188    29347.824    332.38296    3957.9558    8000.4537    82.784176 
   28800    803.48334   -107.69066   0.72700861   -106.96365   -285.69516    4.3629592    4.3629592    4.3629592   -285.69516    8683.9344   -14936.622    5395.6026   -7068.2419    16971.614    21536.224    83.050729 
   28900    796.68251    -107.6822   0.72085508   -106.96135     831.7179    4.3733265    4.3733265    4.3733265     831.7179   -5775.1668   -6316.6306    14586.951   -934.08345    24339.048   -4436.3742    83.644175 
   29000    1093.6735   -107.94074   0.98957877   -106.95116   -10847.945    4.3680302    4.3680302    4.3680302   -10847.945    27189.741   -43971.887    -15761.69   -6903.6811   -2352.0203    30814.434    83.340651 
   29100    1083.9805   -107.92923   0.98080831   -106.94842   -10648.226    4.3683787    4.3683787    4.3683787   -10648.226   -16217.375    1969.5568    -17696.86   -801.97206    4574.8643   -5806.5327    83.360603 
   29200    1025.4985   -107.87711   0.92789262   -106.94922   -9803.3008    4.3686853    4.3686853    4.3686853   -9803.3008   -9437.8632   -29061.289      9089.25   -5815.9225   -3996.2678    10055.217    83.378158 
   29300    1108.9369   -107.95907    1.0033894   -106.95568   -2906.2162    4.3641329    4.3641329    4.3641329   -2906.2162   -1701.7517   -21297.778    14280.881    3063.1048    4551.0421    2130.8509    83.117772 
   29400    905.38186   -107.77914   0.81920854   -106.95993    124.37075    4.3701648    4.3701648    4.3701648    124.37075    3513.1496   -12357.205    9217.1677    1438.8959    33740.346   -6426.3344    83.462894 
   29500    667.37232   -107.56068    0.6038525   -106.95683    599.31163    4.3733544    4.3733544    4.3733544    599.31163    56131.053   -37120.987   -17212.131    4295.0801    3045.7481    15018.746    83.645777 
   29600    909.32213   -107.77088   0.82277377    -106.9481     11605.62    4.3568348    4.3568348    4.3568348     11605.62      37471.7    11310.641   -13965.482   -2274.8402     20800.21   -8198.0373    82.701479 
   29700    1211.0909   -108.05536    1.0958205   -106.95954   -23617.932    4.3706906    4.3706906    4.3706906   -23617.932   -3418.6135   -35098.225   -32336.958    -166.2735   -1817.4577    13552.075    83.493025 
   29800    1372.0806    -108.1937    1.2414874   -106.95221   -27173.366    4.3785905    4.3785905    4.3785905   -27173.366   -10904.673   -44213.901   -26401.523     1733.925    -2687.408   -6663.2189    83.946575 
   29900    767.65053   -107.64297   0.69458633   -106.94838    22137.802    4.3504816    4.3504816    4.3504816    22137.802    55497.323    26644.301   -15728.218   -7497.7571    17243.984    10299.429    82.340219 
   30000     761.6369   -107.65538   0.68914507   -106.96623    5776.8925    4.3636129    4.3636129    4.3636129    5776.8925    32317.476   -11016.971   -3969.8279    5023.8408   -249.65084    6759.6409    83.088063 
   30100    1218.0937   -108.05656    1.1021568    -106.9544   -9204.2945    4.3789743    4.3789743    4.3789743   -9204.2945    5932.2928   -20559.823   -12985.353    2561.3715    16145.044    132.21872    83.968652 
   30200    1116.6808   -107.96976    1.0103962   -106.95936   -10414.021    4.3593971    4.3593971    4.3593971   -10414.021     11748.72   -28963.461    -14027.32    895.60415    14608.635    8675.8529    82.847477 
   30300    1125.2199   -107.97703    1.0181226   -106.95891    21990.635    4.3502284    4.3502284    4.3502284    21990.635    47974.832    8002.6177     9994.456   -1643.7585   -8368.7197   -3815.7796    82.325839 
   30400    667.28645   -107.57229    0.6037748   -106.96851   -28914.245    4.3882502    4.3882502    4.3882502   -28914.245    -5189.537   -29216.611   -52336.588    629.21755     12631.25    8107.7698     84.50339 
   30500    965.82192   -107.83257   0.87389597   -106.95868   -3517.5157    4.3622943    4.3622943    4.3622943   -3517.5157    22467.488   -31908.112   -1111.9234     4070.513    8754.3875   -3786.5042    83.012765 
   30600    1270.2355   -108.09797    1.1493358   -106.94863     16488.35    4.3366242    4.3366242    4.3366242     16488.35     38608.19    6105.6249    4751.2368    -5304.424   -6675.4799    5584.2863    81.555897 
   30700    762.46898   -107.66773   0.68989796   -106.97783   -18716.232    4.3791891    4.3791891    4.3791891   -18716.232     14722.38   -42337.352   -28533.725    4401.0808    14292.186    630.13646    83.981013 
   30800    951.40499   -107.81468   0.86085123   -106.95382    -16206.43    4.3817536    4.3817536    4.3817536    -16206.43    17653.586   -45546.492   -20726.385    7027.9744    -18457.45    5196.5339    84.128638 
   30900    887.56918   -107.75051   0.80309124   -106.94742    235.25431    4.3462392    4.3462392    4.3462392    235.25431    16515.381   -10288.698   -5520.9202   -334.28523     3521.889    10508.489    82.099567 
   31000    1217.6352   -108.06237    1.1017419   -106.96063   -2569.6359    4.3569518    4.3569518    4.3569518   -2569.6359      1214.87   -22915.615    13991.838    12259.931   -1465.1209   -5109.2699    82.708141 
   31100    851.06592   -107.73108   0.77006233   -106.96102   -26363.364    4.3807906    4.3807906    4.3807906   -26363.364   -2904.5841   -38943.732   -37241.775   -4704.6061    -8986.107    14850.153     84.07318 
   31200    936.18934   -107.80134   0.84708379   -106.95426    16739.908    4.3550866    4.3550866    4.3550866    16739.908    58624.751    -6806.872   -1598.1547    579.70109    2910.6008    4855.0133    82.601964 
   31300    1142.6226   -107.99574     1.033869   -106.96187    693.11404    4.3559964    4.3559964    4.3559964    693.11404      24547.5   -24795.875     2327.717   -1914.9601    56.690094    -2253.916    82.653747 
   31400    728.01954   -107.63379   0.65872738   -106.97506   -7554.4641    4.3715147    4.3715147    4.3715147   -7554.4641   -2956.1099   -9295.2595   -10412.023   -4834.2646   -12818.068     12647.38    83.540262 
   31500    1251.3469   -108.09764     1.132245   -106.96539    5855.8223    4.3666077    4.3666077    4.3666077    5855.8223    35691.613   -8967.0246   -9157.1213    11606.524    14447.403   -820.36315    83.259259 
   31600    928.80479   -107.80461    0.8404021   -106.96421    24302.537     4.353719     4.353719     4.353719    24302.537    38364.307    2285.1832     32258.12    1334.8856    -9577.189    9705.2981    82.524177 
   31700     897.2267   -107.78044   0.81182957   -106.96861    2581.6012    4.3723246    4.3723246    4.3723246    2581.6012    36982.065   -13019.367   -16217.894    3762.4362   -7608.7444    10650.258    83.586704 
   31800    1074.9632   -107.93077   0.97264931   -106.95812     6391.793    4.3684438    4.3684438    4.3684438     6391.793    8909.7925   -7735.8625    18001.449    5902.6305    12033.377    4236.9289    83.364331 
   31900    833.05323   -107.70967   0.75376407   -106.95591    32181.315     4.349233     4.349233     4.349233    32181.315    84316.223    10699.212    1528.5108   -5316.9678     -22478.1    12590.928    82.269343 
   32000    1309.1668   -108.14518    1.1845617   -106.96062   -9003.6346    4.3724615    4.3724615    4.3724615   -9003.6346   -11243.165   -20602.837    4835.0981    17496.602    9036.7067   -1285.3257    83.594556 
   32100    771.77712   -107.65926   0.69832016   -106.96094    13451.456    4.3659991    4.3659991    4.3659991    13451.456     50180.35   -23638.663    13812.681    5493.5356   -5579.7841    12784.149    83.224447 
   32200    1105.6167   -107.96041    1.0003853   -106.96003   -5305.9447    4.3653142    4.3653142    4.3653142   -5305.9447    11510.555   -21816.794   -5611.5948    6715.3367   -13094.115   -1134.8778    83.185285 
   32300    1227.9041   -108.06656    1.1110335   -106.95553    10240.424    4.3642458    4.3642458    4.3642458    10240.424    9553.6365   -3560.4039     24728.04    13514.205   -5998.9392     4746.757    83.124224 
   32400    881.78042     -107.759   0.79785346   -106.96115     9556.788    4.3632139    4.3632139    4.3632139     9556.788    28135.402   -22690.211    23225.174   -9543.1184   -11270.171    6407.1007    83.065277 
   32500     1214.323   -108.05421    1.0987449   -106.95547   -11203.977    4.3687116    4.3687116    4.3687116   -11203.977   -14454.494   -15680.515   -3476.9227    7085.9261   -9204.0213   -6087.8688    83.379661 
   32600     1000.966   -107.86048   0.90569506   -106.95479    24048.686    4.3554605    4.3554605    4.3554605    24048.686    35303.135   -12369.825    49212.749   -6043.7322    5074.2342    5105.9244    82.623242 
   32700    871.58718   -107.75397   0.78863039   -106.96534   -8520.0455    4.3766422    4.3766422    4.3766422   -8520.0455   -11908.612   -13517.577   -133.94663    3466.0926   -24543.439     9763.128    83.834567 
   32800    1323.1582   -108.15419    1.1972214   -106.95697   -2060.5867    4.3611284    4.3611284    4.3611284   -2060.5867    3999.1284   -25959.242    15778.354   -3071.3948    15905.891   -6284.1279    82.946224 
   32900    652.99721   -107.54799    0.5908456   -106.95714    24169.163    4.3522701    4.3522701    4.3522701    24169.163    37084.238   -9024.4701    44447.721    2110.3144   -14085.587    15316.329    82.441808 
   33000    1236.2574   -108.07471    1.1185917   -106.95612   -31508.993    4.3776668    4.3776668    4.3776668   -31508.993   -52984.822   -40472.152   -1070.0049   -3108.9969   -6635.9993    378.66854    83.893461 
   33100    1015.5931    -107.8736   0.91892994   -106.95467    30411.947    4.3544569    4.3544569    4.3544569    30411.947     62302.21   -4728.9261    33662.557    1553.3178    16177.225    9535.4971    82.566144 
   33200    1000.4168   -107.87308   0.90519815   -106.96788   -657.87188    4.3623168    4.3623168    4.3623168   -657.87188   -18555.605   -23880.986    40462.975   -543.61943   -12061.457    2022.2004     83.01405 
   33300    991.82552   -107.86124   0.89742458   -106.96381   -5686.9102    4.3712687    4.3712687    4.3712687   -5686.9102     4389.273   -23128.322    1678.3184    798.64547   -4700.8592   -3793.3004    83.526161 
   33400    875.02362   -107.75262   0.79173976   -106.96088    3768.5119    4.3566326    4.3566326    4.3566326    3768.5119    22469.203    -16285.31    5121.6435    3251.9206   -2044.4337    7971.5756    82.689967 
   33500    1191.4968    -108.0393    1.0780914   -106.96121   -6855.5976    4.3624992    4.3624992    4.3624992   -6855.5976    -32957.53   -12705.833     25096.57    646.64044   -6742.5074    2605.4043    83.024462 
   33600     799.9332   -107.68574   0.72379637   -106.96195     9948.379    4.3681481    4.3681481    4.3681481     9948.379    53608.454   -24740.124    976.80678    8469.7575   -4034.7288    1213.2963    83.347403 
   33700    1029.9213   -107.88888   0.93189446   -106.95699   -13657.191    4.3714072    4.3714072    4.3714072   -13657.191    -29182.97   -45284.448    33495.845   -6032.5074   -6307.5098    3754.7494    83.534101 
   33800    1151.4464   -107.99735    1.0418529    -106.9555   -8808.9837    4.3649653    4.3649653    4.3649653   -8808.9837    12740.121    -32115.96   -7051.1122    11274.793   -397.10881   -6080.3971    83.165346 
   33900    881.89984   -107.76461    0.7979615   -106.96665    5608.8475    4.3471631    4.3471631    4.3471631    5608.8475    19201.871   -13438.591    11063.263   -4540.4897    733.34429    5511.4958    82.151936 
   34000    1061.9752   -107.94394   0.96089751   -106.98304   -1365.3373    4.3723705    4.3723705    4.3723705   -1365.3373   -7262.7994   -41747.217    44914.005   -81.780633    4306.8347   -3135.1199    83.589334 
   34100    1068.6301   -107.93991     0.966919   -106.97299   -23266.878    4.3753584    4.3753584    4.3753584   -23266.878   -6983.4455   -45024.709   -17792.478    7075.1565    5450.8674    -7641.151    83.760819 
   34200    720.14625   -107.60942   0.65160346   -106.95782    31457.562     4.342205     4.342205     4.342205    31457.562    24143.806    4989.7395    65239.141   -9681.5034    10010.651    11386.604    81.871162 
   34300    1478.1112   -108.29499     1.337426   -106.95757   -4442.7477    4.3710605    4.3710605    4.3710605   -4442.7477   -16958.246   -17659.119    21289.122   -1270.4853    6643.3655   -13793.726    83.514224 
   34400    620.56995   -107.52499   0.56150473   -106.96349    12583.535    4.3660654    4.3660654    4.3660654    12583.535    6077.9191   -16088.242    47760.927   -1522.5503    4499.7459    3474.9425    83.228239 
   34500    1211.3107   -108.06019    1.0960194   -106.96417   -13410.879    4.3608339    4.3608339    4.3608339   -13410.879    -11155.61   -24509.204   -4567.8233    165.57461    13675.162    6046.0638    82.929423 
   34600    1090.6848   -107.95158   0.98687454    -106.9647    13220.287    4.3648228    4.3648228    4.3648228    13220.287     306.4315   -1512.5418    40866.972    1326.9656   -5367.6846    122.39701    83.157199 
   34700    1004.8486   -107.87732   0.90920817   -106.96812   -29543.272    4.3781285    4.3781285    4.3781285   -29543.272   -22694.307   -55950.675   -9984.8349    -5019.027    7450.1523     2064.155     83.92001 
   34800    1072.4286   -107.92624   0.97035594   -106.95588    11312.132    4.3620825    4.3620825    4.3620825    11312.132    13002.377   -8227.8004    29161.819     8313.053   -17376.112   -4737.7791    83.000675 
   34900    981.13619   -107.84224   0.88775265   -106.95449    16217.757    4.3436216    4.3436216    4.3436216    16217.757   -5081.6419    14578.698    39156.214   -5094.0475   -2435.8893    5063.5824    81.951321 
   35000    1123.7939   -107.97879    1.0168323   -106.96196   -25961.979    4.3808796    4.3808796    4.3808796   -25961.979   -15283.051   -42287.405   -20315.482   -7206.1886    1134.5092    6381.0412    84.078305 
   35100     840.2575   -107.71114   0.76028265   -106.95086    12503.274    4.3677425    4.3677425    4.3677425    12503.274   -22546.966      14858.1    45198.688    8992.7843   -19088.742    5143.0291    83.324184 
   35200    894.56858   -107.75866   0.80942445   -106.94924   -79.365229    4.3530689    4.3530689    4.3530689   -79.365229   -688.23123       5432.5   -4982.3645   -6114.1463    11572.134   -1277.8785     82.48721 
   35300    1190.2305   -108.03188    1.0769456   -106.95493    4636.5728    4.3621723    4.3621723    4.3621723    4636.5728   -13081.078   -1908.9658    28899.763    -2771.375   -15442.749    11017.557    83.005801 
   35400    897.59374   -107.77546   0.81216168   -106.96329   -6787.2142    4.3775729    4.3775729    4.3775729   -6787.2142   -18153.469    18611.802   -20819.976    5035.1475   -9204.3866   -9985.8112    83.888065 
   35500    1115.6584   -107.96679    1.0094712   -106.95732   -13204.792     4.367989     4.367989     4.367989   -13204.792   -7381.1481   -33587.827    1354.5989   -8958.0204    4377.1584    1503.7078    83.338297 
   35600    818.45752   -107.69213   0.74055757   -106.95158    27132.887    4.3458062    4.3458062    4.3458062    27132.887    10024.608    56127.561    15246.491    14088.964   -23089.314    1252.7784     82.07503 
   35700    931.56916   -107.80885   0.84290335   -106.96594   -8756.7698    4.3745801    4.3745801    4.3745801   -8756.7698    11626.572   -28293.066    -9603.815   -11080.679    1655.8106   -726.56166    83.716127 
   35800    1016.5401   -107.87594   0.91978682   -106.95615   -1828.3248     4.369666     4.369666     4.369666   -1828.3248   -20735.458    15156.452    94.031121    4073.8135   -11227.718    14178.246    83.434321 
   35900    1007.8441   -107.86115   0.91191855   -106.94923    14755.867    4.3509156    4.3509156    4.3509156    14755.867    20896.563    36201.264   -12830.226    10348.871   -6614.1063    -960.5269    82.364864 
   36000    1000.9629   -107.86091   0.90569228   -106.95522   -14864.852    4.3699472    4.3699472    4.3699472   -14864.852     11170.24   -16525.941   -39238.856    1781.2533    2484.0655    16439.627     83.45043 
   36100    943.36595   -107.81233   0.85357733   -106.95876   -1796.4893    4.3627377    4.3627377    4.3627377   -1796.4893   -24019.297    33932.977   -15303.148    8478.3203   -9753.2437    2601.1616    83.038084 
   36200    1202.9213   -108.04907    1.0884285   -106.96064   -2528.8354    4.3612604    4.3612604    4.3612604   -2528.8354    14683.284   -85.042961   -22184.747    9413.6501    8548.3903    8895.9123    82.953755 
   36300    1246.1786   -108.09132    1.1275686   -106.96375   -10730.252     4.363032     4.363032     4.363032   -10730.252   -9007.9659   -5823.1709   -17359.618   -14214.228   -8313.7696    9628.0037    83.054885 
   36400     795.9391   -107.68591   0.72018242   -106.96572    15253.704    4.3621337    4.3621337    4.3621337    15253.704    326.84825    49272.507    -3838.243     13769.42   -4759.4222    -2516.567      83.0036 
   36500      1121.88   -107.97919    1.0151006   -106.96409   -14118.375     4.373318     4.373318     4.373318   -14118.375    5958.7689   -26860.388   -21453.505   -14521.131    2623.2057    13252.592    83.643688 
   36600    1110.5154    -107.9624    1.0048177   -106.95758    8932.1795    4.3578165    4.3578165    4.3578165    8932.1795   -13826.337    8034.1598    32588.716    6616.8515   -24569.805   -10971.982    82.757394 
   36700    902.66971   -107.78138   0.81675452   -106.96463    4319.3005     4.363207     4.363207     4.363207    4319.3005    8532.1397    11338.272     -6912.51     6749.753    4394.2302    14496.889     83.06488 
   36800    969.82864   -107.84216   0.87752133   -106.96464   -9276.1462    4.3710308    4.3710308    4.3710308   -9276.1462   -14983.783   -18901.426    6056.7696     8654.748   -11698.481    8082.5103    83.512521 
   36900    927.93914   -107.80454   0.83961884   -106.96492    8276.2184    4.3584683    4.3584683    4.3584683    8276.2184   -3507.1468    17916.042     10419.76    17792.288   -12235.023   -3483.9826    82.794537 
   37000    977.87725   -107.85499   0.88480389   -106.97018    4121.0159    4.3600194    4.3600194    4.3600194    4121.0159    7434.2009    32148.459   -27219.612    217.60194     7324.264    24100.027    82.882961 
   37100    1145.2185    -108.0071    1.0362177   -106.97088   -16355.762    4.3651751    4.3651751    4.3651751   -16355.762   -20945.098   -13788.877   -14333.312    4442.3992   -17361.579   -769.16349    83.177336 
   37200    968.37451   -107.84156   0.87620561   -106.96535    6918.3788    4.3591703    4.3591703    4.3591703    6918.3788    8024.3939    10685.813    2044.9292    923.40367    3338.2399    2836.8792    82.834546 
   37300    968.48373   -107.83574   0.87630443   -106.95944   -21546.783    4.3702567    4.3702567    4.3702567   -21546.783   -22229.143   -7788.8406   -34622.366   -3576.8519   -12087.212    11049.046     83.46816 
   37400    1037.0085   -107.89022   0.93830708   -106.95192     8875.481    4.3585953    4.3585953    4.3585953     8875.481   -4958.3595    25509.728    6075.0748    8953.4244   -6324.3901   -9413.7777    82.801775 
   37500    1045.2167   -107.90007   0.94573407   -106.95433    2949.1123    4.3573799    4.3573799    4.3573799    2949.1123     9178.077    5098.9722   -5429.7124   -2347.2698   -257.39304    13598.372    82.732524 
   37600      932.342    -107.8007   0.84360263    -106.9571   -15892.989    4.3704121    4.3704121    4.3704121   -15892.989   -26756.063    14217.294     -35140.2    4792.8162   -18535.327   -1090.5469    83.477062 
   37700     769.6914   -107.65718   0.69643295   -106.96075    67.827286    4.3619739    4.3619739    4.3619739    67.827286    6137.0307   -22573.157    16639.608    10810.738    3334.7279   -4359.2989    82.994474 
   37800    1290.1568   -108.12548     1.167361   -106.95812   -3966.7323    4.3501279    4.3501279    4.3501279   -3966.7323    -6186.819     9248.278   -14961.656     1158.996   -10705.155    18821.774    82.320138 
   37900    768.85848   -107.66259   0.69567931   -106.96691   -7334.8859    4.3694629    4.3694629    4.3694629   -7334.8859   -13086.911    11642.711   -20560.458    2095.7302   -11946.316   -17897.931    83.422686 
   38000    1102.7435   -107.95508   0.99778552    -106.9573   -10201.943    4.3614317    4.3614317    4.3614317   -10201.943   -3661.2472   -35463.001    8518.4177    21805.534    4340.0593     15382.56     82.96353 
   38100     807.3344   -107.68944   0.73049313   -106.95895     7419.029    4.3523986    4.3523986    4.3523986     7419.029   -14178.069     61674.93   -25239.774   -11259.819   -19505.366   -2162.0138     82.44911 
   38200    1101.7766   -107.96208    0.9969106   -106.96517    -22785.79    4.3671626    4.3671626    4.3671626    -22785.79   -8855.2423   -44151.015   -15351.114    28145.944   -3597.2733   -1880.7614    83.291004 
   38300     1119.189   -107.97378    1.0126657   -106.96111    5467.4245    4.3576669    4.3576669    4.3576669    5467.4245   -17509.698    44831.488   -10919.516    332.22906   -11878.362    11156.762    82.748875 
   38400    790.51781    -107.6818   0.71527712   -106.96652   -15298.122    4.3610233    4.3610233    4.3610233   -15298.122   -11132.309   -12954.164   -21807.892    7405.9481   -15174.113   -4174.8954    82.940228 
   38500    975.28196   -107.84588   0.88245562   -106.96342    1284.1248    4.3596726    4.3596726    4.3596726    1284.1248   -6310.3364   -6485.6867    16648.398    19911.262    6030.5812   -7127.7934    82.863185 
   38600    1134.8994   -107.98965    1.0268808   -106.96276   -11944.583    4.3624984    4.3624984    4.3624984   -11944.583   -29853.043    29552.441   -35533.146   -6774.6685   -29961.743    6042.6319     83.02442 
   38700    908.58526   -107.78309   0.82210704   -106.96098   -9159.2221    4.3631929    4.3631929    4.3631929   -9159.2221   -5415.9072    -17971.79   -4089.9691    15581.715     5254.812    -16775.94    83.064075 
   38800     941.1974   -107.80774   0.85161519   -106.95613    9468.9577    4.3522897    4.3522897    4.3522897    9468.9577   -20106.442    53729.386   -5216.0711    7350.4519   -13573.506    2748.3789    82.442926 
   38900     1026.605   -107.89583   0.92889378   -106.96693   -32228.627    4.3661421    4.3661421    4.3661421   -32228.627   -32593.316   -26037.826    -38054.74   -795.30678   -20475.248   -4846.0611    83.232624 
   39000    798.85719   -107.68955   0.72282277   -106.96672    4455.7038    4.3567512    4.3567512    4.3567512    4455.7038     10756.87   -5092.0284    7702.2697    28842.088    1672.3546   -7604.1752    82.696718 
   39100    1277.2639   -108.11837    1.1556952   -106.96267   -578.27828    4.3515648    4.3515648    4.3515648   -578.27828   -11022.933    32707.179   -23419.081   -14591.971    -18227.81    956.91521    82.401737 
   39200    806.50245   -107.69561   0.72974036   -106.96587   -35073.267     4.370246     4.370246     4.370246   -35073.267   -31711.105   -52639.049   -20869.648    33075.798    1703.5336    -9843.102    83.467547 
   39300    837.29182    -107.7154   0.75759923    -106.9578    25474.832    4.3491685    4.3491685    4.3491685    25474.832     18.01171     54669.16    21737.325     8250.164   -8989.6345   -2831.4989    82.265681 
   39400    1368.2537   -108.19701    1.2380247   -106.95898   -20573.635    4.3637034    4.3637034    4.3637034   -20573.635   -18940.793   -7091.4071   -35688.704    7493.6878   -7679.9435   -6480.8995    83.093238 
   39500    714.41161   -107.60831   0.64641464   -106.96189    1180.1978    4.3593209    4.3593209    4.3593209    1180.1978   -10864.261    7909.5004    6495.3537    33712.819    976.52066   -12897.255    82.843134 
   39600    1062.2121    -107.9155   0.96111181   -106.95439    13214.207    4.3539239    4.3539239    4.3539239    13214.207    3514.8482    21848.447    14279.327   -5362.0129   -9565.4575   -2164.4474    82.535825 
   39700      980.491   -107.84415   0.88716886   -106.95698   -27872.687    4.3712615    4.3712615    4.3712615   -27872.687   -14018.891    -44008.99    -25590.18    19684.897    3405.9056    -9205.178    83.525748 
   39800    1033.0011   -107.89034   0.93468109   -106.95566      14439.2    4.3502292    4.3502292    4.3502292      14439.2   -10266.652    40498.739    13085.514    5294.4866   -6128.2117   -12529.098    82.325889 
   39900    1110.3589   -107.96915     1.004676   -106.96447    620.97927    4.3539567    4.3539567    4.3539567    620.97927   -14469.065    4995.3275    11336.675   -4636.3145    -7021.165    10186.826    82.537694 
   40000    840.86609   -107.73371   0.76083331   -106.97288    831.72292    4.3599295    4.3599295    4.3599295    831.72292   -13259.113    26928.385   -11174.103    17497.115   -2289.7619   -10276.426    82.877838 
   40100    1135.2398    -107.9961    1.0271888   -106.96891   -8655.5535    4.3685571    4.3685571    4.3685571   -8655.5535    -9188.277   -21568.682    4790.2987   -4841.4826   -9557.9927   -3105.4284    83.370814 
   40200    987.77634   -107.85701   0.89376079   -106.96325    14666.877    4.3497845    4.3497845    4.3497845    14666.877    4797.8233    30377.314    8825.4932    14815.575    3875.9525      8696.68    82.300641 
   40300    876.27971   -107.76506    0.7928763   -106.97219    6042.1805    4.3495628    4.3495628    4.3495628    6042.1805    21356.731   -15337.339     12107.15     11651.28    -3623.239   -13682.409    82.288058 
   40400    1064.1191   -107.92912   0.96283733   -106.96628   -15846.895    4.3736392    4.3736392    4.3736392   -15846.895   -25990.689   -14280.704   -7269.2918   -2550.8116    -2257.726    4829.6762    83.662117 
   40500    948.02454   -107.82085   0.85779252   -106.96306    17188.314    4.3513839    4.3513839    4.3513839    17188.314    14260.259    11846.486    25458.198    28978.929    2959.3707    2126.5533    82.391459 
   40600    968.83638   -107.83845   0.87662351   -106.96183    4849.9206    4.3508277    4.3508277    4.3508277    4849.9206   -6404.9573     3211.715    17743.004   -11062.347   -5040.1727   -7887.5814    82.359868 
   40700    1030.9281   -107.89602   0.93280537   -106.96321   -7204.0553    4.3626157    4.3626157    4.3626157   -7204.0553   -31508.049    7809.7209    2086.1616    13459.905   -10195.308    3206.8403    83.031116 
   40800    1130.1737   -107.98649    1.0226049   -106.96388   -8500.8933    4.3606846    4.3606846    4.3606846   -8500.8933    -11539.51   -14936.064    972.89426    15032.657   -1529.2767   -3227.3328    82.920906 
   40900    1038.4024    -107.9037   0.93956829   -106.96413   -9184.8603    4.3602409    4.3602409    4.3602409   -9184.8603   -19315.454   -5909.1012   -2330.0258   -12159.186   -7975.8053   -10327.116    82.895593 
   41000     943.4277   -107.82062   0.85363321   -106.96698    811.25739     4.354937     4.354937     4.354937    811.25739   -31954.542    22914.383    11473.932    22196.821   -1508.0458    7249.3868    82.593452 
   41100    1010.5862   -107.88697   0.91439963   -106.97257   -56.307419    4.3623247    4.3623247    4.3623247   -56.307419   -3470.8447   -4107.3503    7409.2728   -559.78989   -2373.1944   -15236.412      83.0145 
   41200     992.8193   -107.87111   0.89832377   -106.97278   -9394.9564    4.3641269    4.3641269    4.3641269   -9394.9564   -37295.017   -936.45082    10046.598    10259.087    -4068.936   -1844.9166    83.117429 
   41300    975.51917   -107.84886   0.88267025   -106.96619    22496.146    4.3478412    4.3478412    4.3478412    22496.146    6242.6881    30258.454    30987.296    17509.503   -3700.6836    5063.3913    82.190389 
   41400     976.4899   -107.85331   0.88354858   -106.96976    -11703.13    4.3651278    4.3651278    4.3651278    -11703.13   -27624.365   -11170.235    3685.2115   -7862.3717   -9006.2193   -15486.865     83.17463 
   41500    1003.9568   -107.86912   0.90840119   -106.96072   -4671.2323     4.365274     4.365274     4.365274   -4671.2323   -33564.132    7473.6977    12076.738    20162.208    77.207316    5776.8179    83.182992 
   41600    1159.0396   -108.00486    1.0487234   -106.95614    16512.806    4.3465936    4.3465936    4.3465936    16512.806    4187.1453     12117.62    33233.651   -3392.8663   -8885.0998    1304.3555    82.119653 
   41700    801.68796   -107.69113   0.72538412   -106.96575    7164.2655    4.3635913    4.3635913    4.3635913    7164.2655   -25548.781    34937.828    12103.749     3130.653   -12367.763   -9815.3893    83.086833 
   41800    1198.9924    -108.0461    1.0848735   -106.96123   -17317.604    4.3663511    4.3663511    4.3663511   -17317.604   -46878.378   -2911.0873   -2163.3479    8016.8759    4287.4197    5303.3922    83.244582 
   41900     981.1909   -107.84866   0.88780214   -106.96085    16456.575    4.3521104    4.3521104    4.3521104    16456.575   -4473.4934    32397.226    21445.992   -6991.8582   -14968.992    1939.9048    82.432735 
   42000    988.38997   -107.86017   0.89431601   -106.96585    4251.2344     4.357803     4.357803     4.357803    4251.2344    -22387.02    26533.655    8607.0688    11296.653    33.443041   -16213.169    82.756625 
   42100    938.71655   -107.81903   0.84937046   -106.96966    -4260.395    4.3619354    4.3619354    4.3619354    -4260.395   -40408.406     8023.299    19603.922    7078.9371     5966.722    16803.487    82.992281 
   42200    946.05992   -107.82396    0.8560149   -106.96794    7471.7529    4.3607215    4.3607215    4.3607215    7471.7529   -21141.273    43473.312    83.219931    4641.7567    -14649.61    -8494.262    82.923011 
   42300     1100.516   -107.96631      0.99577   -106.97054    -4445.856    4.3556248    4.3556248    4.3556248    -4445.856   -26345.136    8940.3319    4067.2361    23388.989    13610.489   -942.30246    82.632597 
   42400    1105.4244   -107.97445    1.0002112   -106.97424    2953.6574    4.3485284    4.3485284    4.3485284    2953.6574   -8893.1939     23128.62   -5374.4542   -1076.6058   -14324.644    18776.443    82.229364 
   42500    910.94098   -107.80116   0.82423854   -106.97692   -11882.472    4.3661442    4.3661442    4.3661442   -11882.472   -33996.075   -4242.1103      2590.77    4895.0111    138.16911   -5556.6427    83.232744 
   42600    800.37121   -107.69148   0.72419269   -106.96728   -1352.3655    4.3589297    4.3589297    4.3589297   -1352.3655   -25623.752    19127.424     2439.231    1589.5831    10784.646    1514.6948    82.820835 
   42700    1373.4221    -108.1999    1.2427012    -106.9572   -9448.7149    4.3528405    4.3528405    4.3528405   -9448.7149    -11659.85   -4629.1976   -12057.097   -7112.3514   -16842.312    17588.384    82.474226 
   42800    676.81764   -107.58006   0.61239883   -106.96767    13132.948    4.3537911    4.3537911    4.3537911    13132.948   -22880.058     37723.04    24555.861    7867.2397    16411.722   -9343.3262    82.528273 
   42900    1117.6693   -107.97872    1.0112907   -106.96743   -17249.115    4.3632236    4.3632236    4.3632236   -17249.115   -25889.815    5244.1837   -31101.713   -5524.6209    4105.3123     20811.52    83.065832 
   43000    1043.7244   -107.90652   0.94438378   -106.96214   -8595.7028     4.363097     4.363097     4.363097   -8595.7028   -32577.764    3206.3597    3584.2959    10477.505   -5379.3666   -238.19935      83.0586 
   43100     904.1165   -107.77983   0.81806361   -106.96177    11574.349    4.3450204    4.3450204    4.3450204    11574.349   -13197.711    35056.483    12864.276    4823.5956    18922.472    1121.4873    82.030519 
   43200    1145.7798   -108.00055    1.0367256   -106.96383   -13528.279    4.3611315    4.3611315    4.3611315   -13528.279   -22243.485   -12176.238   -6165.1143     6619.507   -8844.9306    12364.615    82.946399 
   43300    778.21609   -107.66931   0.70414628   -106.96516   -10012.113    4.3633836    4.3633836    4.3633836   -10012.113    -43012.98    15421.705   -2445.0642    18818.425    10505.171   -4186.2085    83.074966 
   43400    1346.9584   -108.17949    1.2187562   -106.96073    4507.1648    4.3551406    4.3551406    4.3551406    4507.1648   -10163.594    16325.101    7359.9876   -5122.6254   -807.77716     -1279.86    82.605037 
   43500     874.3496   -107.75783   0.79112989    -106.9667    9834.1134    4.3546428    4.3546428    4.3546428    9834.1134   -4167.4821    31510.258    2159.5641    11752.673    405.48076    6306.6178    82.576717 
   43600    869.20082   -107.75911   0.78647117   -106.97264   -9532.0031    4.3570237    4.3570237    4.3570237   -9532.0031   -34547.311   -4537.6518    10488.953   -471.45565    13366.373   -3433.3095    82.712239 
   43700     1203.829   -108.04974    1.0892498   -106.96049   -1594.1023    4.3655719    4.3655719    4.3655719   -1594.1023   -12203.078    10195.363   -2774.5925    -6074.432   -7285.9514    11765.249     83.20002 
   43800    789.36016   -107.68107   0.71422966   -106.96684    7555.7713    4.3488951    4.3488951    4.3488951    7555.7713    -19508.62     38531.37    3644.5641    16254.466    7455.5596     272.9164    82.250171 
   43900    1178.1103   -108.03954     1.065979   -106.97356    7318.8447    4.3578543    4.3578543    4.3578543    7318.8447    -13773.95    6937.9869    28792.497   -13150.842    180.43009   -1255.5498     82.75955 
   44000    1112.4576   -107.97475     1.006575   -106.96818    4977.2145    4.3610963    4.3610963    4.3610963    4977.2145   -24211.137    44431.475    -5288.695    12836.024    4664.7109   -1825.2219    82.944393 
   44100    709.13076   -107.61728   0.64163642   -106.97564   -5674.8834    4.3540505    4.3540505    4.3540505   -5674.8834    -26463.62   -3109.8738    12548.844    9129.1278    7357.4226   -3184.7297    82.543025 
   44200    1261.5136   -108.10978     1.141444   -106.96834    7768.1615    4.3602268    4.3602268    4.3602268    7768.1615   -17495.371    39858.698    941.15734   -95.511655   -1964.6555   -12394.413    82.894791 
   44300    1064.3434   -107.93346   0.96304032   -106.97042   -12979.361    4.3653132    4.3653132    4.3653132   -12979.361   -31804.129   -6221.4251   -912.52811    22704.736    10896.134      35.7028    83.185231 
   44400    736.48613   -107.63215   0.66638813   -106.96576   -2879.8555    4.3541364    4.3541364    4.3541364   -2879.8555   -17875.349   -1853.7857    11089.568   -8530.2712    7038.7908   -15523.819     82.54791 
   44500    1007.7181   -107.87321   0.91180454    -106.9614    6455.1894    4.3500008    4.3500008    4.3500008    6455.1894    267.00509   -224.51876    19323.082    6693.7553    7145.4918   -1049.3068    82.312919 
   44600    991.77564   -107.86311   0.89737944   -106.96573   -10508.142    4.3670356    4.3670356    4.3670356   -10508.142   -18362.356    7799.5196   -20961.588    5279.0562    17733.909    4235.3773    83.283736 
   44700     971.3275   -107.84134   0.87887754   -106.96246    7886.6182    4.3525788    4.3525788    4.3525788    7886.6182    7600.6228   -12134.074    28193.306   -15608.031    1424.1942   -641.49404    82.459356 
   44800    772.64841   -107.66788   0.69910852   -106.96877    1482.9397    4.3526772    4.3526772    4.3526772    1482.9397   -13083.158    8587.3026    8944.6741    16088.226    8894.7115    3571.2823    82.464948 
   44900    1269.3956   -108.11737    1.1485758   -106.96879   -13298.219    4.3605713    4.3605713    4.3605713   -13298.219   -20195.517   -12979.084   -6720.0542   -12041.062   -5992.2788     1317.636    82.914442 
   45000    913.28075   -107.79856   0.82635562   -106.97221    3600.7304    4.3580086    4.3580086    4.3580086    3600.7304   -6204.5126    5492.7999    11513.904     1948.221   -222.45412   -4885.4998    82.768339 
   45100    940.79533   -107.82396   0.85125138   -106.97271   -7632.3129    4.3574535    4.3574535    4.3574535   -7632.3129    -28667.47     24356.27   -18585.738    401.20944    3164.2154    1260.6734    82.736715 
   45200    1085.7073    -107.9502    0.9823708   -106.96783    7958.6725    4.3583971    4.3583971    4.3583971    7958.6725    -7417.362   -1839.4108     33132.79   -12756.932   -5088.3211   -6468.1916    82.790479 
   45300    822.58074   -107.71811   0.74428834   -106.97382   -19483.052    4.3627981    4.3627981    4.3627981   -19483.052   -38751.023     9162.563   -28860.696    7194.6521    13063.375   -6984.9437    83.041532 
   45400    1113.0614   -107.97346    1.0071213   -106.96634    3471.9968    4.3482798    4.3482798    4.3482798    3471.9968    -7877.955   -278.66118    18572.607   -7928.6119   -6721.6184    1678.0439     82.21526 
   45500     1108.027   -107.96776    1.0025661   -106.96519   -2798.5016    4.3624448    4.3624448    4.3624448   -2798.5016   -27764.097    9957.0301    9411.5621    -1954.163    5623.5015    -4878.993    83.021359 
   45600    562.61548   -107.48249   0.50906631   -106.97342   -23447.163    4.3637027    4.3637027    4.3637027   -23447.163   -55365.955    10578.776   -25554.311    10671.473    9784.6168    5325.9283    83.093196 
   45700    1262.8106   -108.10227    1.1426175   -106.95966    29236.732    4.3383406    4.3383406    4.3383406    29236.732    18015.489     39315.57    30379.138   -8961.8305   -7099.1901    5842.5746    81.652771 
   45800    1091.4871    -107.9609    0.9876005    -106.9733   -22331.591    4.3657881    4.3657881    4.3657881   -22331.591   -42795.232    10763.093   -34962.633     3400.142    16136.976     4348.644     83.21238 
   45900    647.56198   -107.55509   0.58592769   -106.96916   -1096.2467    4.3622639    4.3622639    4.3622639   -1096.2467   -28373.953    7049.4292    18035.784   -936.80111    -2463.941    8670.7751    83.011033 
   46000    1334.3991   -108.16813    1.2073923   -106.96074     6990.682    4.3499211    4.3499211    4.3499211     6990.682    7111.1242    28276.178   -14415.256   -9622.0768    5798.8494    7885.9662    82.308395 
   46100    882.48653   -107.77304   0.79849235   -106.97455   -1185.9704    4.3554889    4.3554889    4.3554889   -1185.9704   -37241.091    34275.135   -591.95452    5149.5205    4681.1649    100.51305    82.624862 
   46200    950.27532   -107.82991   0.85982908   -106.97008    8130.3808    4.3572972    4.3572972    4.3572972    8130.3808    1221.6197    25992.236   -2822.7138   -2019.8322   -8170.3707    1361.0009    82.727813 
   46300    1057.1914   -107.93051     0.956569   -106.97394   -29909.617    4.3643943    4.3643943    4.3643943   -29909.617   -36891.856   -4093.9241   -48743.071    7111.2491    9818.7224    159.30388    83.132708 
   46400    821.33139   -107.71787   0.74315791   -106.97472    13908.108    4.3539831    4.3539831    4.3539831    13908.108   -16122.038    34296.448    23549.915     4330.178   -10792.803    -6141.012    82.539191 
   46500    1425.2185   -108.26074    1.2895677   -106.97118   -935.39109    4.3571473    4.3571473    4.3571473   -935.39109   -4043.2314    7133.9823   -5896.9242    4078.8157    9149.5225   -740.88983    82.719274 
   46600    627.12748   -107.54899   0.56743812   -106.98155   -19360.943    4.3633724    4.3633724    4.3633724   -19360.943   -49461.994    18921.662   -27542.496    149.68175   -3301.9463   -4834.6842     83.07433 
   46700     1102.556   -107.96669   0.99761582   -106.96908    18438.667    4.3553783    4.3553783    4.3553783    18438.667   -9646.4142    39209.522    25752.894    6186.8951    -4666.871   -5134.3324    82.618567 
   46800    1084.0897   -107.95291   0.98090713   -106.97201   -9742.9709    4.3589444    4.3589444    4.3589444   -9742.9709   -7239.9996    10229.571   -32218.484    -3904.862    3545.3441    6907.9619    82.821672 
   46900    566.15334   -107.49079   0.51226744   -106.97853    1533.3377    4.3536469    4.3536469    4.3536469    1533.3377   -24438.234    25447.704    3590.5425    5113.9945   -7793.1532    2993.9791    82.520074 
   47000    1564.6222   -108.38246     1.415703   -106.96676    7055.3619    4.3587846    4.3587846    4.3587846    7055.3619    1667.9518    20559.495   -1061.3608   -6012.9344    531.70363    2381.5485    82.812563 
   47100     810.1961   -107.71374   0.73308245   -106.98065   -11054.227    4.3607301    4.3607301    4.3607301   -11054.227    -23114.56     8247.318    -18295.44    7870.5489   -1049.8329    874.08607    82.923502 
   47200    861.38048   -107.75656   0.77939516   -106.97716    10379.088    4.3551013    4.3551013    4.3551013    10379.088    5197.3368    15572.364    10367.564    -4133.009   -7582.3447   -1290.5444    82.602803 
   47300    1306.7527   -108.15165    1.1823773   -106.96927   -6492.1552    4.3587613    4.3587613    4.3587613   -6492.1552    264.76125     2058.872   -21800.099   -1722.7503    4001.9172   -9781.0169    82.811235 
   47400    686.56073   -107.59797   0.62121458   -106.97676     6427.539    4.3581343    4.3581343    4.3581343     6427.539   -19908.547    44606.377   -5415.2132    5101.6735   -10077.636    2583.1443    82.775505 
   47500    1227.0584   -108.07551    1.1102682   -106.96524     485.0074     4.364269     4.364269     4.364269     485.0074    12372.379    8573.2785   -19490.636   -579.13751    3000.7025    235.87872     83.12555 
   47600    819.10709   -107.70887   0.74114531   -106.96773   -1422.1531     4.357064     4.357064     4.357064   -1422.1531   -28085.829    25341.523   -1522.1524     7572.726   -13749.531    673.64188    82.714533 
   47700    1004.3639   -107.87546   0.90876956   -106.96669    8603.0661    4.3571813    4.3571813    4.3571813    8603.0661    -951.2701    24902.317    1858.1511    6368.2563   -3355.0331   -2374.9405    82.721211 
   47800    1286.4187   -108.12426    1.1639787   -106.96028   -24175.696    4.3724305    4.3724305    4.3724305   -24175.696   -23546.033   -25084.114    -23896.94    1954.3505   -8540.6912    7089.8935    83.592775 
   47900    721.54019   -107.61914   0.65286473   -106.96628    9746.8045    4.3516188    4.3516188    4.3516188    9746.8045   -16621.249    56021.258   -10159.596    6710.3046   -14435.962   -3244.9737    82.404802 
   48000    1351.8586   -108.18611      1.22319   -106.96292    2946.6795    4.3536619    4.3536619    4.3536619    2946.6795    7268.6477     13836.02    -12264.63   -217.03156    4790.2463    5398.9756    82.520928 
   48100    555.88451    -107.4773   0.50297599   -106.97432   -3418.3904    4.3653609    4.3653609    4.3653609   -3418.3904   -16382.288    13432.188   -7305.0718   -7254.3215   -10249.528    13875.137    83.187955 
   48200    1185.7985   -108.03612    1.0729354   -106.96318    1948.4873    4.3585302    4.3585302    4.3585302    1948.4873   -3613.8105    34754.783    -25295.51    4933.9249     5583.428    5670.7628    82.798063 
   48300    1223.6329   -108.06865    1.1071688   -106.96148    1537.5663     4.360732     4.360732     4.360732    1537.5663   -6826.2902   -12945.949    24384.939   -18994.955    4341.1755    152.42409    82.923609 
   48400    719.26153   -107.62397   0.65080294   -106.97317   -2922.7093    4.3554951    4.3554951    4.3554951   -2922.7093   -18407.503    34554.175     -24914.8    9339.7543   -7872.9832    5449.8786    82.625213 
   48500    1284.0053   -108.13195     1.161795   -106.97016    -6858.941    4.3615749    4.3615749    4.3615749    -6858.941   -720.93064    -20886.68    1030.7872   -14014.692    8080.6348   -10504.743    82.971701 
   48600    915.49027   -107.79925   0.82835483    -106.9709   -10332.226    4.3622707    4.3622707    4.3622707   -10332.226    -27745.33    713.11578   -3964.4632   -3030.5725   -12613.627   -1272.4491    83.011417 
   48700    931.51653   -107.81007   0.84285573   -106.96721    11602.036    4.3496752    4.3496752    4.3496752    11602.036   -702.37608    58660.531   -23152.046    6821.3684    271.87474   -6159.6318     82.29444 
   48800    1130.7032   -107.98776    1.0230841   -106.96468   -4945.3246     4.368645     4.368645     4.368645   -4945.3246   -11452.083   -17882.298    14498.407   -11177.938    1268.6383   -976.79084    83.375847 
   48900     900.3562    -107.7771   0.81466121   -106.96244   -2430.1511    4.3603977    4.3603977    4.3603977   -2430.1511   -26794.132    49569.335   -30065.656    4914.2047    -14030.65   -4099.3026    82.904537 
   49000     885.1958   -107.76172   0.80094376   -106.96078    10414.974      4.35309      4.35309      4.35309    10414.974     8878.197   -4722.0516    27088.778   -7136.0466    8483.8064    835.78205    82.488414 
   49100    1324.3164   -108.15944    1.1982693   -106.96117   -27062.565    4.3673829    4.3673829    4.3673829   -27062.565   -27033.991   -16093.488   -38060.217   -2250.3027   -12173.356    2779.9799     83.30361 
   49200    747.30246   -107.63882   0.67617497   -106.96265    18765.509    4.3594005    4.3594005    4.3594005    18765.509   -4967.7605    57490.026    3774.2608    5492.1462    5895.7291    326.46804    82.847672 
   49300    1065.4246   -107.92547   0.96401853   -106.96145   -19375.908    4.3617718    4.3617718    4.3617718   -19375.908   -20828.316   -12072.291   -25227.116    -13294.44   -1442.5123    4485.5232     82.98294 
   49400    817.41074   -107.70175   0.73961041   -106.96214    11723.064    4.3572226    4.3572226    4.3572226    11723.064    -4670.637    38527.367    1312.4622   -2218.1804    2393.9596    3532.9245    82.723562 
   49500    1182.4658   -108.03455    1.0699199   -106.96463   -14995.759    4.3624853    4.3624853    4.3624853   -14995.759   -17477.625   -5713.7082   -21795.944   -2420.9102    12015.171   -3231.7057    83.023668 
   49600    963.09141   -107.83636   0.87142535   -106.96494   -8367.2962    4.3656332    4.3656332    4.3656332   -8367.2962   -3866.8307   -31125.868    9890.8101   -19383.669   -1078.3738    3268.1125    83.203527 
   49700    1178.5918   -108.02766    1.0664146   -106.96125    6666.0103    4.3516783    4.3516783    4.3516783    6666.0103   -11133.792    28636.188    2495.6343    3131.7851    19187.063    2676.0121    82.408183 
   49800    799.10729   -107.69181   0.72304906   -106.96876    1432.0429    4.3615064    4.3615064    4.3615064    1432.0429   -3984.9042    1212.8799     7068.153   -14176.588   -3916.3208   -5283.7986    82.967796 
   49900    1050.9014   -107.91442   0.95087765   -106.96355   -8063.1976    4.3652415    4.3652415    4.3652415   -8063.1976   -26859.962    25592.062   -22921.692   -6408.9763    11867.391    11168.261    83.181131 
   50000    1097.2018   -107.95496   0.99277124   -106.96219   -2059.7658    4.3560395    4.3560395    4.3560395   -2059.7658   -5320.6524    9556.0394   -10414.685    8710.2499    2169.5392   -17224.557    82.656199 
   50100    880.63328   -107.76389   0.79681549   -106.96708   -3156.3434    4.3595332    4.3595332    4.3595332   -3156.3434   -22529.955   -9333.0878    22394.012   -19553.439    1075.4644    961.31049    82.855237 
   50200    1316.8647     -108.158    1.1915269   -106.96648   -11009.601    4.3630729    4.3630729    4.3630729   -11009.601   -11482.802    6610.9568   -28156.957     6732.208   -692.33303   -2591.0793    83.057226 
   50300    602.04696   -107.51822   0.54474474   -106.97348    22357.564    4.3577518    4.3577518    4.3577518    22357.564   -15603.471    40648.812     42027.35   -7912.7715   -1784.7835   -5439.4332    82.753708 
   50400    1259.2662   -108.10964    1.1394105   -106.97023   -15269.585    4.3673324    4.3673324    4.3673324   -15269.585    -28976.67    2178.6668   -19010.751   -9424.0867   -6944.8558    10575.343    83.300716 
   50500    1061.1644   -107.93032   0.96016383   -106.97015     4297.193     4.353654     4.353654     4.353654     4297.193   -11350.623   -554.66528    24796.867    8528.8358    10346.361    3347.9713     82.52048 
   50600    808.44958   -107.70949   0.73150217   -106.97799   -3417.6236    4.3583434    4.3583434    4.3583434   -3417.6236   -13365.828   -11441.919    14554.876   -26918.306   -11704.504   -1955.5209    82.787418 
   50700      1167.92   -108.02286    1.0567585    -106.9661    31.679505     4.369661     4.369661     4.369661    31.679505   -22941.337    43967.402   -20931.027    8410.2481    13546.825   -449.44701    83.434032 
   50800    715.55775    -107.6176   0.64745169   -106.97015     5395.655    4.3599145    4.3599145    4.3599145     5395.655   -20769.405   -1384.8494     38341.22   -10815.725   -3915.0555   -8615.2866    82.876979 
   50900    1214.7354   -108.06248    1.0991181   -106.96336   -7586.1793    4.3609975    4.3609975    4.3609975   -7586.1793   -4356.2777   -18344.809   -57.451699   -6347.5232    10055.588   -1948.7616    82.938758 
   51000    1161.7022   -108.01267    1.0511326   -106.96154    1555.2067    4.3614412    4.3614412    4.3614412    1555.2067   -10439.361   -24018.625    39123.606    13269.188    6946.4818    11218.058    82.964071 
   51100    780.57548   -107.67414    0.7062811   -106.96786   -4591.7619    4.3668444    4.3668444    4.3668444   -4591.7619   -7941.6919    1814.4275   -7648.0214   -19182.745     4088.056   -3580.3558    83.272796 
   51200    1290.0897   -108.11949    1.1673002   -106.95219   -810.96606     4.369237     4.369237     4.369237   -810.96606   -2209.2356    11555.618    -11779.28    6992.3691    5294.4105    3085.5141     83.40975 
   51300    810.55128   -107.68837   0.73340383   -106.95496   -6994.8061     4.360418     4.360418     4.360418   -6994.8061    -31056.58    -5480.496    15552.657   -16706.688   -2382.6371   -11296.322    82.905697 
   51400    975.87014   -107.84305   0.88298781   -106.96006    8280.8346    4.3606996    4.3606996    4.3606996    8280.8346    16604.539   -8736.4912    16974.456   -6310.6736   -4330.8843   -9668.5893    82.921759 
   51500    1316.7067   -108.15256    1.1913839   -106.96118   -17107.546    4.3698241    4.3698241    4.3698241   -17107.546   -34441.747   -17730.142    849.25104   -6758.0353   -3123.2175    4058.2963    83.443377 
   51600    635.67375   -107.53993   0.57517096   -106.96476    23839.247    4.3543525    4.3543525    4.3543525    23839.247    5392.6902    10763.605    55361.447   -14678.108   -3646.6676    1964.5396    82.560201 
   51700    1111.5194   -107.96631    1.0057261   -106.96058   -528.84008    4.3651818    4.3651818    4.3651818   -528.84008   -4003.6349    27263.537   -24846.422    3314.5837   -7976.2675   -449.31339    83.177717 
   51800    727.49126   -107.62363   0.65824938   -106.96538   -3781.4491    4.3654243    4.3654243    4.3654243   -3781.4491   -25721.289   -22791.405    37168.346   -11450.003   -2448.9284    13101.744    83.191583 
   51900    1233.8113   -108.07724    1.1163784   -106.96086    8106.8935    4.3533175    4.3533175    4.3533175    8106.8935    12211.644    14725.346   -2616.3089   -3731.5058    -10747.25   -10669.312    82.501347 
   52000    1055.2088   -107.92131   0.95477511   -106.96654    -22591.45    4.3751754    4.3751754    4.3751754    -22591.45   -21095.093   -25858.704   -20820.554    -9744.015    8993.7311   -2962.3583    83.750308 
   52100    875.46176   -107.74964    0.7921362    -106.9575   -2982.7329    4.3652784    4.3652784    4.3652784   -2982.7329   -17152.022    7567.0585    636.76499   -13653.737   -3035.7869   -1486.7671    83.183242 
   52200    1164.4158   -108.00543    1.0535879   -106.95184    9009.0168    4.3573159    4.3573159    4.3573159    9009.0168    8806.1088    25449.898   -7228.9567   -1097.5258    5862.0733   -2832.0074    82.728878 
   52300    752.44914   -107.64302   0.68083179   -106.96219   -18505.917    4.3685945    4.3685945    4.3685945   -18505.917    -41540.51   -26889.535    12912.294   -14323.949    715.37891    16668.319    83.372958 
   52400    1267.3403   -108.10083    1.1467161   -106.95411    13865.169    4.3560692    4.3560692    4.3560692    13865.169    11042.945   -1551.8854    32104.447   -1035.6976    4441.6868    10121.753    82.657891 
   52500    731.66736   -107.63036     0.662028   -106.96833   -11290.474    4.3653812    4.3653812    4.3653812   -11290.474   -11928.017   -52783.895    30840.492   -7332.2115    10667.838   -9167.4792    83.189119 
   52600    969.32722     -107.842   0.87706764   -106.96493   -10692.169    4.3637548    4.3637548    4.3637548   -10692.169   -1624.1481   -40024.125    9571.7649   -10551.966    1180.4758     342.4882    83.096172 
   52700    1389.5386   -108.21223    1.2572837   -106.95495    10634.837    4.3580234    4.3580234    4.3580234    10634.837    10152.719    10955.269    10796.523    6637.1848     307.4791   -7951.9047    82.769183 
   52800    740.85812   -107.63937     0.670344   -106.96903   -17962.734    4.3625255    4.3625255    4.3625255   -17962.734   -10902.321   -28688.975   -14296.906   -23129.977    3215.6398   -4035.9124    83.025965 
   52900    1138.8342   -107.99355    1.0304411   -106.96311    12005.243    4.3632078    4.3632078    4.3632078    12005.243    6489.6691    4539.5304    24986.529    11035.131   -5739.6809    8198.6625     83.06493 
   53000    933.85982   -107.80747   0.84497599   -106.96249   -11919.549    4.3712358    4.3712358    4.3712358   -11919.549   -11950.097   -37011.494    13202.945   -13146.392   -1346.0165   -6390.1268    83.524271 
   53100    799.72147   -107.68338   0.72360479   -106.95978    6190.6289    4.3572883    4.3572883    4.3572883    6190.6289   -2583.6327   -9797.8092    30953.329   -5295.7774    3657.2379   -12092.044    82.727305 
   53200    1423.5993   -108.24271    1.2881025   -106.95461   -1639.5809    4.3562398    4.3562398    4.3562398   -1639.5809    12118.351   -9099.4252   -7937.6691    10048.776   -7870.9418   -4532.5773      82.6676 
   53300    609.38923   -107.51297   0.55138818   -106.96158   -18663.954    4.3761026    4.3761026    4.3761026   -18663.954    2059.5968   -44785.293   -13266.166   -19359.225    1856.5035   -18472.519    83.803561 
   53400    1402.4852   -108.21783    1.2689981   -106.94883   -1399.0148    4.3583563    4.3583563    4.3583563   -1399.0148   -6636.7173    12478.539   -10038.866    13233.613    4089.7389     7287.493    82.788153 
   53500    732.54645   -107.62064   0.66282343   -106.95782    20352.792    4.3531578    4.3531578    4.3531578    20352.792    17712.818   -6028.2341    49373.793       -17135   -1534.4406    1737.2921    82.492264 
   53600    957.10395   -107.82968   0.86600777   -106.96367   -8958.5331    4.3700154    4.3700154    4.3700154   -8958.5331    -13985.35   -30110.665    17220.416    424.92481    7937.8687    3681.7443    83.454334 
   53700    904.08832   -107.77356   0.81803811   -106.95552    7367.9183    4.3667296    4.3667296    4.3667296    7367.9183    16402.034    6318.5355   -616.81429   -4093.2585    2483.3463    9426.1702     83.26623 
   53800    1119.3117   -107.96893    1.0127768   -106.95616   -16255.343    4.3545459    4.3545459    4.3545459   -16255.343   -13425.001   -14990.304   -20350.724   -16554.769   -6471.7498   -10583.498    82.571203 
   53900    1102.5317   -107.95563   0.99759388   -106.95804    24411.901    4.3559318    4.3559318    4.3559318    24411.901    36743.493    2932.4217    33559.788    4436.1289    6259.0492   -7127.0119     82.65007 
   54000    746.32918   -107.64399   0.67529432    -106.9687   -16452.185    4.3676637    4.3676637    4.3676637   -16452.185   -37392.794    -32217.11     20253.35     -26174.3   -14399.803   -2584.7044    83.319677 
   54100    922.62324   -107.79698    0.8348089   -106.96217    10497.608    4.3602689    4.3602689    4.3602689    10497.608    23647.539   -30004.815    37850.099    5883.1262    1973.5905   -13765.701     82.89719 
   54200    1404.3546   -108.23131    1.2706896   -106.96062   -331.22044    4.3531831    4.3531831    4.3531831   -331.22044   -13643.403   -4033.2847    16683.026   -24769.951   -3710.1522    10199.551    82.493705 
   54300    631.87534   -107.54553   0.57173409    -106.9738   -1435.2242    4.3603745    4.3603745    4.3603745   -1435.2242    8692.2127   -37787.194    24789.309   -7298.8666   -6362.7401    1129.6478    82.903213 
   54400    1208.4933   -108.05764    1.0934702   -106.96416    -8862.662    4.3646962    4.3646962    4.3646962    -8862.662    -12115.16   -37589.182    23116.356   -5508.3165    922.27097   -4240.8045     83.14996 
   54500    926.31076   -107.80479   0.83814544   -106.96665    12342.221    4.3504007    4.3504007    4.3504007    12342.221    13488.594   -20956.999    44495.069   -19625.271   -3229.3714     2792.117    82.335622 
   54600     1121.055   -107.98171    1.0143541   -106.96736   -9518.6657    4.3619131    4.3619131    4.3619131   -9518.6657   -13601.865   -14121.163   -832.96863    8518.5859   -4004.4721   -17866.033    82.991005 
   54700    1027.3333   -107.89035   0.92955279   -106.96079    -7741.747    4.3612188    4.3612188    4.3612188    -7741.747   -7911.4267   -39559.141    24245.327   -21394.946    3793.8383    2631.4355    82.951384 
   54800    855.53983   -107.73395   0.77411042   -106.95984     16187.06    4.3552979    4.3552979    4.3552979     16187.06   -2000.7568   -2401.5623      52963.5    7278.5321   -3743.7724    1734.1283    82.613991 
   54900    946.03789   -107.81912   0.85599497   -106.96312   -7213.0413    4.3590799    4.3590799    4.3590799   -7213.0413   -30305.544   -4386.2393    13052.659   -12686.709   -1383.0915   -2867.8864    82.829393 
   55000    1168.8862   -108.01893    1.0576328    -106.9613    10279.932    4.3534321    4.3534321    4.3534321    10279.932   -10477.748    13755.632    27561.913   -7887.6788     6606.198    8455.8794    82.507862 
   55100    1011.3132   -107.87766   0.91505741    -106.9626   -7385.9082    4.3667854    4.3667854    4.3667854   -7385.9082   -8062.4021   -15768.929    1673.6063    4516.7346   -8019.0174   -10446.435    83.269421 
   55200    592.02916   -107.50464   0.53568042   -106.96895    2149.5044    4.3578681    4.3578681    4.3578681    2149.5044   -36121.136   -31371.499    73941.149   -27766.687    4127.8882   -1179.4102    82.760336 
   55300    1481.6051   -108.30315    1.3405874   -106.96256    89.224958    4.3531184    4.3531184    4.3531184    89.224958   -17414.677    6318.3029    11364.049     8732.937   -1446.2782     5999.756    82.490024 
   55400    805.56421   -107.70435   0.72889142   -106.97546   -12661.918    4.3625963    4.3625963    4.3625963   -12661.918   -37187.586   -31324.049     30525.88   -24401.677   -6369.9481   -6637.6396    83.030009 
   55500    948.02462   -107.82944    0.8577926   -106.97165   -11537.033    4.3660059    4.3660059    4.3660059   -11537.033   -34043.531   -27396.994    26829.426   -5944.5274     9275.803   -1014.9257    83.224836 
   55600    1194.4751   -108.04456    1.0807861   -106.96377    2390.3359     4.355445     4.355445     4.355445    2390.3359   -28659.749   -16169.434    52000.191   -8053.1373   -3078.8495   -383.62933    82.622359 
   55700    702.73765   -107.61266    0.6358518    -106.9768    -7826.744    4.3569995    4.3569995    4.3569995    -7826.744   -38939.024   -14315.229    29774.021   -27102.453    4112.4497   -15175.316     82.71086 
   55800    1349.3835   -108.18755    1.2209505    -106.9666   -2676.8306    4.3625351    4.3625351    4.3625351   -2676.8306   -11033.194   -15263.848     18266.55    8146.3005    4318.0906    5535.1596    83.026511 
   55900    592.34835    -107.5086   0.53596924   -106.97263    10151.109    4.3639394    4.3639394    4.3639394    10151.109   -35974.348   -9862.7376    76290.412   -32032.363    1822.1282    3553.4521    83.106717 
   56000    1161.7309   -108.01896    1.0511585    -106.9678   -4809.5183     4.357932     4.357932     4.357932   -4809.5183   -21672.875    1771.9939    5472.3264    7054.8558    2798.1475    3059.2081    82.763977 
   56100    973.08367   -107.84914   0.88046655   -106.96867    19447.063    4.3528715    4.3528715    4.3528715    19447.063    389.19161    2526.5092    55425.488   -26843.381     6946.823   -789.79728    82.475992 
   56200    1202.5273    -108.0562     1.088072   -106.96813   -11914.686    4.3717381    4.3717381    4.3717381   -11914.686    -33225.43   -20250.019     17731.39   -6607.5122    -9128.211   -8956.2817    83.553067 
   56300    888.60251   -107.77243   0.80402623    -106.9684     2948.003    4.3578622    4.3578622    4.3578622     2948.003   -15537.936   -17835.581    42217.526   -3115.7595    805.32291   -5504.0455    82.760002 
   56400    884.45302   -107.76872   0.80027168   -106.96845    16915.629    4.3480458    4.3480458    4.3480458    16915.629    9659.0461   -4103.9524    45191.793   -28655.297    4160.8829    7943.4385    82.201992 
   56500    1358.6117   -108.19273    1.2293004   -106.96343   -8433.5871     4.366942     4.366942     4.366942   -8433.5871   -22815.777   -25078.335     22593.35    11654.284   -5907.5455   -3087.3024    83.278378 
   56600    580.52129   -107.49645   0.52526786   -106.97118    4153.6311    4.3608631    4.3608631    4.3608631    4153.6311    4472.3435   -29867.353    37855.903   -33410.358    7547.2095    3863.7374    82.931085 
   56700    1487.2025   -108.30724     1.345652   -106.96158   -8527.1853    4.3616323    4.3616323    4.3616323   -8527.1853   -21347.561   -10963.642    6729.6468    8942.6921    1793.0211   -7674.5688    82.974981 
   56800     694.7738   -107.60013   0.62864594   -106.97149     914.8994    4.3545352    4.3545352    4.3545352     914.8994   -1511.8394   -19688.664    23945.202    -22422.79   -6612.4034   -10911.362    82.570596 
   56900    1089.8113   -107.95765   0.98608415   -106.97157   -10093.936    4.3608414    4.3608414    4.3608414   -10093.936   -19509.501    -15958.35    5186.0436   -10452.102    12725.221    4526.4241    82.929851 
   57000    1160.1139   -108.01164    1.0496954   -106.96194    6744.3528    4.3659588    4.3659588    4.3659588    6744.3528   -4957.3661   -2660.7169    27851.141    3044.1935    1885.0281   -684.08392    83.222142 
   57100    642.20875   -107.54671   0.58108397   -106.96563    10098.474    4.3544654    4.3544654    4.3544654    10098.474   -959.18416   -9445.6008    40700.206    -30640.97   -1317.6553    5152.7081    82.566625 
   57200    1122.6866   -107.97984    1.0158304   -106.96401   -4921.5529    4.3657716    4.3657716    4.3657716   -4921.5529   -20694.872    14839.343   -8909.1297    10542.012    11795.212    1938.1875     83.21144 
   57300      1188.56   -108.03802    1.0754341   -106.96258    1750.4708     4.357184     4.357184     4.357184    1750.4708    4609.9727   -15389.345    16030.785   -25138.144    -15268.29    382.10342    82.721364 
   57400    892.94068   -107.77504   0.80795149   -106.96709    16289.953    4.3554522    4.3554522    4.3554522    16289.953    4261.4856    23354.194    21254.179   -2092.3964    11627.971    5908.2341    82.622773 
   57500    844.88818   -107.73291   0.76447258   -106.96844   -10537.567    4.3665467    4.3665467    4.3665467   -10537.567   -34147.481   -27686.136    30220.915   -4954.0239    7949.0684     15668.25     83.25577 
   57600    1164.8483    -108.0142    1.0539792   -106.96022     19618.33    4.3523822    4.3523822    4.3523822     19618.33     4018.683    19048.297    35788.009    -14636.49    1701.9265    2940.9844    82.448179 
   57700    1082.9874   -107.95001   0.97990978    -106.9701   -15802.223     4.367029     4.367029     4.367029   -15802.223   -20809.295   -2696.3992   -23900.974    4541.9451    15363.465    10182.119    83.283355 
   57800    1062.5871   -107.92728   0.96145112   -106.96583   -17325.621    4.3636121    4.3636121    4.3636121   -17325.621   -27078.196    -23525.58   -1373.0883   -19436.703    242.67911   -2896.1461    83.088021 
   57900    1082.2217    -107.9363   0.97921694   -106.95708    21409.337    4.3544408    4.3544408    4.3544408    21409.337   -20843.063    57670.221    27400.854    763.47051    5946.0937    -2767.658    82.565228 
   58000    703.14799   -107.60316   0.63622308   -106.96694   -14090.171    4.3679354    4.3679354    4.3679354   -14090.171    -33876.82   -31705.708    23312.015   -16677.931    2546.0762    11598.559    83.335228 
   58100    1263.5711   -108.10064    1.1433057   -106.95734    10464.204    4.3504883    4.3504883    4.3504883    10464.204   -10971.637    8296.4007    34067.848   -4192.9291   -9756.8282   -1515.1454      82.3406 
   58200    1018.1041    -107.8869   0.92120199   -106.96569   -2163.2178    4.3631606    4.3631606    4.3631606   -2163.2178   -28471.041    28691.779   -6710.3911   -6876.2826    9955.7867     -4170.53    83.062231 
   58300    899.66742   -107.77986   0.81403799   -106.96582    -12095.03    4.3631662    4.3631662    4.3631662    -12095.03   -30216.201   -13241.249    7172.3583   -27190.046    1648.3791    12545.971    83.062554 
   58400    1123.8464   -107.97943    1.0168799   -106.96255    25181.157    4.3522796    4.3522796    4.3522796    25181.157   -1703.1166    25663.263    51583.324     13430.77    6669.6076   -9704.8457    82.442349 
   58500    955.22643   -107.83243   0.86430895   -106.96812   -13574.795    4.3705403    4.3705403    4.3705403   -13574.795    -39858.14   -30543.631    29677.385   -14987.218    10841.226    7165.6903    83.484409 
   58600     747.0112   -107.63573   0.67591143   -106.95982    17037.779     4.355744     4.355744     4.355744    17037.779   -7993.9513    15856.682    43250.605   -11754.369   -572.74025    2180.6198    82.639377 
   58700    1219.8064   -108.06364    1.1037065   -106.95993   -4832.4398    4.3554277    4.3554277    4.3554277   -4832.4398   -21452.264    21644.761   -14689.816    8245.4177    12948.217    -379.4636    82.621375 
   58800    1187.6438   -108.03851    1.0746051   -106.96391   -17138.898    4.3642889    4.3642889    4.3642889   -17138.898   -31221.548   -6005.9028   -14189.242   -10410.436    1654.0499    5827.9478    83.126689 
   58900    931.44199   -107.80453   0.84278828   -106.96174    19507.497    4.3520411    4.3520411    4.3520411    19507.497    10528.909    43604.196    4389.3853    4640.4083   -1616.6333    10364.551    82.428797 
   59000    849.64767    -107.7351   0.76877907   -106.96632   -324.96869    4.3609425    4.3609425    4.3609425   -324.96869   -36636.869    15219.267    20442.696   -2083.2202    10824.615    -7655.867    82.935617 
   59100    971.61222    -107.8414   0.87913515   -106.96227    15128.428    4.3607159    4.3607159    4.3607159    15128.428   -14910.351     36157.62    24138.014   -3378.3643     -5408.21    9758.3108    82.922692 
   59200    1118.6197   -107.97431    1.0121506   -106.96216   -1582.2721    4.3569789    4.3569789    4.3569789   -1582.2721    98.123396    -18561.42     13716.48    6337.6633    6161.6362    1681.1828    82.709685 
   59300    925.08189    -107.7989   0.83703353   -106.96187     7785.632    4.3615454    4.3615454    4.3615454     7785.632    -21359.99    49216.308    -4499.422   -4986.2857   -4025.2758   -6790.1861     82.97002 
   59400    1193.6759   -108.04003     1.080063   -106.95996   -17434.439    4.3634241    4.3634241    4.3634241   -17434.439   -10346.175   -20918.069   -21039.072    854.70222   -11174.066    16455.154    83.077281 
   59500    894.34042   -107.77789   0.80921801   -106.96867    6554.8257     4.350889     4.350889     4.350889    6554.8257   -11432.503    9631.5345    21465.445    3711.0969    11616.432   -11420.378    82.363353 
   59600    1026.0163   -107.89875   0.92836109   -106.97039    23171.317    4.3534519    4.3534519    4.3534519    23171.317    5555.9219    29134.319    34823.711   -6400.5103    -6302.875   -4726.2541    82.508986 
   59700    997.72947   -107.86787   0.90276659   -106.96511   -25479.227    4.3723755    4.3723755    4.3723755   -25479.227   -34331.268   -34717.407   -7389.0063    2098.3755   -393.84363    3836.0637    83.589623 
   59800     902.0819   -107.77814   0.81622266   -106.96192   -3884.9662    4.3516855    4.3516855    4.3516855   -3884.9662   -24955.349    35562.148   -22261.698    6200.3246    1474.7844   -5259.5288    82.408592 
   59900    1309.6678   -108.14967     1.185015   -106.96466    6691.6027     4.354389     4.354389     4.354389    6691.6027   -9027.6027    21277.944    7824.4663   -5001.3726   -17306.723    7705.4276    82.562277 
   60000    954.31199   -107.82693   0.86348154   -106.96345    -21146.02    4.3725404    4.3725404    4.3725404    -21146.02   -22288.191   -18860.834   -22289.034     7630.043    7490.3832    405.69747    83.599078 
   60100    692.46951   -107.58707   0.62656096   -106.96051    7529.2805    4.3531653    4.3531653    4.3531653    7529.2805   -33316.919     35888.88     20015.88   -1235.1439   -21611.443    -14446.46    82.492694 
   60200    1347.1677   -108.18111    1.2189457   -106.96216    7085.0754    4.3550866    4.3550866    4.3550866    7085.0754   -13407.417    23326.791    11335.852    7226.1226    1944.8788    7099.7835    82.601967 
   60300    765.19712   -107.66669   0.69236643   -106.97433    2334.9891    4.3626325    4.3626325    4.3626325    2334.9891    1857.6419     27176.06   -22028.734     630.0911    1671.8169   -8666.5401    83.032073 
   60400     1153.208     -108.012    1.0434468   -106.96855   -22059.391    4.3698485    4.3698485    4.3698485   -22059.391   -30117.846     2488.447   -38548.774   -1611.5998   -17383.637    2681.5392    83.444776 
   60500    1255.5863   -108.09912    1.1360809   -106.96304    21519.116    4.3542573    4.3542573    4.3542573    21519.116    13192.092    37484.596    13880.661    -300.9941    3113.0879   -1153.1249     82.55479 
   60600    690.46616   -107.60023    0.6247483   -106.97548    11905.003    4.3488504    4.3488504    4.3488504    11905.003     7814.327    12412.304    15488.377    3127.9513   -23637.156   -15507.642    82.247635 
   60700    978.70487   -107.85366   0.88555273   -106.96811    -10636.91    4.3763756    4.3763756    4.3763756    -10636.91   -7344.5502    -25804.79    1238.6095    -2615.467   -2817.5389   -3507.1325    83.819247 
   60800    964.52459   -107.83181   0.87272212   -106.95909    14714.412    4.3555066    4.3555066    4.3555066    14714.412    1070.0612    37844.516    5228.6595    9993.0579   -15535.275   -3345.8284    82.625864 
   60900    954.98065   -107.82983   0.86408656   -106.96575   -8456.1187    4.3487303    4.3487303    4.3487303   -8456.1187    6511.2433     7247.178   -39126.777    104.70781   -10326.503    -3403.817    82.240817 
   61000    1213.8869   -108.06043    1.0983504   -106.96208   -17774.836    4.3682626    4.3682626    4.3682626   -17774.836   -4194.8684   -23515.986   -25613.655    4899.0243    10285.651    8250.1876    83.353957 
   61100    1116.2425   -107.96847    1.0099997   -106.95847     -22782.4    4.3643451    4.3643451    4.3643451     -22782.4   -38831.699   -7626.0307   -21889.469      2980.29   -17460.115     1167.629    83.129897 
   61200    768.73259   -107.65902    0.6955654   -106.96345    2326.3697     4.353229     4.353229     4.353229    2326.3697   -4440.8721    11568.122   -148.14102    4492.7133    9514.4495    -3615.562    82.496315 
   61300    1159.2162   -108.01439    1.0488832    -106.9655    5959.4187    4.3529394    4.3529394    4.3529394    5959.4187   -6452.9723    4137.5993    20193.629    5355.6549   -10060.543    9397.4411    82.479849 
   61400    949.10538   -107.82622   0.85877049   -106.96744   -14071.705    4.3714041    4.3714041    4.3714041   -14071.705   -39923.527    30227.691    -32519.28   -12355.098   -10804.291   -9507.6278    83.533919 
   61500     960.9662   -107.83213   0.86950241   -106.96263    -9525.082    4.3563954    4.3563954    4.3563954    -9525.082    9036.3646   -24872.593   -12739.018    3190.5593     7770.142    5795.8158    82.676459 
   61600    1030.6366    -107.8969   0.93254168   -106.96435    17565.373    4.3484414    4.3484414    4.3484414    17565.373   -7000.0344    56356.077    3340.0766    758.59439   -14596.133    13445.747     82.22443 
   61700    1214.4059   -108.06513      1.09882   -106.96631   -16406.487    4.3709854    4.3709854    4.3709854   -16406.487   -33153.676   -8875.5059   -7190.2784   -10595.894     13498.37   -7394.9682    83.509922 
   61800    712.85988   -107.61205    0.6450106   -106.96704    10684.426    4.3588283    4.3588283    4.3588283    10684.426    12238.382    2880.9313    16933.965    12157.129   -360.30668    13349.384    82.815056 
   61900    955.79941   -107.83187   0.86482739   -106.96705    9856.4831    4.3491371    4.3491371    4.3491371    9856.4831   -13806.993    50290.463   -6914.0208   -3470.3553   -2006.7991    1581.7949    82.263898 
   62000    1349.4338   -108.18618    1.2209961   -106.96519   -8961.7205    4.3596662    4.3596662    4.3596662   -8961.7205   -10346.042    4283.3518   -20822.471   -1946.3969    16076.699    4817.2609    82.862821 
   62100    808.81179   -107.70019   0.73182991   -106.96836    2873.7938    4.3623347    4.3623347    4.3623347    2873.7938   -7083.7175    23218.705   -7513.6064     6342.629   -17443.886    17735.426    83.015072 
   62200    904.92924    -107.7863   0.81879899    -106.9675   -12880.404    4.3603396    4.3603396    4.3603396   -12880.404   -37756.624    4710.9267   -5595.5143   -10236.456    9248.7644    102.22829    82.901222 
   62300    1078.7036   -107.93852    0.9760337   -106.96248     13516.46    4.3482559    4.3482559    4.3482559     13516.46   -1137.7619    31713.827    9973.3141     12161.93   -132.90623   -2533.8124    82.213906 
   62400    913.92757    -107.8013   0.82694088   -106.97436   -11349.076    4.3640857    4.3640857    4.3640857   -11349.076   -17472.658    22912.723   -39487.294   -5087.9328    -1187.961    14532.179    83.115076 
   62500     1129.653   -107.98908    1.0221337   -106.96694   -14072.196    4.3589851    4.3589851    4.3589851   -14072.196   -37112.673    13137.107   -18241.022    4243.1781    21297.338   -5205.2549    82.823992 
   62600    1076.3274    -107.9362   0.97388361   -106.96232    18722.828    4.3415457    4.3415457    4.3415457    18722.828    34413.812    2027.4392    19727.232    16202.642   -13751.338     12703.55    81.833879 
   62700    772.69511   -107.67393   0.69915077   -106.97478   -21392.883    4.3665125    4.3665125    4.3665125   -21392.883   -17848.954   -26432.312   -19897.384   -7643.6776    14251.392    3067.7961    83.253812 
   62800    980.52483   -107.85522   0.88719947   -106.96802   -990.14408    4.3598487    4.3598487    4.3598487   -990.14408    21899.035   -29729.496    4860.0287    10536.827   -4955.4893   -13281.109    82.873225 
   62900     1234.179   -108.07837    1.1167111   -106.96166   -4716.0395    4.3604621    4.3604621    4.3604621   -4716.0395    22745.966   -21118.396   -15775.689     1695.804    4038.7283     5226.268    82.908213 
   63000    992.76533    -107.8632   0.89827493   -106.96492   -1199.9262    4.3529167    4.3529167    4.3529167   -1199.9262    30232.389   -7462.1744   -26369.993   -8791.8202    16801.554    -12154.49    82.478561 
   63100    809.50224     -107.711   0.73245464   -106.97855    3214.7478    4.3544117    4.3544117    4.3544117    3214.7478    31732.948   -12906.557   -9182.1473    17241.295    2477.9943   -5414.1479    82.563568 
   63200    1313.3242   -108.15906    1.1883233   -106.97074   -10189.853    4.3641434    4.3641434    4.3641434   -10189.853    29298.529   -27063.954   -32804.134    3059.9931    4856.3257    6920.1333    83.118376 
   63300    964.73033   -107.84449   0.87290828   -106.97158    6067.7638     4.355974     4.355974     4.355974    6067.7638    53103.446    1439.9521   -36340.106    10642.903    6271.8526   -13862.379    82.652468 
   63400    899.22273   -107.78699   0.81363562   -106.97335   -10576.119    4.3567092    4.3567092    4.3567092   -10576.119   -5920.6282   -12411.984   -13395.745    13844.185    2330.3002    9176.5117    82.694328 
   63500    1224.2297   -108.07897    1.1077087   -106.97127   -1885.1493    4.3581166    4.3581166    4.3581166   -1885.1493    45517.645   -30774.372   -20398.721   -4195.3066   -2487.4359    393.31611    82.774496 
   63600    875.92957   -107.77091   0.79255948   -106.97835   -14987.669    4.3623533    4.3623533    4.3623533   -14987.669    3681.8281   -30989.729   -17655.107    17054.113    7740.3654   -7816.5416    83.016133 
   63700    929.14142   -107.81347   0.84070668   -106.97277    17197.682    4.3474375    4.3474375    4.3474375    17197.682    54175.366   -21247.339    18665.019   -7472.3357   -11680.237     13878.44    82.167497 
   63800    1267.9758   -108.11378    1.1472912   -106.96649   -21704.306    4.3693343    4.3693343    4.3693343   -21704.306   -5638.4846   -29571.271   -29903.161   -10505.431    8862.9939   -3435.8653     83.41532 
   63900    880.30008   -107.76524   0.79651401   -106.96872   -1432.8283    4.3500589    4.3500589    4.3500589   -1432.8283    6451.6193   -13773.269    3023.1652    22007.634    2865.4693   -1233.7014    82.316221 
   64000    784.09525   -107.68424   0.70946586   -106.97477    20584.459    4.3477745    4.3477745    4.3477745    20584.459    36782.477    4291.4943    20679.405   -18422.282   -2724.1484   -844.14164    82.186605 
   64100    1285.6657   -108.12796    1.1632973   -106.96466   -397.66219    4.3631908    4.3631908    4.3631908   -397.66219    4256.0938    7790.7956   -13239.876    5554.0672    7578.0832   -5339.1089    83.063956 
   64200    746.10562   -107.64681   0.67509205   -106.97172    11283.892    4.3539399    4.3539399    4.3539399    11283.892    30398.352   -9605.8129    13059.138    5477.5502   -7609.3507    2794.9557    82.536738 
   64300    1056.8837   -107.92478    0.9562906   -106.96849    -22604.02    4.3677678    4.3677678    4.3677678    -22604.02   -32048.512   -39405.337    3641.7896   -38650.223   -4868.2121   -1013.4584    83.325633 
   64400    1207.8622   -108.05039    1.0928991    -106.9575    28087.496    4.3455928    4.3455928    4.3455928    28087.496    65386.844    11238.771    7636.8726    26549.521    3138.6805     7935.937    82.062943 
   64500    473.35471   -107.40922   0.42830129   -106.98091   -2347.7184    4.3585055    4.3585055    4.3585055   -2347.7184       -27726    26429.148   -5746.3035   -17402.405   -11594.883     13221.84    82.796655 
   64600     1164.094   -108.02055    1.0532967   -106.96725   -2877.4892    4.3659291    4.3659291    4.3659291   -2877.4892    1075.1537    12716.027   -22423.648    1718.1586    5281.7777    9384.9943    83.220448 
   64700    1081.8894   -107.93957   0.97891627   -106.96065    11169.638    4.3534285    4.3534285    4.3534285    11169.638    10861.338    14403.057    8244.5206    3568.7225   -5141.6312    5447.5133    82.507658 
   64800    774.51816   -107.66912    0.7008003   -106.96832   -25743.579    4.3586174    4.3586174    4.3586174   -25743.579   -40795.146   -28800.054   -7635.5356   -40085.401   -3171.2193    1454.8454    82.803034 
   64900    1184.8727   -108.03207    1.0720977   -106.95997        15312    4.3560657    4.3560657    4.3560657        15312     10152.62    54212.704   -18429.325    14206.997    6064.4021    -10293.21    82.657692 
   65000     964.1155   -107.84018   0.87235197   -106.96783   -10214.563    4.3611588    4.3611588    4.3611588   -10214.563   -4984.6633   -12475.672   -13183.353   -19901.862   -8150.2394   -1192.3348    82.947958 
   65100    850.87556   -107.74348   0.76989009   -106.97359   -13727.664    4.3549755    4.3549755    4.3549755   -13727.664   -24369.559   -3683.4589   -13129.976   -14663.008    11791.045   -7721.7032    82.595645 
   65200    1262.3174   -108.11089    1.1421713   -106.96871    17880.059    4.3502498    4.3502498    4.3502498    17880.059    32871.592    35954.344   -15185.759    5847.7041    1355.1127   -4778.5156    82.327054 
   65300    848.60882   -107.74635    0.7678391   -106.97851   -10929.663    4.3581041    4.3581041    4.3581041   -10929.663   -31386.545    5273.1557   -6675.5996   -27988.103    2003.7144    8826.4191    82.773781 
   65400    1015.3821   -107.89123   0.91873911   -106.97249    13158.778     4.353827     4.353827     4.353827    13158.778    12940.513    38485.306   -11949.484    1658.5988    11523.415    -2210.694    82.530318 
   65500    1160.2051    -108.0145    1.0497779   -106.96473     1299.783    4.3579611    4.3579611    4.3579611     1299.783    20262.168    1485.8247   -17848.644    4116.1998   -2984.8888    4346.3153    82.765633 
   65600    700.32307   -107.60745   0.63366703   -106.97379   -4489.2512    4.3491702    4.3491702    4.3491702   -4489.2512    19807.233   -15256.281   -18018.706    -29247.81    10165.807    11778.478    82.265779 
   65700    1216.4702   -108.07756    1.1006878   -106.97687    6980.9084    4.3549198    4.3549198    4.3549198    6980.9084    5227.8343    33589.553   -17874.662   -437.21717    7278.3764   -8139.0231    82.592474 
   65800    1059.4706   -107.93404   0.95863122   -106.97541   -5317.2388    4.3645786    4.3645786    4.3645786   -5317.2388    6431.5267    7409.6689   -29792.912   -10457.293   -3739.6123    8266.7002    83.143241 
   65900    778.64347   -107.67586   0.70453297   -106.97132    8195.7857    4.3431398    4.3431398    4.3431398    8195.7857    12693.309     27796.41   -15902.362   -10242.901    19001.979   -200.76376    81.924054 
   66000    1139.3438   -108.00167    1.0309022   -106.97077   -9577.7435    4.3576144    4.3576144    4.3576144   -9577.7435   -3908.3904   -2056.8559   -22767.984    18925.153   -9446.9643   -1872.7695    82.745881 
   66100    843.91437   -107.73064   0.76359146   -106.96705   -13696.239     4.363701     4.363701     4.363701   -13696.239    25102.689   -29543.313   -36648.093   -8280.4644    6474.9321    10962.867    83.093099 
   66200    1107.3237   -107.97313    1.0019298    -106.9712   -241.14905    4.3435192    4.3435192    4.3435192   -241.14905   -15993.187    29139.268   -13869.528   -9044.3638    11161.646   -4289.1864    81.945526 
   66300    978.31481   -107.86476    0.8851998   -106.97956    632.91467    4.3465825    4.3465825    4.3465825    632.91467   -700.09693    18518.769   -15919.928    30747.818   -9231.9781    4927.1883    82.119026 
   66400    767.69776   -107.67446   0.69462907   -106.97983   -29623.261    4.3717526    4.3717526    4.3717526   -29623.261   -32678.448   -8198.9186   -47992.416   -19611.162    19640.291    6721.2799    83.553899 
   66500    1228.9164   -108.08273    1.1119494   -106.97078   -9183.9679    4.3511999    4.3511999    4.3511999   -9183.9679   -23606.684    2548.7235   -6493.9432    13017.447    4333.0339   -10350.844    82.381011 
   66600    906.78721   -107.78843   0.82048012   -106.96795    15118.868    4.3350484    4.3350484    4.3350484    15118.868    29790.686    19515.006   -3949.0876    7685.7854    1143.2099    9777.7991    81.467025 
   66700    908.13626   -107.79745   0.82170077   -106.97575   -11108.393    4.3610136    4.3610136    4.3610136   -11108.393   -29553.674     24060.12   -27831.626   -27867.177    23144.342   -8807.8179    82.939673 
   66800     1005.063    -107.8766   0.90940215    -106.9672    2094.6468    4.3639296    4.3639296    4.3639296    2094.6468    8339.6284   -3575.4092    1519.7213    22724.312   -7725.9934    3249.9845    83.106159 
   66900    877.55188   -107.76271   0.79402738   -106.96868   -3610.2945    4.3516644    4.3516644    4.3516644   -3610.2945    -11093.99    19866.852   -19603.746   -738.23756    14131.893    7369.9868    82.407394 
   67000    1283.0542   -108.12638    1.1609344   -106.96544    4286.8885     4.346141     4.346141     4.346141    4286.8885   -384.18729    246.47771    12998.375   -14504.813    7427.3147    6003.6579    82.094004 
   67100    999.10446   -107.87129   0.90401071   -106.96728   -12394.662     4.363734     4.363734     4.363734   -12394.662   -8866.8671   -2219.4843   -26097.634    21429.625   -1627.1658    7088.2868    83.094986 
   67200    735.07262   -107.63528   0.66510916   -106.97017   -19020.579    4.3568641    4.3568641    4.3568641   -19020.579   -36715.466    6762.4618   -27108.732   -15869.444    9367.3525    9715.3567    82.703149 
   67300    1241.5324    -108.0853    1.1233646   -106.96194    29078.001    4.3398061    4.3398061    4.3398061    29078.001     29060.77    45851.477    12321.755   -911.95871   -576.23113    1384.3179    81.735548 
   67400    1029.2086   -107.90419   0.93124958   -106.97294   -22782.042    4.3652941    4.3652941    4.3652941   -22782.042   -21033.603    2112.3317   -49424.856    12128.682       6181.5    4470.2975    83.184137 
   67500     780.6754   -107.67484   0.70637151   -106.96847   -13877.764    4.3611428    4.3611428    4.3611428   -13877.764   -6306.1598    -1709.884   -33617.248    -21342.86    2018.0755    5885.6213    82.947046 
   67600    1454.1532   -108.27199    1.3157484   -106.95624    21008.379    4.3425249    4.3425249    4.3425249    21008.379    9162.4751    44499.742    9362.9205    1889.0919    5441.8824    -2368.812    81.889261 
   67700    638.09824   -107.55516   0.57736469    -106.9778     1458.707    4.3553095    4.3553095    4.3553095     1458.707   -15989.586    51379.458   -31013.751   -8638.5429    6017.0341    13469.785     82.61465 
   67800    995.18026   -107.86946   0.90046001     -106.969   -2269.7212    4.3667351    4.3667351    4.3667351   -2269.7212   -10839.899    15198.874   -11168.139   -26262.391    3846.4964   -3322.5847    83.266545 
   67900     1316.309   -108.14921    1.1910241   -106.95819    -4621.082    4.3590599    4.3590599    4.3590599    -4621.082    167.85728   -537.79682   -13493.306    8203.6603    7230.2684    14645.898    82.828253 
   68000    704.98721   -107.60468   0.63788725    -106.9668   -7517.6809    4.3394171    4.3394171    4.3394171   -7517.6809   -22367.282    7868.0544   -8053.8147   -21199.379    7134.6439    14108.071    81.713568 
   68100    1259.8577   -108.11371    1.1399457   -106.97377     13813.72    4.3518375    4.3518375    4.3518375     13813.72    14257.151    15988.017    11195.994   -7437.1095   -7625.6914   -1002.9658    82.417229 
   68200    984.95556   -107.85675   0.89120849   -106.96554   -24825.961    4.3770006    4.3770006    4.3770006   -24825.961   -14506.927   -15445.887    -44525.07    125.63901    1024.2615    5976.5643    83.855163 
   68300    720.10179   -107.62127   0.65156323   -106.96971   -7533.8736    4.3458204    4.3458204    4.3458204   -7533.8736   -16282.636    1236.0889   -7555.0742   -32371.228    -7740.156    9449.9291    82.075839 
   68400    1223.3205   -108.07028    1.1068861    -106.9634    42614.313    4.3300936    4.3300936    4.3300936    42614.313    54154.198    44427.081    29261.661     10459.47    -3572.608   -10008.963       81.188 
   68500    962.59177     -107.853   0.87097327   -106.98203   -27413.448    4.3702081    4.3702081    4.3702081   -27413.448   -31492.139   -29432.207   -21315.999   -20916.714    9379.8065    10518.253    83.465374 
   68600    753.03739   -107.65137   0.68136405   -106.97001   -15411.957    4.3669482    4.3669482    4.3669482   -15411.957   -11949.702   -9218.1788   -25067.988    -11578.81   -7886.1064   -1879.3287    83.278734 
   68700    1468.2253   -108.28316    1.3284811   -106.95468    20277.688    4.3291173    4.3291173    4.3291173    20277.688    14879.706     13867.05    32086.308    20186.213    4852.8182   -362.51933    81.133098 
   68800    879.23014   -107.77355   0.79554591     -106.978    3238.8878     4.346069     4.346069     4.346069    3238.8878   -8395.6499     9649.224    8463.0894   -34407.199   -486.00279    18737.494    82.089922 
   68900    835.40057   -107.72709     0.755888    -106.9712   -27989.954    4.3767822    4.3767822    4.3767822   -27989.954   -39239.083   -33216.422   -11514.358    11709.596     -3610.57   -13204.338    83.842612 
   69000    1060.6189   -107.92349   0.95967024   -106.96382   -3146.2435    4.3499199    4.3499199    4.3499199   -3146.2435    5793.4827   -10290.737    -4941.476    6783.9373   -350.34573    23658.208    82.308328 
   69100    1006.4415    -107.8659   0.91064939   -106.95525    18094.851    4.3273597    4.3273597    4.3273597    18094.851    17529.326    13797.683    22957.544   -25053.202    196.02604     1374.738    81.034317 
   69200     811.6389   -107.71102   0.73438794   -106.97663   -37043.925    4.3638613    4.3638613    4.3638613   -37043.925   -37405.185   -54286.806   -19439.784    37346.874   -5440.4742    933.17509    83.102254 
   69300    1200.6704   -108.04982    1.0863918   -106.96342   -16950.511     4.363613     4.363613     4.363613   -16950.511   -9163.3284   -16584.418   -25103.787    -7604.519    2770.5188    17857.758    83.088073 
   69400    1077.6514   -107.93608   0.97508164     -106.961    2664.5141    4.3377496    4.3377496    4.3377496    2664.5141   -1162.6138    15166.965   -6010.8095    6974.7344    4322.7584   -12405.694    81.619408 
   69500    601.51366    -107.5234    0.5442622   -106.97914    3707.5106    4.3448234    4.3448234    4.3448234    3707.5106    10925.874   -9955.0451    10151.703    27531.746    -5695.306    12599.999    82.019362 
   69600    1495.8983   -108.31682    1.3535202    -106.9633   -23322.754    4.3672715    4.3672715    4.3672715   -23322.754    -21689.47    -19664.52    -28614.27   -5899.1866    8464.6023   -4715.7489    83.297234 
   69700    611.52223   -107.52887   0.55331816   -106.97555   -17840.823    4.3568734    4.3568734    4.3568734   -17840.823   -24087.301   -23460.137   -5975.0298    35549.586   -3102.8641     5.628304    82.703675 
   69800    1176.0866   -108.02803    1.0641479   -106.96388    2915.3681    4.3317617    4.3317617    4.3317617    2915.3681    3988.0297   -9539.7094    14297.784    15227.531   -1596.7996    6660.1648     81.28187 
   69900    1174.7935    -108.0342    1.0629779   -106.97122    796.07758    4.3577157    4.3577157    4.3577157    796.07758      11215.2     -606.827   -8220.1405   -11379.778    6851.5071   -3434.1057    82.751651 
   70000    602.70678   -107.51891   0.54534176   -106.97357   -17658.711    4.3637749    4.3637749    4.3637749   -17658.711   -15536.563   -28769.663   -8669.9076    28694.814   -807.82979    9540.2143    83.097318 
   70100    1122.2779    -107.9797    1.0154606   -106.96424    8641.8595    4.3448874    4.3448874    4.3448874    8641.8595    4429.7573     1683.152    19812.669   -24327.813    3700.7217    4337.6303    82.022989 
   70200    1151.6651   -108.00827    1.0420508   -106.96622    4285.9839    4.3466529    4.3466529    4.3466529    4285.9839    1189.2939    13524.004   -1855.3465    11899.133    1064.7627    1351.1854    82.123016 
   70300    821.26413   -107.71981   0.74309704   -106.97671   -6321.1789    4.3578344    4.3578344    4.3578344   -6321.1789   -8984.1394   -21317.419    11338.022    6835.0196   -1021.5638    8423.2114    82.758416 
   70400    884.99632   -107.77147   0.80076327   -106.97071   -23100.953     4.366115     4.366115     4.366115   -23100.953   -21230.656   -44043.015   -4029.1889   -31010.543    1579.0027    4569.3973    83.231077 
   70500    1246.5738   -108.08927    1.1279262   -106.96135    16178.894    4.3375307    4.3375307    4.3375307    16178.894    14039.227    23916.538    10580.916     29022.63   -7015.9284    3876.5815    81.607049 
   70600    916.63466     -107.805   0.82939031   -106.97561   -8795.7778    4.3466586    4.3466586    4.3466586   -8795.7778   -12296.427   -20406.393    6315.4865   -25052.095   -1003.4571    6377.0698     82.12334 
   70700    1001.5234   -107.87789   0.90619943   -106.97169    -14378.57    4.3659241    4.3659241    4.3659241    -14378.57   -3396.8465   -29693.184   -10045.681   -21794.031   -2968.0841   -5558.7288    83.220157 
   70800    1153.4162   -108.00996    1.0436352   -106.96632    8247.0834    4.3462439    4.3462439    4.3462439    8247.0834     7118.708     18452.27   -829.72832    4780.4312   -7081.1245    2551.6996    82.099837 
   70900     728.4578   -107.63344   0.65912392   -106.97432   -2125.8307    4.3408809    4.3408809    4.3408809   -2125.8307   -523.90203   -27188.211    21334.621   -37230.353    2440.6477   -1753.2572    81.796292 
   71000    1226.1172   -108.07943    1.1094166   -106.97001    4743.4963    4.3587822    4.3587822    4.3587822    4743.4963    22948.247    14075.465   -22793.223    1072.4067   -5123.8833   -15490.745    82.812428 
   71100    1086.5681   -107.95768   0.98314961   -106.97453   -14810.145    4.3563663    4.3563663    4.3563663   -14810.145   -18377.907   -21238.668   -4813.8611   -10530.313    4715.3259    9185.5416    82.674804 
   71200    606.66637   -107.52973   0.54892448    -106.9808   -2631.9098    4.3450829    4.3450829    4.3450829   -2631.9098     25053.02   -36643.678    3694.9285   -17728.038   -6068.6817   -18369.536    82.034061 
   71300    1451.8978   -108.28501    1.3137077    -106.9713    6692.6715    4.3469014    4.3469014    4.3469014    6692.6715    30840.878    11851.388   -22614.252    17718.025    3874.7111   -11613.779    82.137102 
   71400    884.58886   -107.77841   0.80039459   -106.97802   -10225.822    4.3551384    4.3551384    4.3551384   -10225.822    7362.0081    -26541.69   -11497.783   -33903.704    1267.1975    6572.4714    82.604914 
   71500     702.3468   -107.61397   0.63549814   -106.97847    -18603.96    4.3534012    4.3534012    4.3534012    -18603.96    19520.429   -45616.468    -29715.84    118.11945   -4356.7262   -25332.917    82.506104 
   71600    1412.1824   -108.24607    1.2777723    -106.9683    15442.839    4.3410905    4.3410905    4.3410905    15442.839    16924.581    33262.087   -3858.1502   -2737.6242    5274.9159   -477.03675     81.80814 
   71700     1014.265   -107.89749    0.9177283   -106.97976   -7757.9453    4.3529047    4.3529047    4.3529047   -7757.9453    23573.187   -18164.988   -28682.035   -19129.221   -5881.0852   -8400.2524    82.477878 
   71800    588.78881   -107.51281   0.53274849   -106.98006   -74.217188    4.3599815    4.3599815    4.3599815   -74.217188    25618.992   -2842.8895   -22998.754    9931.5656   -3473.7987   -16581.086    82.880802 
   71900    1339.3947   -108.17757    1.2119125   -106.96566   -2051.5061    4.3517091    4.3517091    4.3517091   -2051.5061     2477.158   -5953.6019   -2678.0745    13189.828    3553.3173    9339.2146    82.409932 
   72000    935.68847   -107.81836   0.84663059   -106.97173    3379.3505    4.3457449    4.3457449    4.3457449    3379.3505    31420.517   -2381.3544   -18901.111   -9403.1726   -3581.9305   -25684.766    82.071561 
   72100    968.28562   -107.85183   0.87612518   -106.97571   -7145.5286    4.3544968    4.3544968    4.3544968   -7145.5286    1908.6936   -12924.722   -10420.557    22352.749    9654.7277    7647.4833    82.568411 
   72200    1065.7078   -107.93211   0.96427482   -106.96784    -4450.039    4.3551452    4.3551452    4.3551452    -4450.039    14712.283   -13948.194   -14114.206   -2069.4523   -1597.4069   -8566.8052    82.605303 
   72300    907.33569   -107.79253    0.8209764   -106.97155     3924.374    4.3448455    4.3448455    4.3448455     3924.374    40374.978   -10051.026    -18550.83    4868.4013    5218.0675   -15797.275    82.020615 
   72400    901.86212   -107.79524    0.8160238   -106.97922   -3153.0128    4.3499931    4.3499931    4.3499931   -3153.0128   -11860.159   -4833.0441    7234.1648    17286.452    -3704.445     17246.21    82.312484 
   72500    1307.8055   -108.15354    1.1833299   -106.97021    5766.2735    4.3566602    4.3566602    4.3566602    5766.2735    24078.343    12780.802   -19560.324   -9654.2822    5688.5704   -19605.829    82.691535 
   72600    769.63624   -107.67123   0.69638304   -106.97485   -9701.2077     4.355005     4.355005     4.355005   -9701.2077    1877.6404   -18335.807   -12645.457    17431.274   -3000.2671    15223.955    82.597324 
   72700     819.1652   -107.71689   0.74119789    -106.9757    1358.5672    4.3440405    4.3440405    4.3440405    1358.5672    13092.469   -12093.976    3077.2086    11489.913    1327.2729    6887.6216     81.97503 
   72800    1476.5787   -108.30526    1.3360394   -106.96922    6058.2681    4.3503773    4.3503773    4.3503773    6058.2681    20548.799    17585.504   -19959.499    3851.7342   -2691.4946   -2890.9073    82.334293 
   72900    726.42181   -107.63808   0.65728172   -106.98079   -23528.149    4.3570295    4.3570295    4.3570295   -23528.149   -17623.201   -41739.021   -11222.227    29322.789    1500.4063    24055.306    82.712567 
   73000    972.21163   -107.85359   0.87967751   -106.97391    3501.0046     4.345467     4.345467     4.345467    3501.0046    22072.159    1070.3986   -12639.544   -4604.3068     2805.314   -7567.7621    82.055814 
   73100    1110.3326   -107.97716    1.0046523    -106.9725   -10582.424    4.3560581    4.3560581    4.3560581   -10582.424   -11448.442    5585.2394   -25884.069    12650.012    -3979.171    14193.045    82.657259 
   73200    795.95501   -107.69844   0.72019682   -106.97825   -2448.5925    4.3474236    4.3474236    4.3474236   -2448.5925    13704.142   -20382.084   -667.83501    21514.114   -402.11832    8412.6869    82.166705 
   73300    1196.0148   -108.05699    1.0821793   -106.97481   -1066.5536     4.350394     4.350394     4.350394   -1066.5536   -20171.227    32353.574   -15382.008   -18181.136    666.45029   -7198.1739    82.335241 
   73400    837.73857   -107.73244   0.75800346   -106.97443   -15958.177    4.3572878    4.3572878    4.3572878   -15958.177    790.36257   -27862.549   -20802.344    13491.052    -7921.338    13622.356    82.727278 
   73500    1011.8354   -107.88726   0.91552993   -106.97173    7976.9014    4.3418598    4.3418598    4.3418598    7976.9014      6162.84    211.00325    17556.861    5236.3361    11069.505   -109.92723    81.851643 
   73600    1038.1553   -107.91435   0.93934475   -106.97501   -18872.014    4.3578846    4.3578846    4.3578846   -18872.014   -12460.448    -10801.61   -33353.983   -7187.9956   -11534.114    816.57466    82.761277 
   73700    926.72436    -107.8139   0.83851968   -106.97538    4493.8704    4.3465311    4.3465311    4.3465311    4493.8704     25681.52   -11783.154   -416.75541    20468.244    4782.0942    20158.891    82.116114 
   73800    1201.5957   -108.05845     1.087229   -106.97122   -5661.2939    4.3541115    4.3541115    4.3541115   -5661.2939     3619.287   -26573.576    5970.4068   -5867.9933   -10319.091    -1214.771    82.546493 
   73900    789.97041   -107.68939   0.71478183   -106.97461    -17262.16    4.3556442    4.3556442    4.3556442    -17262.16   -851.33678   -10434.869   -40500.275    803.47059   -1439.8066    16584.422      82.6337 
   74000    984.19323   -107.86246   0.89051872   -106.97194    23909.214    4.3398099    4.3398099    4.3398099    23909.214    62789.439   -13129.962    22068.164    9720.5842    2194.8753    7341.3801    81.735765 
   74100    1431.9736    -108.2668    1.2956798   -106.97112   -5021.7259    4.3585861    4.3585861    4.3585861   -5021.7259    7490.8409   -19265.494   -3290.5241   -8579.0807    781.25679    5346.0756    82.801252 
   74200    489.06894   -107.42601   0.44251986   -106.98349   -6647.4598     4.354408     4.354408     4.354408   -6647.4598    32279.913   -30179.145   -22043.147    10345.795   -1958.8949    20066.757    82.563362 
   74300    1076.0749   -107.95535   0.97365514   -106.98169    7577.2257    4.3440168    4.3440168    4.3440168    7577.2257    34874.905   -17283.255    5140.0277    3588.2343   -4205.4585   -12031.148    81.973689 
   74400    1423.5099   -108.26702    1.2880216     -106.979    1602.3071    4.3507503    4.3507503    4.3507503    1602.3071    22688.345   -15419.369   -2462.0548    4605.7898    5565.5615    17866.938    82.355478 
   74500    473.17955   -107.41288    0.4281428   -106.98474     -17750.8    4.3603401    4.3603401    4.3603401     -17750.8    20875.689   -45494.171   -28633.919    13880.253   -13625.102   -6058.8011    82.901252 
   74600    1226.3485   -108.07912    1.1096259   -106.96949     1337.889    4.3468152    4.3468152    4.3468152     1337.889    11060.466    -22256.94    15210.141   -81.762463   -2161.2832   -11773.014    82.132215 
   74700    1236.7464   -108.09155    1.1190341   -106.97251    2436.6859    4.3461005    4.3461005    4.3461005    2436.6859    27373.881    -18883.76   -1180.0633    4839.7244    9089.0527    10816.072    82.091711 
   74800    540.60338   -107.47463    0.4891493   -106.98548   -5807.5007    4.3532115    4.3532115    4.3532115   -5807.5007   -3048.7491   -22148.571    7774.8181    8339.7844   -11556.249    -25401.79    82.495319 
   74900    1398.8322   -108.23679    1.2656928    -106.9711    622.13418    4.3542886    4.3542886    4.3542886    622.13418    13312.396   -18594.268    7148.2744   -2594.2389    5759.3798    2118.6904    82.556571 
   75000    987.54518   -107.87156   0.89355163   -106.97801    8909.1172    4.3442882    4.3442882    4.3442882    8909.1172    19665.961   -2088.9931    9150.3838    1995.6251   -8724.4151   -9859.1678    81.989056 
   75100    571.49995   -107.50591   0.51710517    -106.9888    8728.9483    4.3486055    4.3486055    4.3486055    8728.9483    15699.751   -3632.4631    14119.557    5555.9146   -1037.8957   -15194.741    82.233739 
   75200    1587.3315   -108.40637    1.4362509   -106.97012   -8274.7464    4.3608112    4.3608112    4.3608112   -8274.7464   -4298.3265   -13661.299   -6864.6142   -7277.6093   -3584.4921    5651.8328    82.928129 
   75300    729.14421   -107.63401     0.659745   -106.97426    23831.448    4.3406726    4.3406726    4.3406726    23831.448    27534.846   -6044.6383    50004.138    12828.026   -2642.8225   -17628.351    81.784514 
   75400    741.19863   -107.65413   0.67065209   -106.98348   -12012.427    4.3549338    4.3549338    4.3549338   -12012.427    1205.5356   -12834.008   -24408.809   -2155.2273   -1242.6852    3754.1049    82.593271 
   75500    1550.2235   -108.37314    1.4026748   -106.97047    -1199.467     4.353309     4.353309     4.353309    -1199.467    4949.0751   -17044.748    8497.2722    4667.5015    7265.0407    9073.2212    82.500862 
   75600    748.66545   -107.65382   0.67740823   -106.97642    20765.485     4.341581     4.341581     4.341581    20765.485    34310.675     21071.59    6914.1889    16028.229   -510.16784   -12987.989    81.835874 
   75700    887.35485   -107.78218   0.80289731   -106.97928   -27603.771    4.3573456    4.3573456    4.3573456   -27603.771   -17274.689   -28023.605   -37513.018   -5482.3984   -4545.6989    17230.327    82.730572 
   75800    1108.3551   -107.97505     1.002863   -106.97219    28266.235    4.3438545    4.3438545    4.3438545    28266.235    40600.966    15801.699     28396.04     13081.69    2427.6219    999.43097    81.964502 
   75900    1031.3844   -107.91278   0.93321829   -106.97956   -19361.296    4.3600866    4.3600866    4.3600866   -19361.296   -30827.953   -11553.456   -15702.478    4814.4167   -17033.918   -4205.9191    82.886794 
   76000    819.85262   -107.71876   0.74181988   -106.97694   -3927.2522    4.3507561    4.3507561    4.3507561   -3927.2522    19064.233   -7556.4143   -23289.575    -4238.166   -1187.3991    23720.733    82.355802 
   76100    1126.4295   -107.99029    1.0192171   -106.97107    16371.649    4.3397641    4.3397641    4.3397641    16371.649    13001.944    10958.724    25154.281    12240.356    2194.5254   -7815.0681    81.733174 
   76200    1001.1732    -107.8816   0.90588256   -106.97572   -23804.009    4.3597254    4.3597254    4.3597254   -23804.009   -10897.585   -31425.233   -29089.209    2206.9191   -2288.6246    12428.157    82.866199 
   76300    890.67207    -107.7825   0.80589881    -106.9766   -180.48021    4.3470112    4.3470112    4.3470112   -180.48021    9568.2103    5076.2624   -15185.913   -459.12095    2924.2283    16542.558    82.143324 
   76400    1147.1714    -108.0113    1.0379848   -106.97331    4657.2169    4.3533914    4.3533914    4.3533914    4657.2169   -4935.7156   -8087.8218    26995.188    12812.488    9622.7574   -8184.9504    82.505546 
   76500    1064.1079   -107.93731   0.96282718   -106.97449    -8040.288    4.3501189    4.3501189    4.3501189    -8040.288    8344.2156   -13496.935   -18968.145   -67.490033   -8084.3741    21297.987    82.319625 
   76600    609.25519   -107.53236    0.5512669   -106.98109    15361.502    4.3435407    4.3435407    4.3435407    15361.502    11376.845    7908.4323    26799.229    3848.8343    8576.4201   -1185.7361    81.946743 
   76700    1311.6596   -108.16161    1.1868172   -106.97479   -12104.152    4.3592611    4.3592611    4.3592611   -12104.152   -23064.003   -13003.168   -245.28682    21658.588    -8668.842    479.94117    82.839725 
   76800     1120.744   -107.98822    1.0140727   -106.97415    13069.797    4.3444079    4.3444079    4.3444079    13069.797    29743.058    5407.9861    4058.3479   -7203.5902    2417.7341    6484.1426    81.995832 
   76900     726.3856   -107.64043   0.65724896   -106.98318   -12506.746    4.3525245    4.3525245    4.3525245   -12506.746   -23845.266   -11290.202   -2384.7712    22496.136    88.576505    -3295.548    82.456265 
   77000    1084.8858   -107.95584   0.98162746   -106.97422   -8317.5882    4.3531814    4.3531814    4.3531814   -8317.5882    -5917.671    -5178.631   -13856.463    7011.8527   -391.09905    4422.4433    82.493609 
   77100    1047.4043   -107.92215   0.94771346   -106.97443    9919.6901    4.3464459    4.3464459    4.3464459    9919.6901    16860.172     14167.09   -1268.1917    3076.6497   -1340.8195    3786.5726    82.111281 
   77200    980.94156   -107.86535   0.88757654   -106.97777   -11552.457    4.3518036    4.3518036    4.3518036   -11552.457   -39095.321    10837.422   -6399.4732    25897.847    9581.4295   -2817.5563    82.415301 
   77300    1125.7426   -107.99064    1.0185956   -106.97204    2316.4715    4.3522235    4.3522235    4.3522235    2316.4715     6342.558    10029.074   -9422.2179   -7127.8101   -5292.7665    14459.855    82.439161 
   77400    905.78823   -107.79125   0.81957622   -106.97168   -14616.721    4.3565427    4.3565427    4.3565427   -14616.721   -15373.031   -19656.415   -8820.7158    13389.589    9891.3765   -6106.1003    82.684845 
   77500    907.08752   -107.79446   0.82075185   -106.97371   -2969.5082     4.341798     4.341798     4.341798   -2969.5082   -16258.233   -5751.6328    13101.341    14256.629   -3039.5191     2968.389    81.848148 
   77600    1053.1097   -107.93033   0.95287581   -106.97746    14959.626    4.3450998    4.3450998    4.3450998    14959.626    5858.4768    36479.661     2540.741   -7789.8442   -2584.9415   -4022.3675    82.035017 
   77700    1063.3204   -107.94041   0.96211462   -106.97829   -7381.4369    4.3592055    4.3592055    4.3592055   -7381.4369   -16526.799    -5745.439    127.92688    11188.722     4279.089   -12799.039    82.836555 
   77800    914.33175   -107.80358   0.82730658   -106.97627    1989.5917    4.3492218    4.3492218    4.3492218    1989.5917   -19567.693    21281.422    4255.0462    5891.1806   -13729.045    7370.7979    82.268706 
   77900    853.28243   -107.74805   0.77206787   -106.97598   -4703.1038    4.3495438    4.3495438    4.3495438   -4703.1038    16687.223   -20364.452   -10432.083   -13886.291    2862.4702   -18472.956    82.286979 
   78000    1307.6015   -108.15742    1.1831453   -106.97428    -10520.34    4.3498868    4.3498868    4.3498868    -10520.34   -27719.904   -8440.0044     4598.888    17919.213   -10948.783    6551.7584    82.306451 
   78100    848.36075   -107.74845   0.76761464   -106.98084   -640.47313    4.3559552    4.3559552    4.3559552   -640.47313   -3193.8167    17778.015   -16505.618   -3288.1418   -4669.5638    35.255329    82.651398 
   78200    1104.8402   -107.97766   0.99968262   -106.97798    359.31127    4.3452905    4.3452905    4.3452905    359.31127    1024.3572    7580.6565   -7527.0799    1731.2173   -1366.7687   -7076.8388    82.045816 
   78300    874.92594   -107.76835   0.79165137    -106.9767    10240.078    4.3476592    4.3476592    4.3476592    10240.078    13345.967     13331.41    4042.8576    24690.277    -6835.309    388.53964    82.180066 
   78400    960.86838   -107.84259   0.86941391   -106.97318   -11725.915    4.3563561    4.3563561    4.3563561   -11725.915     1021.198   -14687.455   -21511.489   -9936.0535   -890.25067   -6927.3237    82.674222 
   78500    1041.0143   -107.91211   0.94193158   -106.97018    1913.7275    4.3456314    4.3456314    4.3456314    1913.7275    14155.677   -8864.6943    450.19929    9058.9947    1633.4075   -13276.045     82.06513 
   78600    1058.7375   -107.92968    0.9579679   -106.97171    6164.9178    4.3469386    4.3469386    4.3469386    6164.9178   -3619.1807    17981.423    4132.5115     22812.83   -3318.9511   -879.87321    82.139212 
   78700    1226.2773   -108.08076    1.1095615    -106.9712   -15151.263     4.355471     4.355471     4.355471   -15151.263     10696.45   -33180.474   -22969.765   -20261.142   -908.40109   -16924.219    82.623839 
   78800    547.33804   -107.47286   0.49524296   -106.97762    12999.199    4.3488044    4.3488044    4.3488044    12999.199    9534.7872    29079.648    383.16138    26328.059    1090.8267    2349.7811    82.245024 
   78900      1317.28   -108.16295    1.1919027   -106.97105   -4461.6338    4.3470682    4.3470682    4.3470682   -4461.6338    10749.189   -4039.2738   -20094.817    -187.8232   -16520.523   -6822.6572    82.146558 
   79000    981.32375   -107.85981   0.88792235   -106.97189    16369.044    4.3504882    4.3504882    4.3504882    16369.044    33038.379    21384.406   -5315.6545   -2262.0285    162.02895   -8068.8456    82.340593 
   79100    928.21109   -107.81692    0.8398649   -106.97705   -28067.605    4.3518393    4.3518393    4.3518393   -28067.605   -31947.636   -41400.864   -10854.314    34093.993    -13990.03    7111.9768    82.417331 
   79200    1081.2227   -107.94724   0.97831301   -106.96893    12672.261    4.3495402    4.3495402    4.3495402    12672.261    51738.054    7054.3974   -20775.668    -8211.653   -9568.7433   -5409.4173    82.286775 
   79300    1047.9258   -107.92155   0.94818532   -106.97336   -22313.709    4.3543283    4.3543283    4.3543283   -22313.709   -20444.368   -34964.771   -11531.988    26925.539    3779.5069    1098.0371    82.558829 
   79400    682.70711   -107.59443   0.61772774    -106.9767    7886.7519    4.3438548    4.3438548    4.3438548    7886.7519    7509.7699    20186.315   -4035.8292    14007.335   -13632.244    6673.7542    81.964521 
   79500    1531.7309   -108.35474    1.3859423    -106.9688    529.16186    4.3479707    4.3479707    4.3479707    529.16186     14744.71    4393.8316   -17551.056   -2377.8328    4481.1352    2715.0976    82.197733 
   79600    572.50355   -107.49177   0.51801324   -106.97376   -11368.663    4.3614501    4.3614501    4.3614501   -11368.663   -10408.939    -10632.04    -13065.01    26532.052    749.00178    2249.0376    82.964583 
   79700    1180.9419   -108.03375    1.0685411    -106.9652   -7386.4966    4.3468025    4.3468025    4.3468025   -7386.4966     7765.263   -6929.4856   -22995.267   -9327.8219   -6975.3798    9310.7987    82.131494 
   79800    1012.4689   -107.88123   0.91610314   -106.96513    14085.926     4.340869     4.340869     4.340869    14085.926    24271.095    22819.647   -4832.9626    7316.6193    14014.901   -8262.6396    81.795617 
   79900    944.13685    -107.8259   0.85427486   -106.97163   -17563.014    4.3575873    4.3575873    4.3575873   -17563.014   -15293.887   -27733.863   -9661.2918    10956.429   -11277.548    10712.956    82.744337 
   80000    1091.7949   -107.95307   0.98787901   -106.96519   -14762.777    4.3564761    4.3564761    4.3564761   -14762.777   -7081.5335   -3469.0786    -33737.72   -6590.6085    10063.883   -2603.0093    82.681057 
   80100    940.31445   -107.81643   0.85081628   -106.96561    11932.495    4.3369406    4.3369406    4.3369406    11932.495    10111.365    23317.595    2368.5233    14996.024    12590.792    1938.8019    81.573748 
   80200    1006.2646   -107.88343   0.91048937   -106.97294   -11410.399    4.3513136    4.3513136    4.3513136   -11410.399   -10910.442   -4273.2902   -19047.466    8228.8537   -8176.4999    2876.8378    82.387465 
   80300    872.92649    -107.7642   0.78984223   -106.97435   -6074.8625    4.3571159    4.3571159    4.3571159   -6074.8625   -9211.4286    32090.597   -41103.756   -12269.694    33410.835   -725.83956    82.717485 
   80400    1448.8842   -108.27658    1.3109808    -106.9656    9225.4238    4.3418204    4.3418204    4.3418204    9225.4238    20000.742    5323.3791    2352.1507     26616.93   -3464.4096   -66.974495    81.849415 
   80500    506.17582   -107.43609   0.45799852   -106.97809    3175.0338     4.344449     4.344449     4.344449    3175.0338    7412.2159    26084.805    -23971.92   -10623.323     14245.36    575.75795    81.998159 
   80600    1150.4003   -108.01607    1.0409064   -106.97516   -13387.696    4.3549878    4.3549878    4.3549878   -13387.696   -1228.2741   -1213.9213   -37720.894    4423.0689    19200.877   -455.50971    82.596343 
   80700    1087.3024   -107.95305   0.98381408   -106.96923    9745.5785    4.3579883    4.3579883    4.3579883    9745.5785    27412.506    33365.553   -31541.324     7036.637   -3850.1794    4301.4968    82.767183 
   80800    833.20151    -107.7361   0.75389824    -106.9822   -13552.463    4.3384883    4.3384883    4.3384883   -13552.463   -21244.728    16453.051   -35865.711   -15917.615    36737.531    1089.5718    81.661114 
   80900    1326.7345   -108.18289    1.2004572   -106.98244     15244.67    4.3428964    4.3428964    4.3428964     15244.67     38140.49     24097.46   -16503.939   -5790.6401   -12131.404    791.25662    81.910282 
   81000    875.35093   -107.77128   0.79203592   -106.97925   -21732.539    4.3625538    4.3625538    4.3625538   -21732.539    -1959.717    -11038.79    -52199.11   -4125.9089    24862.235    9848.6753    83.027583 
   81100     766.2323    -107.6694   0.69330309   -106.97609   -1015.5813    4.3388744    4.3388744    4.3388744   -1015.5813    12586.345     6624.573   -22257.662   -16675.794    9914.5963   -634.11891    81.682918 
   81200    1290.3324   -108.13652    1.1675199     -106.969    19401.255    4.3377098    4.3377098    4.3377098    19401.255    33256.713    30157.205   -5210.1523    5223.8883   -14173.686     7870.261    81.617159 
   81300    1068.6976   -107.94154   0.96698007   -106.97456   -16688.487    4.3532756    4.3532756    4.3532756   -16688.487    -7480.857   -9753.5209   -32831.082   -1151.2622    27654.498    9493.4927    82.498963 
   81400    614.73794   -107.52992   0.55622781   -106.97369    1792.4877    4.3566788    4.3566788    4.3566788    1792.4877   -9652.4447    31274.037   -16244.129   -12235.734   -10505.187   -4409.1653    82.692596 
   81500    1202.5369    -108.0568    1.0880807   -106.96872   -10943.997    4.3432246    4.3432246    4.3432246   -10943.997    3935.6846   -15100.566   -21667.109    26171.118     6484.368    9892.8909    81.928853 
   81600    1018.3251     -107.896   0.92140195    -106.9746     10405.67    4.3407166    4.3407166    4.3407166     10405.67    17708.136    18275.527   -4766.6531   -15736.834    17526.435   -5674.0625    81.787003 
   81700    1044.8563   -107.92172   0.94540791   -106.97631   -9991.8886    4.3558871    4.3558871    4.3558871   -9991.8886   -23190.191    265.89706   -7051.3716    843.73485     -11870.5    599.87797    82.647521 
   81800    948.65487   -107.83174   0.85836287   -106.97338   -10427.658    4.3533513    4.3533513    4.3533513   -10427.658    14075.669   -24625.364   -20733.281    15817.104    17078.639    7312.4326    82.503267 
   81900    892.27851   -107.77966   0.80735235   -106.97231    12971.797    4.3385983    4.3385983    4.3385983    12971.797   -4805.5416     33208.97    10511.963   -27557.989    1890.0791    -1139.382    81.667327 
   82000    1059.4599   -107.93624   0.95862154   -106.97761    -3247.809     4.340729     4.340729     4.340729    -3247.809    12642.258   -25195.423    2809.7379    18327.022   -6715.2097    12122.037    81.787706 
   82100    945.49537   -107.83362   0.85550408   -106.97811    -18048.36     4.358053     4.358053     4.358053    -18048.36   -21575.274   -16938.563   -15631.242     6639.628    14816.711    3527.3897    82.770868 
   82200    1184.0008    -108.0421    1.0713088   -106.97079    1328.2889    4.3394024    4.3394024    4.3394024    1328.2889   -11240.803      2203.02    13022.649   -13832.154    -10457.91   -6.0350015     81.71274 
   82300     764.7761   -107.67074   0.69198549   -106.97875   -7851.6567    4.3404966    4.3404966    4.3404966   -7851.6567    12761.132   -40796.896    4480.7939    45536.219    1249.4309    6640.8812    81.774569 
   82400    1077.2601   -107.94667   0.97472756   -106.97194    2010.5904    4.3559524    4.3559524    4.3559524    2010.5904   -1563.9981     32406.39   -24810.621   -10276.943    4806.3394    767.01201    82.651239 
   82500    1127.9835   -107.99263    1.0206231     -106.972    971.56206    4.3469354    4.3469354    4.3469354    971.56206    2124.6361   -21133.863    21923.913    24573.344   -4847.6781   -4544.0154    82.139026 
   82600     912.4876   -107.80445   0.82563796   -106.97881   -8434.2323    4.3458416    4.3458416    4.3458416   -8434.2323     -2639.44   -11004.818   -11658.439    16869.171    1536.8351    4957.9304    82.077041 
   82700    1025.5892   -107.90309   0.92797469   -106.97512    5833.8422    4.3502434    4.3502434    4.3502434    5833.8422    5697.4999    20318.899   -8514.8722   -4322.8171    7740.4409    4711.1725    82.326691 
   82800    1102.2947   -107.97779    0.9973794   -106.98041   -12254.798    4.3466916    4.3466916    4.3466916   -12254.798   -24420.416   -29598.716    17254.738    35725.521   -936.05675    3329.9255    82.125209 
   82900     1040.035   -107.92232   0.94104551   -106.98127   -15155.058    4.3550075    4.3550075    4.3550075   -15155.058   -4502.0953   -12270.598    -28692.48   -2406.1424    7079.1599    6609.0515    82.597463 
   83000    874.93096   -107.77459   0.79165592   -106.98293   -404.52873    4.3507487    4.3507487    4.3507487   -404.52873   -21554.335    21396.991   -1056.2421    16613.411    11935.964   -5159.7559    82.355383 
   83100    941.15682   -107.83722   0.85157847   -106.98564    9976.7904    4.3478396    4.3478396    4.3478396    9976.7904    8582.4829    12729.783    8618.1051    17338.956   -3993.8825    4822.4675    82.190297 
   83200    1130.7581    -108.0078    1.0231337   -106.98467   -18922.405    4.3572229    4.3572229    4.3572229   -18922.405     4891.202   -25249.986   -36408.431    -62.17234     14891.87    8553.1939    82.723584 
   83300    857.31482    -107.7592   0.77571646   -106.98349    5995.6537    4.3499385    4.3499385    4.3499385    5995.6537   -23716.495    19016.196     22687.26    25703.607   -3035.4875    4375.3541    82.309384 
   83400    967.42497   -107.85668   0.87534645   -106.98133    12810.034     4.350162     4.350162     4.350162    12810.034   -5569.8263    44190.964   -191.03545   -561.68362    6059.2991    7565.3784    82.322074 
   83500    721.36011   -107.64542   0.65270178   -106.99271   -13307.584    4.3546969    4.3546969    4.3546969   -13307.584   -12942.672   -7012.0302    -19968.05    8750.8891    7343.4074   -928.57551    82.579797 
   83600    1235.5306   -108.10601     1.117934   -106.98807   -17861.656     4.351597     4.351597     4.351597   -17861.656   -35240.438   -22113.011     3768.481    29938.448   -12328.325   -11547.712    82.403566 
   83700    1127.9349   -108.00494    1.0205792   -106.98436    11362.942    4.3483299    4.3483299    4.3483299    11362.942   -4274.8875    37666.076    697.63614   -9727.7537    10715.944    12800.292    82.218103 
   83800    470.18536   -107.41978   0.42543359   -106.99435   -1546.7761    4.3525201    4.3525201    4.3525201   -1546.7761   -35208.762    41142.811   -10574.378    33821.535   -11120.267    5717.4702    82.456016 
   83900    1493.7086    -108.3327    1.3515389   -106.98116   -11286.861    4.3541677    4.3541677    4.3541677   -11286.861    -6997.405    -14985.07   -11878.108    -6025.447   -4597.6943   -3338.9011    82.549689 
   84000     1023.702   -107.91055   0.92626706   -106.98428   -6607.6239    4.3489252    4.3489252    4.3489252   -6607.6239    -6719.672   -1740.1801    -11363.02    10482.711    7039.7975    10455.718    82.251874 
   84100    523.55289   -107.46337   0.47372166   -106.98965   -8401.5796    4.3489231    4.3489231    4.3489231   -8401.5796   -23586.821    17890.158   -19508.075    28112.622   -12585.713   -15450.661    82.251757 
   84200      1488.33   -108.32116    1.3466723   -106.97449    3520.8224    4.3483761    4.3483761    4.3483761    3520.8224    5418.6087    4358.1753    785.68315   -10252.593    8535.2141   -12943.212    82.220726 
   84300    805.29394   -107.71405   0.72864688    -106.9854   -11404.373    4.3538646    4.3538646    4.3538646   -11404.373   -31238.992   -5088.9072    2114.7814    29556.201    2099.3084    9168.6263    82.532456 
   84400    758.74516    -107.6692   0.68652857   -106.98267    2274.3884    4.3463865    4.3463865    4.3463865    2274.3884   -2087.4119    4940.0404    3970.5368    3949.0508   -12304.398    -24965.11    82.107917 
   84500    1394.6228   -108.23526    1.2618841   -106.97338    2106.7636     4.348057     4.348057     4.348057    2106.7636   -19058.365   -8678.4492    34057.105    6961.3268    6994.3457    5055.9991    82.202623 
   84600    728.64412   -107.64001   0.65929251   -106.98072   -7503.8256    4.3539547    4.3539547    4.3539547   -7503.8256   -31117.524    8937.7016   -331.65399    17261.795   -12961.512    2034.9489     82.53758 
   84700    1002.7597   -107.88261   0.90731807   -106.97529    -9781.552    4.3516634    4.3516634    4.3516634    -9781.552   -16.494204   -16124.556   -13203.605    1202.1365   -10046.812   -26431.824    82.407336 
   84800    1337.2583   -108.17575    1.2099794   -106.96577    6846.4888    4.3485568    4.3485568    4.3485568    6846.4888   -20202.887    23461.811    17280.543    9503.2309    863.52362    5710.9746    82.230973 
   84900    745.35787   -107.65112   0.67441546    -106.9767   -11564.735    4.3539612    4.3539612    4.3539612   -11564.735   -19862.661   -2525.1221   -12306.423    4433.8368   -15817.385   -22062.268    82.537948 
   85000    1111.1318   -107.97702    1.0053754   -106.97165   -3088.2921    4.3503422    4.3503422    4.3503422   -3088.2921    3834.7083   -10411.553   -2688.0317   -6173.1019    3371.4282   -20281.755    82.332305 
   85100    988.35359   -107.86481    0.8942831   -106.97053    7957.6254    4.3502946    4.3502946    4.3502946    7957.6254   -10415.854    2868.9175    31419.813    15698.698    -1238.442    3066.0104    82.329602 
   85200    874.59747   -107.76493   0.79135417   -106.97358   -8869.1082    4.3518194    4.3518194    4.3518194   -8869.1082      8332.02    -23679.19   -11260.154   -4164.2605   -5038.1286   -28618.261    82.416199 
   85300    1061.9292   -107.92783   0.96085589   -106.96697    10820.233    4.3523238    4.3523238    4.3523238    10820.233     908.5675    30915.659    636.47255     7329.495     2628.764    6102.8369    82.444863 
   85400    973.34708   -107.85077   0.88070489   -106.97006    961.85666    4.3503225    4.3503225    4.3503225    961.85666   -9626.8753    14004.094   -1491.6485    16912.511    2658.6753   -12355.564    82.331182 
   85500    1001.3722   -107.87931   0.90606261   -106.97325   -3720.4618    4.3479086    4.3479086    4.3479086   -3720.4618    9773.8574   -455.09748   -20480.145   -237.75945   -16727.027   -21072.267    82.194206 
   85600    933.58686    -107.8176   0.84472901   -106.97287    1269.2619    4.3511843    4.3511843    4.3511843    1269.2619   -5547.1696    6920.8012    2434.1542    11106.633    7882.8538    7965.8562    82.380123 
   85700    939.10031   -107.82484    0.8497177   -106.97513   -7144.3417    4.3498857    4.3498857    4.3498857   -7144.3417   -9975.5768   -8946.8896   -2510.5585    8001.9598   -4116.2012   -24704.813    82.306385 
   85800     1127.448   -107.99404    1.0201386   -106.97391   -1849.0751    4.3497992    4.3497992    4.3497992   -1849.0751   -5645.8247    16500.821   -16402.222   -5195.9259   -18814.782    2000.2326    82.301477 
   85900    825.24868   -107.72449   0.74670235   -106.97779    11668.793    4.3482702    4.3482702    4.3482702    11668.793   -11094.324    30533.001    15567.703    13100.492    20686.163    3320.2911    82.214719 
   86000    949.06633   -107.83825   0.85873516   -106.97952   -23909.641    4.3514963    4.3514963    4.3514963   -23909.641   -12539.796   -17320.408   -41868.719    -9700.557   -20708.268   -22007.494    82.397843 
   86100    1131.2198   -107.99728    1.0235515   -106.97373    6459.7396    4.3458385    4.3458385    4.3458385    6459.7396   -3616.3228    26170.538   -3174.9963     9238.292     6192.864    2632.0031    82.076866 
   86200    1072.1631   -107.94596   0.97011572   -106.97584   -20926.489    4.3548398    4.3548398    4.3548398   -20926.489   -24293.611   -6571.4223   -31914.433    13676.992    12432.856    -5578.217    82.587923 
   86300    756.00106   -107.65513   0.68404565   -106.97108   -15506.679    4.3561202    4.3561202    4.3561202   -15506.679   -4121.4201   -16412.865   -25985.751   -3615.8612   -21492.546   -26956.166    82.660793 
   86400    1225.8028   -108.07027    1.1091322   -106.96113    14382.473    4.3449146    4.3449146    4.3449146    14382.473   -6925.6047    37180.959    12892.065    21798.044    16642.992    9550.7716    82.024528 
   86500    845.96719   -107.73797   0.76544889   -106.97252    -13594.36    4.3534224    4.3534224    4.3534224    -13594.36   -10304.087   -5471.3706   -25007.621   -3156.7957   -8692.8923   -34574.631    82.507311 
   86600    938.01452   -107.82253   0.84873525    -106.9738    15582.837    4.3463184    4.3463184    4.3463184    15582.837    11117.359    47966.733   -12335.582    7428.1649     -14694.8   -3609.2242    82.104057 
   86700    1312.4366   -108.15977    1.1875202   -106.97225   -6998.4641    4.3547013    4.3547013    4.3547013   -6998.4641   -22681.056    -106.4286    1792.0921     1261.187    10019.098   -3125.0012    82.580042 
   86800    625.56256   -107.54378   0.56602215   -106.97776    5798.2136    4.3475075    4.3475075    4.3475075    5798.2136    15879.108    13613.082    -12097.55   -6805.3975   -15309.104   -22045.566    82.171461 
   86900    1241.6295   -108.09904    1.1234525   -106.97558   -385.68408    4.3462489    4.3462489    4.3462489   -385.68408    1363.7664    910.09107   -3430.9097    6413.0723   -6710.4219    9299.7039     82.10012 
   87000    932.31569   -107.81841   0.84357882   -106.97484    1040.2707    4.3575238    4.3575238    4.3575238    1040.2707   -21769.302    19963.004    4927.1107    2884.3708    2218.1641    565.86243    82.740722 
   87100    976.46415   -107.85695   0.88352528   -106.97343    4397.6082    4.3473531    4.3473531    4.3473531    4397.6082    3208.1809    27072.524   -17087.881   -1568.4428    -19593.41   -11669.088    82.162708 
   87200     1022.715   -107.89857   0.92537402    -106.9732   -9334.3231    4.3527599    4.3527599    4.3527599   -9334.3231    -15724.04   -13846.657    1567.7276    20632.351     1247.418    21255.512    82.469649 
   87300    1033.6371    -107.9043   0.93525661   -106.96904    13026.607    4.3437468    4.3437468    4.3437468    13026.607   -18682.931    38733.241    19029.512   -12277.909   -7379.9308   -7289.8616    81.958408 
   87400    1045.9917   -107.91737   0.94643527   -106.97094   -13286.667    4.3527124    4.3527124    4.3527124   -13286.667   -22683.329   -10809.715    -6366.957    16658.187   -9265.3184    7696.7344    82.466949 
   87500    647.21844   -107.55522   0.58561685    -106.9696   -7124.0076    4.3578159    4.3578159    4.3578159   -7124.0076   -30488.511   -7660.5958    16777.083    4161.4906    2918.2967    22197.586    82.757362 
   87600    1407.0435   -108.23181    1.2731226   -106.95869   -2059.8533    4.3427632    4.3427632    4.3427632   -2059.8533   -23664.936    10928.996      6556.38    -16762.02   -8528.7989   -15059.238    81.902744 
   87700    834.80878   -107.72192   0.75535253   -106.96657     551.8967    4.3504088    4.3504088    4.3504088     551.8967   -19493.135    22106.031   -957.20586    22095.404    776.21318    19057.581    82.336084 
   87800    885.84586   -107.77234   0.80153195   -106.97081   -19937.838    4.3571244    4.3571244    4.3571244   -19937.838   -49934.777   -15390.814    5512.0773   -23106.066   -1907.6808   -4312.1577    82.717969 
   87900     1152.193   -108.00808    1.0425284   -106.96555    10186.312    4.3452419    4.3452419    4.3452419    10186.312   -28286.883    44420.157    14425.662    7080.1706   -12581.853   -2533.3282    82.043066 
   88000    895.39807   -107.78668   0.81017499    -106.9765    -7631.141    4.3470893    4.3470893    4.3470893    -7631.141   -24209.827   -24179.056     25495.46    4449.9032    8196.6225    10890.607    82.147754 
   88100    975.47866   -107.85717   0.88263359   -106.97453   -11744.723    4.3589424    4.3589424    4.3589424   -11744.723   -47965.612    6855.6181    5875.8249   -22909.596   -20341.788    3718.7961    82.821559 
   88200    1144.7464   -108.00369    1.0357906    -106.9679   -4514.8549    4.3522918    4.3522918    4.3522918   -4514.8549   -28586.117    13810.905    1230.6474    15899.804    111.66414    1283.4803    82.443045 
   88300    776.70015   -107.67683   0.70277462   -106.97406   -9272.9942    4.3393215    4.3393215    4.3393215   -9272.9942   -28282.457   -22771.601    23235.075   -19966.744   -5564.4837    20338.942     81.70817 
   88400    1102.4029   -107.97243   0.99747735   -106.97495   -179.54458    4.3519275    4.3519275    4.3519275   -179.54458   -15978.873    28410.236   -12969.998   -2939.4221   -19415.091   -10104.177    82.422344 
   88500     1121.407   -107.98318    1.0146726   -106.96851   -13657.564    4.3586289    4.3586289    4.3586289   -13657.564   -28559.978   -21467.985    9055.2694    5197.3487    3311.7637   -327.46151     82.80369 
   88600    754.29324   -107.64936   0.68250037   -106.96686   -4882.2504    4.3456482    4.3456482    4.3456482   -4882.2504   -33054.867    12602.245    5805.8709   -17832.452    -8821.051    13478.699     82.06608 
   88700    1031.0561   -107.89991   0.93292123   -106.96699   -11777.117    4.3501469    4.3501469    4.3501469   -11777.117   -11694.383   -13779.551   -9857.4151    8192.0521   -11846.061   -37837.762    82.321212 
   88800    1060.0111   -107.92565   0.95912035   -106.96653    1882.3293    4.3470018    4.3470018    4.3470018    1882.3293    -18823.45   -8663.2322     33133.67   -18239.437    3587.6141    10361.712     82.14279 
   88900    1014.4483    -107.8896   0.91789415   -106.97171   -22502.062    4.3545238    4.3545238    4.3545238   -22502.062   -18447.409   -25300.412   -23758.366   -861.90645   -6759.7873    -20150.79    82.569948 
   89000    833.49625   -107.72447   0.75416492    -106.9703    -1741.977    4.3513538    4.3513538    4.3513538    -1741.977   -14317.583   -6749.6934    15841.346   -8685.0405   -5100.1877   -22132.318    82.389751 
   89100    1211.1842    -108.0594    1.0959049   -106.96349    109.81907    4.3424855    4.3424855    4.3424855    109.81907   -8547.1639   -10132.774    19009.395   -21758.196    2957.6451    5134.8101     81.88703 
   89200    716.05724    -107.6212   0.64790364    -106.9733   -19192.046    4.3582241    4.3582241    4.3582241   -19192.046   -2988.0346   -23039.682   -31548.421    7808.6727   -6978.3025   -28693.233    82.780617 
   89300    1174.9938   -108.02944    1.0631591   -106.96628     1247.312    4.3473722    4.3473722    4.3473722     1247.312   -11163.169   -2324.3026    17229.407   -23535.436   -8807.7196    179.47766    82.163789 
   89400    1161.9062   -108.01957    1.0513171   -106.96825    3714.5149    4.3442105    4.3442105    4.3442105    3714.5149   -4911.3874     723.2729    15331.659    2966.3796    7167.5899   -8814.4417    81.984659 
   89500    628.39402    -107.5435   0.56858411   -106.97492   -19421.728    4.3578066    4.3578066    4.3578066   -19421.728   -9133.8055   -35353.717    -13777.66   -4183.7752   -19650.047   -23451.895    82.756832 
   89600    1102.4076   -107.96986   0.99748161   -106.97238   -4907.3405    4.3517263    4.3517263    4.3517263   -4907.3405   -23191.679   -15559.688    24029.345   -5342.1384    14133.738    6803.7723     82.41091 
   89700    1082.5353   -107.95541   0.97950065   -106.97591   -5436.2583    4.3445676    4.3445676    4.3445676   -5436.2583    20104.532   -12288.114   -24125.193    5512.5194   -7676.5533   -28131.875    82.004876 
   89800    879.08665   -107.77365   0.79541607   -106.97824    2930.4738    4.3460794    4.3460794    4.3460794    2930.4738   -12359.481   -4739.8569    25890.759   -3503.2434   -7440.9505    2012.0592    82.090513 
   89900    1137.0006   -107.99946     1.028782   -106.97068   -9195.6314    4.3593245    4.3593245    4.3593245   -9195.6314    1998.0702   -9633.2917   -19951.673    2629.2706    17458.341    -7133.959    82.843341 
   90000    808.44111   -107.70155    0.7314945   -106.97005    8553.2874    4.3471611    4.3471611    4.3471611    8553.2874    7235.9596   -13339.219    31763.121    -4632.966   -14452.984   -14695.433    82.151825 
   90100    874.05451     -107.765   0.79086289   -106.97414    1407.7582    4.3405013    4.3405013    4.3405013    1407.7582    1647.2793    3521.7093   -945.71408   -4969.0842   -527.34372   -552.52763    81.774836 
   90200    1381.3791    -108.2226    1.2499009    -106.9727   -4258.1869    4.3567795    4.3567795    4.3567795   -4258.1869   -11147.715   -9836.7856    8209.9395    -3845.638    22327.294   -1649.7379    82.698328 
   90300    758.14098   -107.66223   0.68598189   -106.97625   -1491.9948    4.3572167    4.3572167    4.3572167   -1491.9948    13782.821   -18303.072    44.266382   -4356.2567   -27165.132   -15030.917    82.723231 
   90400     973.2595   -107.85131   0.88062565   -106.97069    3925.3422     4.337679     4.337679     4.337679    3925.3422   -14076.881    7532.1422    18320.765   -9799.7704    13055.289    8798.5576    81.615422 
   90500    1055.3898   -107.92867    0.9549389   -106.97373    11229.723    4.3500166    4.3500166    4.3500166    11229.723    35892.672   -9979.3449    7775.8425    5341.9536   -1103.9469   -9644.7429    82.313817 
   90600    978.31805   -107.85943   0.88520273   -106.97423     -19477.4    4.3597781    4.3597781    4.3597781     -19477.4   -30272.289   -5189.4357   -22970.475   -4402.2249   -28467.886   -1967.1618      82.8692 
   90700    1058.3706   -107.92224   0.95763592    -106.9646    19757.347    4.3419736    4.3419736    4.3419736    19757.347    23046.555    12159.596    24065.888   -1066.8127    27263.937    4295.0967    81.858076 
   90800    1004.0842   -107.87483   0.90851648   -106.96632   -10631.976    4.3475987    4.3475987    4.3475987   -10631.976   -6305.2011     -22319.7   -3271.0259    11257.403   -22276.344   -7995.7957    82.176633 
   90900    783.42962   -107.67769   0.70886359   -106.96883    -12223.42    4.3566381    4.3566381    4.3566381    -12223.42   -26095.174   -14255.145    3680.0593   -8052.7926   -5219.9162   -3907.6949     82.69028 
   91000    1263.7448   -108.10612    1.1434628   -106.96265   -4690.0747    4.3498332    4.3498332    4.3498332   -4690.0747    1481.3161   -18876.326    3324.7857    13072.908    19323.922    12625.443    82.303405 
   91100    767.50754   -107.66624   0.69445695   -106.97178   -1201.8157    4.3481056    4.3481056    4.3481056   -1201.8157   -12607.674   -12024.789    21027.015   -1708.8764   -31397.314   -9258.2117    82.205383 
   91200    1306.5526   -108.15026    1.1821962   -106.96806    -10174.88    4.3482398    4.3482398    4.3482398    -10174.88   -2175.7843   -17318.977   -11029.879   -3808.2242    6122.7345    11229.741    82.212991 
   91300    676.01386   -107.58685   0.61167155   -106.97518   -1239.3129    4.3536685    4.3536685    4.3536685   -1239.3129   -4020.9922   -28077.777     28380.83     11960.18   -4906.8686    12937.518    82.521302 
   91400    996.57926   -107.87709   0.90172586   -106.97537   -23092.872    4.3505499    4.3505499    4.3505499   -23092.872   -42960.827   -10862.995   -15454.794    -14580.33   -28811.822   -8241.5618    82.344093 
   91500    1228.0014   -108.07791    1.1111214   -106.96679    13278.166    4.3389732    4.3389732    4.3389732    13278.166    12949.629    -10134.19     37019.06    8647.7541    7764.5311    12048.788    81.688494 
   91600    860.85612   -107.75398   0.77892071   -106.97506   -18073.199    4.3553371    4.3553371    4.3553371   -18073.199    -26880.52   -21589.421   -5749.6561    2643.2672   -18937.159      3435.65    82.616222 
   91700    816.28807   -107.71028    0.7385946   -106.97169     -3712.48    4.3525796    4.3525796    4.3525796     -3712.48   -24437.526   -17388.896    30688.982   -8971.4466   -12459.249    -15965.78    82.459398 
   91800    1363.0923   -108.20068    1.2333546   -106.96732     1599.229    4.3436377    4.3436377    4.3436377     1599.229    11406.968   -13684.206    7074.9244    7567.0365    2941.4972    21762.634    81.952234 
   91900    672.62372   -107.59006   0.60860407   -106.98146    2012.2419    4.3504114    4.3504114    4.3504114    2012.2419   -20331.581   -7291.9519    33660.259    909.70493   -19864.557   -10397.544    82.336229 
   92000    1110.6191   -107.98273    1.0049115   -106.97782   -3721.5322     4.352326     4.352326     4.352326   -3721.5322   -636.40106   -11103.514    575.31895   -6359.0066   -13089.318    7850.2117    82.444985 
   92100    1144.5176   -108.00436    1.0355836   -106.96877     4723.456    4.3499768    4.3499768    4.3499768     4723.456   -9268.6169   -15371.264    38810.248    7732.4264    -413.2472    8921.3219    82.311559 
   92200    627.18362   -107.54335   0.56748892   -106.97586   -15231.779    4.3461407    4.3461407    4.3461407   -15231.779    -27416.93   -6367.8497   -11910.559   -10030.362   -23591.579   -18505.033    82.093988 
   92300    1231.6814   -108.08602    1.1144512   -106.97157     2147.864    4.3482349    4.3482349    4.3482349     2147.864   -15830.309   -9302.2981    31576.199    964.60223    8913.3681    18697.417    82.212713 
   92400    1179.1102   -108.03959    1.0668837   -106.97271   -20370.537    4.3558543    4.3558543    4.3558543   -20370.537   -24316.907   -20530.433   -16264.271   -3688.4085   -11858.863   -15032.024    82.645656 
   92500    518.24289    -107.4505   0.46891706   -106.98158   -13852.073    4.3510146    4.3510146    4.3510146   -13852.073   -31982.559   -17280.907    7707.2472    -6597.741   -10736.295    -7146.092    82.370484 
   92600    1467.8779   -108.29318    1.3281668   -106.96501    24422.842    4.3363908    4.3363908    4.3363908    24422.842    16421.225    24764.091     32083.21    6328.6205    10418.061    8568.6367    81.542731 
   92700    693.82958   -107.61136   0.62779159   -106.98357   -21196.305    4.3603186    4.3603186    4.3603186   -21196.305   -32623.324   -16128.123   -14837.467   -4593.2264   -25069.782   -23731.109    82.900025 
   92800    1043.7932   -107.91914   0.94444605    -106.9747    10032.609    4.3497863    4.3497863    4.3497863    10032.609   -396.49453    23025.242    7469.0798   -2560.5027    8797.2094    4593.3937    82.300747 
   92900    1224.9529   -108.07291    1.1083631   -106.96455    16572.862    4.3446068    4.3446068    4.3446068    16572.862   -1601.7797    14161.162    37159.204    8938.9944    -3169.033    -2946.402    82.007094 
   93000    761.45094    -107.6615   0.68897681   -106.97252   -19727.579    4.3525636    4.3525636    4.3525636   -19727.579   -37657.154   -6265.0855   -15260.498   -13217.237    -10065.85    -22223.28    82.458492 
   93100    1058.6038   -107.92378   0.95784693   -106.96593    18303.116    4.3491664    4.3491664    4.3491664    18303.116   -3121.2025    22153.397    35877.155     5432.683    17410.032    5408.0306    82.265563 
   93200    1089.5575   -107.95369   0.98585456   -106.96783   -20215.485    4.3580178    4.3580178    4.3580178   -20215.485   -19081.826     -16280.3   -25284.328     6247.759   -8053.6127   -15513.719    82.768864 
   93300    1048.6269   -107.91409   0.94881964   -106.96527    12208.883    4.3377498    4.3377498    4.3377498    12208.883    -8707.326    18814.158    26519.817   -13889.271    5159.0545    -15761.52    81.619416 
   93400    972.69527   -107.85435   0.88011512   -106.97423     5168.902     4.352715     4.352715     4.352715     5168.902   -11869.742    7405.0802    19971.368    24590.454    2359.0317    9848.0426    82.467095 
   93500    1119.1351   -107.98067    1.0126169   -106.96805   -14499.021    4.3580231    4.3580231    4.3580231   -14499.021   -13192.339   -9852.6836   -20452.039   -2802.5723     -4461.45   -20231.521    82.769166 
   93600    838.33775   -107.72486   0.75854562   -106.96632    19468.487    4.3339448    4.3339448    4.3339448    19468.487   -1692.2912    29725.958    30371.793    7175.4121    9781.0907    6437.0397    81.404823 
   93700    1041.9272   -107.91633   0.94275764   -106.97357   -10868.825    4.3536052    4.3536052    4.3536052   -10868.825   -12975.497   -16271.248   -3359.7301    22814.599   -5504.2649   -1951.1909    82.517705 
   93800    1197.5116   -108.04908    1.0835337   -106.96554   -2535.1871    4.3542959    4.3542959    4.3542959   -2535.1871   -9642.4202    12679.146   -10642.287   -4321.8998   -2373.8967   -25242.381    82.556985 
   93900    802.22521   -107.69295   0.72587023   -106.96708   -1656.1441    4.3452255    4.3452255    4.3452255   -1656.1441   -13341.566    870.27032    7502.8633    19363.932    11685.329    6211.6258    82.042135 
   94000    1000.9201   -107.87169   0.90565353   -106.96604   -1649.4403    4.3453767    4.3453767    4.3453767   -1649.4403    5015.3712    13489.448    -23453.14    8627.6263    -8252.329   -22818.961    82.050699 
   94100     1160.046    -108.0168     1.049634   -106.96717    -4749.698    4.3533887    4.3533887    4.3533887    -4749.698    2002.8377   -3472.0825   -12779.849    73.907733    4581.7545   -14440.468    82.505392 
   94200    800.59732   -107.69514   0.72439728   -106.97074    4534.8791    4.3509531    4.3509531    4.3509531    4534.8791   -8594.2675    10487.801    11711.104    13800.092    8564.4439     647.1424     82.36699 
   94300    1063.8311   -107.93183   0.96257674   -106.96926   -3017.7397    4.3444413    4.3444413    4.3444413   -3017.7397    11454.744    2785.8788   -23293.842   -6126.9743   -1372.3925   -25781.157    81.997722 
   94400    1022.6091   -107.89244   0.92527823   -106.96716    11081.912    4.3499872    4.3499872    4.3499872    11081.912    10416.771    24722.232   -1893.2654    6306.9318    7532.5807    2949.4541    82.312148 
   94500    926.19892   -107.81288   0.83804425   -106.97484    -8260.295     4.346996     4.346996     4.346996    -8260.295   -8669.3827   -20180.086    4068.5837    8317.9872     1446.054   -14868.076    82.142465 
   94600    1056.5905   -107.92962   0.95602526   -106.97359    4172.3871    4.3517671    4.3517671    4.3517671    4172.3871    12500.884    20066.932   -20050.654     -9322.35    6866.4078   -15331.218    82.413232 
   94700     1115.987   -107.97749    1.0097685   -106.96772    10128.204    4.3487045    4.3487045    4.3487045    10128.204    11037.154    12211.615    7135.8423    806.32473    1755.7481    3241.7098    82.239356 
   94800    849.56195    -107.7389    0.7687015    -106.9702   -4141.8076    4.3471731    4.3471731    4.3471731   -4141.8076    9252.2014   -1758.0854   -19919.539    6142.6836   -907.97346   -32601.715    82.152505 
   94900     1041.415   -107.90769    0.9422942    -106.9654    14075.336      4.35058      4.35058      4.35058    14075.336    34379.064    11711.766   -3864.8219   -10270.373    5265.6661    19658.988    82.345804 
   95000    1126.1588   -107.98674    1.0189722   -106.96776    4225.1064    4.3466164    4.3466164    4.3466164    4225.1064    11226.879    -2009.131    3457.5708    9409.9524   -1079.0574   -14816.484    82.120947 
   95100    897.53608   -107.78323   0.81210951   -106.97112    5495.7436    4.3482127    4.3482127    4.3482127    5495.7436    13605.699    12004.206   -9122.6738   -6797.8047   -4540.7466   -12557.262    82.211458 
   95200    957.63025   -107.83399   0.86648397   -106.96751    7909.3258    4.3508501    4.3508501    4.3508501    7909.3258    30586.075   -5885.4118    -972.6863    2652.0925    8178.7735    33454.466    82.361142 
   95300    1244.7889   -108.09094    1.1263112   -106.96463   -8480.7312    4.3514098    4.3514098    4.3514098   -8480.7312    3196.5236    -8264.824   -20373.893    2417.6432   -2496.3892   -27571.325    82.392932 
   95400    776.72586   -107.67549   0.70279788   -106.97269    13424.345    4.3410612    4.3410612    4.3410612    13424.345    42902.424   -6422.7598    3793.3693   -3415.9031   -4128.2188    20920.488    81.806482 
   95500     1172.534    -108.0323    1.0609334   -106.97137    2250.2414    4.3507409    4.3507409    4.3507409    2250.2414    14780.277    7733.6027   -15763.156   -7944.0071    8048.5902     7969.866     82.35494 
   95600    1081.5308   -107.94355    0.9785918   -106.96496   -13974.678    4.3601816    4.3601816    4.3601816   -13974.678   -10892.184   -3033.2065   -27998.643    8374.9187   -4954.6992   -13294.846    82.892213 
   95700    500.80929   -107.42335   0.45314277    -106.9702    16747.836    4.3348917    4.3348917    4.3348917    16747.836    47296.564   -13289.091    16236.036   -3863.1132    1136.1147    28638.067    81.458188 
   95800    1554.5901   -108.37584    1.4066258   -106.96922   -258.72891    4.3474494    4.3474494    4.3474494   -258.72891   -9251.3138    18590.522   -10115.395   -496.94311    9456.3796   -9153.0433    82.168168 
   95900    961.54143   -107.83996   0.87002289   -106.96994   -13801.095    4.3606295    4.3606295    4.3606295   -13801.095    4321.4224   -36740.832   -8983.8762    22960.103   -2839.4359      16109.4    82.917758 
   96000    657.47462   -107.56351   0.59489685   -106.96862    1074.6004    4.3438715    4.3438715    4.3438715    1074.6004    16639.144   -11012.205   -2403.1377   -14907.395    3592.8875    12719.931    81.965463 
   96100    1400.9467   -108.22961     1.267606   -106.96201    88.115562     4.346169     4.346169     4.346169    88.115562   -4608.6191    14205.911   -9332.9454    4966.6722    6727.1485   -4454.3819    82.095589 
   96200    821.81824   -107.71598   0.74359842   -106.97238    16982.472    4.3458728    4.3458728    4.3458728    16982.472    40300.114   -8870.3242    19517.625    6137.9378   -332.61314    29858.639    82.078809 
   96300    995.10797   -107.87236   0.90039461   -106.97196   -15213.214    4.3616032    4.3616032    4.3616032   -15213.214   -26385.785   -3249.6815   -16004.174   -18631.549    1058.5264   -5933.0255    82.973318 
   96400    1114.1292   -107.97613    1.0080875   -106.96804    3296.4805    4.3459922    4.3459922    4.3459922    3296.4805    5347.0979     9743.391   -5201.0474    9909.0299    1812.2746    1430.4235    82.085574 
   96500    920.40669   -107.80079   0.83280331   -106.96799    23047.433    4.3277999    4.3277999    4.3277999    23047.433    20883.393    9272.6415    38986.265   -2521.2193   -2292.1658    24122.068    81.059053 
   96600     1062.591   -107.93577   0.96145463   -106.97431   -23269.028    4.3654435    4.3654435    4.3654435   -23269.028   -30212.911   -11412.984   -28181.188    -16635.37    6857.7619   -23243.102    83.192677 
   96700    1105.0231   -107.96798   0.99984808   -106.96813    13226.748     4.347444     4.347444     4.347444    13226.748    10104.485    3776.0212    25799.737    7994.6208   -3171.7808    2787.7926    82.167863 
   96800     840.7025   -107.72628   0.76068529    -106.9656    8932.8185    4.3338198    4.3338198    4.3338198    8932.8185   -628.30001     14602.64    12824.115   -8771.8881    7514.1334     7108.598    81.397776 
   96900    816.69339   -107.71099   0.73896134   -106.97203   -14528.547    4.3577288    4.3577288    4.3577288   -14528.547   -7860.6578   -24949.656   -10775.327   -8959.1314    3135.7614   -34922.977    82.752398 
   97000     1433.748   -108.25794    1.2972853   -106.96065    14012.389     4.346876     4.346876     4.346876    14012.389    506.18813    12797.029     28733.95    10720.102    2382.3905    12323.466    82.135659 
   97100    685.05128   -107.59194    0.6198488   -106.97209   -18751.712    4.3517184    4.3517184    4.3517184   -18751.712   -22825.395   -25977.112   -7452.6281    -16738.08    13785.727   -20227.751    82.410463 
   97200    819.31196   -107.71341   0.74133068   -106.97208    2526.9475    4.3447834    4.3447834    4.3447834    2526.9475    3523.7003   -312.21441    4369.3567    3196.7899    4539.2459   -29349.926    82.017095 
   97300    1493.5902   -108.31979    1.3514318   -106.96836    2625.3078     4.346314     4.346314     4.346314    2625.3078   -1834.2063    13279.726   -3569.5966   -643.96788    1554.5941     9119.549     82.10381 
   97400    372.69361   -107.32264   0.33722101   -106.98542   -31755.744    4.3577575    4.3577575    4.3577575   -31755.744   -11863.395   -57937.319   -25466.519   -15376.959    12580.397   -40375.538    82.754037 
   97500    1408.2435   -108.24088    1.2742083   -106.96667    13150.469    4.3358106    4.3358106    4.3358106    13150.469    18646.953    13551.285    7253.1692    8454.4478   -3271.9069   -3754.1393    81.510002 
   97600    980.14505    -107.8626   0.88685584   -106.97575   -939.89184    4.3501999    4.3501999    4.3501999   -939.89184   -2638.0757    7576.8974   -7758.4973   -10353.992    757.33306   -21749.584    82.324221 
   97700    603.13087   -107.52644   0.54572548   -106.98072   -17809.175    4.3544411    4.3544411    4.3544411   -17809.175   -7710.4678   -16126.917   -29590.139   -5660.7244    7981.5647   -34387.703     82.56524 
   97800    1510.3682   -108.32942    1.3666128   -106.96281    12004.546     4.343415     4.343415     4.343415    12004.546   -3195.3183    26822.755    12386.202     6410.597   -7062.3455    20297.427    81.939628 
   97900    731.75285   -107.63578   0.66210535   -106.97368   -9964.7242    4.3488445    4.3488445    4.3488445   -9964.7242   -11381.152   -3464.4716   -15048.549   -7861.2854    9621.0496   -37032.554    82.247299 
   98000    980.11712   -107.85848   0.88683056   -106.97165   -3804.1339    4.3477605    4.3477605    4.3477605   -3804.1339   -12919.908    11613.377    -10105.87   -1787.4204    -1599.674   -2256.0262     82.18581 
   98100    1177.4201   -108.03304    1.0653545   -106.96769    -3425.348    4.3510279    4.3510279    4.3510279    -3425.348   -22690.886    9919.2209    2495.6211    10658.158   -2987.1653    7333.2959     82.37124 
   98200    755.14875   -107.65574   0.68327446   -106.97247   -4671.4085    4.3437502    4.3437502    4.3437502   -4671.4085   -5784.4589   -5218.3553   -3011.4112   -12503.488    12524.351   -36491.917      81.9586 
   98300    1231.5471   -108.08296    1.1143297   -106.96863   -9734.6321    4.3463936    4.3463936    4.3463936   -9734.6321   -28972.033   -22404.055    22172.192    6245.4453   -6426.9616    10779.235    82.108316 
   98400    804.18325   -107.70072    0.7276419   -106.97307    1629.4169    4.3505203    4.3505203    4.3505203    1629.4169    -6713.544    8665.1135    2936.6811    6597.9446    6424.3593   -11573.356    82.342415 
   98500    1058.0963   -107.93037   0.95738777   -106.97298   -7410.1823    4.3486515    4.3486515    4.3486515   -7410.1823   -20516.976    3929.4888   -5643.0595   -15447.517    8270.6502   -27699.659    82.236348 
   98600    1078.9983   -107.94676   0.97630033   -106.97046    10019.869    4.3459206    4.3459206    4.3459206    10019.869   -13389.457     2053.442    41395.621    11747.698   -11126.944    17304.336    82.081514 
   98700    866.49627   -107.75795   0.78402403   -106.97393   -5542.6958    4.3483829    4.3483829    4.3483829   -5542.6958    10964.159    -13758.95   -13833.297   -1558.1014    13031.206   -18892.819    82.221113 
   98800    1032.1341   -107.90654   0.93389666   -106.97264   -10524.801    4.3510284    4.3510284    4.3510284   -10524.801    -35616.71   -22873.868    26916.174   -15836.742   -7898.5705    -5836.254     82.37127 
   98900    1119.6737   -107.98161    1.0131043    -106.9685    17088.546    4.3425004    4.3425004    4.3425004    17088.546    15730.989    8647.5988    26887.049    20333.308   -2455.5811    6895.1449    81.887872 
   99000    959.21793   -107.84036   0.86792054   -106.97244   -6183.9275    4.3498411    4.3498411    4.3498411   -6183.9275   -18880.836   -5471.0192    5800.0724   -15181.387    5477.7838   -11821.852    82.303857 
   99100    728.65691   -107.63196   0.65930408   -106.97266    3303.6978    4.3500944    4.3500944    4.3500944    3303.6978    -25322.32   -1628.4438    36861.857   -5479.3097   -9585.3801    986.55434    82.318236 
   99200    1295.9765   -108.13976    1.1726268   -106.96713    4138.5535    4.3462096    4.3462096    4.3462096    4138.5535   -5507.4375   -4985.9359    22909.034    18879.873     4911.226    2300.3758    82.097891 
   99300    1044.0454   -107.91401   0.94467421   -106.96933    3915.3027    4.3486039    4.3486039    4.3486039    3915.3027    1223.1921   -20112.539    30635.256   -24722.325   -817.45115   -4425.7531    82.233644 
   99400    923.97662   -107.80781   0.83603346   -106.97177    893.03804    4.3462927    4.3462927    4.3462927    893.03804   -30559.505   -10672.494    43911.113    14726.436   -3262.6399    2747.6761    82.102598 
   99500    961.47874   -107.83999   0.86996617   -106.97002    9565.3773    4.3499332    4.3499332    4.3499332    9565.3773    15711.835   -18039.298    31023.595    3017.8956   -534.03239   -2618.3568    82.309083 
   99600    1083.6923   -107.95039   0.98054761   -106.96984    2145.5531     4.348061     4.348061     4.348061    2145.5531   -26771.268    -6458.675    39666.602   -20134.245     4269.844   -661.76145    82.202851 
   99700     919.2079   -107.80031   0.83171863   -106.96859    4894.4001    4.3474033    4.3474033    4.3474033    4894.4001    134.10222    6867.9444    7681.1538    16314.228     -13756.3    -220.7716    82.165552 
   99800    962.26694   -107.83854   0.87067935   -106.96786    1180.3826    4.3456457    4.3456457    4.3456457    1180.3826   -2056.2973    -16531.83    22129.274   -11199.708    7426.8835   -8002.2158    82.065938 
   99900    1085.7182   -107.95204   0.98238068   -106.96966   -5031.7764    4.3514044    4.3514044    4.3514044   -5031.7764   -20661.718   -15299.755    20866.145   -8888.8025   -14588.121   -1197.8484    82.392625 
  100000     1144.673    -108.0077    1.0357242   -106.97198    -5362.924    4.3479423    4.3479423    4.3479423    -5362.924   -14683.653   -6570.1031    5164.9836     16820.23   -9368.5522   -3034.4695    82.196118 
Loop time of 22.9199 on 1 procs for 100000 steps with 8 atoms

Pair  time (%) = 7.02499 (30.6502)
Kspce time (%) = 5.72361 (24.9723)
Neigh time (%) = 0 (0)
Comm  time (%) = 1.18482 (5.16938)
Outpt time (%) = 0.0258737 (0.112887)
Other time (%) = 8.96059 (39.0953)

Nlocal:    8 ave 8 max 8 min
Histogram: 1 0 0 0 0 0 0 0 0 0
Nghost:    2189 ave 2189 max 2189 min
Histogram: 1 0 0 0 0 0 0 0 0 0
Neighs:    2056 ave 2056 max 2056 min
Histogram: 1 0 0 0 0 0 0 0 0 0

Total # of neighbors = 2056
Ave neighs/atom = 257
Neighbor list builds = 0
Dangerous builds = 0
unfix 20
unfix 21
print "seeds:8390513"
seeds:8390513
