LAMMPS (10 Feb 2015)
# ---- initialize simulations
clear
units metal
dimension 3
boundary p p p
atom_style charge
atom_modify map array
# ---- create atoms
read_data /Users/eugeneragasa/pyflamestk_git/pypospack/tests/tests_integration/workflow/WorkflowLammpsThermalExpansion/param_4537/MgO_NaCl_unit.npt.T900/lammps.structure
  triclinic box = (0 0 0) to (4.2565 4.2565 4.2565) with tilt (0 0 0)
  1 by 1 by 1 MPI processor grid
  reading atoms ...
  8 atoms
# ---- define interatomic potential
include potential.mod
mass 1 24.305
mass 2 15.999

group Mg type 1
4 atoms in group Mg
group O type 2
4 atoms in group O

set group Mg charge 1.68595133453
  4 settings made for charge
set group O charge -1.68595133453
  4 settings made for charge

variable R_cut equal 10.0

pair_style buck/coul/long ${R_cut}
pair_style buck/coul/long 10
pair_coeff 1 1 0.0 0.5 0.0 ${R_cut}
pair_coeff 1 1 0.0 0.5 0.0 10
pair_coeff 1 2 1257.74769115 0.28905643469 0.0 ${R_cut}
pair_coeff 1 2 1257.74769115 0.28905643469 0.0 10
pair_coeff 2 2 3064.42109336 0.236064465148 18.7313535189 ${R_cut}
pair_coeff 2 2 3064.42109336 0.236064465148 18.7313535189 10

kspace_style pppm 1.0e-5

neighbor 1.0 bin
neigh_modify every 1 delay 0 check yes
# ---- define settings
compute eng all pe/atom
compute eatoms all reduce sum c_eng
# ---- run minimization
reset_timestep 0
fix 1 all box/relax iso 0.0 vmax 0.001
thermo 10
thermo_style custom step pe lx ly lz xy xz yz press pxx pyy pzz pxy pxz pyz c_eatoms
min_style cg
minimize 1e-25 1e-25 5000 10000
PPPM initialization ...
  G vector (1/distance) = 0.353047
  grid = 8 8 8
  stencil order = 5
  estimated absolute RMS force accuracy = 4.05219e-05
  estimated relative force accuracy = 2.81409e-06
  using double precision FFTs
  3d grid and FFT values/proc = 3375 512
Neighbor list info ...
  1 neighbor list requests
  update every 1 steps, delay 0 steps, check yes
  master list distance cutoff = 11
Memory usage per processor = 4.06549 Mbytes
Step PotEng Lx Ly Lz Xy Xz Yz Press Pxx Pyy Pzz Pxy Pxz Pyz eatoms 
       0   -115.66496       4.2565       4.2565       4.2565            0            0            0    45758.215    45758.215    45758.215    45758.215 1.7170796e-11 2.2312869e-10 1.3064853e-10   -115.66496 
      10   -115.69248    4.2933032    4.2933032    4.2933032            0            0            0   -6.7922673   -6.7922673   -6.7922673   -6.7922673 -6.3857142e-11 -7.0573166e-11 -5.8083176e-11   -115.69248 
      13    -115.6925     4.293297     4.293297     4.293297            0            0            0   0.20218487   0.20218487   0.20218487   0.20218487 1.6450748e-10 -9.163684e-11 -3.6202501e-11    -115.6925 
Loop time of 0.00661206 on 1 procs for 13 steps with 8 atoms

Minimization stats:
  Stopping criterion = linesearch alpha is zero
  Energy initial, next-to-last, final = 
        -115.664963059     -115.692495365     -115.692495365
  Force two-norm initial, final = 6.60751 4.45929e-05
  Force max component initial, final = 6.60751 2.97026e-05
  Final line search alpha, max atom move = 0.5 1.48513e-05
  Iterations, force evaluations = 13 19

Pair  time (%) = 0.001858 (28.1001)
Kspce time (%) = 0.0011127 (16.8283)
Neigh time (%) = 0 (0)
Comm  time (%) = 0.000200987 (3.0397)
Outpt time (%) = 1.19209e-05 (0.180291)
Other time (%) = 0.00342846 (51.8516)

Nlocal:    8 ave 8 max 8 min
Histogram: 1 0 0 0 0 0 0 0 0 0
Nghost:    2189 ave 2189 max 2189 min
Histogram: 1 0 0 0 0 0 0 0 0 0
Neighs:    2344 ave 2344 max 2344 min
Histogram: 1 0 0 0 0 0 0 0 0 0

Total # of neighbors = 2344
Ave neighs/atom = 293
Neighbor list builds = 0
Dangerous builds = 0
unfix 1
# ---- define output variables ----
variable natoms equal "count(all)"
variable tot_energy equal "c_eatoms"
variable length_x equal "lx"
variable length_y equal "ly"
variable length_z equal "lz"
variable tilt_xy equal "xy"
variable tilt_xz equal "xz"
variable tilt_yz equal "yz"
variable tot_press equal "press"
variable press_xx equal "pxx"
variable press_yy equal "pyy"
variable press_zz equal "pzz"
variable press_xy equal "pxy"
variable press_xz equal "pxz"
variable press_yz equal "pyz"

# ---- output ----
print "pypospack:output_section:begin"
pypospack:output_section:begin
print "tot_energy = ${tot_energy}"
tot_energy = -115.692495364628
print "num_atoms = ${natoms}"
num_atoms = 8
print "xx = ${length_x}"
xx = 4.29329700926666
print "yy = ${length_y}"
yy = 4.29329700926666
print "zz = ${length_z}"
zz = 4.29329700926666
print "xy = ${tilt_xy}"
xy = 0
print "xz = ${tilt_xz}"
xz = 0
print "yz = ${tilt_yz}"
yz = 0
print "tot_press = ${tot_press}"
tot_press = 0.202184869803092
print "pxx = ${press_xx}"
pxx = 0.202184869911938
print "pyy = ${press_yy}"
pyy = 0.202184869729888
print "pzz = ${press_zz}"
pzz = 0.20218486976745
print "pxy = ${press_xy}"
pxy = 1.64507477572858e-10
print "pxz = ${press_xz}"
pxz = -9.16368397176372e-11
print "pyz = ${press_yz}"
pyz = -3.62025011042311e-11
print "pypospack:output_section:done"
pypospack:output_section:done
print "pypospack:lammps_sim:done"
pypospack:lammps_sim:done
#------------------------------------------------------------------------------
# RUN THERMOSTAT
# running using an NPT Nose-Hoover style thermostat
#------------------------------------------------------------------------------
variable tempdamp equal 0.1
variable pressdamp equal 1.0
# set initial velocities
velocity all create 900 1067367 mom yes dist gaussian loop all
# fix for Nose-Hoover style thermostat
fix 20 all npt temp 900 900 0.1 aniso 0.0 0.0 1.0 drag 1.0 couple xyz
variable boxx equal lx
variable boxy equal ly
variable boxz equal lz
variable boxp equal press
variable boxt equal temp
# calculate averages every 10000 steps
reset_timestep 0
fix 21 all ave/time 10 10 100 v_boxx v_boxy v_boxz v_boxp v_boxt file lattice.out
thermo_style custom step temp pe ke etotal press lx ly lz press pxx pyy pzz pxy pxz pyz vol
thermo_modify flush yes
thermo 100
run 100000
PPPM initialization ...
  G vector (1/distance) = 0.352672
  grid = 8 8 8
  stencil order = 5
  estimated absolute RMS force accuracy = 4.1232e-05
  estimated relative force accuracy = 2.8634e-06
  using double precision FFTs
  3d grid and FFT values/proc = 3375 512
Memory usage per processor = 3.06549 Mbytes
Step Temp PotEng KinEng TotEng Press Lx Ly Lz Press Pxx Pyy Pzz Pxy Pxz Pyz Volume 
       0          900    -115.6925   0.81433891   -114.87816    10990.336     4.293297     4.293297     4.293297    10990.336    12389.347    2595.3794    17986.282    116.42755   -9522.5963     2535.854    79.135764 
     100    514.08645   -115.23072   0.46515622   -114.76556    5586.7359    4.3175716    4.3175716    4.3175716    5586.7359   -3279.7577   -11016.002    31055.967    810.06905    3786.0595    2161.2337    80.485685 
     200    751.33968   -115.22243   0.67982793    -114.5426   -20965.379     4.333858     4.333858     4.333858   -20965.379    -22865.13   -35588.877   -4442.1295    2433.9363    7645.6302    4034.1258     81.39993 
     300    941.41619    -115.2001   0.85181315   -114.34829    18844.486    4.3151795    4.3151795    4.3151795    18844.486    36639.588   -15858.524    35752.394   -4343.4071    11043.452   -3523.2166     80.35198 
     400    997.59566   -115.10453   0.90264552   -114.20189    18362.585    4.3225382    4.3225382    4.3225382    18362.585    30137.683   -10078.777    35028.851   -1354.7229    6323.3097   -3563.7594    80.763758 
     500     904.2588   -114.92676   0.81819237   -114.10857   -11599.119     4.341163     4.341163     4.341163   -11599.119    21651.316   -31049.319   -25399.354    3159.2727   -1723.8784    6213.0013     81.81224 
     600     797.5299   -114.77671   0.72162181   -114.05509    22155.529    4.3283587    4.3283587    4.3283587    22155.529    36527.977   -21311.269    51249.878     2092.517    13059.046   -351.61001    81.090454 
     700    1381.7488   -115.28894    1.2502354    -114.0387    7552.3492    4.3227787    4.3227787    4.3227787    7552.3492     30493.26   -20491.401    12655.188    1950.7928   -3561.9743   -3391.1835    80.777237 
     800    958.34416   -114.91749   0.86712994   -114.05036     6422.385     4.335778     4.335778     4.335778     6422.385     8367.217   -11999.316    22899.254    829.08589    7516.3369    2138.2747    81.508163 
     900    896.70911    -114.8699   0.81136125   -114.05854    1541.7296    4.3367131    4.3367131    4.3367131    1541.7296   -11312.513   -37308.845    53246.547    2155.6279   -2156.4517    349.11091    81.560915 
    1000    1243.3861   -115.18044    1.1250419    -114.0554   -5410.4177    4.3285145    4.3285145    4.3285145   -5410.4177   -12067.283   -17731.912    13567.943   -759.02177    8247.0973    -14983.25    81.099214 
    1100    1017.1017   -114.97549   0.92029503    -114.0552    9544.0546    4.3273424    4.3273424    4.3273424    9544.0546   -4801.5061   -5183.4647    38617.134    693.75081   -2915.1101    1759.5561    81.033348 
    1200    912.54588   -114.88711   0.82569069   -114.06142   -16559.849    4.3413607    4.3413607    4.3413607   -16559.849   -30893.171   -21506.919    2720.5423    6871.9419    567.00821    1974.8452    81.823417 
    1300    807.51882   -114.78675      0.73066   -114.05609   -1460.1814    4.3292997    4.3292997    4.3292997   -1460.1814    6911.6616   -16135.329    4843.1228    6303.0422    12810.856   -2150.6746    81.143353 
    1400    705.44815   -114.69679   0.63830431   -114.05848    21198.825    4.3269913    4.3269913    4.3269913    21198.825    15673.442   -7168.0125    55091.046   -1974.6196   -10230.106    7700.9721    81.013624 
    1500    909.72879   -114.88144   0.82314172   -114.05829   -17512.299    4.3498425    4.3498425    4.3498425   -17512.299   -7291.6393   -37885.719   -7359.5381     3404.973    -4899.622    197.13674    82.303934 
    1600     468.4659    -114.4818   0.42387779   -114.05792    16198.925    4.3254113    4.3254113    4.3254113    16198.925    52838.063   -31840.852    27599.564    1.4329173   -3908.3981   -12147.603     80.92491 
    1700    714.33871   -114.70092   0.64634868   -114.05457    9172.2002    4.3211956    4.3211956    4.3211956    9172.2002    30201.857   -19961.352    17276.096   -6447.9505     4292.545   -955.81725    80.688525 
    1800    699.53113    -114.6831   0.63295046   -114.05015   -8151.3497    4.3500555    4.3500555    4.3500555   -8151.3497   -6029.3534    -41797.06    23372.364   -158.96259    3534.3462    -258.0248    82.316024 
    1900    741.27549   -114.71424   0.67072164   -114.04352    6832.9742    4.3283703    4.3283703    4.3283703    6832.9742    15092.305   -18293.544    23700.161    1001.6679    3066.4684   -7380.3413    81.091107 
    2000    471.83797   -114.47948   0.42692891   -114.05255    6683.6559    4.3277073    4.3277073    4.3277073    6683.6559   -6239.9541   -20719.075    47009.997   -5679.1615   -2595.1319   -1662.7308    81.053849 
    2100    855.56844   -114.82029    0.7741363   -114.04616   -15596.233    4.3407841    4.3407841    4.3407841   -15596.233   -27022.798   -26394.725     6628.824   -2260.0551   -240.84425   -70.841456     81.79082 
    2200    948.97098   -114.90291   0.85864889   -114.04426    5851.3435    4.3225547    4.3225547    4.3225547    5851.3435   -5104.9414   -8057.9512    30716.923    2397.2018    1803.9976   -8825.2116    80.764681 
    2300    370.80807   -114.39658   0.33551493   -114.06106   -6005.2071    4.3349663    4.3349663    4.3349663   -6005.2071    2680.0622    -19461.76   -1233.9238   -4561.9676    7159.7078   -1824.8224    81.462395 
    2400    807.53663   -114.78433   0.73067611   -114.05365   -8802.0763    4.3303663    4.3303663    4.3303663   -8802.0763    10094.446   -16609.016   -19891.659    197.29501    -4176.104   -1535.0877    81.203343 
    2500    660.33495   -114.65116   0.59748494   -114.05368    29621.736    4.3251623    4.3251623    4.3251623    29621.736    43151.977   -5328.9593    51042.191    4029.1541   -7672.5568    4438.5821    80.910936 
    2600    777.15091   -114.76111   0.70318248   -114.05793     -26332.6     4.347249     4.347249     4.347249     -26332.6   -17769.793   -34169.207   -27058.799    6948.6359    3936.0061   -2764.2767    82.156806 
    2700    790.25755   -114.76408   0.71504164   -114.04904    6282.2327    4.3220345    4.3220345    4.3220345    6282.2327    44947.655   -19848.029   -6252.9281     3423.099   -4182.9977    2031.6486    80.735525 
    2800    1061.5783   -115.01575   0.96053833   -114.05521     13884.66    4.3232463    4.3232463    4.3232463     13884.66   -12768.666    1080.4606    53342.187    -2527.015    1755.5288     8463.825    80.803458 
    2900    1201.0614   -115.14107    1.0867456   -114.05432   -36375.504    4.3487433    4.3487433    4.3487433   -36375.504   -24172.039   -56650.957   -28303.516    735.62956    3776.3114    -7212.729    82.241557 
    3000    1027.1569   -114.97629   0.92939313   -114.04689    20088.978    4.3139873    4.3139873    4.3139873    20088.978    12138.135    10164.788     37964.01   -2000.0495    7035.3441   -1973.3492    80.285404 
    3100    1036.6052    -114.9993   0.93794217   -114.06136     5321.751    4.3315603    4.3315603    4.3315603     5321.751    12095.044   -28559.975    32430.185    499.69108   -6902.3612    6650.6816    81.270529 
    3200    1175.8594    -115.1166    1.0639423   -114.05266     -17531.4    4.3450301    4.3450301    4.3450301     -17531.4   -4525.0735   -33961.591   -14107.535   -55.716001   -1195.5225   -5435.0204    82.031066 
    3300    1066.5959   -115.00493   0.96507838   -114.03985    39086.447    4.3073572    4.3073572    4.3073572    39086.447    68814.287   -998.92089    49443.974    1778.8645    3014.8556   -1150.4327    79.915801 
    3400    966.70357    -114.9377   0.87469371     -114.063   -13419.086    4.3403683    4.3403683    4.3403683   -13419.086    8835.6856   -31212.659   -17880.285   -7415.7573    2643.1587    16265.099    81.767314 
    3500    859.13809   -114.83207    0.7773662   -114.05471   -9932.8887    4.3385221    4.3385221    4.3385221   -9932.8887    5863.4034   -15586.627   -20075.443    566.03254   -4757.3469    3960.8147    81.663021 
    3600    1302.5628   -115.21112    1.1785862   -114.03253    30773.823     4.299684     4.299684     4.299684    30773.823    50468.142     10650.58    31202.745   -3730.3296   -4025.3768   -8079.2298     79.48947 
    3700    934.13206   -114.90068   0.84522231   -114.05545   -31278.376    4.3494806    4.3494806    4.3494806   -31278.376   -21137.901   -42387.346    -30309.88    1740.0622    7898.8995      14343.9    82.283394 
    3800    874.38581   -114.84234   0.79116266   -114.05118   -31422.223    4.3373737    4.3373737    4.3373737   -31422.223   -22242.579   -24925.712   -47098.378    5407.9042   -6940.8647    5980.6917    81.598187 
    3900    943.80347   -114.88273   0.85397322   -114.02876    41706.528    4.2931788    4.2931788    4.2931788    41706.528    58367.774    35757.912    30993.899   -4496.6412   -11023.136   -2894.3995     79.12923 
    4000      881.935   -114.85766   0.79799333   -114.05966   -13053.663    4.3465894    4.3465894    4.3465894   -13053.663    29978.123   -46286.384   -22852.727     2534.958   -4629.7253    16575.902    82.119416 
    4100    783.01905   -114.76163   0.70849209   -114.05313   -14178.023    4.3407418    4.3407418    4.3407418   -14178.023    27270.225   -27045.318   -42758.977   -1354.2851   -805.43384    2026.6216    81.788426 
    4200    605.67887   -114.57814   0.54803097   -114.03011    42251.288    4.2949107    4.2949107    4.2949107    42251.288    56910.083    32351.925    37491.857   -5139.7828   -10806.318   -4040.5442    79.225029 
    4300    1001.8492   -114.96437   0.90649426   -114.05787   -22481.538      4.33791      4.33791      4.33791   -22481.538   -6237.5494   -28787.837   -32419.227    2048.0219    1208.0178    11941.708    81.628464 
    4400    1090.2107   -115.02963   0.98644556   -114.04319   -17538.538    4.3429035    4.3429035    4.3429035   -17538.538   -27223.548    -25143.69    -248.3757   -727.02227    4097.3235    495.32638     81.91068 
    4500    826.52659   -114.78539   0.74785863   -114.03753    12475.993    4.3119512    4.3119512    4.3119512    12475.993    14052.442    6923.2957    16452.242   -228.03775   -7051.7539    -839.5573    80.171779 
    4600    650.26746   -114.64521   0.58837566   -114.05683   -3746.3607    4.3291073    4.3291073    4.3291073   -3746.3607    22728.602   -2503.2902   -31464.394    5398.7486   -10063.656    4712.7734    81.132537 
    4700    957.06845   -114.91435   0.86597565   -114.04837    8213.6699    4.3346111    4.3346111    4.3346111    8213.6699    43131.961   -31343.391     12852.44    1372.1021    4556.5176   -6369.6094    81.442375 
    4800    833.20484   -114.80586   0.75390125   -114.05196   -3354.2233    4.3314443    4.3314443    4.3314443   -3354.2233    15049.451   -11963.656   -13148.465    -990.6457   -4167.6806    27.447008    81.264002 
    4900    616.45168   -114.61217   0.55777843   -114.05439   -4195.1727    4.3225913    4.3225913    4.3225913   -4195.1727    -2969.968    3682.2362   -13297.786   -8233.1284   -10656.352    723.39916    80.766734 
    5000    1318.2438   -115.24368    1.1927747   -114.05091    -5936.121     4.322536     4.322536     4.322536    -5936.121   -23568.636   -6215.3563     11975.63   -1529.6535    2312.7701   -6689.7522    80.763635 
    5100    1046.1682   -114.99739   0.94659495    -114.0508   -29804.641    4.3465479    4.3465479    4.3465479   -29804.641   -43924.089   -23199.842   -22289.993   -3614.2646   -3681.9385    6272.0992    82.117061 
    5200    607.45764   -114.60597   0.54964044   -114.05633   -13348.054    4.3229344    4.3229344    4.3229344   -13348.054    -25533.69   -2032.9471   -12477.525   -1626.8446   -12009.083   -600.00163     80.78597 
    5300    869.26002   -114.83237   0.78652473   -114.04585    28203.878    4.3051936    4.3051936    4.3051936    28203.878    41863.556    16233.795    26514.284     1565.775   -4581.2728   -3723.6031    79.795437 
    5400    927.96808   -114.89091   0.83964502   -114.05126   -19847.517    4.3502208    4.3502208    4.3502208   -19847.517   -12051.641   -42163.494   -5327.4149    2099.6205    5393.6139     5116.149    82.325408 
    5500    453.68051   -114.46488   0.41049966   -114.05438    2059.0979    4.3262701    4.3262701    4.3262701    2059.0979    15915.222    5927.9237   -15665.852   -357.59539   -11121.873   -5828.1787    80.973124 
    5600    678.04091   -114.65276   0.61350566   -114.03925    31255.375    4.2978657    4.2978657    4.2978657    31255.375    4041.3999    33810.877    55913.848   -4602.0801   -10250.497    3235.7364     79.38867 
    5700    1032.2412   -114.98517   0.93399353   -114.05118     -25938.6    4.3430958    4.3430958    4.3430958     -25938.6   -25832.572   -32603.657   -19379.572    5021.5538    6514.8081    11304.209    81.921562 
    5800    779.20095   -114.75382   0.70503739   -114.04879   -10553.331    4.3307425    4.3307425    4.3307425   -10553.331   -39198.205    -15210.15    22748.362    2279.0754   -1444.0617   -2594.4918    81.224506 
    5900    667.40375   -114.64828   0.60388094    -114.0444    11892.429    4.3101119    4.3101119    4.3101119    11892.429   -4468.7915    26811.269    13334.808     2131.704   -11781.984    2121.3086    80.069226 
    6000    788.35197   -114.76112   0.71331743    -114.0478   -24880.934    4.3374607    4.3374607    4.3374607   -24880.934   -25522.639   -10394.838   -38725.324    1959.9141    5522.4458    8619.8967      81.6031 
    6100    813.41513   -114.77781    0.7359951   -114.04182    3090.5511    4.3245397    4.3245397    4.3245397    3090.5511    10371.286     -14979.4    13879.767    3788.7952    1652.5328    6952.9569    80.875998 
    6200    645.79094   -114.63281   0.58432521   -114.04849   -1840.6042    4.3279427    4.3279427    4.3279427   -1840.6042    13514.161   -6529.6494   -12506.325    1994.4129    -17206.92    5123.4364    81.067077 
    6300    748.62849    -114.7256   0.67737479   -114.04822    -18869.09    4.3365732    4.3365732    4.3365732    -18869.09   -936.65665   -14433.762   -41236.852   -1717.9968   -12744.123    -2059.816    81.553021 
    6400    873.02136   -114.83072   0.78992808   -114.04079    19082.854    4.3164342    4.3164342    4.3164342    19082.854    42728.941    12012.572    2507.0485   -6126.4253   -2129.7959    14170.775    80.422096 
    6500    765.97192   -114.74408   0.69306749   -114.05101   -6398.7636    4.3351247    4.3351247    4.3351247   -6398.7636   -18156.209     1569.733    -2609.815   -4553.7583   -14240.892   -3513.6915    81.471328 
    6600    851.44949   -114.81799   0.77040939   -114.04759   -9283.8704    4.3329366    4.3329366    4.3329366   -9283.8704   -25648.216   -870.98437   -1332.4107   -601.55655   -22069.719   -2167.0938    81.348025 
    6700    864.84066   -114.82303     0.782526   -114.04051    33934.758    4.3125715    4.3125715    4.3125715    33934.758    18562.899     46004.49    37236.886   -8400.1282   -496.06277    5394.9906    80.206382 
    6800    1094.0516    -115.0421   0.98992085   -114.05218   -15332.163    4.3319147    4.3319147    4.3319147   -15332.163   -23882.162    -15144.02    -6970.306   -3942.7561   -9159.3706   -6516.2834    81.290478 
    6900      849.665   -114.81957   0.76879475   -114.05078    2742.6185     4.326358     4.326358     4.326358    2742.6185   -29013.004    35798.003    1442.8563    1558.3492   -22401.481   -386.68741     80.97806 
    7000     1309.778   -115.22964    1.1851147   -114.04453    1730.1927    4.3202154    4.3202154    4.3202154    1730.1927   -7932.3302    13604.122   -481.21392    814.30103    2457.9737   -4297.6961    80.633626 
    7100    961.96787   -114.91928   0.87040875   -114.04887   -9433.8267    4.3368791    4.3368791    4.3368791   -9433.8267   -12729.839    16395.676   -31967.318   -3818.3858   -5058.7311    16603.523    81.570278 
    7200    1052.3382   -114.99866   0.95217772   -114.04648   -4982.5252    4.3250999    4.3250999    4.3250999   -4982.5252    -11785.66    21235.025   -24396.941   -10927.854   -21806.212   -3001.5658    80.907432 
    7300    1270.7019   -115.19324    1.1497578   -114.04349    8715.5855    4.3176425    4.3176425    4.3176425    8715.5855    7964.7834    29314.395   -11132.422    6351.9138    3797.6402    10233.716     80.48965 
    7400    1123.8476   -115.06623    1.0168809   -114.04935    2470.8562     4.327278     4.327278     4.327278    2470.8562    9923.0743    21654.142   -24164.647    3571.1091    -2414.275     13485.19    81.029732 
    7500    1019.5576   -114.97595   0.92251718   -114.05343   -14325.628    4.3317134    4.3317134    4.3317134   -14325.628   -18311.006    8494.7465   -33160.624    5484.3897   -23916.662     3389.679    81.279147 
    7600    1139.1958   -115.07963    1.0307683   -114.04886    7828.9858    4.3216573    4.3216573    4.3216573    7828.9858    4691.6817    24538.878   -5743.6025    2879.3009    4113.7711   -933.01611    80.714392 
    7700    1162.5626   -115.10152    1.0519111    -114.0496     5244.016    4.3249682    4.3249682    4.3249682     5244.016   -7686.0313    43237.054   -19818.975    7122.3219    9937.7521   -153.11973    80.900042 
    7800    806.90093   -114.78239   0.73010092   -114.05229   -11356.724    4.3359715    4.3359715    4.3359715   -11356.724   -30369.965    34368.754    -38068.96    5853.2411   -16936.149    12626.511    81.519078 
    7900    936.98623   -114.89081   0.84780483   -114.04301    7017.9817    4.3260839    4.3260839    4.3260839    7017.9817    -19034.05    46271.453   -6183.4573   -4483.4073   -2133.1487   -10920.588    80.962669 
    8000    1352.5112   -115.26608    1.2237805    -114.0423    -5237.241    4.3203424    4.3203424    4.3203424    -5237.241   -9263.3563    9910.7473   -16359.114   -469.06602    6619.4805     913.6488    80.640738 
    8100    779.81008   -114.76398   0.70558854    -114.0584   -13253.793    4.3274004    4.3274004    4.3274004   -13253.793   -32353.122    27523.655   -34931.912   -7317.9694   -16633.112    4075.2536    81.036607 
    8200    1022.9679    -114.9807   0.92560287   -114.05509   -7531.9444    4.3245557    4.3245557    4.3245557   -7531.9444   -17221.113    20015.914   -25390.634    6433.8101   -12578.909    5838.4673    80.876896 
    8300     1086.776   -115.03319   0.98333779   -114.04985   -1541.1011    4.3353255    4.3353255    4.3353255   -1541.1011   -9179.8131    38378.466   -33821.957   -13718.547    9705.0201   -6260.7654    81.482647 
    8400    973.24465    -114.9312   0.88061221   -114.05059    -4400.068    4.3209449    4.3209449    4.3209449    -4400.068   -16432.859    34392.968   -31160.313   -1470.9516   -15634.688   -1486.9182     80.67448 
    8500    696.79954   -114.68267   0.63047887   -114.05219    24644.227    4.3111224    4.3111224    4.3111224    24644.227     29442.87    63245.021   -18755.211    5866.0877   -15773.215    3441.3422    80.125554 
    8600    1087.3887   -115.03749   0.98389215    -114.0536   -8141.9368    4.3363225    4.3363225    4.3363225   -8141.9368    1025.5792    10247.374   -35698.763    688.11214    7674.0558   -10131.476    81.538875 
    8700    1128.2004   -115.07008    1.0208194   -114.04926    6789.0967    4.3170961    4.3170961    4.3170961    6789.0967    16722.835    26758.638   -23114.182    2894.7146   -12485.669    4563.1015    80.459098 
    8800    804.24488   -114.78172   0.72769767   -114.05402    4374.5309    4.3182678    4.3182678    4.3182678    4374.5309   -349.93083     27893.94   -14420.417    -11349.63   -24563.892    6893.1696    80.524628 
    8900    1174.8364   -115.11131    1.0630167    -114.0483   -23795.247    4.3348346    4.3348346    4.3348346   -23795.247   -19096.356    -14848.81   -37440.575    4459.5247    4333.6795    8833.8284    81.454972 
    9000     983.3479   -114.93777   0.88975384   -114.04802    21983.817    4.3127928    4.3127928    4.3127928    21983.817    7883.3169    61048.636    -2980.501   -3611.7437   -1535.9777   -6824.3011    80.218729 
    9100    880.76143    -114.8542   0.79693146   -114.05727   -1977.8368    4.3222623    4.3222623    4.3222623   -1977.8368   -20806.693    35188.944   -20315.762    2142.6792   -24449.841    8185.8447    80.748296 
    9200    1045.2624   -114.99738   0.94577537    -114.0516   -13028.881    4.3341618    4.3341618    4.3341618   -13028.881   -13769.841    269.15545   -25585.958    5534.9778   -5675.5317    3677.1738    81.417051 
    9300    953.99098   -114.91169   0.86319109    -114.0485    22978.088    4.3191253    4.3191253    4.3191253    22978.088    20288.527    50732.918   -2087.1833   -4638.2344   -3302.9228   -7145.5482    80.572608 
    9400    1048.6784   -115.00166   0.94886624    -114.0528   -6583.0898    4.3243857    4.3243857    4.3243857   -6583.0898   -2006.1281    1159.6545   -18902.796    7888.6415   -16149.715    1074.1303    80.867363 
    9500    931.19083   -114.89404   0.84256103   -114.05148    1705.7817     4.327632     4.327632     4.327632    1705.7817    6007.2783     13175.33   -14065.263   -186.84331   -1725.2664    6022.7117    81.049619 
    9600    971.17895   -114.92684   0.87874312    -114.0481    1758.3489    4.3300144    4.3300144    4.3300144    1758.3489   -2439.2117    29120.219   -21405.961   -7986.0726    832.59997    -515.5263    81.183548 
    9700    823.67437   -114.79549   0.74527788   -114.05021    12968.165    4.3182957    4.3182957    4.3182957    12968.165    14652.154    33471.376   -9219.0362    1866.7951   -13774.266   -14460.601    80.526185 
    9800    1046.6533   -114.99473   0.94703391    -114.0477    9886.8609     4.313706     4.313706     4.313706    9886.8609    5055.8522    30613.985   -6009.2551   -3870.5522   -12845.908    12497.624    80.269695 
    9900    842.92597   -114.81465   0.76269713   -114.05195   -30813.053    4.3395331    4.3395331    4.3395331   -30813.053   -2456.1895   -56192.649   -33790.322    5272.7525    878.88339    2941.1687    81.720126 
   10000    765.74602   -114.74401   0.69286309   -114.05114    5588.4123    4.3121455    4.3121455    4.3121455    5588.4123    8919.2166    16034.686   -8188.6652   -4917.9985    -1733.462   -8330.9532    80.182618 
   10100    1005.5326   -114.96121   0.90982702   -114.05138    13363.543    4.3069935    4.3069935    4.3069935    13363.543    15926.398    25666.023     -1501.79   -319.74816    -8217.846    2892.5458    79.895563 
   10200    648.78974   -114.63904    0.5870386     -114.052   -38597.067    4.3460084    4.3460084    4.3460084   -38597.067   -15080.305   -48432.567   -52278.329    9070.7298    3421.1823    19659.773    82.086488 
   10300    622.57945   -114.61205   0.56332297   -114.04873   -2472.2659    4.3113064    4.3113064    4.3113064   -2472.2659    16270.083   -5052.8073   -18634.073   -4834.3601   -5664.0526   -2074.5121    80.135818 
   10400    838.15777    -114.8062   0.75838277   -114.04782    25728.006    4.3076842    4.3076842    4.3076842    25728.006    15396.699    64827.142   -3039.8244    4033.2065   -11398.873   -10047.188    79.934003 
   10500    781.75974   -114.74995   0.70735264    -114.0426   -33650.969     4.342962     4.342962     4.342962   -33650.969   -3563.2318   -46649.133   -50740.543   -1346.5593    5144.9719    20263.368     81.91399 
   10600    573.32115   -114.56272   0.51875302   -114.04396   -4153.1545    4.3094299    4.3094299    4.3094299   -4153.1545    21465.871   -5493.4506   -28431.884    5578.5368    546.88579      124.773    80.031226 
   10700    663.86146   -114.65474    0.6006758   -114.05406    6968.1026    4.3168525    4.3168525    4.3168525    6968.1026    17739.461    33435.772   -30270.925     2977.972   -9471.2306   -11815.525    80.445478 
   10800    820.25798   -114.78557   0.74218666   -114.04338   -10959.042    4.3354872    4.3354872    4.3354872   -10959.042   -16608.489    13665.797   -29934.434   -14285.685   -5073.4791     2670.973    81.491765 
   10900    629.55153   -114.61417   0.56963145   -114.04454      1984.92    4.3097418    4.3097418    4.3097418      1984.92    27368.292   -7323.2126   -14090.319    5868.5935   -1237.7174    8867.5836      80.0486 
   11000    629.50578   -114.62491   0.56959005   -114.05532   -20425.978    4.3214314    4.3214314    4.3214314   -20425.978    4940.6676   -23560.778   -42657.823     3279.178   -3464.0131   -14163.468    80.701734 
   11100    949.74017   -114.90524   0.85934487    -114.0459   -4777.0297    4.3275221    4.3275221    4.3275221   -4777.0297   -3142.4406    24542.145   -35730.793   -4058.5321   -4529.0699   -5233.0823    81.043443 
   11200     858.7725   -114.82444    0.7770354    -114.0474    4184.1957    4.3167869    4.3167869    4.3167869    4184.1957    7402.9148    8334.1883    -3184.516    7608.2787    2751.0786    16350.947    80.441812 
   11300     663.9731    -114.6547   0.60077682   -114.05392   -8058.3181    4.3203712    4.3203712    4.3203712   -8058.3181     14177.66   -7751.5773   -30601.038   -1318.5486   -6113.5405   -12491.448    80.642352 
   11400    1086.4679   -115.03503   0.98305899   -114.05197    1664.0788     4.321232     4.321232     4.321232    1664.0788   -2710.8885    35315.015    -27611.89    556.31355   -6219.7323   -7599.9849    80.690563 
   11500    959.61818    -114.9205   0.86828269   -114.05221    5457.0148    4.3278305    4.3278305    4.3278305    5457.0148    -465.9759    28449.613   -11612.593     -13063.1    1862.1702    594.80865    81.060768 
   11600    1037.3275   -114.98885   0.93859571   -114.05025    8759.2647    4.3151983    4.3151983    4.3151983    8759.2647    9253.2173     22998.28   -5973.7035    3742.6271    441.54305    931.79603    80.353035 
   11700    1184.7903   -115.12592    1.0720231    -114.0539    3907.9901    4.3185634    4.3185634    4.3185634    3907.9901    6997.6755    17699.435    -12973.14     10812.98   -1406.9034   -5329.4803    80.541164 
   11800    930.95952   -114.89816   0.84235173   -114.05581   -443.11835    4.3316528    4.3316528    4.3316528   -443.11835   -16458.738    21456.966   -6327.5824   -17708.025   -1762.7118    1682.3406    81.275737 
   11900    1179.0441   -115.12058    1.0668239   -114.05375   -4370.5384    4.3202283    4.3202283    4.3202283   -4370.5384   -4747.1592    2471.3753   -10835.831   -7281.7826    5006.8191   -3294.6695     80.63435 
   12000    1002.8617   -114.96104   0.90741035   -114.05363    8596.2291    4.3181195    4.3181195    4.3181195    8596.2291    4671.5528    15942.498    5174.6369    4996.7275   -2212.8819   -8902.3331    80.516328 
   12100    1131.6317   -115.07661    1.0239241   -114.05268     8047.888    4.3167211    4.3167211    4.3167211     8047.888     486.3341     10378.75    13278.579    -8558.164   -5019.8718    3886.6896    80.438131 
   12200    1072.9452   -115.02864   0.97082333   -114.05782   -4135.1671    4.3281581    4.3281581    4.3281581   -4135.1671   -23790.979    11928.836   -543.35908   -18274.404    10689.171    8379.9323    81.079182 
   12300    1175.2813   -115.11457    1.0634192   -114.05115    11899.528    4.3224374    4.3224374    4.3224374    11899.528    218.16919    23988.846     11491.57    6814.2436   -7193.7312    -4192.835    80.758108 
   12400     1160.092    -115.0979    1.0496756   -114.04822    19792.208    4.3158039    4.3158039    4.3158039    19792.208    3062.1571    31523.782    24790.685   -5828.2071   -5322.9182   -16169.393     80.38687 
   12500    978.98338   -114.93581   0.88580473      -114.05   -7065.3129    4.3319848    4.3319848    4.3319848   -7065.3129   -28386.826    -5234.799    12425.686    -30486.98    9154.7326   -633.55526    81.294424 
   12600    1156.4063   -115.09034    1.0463407     -114.044    15209.496    4.3195657    4.3195657    4.3195657    15209.496   -6603.1292    21643.497     30588.12    3836.4028   -5435.1735   -878.60916    80.597254 
   12700    1176.7804   -115.11427    1.0647757    -114.0495    12007.916    4.3176179    4.3176179    4.3176179    12007.916   -927.76914    22992.185    13959.333    3830.1131    1207.8154    2467.5943    80.488277 
   12800    829.65886   -114.80577   0.75069277   -114.05508   -20768.451    4.3300497    4.3300497    4.3300497   -20768.451   -43106.909    -29707.78    10509.336   -28436.867    3163.2373   -2154.0778     81.18553 
   12900    1075.0301   -115.01872   0.97270984   -114.04601    11534.927    4.3128054    4.3128054    4.3128054    11534.927   -1339.0104    1368.9599    34574.831   -7268.2627    37.220903   -464.35216    80.219435 
   13000    1175.8532   -115.11604    1.0639367   -114.05211   -4941.9001    4.3289926    4.3289926    4.3289926   -4941.9001   -14100.498    7996.4374   -8721.6392    1582.0458    172.56632      7454.55    81.126086 
   13100    860.34307   -114.82649   0.77845649   -114.04803   -18287.281    4.3307722    4.3307722    4.3307722   -18287.281    -34997.38   -26493.242    6628.7789   -30671.891   -4246.7157   -6157.0445    81.226178 
   13200    936.61753   -114.89201   0.84747123   -114.04454    16425.876     4.309577     4.309577     4.309577    16425.876    1417.3685    14604.026    33256.232   -13089.874    6097.4147    8867.4567    80.039423 
   13300    1187.0333   -115.12407    1.0740527   -114.05002   -6484.9653    4.3290228    4.3290228    4.3290228   -6484.9653   -14460.569   -6503.9972    1509.6703    11415.632   -4591.5041   -2974.3834    81.127786 
   13400    677.74976   -114.66549   0.61324223   -114.05225    11304.968    4.3252861    4.3252861    4.3252861    11304.968    -27038.17    12057.398    48895.675   -18751.129   -5054.0458   -4669.6272    80.917882 
   13500    730.39797   -114.70986   0.66087943   -114.04898    11639.657    4.3255908    4.3255908    4.3255908    11639.657   -17157.239    8239.6669    43836.545   -10189.954     8431.516   -6978.9228    80.934985 
   13600    880.31673   -114.83958   0.79652908   -114.04305   -1432.8583    4.3288778    4.3288778    4.3288778   -1432.8583   -14936.846   -15088.147    25726.418    6753.3652    6202.2541   -5601.1533    81.119633 
   13700    517.40939   -114.51312   0.46816289   -114.04495     28436.27    4.3149137    4.3149137    4.3149137     28436.27    -13460.28    31349.151    67419.939   -15952.842   -10212.688   -1107.0046    80.337137 
   13800    892.24005   -114.85449   0.80731755   -114.04718   -14536.019    4.3360669    4.3360669    4.3360669   -14536.019   -29233.352   -22837.361    8462.6558   -12274.257    3099.1253    630.18961    81.524459 
   13900     1003.364   -114.95075   0.90786485   -114.04288   -4735.8202    4.3253759    4.3253759    4.3253759   -4735.8202   -15317.141   -5756.4663    6866.1463    10148.312    1729.5983   -4343.1605    80.922922 
   14000    805.63195   -114.77401   0.72895272   -114.04505    7074.1819    4.3094202    4.3094202    4.3094202    7074.1819   -551.79648    1999.2797    19775.062   -11143.672   -5152.0803    1169.7938    80.030682 
   14100    900.93875   -114.86613   0.81518831   -114.05094   -27809.074    4.3390252    4.3390252    4.3390252   -27809.074   -42232.054   -41864.188    669.01935   -19617.053    -6267.863   -3021.4324    81.691431 
   14200    1030.9859   -114.97789   0.93285774   -114.04504   -2198.3727    4.3250122    4.3250122    4.3250122   -2198.3727   -15258.639    10490.239   -1826.7186    12924.033    751.87206    896.59296    80.902513 
   14300    984.27277   -114.92911   0.89059069   -114.03852    6725.9618    4.3067382    4.3067382    4.3067382    6725.9618    -11249.18   -717.65623    32144.721   -6630.1437   -6115.0397    5703.7135    79.881356 
   14400    714.49979   -114.70005   0.64649443   -114.05356   -18043.178    4.3373234    4.3373234    4.3373234   -18043.178   -49214.069   -20278.506     15363.04   -19872.323   -12106.466   -6923.6945     81.59535 
   14500     1147.178   -115.07847    1.0379908   -114.04048   -7739.6878    4.3310085    4.3310085    4.3310085   -7739.6878   -28000.389    8330.2497   -3548.9239    18133.515    1487.2618   -3039.7127    81.239475 
   14600    1001.0841   -114.94062   0.90580191   -114.03481    13825.097    4.3111707    4.3111707    4.3111707    13825.097   -16132.069    27351.453    30255.907   -6020.4217    381.87281   -11476.609    80.128247 
   14700    804.99488   -114.77883   0.72837628   -114.05046   -2587.3124    4.3258288    4.3258288    4.3258288   -2587.3124   -41208.266     16152.25    17294.079   -23326.047   -8009.9421   -5869.0195    80.948347 
   14800    1099.0071   -115.03832   0.99440468   -114.04392   -8194.4857    4.3331732    4.3331732    4.3331732   -8194.4857   -25613.596    3246.6082   -2216.4696     9906.662   -3733.4998   -13448.531     81.36135 
   14900    996.31946     -114.946   0.90149079   -114.04451    5899.7399    4.3218902    4.3218902    4.3218902    5899.7399   -21572.427    18128.878    21142.769     5134.262    3790.3043   -6311.6549    80.727443 
   15000    1021.4715   -114.96873   0.92424891   -114.04448   -1481.7071    4.3143953    4.3143953    4.3143953   -1481.7071   -33353.355    803.48281    28104.751   -17779.132   -12331.176    4944.6721    80.308182 
   15100    889.05822   -114.85538   0.80443856   -114.05094     6638.485    4.3259564    4.3259564    4.3259564     6638.485   -27541.122    37551.496    9905.0807    4674.8092   -10587.102   -8473.3486    80.955509 
   15200     1082.416   -115.02375   0.97939275   -114.04436   -13661.589    4.3338273    4.3338273    4.3338273   -13661.589   -27642.561   -28271.571    14929.365    6488.3383    5950.9034   -5670.0957    81.398203 
   15300    914.74243   -114.87062   0.82767817   -114.04294    3757.5786     4.315159     4.315159     4.315159    3757.5786   -19277.027   -3386.6286    33936.391   -18660.148    1145.9917   -2379.0505     80.35084 
   15400    840.83457   -114.81102   0.76080479   -114.05022    9409.7457    4.3188788    4.3188788    4.3188788    9409.7457   -15178.656    30955.785    12452.109   -303.85706   -9156.5747    6297.7666    80.558812 
   15500    969.17255    -114.9217   0.87692769   -114.04477   -15063.823    4.3360388    4.3360388    4.3360388   -15063.823   -18483.749   -21393.363   -5314.3589    9781.9886    2379.5554   -169.58863    81.522875 
   15600    768.78025   -114.73926   0.69560853   -114.04366   -1094.8233     4.318944     4.318944     4.318944   -1094.8233   -12609.872   -22856.314    32181.716    -14691.93    1997.9448    131.09865     80.56246 
   15700    890.49507   -114.85049   0.80573865   -114.04475    -1191.578    4.3139183    4.3139183    4.3139183    -1191.578    9153.4267   -13530.473    802.31263   -13699.347      -8395.8     -663.647    80.281549 
   15800    783.32738   -114.75767   0.70877107    -114.0489   -9551.4526    4.3357105    4.3357105    4.3357105   -9551.4526   -8120.7946   -24515.883    3982.3195    11130.987   -442.30054   -4300.1923    81.504359 
   15900    662.91462   -114.64359   0.59981908   -114.04377    5460.3681    4.3245682    4.3245682    4.3245682    5460.3681    1687.2297   -10663.797    25357.672    -6143.419     1380.112    113.15318    80.877599 
   16000    804.65539   -114.76579   0.72806911   -114.03772     4315.816    4.3112334    4.3112334    4.3112334     4315.816    12867.112   -21671.952    21752.288   -18033.826    -11026.42    81.476885    80.131744 
   16100    625.88579   -114.61217   0.56631462   -114.04586   -8716.2427    4.3304677    4.3304677    4.3304677   -8716.2427   -3260.1531   -40966.586    18078.011     14522.31   -16714.536   -8941.7545    81.209048 
   16200    730.35304   -114.70666   0.66083878   -114.04582   -3501.0846    4.3219688    4.3219688    4.3219688   -3501.0846    3406.4213   -22932.193    9022.5173   -287.32412    31.066643    409.15195    80.731844 
   16300    611.14782   -114.59934   0.55297939   -114.04636    22619.876    4.3096547    4.3096547    4.3096547    22619.876    28371.228   -8079.8625    47568.261   -20453.211   -4766.1514    2775.7419    80.043748 
   16400    815.02353   -114.78519   0.73745041   -114.04774   -10875.558     4.330771     4.330771     4.330771   -10875.558   -6783.8524   -31941.208    6098.3872    9458.2404   -21148.825   -5963.9743    81.226109 
   16500     690.7187   -114.66687   0.62497679   -114.04189   -6148.9074    4.3287631    4.3287631    4.3287631   -6148.9074    9868.7079   -33569.935    5254.5049    4089.9807   -4559.7991   -4170.0355    81.113188 
   16600    860.39208   -114.81773   0.77850084   -114.03923    8354.4318    4.3134364    4.3134364    4.3134364    8354.4318    11501.521   -16653.744    30215.519   -16170.308   -370.45232   -1617.9028    80.254648 
   16700    894.58932    -114.8556   0.80944322   -114.04615    1821.1551     4.325487     4.325487     4.325487    1821.1551   -3459.7702    12989.265   -4066.0295   -1123.4121   -16564.369    9304.1068    80.929159 
   16800    1044.5461    -114.9914   0.94512725   -114.04627   -14470.637    4.3289636    4.3289636    4.3289636   -14470.637    -8324.965   -26139.657   -8947.2899   -97.570106   -6744.5399   -2989.5132    81.124455 
   16900    869.38458   -114.83407   0.78663744   -114.04744    3036.0631    4.3143408    4.3143408    4.3143408    3036.0631   -372.68948   -20241.024    29721.903   -13715.402    3911.0408   -9253.5504    80.305141 
   17000    1023.4987   -114.97501   0.92608313   -114.04893     6173.539     4.321866     4.321866     4.321866     6173.539    8704.3879    5489.2745    4326.9546   -4203.5112   -1115.1203    -833.6175    80.726085 
   17100    1091.0261   -115.03065   0.98718336   -114.04346   -4515.7109    4.3312867    4.3312867    4.3312867   -4515.7109   -1340.7513    6738.9127   -18945.294    36.599993   -11151.758   -6777.6496    81.255132 
   17200    1023.3225   -114.96911   0.92592367   -114.04319    9807.0125    4.3130832    4.3130832    4.3130832    9807.0125    21695.218   -2813.9467    10539.766   -11718.335    2688.4089    1754.5529    80.234934 
   17300    945.56263   -114.90911   0.85556494   -114.05355    6038.0179    4.3205719    4.3205719    4.3205719    6038.0179    17953.745   -8179.4031    8339.7117   -9072.1379    8098.2994    2367.0874     80.65359 
   17400    1135.6293   -115.07638    1.0275412   -114.04884   -13914.619    4.3315603    4.3315603    4.3315603   -13914.619   -5680.6969   -2458.5884   -33604.571    13909.922   -16554.556    653.36756    81.270528 
   17500    1064.3594   -115.01166   0.96305475    -114.0486     10458.24    4.3087246    4.3087246    4.3087246     10458.24    5767.4698    15143.613    10463.638   -15536.837   -3034.4759   -8855.4738    79.991937 
   17600    973.30014   -114.93834   0.88066242   -114.05768   -1945.9109    4.3193112    4.3193112    4.3193112   -1945.9109   -19383.358   -7612.6935    21158.319   -28164.486    5074.8016   -645.00987    80.583009 
   17700    1090.2696   -115.03733   0.98649883   -114.05083   -13512.304    4.3286184    4.3286184    4.3286184   -13512.304   -32114.715    3481.4088   -11903.604    8191.2618   -11814.251     16177.03    81.105052 
   17800    1044.8083   -114.99234   0.94536452   -114.04698    6393.1877    4.3109845    4.3109845    4.3109845    6393.1877   -10732.945    5571.8482     24340.66   -1041.0592   -12020.813    2089.6382    80.117869 
   17900    985.48161    -114.9428   0.89168447   -114.05112   -12172.611     4.323527     4.323527     4.323527   -12172.611   -22887.438   -23066.449    9436.0543   -19524.341   -1255.8283    24.655414    80.819196 
   18000    1060.3399   -115.00583   0.95941778   -114.04641   -2628.0199    4.3235692    4.3235692    4.3235692   -2628.0199   -15225.668   -5248.2449    12589.853    1001.3869    2449.8152    1994.1057    80.821562 
   18100    886.68419   -114.84962   0.80229049   -114.04733     9064.143    4.3176024    4.3176024    4.3176024     9064.143    14978.449    12287.988   -74.008309    2680.9955   -18354.617    3359.8432    80.487409 
   18200    860.00311   -114.82597   0.77814889   -114.04783   -14947.135     4.326026     4.326026     4.326026   -14947.135   -13195.389   -35061.966    3415.9513   -17094.135   -3289.1155    3540.3996    80.959418 
   18300    987.71318   -114.93682   0.89370364   -114.04311    6355.2636    4.3129694    4.3129694    4.3129694    6355.2636    20409.734   -24931.648    23587.705   -3707.3035    3684.4304   -10476.993    80.228584 
   18400     675.0844   -114.66562   0.61083056   -114.05479    -1616.984    4.3246405    4.3246405    4.3246405    -1616.984    18869.967   -24358.702    637.78344    9658.5149   -4643.0205    5148.7942    80.881654 
   18500    625.18105   -114.61825   0.56567695   -114.05257   -12070.308    4.3283134    4.3283134    4.3283134   -12070.308   -21214.812   -14215.294   -780.81853   -5942.1783   -8715.9824   -1313.0858    81.087909 
   18600    854.68872   -114.81521   0.77334031   -114.04187    29426.282    4.3044428    4.3044428    4.3044428    29426.282     42545.71   -7585.2709    53318.406   -5967.0727    3192.8147   -3316.9943    79.753695 
   18700    698.87613   -114.68616   0.63235781    -114.0538   -17586.429    4.3316844    4.3316844    4.3316844   -17586.429   -9648.8232   -55285.409    12174.946    10489.758    1956.5254    2694.2796    81.277516 
   18800    567.99468   -114.56138   0.51393352   -114.04744   -16396.382    4.3290935    4.3290935    4.3290935   -16396.382   -28631.979   -30692.711    10135.544   -2181.0961   -20399.596    -2310.499     81.13176 
   18900    932.63767   -114.88033   0.84387016   -114.03646     26164.87    4.3059508    4.3059508    4.3059508     26164.87    28160.321    21969.182    28365.107   -6966.8172   -3966.2109   -138.95247    79.837546 
   19000    919.46837   -114.87693   0.83195431   -114.04498   -22710.055    4.3324699    4.3324699    4.3324699   -22710.055   -3017.8269   -50936.835   -14175.504    13499.238   -663.95759   -5745.9248    81.321738 
   19100    668.84174   -114.65505   0.60518206   -114.04987   -6606.6274    4.3188261    4.3188261    4.3188261   -6606.6274    4815.2376    -20138.35   -4496.7696    6349.3231   -20957.603    3551.4699    80.555861 
   19200    938.56441   -114.89878    0.8492328   -114.04955    14952.547    4.3120005    4.3120005    4.3120005    14952.547    23564.402    7583.6575    13709.582   -4993.4533   -10022.873    3818.7613    80.174526 
   19300    1059.0788    -115.0066   0.95827677   -114.04832   -12394.268    4.3320151    4.3320151    4.3320151   -12394.268    5145.8588   -32832.241   -9496.4215    7878.2137    7428.8387   -6431.9416    81.296135 
   19400    801.98149   -114.77508   0.72564971   -114.04943     16416.62    4.3111892    4.3111892    4.3111892     16416.62    21581.213   -3743.7136     31412.36    5916.1452    2426.7178   -1202.4626    80.129284 
   19500    825.74972   -114.80453    0.7471557   -114.05738    8853.7245    4.3211265    4.3211265    4.3211265    8853.7245   -14829.263    10229.716     31160.72   -5181.5599   -14281.406    5386.7222    80.684654 
   19600    1207.4159   -115.13697    1.0924953   -114.04447    -10351.21    4.3292638    4.3292638    4.3292638    -10351.21   -9705.2946   -20224.469   -1123.8665    6661.1956    2242.6826   -5915.8668    81.141334 
   19700    987.72343   -114.93579   0.89371291   -114.04207    9756.9132    4.3138177    4.3138177    4.3138177    9756.9132   -5967.8779   -7027.1359    42265.753    20349.995    2269.7533   -4216.9018    80.275931 
   19800    1086.9816   -115.03066   0.98352376   -114.04713   -11486.223    4.3209043    4.3209043    4.3209043   -11486.223   -29571.276    21634.476   -26521.869    605.20798   -28804.804    5876.4271    80.672211 
   19900    1225.7941   -115.15586    1.1091242   -114.04673    -1593.634    4.3177078    4.3177078    4.3177078    -1593.634   -21564.254    6891.4765    9891.8751   -3856.7782   -9873.9974   -9058.6737    80.493305 
   20000    1048.3065   -115.00048   0.94852974   -114.05196   -15054.146    4.3267014    4.3267014    4.3267014   -15054.146   -29830.567   -25035.331    9703.4594    12672.245    1602.2116   -1237.2495    80.997345 
   20100    953.99286   -114.91526   0.86319279   -114.05207   -8352.6397    4.3228895    4.3228895    4.3228895   -8352.6397   -15291.845     1253.391   -11019.465    -300.2616   -222.50148   -2137.4972    80.783452 
   20200    1050.9904   -114.99613   0.95095821   -114.04517    25737.054    4.3058532    4.3058532    4.3058532    25737.054     2667.219    17196.425    57347.519    4080.9027    -8229.152    1941.5549    79.832118 
   20300    864.26328   -114.83746   0.78200358   -114.05546   -19954.338    4.3350218    4.3350218    4.3350218   -19954.338   -17419.317   -40024.595   -2419.1007    19723.463    6774.2569   -6459.9591    81.465524 
   20400    741.20239   -114.72029    0.6706555   -114.04963   -4394.0619    4.3261635    4.3261635    4.3261635   -4394.0619    405.49051   -11037.572   -2550.1039   -3334.5845    11329.904   -9009.3428    80.967136 
   20500    1098.9475   -115.03176   0.99435084   -114.03741    21255.362    4.3008713    4.3008713    4.3008713    21255.362    32056.968    19739.007    11970.111    -2612.241   -8151.2568    8615.8004    79.555343 
   20600    743.48997   -114.72564   0.67272535   -114.05292   -21165.007    4.3288748    4.3288748    4.3288748   -21165.007   -5905.3002   -47231.643   -10358.079    15661.815   -1073.1027   -16067.999    81.119462 
   20700    700.94644   -114.68534   0.63423107   -114.05111   -7488.8156    4.3209613    4.3209613    4.3209613   -7488.8156    9469.3696   -12109.091   -19826.726    7997.8893    1793.3846   -12618.806    80.675402 
   20800    967.93231   -114.91939   0.87580549   -114.04359    9382.5408    4.3161148    4.3161148    4.3161148    9382.5408    3960.0903      16766.7     7420.832    3200.4392    8042.6035    5769.3884    80.404245 
   20900    847.27476   -114.81308   0.76663201   -114.04645   -10148.033    4.3258198    4.3258198    4.3258198   -10148.033   -2232.9991   -16868.086   -11343.015    9985.8163   -7850.0356   -323.30021    80.947839 
   21000    586.84746      -114.58   0.53099192   -114.04901    14394.617    4.3083371    4.3083371    4.3083371    14394.617    6558.1197     12729.67    23896.061    11566.641   -4299.6905   -9669.4511    79.970356 
   21100    838.88722   -114.81476   0.75904279   -114.05572   -6918.0327    4.3227188    4.3227188    4.3227188   -6918.0327   -10028.089   -8444.0575   -2281.9518   -5504.3872    16961.313   -6090.9444    80.773884 
   21200    996.85061   -114.94953   0.90197138   -114.04756    -6546.043    4.3262035    4.3262035    4.3262035    -6546.043   -9751.1526    7396.2138    -17283.19    -3271.104    4370.5887    705.97917    80.969385 
   21300    793.27891   -114.76353   0.71777543   -114.04576     7979.535    4.3099282    4.3099282    4.3099282     7979.535    23107.207   -16843.866    17675.264    13771.551   -3544.1434   -4495.5718    80.058991 
   21400     661.5598   -114.65247   0.59859321   -114.05387   -15863.973    4.3272925    4.3272925    4.3272925   -15863.973   -9087.3975   -26934.358   -11570.163   -7347.2626    13190.422    616.22457    81.030545 
   21500    956.18686    -114.9091   0.86517797   -114.04393   -10201.689    4.3268277    4.3268277    4.3268277   -10201.689   -7882.9571    1201.7111    -23923.82   -2530.9007    12591.691   -2132.6549    81.004436 
   21600    818.11988   -114.78257   0.74025206   -114.04232    15241.261    4.3105681    4.3105681    4.3105681    15241.261    28101.291      12819.4    4803.0907    5281.8226   -5299.6723   -3593.7366    80.094656 
   21700    482.22117   -114.49068   0.43632385   -114.05436   -9301.8343    4.3223566    4.3223566    4.3223566   -9301.8343    3794.3545   -13238.012   -18461.846    9806.3553    13439.481   -6033.6885     80.75358 
   21800    666.81481   -114.65311   0.60334805   -114.04976   -2751.6612    4.3262372    4.3262372    4.3262372   -2751.6612    362.17289    10998.452   -19615.608   -49.286982    19012.239    3093.6651    80.971277 
   21900    938.47322   -114.89202   0.84915029   -114.04287    8917.9342    4.3162861    4.3162861    4.3162861    8917.9342    14141.396    14079.502   -1467.0953    2949.8787   -10578.953   -179.25546    80.413815 
   22000    533.29902   -114.53426   0.48254016   -114.05172   -5585.0824     4.314262     4.314262     4.314262   -5585.0824    19863.322   -25880.251   -10738.318    16929.507    9352.5004    -14067.02    80.300741 
   22100    434.90863   -114.45006   0.39351447   -114.05655   -4617.6291    4.3186967    4.3186967    4.3186967   -4617.6291     4263.932    1901.6218   -20018.441    1722.3968    27281.742   -7153.0789    80.548624 
   22200    1081.3544   -115.02495   0.97843217   -114.04652   -8290.5863    4.3268611    4.3268611    4.3268611   -8290.5863    -1483.581   -17419.866   -5968.3116   -41.953509   -4139.7324    859.61706    81.006312 
   22300    751.40388   -114.72727   0.67988602   -114.04738   -5065.5808    4.3203102    4.3203102    4.3203102   -5065.5808    3194.8995   -15022.593   -3369.0489    9094.6684     5432.411   -9831.9002    80.638938 
   22400    350.72816   -114.36584   0.31734621    -114.0485     6736.108    4.3094744    4.3094744    4.3094744     6736.108      13514.7    3842.1196    2851.5042    5080.6813    27587.286   -8574.7985    80.033706 
   22500    995.69183    -114.9507   0.90092289   -114.04978   -19830.902    4.3275824    4.3275824    4.3275824   -19830.902   -14534.453   -25463.413   -19494.841   -3742.6615   -2007.2911    6015.4781     81.04683 
   22600    841.00737   -114.81095   0.76096114   -114.04999    -6592.294    4.3234859    4.3234859    4.3234859    -6592.294   -9428.9297    -5770.527   -4577.4253   -5439.4108   -5534.2583    3395.9186    80.816892 
   22700    377.16847   -114.39317   0.34126996    -114.0519    17129.705    4.3026111    4.3026111    4.3026111    17129.705     10019.84    21938.521    19430.755    8726.2517    30426.165   -7449.8649    79.651927 
   22800    696.51291   -114.68728   0.63021952   -114.05706    -19587.28    4.3296197    4.3296197    4.3296197    -19587.28   -17558.329   -3678.0142   -37525.496    1706.9322    7545.8447    2465.4677    81.161346 
   22900    929.64299   -114.88347   0.84116052   -114.04231   -12209.452    4.3287198    4.3287198    4.3287198   -12209.452   -887.90718   -15091.701   -20648.746   -7564.5561   -14551.959    2874.8442    81.110752 
   23000     437.8188   -114.44041   0.39614765   -114.04426    12170.357    4.3051402    4.3051402    4.3051402    12170.357    18530.492    18804.554   -823.97563    6319.1806    21570.842   -192.39711    79.792471 
   23100    596.56954    -114.5942   0.53978865   -114.05441   -10096.069    4.3216526    4.3216526    4.3216526   -10096.069   -13365.732    7824.2393   -24746.714    7456.5218    21225.577   -1740.7883    80.714126 
   23200    1017.5376    -114.9695   0.92068942   -114.04881   -1877.1889    4.3244431    4.3244431    4.3244431   -1877.1889    24934.037   -12614.205   -17951.399   -2352.1055   -6450.9639   -2244.8244    80.870582 
   23300    757.76994   -114.73838   0.68564617   -114.05274    5960.7249    4.3134443    4.3134443    4.3134443    5960.7249    17450.241    24475.208   -24043.274     2373.621    11206.163   -2476.1771    80.255091 
   23400     412.8049   -114.43259   0.37351455   -114.05908   -1406.6655     4.320843     4.320843     4.320843   -1406.6655    -7138.338    10815.225   -7896.8839    3138.1196    23739.252    -10830.03    80.668772 
   23500    946.57655   -114.90711   0.85648235   -114.05063    3737.1649    4.3217074    4.3217074    4.3217074    3737.1649    19668.634   -14943.588    6486.4486    3561.8654   -8528.4855   -1888.5599    80.717197 
   23600    932.66652   -114.89227   0.84389627   -114.04837   -1957.8296    4.3216028    4.3216028    4.3216028   -1957.8296   -854.28549    11844.819   -16864.022   -3681.9218    10258.924    668.68027     80.71134 
   23700    500.58636   -114.50789   0.45294106   -114.05494   -1173.6163    4.3151567    4.3151567    4.3151567   -1173.6163   -10886.522    17294.104   -9928.4306   -7648.4128    29535.093    -6978.783    80.350711 
   23800    738.66983   -114.72331   0.66836398   -114.05495    4415.1276    4.3145438    4.3145438    4.3145438    4415.1276   -4614.1762    11088.435    6771.1239    10955.928   -1995.1028   -15011.725    80.316478 
   23900    985.20132   -114.94124   0.89143086   -114.04981   -13435.014    4.3291326    4.3291326    4.3291326   -13435.014   -22343.311   -10820.239   -7141.4919    3314.3278   -2117.2397   -3306.9496    81.133957 
   24000    758.87018   -114.73628   0.68664169   -114.04964    -5520.798    4.3173269    4.3173269    4.3173269    -5520.798   -15175.243    16800.565   -18187.716    -254.2113    30085.656   -381.76352    80.472004 
   24100    777.71281   -114.75292    0.7036909   -114.04923   -783.43571    4.3118322    4.3118322    4.3118322   -783.43571   -13790.949    22678.625   -11237.983    5228.5395    8314.4132   -6910.7649     80.16514 
   24200    869.38165   -114.83475   0.78663478   -114.04812   -21326.401    4.3297215    4.3297215    4.3297215   -21326.401   -30843.992   -25695.957   -7439.2537     1946.829   -2426.8129   -8829.6924    81.167075 
   24300    928.15118   -114.88638   0.83981069   -114.04657   -7809.7177    4.3144731    4.3144731    4.3144731   -7809.7177   -28743.158    13810.539    -8496.535    2451.3189    24890.212    1781.9437    80.312526 
   24400    914.98001   -114.87629   0.82789314    -114.0484    368.71229    4.3129555    4.3129555    4.3129555    368.71229    7752.1521    4020.3188   -10666.334   -575.08025    3292.0647      2499.86    80.227807 
   24500    815.48138   -114.78739   0.73786469   -114.04953   -22162.848    4.3301725    4.3301725    4.3301725   -22162.848   -22149.388   -27255.084   -17084.072    5266.9884    -4986.406    -13072.31    81.192439 
   24600    921.78999   -114.87942   0.83405496   -114.04537   -3969.0134    4.3173853    4.3173853    4.3173853   -3969.0134   -12969.968    10481.595   -9418.6672    883.83535    20878.024    4286.1496    80.475267 
   24700     865.6681   -114.82969   0.78327469   -114.04642    3557.9041    4.3230342    4.3230342    4.3230342    3557.9041   -6797.5847    29960.148   -12488.851   -10373.205    11667.485    2438.5208    80.791562 
   24800    822.54657   -114.79189   0.74425742   -114.04764   -127.52333    4.3256563    4.3256563    4.3256563   -127.52333   -4523.5204    18785.494   -14644.543    751.91893   -11937.451   -5292.2513    80.938663 
   24900    732.90073   -114.71109   0.66314398   -114.04795    19315.165    4.3167393    4.3167393    4.3167393    19315.165    9642.0826    53015.373   -4711.9598   -8026.1619    3209.9764   -3017.0965     80.43915 
   25000    1016.2541   -114.96455   0.91952807   -114.04502    3349.8829    4.3322847    4.3322847    4.3322847    3349.8829   -7483.4015    36037.066   -18504.016   -8404.8912    9025.3532    4134.8323    81.311313 
   25100    959.70824   -114.90932   0.86836419   -114.04096    2431.5477    4.3251575    4.3251575    4.3251575    2431.5477   -5010.5456    29596.772   -17291.583   -53.457763   -7887.2541   -3111.7536    80.910667 
   25200    818.21548   -114.78281   0.74033856   -114.04247    15530.123    4.3107578    4.3107578    4.3107578    15530.123    34851.913    23595.039   -11856.583   -2077.8059    5416.7323   -18553.234    80.105228 
   25300    1179.0909   -115.11373    1.0668662   -114.04686   -3891.3452     4.330494     4.330494     4.330494   -3891.3452     5372.027   -3194.0295   -13852.033    1577.5176    9670.6487    -3148.803    81.210526 
   25400    1276.2784   -115.19914    1.1548035   -114.04434    -6017.955    4.3242158    4.3242158    4.3242158    -6017.955    12802.599   -8777.1381   -22079.326    1812.3144    -16207.25    1329.7186     80.85783 
   25500    951.79563   -114.90737   0.86120469   -114.04616    7687.1449    4.3097504    4.3097504    4.3097504    7687.1449    33476.832   -5176.7698    -5238.627    6868.2163   -9296.0607   -11781.202    80.049081 
   25600    1346.5611     -115.267    1.2183968    -114.0486    -20929.47    4.3318072    4.3318072    4.3318072    -20929.47   -15717.737    -24337.43   -22733.244    5946.6138    5352.8169   -11875.375    81.284431 
   25700    1434.1652   -115.33999    1.2976628   -114.04232   -10199.764    4.3262025    4.3262025    4.3262025   -10199.764   -54.509206   -13174.462   -17370.321    5614.6123   -5418.6794    11432.667    80.969326 
   25800    1066.9965   -115.00815   0.96544089   -114.04271    6991.7906    4.3087335    4.3087335    4.3087335    6991.7906    26594.664    2100.8478   -7720.1395    8874.8664    -11773.68    -15764.69     79.99243 
   25900    1231.0972   -115.16185    1.1139227   -114.04793   -14517.821    4.3311997    4.3311997    4.3311997   -14517.821   -6880.6918    -14359.35   -22313.422    8452.0297   -3024.9359   -18467.888    81.250237 
   26000    1454.6291     -115.357     1.316179   -114.04082   -1450.6155    4.3248469    4.3248469    4.3248469   -1450.6155    5488.8738   -3108.2548   -6732.4656    2019.7501   -4936.3235    13172.763    80.893235 
   26100    1102.5878    -115.0413    0.9976446   -114.04365    12313.447    4.3066099    4.3066099    4.3066099    12313.447    43707.867    10894.821   -17662.347    1593.5491   -11220.293   -3804.0534    79.874215 
   26200    932.01051   -114.89816    0.8433027   -114.05485   -3989.9905    4.3275171    4.3275171    4.3275171   -3989.9905    18988.112   -8076.8792   -22881.204    5968.2269     -10501.1   -16666.708    81.043163 
   26300     1307.432   -115.22599     1.182992     -114.043    2272.4849    4.3282741    4.3282741    4.3282741    2272.4849    21649.215   -1716.3291   -13115.431    1092.9941    5484.1431    3352.7739      81.0857 
   26400    1136.7147   -115.07117    1.0285234   -114.04265    7177.0391    4.3141835    4.3141835    4.3141835    7177.0391    37646.075    366.60561   -16481.563   -10129.271    2851.7031    -1519.528    80.296358 
   26500    733.12025   -114.71676   0.66334261   -114.05342    3675.0282    4.3218282    4.3218282    4.3218282    3675.0282    32265.595    3018.7128   -24259.224    -3920.868   -14492.335   -15709.054     80.72397 
   26600    1182.9093   -115.11862    1.0703212    -114.0483    1864.7577    4.3236785    4.3236785    4.3236785    1864.7577    12375.243   -4212.2183   -2568.7515    4334.4514    7067.7992    1529.1573    80.827691 
   26700    1125.9085   -115.06573    1.0187457   -114.04698    6846.8435    4.3202379    4.3202379    4.3202379    6846.8435    32054.322    -603.5078   -10910.283    2608.6303    8121.8921    12468.393    80.634886 
   26800    883.62851   -114.85052   0.79952564     -114.051    -1232.941    4.3209386    4.3209386    4.3209386    -1232.941     16893.12    3730.8407   -24322.784    -5781.406   -5114.2046   -19086.509    80.674127 
   26900     1064.987   -115.01301   0.96362263   -114.04939   -1394.2998    4.3185935    4.3185935    4.3185935   -1394.2998    4595.7829    2417.9105   -11196.593    215.61659    5658.4475   -7822.8939    80.542847 
   27000     1025.974   -114.97862   0.92832288    -114.0503    6130.8841     4.317726     4.317726     4.317726    6130.8841     19084.95    5998.6206   -6690.9188    8827.9479    4476.3212    7861.8023    80.494322 
   27100    1058.7689    -115.0082   0.95799637    -114.0502   -6780.0106    4.3197929    4.3197929    4.3197929   -6780.0106    7867.6511   -515.37457   -27692.308    1764.8181   -5654.7749   -10405.532    80.609974 
   27200    1022.9072   -114.97547   0.92554797   -114.04992     3871.437    4.3158675    4.3158675    4.3158675     3871.437    36276.182   -9531.2154   -15130.655    4680.0693   -9106.8038   -7144.7195    80.390423 
   27300    904.61564   -114.87108   0.81851524   -114.05256    1481.1008    4.3176468    4.3176468    4.3176468    1481.1008    18061.145   -901.07898   -12716.764    10643.989    15869.397    4015.2959    80.489888 
   27400    903.12636   -114.87128   0.81716771   -114.05411   -10326.543     4.318723     4.318723     4.318723   -10326.543    6902.9278   -11912.961   -25969.597   -1864.1551    17896.997   -8052.9824    80.550093 
   27500    1093.5826    -115.0392   0.98949654    -114.0497    2818.4652    4.3129943    4.3129943    4.3129943    2818.4652    39397.853    -12367.57   -18574.887   -1851.6732   -12065.605   -17836.702    80.229973 
   27600    965.44297   -114.92783   0.87355309   -114.05428   -15737.574    4.3222441    4.3222441    4.3222441   -15737.574   -20165.839   -4540.3883   -22506.494    5259.4151    14074.077    344.78681    80.747273 
   27700    614.90512   -114.61415   0.55637907   -114.05777   -12887.036    4.3169195    4.3169195    4.3169195   -12887.036   -12961.008    652.14611   -26352.246    2875.9914     21172.05     552.8141    80.449224 
   27800    903.29499   -114.86962   0.81732029    -114.0523    2284.1673    4.3150927    4.3150927    4.3150927    2284.1673    16051.199    3633.5568   -12832.254   -463.38399   -7756.5024   -13099.438    80.347133 
   27900    738.50698   -114.71654   0.66821664   -114.04833   -12631.873    4.3320808    4.3320808    4.3320808   -12631.873     3918.387    -9714.093   -32099.912    5769.0821    10571.551    1182.8791    81.299834 
   28000       522.54   -114.52459   0.47280518   -114.05178   -8106.4455    4.3114861    4.3114861    4.3114861   -8106.4455   -19309.721    3498.7484   -8508.3641     17974.98    20136.572   -633.81596    80.145839 
   28100    500.34941   -114.50792   0.45272666   -114.05519    10367.912    4.3111609    4.3111609    4.3111609    10367.912    26174.109    9017.5002   -4087.8737    4037.7069   -4536.9954   -13016.138    80.127705 
   28200    965.37468   -114.92133    0.8734913   -114.04784   -21858.868    4.3313126    4.3313126    4.3313126   -21858.868   -27429.602   -11848.083   -26298.919   -4174.2504   -2462.5279   -4707.0234    81.256591 
   28300    630.18307   -114.62036   0.57020288   -114.05016    4841.4404    4.3116829    4.3116829    4.3116829    4841.4404   -9059.2644    23942.743   -359.15737    1234.1445    15564.859     4071.039    80.156812 
   28400     459.6393   -114.47093    0.4158913   -114.05504    3135.3908    4.3147117    4.3147117    4.3147117    3135.3908    11261.585    3367.0825   -5222.4947    5860.3955    7541.1674   -9993.8192    80.325855 
   28500    699.66007   -114.68504   0.63306714   -114.05197   -11492.435    4.3252861    4.3252861    4.3252861   -11492.435   -3364.2112   -10833.255   -20279.838   -4653.5865   -8074.7969     -11096.7    80.917882 
   28600    881.01375   -114.84339   0.79715976   -114.04623    16255.716    4.3079334    4.3079334    4.3079334    16255.716    15578.451    29938.457    3250.2414   -5253.6503     3270.683    7069.3674    79.947877 
   28700    709.17783   -114.69653     0.641679   -114.05485   -23566.027     4.326449     4.326449     4.326449   -23566.027    -28908.31   -22685.925   -19103.846    7639.2667    10850.306   -10550.334    80.983167 
   28800    746.09623   -114.72947   0.67508355   -114.05439   -12850.725    4.3153342    4.3153342    4.3153342   -12850.725   -12193.945   -14043.435   -12314.793     13712.42   -8945.0326   -14053.106    80.360627 
   28900    1119.3516   -115.06266    1.0128128   -114.04985    12497.088     4.305704     4.305704     4.305704    12497.088   -1974.9439    35116.556    4349.6515   -3575.8495    -9624.573    3962.0099    79.823822 
   29000    1072.7993    -115.0196   0.97069137   -114.04891   -25801.436    4.3345545    4.3345545    4.3345545   -25801.436   -13181.651   -25723.565   -38499.093    3565.0552    17393.992   -5530.3315    81.439184 
   29100    866.76775   -114.84074   0.78426968   -114.05647    10579.122    4.3036215    4.3036215    4.3036215    10579.122    21982.408    14862.402   -5107.4444     8338.416   -3867.9337    -9199.264    79.708054 
   29200     908.8617   -114.88757   0.82235716   -114.06521    14038.527    4.3074577    4.3074577    4.3074577    14038.527    24231.494    38321.116   -20437.029    5914.3893   -28793.007   -8453.5171    79.921398 
   29300    1356.5066   -115.27684    1.2273957   -114.04944   -13368.147    4.3326996    4.3326996    4.3326996   -13368.147    705.58762   -5722.9698   -35087.059   -1934.1615   -7264.1879    4402.5057    81.334676 
   29400    1050.7267   -114.99786    0.9507196   -114.04714      31748.4    4.3011384    4.3011384    4.3011384      31748.4    49595.762    43534.555    2114.8819    2371.5344    4869.0861   -5991.1417    79.570162 
   29500    857.62794    -114.8358   0.77599978    -114.0598   -23890.328    4.3197756    4.3197756    4.3197756   -23890.328   -25479.434   -6908.6487   -39282.902    5618.0437   -22430.765   -10724.635    80.609003 
   29600    1131.9218   -115.07425    1.0241866   -114.05007   -9578.3501    4.3225802    4.3225802    4.3225802   -9578.3501   -11089.797    15523.642   -33168.896    -11445.74   -13720.143    5892.6316    80.766113 
   29700    1460.5473   -115.36459    1.3215339   -114.04306    13366.117    4.3041405    4.3041405    4.3041405    13366.117    30240.179    7201.5096    2656.6621    10902.736    8046.1818   -5934.7597    79.736895 
   29800    770.41271   -114.75662   0.69708561   -114.05953    -24148.14    4.3243647    4.3243647    4.3243647    -24148.14   -12401.157   -21436.978   -38606.285    15499.259   -25686.786   -12742.831    80.866183 
   29900    767.97727   -114.75331   0.69488197   -114.05843    4582.9689    4.3110333    4.3110333    4.3110333    4582.9689    32174.922   -305.87541    -18120.14    -4032.933   -21440.236    3538.2659    80.120586 
   30000    1235.8782   -115.17258    1.1182485   -114.05433     9090.381    4.3144506    4.3144506    4.3144506     9090.381    37035.411   -3293.0881   -6471.1794   -7703.8484    17274.177    6335.2722     80.31127 
   30100    891.63375   -114.86351   0.80676896   -114.05675   -2232.5568    4.3212987    4.3212987    4.3212987   -2232.5568    4447.9872    719.61417   -11865.272    240.08882     749.2772   -5886.0602    80.694302 
   30200    618.98191   -114.61576   0.56006784   -114.05569    12275.428    4.3098999    4.3098999    4.3098999    12275.428    37537.209    4112.8323   -4823.7566      8764.69   -25020.248    950.88058    80.057415 
   30300     947.0233   -114.90928   0.85688658    -114.0524   -13812.929    4.3211817    4.3211817    4.3211817   -13812.929   -19674.954   -11650.095   -10113.738   -1848.0441   -2553.9827    2262.5189    80.687746 
   30400    855.72478   -114.82426   0.77427777   -114.04998    1688.0341     4.313162     4.313162     4.313162    1688.0341   -3190.4189    7726.2561    528.26495   -5585.9776    13930.249    -2665.943    80.239333 
   30500    552.46029   -114.55704   0.49987768   -114.05716    5004.5876    4.3156074    4.3156074    4.3156074    5004.5876    16252.631    15333.498   -16572.366    6829.4517     -23824.1   -2260.5925    80.375891 
   30600    649.44422   -114.64047   0.58763078   -114.05284   -7069.2813    4.3257478    4.3257478    4.3257478   -7069.2813    6989.2139   -7976.2237   -20220.834    11360.627   -16107.948    339.13429    80.943797 
   30700    792.38366   -114.76278   0.71696539   -114.04581     6398.205    4.3134319    4.3134319    4.3134319     6398.205    30960.837    -9312.867   -2453.3554    2973.9475    21522.316    338.25518    80.254395 
   30800    588.51881   -114.58677   0.53250419   -114.05426   -11251.157    4.3207374    4.3207374    4.3207374   -11251.157    618.68837   -9614.0611   -24758.097    2723.2903   -9171.2451   -9153.9241    80.662863 
   30900    720.99619   -114.70356    0.6523725   -114.05118    -7790.791    4.3197541    4.3197541    4.3197541    -7790.791   -14417.563     9661.779   -18616.589     6323.944   -27278.579   -3113.2365      80.6078 
   31000    1067.7664   -115.01076   0.96613748   -114.04462    1210.7259    4.3134221    4.3134221    4.3134221    1210.7259   -5628.1368     4423.715    4836.5994    3436.5413    17187.302    6211.2773     80.25385 
   31100    727.40341   -114.70765   0.65816989   -114.04948   -26134.195    4.3306268    4.3306268    4.3306268   -26134.195   -28068.331   -17115.084   -33219.169    504.87655    6722.1084   -3232.4381    81.217996 
   31200    621.80878   -114.61525   0.56262566   -114.05263    1414.9277    4.3075636    4.3075636    4.3075636    1414.9277   -8866.8649    18396.453   -5284.8054    -557.8306   -23698.007   -2402.0834    79.927289 
   31300    912.77635   -114.88073   0.82589922   -114.05483    19483.687      4.30485      4.30485      4.30485    19483.687    29913.341    9855.7799    18681.942     6417.142   -6054.8462    749.99236     79.77633 
   31400    851.30397   -114.82176   0.77027772   -114.05148   -20605.158    4.3350734    4.3350734    4.3350734   -20605.158   -34173.426   -10016.092   -17625.955    1133.0898    16093.653   -8692.8949    81.468434 
   31500    592.86281   -114.58978   0.53643473   -114.05335    15511.412    4.3026082    4.3026082    4.3026082    15511.412   -5716.3736    44172.442    8078.1682   -4151.4958   -15641.404   -2788.1595    79.651764 
   31600    727.29822   -114.71753   0.65807471   -114.05946    11391.845    4.3118174    4.3118174    4.3118174    11391.845   -11613.976    2058.8151    43730.697    9217.7126   -22437.936    4429.9414    80.164312 
   31700    1091.0867   -115.03068   0.98723816   -114.04345   -18204.984    4.3327092    4.3327092    4.3327092   -18204.984   -37706.145   -24380.825    7472.0181    5781.3464    6748.7949   -463.33249    81.335217 
   31800    872.37947   -114.83231   0.78934728   -114.04296    21866.623    4.2988513    4.2988513    4.2988513    21866.623   -5683.1715    43985.573    27297.467   -5901.5257   -1300.5359   -9890.8682    79.443301 
   31900    604.53182   -114.60984   0.54699309   -114.06284   -21561.469    4.3190683    4.3190683    4.3190683   -21561.469   -47797.326   -12249.118   -4637.9632      10675.5   -22628.236   -9661.3283    80.569414 
   32000    929.37903   -114.89353   0.84092167   -114.05261    -16354.65    4.3246343    4.3246343    4.3246343    -16354.65   -37057.827   -19828.342    7822.2201    15345.524   -4999.1987    2007.6823    80.881309 
   32100      1373.06   -115.28452    1.2423736   -114.04215    9817.4292     4.304039     4.304039     4.304039    9817.4292    8484.9564    15157.167    5810.1647   -2813.0948    4680.3383   -4402.4422    79.731251 
   32200    767.96374   -114.74788   0.69486973   -114.05301   -28312.741    4.3256806    4.3256806    4.3256806   -28312.741    -38502.66   -10419.704   -36015.858     7162.988   -21874.152   -6972.7364    80.940028 
   32300    661.58604   -114.65238   0.59861695   -114.05376   -8113.2385    4.3152798    4.3152798    4.3152798   -8113.2385   -34257.062   -11622.769    21540.115    17517.506   -6026.7228   -2725.7672    80.357585 
   32400    1187.1734   -115.12445    1.0741795   -114.05027    10300.089    4.3090478    4.3090478    4.3090478    10300.089    7286.3982    14202.844    9411.0241   -5777.9049    9557.8247   -627.80229    80.009938 
   32500    1144.2642   -115.08869    1.0353543   -114.05334   -15236.615    4.3216991    4.3216991    4.3216991   -15236.615   -18309.384    2289.3075   -29689.769   -2305.4279   -5685.7456   -4254.6038    80.716733 
   32600    619.22418   -114.61841   0.56028705   -114.05812    1709.6584    4.3113155    4.3113155    4.3113155    1709.6584   -8594.1739    3858.2668    9864.8822    24018.366   -15537.115   -2472.2164    80.136323 
   32700    776.41258    -114.7622   0.70251442   -114.05969   -6994.5172    4.3199517    4.3199517    4.3199517   -6994.5172   -4759.7123   -6663.7938   -9560.0453    6229.0504    4187.7248    2918.5422    80.618865 
   32800    1112.1193   -115.05698    1.0062689   -114.05071    237.78368    4.3165297    4.3165297    4.3165297    237.78368    4334.5307    8120.4354   -11741.615   -8612.7561    10722.714    20.325204    80.427434 
   32900    769.53475   -114.74864   0.69629121   -114.05235    8862.3648    4.3097351    4.3097351    4.3097351    8862.3648    28184.483    544.18172   -2141.5701    14843.766   -8463.1364    498.83595    80.048229 
   33000    529.89167   -114.53672   0.47945712   -114.05726   -7384.3133     4.325964     4.325964     4.325964   -7384.3133   -16354.802   -12826.904    7028.7665    18094.139   -11243.313   -1395.3656    80.955937 
   33100    967.52429   -114.92324   0.87543631    -114.0478    11113.107    4.3135706    4.3135706    4.3135706    11113.107     9270.187    5669.8498    18399.283   -4984.9904    5198.5407    4588.2155    80.262138 
   33200    790.80722   -114.76683   0.71553899   -114.05129    9280.6213    4.3105506    4.3105506    4.3105506    9280.6213     4943.702    5863.0894    17035.073    6587.1798    -1281.483    2981.9784    80.093678 
   33300    514.18074   -114.52339   0.46524154   -114.05815   -12042.935    4.3231675    4.3231675    4.3231675   -12042.935   -32166.933   -14484.637    10522.766    28550.942   -15942.128   -2652.0551    80.799039 
   33400    973.74572   -114.93061   0.88106559   -114.04954    6315.4137    4.3131351    4.3131351    4.3131351    6315.4137   -3644.4423    11345.224     11245.46    266.00284   -2276.5203    492.34329    80.237834 
   33500    955.87701   -114.91447   0.86489761   -114.04957   -4254.9761    4.3156208    4.3156208    4.3156208   -4254.9761   -13140.674    189.34722    186.39823   -2214.9801    17027.028   -201.90161    80.376635 
   33600    663.16623   -114.65469   0.60004674   -114.05464   -15660.933    4.3177414    4.3177414    4.3177414   -15660.933   -30255.474   -10747.963   -5979.3612    32453.661   -4735.8372   -2180.8367     80.49518 
   33700    892.22081   -114.86396   0.80730013   -114.05666    4435.8133    4.3119217    4.3119217    4.3119217    4435.8133    894.97384    2894.5329    9517.9333    6649.7922   -20224.799    -3746.998    80.170133 
   33800    1263.1277   -115.19469    1.1429045   -114.05179   -451.41168    4.3151095    4.3151095    4.3151095   -451.41168   -283.56488    7220.8591   -8291.5293   -7322.1847     8492.024   -1064.5502    80.348073 
   33900    756.83574   -114.74191   0.68480089   -114.05711    6206.5091    4.3150766    4.3150766    4.3150766    6206.5091   -6130.3949   -5900.0078     30649.93    26049.487    15317.394   -932.85821    80.346235 
   34000    806.59356   -114.78639    0.7298228   -114.05657   -2671.6468    4.3179121    4.3179121    4.3179121   -2671.6468   -12039.481   -10448.376    14472.917    11640.832   -13866.379   -2525.3556    80.504728 
   34100    1249.1479    -115.1782    1.1302553   -114.04795    9470.2171    4.3109607    4.3109607    4.3109607    9470.2171   -433.64121    11142.319    17701.974   -6869.2743   -5298.5375   -2855.0686    80.116542 
   34200    964.27281   -114.92678    0.8724943   -114.05429    6329.4947     4.313133     4.313133     4.313133    6329.4947   -5675.3644   -8296.2802    32960.129    15589.638    12056.035   -3192.9884    80.237713 
   34300    813.84061   -114.79435   0.73638009   -114.05797   -18729.225    4.3204698    4.3204698    4.3204698   -18729.225   -34023.131   -13896.669   -8267.8769    25982.329    4296.7063    -5845.847    80.647875 
   34400    1194.0065   -115.13272    1.0803622   -114.05235      7307.33    4.3063265    4.3063265    4.3063265      7307.33    2226.2833    3581.3558    16114.351   -6244.3603    -10173.25     -1935.66    79.858448 
   34500    1144.3694   -115.09112    1.0354495   -114.05567    -12773.36     4.317396     4.317396     4.317396    -12773.36   -24921.003   -14148.901    749.82403   -3323.8742   -4535.7474    7243.5895    80.475865 
   34600    740.77956   -114.72814   0.67027291   -114.05787   -22774.886    4.3200638    4.3200638    4.3200638   -22774.886    -43018.74   -20606.562   -4699.3558     31805.78    17092.699   -5659.3252    80.625142 
   34700    1220.3733   -115.15604    1.1042194   -114.05182    10616.988    4.3049697    4.3049697    4.3049697    10616.988    3750.2297    19280.351    8820.3837    2481.8918   -338.30542   -8057.9587    79.782985 
   34800    1301.8951   -115.22741     1.177982   -114.04943   -8663.3714    4.3224483    4.3224483    4.3224483   -8663.3714   -15622.396   -13414.659    3046.9405   -7791.5347   -1096.1192   -497.53991    80.758717 
   34900     826.3077   -114.80776   0.74766057    -114.0601   -6165.6399    4.3119557    4.3119557    4.3119557   -6165.6399   -39141.007   -3292.5088    23936.596    22306.298    11393.146    9070.1839    80.172031 
   35000    859.08684   -114.83941   0.77731983   -114.06209    17362.251    4.3095061    4.3095061    4.3095061    17362.251   -13472.857    32459.034    33100.575    12481.885    9659.8842   -2824.7588    80.035473 
   35100    1524.9435   -115.42572     1.379801   -114.04592   -9008.6757    4.3287752    4.3287752    4.3287752   -9008.6757   -17392.694   -13645.746     4012.413   -7064.0157   -1479.3678   -2481.2487    81.113863 
   35200    874.10984    -114.8429   0.79091295   -114.05199    20632.979    4.3078141    4.3078141    4.3078141    20632.979   -13911.819    33134.842    42675.915    14145.034    3949.9423    1675.7243    79.941235 
   35300    753.69682   -114.74058   0.68196072   -114.05862    -2944.354    4.3139388    4.3139388    4.3139388    -2944.354    -28581.56   -4655.6707    24404.169    19386.028    22104.491    1251.2325    80.282696 
   35400    1290.1264   -115.21714    1.1673335    -114.0498   -4526.5717    4.3207056    4.3207056    4.3207056   -4526.5717   -14457.478   -1221.0065    2098.7691   -7560.2391    79.906494    2881.8661     80.66108 
   35500    1167.8597    -115.1055     1.056704    -114.0488    23164.742    4.3046518    4.3046518    4.3046518    23164.742    8284.6578    23820.575    37388.992      9777.09   -9822.8515   -8450.9277    79.765313 
   35600    717.61201    -114.7092   0.64931042   -114.05989   -7252.7674    4.3246024    4.3246024    4.3246024   -7252.7674   -16142.386   -27686.305    22070.388    21046.514    15232.897     -4987.35    80.879517 
   35700    1062.5284   -115.01249   0.96139802   -114.05109    -6026.978    4.3178716    4.3178716    4.3178716    -6026.978   -28293.376   -2232.8608    12445.303     40.60898    13058.925    3388.9323    80.502461 
   35800    1142.6288   -115.07696    1.0338746   -114.04308    23529.385    4.3008858    4.3008858    4.3008858    23529.385    2516.4212    35658.355    32413.379     1796.376   -13776.907   -6926.2878    79.556145 
   35900    854.02644   -114.82455   0.77274107   -114.05181    -9047.036    4.3257959    4.3257959    4.3257959    -9047.036   -38836.264   -7683.2865    19378.443    20685.696    413.86004   -1809.4296      80.9465 
   36000     893.6951   -114.85817   0.80863411   -114.04954    2680.9314    4.3177687    4.3177687    4.3177687    2680.9314    -24164.67    13957.107    18250.356    9768.4668    16943.772   -6802.3952    80.496706 
   36100    1004.7044   -114.95642   0.90907762   -114.04734    17935.056    4.3032765    4.3032765    4.3032765    17935.056   -13687.432    48635.364    18857.237   -9089.0733   -19102.511   -1705.0932    79.688887 
   36200    897.41983   -114.86407   0.81200432   -114.05207   -3045.8494     4.321301     4.321301     4.321301   -3045.8494   -29542.383    21391.146   -986.31133    9224.6386   -18618.244   -1256.3574    80.694431 
   36300    979.52445   -114.93358    0.8862943   -114.04729   -4217.0113    4.3208664    4.3208664    4.3208664   -4217.0113   -26381.078    5511.4731    8218.5712    12451.462    13892.917   -7109.5498    80.670083 
   36400    791.92081    -114.7658   0.71654659   -114.04925    4028.6009    4.3103776    4.3103776    4.3103776    4028.6009   -11340.797    31355.183   -7928.5838   -8153.1562   -9144.6516    1964.1908    80.084037 
   36500    965.22483   -114.92352   0.87335571   -114.05017   -2614.9303    4.3119517    4.3119517    4.3119517   -2614.9303   -15348.474    16510.931    -9007.248   -4566.0686   -24685.539    1594.4554    80.171803 
   36600    1027.6363   -114.97956   0.92982693   -114.04973   -7670.7588    4.3219176    4.3219176    4.3219176   -7670.7588   -14886.906   -10471.878    2346.5076    13890.364    9659.1498    6313.7947    80.728975 
   36700    829.25697   -114.80266   0.75032914   -114.05233   -13309.248    4.3158659    4.3158659    4.3158659   -13309.248   -27778.747     6268.636   -18417.633     6967.546    4288.8462    3672.5718    80.390333 
   36800     701.9828    -114.6881   0.63516879   -114.05293    4233.4014    4.3054833    4.3054833    4.3054833    4233.4014   -10120.727     26841.37   -4020.4394   -8128.7486   -25920.185    -1282.947    79.811546 
   36900    1090.1787   -115.03924   0.98641662   -114.05283   -3075.2779     4.319149     4.319149     4.319149   -3075.2779   -14611.138   -6439.3794    11824.684    4217.8089   -1841.0239    5843.9736     80.57393 
   37000    1068.7923   -115.01707   0.96706574      -114.05   -5810.1169    4.3194511    4.3194511    4.3194511   -5810.1169   -16048.366   -841.01176   -540.97258    6458.8036    10840.615   -509.43265    80.590839 
   37100    601.73075   -114.59747   0.54445862   -114.05301   -936.29363    4.3096628    4.3096628    4.3096628   -936.29363   -31455.679    37945.861   -9299.0625   -7211.5891   -22299.192   -2744.9335    80.044199 
   37200    947.76995   -114.91092   0.85756217   -114.05336   -6069.8685    4.3146577    4.3146577    4.3146577   -6069.8685   -17206.469   -1186.6301    183.49338   -8369.4856   -13875.054   -2015.6222     80.32284 
   37300    1414.7055   -115.32684    1.2800553   -114.04679   -2.2939052    4.3162198    4.3162198    4.3162198   -2.2939052   -10261.781   -2559.8182    12814.717    6588.4318    4638.9642    1740.6574    80.410113 
   37400    923.07443   -114.89054   0.83521715   -114.05532   -7873.1461    4.3155655    4.3155655    4.3155655   -7873.1461   -28442.716    23956.983   -19133.706    6665.3115   -19141.271    4356.3223    80.373548 
   37500    768.33612   -114.75491   0.69520666    -114.0597   -8033.7283    4.3081059    4.3081059    4.3081059   -8033.7283    -28323.38    19593.194   -15370.999   -16548.495    -14741.14   -5629.0704    79.957482 
   37600    1322.9684   -115.25303    1.1970496   -114.05598   -1908.2502    4.3171305    4.3171305    4.3171305   -1908.2502   -11183.788   -6269.0054    11728.043   -11318.451    5681.9359   -3871.3658    80.461018 
   37700    1302.6753   -115.22891     1.178688   -114.05023   -17137.769    4.3253813    4.3253813    4.3253813   -17137.769   -38963.137    7585.3638   -20035.534    4581.9088   -13730.686   -3117.5538    80.923225 
   37800    732.50796   -114.71714    0.6627886   -114.05435    11783.371    4.3022571    4.3022571    4.3022571    11783.371   -17283.989    55563.116   -2929.0154   -5309.5543   -16805.259    2970.8392    79.632268 
   37900    1069.9613   -115.02691   0.96812349   -114.05879     3592.918     4.313678     4.313678     4.313678     3592.918   -28509.523    20740.632    18547.645   -14321.877    7708.1546    3685.2221    80.268132 
   38000    1257.5422   -115.18739    1.1378506   -114.04954   -2596.9935    4.3250847    4.3250847    4.3250847   -2596.9935   -23794.779    20211.337   -4207.5387   -863.44535   -831.34961    3004.3891     80.90658 
   38100    934.99413   -114.89639   0.84600234   -114.05039    23241.503    4.3033914    4.3033914    4.3033914    23241.503   -13126.516    69776.121    13074.905   -7031.8867   -16496.919    4316.5404    79.695268 
   38200    867.53025     -114.842    0.7849596   -114.05704    650.80218    4.3164769    4.3164769    4.3164769    650.80218   -33491.086    32418.851    3024.6411   -17550.481    7580.7292    665.01952    80.424482 
   38300    1188.0237   -115.12391    1.0749488   -114.04896   -306.41205    4.3165341    4.3165341    4.3165341   -306.41205   -20868.192    14295.051    5653.9052    2031.0586    7443.4561    6761.1774    80.427679 
   38400    1062.5549   -115.01125     0.961422   -114.04983    10092.211    4.3062131    4.3062131    4.3062131    10092.211   -10235.326    31969.775    8542.1834    13281.323   -13701.922   -373.55379     79.85214 
   38500    936.64933   -114.90123       0.8475   -114.05373   -16304.207    4.3224403    4.3224403    4.3224403   -16304.207   -44494.117    20192.206    -24610.71   -13315.824    3899.4058    194.88135    80.758272 
   38600    1148.9716    -115.0892    1.0396137   -114.04959    4840.7135    4.3073849    4.3073849    4.3073849    4840.7135   -8389.1113    9404.2867    13506.965   -7657.9478    10832.541    41.322872    79.917343 
   38700    1103.3856   -115.05048    0.9983665   -114.05211    1466.1399    4.3090165    4.3090165    4.3090165    1466.1399   -18598.208    14543.142    8453.4852    25964.797   -9449.2102    1174.0398    80.008197 
   38800    861.92335   -114.83266   0.77988636   -114.05277   -23698.465    4.3263503    4.3263503    4.3263503   -23698.465    -52090.49    13758.763   -32763.669      2266.41   -4293.8265    3378.0596    80.977626 
   38900     1123.189   -115.06345     1.016285   -114.04717    7879.5469    4.3015426    4.3015426    4.3015426    7879.5469   -13397.798    34242.959    2793.4793   -9670.2325    12072.272   -8265.9444    79.592599 
   39000    956.03441   -114.91974   0.86504003    -114.0547    7624.8157    4.3115714    4.3115714    4.3115714    7624.8157   -12472.497    21925.578    13421.366    16409.776   -2796.9815    1812.9123    80.150595 
   39100    851.85954   -114.82411   0.77078042   -114.05333   -20482.561    4.3240205    4.3240205    4.3240205   -20482.561   -42598.323   -3642.9875   -15206.372    16603.537   -10842.406    313.55735    80.846874 
   39200    946.89184   -114.90382   0.85676764   -114.04706    18462.359    4.2989753    4.2989753    4.2989753    18462.359    451.29792    52045.145    2890.6345   -8821.8671    7791.8841   -1399.7489    79.450172 
   39300    1028.6962   -114.98488    0.9307859    -114.0541   -9479.3161    4.3176324    4.3176324    4.3176324   -9479.3161   -23106.022   -6337.4815    1005.5555    14114.517    5587.5166    3358.3729    80.489085 
   39400     844.8372   -114.81901   0.76442645   -114.05459   -15488.766    4.3188204    4.3188204    4.3188204   -15488.766    -24540.17   -29435.258    7509.1305    27560.197   -7092.6617   -763.32268    80.555546 
   39500    895.07255   -114.85786   0.80988045   -114.04798    15937.416    4.2987633    4.2987633    4.2987633    15937.416    2043.5778    36398.932    9369.7378   -6252.2068    4352.8698    2802.1974    79.438418 
   39600    958.91249   -114.91905   0.86764418   -114.05141   -21225.505    4.3238401    4.3238401    4.3238401   -21225.505   -33768.417   -14213.366   -15694.731    10569.762     10620.85    684.97983    80.836753 
   39700    967.01125   -114.92608    0.8749721   -114.05111   -7626.2227    4.3121874    4.3121874    4.3121874   -7626.2227    -19490.91   -20814.497    17426.739    34476.281   -2332.2064   -1047.8044    80.184951 
   39800      774.599   -114.75076   0.70087345   -114.04988    18924.026    4.3004894    4.3004894    4.3004894    18924.026    9823.1713    34323.958    12624.949     3752.355   -1793.0749     2556.269    79.534152 
   39900    838.38328   -114.81067   0.75858681   -114.05208    -22783.57     4.323931     4.323931     4.323931    -22783.57   -40615.075   -2669.3256    -25066.31   -8021.5398    8355.1756   -1854.8419    80.841851 
   40000    893.95256   -114.85836   0.80886706   -114.04949    15189.873    4.3059583    4.3059583    4.3059583    15189.873    11903.166    11488.985    22177.469    17449.579    2527.8915     3998.546    79.837964 
   40100    959.81255    -114.9211   0.86845857   -114.05264    4410.0221    4.3093572    4.3093572    4.3093572    4410.0221     729.2475    2506.3291    9994.4897     16074.55   -3733.6908   -799.56933    80.027175 
   40200    609.75792    -114.6092   0.55172178   -114.05748   -16458.273    4.3187622    4.3187622    4.3187622   -16458.273   -28036.337    190.51478   -21528.996   -5989.3334    1737.5773   -1443.5539    80.552288 
   40300    819.04489   -114.79349   0.74108903    -114.0524    16815.161    4.3013895    4.3013895    4.3013895    16815.161    10168.306    10421.012    29856.164   -2875.0737     5625.622   -3064.5845    79.584099 
   40400     1178.692   -115.11883    1.0665053   -114.05233   -7701.9713    4.3195702    4.3195702    4.3195702   -7701.9713    -2674.309   -31002.518    10570.913    8850.6098   -1763.3961   -167.84123     80.59751 
   40500    666.74465   -114.66288   0.60328457    -114.0596   -6098.4339    4.3125213    4.3125213    4.3125213   -6098.4339   -21877.694    -3258.642     6841.034   -23.263563    -4767.951    4071.9451    80.203582 
   40600    499.10851   -114.51016   0.45160387   -114.05855    12694.173    4.2986527    4.2986527    4.2986527    12694.173   -4408.6855     13330.04    29161.165    -6295.666    3843.4107    2161.9381     79.43229 
   40700    1218.5028   -115.15583    1.1025269   -114.05331   -19726.311    4.3242391    4.3242391    4.3242391   -19726.311    -21040.88   -39555.312    1417.2596    3684.3288     3572.338    664.43517    80.859137 
   40800    1029.3257   -114.98508    0.9313555   -114.05372    5939.7819    4.3099306    4.3099306    4.3099306    5939.7819    4132.0851   -11624.023    25311.283    1565.6418   -5334.0991    4381.4721    80.059126 
   40900    460.76665   -114.47721   0.41691134    -114.0603   -3801.3027    4.3032297    4.3032297    4.3032297   -3801.3027   -27522.927    15389.718    729.30061   -10124.368     1899.967    1271.0483    79.686286 
   41000    772.02886    -114.7566   0.69854794   -114.05805    -21259.26    4.3198775    4.3198775    4.3198775    -21259.26   -31488.821   -19924.612   -12364.349   -10918.745    8220.5569   -3106.0228    80.614711 
   41100    1259.2865   -115.18888    1.1394289   -114.04945    2896.4896    4.3081751    4.3081751    4.3081751    2896.4896    6134.7559   -21798.116    24352.829    5266.3665   -1094.8815   -6950.2699    79.961336 
   41200    717.87247   -114.70879    0.6495461   -114.05925    -2733.384    4.3094436    4.3094436    4.3094436    -2733.384   -3583.2428   -636.03947   -3980.8697     2466.223   -2092.9987    1922.4768    80.031985 
   41300    588.05309   -114.59292   0.53208279   -114.06084    -11418.02    4.3135947    4.3135947    4.3135947    -11418.02   -34313.075    7654.0474   -7595.0327   -14561.288    2342.9001    3813.8991    80.263487 
   41400    960.45632   -114.92232   0.86904106   -114.05328    2992.7151     4.312389     4.312389     4.312389    2992.7151    -4796.257   -12403.611    26178.013    2341.9992     3693.553   -5076.8129    80.196202 
   41500    958.12968   -114.91948   0.86693587   -114.05254   -14287.975    4.3168697    4.3168697    4.3168697   -14287.975   -20067.369   -28538.651    5742.0955    11742.803    -1582.884    -7932.041     80.44644 
   41600    687.80246   -114.67777   0.62233812   -114.05543    9094.2032    4.3023647    4.3023647    4.3023647    9094.2032   -7502.0706    21239.758    13544.922   -6471.3845   -3890.9255   -950.95534    79.638243 
   41700    833.64914   -114.81275   0.75430327   -114.05845   -1430.1999    4.3118966    4.3118966    4.3118966   -1430.1999   -20161.792    3481.1099    12390.083   -474.11395   -874.68293   -2525.5041    80.168734 
   41800    766.67932   -114.74927   0.69370756   -114.05556   -19947.897    4.3234699    4.3234699    4.3234699   -19947.897   -27485.753   -42138.981    9781.0433    23965.578     1479.797   -8215.0156    80.815997 
   41900    889.19432   -114.85558   0.80456171   -114.05102    8390.3384    4.2976194    4.2976194    4.2976194    8390.3384   -12553.176    17865.973    19858.219    11607.493   -789.41392    649.53229     79.37502 
   42000    838.99307   -114.81629   0.75913856   -114.05715    4633.7464    4.3097519    4.3097519    4.3097519    4633.7464    351.65468     18485.99   -4936.4053   -6608.5125   -2269.8611   -142.20436    80.049165 
   42100    710.89434   -114.69631   0.64323214   -114.05308   -27372.883     4.326277     4.326277     4.326277   -27372.883    -41579.76   -39894.814   -644.07438    27125.052    2235.3597   -5706.7299    80.973512 
   42200    745.56248     -114.725    0.6746006    -114.0504    7578.8804    4.2994707    4.2994707    4.2994707    7578.8804   -8640.5104     1013.545    30363.606    21946.042   -5734.6673   -1667.1029    79.477642 
   42300    1006.9453   -114.96372   0.91110529   -114.05261    3131.6041    4.3056253    4.3056253    4.3056253    3131.6041   -2303.6158    14185.687   -2487.2587    -11716.17   -3912.0955    1411.0243    79.819446 
   42400    782.41298   -114.76157   0.70794371   -114.05363   -14342.575    4.3210383    4.3210383    4.3210383   -14342.575   -23527.887   -15631.414   -3868.4243    18749.948    6158.2728    3247.7795    80.679714 
   42500    686.74321   -114.67723   0.62137969   -114.05586   -1129.7649    4.3074821    4.3074821    4.3074821   -1129.7649    -16825.81   -14206.992    27643.507    28162.043   -303.49019   -5421.0429    79.922755 
   42600    923.54475   -114.88756    0.8356427   -114.05191   -1175.8607    4.3074372    4.3074372    4.3074372   -1175.8607   -7845.6439   -4764.2693    9082.3311   -10690.951   -3949.6045   -6428.2308    79.920255 
   42700    939.86934   -114.90343   0.85041353   -114.05302   -5361.8778    4.3137372    4.3137372    4.3137372   -5361.8778   -17510.054   -2474.4275     3898.848    2726.5094    3492.9302    8807.5618    80.271441 
   42800    695.94213   -114.68508   0.62970306   -114.05538    143.35537    4.3135399    4.3135399    4.3135399    143.35537   -8936.2396   -13734.673    23100.978    23462.479    4228.8596   -6195.3246    80.260423 
   42900    860.40404   -114.83315   0.77851165   -114.05464   -6181.2341    4.3080877    4.3080877    4.3080877   -6181.2341     -10967.9   -16368.866    8793.0643    98.963651   -591.33015   -12572.616     79.95647 
   43000    820.44343   -114.79856   0.74235445   -114.05621    13023.848    4.3054494    4.3054494    4.3054494    13023.848    5776.1703    7298.6703    25996.704   -8299.8849   -888.68982      5057.08    79.809663 
   43100    861.51629   -114.83458   0.77951804   -114.05506   -6738.9117    4.3209383    4.3209383    4.3209383   -6738.9117   -14350.943   -9290.4216    3424.6295    12862.013    2391.7512    3640.9853     80.67411 
   43200    848.17635   -114.82054   0.76744779   -114.05309   -2446.7854    4.3117256    4.3117256    4.3117256   -2446.7854    1598.9152   -5101.2086   -3838.0628    10537.189    1574.6862   -20951.347    80.159196 
   43300    764.43962    -114.7424   0.69168103   -114.05072    11196.484    4.2994656    4.2994656    4.2994656    11196.484    21755.556      9038.57    2795.3255   -12207.564   -1033.3279   -11177.696    79.477359 
   43400     851.6212   -114.82509   0.77056476   -114.05453   -7529.4185    4.3185297    4.3185297    4.3185297   -7529.4185   -12811.605   -7045.9671   -2730.6831   -607.02557    4313.8427    21174.243    80.539279 
   43500    903.00628   -114.86873   0.81705906   -114.05167   -9565.0067    4.3145944    4.3145944    4.3145944   -9565.0067   -5787.5265   -14383.157   -8524.3368    18639.066    2658.3167   -8214.0523      80.3193 
   43600    718.28707   -114.70069   0.64992123   -114.05077    4081.5001     4.303487     4.303487     4.303487    4081.5001    31666.467   -10564.074    -8857.893   -1375.0074   -3317.1003   -31744.525     79.70058 
   43700    960.19056   -114.92088    0.8688006   -114.05208   -12549.492     4.312724     4.312724     4.312724   -12549.492   -8472.9411   -13182.576    -15992.96   -10794.699    2949.8044    17379.422    80.214889 
   43800    811.88156    -114.7879    0.7346075    -114.0533    76.050019    4.3114735    4.3114735    4.3114735    76.050019   -2144.0435   -10060.242    12432.436   -2733.9553   -204.04309    7645.0392    80.145137 
   43900    753.74982   -114.73909   0.68200868   -114.05708   -6464.9163    4.3099813    4.3099813    4.3099813   -6464.9163    17471.259   -23007.216   -13858.792    2482.2791    256.11902   -41697.945     80.06195 
   44000    983.96143   -114.94372   0.89030898   -114.05341    536.91767    4.3082245    4.3082245    4.3082245    536.91767    8711.9128     1489.162   -8590.3217    1662.2764    1676.4461   -5430.6325    79.964085 
   44100    1053.4687   -115.00695   0.95320059   -114.05375   -2096.8113    4.3109848    4.3109848    4.3109848   -2096.8113   -4996.5511    2793.9699   -4087.8528    -5497.614   -2350.5021    16774.081    80.117884 
   44200    541.77179   -114.55085    0.4902065   -114.06064   -836.17963    4.3117349    4.3117349    4.3117349   -836.17963     18777.16   -15665.796   -5619.9029    997.31807    1557.8646   -28627.918    80.159711 
   44300    913.47919   -114.88346   0.82653517   -114.05693    2723.8959    4.3059777    4.3059777    4.3059777    2723.8959    9119.4816    8452.9945   -9400.7883    2179.6215   -4157.8276   -23443.341    79.839042 
   44400    1211.8477   -115.14968    1.0965053   -114.05317    1409.1548    4.3126482    4.3126482    4.3126482    1409.1548   -1141.4634     3548.016    1820.9117   -7827.0502   -2701.5861    16250.724    80.210662 
   44500    768.96876   -114.75492    0.6957791   -114.05914   -1038.8258    4.3115846    4.3115846    4.3115846   -1038.8258    23530.186   -15044.491   -11602.172   -5310.4982    4514.8327   -8442.3352    80.151333 
   44600    630.97519   -114.63024   0.57091961   -114.05932    1654.6519    4.3084002    4.3084002    4.3084002    1654.6519    21340.823   -14543.696   -1833.1709    7350.4734   -2131.9399   -29868.074     79.97387 
   44700    1209.6645    -115.1456    1.0945298   -114.05107   -7949.6988     4.312812     4.312812     4.312812   -7949.6988   -16220.667   -9121.2403    1492.8104    15079.331    2527.1084    4736.1907      80.2198 
   44800    1003.9306    -114.9603   0.90837746   -114.05193    500.74972    4.3108929    4.3108929    4.3108929    500.74972    25689.663   -14293.707   -9893.7063    624.53355    1521.6965   -7946.9315    80.112763 
   44900    735.17862   -114.72116   0.66520506   -114.05596   -9063.8766    4.3124638    4.3124638    4.3124638   -9063.8766    28341.919   -31734.666   -23798.883    -3278.639    319.05395   -28652.448    80.200372 
   45000    961.66192   -114.92312   0.87013192   -114.05298   -2755.1743    4.3094644    4.3094644    4.3094644   -2755.1743   -7023.3596   -12098.315    10856.151    13076.052   -1452.9807    3614.9581    80.033145 
   45100     1053.344   -115.00416   0.95308775   -114.05107     1605.638     4.308856     4.308856     4.308856     1605.638    1304.6427   -834.44043    4346.7118     9841.431   -9899.9963   -4170.8945    79.999254 
   45200     812.0666   -114.78902   0.73477493   -114.05425   -5452.3692    4.3162794    4.3162794    4.3162794   -5452.3692    26608.118   -16695.658   -26269.568    62.854755     3817.291   -27581.443     80.41344 
   45300    927.34147   -114.89077   0.83907805   -114.05169    2050.0009    4.3087614    4.3087614    4.3087614    2050.0009     11168.13   -10382.627    5364.4992    6527.7261    250.79669   -849.01107    79.993984 
   45400    898.79964   -114.86433    0.8132528   -114.05108    10588.308    4.3084738    4.3084738    4.3084738    10588.308    -8941.786    15327.731    25378.978    14745.618   -5215.7897    7749.1253     79.97797 
   45500      909.639   -114.87582   0.82306048   -114.05276   -8824.7291    4.3161773    4.3161773    4.3161773   -8824.7291   -3693.1299    -7710.388   -15070.669   -1417.2174    1454.1974   -22639.363    80.407734 
   45600    867.41623   -114.83754   0.78485643   -114.05268    15025.006    4.3051613    4.3051613    4.3051613    15025.006    42486.792    -5156.164    7744.3896   -8308.3811   -2359.5543   -12625.243    79.793642 
   45700    921.19624   -114.88829   0.83351771   -114.05477    2431.4218     4.310902     4.310902     4.310902    2431.4218    302.96823   -6217.6781    13208.975    13653.774    642.26292    15857.021    80.113267 
   45800    839.87501   -114.81432   0.75993656   -114.05439   -12821.165    4.3182302    4.3182302    4.3182302   -12821.165    -16649.75   -23066.132    1252.3863    9646.2489   -6884.7069   -11867.256     80.52252 
   45900    986.54728   -114.94219   0.89264871   -114.04954    9130.2494    4.3040515    4.3040515    4.3040515    9130.2494    28601.218   -13594.978    12384.509   -2029.3706    3633.1521   -22246.268    79.731949 
   46000    922.62691   -114.88845   0.83481221   -114.05364   -3534.9524    4.3143847    4.3143847    4.3143847   -3534.9524    13563.492    -27049.81    2881.4606    3478.1566   -589.90868    14647.927    80.307593 
   46100    875.57704   -114.84552    0.7922405   -114.05328     -16442.7    4.3155369    4.3155369    4.3155369     -16442.7   -24551.833   -29180.358    4404.0924      16261.2   -13748.206    4505.0208    80.371947 
   46200    935.34546   -114.89602   0.84632023    -114.0497    7634.9193    4.3029633    4.3029633    4.3029633    7634.9193    8717.3204   -3472.1298    17659.567    5310.5305    1480.0316   -21251.655    79.671488 
   46300    1001.2503   -114.95826   0.90595229   -114.05231   -10018.799    4.3156791    4.3156791    4.3156791   -10018.799    1592.2221   -20641.826   -11006.793   -5542.1728   -3084.3447    6921.9795    80.379896 
   46400     727.4689   -114.71429   0.65822915   -114.05606    2393.4254    4.3089978    4.3089978    4.3089978    2393.4254   -130.11206   -4222.3077    11532.696    15419.838   -4704.9693    15967.845    80.007152 
   46500    817.23128   -114.79471   0.73944804   -114.05526    2377.2094    4.3100824    4.3100824    4.3100824    2377.2094   -9685.1237    5345.8273    11470.925    10130.158   -5173.1924    -10922.87    80.067586 
   46600    1003.3554   -114.95702   0.90785704   -114.04916   -15026.173    4.3199059    4.3199059    4.3199059   -15026.173   -9750.7451   -19185.327   -16142.447   -5907.8284    311.58354   -1880.7228      80.6163 
   46700    592.58571    -114.5885     0.536184   -114.05231    19098.406    4.2995799    4.2995799    4.2995799    19098.406    35199.834    8217.3053    13878.078    1614.1356    21.073496    19489.087    79.483702 
   46800    650.69892   -114.64727   0.58876605   -114.05851   -214.70597    4.3125064    4.3125064    4.3125064   -214.70597   -14012.281   -6321.1816    19689.345    18056.505   -11840.943    51.482933    80.202749 
   46900     1003.253   -114.95676   0.90776441   -114.04899   -13863.898    4.3195727    4.3195727    4.3195727   -13863.898   -25783.363   -15627.601   -180.73082    3622.9587    4128.6203   -6302.6719    80.597646 
   47000    759.11582   -114.73644   0.68686395   -114.04957    10939.813    4.2984721    4.2984721    4.2984721    10939.813     8821.337    6769.2594    17228.843   -6083.5052   -2148.8868    21048.986    79.422278 
   47100    421.86233     -114.443    0.3817099   -114.06129   -11510.135    4.3145633    4.3145633    4.3145633   -11510.135   -21391.019   -21334.372    8194.9866    23674.262   -10090.964    12576.174    80.317566 
   47200    909.66327   -114.87507   0.82308244   -114.05199   -8261.0944    4.3159422    4.3159422    4.3159422   -8261.0944   -29867.902   -14551.327    19635.946    13974.112    7826.8239   -5902.4491    80.394596 
   47300    1032.6764   -114.98032   0.93438732   -114.04593    1345.0066    4.3042077    4.3042077    4.3042077    1345.0066    463.72321   -2563.9377    6135.2343   -6571.9384    -4124.309    14287.844     79.74063 
   47400    403.33904   -114.42297   0.36494964   -114.05802   -15294.499    4.3126402    4.3126402    4.3126402   -15294.499   -10505.198   -26420.681   -8957.6189    11884.633   -334.80666    17453.255    80.210213 
   47500    569.93716   -114.57565   0.51569112   -114.05996    1397.3599    4.3082654    4.3082654    4.3082654    1397.3599    2721.8743   -11233.333    12703.539    23633.101   -8141.4496   -2102.4712    79.966361 
   47600    1157.8719   -115.10075    1.0476668   -114.05308    3906.0189    4.3113969    4.3113969    4.3113969    3906.0189    1825.3275   -4287.8519    14180.581   -3305.0463   -3263.8777   -5131.7802    80.140864 
   47700    797.51766   -114.77791   0.72161074    -114.0563   -8563.9056    4.3147718    4.3147718    4.3147718   -8563.9056   -3627.7046   -20266.353    -1797.659    4200.8764    5276.0858    12774.421    80.329212 
   47800     540.1728   -114.54664    0.4887597   -114.05788    2880.2642     4.305771     4.305771     4.305771    2880.2642   -7137.3515   -16523.531    32301.675    22454.066   -9639.3157    4309.5431    79.827548 
   47900    1078.2111   -115.02887   0.97558808   -114.05328   -2392.4196    4.3148229    4.3148229    4.3148229   -2392.4196    453.71996   -13293.026    5662.0471   -2267.0549    635.35393   -15845.424    80.332064 
   48000     1204.493   -115.14098    1.0898506   -114.05113   -765.86189    4.3105921    4.3105921    4.3105921   -765.86189    7431.0202   -14431.411    4702.8054    -26.87493    3490.2805   -1814.2443    80.095992 
   48100    834.88506   -114.81279   0.75542155   -114.05737    6635.4648    4.3021771    4.3021771    4.3021771    6635.4648    7016.1634     -10428.6    23318.831    22660.603    1954.5153    10421.595    79.627826 
   48200    884.26333   -114.85892   0.80010004   -114.05882   -7433.8299    4.3188394    4.3188394    4.3188394   -7433.8299    24098.071   -30656.448   -15743.113    11022.739    501.93103   -11914.804    80.556606 
   48300    1289.1712   -115.21471    1.1664692   -114.04824   -1400.7562    4.3160265    4.3160265    4.3160265   -1400.7562    28218.899   -15658.126   -16763.042   -6317.1491    -2181.882   -18689.197    80.399305 
   48400    1111.7595   -115.05261    1.0059434   -114.04667    6894.9507    4.3038479    4.3038479    4.3038479    6894.9507    16034.949   -7940.1322    12590.035    19487.821   -5461.0086    4870.5198    79.720637 
   48500    967.26248   -114.92838   0.87519942   -114.05318   -3652.1897    4.3081056    4.3081056    4.3081056   -3652.1897    13036.982   -22788.074    -1205.477    20749.774   -2591.6922   -963.24936    79.957464 
   48600    1111.5429   -115.06014    1.0057473    -114.0544    325.26909    4.3140324    4.3140324    4.3140324    325.26909    32989.936   -18933.864   -13080.265   -4408.7948    2253.9817   -28390.711    80.287923 
   48700    1283.8995   -115.21248    1.1616993   -114.05078    2136.1345    4.3143485    4.3143485    4.3143485    2136.1345    11883.368    -14511.09    9036.1253    9975.1163    2345.8025   -4334.6184    80.305571 
   48800    1168.7967   -115.10938    1.0575518   -114.05183     6869.275    4.3049142    4.3049142    4.3049142     6869.275    11381.753   -10405.744    19631.816    17530.605   -3348.9538    4914.8887    79.779905 
   48900    861.28142   -114.83573   0.77930553   -114.05642    10090.847    4.3089789    4.3089789    4.3089789    10090.847    41176.472    -17067.62    6163.6889   -2468.1414   -2484.5414   -26725.335    80.006099 
   49000    1203.3658   -115.14142    1.0888307   -114.05259   -6896.5878    4.3173306    4.3173306    4.3173306   -6896.5878    18554.243   -28469.611   -10774.396   -2032.2763   -2119.1003   -10400.966    80.472211 
   49100    1217.1461   -115.15112    1.1012994   -114.04982    17575.055    4.3027022    4.3027022    4.3027022    17575.055    29233.806   -2496.6058    25987.965    20013.303    906.84844    11260.206    79.656984 
   49200    985.49767   -114.94922   0.89169901   -114.05752    852.14981    4.3086175    4.3086175    4.3086175    852.14981    23932.145   -22906.352    1530.6571       3832.9   -1081.5039   -22039.353    79.985973 
   49300    946.76334   -114.91233   0.85665137   -114.05568   -9430.2552    4.3164555    4.3164555    4.3164555   -9430.2552    24147.708    -31949.28   -20489.193   -7903.7235   -2877.2595   -23379.994    80.423286 
   49400    1188.2805   -115.12443    1.0751812   -114.04925    8908.6427    4.3040113    4.3040113    4.3040113    8908.6427     26549.72    -7561.168    7737.3757    13506.861    1334.7197    14925.463    79.729712 
   49500    1123.3695   -115.06964    1.0164484   -114.05319   -6530.4245    4.3106849    4.3106849    4.3106849   -6530.4245    5488.5789   -22370.102   -2709.7504    12703.181     585.2994   -9400.3077    80.101166 
   49600    938.63314   -114.90465   0.84929499   -114.05535   -4013.2913    4.3103397    4.3103397    4.3103397   -4013.2913    15989.362   -23260.288   -4768.9471   -4806.9989   -1151.5092   -29999.521    80.081922 
   49700    995.57366   -114.95498   0.90081597   -114.05417    4633.5389    4.3062093    4.3062093    4.3062093    4633.5389    21091.881   -6482.0014   -709.26267    52.441488   -9191.6598    10994.509     79.85193 
   49800    1041.2182   -114.99532   0.94211613   -114.05321   -12305.334    4.3151485    4.3151485    4.3151485   -12305.334   -4289.3483   -23930.296   -8696.3579    14075.105   -145.78826    14018.559    80.350252 
   49900    991.82901   -114.94963   0.89742773    -114.0522     2114.982     4.306103     4.306103     4.306103     2114.982    10955.514   -8205.0089    3594.4413    1058.4605   -1010.5086   -24239.009    79.846013 
   50000    947.74536   -114.91146   0.85753992   -114.05392    3119.8088    4.3069432    4.3069432    4.3069432    3119.8088    18366.849   -4336.7818   -4670.6412   -3663.8345   -11188.416   -4444.2452    79.892763 
   50100    889.84944   -114.85954   0.80515447   -114.05438    -12007.57    4.3152417    4.3152417    4.3152417    -12007.57   -4409.9096   -19062.741    -12550.06    14687.554    2032.0532    28774.771    80.355459 
   50200    1005.2118   -114.96227   0.90953676   -114.05273    1537.5541    4.3056483    4.3056483    4.3056483    1537.5541    1474.9293   -3111.3821    6249.1151    7745.4383    8696.0539   -9143.7878    79.820722 
   50300    1056.2941   -115.00772   0.95575709   -114.05196   -149.86824    4.3096398    4.3096398    4.3096398   -149.86824    12129.263   -675.91969   -11902.948    -3247.956   -4502.7517   -16800.629    80.042919 
   50400    834.77673   -114.80897   0.75532353   -114.05365   -10131.068    4.3152921    4.3152921    4.3152921   -10131.068    858.65483   -18584.796   -12667.063    3123.2291   -10018.106    25193.512     80.35827 
   50500    893.96342   -114.86119   0.80887689   -114.05232   -1601.4022    4.3069415    4.3069415    4.3069415   -1601.4022    -8277.731   -7204.8413    10678.366    8642.6271    6897.4376    7546.2382    79.892665 
   50600    1119.6477   -115.06327    1.0130808   -114.05019   -1492.4062    4.3083982    4.3083982    4.3083982   -1492.4062     2586.857   -4403.8143   -2660.2614    1939.9367    10030.042     -13408.7    79.973756 
   50700    951.83225     -114.916   0.86123783   -114.05476   -155.21412    4.3102244    4.3102244    4.3102244   -155.21412    10032.545   -7352.7617   -3145.4261   -1970.6858   -10524.254    13051.949    80.075497 
   50800    713.39193   -114.70354   0.64549201   -114.05805   -4278.6376    4.3090979    4.3090979    4.3090979   -4278.6376   -8118.5901   -10314.269    5596.9459    9308.1051    970.52624    19717.669    80.012731 
   50900    941.24231    -114.9064   0.85165582   -114.05474   -4449.8167    4.3118299    4.3118299    4.3118299   -4449.8167   -15286.699    6441.2878   -4504.0385    1650.8664    25358.931   -3327.5105    80.165012 
   51000    1139.2737   -115.08002    1.0308388   -114.04918    967.57306    4.3094519    4.3094519    4.3094519    967.57306    1011.6894   -1560.1063    3451.1361   -1465.0533   -1761.5932    1692.1905    80.032452 
   51100    683.28529   -114.67373   0.61825089   -114.05547   -3288.0421    4.3092669    4.3092669    4.3092669   -3288.0421   -1273.0816    1403.8528   -9994.8975    2289.0624   -9761.0055     25663.43    80.022145 
   51200    616.68589   -114.61652   0.55799035   -114.05853   -7685.6148    4.3097617    4.3097617    4.3097617   -7685.6148    -24218.63    14763.604   -13601.819    4539.2984     21877.86    3149.3377    80.049712 
   51300    1062.5174   -115.01271   0.96138806   -114.05133    2343.6893    4.3093053    4.3093053    4.3093053    2343.6893    -15947.52    17006.965    5971.6231    4794.0791    8100.9207   -7113.1208    80.024281 
   51400    907.65984   -114.87601    0.8212697   -114.05474    1671.7505    4.3100162    4.3100162    4.3100162    1671.7505    3561.2162    6284.7061   -4830.6707   -6214.6539   -11956.091    20158.255    80.063895 
   51500    439.81953   -114.45874   0.39795795   -114.06078    5290.2229    4.3064999    4.3064999    4.3064999    5290.2229   -13767.012    32178.841   -2541.1611    7106.1072     11966.05    13748.096    79.868094 
   51600    794.49872   -114.77537   0.71887914   -114.05649   -909.12933    4.3105345    4.3105345    4.3105345   -909.12933   -33452.269    20622.701     10102.18    6861.9586    17197.217   -2531.9043    80.092782 
   51700    907.94072   -114.87295   0.82152384   -114.05142    805.22649    4.3119934    4.3119934    4.3119934    805.22649   -8212.9893    6497.8223    4130.8464   -4679.2075    -5132.864   -5223.6758    80.174133 
   51800    534.66324   -114.54087   0.48377454   -114.05709    4553.6509    4.3049341    4.3049341    4.3049341    4553.6509   -1139.4445    12406.979    2393.4183    2932.5872   -1939.8047    16407.443    79.781006 
   51900    622.92089   -114.62075   0.56363191   -114.05712   -2961.3651    4.3096034    4.3096034    4.3096034   -2961.3651   -30103.894    22543.315   -1323.5167    4856.3096     10668.57    10725.876    80.040889 
   52000    854.86437   -114.82561   0.77349925   -114.05211   -7075.6189    4.3120697    4.3120697    4.3120697   -7075.6189   -19866.007   -17.595922   -1343.2538    3675.0696    2139.3035   -22090.783    80.178385 
   52100    539.76532   -114.54354   0.48839101   -114.05515   -4652.4879    4.3077565    4.3077565    4.3077565   -4652.4879   -1332.8459   -5197.5849   -7427.0331   -7482.7427   -5237.8596    2136.0736     79.93803 
   52200    622.49054   -114.61863   0.56324252   -114.05539   -7213.3499    4.3097493    4.3097493    4.3097493   -7213.3499   -21297.961    14661.932   -15004.021   -4006.7794    5069.2415    21216.502    80.049021 
   52300    836.68892   -114.80902   0.75705372   -114.05197   -3.0884136    4.3080962    4.3080962    4.3080962   -3.0884136   -17986.463    19388.988   -1411.7899    7078.7212    4945.0307   -12013.479    79.956943 
   52400    564.26251   -114.56655   0.51055658   -114.05599   -3331.2206     4.308514     4.308514     4.308514   -3331.2206    -6396.229    3758.5689   -7356.0017   -5903.3691   -2391.8269   -19667.946    79.980209 
   52500    540.88846   -114.54643   0.48940724   -114.05702     -9277.85    4.3139384    4.3139384    4.3139384     -9277.85   -22739.135    14166.227   -19260.642   -1111.7653   -198.97051    19662.893    80.282674 
   52600    778.78438   -114.75783   0.70466047   -114.05317    8708.0854    4.3051163    4.3051163    4.3051163    8708.0854   -7660.8223    26741.428    7043.6506   -761.86397    2998.4358    9574.0898    79.791136 
   52700    722.08619   -114.70842   0.65335876   -114.05506    529.13785     4.305668     4.305668     4.305668    529.13785    -13295.98    13903.481    979.91227    338.29186     2910.072   -34516.288    79.821821 
   52800    531.47515   -114.53763   0.48088988   -114.05674   -19678.477    4.3185224    4.3185224    4.3185224   -19678.477   -34747.127   -2717.0497   -21571.255   -4693.3431   -4994.3086    2407.4456     80.53887 
   52900    748.73632   -114.72947   0.67747236   -114.05199    1330.5447    4.3064779    4.3064779    4.3064779    1330.5447   -13624.922    6954.1681    10662.388    -7327.494    1043.4236    24868.971    79.866872 
   53000    729.76767   -114.71236   0.66030912   -114.05205    6806.5948    4.3028332    4.3028332    4.3028332    6806.5948   -1901.2103    17805.429    4515.5661    12253.985    2473.8232    -21985.93    79.664259 
   53100    608.72144   -114.60601   0.55078395   -114.05523   -21383.369    4.3166453    4.3166453    4.3166453   -21383.369   -32067.996   -12654.888   -19427.223   -1736.8288   -2205.3156    -21898.26    80.433891 
   53200    702.73648   -114.68857   0.63585073   -114.05272   -6761.2372    4.3096563    4.3096563    4.3096563   -6761.2372   -28383.201    6751.7776    1347.7118   -11793.967    3606.6763    21098.476    80.043836 
   53300    730.21101   -114.71276   0.66071027   -114.05205    1376.8177    4.3062594    4.3062594    4.3062594    1376.8177   -8292.8557    10755.744    1667.5649    10056.795   -1537.6201    1132.1758    79.854712 
   53400     631.2361   -114.62548   0.57115569   -114.05433   -12870.674    4.3129323    4.3129323    4.3129323   -12870.674   -22263.993   -5381.5358   -10966.492    4548.0649   -561.36839   -31050.055    80.226515 
   53500    762.91895   -114.74467    0.6903051   -114.05437   -8498.6209    4.3087212    4.3087212    4.3087212   -8498.6209   -22177.509   -1029.9098   -2288.4438   -14276.961    1902.7604    6319.0015    79.991747 
   53600    923.07029   -114.88809    0.8352134   -114.05287   -3994.9364      4.30691      4.30691      4.30691   -3994.9364   -16015.849    2488.4562    1542.5834   -645.39714    -1852.125    15892.056    79.890916 
   53700    576.67914   -114.57965    0.5217914   -114.05786   -1626.4756    4.3106743    4.3106743    4.3106743   -1626.4756   -12893.543    2621.6611    5392.4553    20078.032    3366.7047   -21796.174    80.100572 
   53800     812.2793   -114.79098   0.73496738   -114.05602   -5797.9354    4.3109181    4.3109181    4.3109181   -5797.9354   -10115.427   -6520.2392    -758.1399   -3904.3492    -4225.406   -7426.4435    80.114168 
   53900     1044.756   -114.99438   0.94531715   -114.04906    912.87357    4.3105299    4.3105299    4.3105299    912.87357   -11984.024    13202.002    1520.6427    -8292.047    1611.4988    13831.844    80.092523 
   54000    714.44236   -114.70156   0.64644246   -114.05512     2419.448    4.3089433    4.3089433    4.3089433     2419.448   -13254.082    5795.2613    14717.165    23565.388    -22.91016    -6860.982    80.004118 
   54100    594.58411   -114.59828    0.5379922   -114.06028    3796.9259    4.3078729    4.3078729    4.3078729    3796.9259    8007.3682   -6222.8335     9606.243      12699.3   -2673.8948   -22478.747    79.944508 
   54200    1135.0984   -115.08118    1.0270609   -114.05412    4283.9601    4.3098322    4.3098322    4.3098322    4283.9601      788.353    14507.065   -2443.5383   -10340.311    3255.6876   -1814.4367    80.053639 
   54300    1001.6383   -114.96219   0.90630334   -114.05589     1220.662    4.3113848    4.3113848    4.3113848     1220.662   -9510.7264    2652.3944    10520.318     13448.99   -1690.5862    7775.8513    80.140187 
   54400    444.18712   -114.46263   0.40190984   -114.06072   -1952.9641    4.3126436    4.3126436    4.3126436   -1952.9641   -1529.7334    -14110.53    9781.3716    24933.985    19.530228   -20891.655    80.210406 
   54500    1000.5812   -114.95801   0.90534693   -114.05266   -1752.8128    4.3105145    4.3105145    4.3105145   -1752.8128    2434.1449    2346.1095   -10038.693   -5323.4635   -2578.8753   -12886.914    80.091669 
   54600    1205.5945   -115.13939    1.0908472   -114.04855    38.628635    4.3088765    4.3088765    4.3088765    38.628635    118.12802   -1558.3478    1556.1057   -1963.7172    2507.5623    4787.2328    80.000399 
   54700    644.23897   -114.64414   0.58292095   -114.06121   -11708.376    4.3092237    4.3092237    4.3092237   -11708.376   -16541.199   -16695.118   -1888.8124    27011.235    2744.0786   -7020.7545    80.019736 
   54800    530.59493   -114.54481   0.48009345   -114.06471    264.25636    4.3084326    4.3084326    4.3084326    264.25636    -548.9636    1693.7227   -351.98999    8201.1439   -3856.1147   -19603.529    79.975676 
   54900    1204.6526   -115.14292     1.089995   -114.05292   -5644.5866    4.3144897    4.3144897    4.3144897   -5644.5866   -817.67365    926.31271   -17042.399    -7750.057    1407.8559   -1449.4821    80.313455 
   55000    835.25637    -114.8111   0.75575752   -114.05534   -8185.9316    4.3118269    4.3118269    4.3118269   -8185.9316   -12943.048   -1687.9041   -9926.8428    14239.479   -1178.6141    3342.3536    80.164842 
   55100    426.31806   -114.44384   0.38574154    -114.0581    1201.1896    4.3058432    4.3058432    4.3058432    1201.1896   -786.72006    13877.959   -9487.6696    17544.164    3585.7193   -25066.968    79.831562 
   55200    925.55611   -114.89116   0.83746262    -114.0537    1188.7195    4.3138116    4.3138116    4.3138116    1188.7195    4462.2276    1974.0846   -2870.1535   -5370.4849   -5687.9226    -9288.057    80.275591 
   55300    1099.2546   -115.04477   0.99462869   -114.05014   -985.96755    4.3106147    4.3106147    4.3106147   -985.96755   -3321.9583    13801.586    -13437.53    3097.2875    -4586.927    14848.209    80.097251 
   55400    620.55895   -114.61885   0.56149478   -114.05735    -5921.961    4.3056683    4.3056683    4.3056683    -5921.961    3607.6672   -251.98993    -21121.56    19369.587    2253.5173   -13526.405    79.821838 
   55500     705.7195   -114.69849   0.63854983   -114.05995   -4283.8209    4.3112684    4.3112684    4.3112684   -4283.8209    4989.3588   -6590.8673   -11249.954   -1187.1503   -8401.9429   -15752.031    80.133699 
   55600    1071.5573   -115.02008   0.96956758   -114.05052    498.28881    4.3134056    4.3134056    4.3134056    498.28881   -2123.1277    9392.7021   -5774.7079    -9817.125   -3140.9165    8565.5795    80.252928 
   55700    864.08563    -114.8333   0.78184284   -114.05146   -8709.4015     4.312388     4.312388     4.312388   -8709.4015    1687.8685   -6293.6869   -21522.386    14478.313    1175.2029     2001.496    80.196147 
   55800    839.87296   -114.81235    0.7599347   -114.05242   -7663.9451    4.3079142    4.3079142    4.3079142   -7663.9451    5799.0315   -2147.8702   -26642.997    15915.805    1918.3248   -18275.048     79.94681 
   55900    906.70944   -114.87368   0.82040975   -114.05327    8030.3879    4.3087191    4.3087191    4.3087191    8030.3879    3097.2157    26041.929   -5047.9807   -11339.686   -3843.8567   -5485.5278     79.99163 
   56000     939.2139   -114.90371   0.84982048   -114.05389   -1010.2439    4.3147827    4.3147827    4.3147827   -1010.2439    924.64236   -1945.5225   -2009.8514     -5362.69   -3511.5197    14063.556    80.329819 
   56100    980.08039   -114.93772   0.88679733   -114.05092    3413.6568    4.3107822    4.3107822    4.3107822    3413.6568    10256.372    5658.2251   -5673.6268    15110.559    3933.3024   -13447.954     80.10659 
   56200    908.00842    -114.8728    0.8215851   -114.05122    6080.7634    4.3100822    4.3100822    4.3100822    6080.7634   -2178.0719    19578.927    841.43496   -6607.2351   -5724.8846   -13313.845    80.067572 
   56300    750.08207   -114.73276   0.67869002   -114.05407    1347.0757    4.3127615    4.3127615    4.3127615    1347.0757   -5431.8922   -5617.4842    15090.604   -15707.609   -2729.5939    12946.955    80.216982 
   56400     1027.914   -114.98262   0.93007817   -114.05254    3427.6441    4.3074206    4.3074206    4.3074206    3427.6441    12773.371   -9598.5489    7108.1106     9409.039    2576.7938    926.74999    79.919333 
   56500    1110.0093   -115.05651    1.0043598   -114.05215    2236.6065     4.310169     4.310169     4.310169    2236.6065    10758.552   -8427.7291    4378.9962    1578.8886    4937.2942    -6444.632    80.072408 
   56600    645.54735   -114.64291   0.58410481    -114.0588   -7422.2552    4.3137709    4.3137709    4.3137709   -7422.2552    -15895.58   -14688.801    8317.6147   -28467.257   -5314.6206      38.6363    80.273322 
   56700    765.28914    -114.7482    0.6924497   -114.05575    2704.3316     4.308608     4.308608     4.308608    2704.3316   -2392.3532   -10935.862     21441.21   -9757.9557   -4619.0511    14273.477    79.985444 
   56800     1267.082   -115.19494    1.1464825   -114.04846     2579.322    4.3090226    4.3090226    4.3090226     2579.322    8481.4077   -12339.786    11596.345    8865.7556    4454.6101    4759.4898    80.008534 
   56900    782.88335   -114.76595   0.70836931   -114.05759   -4877.3476    4.3123522    4.3123522    4.3123522   -4877.3476   -12871.205   -19470.878    17710.041   -23798.146   -4330.0549   -5122.7574    80.194144 
   57000    456.03848     -114.473    0.4126332   -114.06037   -2345.5335    4.3098583    4.3098583    4.3098583   -2345.5335   -19155.808   -4610.4325     16729.64   -20130.429   -5201.0609     14809.35    80.055092 
   57100    996.84791   -114.95418   0.90196894   -114.05221   -570.79853    4.3107292    4.3107292    4.3107292   -570.79853    5726.4924   -8030.3104    591.42237     6890.028   -5095.1517    6941.2502    80.103637 
   57200    941.80127   -114.90344   0.85216158   -114.05127   -3816.5521    4.3131971    4.3131971    4.3131971   -3816.5521   -10180.665    -21132.25    19863.258   -15892.568    2900.0638   -2615.4848    80.241293 
   57300    496.96096   -114.50565   0.44966072   -114.05599   -3791.7744    4.3124049    4.3124049    4.3124049   -3791.7744    -20958.17   -7916.5874    17499.434   -21754.802   -7754.0005   -106.23995    80.197087 
   57400    730.50424   -114.71228   0.66097559   -114.05131   -1720.5581    4.3106659    4.3106659    4.3106659   -1720.5581    1834.7797   -6622.1043   -374.34979    4905.2659   -9204.0881    10412.267    80.100104 
   57500     893.4953   -114.85675   0.80845333   -114.04829   -3421.1556    4.3095944    4.3095944    4.3095944   -3421.1556    3483.2994   -35904.165    22157.399   -3144.3983    5932.1442     793.4837    80.040389 
   57600    587.98995   -114.58559   0.53202566   -114.05356   -14054.421    4.3158059    4.3158059    4.3158059   -14054.421   -24001.253   -45815.811    27653.803    -18456.55    -9967.657    -12078.13     80.38698 
   57700    688.94817   -114.67352   0.62337478   -114.05014   -424.94562    4.3112753    4.3112753    4.3112753   -424.94562  -0.61958063   -5629.4381    4355.2208   -3139.3788   -4511.2646    12879.905    80.134082 
   57800    906.18957   -114.86759   0.81993937   -114.04765    3517.9677    4.3050856    4.3050856    4.3050856    3517.9677    14844.707   -24704.642    20413.838    2979.2516    3996.1348    6035.8906    79.789434 
   57900    478.87867   -114.48965   0.43329949   -114.05635   -18328.315    4.3143039    4.3143039    4.3143039   -18328.315   -21855.953   -54049.255    20920.262   -12294.538   -1337.4762   -6862.3918    80.303082 
   58000    522.98111   -114.53004    0.4732043   -114.05684   -6043.4069    4.3126966    4.3126966    4.3126966   -6043.4069    -15283.54   -11480.174    8633.4937   -9087.2076    -8948.074   -1932.2577    80.213363 
   58100    989.18288   -114.94224   0.89503346   -114.04721     11140.35    4.3099783    4.3099783    4.3099783     11140.35    10255.359    16150.192     7015.499    5391.0548   -7248.7161    7084.4389    80.061779 
   58200    568.03116   -114.56796   0.51396653     -114.054   -8138.1539    4.3117338    4.3117338    4.3117338   -8138.1539   -10399.952   -41178.918    27164.408   -9757.0224    4345.8595    2143.0364    80.159651 
   58300    261.07834   -114.29627   0.23622917   -114.06004   -12191.825    4.3087696    4.3087696    4.3087696   -12191.825    -11598.75   -38509.736    13533.011   -14765.891   -9323.6941   -10510.133     79.99444 
   58400    958.96022   -114.92146   0.86768736   -114.05377    655.95956    4.3111225    4.3111225    4.3111225    655.95956    686.71332   -799.27748    2080.4428    3946.2059   -10241.431     3684.622    80.125562 
   58500    933.74313   -114.89661    0.8448704   -114.05174    5756.3043    4.3113749    4.3113749    4.3113749    5756.3043    3314.8087   -1194.3976    15148.502    -3587.186     7968.539    1150.3408    80.139634 
   58600     393.7142   -114.41498   0.35624088   -114.05874   -15379.914    4.3123715    4.3123715    4.3123715   -15379.914   -10577.995   -49598.323    14036.578   -15991.446   -5519.8902   -12006.026    80.195222 
   58700     792.5791   -114.77233   0.71714223   -114.05519   -12440.562    4.3099562    4.3099562    4.3099562   -12440.562   -2606.3328   -30360.007   -4355.3474   -558.39678   -10670.035   -6936.4631    80.060552 
   58800    1109.4556   -115.05357    1.0038587   -114.04972    4633.8766    4.3067378    4.3067378    4.3067378    4633.8766    11074.314   -1381.1447    4208.4603   -1679.4478    4589.4783    8246.3613    79.881334 
   58900    678.22823   -114.66989   0.61367515   -114.05622   -9535.9596    4.3147633    4.3147633    4.3147633   -9535.9596    -15717.71   -20409.236    7519.0673   -9189.0608    1512.9298    2194.0866    80.328733 
   59000    698.51284   -114.68741   0.63202909   -114.05539   -8506.3467    4.3125952    4.3125952    4.3125952   -8506.3467   -10164.661   -19383.737    4029.3583   -280.74128   -10620.873   -14807.573    80.207702 
   59100    1111.3829   -115.05393    1.0056026   -114.04832    674.61742    4.3072362    4.3072362    4.3072362    674.61742    12670.696   -3914.1293   -6732.7147     3340.066   -3370.2438     8610.381    79.909069 
   59200    774.07984   -114.75358    0.7004037   -114.05318    -3801.352    4.3134688    4.3134688    4.3134688    -3801.352   -4253.0771    1140.7817   -8291.7605   -12200.297    5195.2406    11724.397     80.25646 
   59300    856.12918   -114.82968   0.77464367   -114.05504   -3869.6253    4.3090496    4.3090496    4.3090496   -3869.6253   -8632.6228    -5597.444    2621.1909   -11455.043   -8048.0157   -9984.7787    80.010037 
   59400    1110.0604   -115.05655     1.004406   -114.05215    2177.7819    4.3078045    4.3078045    4.3078045    2177.7819    16392.601   -8135.7423    -1723.513    6880.8451   -3740.3539    8604.0851      79.9407 
   59500    982.75434   -114.94234   0.88921678   -114.05312   -15018.791    4.3166676    4.3166676    4.3166676   -15018.791    3300.3165   -25517.443   -22839.246   -6194.5946    7941.4652    25647.957    80.435138 
   59600    888.04956   -114.85738   0.80352591   -114.05386    901.19334    4.3090632    4.3090632    4.3090632    901.19334   -2098.6567   -3376.4349    8178.6717    -13484.95    -5439.013   -2875.2876    80.010797 
   59700    1246.5997   -115.17739    1.1279496   -114.04944    3411.6821    4.3090952    4.3090952    4.3090952    3411.6821    2990.8617   -2396.5802     9640.765    1099.9042   -2195.9092   -8996.5954    80.012577 
   59800    985.51372   -114.94486   0.89171352   -114.05314    2162.6295    4.3129158    4.3129158    4.3129158    2162.6295    14399.486    -3372.738   -4538.8599   -945.43819    4740.9751    22585.087    80.225591 
   59900    743.28443   -114.73043   0.67253937   -114.05789    8987.1556    4.3092663    4.3092663    4.3092663    8987.1556    3790.4456    7771.0752    15399.946   -11072.308    5732.6007    9923.7979    80.022111 
   60000    1153.2018   -115.09508    1.0434412   -114.05164    7329.9394     4.314264     4.314264     4.314264    7329.9394   -10440.793     18366.09    14064.522   -4587.8721    758.68962   -12121.197    80.300852 
   60100    1221.2358   -115.15414    1.1049998   -114.04914    5151.5095    4.3104048    4.3104048    4.3104048    5151.5095    13121.117    9519.4855    -7186.074    4644.1592   -4938.0969      13242.3    80.085553 
   60200    724.54105   -114.71312   0.65557996   -114.05754   -2135.0398    4.3090538    4.3090538    4.3090538   -2135.0398    5839.2023   -14617.017     2372.695   -16309.263    8848.9056    25056.194    80.010271 
   60300    1098.9494   -115.05034   0.99435252   -114.05598   -7110.0712    4.3124964    4.3124964    4.3124964   -7110.0712   -14638.729   -3681.0144   -3010.4698   -15782.132     1682.532    -61.53711     80.20219 
   60400    1447.3891   -115.35863    1.3096281     -114.049   -1474.2522    4.3123946    4.3123946    4.3123946   -1474.2522    4862.7599    5156.0381   -14441.555    9189.9951   -1315.9699     3896.955     80.19651 
   60500    828.40636   -114.80569   0.74955948   -114.05613   -10056.813    4.3138571    4.3138571    4.3138571   -10056.813    2442.2962    -14089.96   -18522.775   -8265.7497    4316.5773    28285.979    80.278133 
   60600    828.21727   -114.80475   0.74938839   -114.05536   -522.38431     4.311729     4.311729     4.311729   -522.38431   -14807.244    10562.515    2677.5765    -19850.37    3362.1313    5197.2787    80.159384 
   60700    1384.5105   -115.29996    1.2527342   -114.04723     4641.917    4.3110807    4.3110807    4.3110807     4641.917   -4423.6918      32586.8   -14237.357    1179.4848    4349.9115   -6130.9732    80.123231 
   60800    919.75411   -114.88753   0.83221285   -114.05532    882.86276    4.3093258    4.3093258    4.3093258    882.86276    4274.5706     18913.08   -20539.062   -2858.7092   -4186.2437    10420.467    80.025426 
   60900    574.97315   -114.58209   0.52024779   -114.06184   -4848.9915    4.3136122    4.3136122    4.3136122   -4848.9915   -16795.172    2167.1585    81.038858   -22704.758    10051.744    14175.849    80.264463 
   61000    1177.2602    -115.1154    1.0652098   -114.05019    1573.6073    4.3146593    4.3146593    4.3146593    1573.6073   -11592.632    6898.1172    9415.3369    -4259.948    1828.5092   -7228.6081    80.322924 
   61100    1085.0423   -115.02964   0.98176908   -114.04787   -6311.3598    4.3109697    4.3109697    4.3109697   -6311.3598    4186.3573    7.8021988   -23128.239    5817.5065   -8731.8918   -2231.6663    80.117043 
   61200    505.03063    -114.5128   0.45696233   -114.05584   -13432.635    4.3110914    4.3110914    4.3110914   -13432.635   -2960.7632   -11950.906   -25386.236   -20448.514    3403.0239    23135.618    80.123827 
   61300    895.23626   -114.86396   0.81002858   -114.05393    2188.2184    4.3110203    4.3110203    4.3110203    2188.2184   -7094.2823     13220.74    438.19782   -14016.183    3655.4404    2703.3359    80.119861 
   61400    1042.8453   -114.99196   0.94358834   -114.04837    8257.0829    4.3115821    4.3115821    4.3115821    8257.0829    2392.8268    23639.675   -1261.2526    10237.306    658.83478   -461.77143    80.151189 
   61500    526.17512   -114.53286   0.47609431   -114.05676   -5354.4672    4.3117983    4.3117983    4.3117983   -5354.4672    3578.2657    9400.0145   -29041.682   -7106.8389   -2974.8915    21866.128    80.163249 
   61600     671.4973     -114.663   0.60758487   -114.05542    -3946.944    4.3108068    4.3108068    4.3108068    -3946.944   -1133.5817    9053.5227   -19760.773   -18744.952    5713.4518    14757.846    80.107963 
   61700    1045.2216   -114.99369   0.94573848   -114.04795    5903.6946    4.3100473    4.3100473    4.3100473    5903.6946    1216.6226    12780.873    3713.5881     14023.67   -1577.0812    -3243.634    80.065626 
   61800    732.05762   -114.71626   0.66238112   -114.05387   -6739.7683    4.3130034    4.3130034    4.3130034   -6739.7683    8690.4935   -16941.599   -11968.199    8312.0665   -7513.5783     3143.674     80.23048 
   61900    661.76101   -114.65387   0.59877527    -114.0551   -11773.623    4.3114412    4.3114412    4.3114412   -11773.623    5769.9199   -17050.927   -24039.863   -20143.823    6604.3665    15110.463    80.143334 
   62000    1051.3625   -115.00096   0.95129492   -114.04967    1300.2076    4.3068398    4.3068398    4.3068398    1300.2076    3709.3589    7663.7341     -7472.47   -714.09088   -1973.6455   -4773.1637    79.887008 
   62100    802.14427   -114.77903   0.72579699   -114.05324   -1680.5714    4.3140319    4.3140319    4.3140319   -1680.5714    2162.4554   -1077.4241   -6126.7456    13393.721   -1244.2104   -3151.9126    80.287894 
   62200    675.02366   -114.66558   0.61077559   -114.05481   -1862.0458    4.3127529    4.3127529    4.3127529   -1862.0458    5149.1155    3937.5063   -14672.759   -8863.1727    1223.4577    23228.626    80.216502 
   62300    990.30845   -114.94546    0.8960519    -114.0494    7316.2152    4.3071234    4.3071234    4.3071234    7316.2152    2745.5338    27206.928   -8003.8159   -9899.0394   -879.47788     5697.304    79.902791 
   62400    960.63653   -114.91989   0.86920412   -114.05069   -9367.0795    4.3147051    4.3147051    4.3147051   -9367.0795   -13864.269   -3656.0002   -10580.969    17296.414   -252.16736   -2861.7779    80.325483 
   62500    694.11624   -114.68318   0.62805096   -114.05513   -8803.7513    4.3117292    4.3117292    4.3117292   -8803.7513    10526.012   -23619.647   -13317.619    8387.2759   -3864.8909    24360.775    80.159393 
   62600    1049.7771   -115.00026   0.94986035    -114.0504    3342.2185    4.3076778    4.3076778    4.3076778    3342.2185    9484.0332    -4718.311    5260.9335   -12404.442     7822.411    17017.066    79.933651 
   62700    1066.8924   -115.01404   0.96534669    -114.0487   -6629.1142    4.3168062    4.3168062    4.3168062   -6629.1142     -21492.8   -4945.9868    6551.4436    17945.857     575.7231   -10027.205    80.442889 
   62800    686.73229    -114.6757    0.6213698   -114.05433   -1294.4286    4.3084168    4.3084168    4.3084168   -1294.4286   -4283.0476    -10504.73    10904.491    18075.904   -7266.7666    7475.1209    79.974797 
   62900    765.75907   -114.74805   0.69287489   -114.05517    10875.202    4.3095726    4.3095726    4.3095726    10875.202    19709.482    7056.0764    5860.0473   -9753.1864     2435.999    21542.318    80.039173 
   63000    1120.8583   -115.06283    1.0141762   -114.04865   -276.47288    4.3165111    4.3165111    4.3165111   -276.47288   -16712.956    2477.0333    13406.504    11806.659   -3193.3768   -3627.1297    80.426394 
   63100    737.33066   -114.71983   0.66715228   -114.05268    10954.796    4.3051851    4.3051851    4.3051851    10954.796   -5934.7348    5444.1127     33355.01    20660.489   -812.44992   -4926.2805    79.794965 
   63200    753.09734   -114.73865    0.6814183   -114.05724   -15459.255    4.3134156    4.3134156    4.3134156   -15459.255    5675.2455   -34226.612   -17826.397    1853.1842   -1568.8299    29034.519    80.253488 
   63300    1125.9282   -115.06798    1.0187635   -114.04922   -1493.8471    4.3128469    4.3128469    4.3128469   -1493.8471    10831.283   -19876.887    4564.0629    1874.6814   -256.66407    12697.143    80.221748 
   63400    1068.5629   -115.01619   0.96685816   -114.04933    718.95026    4.3072998    4.3072998    4.3072998    718.95026   -11097.222   -9144.6261    22398.699    11205.451    4129.5039    -5845.552     79.91261 
   63500    606.74929   -114.60574   0.54899951   -114.05674   -14070.354    4.3137744    4.3137744    4.3137744   -14070.354    -847.0278   -16679.157   -24684.877    7733.8506   -6329.2557    31886.728    80.273515 
   63600    967.72717   -114.92952   0.87561988    -114.0539   -1792.1296    4.3100457    4.3100457    4.3100457   -1792.1296    5543.1731      5400.77   -16320.332   -8519.2737    127.48822    22444.509    80.065536 
   63700    1139.5675   -115.08071    1.0311046    -114.0496    6960.3279    4.3109099    4.3109099    4.3109099    6960.3279   -6966.6804    12961.182    14886.482    2152.1688    1318.6789   -11349.287    80.113707 
   63800    739.17022   -114.72472   0.66881675    -114.0559   -10260.273    4.3146481    4.3146481    4.3146481   -10260.273   -4516.9295   -9933.6693   -16330.221    14920.222   -4706.3847    17917.928      80.3223 
   63900    835.27156    -114.8111   0.75577126   -114.05533    -7090.144    4.3076712    4.3076712    4.3076712    -7090.144    12248.282    -20804.17   -12714.543   -4792.6722   -518.22157    28756.935    79.933283 
   64000    1275.7905   -115.20255    1.1543621   -114.04819   -5975.9882    4.3141496    4.3141496    4.3141496   -5975.9882    -16132.99    -9283.188    7488.2137   -6206.1289   -598.96542   -9726.5088    80.294465 
   64100    869.73051   -114.83994   0.78695045   -114.05299   -13323.364     4.318596     4.318596     4.318596   -13323.364   -10485.155   -17914.703   -11570.232    7353.6117    1517.7581    8313.1257    80.542985 
   64200    707.50686    -114.6945   0.64016708   -114.05433    13239.975    4.3016939    4.3016939    4.3016939    13239.975     22086.03    24758.343   -7124.4462    7409.6961   -3599.7629    35200.007    79.600995 
   64300    1036.6639   -114.99257   0.93799533   -114.05457    7274.4614     4.314296     4.314296     4.314296    7274.4614   -9091.1949    24432.746    6481.8334   -3864.2436   -2714.1871    4462.1112    80.302638 
   64400    987.69345   -114.94582   0.89368579   -114.05214   -2076.5535    4.3178301    4.3178301    4.3178301   -2076.5535   -18127.234    10854.095    1043.4782   -6217.9838    4797.6093   -2178.3788    80.500143 
   64500    665.53204   -114.65678   0.60218738   -114.05459     8271.139    4.3046411    4.3046411    4.3046411     8271.139    23297.455   -8535.8675     10051.83    11026.903    -1768.711    39204.607    79.764722 
   64600    1061.2971   -115.01241   0.96028388   -114.05212   -3242.1575    4.3149329    4.3149329    4.3149329   -3242.1575    2254.7679   -17274.609    5293.3681   -1221.7515   -914.26148    16742.605     80.33821 
   64700    1165.6692   -115.10262     1.054722   -114.04789    4866.8006    4.3130869    4.3130869    4.3130869    4866.8006    -6665.362   -5305.2123    26570.976   -13580.637   -474.83653    -9527.056    80.235143 
   64800    751.51812   -114.73475   0.67998939   -114.05476    -2062.168     4.309815     4.309815     4.309815    -2062.168    1308.1901   -14180.425     6685.731    4438.9205    2729.6568    24977.541    80.052684 
   64900    851.88483   -114.82735    0.7708033   -114.05654   -3890.3102    4.3118183    4.3118183    4.3118183   -3890.3102      3935.05   -1318.7707    -14287.21    7540.3678   -244.86059    21577.557    80.164367 
   65000    1220.5236   -115.15485    1.1043554   -114.05049    15199.669    4.3065568    4.3065568    4.3065568    15199.669    -976.6234    31222.719    15352.913   -12875.656   -5718.4961   -13042.808    79.871263 
   65100    954.76348   -114.91973   0.86389007   -114.05584   -6086.1015    4.3168047    4.3168047    4.3168047   -6086.1015   -16064.175    8544.3383   -10738.467   -7936.6749   -400.00893    16284.394    80.442802 
   65200    795.39487   -114.77828   0.71968999   -114.05859   -11406.524    4.3126965    4.3126965    4.3126965   -11406.524   -133.60308   -4946.0245   -29139.943    9876.7795   -614.07054    36105.245    80.213355 
   65300    1269.5238   -115.19924    1.1486918   -114.05055    11869.926    4.2994752    4.2994752    4.2994752    11869.926    6448.7129    15059.201    14101.865   -2718.6919    1912.9251   -7336.2144    79.477893 
   65400    1185.7358   -115.12614    1.0728787   -114.05326   -11648.976    4.3205628    4.3205628    4.3205628   -11648.976    -22486.43   -13464.821    1004.3219   -10120.054    1276.2069   -3143.7286    80.653079 
   65500     879.9927   -114.85197   0.79623589   -114.05574   -9624.4738    4.3143055    4.3143055    4.3143055   -9624.4738   -1756.2188   -14141.258   -12975.944     6294.948    2795.8125    40948.248    80.303169 
   65600    1045.6974     -114.996   0.94616901   -114.04983    18975.008    4.2995802    4.2995802    4.2995802    18975.008    12147.938    22296.825    22480.261    778.46094    2967.3968    2949.9608    79.483715 
   65700    1168.9291   -115.10893    1.0576717   -114.05125   -1220.3492     4.315293     4.315293     4.315293   -1220.3492   -16938.328    17452.293   -4175.0125   -10996.571   -3636.8028    -21201.73    80.358324 
   65800     834.5656   -114.81027    0.7551325   -114.05514    838.47902    4.3135556    4.3135556    4.3135556    838.47902   -1885.8709    6242.0359   -1840.7279    1520.2834   -2590.0541     25034.63    80.261303 
   65900    1048.9761   -115.00151   0.94913561   -114.05237   -1373.2308    4.3069738    4.3069738    4.3069738   -1373.2308     8045.119   -6738.2501   -5426.5614    10532.199   -1351.2494    26345.892    79.894465 
   66000    1177.0109   -115.11467    1.0649842   -114.04968   -2527.1779    4.3119634    4.3119634    4.3119634   -2527.1779   -8386.9748    1360.6643   -555.22329   -3767.6948   -213.71476   -16075.977    80.172458 
   66100    916.71813   -114.88221   0.82946583   -114.05274   -12194.707    4.3138795    4.3138795    4.3138795   -12194.707   -2360.0654   -18608.553   -15615.503   -5851.7474   -3465.6737    7531.5728    80.279384 
   66200    883.09233   -114.85258    0.7990405   -114.05354   -1868.2562    4.3073797    4.3073797    4.3073797   -1868.2562    12922.883   -18886.366    358.71424    3406.7039    2305.5875    36667.369    79.917053 
   66300    1048.3367   -115.00043   0.94855707   -114.05187   -821.22601    4.3099351    4.3099351    4.3099351   -821.22601   -3610.3166    108.63271    1038.0059    -1106.573    5770.0125   -11885.356    80.059372 
   66400    685.07657   -114.67531   0.61987168   -114.05543    697.27462    4.3141263    4.3141263    4.3141263    697.27462   -6826.5365     8078.349    840.01129   -5292.3103   -8447.5134   -13960.337    80.293165 
   66500    663.20516   -114.65519   0.60008197    -114.0551   -5120.1115    4.3119862    4.3119862    4.3119862   -5120.1115     10947.47   -14773.646   -11534.158    572.51031   -3139.0422    30274.489    80.173728 
   66600    942.00394    -114.9013   0.85234497   -114.04895    106.52073    4.3065458    4.3065458    4.3065458    106.52073    10123.945   -12931.353    3126.9699    1646.9546    4889.8456    7129.8417     79.87065 
   66700     806.4808   -114.78238   0.72972077   -114.05266   -11770.942    4.3127192    4.3127192    4.3127192   -11770.942   -8416.5405   -25154.559   -1741.7262   -6428.8596    1504.1947   -17976.591    80.214623 
   66800    586.76715   -114.58563   0.53091925   -114.05471    -11784.03    4.3144363    4.3144363    4.3144363    -11784.03    5426.9106   -26911.156   -13867.845   -6246.1633   -9037.1416    17148.519    80.310473 
   66900    922.51945    -114.8834   0.83471498   -114.04868    2406.0869     4.304289     4.304289     4.304289    2406.0869    17118.767   -13304.733    3404.2267    4299.2019    442.03339    22683.696     79.74515 
   67000    764.19963   -114.74382   0.69146389   -114.05236   -7870.5226    4.3112001    4.3112001    4.3112001   -7870.5226   -8510.6214   -23077.801    7976.8547   -167.90742    7878.3433   -10631.381     80.12989 
   67100    569.53351   -114.57063   0.51532589    -114.0553   -436.80952     4.311364     4.311364     4.311364   -436.80952   -2509.0951    243.94888    954.71766   -8741.0827   -9783.1631   -1030.0493    80.139027 
   67200    729.98564   -114.71218   0.66050635   -114.05168    11803.483    4.3082018    4.3082018    4.3082018    11803.483    13039.575    15528.204    6842.6712    525.48664     -1810.54    14612.166    79.962822 
   67300    703.31979   -114.68911   0.63637852   -114.05273   -1248.9514    4.3109209    4.3109209    4.3109209   -1248.9514   -9674.4604   -16122.115    22049.721    8076.5951    14108.882   -1235.2296     80.11432 
   67400     566.2742   -114.56701   0.51237679   -114.05464   -483.28608    4.3081195    4.3081195    4.3081195   -483.28608   -6192.3426   -4049.6574    8792.1417   -768.25478   -338.30212   -13232.158    79.958242 
   67500    819.89858   -114.79436   0.74186147    -114.0525   -1350.1033    4.3116647    4.3116647    4.3116647   -1350.1033     7707.202   -16820.885    5063.3732    -4616.863   -12484.318    170.94708    80.155799 
   67600    764.99599   -114.74505   0.69218445   -114.05287   -2332.4268    4.3098361    4.3098361    4.3098361   -2332.4268   -6086.8135   -14976.346    14065.879     13074.88    10332.359    11752.997    80.053856 
   67700    505.93403   -114.51371   0.45777974   -114.05593   -8230.0657      4.30705      4.30705      4.30705   -8230.0657   -15401.671   -11620.625    2332.0981    11868.174    16306.066   -4173.4612    79.898705 
   67800    853.64994   -114.82644   0.77240041   -114.05404    -14555.14    4.3135252    4.3135252    4.3135252    -14555.14   -4165.6088   -29496.876   -10002.935   -6235.0893   -14629.592   -5667.0951    80.259607 
   67900    903.36865   -114.86797   0.81738693   -114.05058   -2782.1233    4.3108463    4.3108463    4.3108463   -2782.1233    942.27914    -20658.71    11370.061    9133.5438    2419.5081   -735.90983    80.110161 
   68000    620.73993   -114.61675   0.56165854   -114.05509    -6410.799    4.3061176    4.3061176    4.3061176    -6410.799   -19976.194   -1075.5251    1819.3217    15149.891    20141.226    747.81808    79.846826 
   68100    682.92953   -114.67536   0.61792899   -114.05743   -8340.7841    4.3120063    4.3120063    4.3120063   -8340.7841   -9002.2601   -13767.972   -2252.1201   -1002.9071   -843.85528   -7243.5185    80.174853 
   68200    1045.6741   -114.99683   0.94614789   -114.05068   -3746.9964     4.313793     4.313793     4.313793   -3746.9964    1241.0326   -15346.378    2864.3563    2279.4797   -5711.8873   -9671.1856    80.274556 
   68300     716.8775   -114.70315   0.64864583    -114.0545    6393.2108    4.3070287    4.3070287    4.3070287    6393.2108    -14435.81    16018.095    17597.347    15207.084    12838.792    4759.5649    79.897522 
   68400    753.87414   -114.73857   0.68212117   -114.05644   -5285.7707    4.3088541    4.3088541    4.3088541   -5285.7707   -12221.458   -8878.9575    5243.1034    7222.2897     16266.35   -11840.842    79.999151 
   68500     984.9915   -114.94433   0.89124101   -114.05309   -1512.4714    4.3142072    4.3142072    4.3142072   -1512.4714    5278.1107   -14373.274    4557.7491   -7974.8828    -10381.35   -17608.304    80.297681 
   68600    970.75942    -114.9309   0.87836352   -114.05254    445.34021    4.3091044    4.3091044    4.3091044    445.34021   -5385.6064   -4312.8267    11034.454    12413.486    510.83663    2542.0694    80.013094 
   68700    719.10611   -114.70781   0.65066232   -114.05714    1808.7246    4.3072579    4.3072579    4.3072579    1808.7246   -15995.955   -6928.6108    28350.739    16674.333    21165.554   -18.877608    79.910278 
   68800    1119.7722   -115.06741    1.0131934   -114.05422   -5680.8125    4.3144086    4.3144086    4.3144086   -5680.8125   -3563.5293   -9830.4603   -3648.4478   -6375.2842   -999.70502   -9097.2432    80.308924 
   68900    1164.6106   -115.10478    1.0537641   -114.05101     113.1237     4.312322     4.312322     4.312322     113.1237    1933.4054   -6893.6067    5299.5724    8448.9487   -2424.0642   -7608.4836    80.192462 
   69000     825.7733   -114.80419   0.74717703   -114.05701    4116.2249    4.3048583    4.3048583    4.3048583    4116.2249   -16098.182    3343.4562    25103.401     16443.52    11882.211    11609.174    79.776794 
   69100    1031.9637    -114.9918   0.93374249   -114.05806   -667.72168    4.3105053    4.3105053    4.3105053   -667.72168   -13920.216    17126.382   -5209.3306   -3598.7125    15501.127   -1013.0535    80.091154 
   69200     1349.509   -115.27158    1.2210641   -114.05051   -3941.3542    4.3170214    4.3170214    4.3170214   -3941.3542   -5965.9182    4251.0092   -10109.154      873.715   -2212.3759   -6915.9658    80.454922 
   69300    1003.0892   -114.96288   0.90761622   -114.05526   -895.61935    4.3071094    4.3071094    4.3071094   -895.61935   -18593.846    -420.1576    16327.145    25585.736    1031.8106    382.33179    79.902011 
   69400    868.93656   -114.84358   0.78623206   -114.05735    2665.5649    4.3054377    4.3054377    4.3054377    2665.5649   -21602.924    26908.378     2691.241    2849.7021    25101.289    887.02508    79.809012 
   69500    1330.5375   -115.25661    1.2038983   -114.05272   -8162.6015    4.3172879    4.3172879    4.3172879   -8162.6015   -16332.982    6303.6313   -14458.454    -12571.78    1396.0987   -1091.1101    80.469822 
   69600    1202.4754   -115.13931     1.088025   -114.05128   -4143.0418    4.3117932    4.3117932    4.3117932   -4143.0418   -16381.579   -1594.4465    5546.8999    17524.498    -9220.836   -4928.7912    80.162965 
   69700    839.30667   -114.81414   0.75942231   -114.05472   -2115.6106    4.3050684    4.3050684    4.3050684   -2115.6106   -25680.843    18441.245     892.7655    8177.5873    19446.956    6674.1913    79.788473 
   69800    1136.4319    -115.0826    1.0282675   -114.05434    -5319.095    4.3129854    4.3129854    4.3129854    -5319.095   -21522.905    12925.895   -7360.2751   -13119.062    14006.982   -2056.4577    80.229477 
   69900    1286.1802   -115.21441    1.1637629   -114.05065   -1742.7868    4.3131022    4.3131022    4.3131022   -1742.7868    -13216.95    6361.5019    1627.0878    13419.657    -11870.72   -9039.6233    80.235996 
   70000    879.21624   -114.85177   0.79553333   -114.05623   -4086.3779    4.3093806    4.3093806    4.3093806   -4086.3779   -29281.009     17633.83   -611.95527    16263.368    4669.4179   -168.89397    80.028479 
   70100    939.56677   -114.90808   0.85013976   -114.05794   -1170.2744    4.3068315    4.3068315    4.3068315   -1170.2744   -16228.439    23631.896    -10914.28    -2929.371    26396.812    7673.2623    79.886547 
   70200     1232.388   -115.16754    1.1150906   -114.05245    5620.9477    4.3108188    4.3108188    4.3108188    5620.9477   -1146.9953    17872.408    137.43021   -5671.0065    -8035.968    15615.098    80.108627 
   70300    963.60403   -114.92514   0.87188918   -114.05325   -6935.3569    4.3180842    4.3180842    4.3180842   -6935.3569   -32817.775    21188.474   -9176.7696    11987.618   -8205.6566   -1964.7099    80.514357 
   70400    828.54178   -114.80396   0.74968201   -114.05427    1296.3893    4.3057185    4.3057185    4.3057185    1296.3893   -10140.462    24679.141    -10649.51    7956.8648     28073.64    2153.5946    79.824629 
   70500    1090.6724   -115.03919   0.98686335   -114.05233     13022.05     4.304112     4.304112     4.304112     13022.05    9800.4722    24718.704    4546.9734   -7872.1913     7441.464    12963.603    79.735313 
   70600    1154.2675   -115.09638    1.0444055   -114.05197   -7388.5335    4.3190012    4.3190012    4.3190012   -7388.5335   -22272.733     5846.764   -5739.6314    12723.376   -15650.907   -401.96813     80.56566 
   70700    869.77431   -114.84213   0.78699008   -114.05514    1296.8824    4.3089864    4.3089864    4.3089864    1296.8824   -8680.8412    18425.238   -5853.7493    12851.367    14255.852   -566.28534     80.00652 
   70800    965.70257   -114.92868   0.87378798   -114.05489    6943.4186    4.3042724    4.3042724    4.3042724    6943.4186    10655.369    12084.257    -1909.371   -3766.4646    19896.819    9322.7186    79.744227 
   70900    1235.1932   -115.16863    1.1176287   -114.05101   -2701.5922    4.3150583    4.3150583    4.3150583   -2701.5922    3477.8413   -7540.1584   -4042.4596   -706.74825   -6517.4137    14899.499     80.34521 
   71000    1062.9441   -115.01545   0.96177417   -114.05368    3903.0468    4.3086173    4.3086173    4.3086173    3903.0468    2781.3815    3531.5377    5396.2212    8328.1329    6711.6094   -3062.8361    79.985962 
   71100    889.20576   -114.86112   0.80457206   -114.05654    1338.2332    4.3102066    4.3102066    4.3102066    1338.2332   -11603.254    8482.8826    7135.0706    6266.2395    21128.351   -1595.3611    80.074505 
   71200    1196.4778   -115.13515    1.0825983   -114.05255   -1480.0018    4.3118563    4.3118563    4.3118563   -1480.0018    15286.499   -14386.299    -5340.206   -3259.7825   -2406.9187    21276.226    80.166486 
   71300    1160.3784   -115.10266    1.0499347   -114.05272    14294.349    4.3035507    4.3035507    4.3035507    14294.349    23187.573    -3952.554    23648.026    10447.757   -4452.7661    2314.9483    79.704119 
   71400    959.39181   -114.92665   0.86807787   -114.05857   -5378.2123    4.3141639    4.3141639    4.3141639   -5378.2123   -26953.609   -5705.1682     16524.14     13952.21    20804.114   -4591.9535    80.295264 
   71500    1124.3298   -115.07191    1.0173172    -114.0546   -876.66705    4.3107687    4.3107687    4.3107687   -876.66705    10113.794   -3263.0539   -9480.7407   -2705.9773     12609.88    11935.209    80.105838 
   71600    1204.0187   -115.14072    1.0894214    -114.0513    16667.944    4.3023499    4.3023499    4.3023499    16667.944    32110.455    262.87569    17630.501    835.86145   -10723.538    13737.448    79.637423 
   71700    998.52807   -114.95974   0.90348919   -114.05625   -11560.325    4.3161235    4.3161235    4.3161235   -11560.325   -30237.722   -15587.237    11143.983    15490.972    12163.621   -1005.4605     80.40473 
   71800    1014.4707   -114.97357   0.91791439   -114.05566    2165.8657    4.3082956    4.3082956    4.3082956    2165.8657    1430.4501    14577.911   -9510.7637    9649.6309    17630.179    199.42263    79.968046 
   71900    1290.1319   -115.21907    1.1673384   -114.05173    11776.043    4.3041303    4.3041303    4.3041303    11776.043    28836.756    5329.2806    1162.0915   -10633.039   -3385.6799    19844.867    79.736327 
   72000    968.78628   -114.93225   0.87657818   -114.05567   -8068.4732    4.3158587    4.3158587    4.3158587   -8068.4732   -13768.491    -19217.21    8780.2808    2894.1202    3301.3408    3895.8621    80.389932 
   72100      896.075    -114.8681   0.81078749   -114.05732    1827.0196    4.3071232    4.3071232    4.3071232    1827.0196   -3968.7099    11369.471    -1919.702    17485.662    9478.4222   -6517.2297    79.902779 
   72200    1274.1816   -115.20702    1.1529063   -114.05411    2195.4008    4.3071074    4.3071074    4.3071074    2195.4008    15839.369   -1294.0488   -7959.1182    1138.9896    3739.2997    9248.5466    79.901898 
   72300    1065.2995   -115.01948    0.9639054   -114.05558    -2321.609     4.311666     4.311666     4.311666    -2321.609    3454.1913   -14971.929    4552.9107   -3525.1177   -9593.4717    9447.2064     80.15587 
   72400    877.18324   -114.85223   0.79369383   -114.05853   -1710.1311    4.3080051    4.3080051    4.3080051   -1710.1311   -9922.6087   -1903.3238    6695.5392    4556.6368    6677.0072    2193.8795    79.951871 
   72500    1182.2272   -115.12466     1.069704   -114.05496   -6696.7885     4.312101     4.312101     4.312101   -6696.7885    5021.6062    -15133.35   -9978.6221    5795.9252    15083.354   -10513.534    80.180131 
   72600    1157.1799   -115.10143    1.0470407   -114.05439   -3772.5975     4.306213     4.306213     4.306213   -3772.5975    7116.8111   -12319.432   -6115.1718   -7127.7924   -15476.091   -2837.5597    79.852136 
   72700    889.02874   -114.86294   0.80441189   -114.05852    471.16308    4.3073696    4.3073696    4.3073696    471.16308    1795.1574   -5505.8744    5124.2063    1524.6652   -2852.2125    6176.4874    79.916493 
   72800    1132.9093   -115.07962    1.0250801   -114.05454   -10893.735     4.316311     4.316311     4.316311   -10893.735   -4625.5511    -21231.94   -6823.7144    16656.449    10339.379   -10881.307    80.415207 
   72900    1153.6811   -115.09695    1.0438749   -114.05307    2130.1505    4.3027833    4.3027833    4.3027833    2130.1505    18009.885   -6761.2521    -4858.182   -4928.9706   -6200.0667   -14931.588    79.661492 
   73000    970.87171   -114.93684   0.87846512   -114.05837    1246.4542    4.3063796    4.3063796    4.3063796    1246.4542    1804.1717    5487.7955   -3552.6045   -9771.0455   -8430.0024     4688.915    79.861399 
   73100    1074.4269   -115.02704   0.97216404   -114.05488   -7481.6832    4.3165769    4.3165769    4.3165769   -7481.6832   -2194.9428   -21993.793    1743.6866   -100.98972   -5025.6078   -1883.7865    80.430069 
   73200    1129.8411   -115.07568     1.022304   -114.05338    3390.5243    4.3034207    4.3034207    4.3034207    3390.5243    17755.519   -9188.7324    1604.7866     6206.176    5807.7796   -30762.516    79.696899 
   73300    1003.9464   -114.96536   0.90839181   -114.05697   -1358.9953    4.3075579    4.3075579    4.3075579   -1358.9953   -2147.8718    1852.1386   -3781.2528   -6780.1266   -7973.0991   -7799.3581    79.926975 
   73400    1196.7013   -115.13615    1.0828005   -114.05335   -8230.7973    4.3131093    4.3131093    4.3131093   -8230.7973   -22607.423   -13962.227    11877.258   -13662.758    -12189.17    13566.756    80.236391 
   73500    953.24843   -114.91787   0.86251922   -114.05535    9607.3023    4.3046574    4.3046574    4.3046574    9607.3023    22406.254   -15742.538    22158.191    6324.8493    6327.5067   -26934.042    79.765625 
   73600    1002.5972   -114.96443   0.90717102   -114.05726   -5916.2254    4.3101441    4.3101441    4.3101441   -5916.2254    2183.7835   -19630.905    -301.5545    1486.5908    -8467.296   -27273.916    80.071023 
   73700    1214.5525   -115.15151    1.0989526   -114.05256    1648.1227    4.3094481    4.3094481    4.3094481    1648.1227   -28281.974   -28.034111    33254.376   -6704.0708   -11901.933    7220.3525    80.032241 
   73800    1004.0772   -114.96395   0.90851013   -114.05544    7552.8091    4.3068349    4.3068349    4.3068349    7552.8091   -16.173833   -11509.319     34183.92   -2087.1685    2668.0547   -13477.874    79.886738 
   73900    862.14565   -114.83844   0.78008751   -114.05835    44.355512    4.3097903    4.3097903    4.3097903    44.355512    24426.835   -30928.219     6634.451    4401.2802    1171.9528   -27520.407    80.051305 
   74000    1102.8222   -115.05242   0.99785666   -114.05456    5243.1513    4.3083381    4.3083381    4.3083381    5243.1513   -19963.352   -3460.3188    39153.125    1806.1009   -8954.2749    4977.5332    79.970413 
   74100    1148.0494    -115.0919    1.0387792   -114.05312   -5520.9219    4.3108401    4.3108401    4.3108401   -5520.9219   -22011.105   -822.36092    6270.7004   -4005.5465   -10291.549   -5574.8515    80.109816 
   74200    793.27917   -114.77537   0.71777566   -114.05759    -2414.634    4.3069676    4.3069676    4.3069676    -2414.634    11953.153   -22453.005    3255.9501    6357.1048    6450.3933   -36285.404    79.894121 
   74300    934.75063   -114.90329   0.84578201   -114.05751    1956.6381    4.3080121    4.3080121    4.3080121    1956.6381    7179.4771   -16694.385    15384.822    5997.4345   -1722.2058    2524.4737    79.952258 
   74400    1165.3626   -115.10622    1.0544446   -114.05178   -11257.265    4.3151153    4.3151153    4.3151153   -11257.265   -26968.821   -2240.6944   -4562.2779   -2817.5741   -18386.424    13525.168    80.348398 
   74500    909.79339   -114.87713   0.82320017   -114.05393   -618.20933    4.3035405    4.3035405    4.3035405   -618.20933    673.44883   -4155.9108     1627.834   -826.67088    2713.5843    -29384.89    79.703555 
   74600    885.70862   -114.85922   0.80140777   -114.05781   -8123.6669    4.3079971    4.3079971    4.3079971   -8123.6669   -1535.3478   -24375.883    1540.2298    3652.3345    1271.0898   -14506.287    79.951423 
   74700    977.78827   -114.93912   0.88472338    -114.0544   -4168.0367    4.3158228    4.3158228    4.3158228   -4168.0367    -6549.884   -11414.309    5460.0825    7429.1109   -12562.604     22875.92    80.387923 
   74800    1168.5715   -115.10773    1.0573481   -114.05038     6734.771    4.3019388    4.3019388    4.3019388     6734.771    8357.1507    2315.0271    9532.1351   -212.72575    7978.6511   -9052.6196    79.614595 
   74900    812.39991    -114.7914   0.73507651   -114.05632   -4301.4287    4.3107828    4.3107828    4.3107828   -4301.4287   -2238.2081   -22398.096    11732.018    1689.9583    7301.0613   -24950.212    80.106623 
   75000    968.35063   -114.92987     0.876184   -114.05369   -13322.849    4.3152689    4.3152689    4.3152689   -13322.849   -9182.1583   -27255.132   -3531.2554    7724.7844    -4454.817    23485.499    80.356976 
   75100    1091.6957   -115.03773   0.98778922   -114.04995    16584.002    4.3034539    4.3034539    4.3034539    16584.002    24915.195   -2072.8051    26909.615   -6792.3304   -197.36282     8984.384    79.698739 
   75200    1058.7297   -115.00969   0.95796089   -114.05172   -938.30229    4.3101822    4.3101822    4.3101822   -938.30229     9977.679   -15775.788     2983.202   -207.55472    5358.9611   -24390.052    80.073145 
   75300     881.4764   -114.85311   0.79757838   -114.05553   -4208.3416    4.3097345    4.3097345    4.3097345   -4208.3416    6119.4358   -23229.143    4484.6828    14726.738    5208.6683    11059.507    80.048196 
   75400    999.64875   -114.96049   0.90450319   -114.05599    2595.2232    4.3087019    4.3087019    4.3087019    2595.2232    15069.266   -21667.635    14384.039    2961.3605   -6973.0086    22427.357     79.99067 
   75500    1187.7605   -115.12556    1.0747107   -114.05085    977.74736    4.3117449    4.3117449    4.3117449    977.74736    12018.692    -16532.99    7447.5392   -10461.419     1744.219   -10893.899    80.160273 
   75600    1003.9629   -114.96201   0.90840669    -114.0536    7943.9288    4.3049623    4.3049623    4.3049623    7943.9288    24629.639   -9388.0469    8590.1946   -3083.2142    11678.254    -3010.335    79.782575 
   75700    919.88315   -114.88943    0.8323296    -114.0571   -3537.6611    4.3112313    4.3112313    4.3112313   -3537.6611    19140.325   -28219.412   -1533.8963    9039.9767   -2384.6044     28260.47    80.131627 
   75800    1187.3174   -115.12778    1.0743098   -114.05347   -7325.0628    4.3111866    4.3111866    4.3111866   -7325.0628    1255.1989   -25833.848    2603.4608   -13719.309    3219.1894    6149.6775    80.129135 
   75900    1145.2813   -115.08946    1.0362746   -114.05318    10552.652    4.3042256    4.3042256    4.3042256    10552.652    20264.271    4063.5019    7330.1839   -10182.957    7547.6202   -8109.0318    79.741622 
   76000    1110.7691   -115.05963    1.0050472   -114.05458   -7424.4361    4.3127027    4.3127027    4.3127027   -7424.4361    23331.834   -24046.597   -21558.546     13274.69   -832.81751    18780.909    80.213703 
   76100    1052.0478   -115.00685     0.951915   -114.05494   -3670.8533    4.3089614    4.3089614    4.3089614   -3670.8533    17737.906   -28387.172   -363.29394   -14351.305    3553.0756    12377.443    80.005128 
   76200    1129.0917   -115.07606    1.0216259   -114.05444    4657.4074    4.3055818    4.3055818    4.3055818    4657.4074    8004.6602   -2422.0844    8389.6465   -21135.622    7221.0136   -4480.0439    79.817025 
   76300    1186.7463   -115.12629     1.073793    -114.0525   -959.11174     4.312733     4.312733     4.312733   -959.11174    33921.461   -11311.729   -25487.067    6316.4054    7477.7416    10514.838    80.215391 
   76400    1075.1959    -115.0266   0.97285986   -114.05374    1728.6615    4.3075963    4.3075963    4.3075963    1728.6615    36881.911    -23860.75   -7835.1764    730.69394   -5762.1517    17010.384    79.929109 
   76500    874.36815   -114.84836   0.79114668   -114.05721    4465.2914    4.3091085    4.3091085    4.3091085    4465.2914    16269.831   -19624.181    16750.224    -28354.23    2907.2484   -825.13708    80.013318 
   76600    1171.3082   -115.11308    1.0598242   -114.05326   -2581.0543    4.3100916    4.3100916    4.3100916   -2581.0543    11490.933   -6413.5446   -12820.552   -7372.8819     10312.63    -1599.841    80.068099 
   76700    1101.0566   -115.04918   0.99625912   -114.05293     4472.154    4.3056482    4.3056482    4.3056482     4472.154    30273.411   -3373.0077   -13483.941    3636.7152   -4782.8513    14389.603    79.820716 
   76800    829.68362   -114.80838   0.75071518   -114.05767   -7030.8298    4.3130107    4.3130107    4.3130107   -7030.8298    2232.6698   -27808.038    4482.8792   -29615.547    -1339.662    7936.4963    80.230887 
   76900    1013.7255   -114.97157   0.91724015   -114.05433    3763.2696    4.3085494    4.3085494    4.3085494    3763.2696    18429.715   -14531.286    7391.3798   -10722.847   -38.635805   -6029.3936    79.982176 
   77000    1044.9767   -114.99677   0.94551691   -114.05125     10902.94    4.3049355    4.3049355    4.3049355     10902.94    28528.029    8932.3395   -4751.5487    10055.102    4071.6222    8312.0558    79.781084 
   77100    655.48442   -114.65042   0.59309608   -114.05733   -7747.6171       4.3146       4.3146       4.3146   -7747.6171    6557.4838   -17974.629   -11825.706   -19769.881   -3058.1241    11269.138    80.319616 
   77200    857.60312    -114.8287   0.77597733   -114.05272    1767.7254     4.309765     4.309765     4.309765    1767.7254    27488.224    -21835.11   -349.93833   -19947.079    681.21961   -150.78362    80.049897 
   77300    1071.3669   -115.01874   0.96939528   -114.04934    13465.696    4.3029725    4.3029725    4.3029725    13465.696    21671.411    7816.1702    10909.506    10454.457    6549.9518    1182.3006       79.672 
   77400    647.71338   -114.64401   0.58606468   -114.05795   -6989.6794      4.31275      4.31275      4.31275   -6989.6794   -962.44933   -8288.9898   -11717.599   -3367.5877   -9933.0504    11937.098     80.21634 
   77500    723.94547   -114.71279   0.65504107   -114.05774   -12599.568    4.3117818    4.3117818    4.3117818   -12599.568   -420.97974   -26324.711   -11053.013   -31640.342   -2260.1668    7449.7247     80.16233 
   77600    1067.3726   -115.01671   0.96578114   -114.05093    8071.2604    4.3058355    4.3058355    4.3058355    8071.2604    21326.656    -3320.853    6207.9789    4502.2954   -648.35182   -6585.4999    79.831134 
   77700    881.46022   -114.85066   0.79756373   -114.05309   -5479.3777    4.3122376    4.3122376    4.3122376   -5479.3777   -2369.4414   -4341.1177    -9727.574    9006.0574   -5363.9922    9002.4045    80.187755 
   77800    542.56095    -114.5497   0.49092055   -114.05878   -7662.0853    4.3094937    4.3094937    4.3094937   -7662.0853    4644.7393   -19150.853    -8480.142   -26611.227   -1740.3739    17110.799     80.03478 
   77900    863.53025   -114.84012   0.78134032   -114.05878    4058.6295    4.3050866    4.3050866    4.3050866    4058.6295    14029.282   -9945.0039    8091.6106     -7036.13   -2566.5229   -5999.5427     79.78949 
   78000    1167.1638    -115.1096    1.0560743   -114.05352    2133.2651    4.3106196    4.3106196    4.3106196    2133.2651    15682.899   -454.23949   -8828.8645    13608.379    1812.7242   -2988.8713    80.097527 
   78100    769.66368   -114.75522   0.69640787   -114.05881   -9419.2791    4.3141226    4.3141226    4.3141226   -9419.2791   -1123.4338   -10115.831   -17018.572    -12330.03   -5339.7939    15844.219    80.292959 
   78200    706.88473   -114.69851   0.63960416   -114.05891   -5414.1531    4.3074177    4.3074177    4.3074177   -5414.1531   -11334.942   -9429.3333    4521.8162   -22381.668    1149.9771    590.21765    79.919169 
   78300    1231.9591   -115.16797    1.1147025   -114.05327    3150.3548    4.3054689    4.3054689    4.3054689    3150.3548    9871.1742    4650.0891    -5070.199     4596.023    3767.2192   -11963.345    79.810745 
   78400    1245.2007   -115.18048    1.1266838   -114.05379   -6935.7019    4.3129266    4.3129266    4.3129266   -6935.7019   -5118.0875   -316.45357   -15372.565    1691.7078    1207.5317    16358.503    80.226197 
   78500    725.86491   -114.71678   0.65677782      -114.06   -5682.2417    4.3104845    4.3104845    4.3104845   -5682.2417   -15218.938   -4796.0247    2968.2373    -25146.05    1239.2637    14284.207    80.089993 
   78600    1048.2957   -115.00689   0.94851999   -114.05837   -389.35368    4.3050724    4.3050724    4.3050724   -389.35368    5527.7509    1106.7139   -7802.5258   -3684.0907   -3540.5669   -24737.807    79.788701 
   78700    1380.7457   -115.30221    1.2493277   -114.05288    4429.0897    4.3105221    4.3105221    4.3105221    4429.0897    11536.133    10884.371   -9133.2356    4881.3901    2706.7364   -6971.3536     80.09209 
   78800    1096.3742   -115.04949   0.99202244   -114.05747   -1523.2157    4.3108146    4.3108146    4.3108146   -1523.2157   -5283.9868   -2804.0358    3518.3753   -18640.993   -1529.2905    22373.638    80.108396 
   78900    854.67125   -114.83369   0.77332451   -114.06036    2558.5636    4.3054613    4.3054613    4.3054613    2558.5636    25655.088   -10898.804   -7080.5928   -11311.941   -2193.9763   -8215.0886    79.810323 
   79000    1205.9144   -115.14726    1.0911367   -114.05613    2102.9026    4.3107451    4.3107451    4.3107451    2102.9026    7136.5929     8973.036   -9800.9211    4599.8978     3284.281    -15977.23    80.104521 
   79100    1310.7636   -115.23849    1.1860064   -114.05248    2744.3239     4.311013     4.311013     4.311013    2744.3239    830.59659    5519.2141     1883.161    1507.0255    467.11289    9837.5644    80.119458 
   79200    1022.5804   -114.98195   0.92525225    -114.0567    1660.4666    4.3054521    4.3054521    4.3054521    1660.4666    21079.477   -14235.159   -1862.9176   -20709.395   -185.68816   -4819.5121    79.809814 
   79300    953.33957    -114.9213   0.86260168    -114.0587   -2867.4514    4.3103452    4.3103452    4.3103452   -2867.4514     4852.901   -3636.5854   -9818.6697   -8981.9989   -2108.9782   -19552.447    80.082231 
   79400    1233.6153   -115.16992    1.1162011   -114.05372    2482.0584    4.3108401    4.3108401    4.3108401    2482.0584   -3096.9832    20426.177   -9883.0185    11601.378    8899.0329    2089.1754    80.109816 
   79500    1177.3773   -115.11957    1.0653157   -114.05425    2034.1177    4.3066554    4.3066554    4.3066554    2034.1177    4994.5691   -2887.1629    3994.9469   -13451.829    2598.3743    8211.7539    79.876748 
   79600    940.01266   -114.90854    0.8505432   -114.05799   -3336.9672    4.3089001    4.3089001    4.3089001   -3336.9672    5377.6636   -15048.796   -339.76958   -10538.917   -8227.9001   -20923.958    80.001711 
   79700    1131.6366   -115.07954    1.0239286   -114.05561   -4124.2648    4.3096667    4.3096667    4.3096667   -4124.2648   -3217.3214    5791.3438   -14946.817    847.33618    15433.404   -16782.217    80.044418 
   79800    1075.9275   -115.02884   0.97352177   -114.05532    3509.7061    4.3091558    4.3091558    4.3091558    3509.7061   -3116.2667    13487.654    157.73095   -3639.2046    17233.105    7443.6612    80.015955 
   79900     975.1495   -114.93931   0.88233576   -114.05697   -4903.5732    4.3091107    4.3091107    4.3091107   -4903.5732    744.56686   -26373.677     10918.39   -11704.442   -4934.8334   -4547.0821    80.013444 
   80000    1101.2913   -115.05142   0.99647151   -114.05495   -1365.3028    4.3073938    4.3073938    4.3073938   -1365.3028    9960.9083   -12796.953   -1259.8637   -6454.3547    3566.2013   -8699.8684    79.917839 
   80100    1157.4465   -115.10166    1.0472819   -114.05438    1733.9488    4.3109272    4.3109272    4.3109272    1733.9488    3184.8277    5979.8503   -3962.8317    9860.6572     14284.88   -804.50273    80.114673 
   80200    860.88594   -114.83686   0.77894769   -114.05791   -3196.4534    4.3106148    4.3106148    4.3106148   -3196.4534   -6086.7561   -14185.334     10682.73   -12377.231    1956.6305   -7116.9033    80.097257 
   80300    932.52381   -114.90183   0.84376714   -114.05806   -1203.0696     4.304471     4.304471     4.304471   -1203.0696    8632.3379   -25783.391    13541.845   -18326.302   -3417.7376   -17067.982    79.755263 
   80400    1243.9369   -115.17963    1.1255402   -114.05409   -214.58241    4.3098905    4.3098905    4.3098905   -214.58241    12086.999   -8893.7208   -3837.0255    7127.3669    7759.1748    10.730608    80.056888 
   80500    1048.5296   -115.00568   0.94873158   -114.05695   -8551.6011    4.3131914    4.3131914    4.3131914   -8551.6011   -9233.4121   -18228.697    1807.3057   -6222.6245    10279.351    14370.355    80.240973 
   80600    622.49538   -114.62445    0.5632469    -114.0612    1514.2853    4.3055963    4.3055963    4.3055963    1514.2853    1851.8872    -14890.42    17581.389   -15530.401     -7902.38   -13739.807    79.817832 
   80700    1102.7247    -115.0544   0.99776852   -114.05663   -2551.2536    4.3086103    4.3086103    4.3086103   -2551.2536    8205.3906   -17442.333    1583.1816     94.41145   -12241.863   -17121.411    79.985572 
   80800    1212.1926   -115.15019    1.0968173   -114.05337   -4996.5084    4.3127355    4.3127355    4.3127355   -4996.5084   -1181.1841   -13072.046   -736.29483   -2791.5034     7072.359    6918.9311    80.215533 
   80900     718.1118   -114.70988   0.64976265   -114.06011   -1101.9467    4.3062153    4.3062153    4.3062153   -1101.9467   -823.32052   -16022.448    13539.929   -12340.521    4294.8689    3034.3875    79.852261 
   81000    688.15554   -114.68363    0.6226576   -114.06098    1432.7744     4.308111     4.308111     4.308111    1432.7744    1989.2455   -72.727467    2381.8052   -99.809016   -12430.447   -7226.7599    79.957764 
   81100    1119.7172   -115.06693    1.0131437   -114.05379   -3413.7637    4.3116842    4.3116842    4.3116842   -3413.7637    3122.5094   -7373.9304     -5989.87    3272.3935   -7209.7274    2001.1945    80.156886 
   81200    975.43962   -114.93701   0.88259827   -114.05441   -1041.6916    4.3077432    4.3077432    4.3077432   -1041.6916    12055.581   -23206.915    8026.2591   -4655.3047    2676.1378    8355.4656    79.937291 
   81300    617.87861   -114.61744   0.55906955   -114.05837   -429.79163    4.3111209    4.3111209    4.3111209   -429.79163    6982.6441   -6020.4673   -2251.5516   -4175.4333   -8640.1944   -9730.3277     80.12547 
   81400    842.91405   -114.81664   0.76268634   -114.05396   -1458.3722    4.3108393    4.3108393    4.3108393   -1458.3722    4977.0157    5990.2029   -15342.335    710.44778   -14294.497   -3256.9194    80.109772 
   81500    1013.5925   -114.96899   0.91711977   -114.05187    4491.5183    4.3042483    4.3042483    4.3042483    4491.5183    21896.622    -8534.459    112.39156     1872.061     420.5978    21065.794    79.742885 
   81600    838.95865   -114.81594   0.75910742   -114.05684   -3302.6187    4.3101446    4.3101446    4.3101446   -3302.6187    18051.007   -18830.178   -9128.6851   -10559.397    1663.9327   -80.107854    80.071051 
   81700    681.43116   -114.67449   0.61657323   -114.05792   -4612.1851    4.3118955    4.3118955    4.3118955   -4612.1851    1999.4102    4882.9733   -20718.939   -2255.8393   -16304.572   -16474.752    80.168673 
   81800    842.05264    -114.8163   0.76190692   -114.05439    5293.4513    4.3068395    4.3068395    4.3068395    5293.4513    11706.393    15251.191    -11077.23    4913.0269    -3581.954    8838.0606    79.886991 
   81900    864.89451   -114.83558   0.78257472     -114.053   -1973.4371    4.3106684    4.3106684    4.3106684   -1973.4371    21180.882   -12679.942   -14421.251   -5673.8621    8156.0292    12271.511    80.100246 
   82000    729.32001    -114.7145   0.65990407   -114.05459    -9193.413     4.311295     4.311295     4.311295    -9193.413    7552.9578    -15360.79   -19772.407   -4580.3185   -8148.5562   -16273.711     80.13518 
   82100    648.51631     -114.643   0.58679119   -114.05621    4786.1297    4.3069612    4.3069612    4.3069612    4786.1297    4776.4168    27369.219   -17787.247   -3868.7749   -6508.4843   -4597.4377    79.893765 
   82200    963.03274   -114.92443   0.87137227   -114.05306    271.00726    4.3066923    4.3066923    4.3066923    271.00726     21301.19   -1108.4509   -19379.717    2864.8794    4344.7464    14312.294    79.878799 
   82300    732.89175   -114.71971   0.66313586   -114.05658   -4032.3192    4.3113958    4.3113958    4.3113958   -4032.3192    18549.756   -20118.748   -10527.965   -1087.2473   -4173.1861   -16203.071      80.1408 
   82400    643.34452   -114.63892   0.58211164   -114.05681   -4994.0752    4.3120606    4.3120606    4.3120606   -4994.0752    4840.6359    5389.5518   -25212.413   -8598.8672   -11132.917    -16615.92    80.177878 
   82500    963.91578    -114.9235   0.87217126   -114.05133    6047.7794    4.3063015    4.3063015    4.3063015    6047.7794    16604.883    23796.997   -22258.542    409.91721    5858.2296    12031.889    79.857058 
   82600    902.83981   -114.86984   0.81690843   -114.05294    2202.5091    4.3074497    4.3074497    4.3074497    2202.5091    21857.216    3329.1219   -18578.811   -1522.2927    10790.113   -6342.2568    79.920952 
   82700    614.27169   -114.61458   0.55580594   -114.05877   -5701.0623    4.3119614    4.3119614    4.3119614   -5701.0623    16393.781   -3531.2243   -29965.743    -6343.208    -10674.88   -28369.537    80.172346 
   82800    907.79978   -114.87768   0.82139632   -114.05629    1132.5354      4.30754      4.30754      4.30754    1132.5354    9310.3195     19030.97   -24943.684   -1818.9217   -3403.8019   -2495.6555     79.92598 
   82900     999.2835   -114.95727   0.90417271    -114.0531    8476.3193    4.3075185    4.3075185    4.3075185    8476.3193     11427.58    36243.655   -22242.277    4919.2371    10469.813    3208.1492    79.924783 
   83000     794.0712   -114.77447   0.71849231   -114.05598    -9048.658    4.3132126    4.3132126    4.3132126    -9048.658    21848.472   -12962.813   -36031.632    -3438.706     -1694.41   -29302.634    80.242158 
   83100    763.37573    -114.7473   0.69071841   -114.05658    233.23119    4.3074836    4.3074836    4.3074836    233.23119    15150.962   -41.851786   -14409.416   -8023.3547   -762.04104   -7824.3731    79.922836 
   83200    995.40015   -114.95434   0.90065898   -114.05368    8343.0693    4.3056657    4.3056657    4.3056657    8343.0693    3199.1069    38207.081    -16376.98    2226.9241    7946.1533    8069.2134     79.82169 
   83300    1055.3253   -115.00899   0.95488049   -114.05411   -7753.2199     4.312057     4.312057     4.312057   -7753.2199    13296.741   -3847.0485   -32709.352    796.69278    3121.5093   -19622.571    80.177679 
   83400    754.97589   -114.74061   0.68311805   -114.05749   -602.20353    4.3092122    4.3092122    4.3092122   -602.20353    17327.825   -4535.3718   -14599.064   -2915.1626   -9145.1725   -15746.392    80.019094 
   83500    832.65658   -114.81046   0.75340518   -114.05706    958.30575    4.3065881    4.3065881    4.3065881    958.30575   -1580.0676    16783.663   -12328.678   -10501.281    3649.9032    8713.9678    79.873003 
   83600    1072.9721   -115.02591   0.97084774   -114.05506    796.40586    4.3107685    4.3107685    4.3107685    796.40586    8060.4419    13602.967   -19274.191    -1428.254    15897.036    4041.5894    80.105825 
   83700    1082.9359   -115.03361   0.97986312   -114.05375    5392.3774    4.3086939    4.3086939    4.3086939    5392.3774     13134.24    10811.799   -7768.9072    5104.5037   -5688.8435   -17795.886    79.990228 
   83800    750.78541   -114.73785   0.67932642   -114.05853   -3306.6323    4.3087638    4.3087638    4.3087638   -3306.6323   -70.847239    11488.864   -21337.913   -5533.3138   -4811.8444   -2308.3178     79.99412 
   83900    787.80684   -114.77162   0.71282418    -114.0588   -606.50963     4.311366     4.311366     4.311366   -606.50963    2551.7321    11828.323   -16199.584    3799.1569    10980.909      14692.2     80.13914 
   84000    1211.2638   -115.14736     1.095977   -114.05138    8970.9474    4.3070421    4.3070421    4.3070421    8970.9474    11399.275    22221.697   -6708.1299   -1594.7756    5614.7605   -673.71154    79.898266 
   84100    1030.3731   -114.98794   0.93230327   -114.05564   -2870.3145    4.3081448    4.3081448    4.3081448   -2870.3145   -2904.6222      8184.73   -13891.051   -4863.5915   -4181.3868   -9170.5574    79.959646 
   84200    536.58364   -114.54794   0.48551215   -114.06243   -8926.5034    4.3115383    4.3115383    4.3115383   -8926.5034   -15327.791    5926.6303   -17378.349   -1548.1164    5350.3421     5691.873    80.148749 
   84300    849.82421   -114.82672   0.76893881   -114.05778    7521.1191    4.3073109    4.3073109    4.3073109    7521.1191    10147.716      21517.6   -9101.9591   -3698.9015    9841.3541    18267.997    79.913226 
   84400     1206.935   -115.14299    1.0920601   -114.05093   -1690.4233     4.310347     4.310347     4.310347   -1690.4233   -3203.3927     3751.773     -5619.65    9206.5992   -7775.3732   -214.17545    80.082333 
   84500    656.35631   -114.65136   0.59388498   -114.05748    -11343.92    4.3118757    4.3118757    4.3118757    -11343.92   -34216.626     5126.222   -4941.3565   -4071.7326    3913.4091    1968.6161    80.167564 
   84600    607.30312   -114.60754   0.54950063   -114.05804   -3389.8648    4.3046875    4.3046875    4.3046875   -3389.8648   -14709.516    22322.178   -17782.257   -5390.3142    11996.341    20908.969      79.7673 
   84700    958.27712    -114.9217   0.86706928   -114.05463    4481.3069    4.3090628    4.3090628    4.3090628    4481.3069    14458.637     4770.085   -5784.8017    5119.9728   -884.70427    -1176.358    80.010776 
   84800    903.63166   -114.87248   0.81762491   -114.05485   -7621.6039    4.3123705    4.3123705    4.3123705   -7621.6039   -30113.835    428.71594    6820.3072   -5012.6997   -966.10642   -7446.4297    80.195167 
   84900     617.1473   -114.61602   0.55840785   -114.05761   -3167.0883     4.305946     4.305946     4.305946   -3167.0883   -32643.941    29514.704   -6372.0284   -1320.2762    7535.3017    16869.913    79.837282 
   85000    863.98218   -114.83664   0.78174924   -114.05489   -4746.3053    4.3099754    4.3099754    4.3099754   -4746.3053   -2792.2512    1107.4985   -12554.163   -3358.0218    6544.3028    7909.3863    80.061621 
   85100    796.74763   -114.77453   0.72091399   -114.05362    1199.1936    4.3119254    4.3119254    4.3119254    1199.1936    1910.2622    -3113.352    4800.6705   -4217.6899    292.52132   -15918.255    80.170336 
   85200    756.32453   -114.73873   0.68433833   -114.05439   -4565.7115    4.3084384    4.3084384    4.3084384   -4565.7115   -36289.798    20554.357     2038.307   -4418.8904     7347.342    216.80235    79.975998 
   85300    883.16821   -114.85243   0.79910916   -114.05332   -4023.9516    4.3073285    4.3073285    4.3073285   -4023.9516   -15873.849    6705.5067   -2903.5127    -1869.717    6645.6425    10970.942    79.914206 
   85400    856.94419   -114.83029   0.77538111   -114.05491    3169.8021    4.3087671    4.3087671    4.3087671    3169.8021    13522.121    2032.9526   -6045.6673    7159.6898   -3036.4751     -19344.8    79.994302 
   85500    722.13963   -114.70965   0.65340712   -114.05624   -4168.0124    4.3141566    4.3141566    4.3141566   -4168.0124   -16897.933    7871.2091   -3477.3132   -4492.0866    1702.2655   -14899.607    80.294855 
   85600    854.74847    -114.8275   0.77339438   -114.05411    473.33629    4.3078816    4.3078816    4.3078816    473.33629   -20001.728    13162.362    8259.3744    -6154.846    10171.861    8108.9717    79.944993 
   85700    959.24005   -114.92063   0.86794056   -114.05269    7558.1284    4.3059917    4.3059917    4.3059917    7558.1284    1234.3686    21020.123    419.89335    1846.6748    52.781714   -13696.964    79.839823 
   85800    776.03454   -114.75705   0.70217236   -114.05488   -6747.4098    4.3178039    4.3178039    4.3178039   -6747.4098   -5257.4883    -360.8497   -14623.891    1501.2777   -7200.0672   -16543.913    80.498679 
   85900    752.97844   -114.73447   0.68131072   -114.05316   -618.85256    4.3098633    4.3098633    4.3098633   -618.85256   -16134.954    1195.6865     13082.71   -107.57788    9058.3724    8094.2814    80.055376 
   86000    943.95099   -114.90471    0.8541067    -114.0506    4211.6553    4.3021342    4.3021342    4.3021342    4211.6553   -19996.939    18833.738    13798.167   -5865.2118    6413.8419   -8851.3203    79.625442 
   86100    985.91738   -114.94472   0.89207876   -114.05265   -11189.267    4.3155189    4.3155189    4.3155189   -11189.267   -12818.932    -7195.093   -13553.776    507.92532   -6535.5848   -21457.468    80.370943 
   86200    676.01762   -114.66703   0.61167495   -114.05536   -3220.6567    4.3119666    4.3119666    4.3119666   -3220.6567    337.37741   -10886.395    887.04789   -776.52538    -1668.882   -81.327939    80.172638 
   86300    771.15551   -114.75217   0.69775771   -114.05442   -788.10949    4.3047465    4.3047465    4.3047465   -788.10949   -23466.869    5104.2493    15998.291   -6931.3693    8108.7617    6097.5079    79.770581 
   86400    984.33087    -114.9411   0.89064325   -114.05046   -6130.6354    4.3138187    4.3138187    4.3138187   -6130.6354   -7304.0267    906.68311   -11994.563    1227.7071   -331.38301   -6777.4356    80.275992 
   86500     741.7783   -114.72407   0.67117659    -114.0529    -4092.405    4.3118396    4.3118396    4.3118396    -4092.405   -7541.3061   -699.90991   -4035.9991   -353.52684   -14241.598   -9654.7455    80.165554 
   86600     572.4375    -114.5756   0.51795348   -114.05765    3281.5226    4.3032166    4.3032166    4.3032166    3281.5226   -16070.262    16003.743     9911.087   -3514.2607    7396.0655    6155.0392    79.685556 
   86700    918.04429   -114.88554   0.83066576   -114.05487   -994.19534    4.3097713    4.3097713    4.3097713   -994.19534   -7961.9617    10317.975   -5338.5994   -1471.5285    7418.3794    8084.4736    80.050248 
   86800    971.77547   -114.93286   0.87928286   -114.05357   -12750.471    4.3142629    4.3142629    4.3142629   -12750.471   -34705.441    13163.009    -16708.98    2870.8685   -17274.461   -6157.2825    80.300791 
   86900    575.71833   -114.57853   0.52092204   -114.05761    2171.1602    4.3062217    4.3062217    4.3062217    2171.1602   -30955.766    33033.258    4435.9887    1313.5949   -6501.2147   -1576.2171    79.852615 
   87000    867.04021   -114.83922    0.7845162   -114.05471   -3138.5034    4.3077202    4.3077202    4.3077202   -3138.5034   -3951.8562   -4356.2252   -1107.4287    -1790.763    7826.8012    10493.164    79.936009 
   87100    924.98324   -114.89134   0.83694428    -114.0544   -8178.0272     4.312103     4.312103     4.312103   -8178.0272   -15016.835    9144.8781   -18662.125    -2110.496   -12942.505    8411.2126    80.180242 
   87200    858.42471   -114.83138   0.77672072   -114.05465   -3104.9168    4.3075284    4.3075284    4.3075284   -3104.9168   -23666.886    24483.829   -10131.693   -36.843996   -18290.544   -1503.6037     79.92533 
   87300    803.75037   -114.78264   0.72725023   -114.05539   -2641.1402    4.3114429    4.3114429    4.3114429   -2641.1402    11458.655   -19874.553    492.47686   -181.81893    8753.9712     7382.783    80.143429 
   87400     882.4992   -114.85219   0.79850382   -114.05369    -6695.668    4.3116088    4.3116088    4.3116088    -6695.668    5138.2254   -9654.1485   -15571.081    145.63875   -6462.5699    13033.553    80.152681 
   87500    948.34853   -114.91054   0.85808568   -114.05246    5.7496659    4.3059847    4.3059847    4.3059847    5.7496659   -7359.8857    27602.944   -20225.809    4807.6971   -27242.713   -2446.9594    79.839432 
   87600    1077.3302    -115.0272   0.97479102   -114.05241   -4421.0983    4.3126157    4.3126157    4.3126157   -4421.0983    3861.6255   -2777.1494   -14347.771   -4335.6694   -121.13504   -1713.8668    80.208849 
   87700    933.85038   -114.89927   0.84496745   -114.05431     2832.001    4.3103622    4.3103622    4.3103622     2832.001    12755.267    2757.4775   -7016.7419   -3031.6543    4873.3288    17366.724    80.083177 
   87800    906.83201   -114.87561   0.82052066   -114.05509    4789.3602    4.3080833    4.3080833    4.3080833    4789.3602    4356.8557    28417.513   -18406.288     1600.639   -22092.643    1443.8545    79.956226 
   87900    1130.4803   -115.07538    1.0228823    -114.0525     -3044.16    4.3144549    4.3144549    4.3144549     -3044.16     11556.04    6991.1048   -27679.625    3456.6164   -8807.0938   -9444.6491    80.311514 
   88000    1143.5122   -115.08715    1.0346738   -114.05248     14757.71    4.3039443    4.3039443    4.3039443     14757.71    23854.966    23645.379   -3227.2141   -1418.2749    15434.341    10927.288    79.725993 
   88100    859.52625   -114.83707   0.77771741   -114.05935     6472.706    4.3076727    4.3076727    4.3076727     6472.706    24268.517    11543.866   -16394.266   -6675.5975   -19157.158    8068.1318    79.933362 
   88200    1014.2013   -114.97443   0.91767065   -114.05675   -10087.003    4.3172358    4.3172358    4.3172358   -10087.003    8020.8057   -3319.6588   -34962.154      847.952   -22233.834   -8337.1305    80.466907 
   88300    1348.5989   -115.27182    1.2202407   -114.05158    12339.683    4.2998681    4.2998681    4.2998681    12339.683     16638.71    24575.027   -4194.6866    1213.9462    19676.618   -854.11886    79.499683 
   88400    1041.5792   -115.00052   0.94244271   -114.05808   -2172.7143    4.3081317    4.3081317    4.3081317   -2172.7143    12398.875    2907.3563   -21824.375    2439.4467    1767.5756    9017.5884    79.958919 
   88500    941.10254   -114.90929   0.85152935   -114.05776   -21913.297    4.3186087    4.3186087    4.3186087   -21913.297   -15858.491   -13114.041   -36767.358   -3108.9631   -33725.365    4201.5331    80.543698 
   88600    1313.8943   -115.23997    1.1888391   -114.05113    10159.627      4.29955      4.29955      4.29955    10159.627    9925.5483    22793.333   -2240.0001   -4791.8678    5769.1166   -6359.7087    79.482043 
   88700    1302.3906   -115.23114    1.1784304   -114.05271   -3415.7356    4.3091869    4.3091869    4.3091869   -3415.7356   -965.40649    10124.079   -19405.879    3515.7168     17607.05    4537.5881    80.017685 
   88800    893.57522   -114.86754   0.80852564   -114.05901   -16215.966    4.3158735    4.3158735    4.3158735   -16215.966   -17571.336   -2066.2306   -29010.332    141.00514   -29295.057    6565.1146    80.390757 
   88900    1002.3717   -114.96261   0.90696698   -114.05565    13912.944    4.3014539    4.3014539    4.3014539    13912.944     2648.274    30381.432    8709.1247    3297.6402   -14087.726   -3525.5155    79.587677 
   89000     1323.503   -115.25061    1.1975333   -114.05308    6927.2743    4.3107021    4.3107021    4.3107021    6927.2743    12722.622    12052.376   -3993.1754    154.02511    21380.705    281.89944    80.102126 
   89100     970.8718   -114.93679   0.87846521   -114.05832    5083.7824    4.3096939    4.3096939    4.3096939    5083.7824   -7728.6619    19351.413    3628.5962    -1814.416   -15560.755    5947.7397    80.045931 
   89200    706.13158   -114.69814   0.63892269   -114.05922    8652.8387    4.3070312    4.3070312    4.3070312    8652.8387   -10715.204    34538.317    2135.4028    2178.1392   -27173.537    2177.7321     79.89766 
   89300    1118.0317   -115.06259    1.0116186   -114.05097    892.82191    4.3154566    4.3154566    4.3154566    892.82191   -2772.1689   -2531.6962    7982.3309   -702.51548    13478.471   -1463.4744    80.367461 
   89400    1034.2483   -114.98715   0.93580962   -114.05134    12290.673    4.3030062    4.3030062    4.3030062    12290.673   -1592.6288    18712.996    19751.653    2055.4176   -7256.8303   -2832.2209    79.673872 
   89500    647.81405   -114.64527   0.58615576   -114.05912   -5120.6883    4.3055759    4.3055759    4.3055759   -5120.6883   -31769.731    27575.249   -11167.583   -2335.5343   -36301.013    6737.0713    79.816694 
   89600    871.03479   -114.84351   0.78813058   -114.05538   -19209.824    4.3168911    4.3168911    4.3168911   -19209.824   -40623.136   -17795.586    789.24875   -941.87673   -3647.2287    3073.1746    80.447637 
   89700    952.31044   -114.91394    0.8616705   -114.05227    6669.2106     4.304111     4.304111     4.304111    6669.2106   -5577.4781   -994.95005     26580.06    4174.0291   -253.90368   -5895.7559    79.735254 
   89800    681.49091    -114.6733    0.6166273   -114.05667   -5413.3099    4.3057984    4.3057984    4.3057984   -5413.3099   -19295.368    22783.968   -19728.529   -1166.1827   -31766.373    3566.6673     79.82907 
   89900    673.10547   -114.66451   0.60903997   -114.05547    -17170.83    4.3146367    4.3146367    4.3146367    -17170.83   -41309.955   -7396.5324   -2806.0024   -171.25831   -10412.915    6352.6031    80.321665 
   90000    797.93953   -114.77474   0.72199246   -114.05274    -932.2037    4.3062794    4.3062794    4.3062794    -932.2037   -26771.271   -10995.522    34970.182   -224.37248    9894.2927    4272.8063    79.855828 
   90100    658.83417   -114.65082     0.596127    -114.0547    3672.4463      4.30622      4.30622      4.30622    3672.4463   -9127.1185    22343.642   -2199.1844   -1248.8828   -27804.282   -2533.7258    79.852523 
   90200    717.51859   -114.70365   0.64922589   -114.05443   -5939.2834    4.3110064    4.3110064    4.3110064   -5939.2834   -29235.629    9119.3408     2298.438    3075.1143   -22553.598   -4427.8231    80.119087 
   90300    658.34943   -114.65028    0.5956884   -114.05459   -2628.8364    4.3075895    4.3075895    4.3075895   -2628.8364   -34448.596   -9298.4758    35860.563    -3832.838    14482.578     2866.156    79.928731 
   90400    692.40136    -114.6823    0.6264993    -114.0558   -5333.0755     4.309303     4.309303     4.309303   -5333.0755   -38519.124    15139.842    7380.0559   -2851.0972    -8947.931   -927.77511    80.024155 
   90500    805.94014   -114.78214   0.72923157    -114.0529    4754.4541    4.3082966    4.3082966    4.3082966    4754.4541   -16670.016    17548.502    13384.877    1215.7935   -24357.842   -2546.3443    79.968104 
   90600    671.00288   -114.66162   0.60713751   -114.05448   -8261.4739    4.3102113    4.3102113    4.3102113   -8261.4739   -28771.173   -11151.328    15138.079    1844.2827    38.114369   -4051.5499    80.074765 
   90700    542.40325   -114.54711   0.49077786   -114.05633   -15204.716    4.3118001    4.3118001    4.3118001   -15204.716   -50301.565   -3105.0755    7792.4914   -1345.8557    11825.143    4242.1082    80.163349 
   90800    913.08333   -114.87727   0.82617699    -114.0511    6525.9214    4.3041499    4.3041499    4.3041499    6525.9214   -20241.757    29336.557    10482.964   -3913.3792   -4489.9314    1467.3398    79.737415 
   90900    811.86609   -114.78906    0.7345935   -114.05447   -5260.2787    4.3110709    4.3110709    4.3110709   -5260.2787   -6506.2625   -7989.1054   -1285.4682    347.43846   -7690.7849   -16041.042    80.122686 
   91000     356.3495   -114.38326   0.32243252   -114.06082   -14534.348    4.3124135    4.3124135    4.3124135   -14534.348   -43071.822   -7722.5778    7191.3566    -2828.017    13092.779   -1267.1774    80.197568 
   91100    757.51129   -114.74246   0.68541213   -114.05705    1916.3001    4.3046882    4.3046882    4.3046882    1916.3001   -33711.238     22545.34    16914.799   -1297.8743    12078.636    545.86642    79.767338 
   91200    1040.5322   -114.99375   0.94149543   -114.05226    4177.8909    4.3105328    4.3105328    4.3105328    4177.8909   -5044.7106    10803.199    6775.1837    701.64939   -1494.1726   -6803.9519    80.092684 
   91300    598.96747   -114.60033   0.54195835   -114.05837   -3700.6112    4.3107724    4.3107724    4.3107724   -3700.6112   -22129.953   -1793.6281    12821.747    301.79137    7827.3283   -5698.5231    80.106041 
   91400    555.25244   -114.56193   0.50240407   -114.05953   -6579.5605    4.3091545    4.3091545    4.3091545   -6579.5605   -46591.226   -3895.9999    30748.544   -2944.1764    17443.596   -539.73805    80.015882 
   91500    964.99851   -114.92553   0.87315094   -114.05237   -1177.6155    4.3105202    4.3105202    4.3105202   -1177.6155   -22323.272    5234.6586    13555.767   -1835.1088    1364.1208    692.65111    80.091984 
   91600    865.12764   -114.83608   0.78278567    -114.0533    3344.4115    4.3065824    4.3065824    4.3065824    3344.4115   -11531.478    8093.4218     13471.29    3319.0316   -10521.261   -14253.224    79.872684 
   91700    691.26566   -114.68375    0.6254717   -114.05828   -4952.1366    4.3098383    4.3098383    4.3098383   -4952.1366   -31137.296   -20268.275     36549.16    2416.8895    10189.888   -475.99608    80.053981 
   91800     977.5707   -114.93814   0.88452652   -114.05362   -5985.1988    4.3101365    4.3101365    4.3101365   -5985.1988   -30858.361   -11540.525     24443.29     4962.614    8874.0055     503.5565    80.070601 
   91900    832.74107   -114.80869   0.75348162   -114.05521   -2017.8835    4.3079989    4.3079989    4.3079989   -2017.8835   -16708.755    8780.8857    1874.2187   -2681.6103   -15593.553   -15672.722    79.951526 
   92000    810.09083   -114.79049   0.73298721   -114.05751   -9124.1158    4.3106533    4.3106533    4.3106533   -9124.1158   -23881.212   -18212.199    14721.064    5795.6816   -4068.0797     -6094.09    80.099402 
   92100    1149.6816   -115.09194    1.0402561   -114.05168    820.62696    4.3093252    4.3093252    4.3093252    820.62696   -15951.014   -10932.403    29345.299    6411.1825    2198.1508    4319.8503     80.02539 
   92200    1097.9967   -115.04665   0.99349046   -114.05316   -4899.5904    4.3093203    4.3093203    4.3093203   -4899.5904   -13553.771    5172.4122   -6317.4128   -2585.0157   -16393.334   -2920.2526     80.02512 
   92300     662.3501   -114.65939   0.59930829   -114.06008   -4268.3755     4.309684     4.309684     4.309684   -4268.3755   -13004.935   -2151.5832    2351.3919    5500.8924    -10213.86   -9230.2248     80.04538 
   92400    1105.3776   -115.05541    1.0001689   -114.05524   -1746.7617    4.3105818    4.3105818    4.3105818   -1746.7617   -17694.759   -15133.398    27587.872    3373.5908    3162.2646   -889.09009    80.095416 
   92500     1281.546   -115.20979    1.1595697   -114.05022    2430.8613    4.3101252    4.3101252    4.3101252    2430.8613   -6307.1504    7192.3763    6407.3581   -19.472371    2465.1291   -598.73626    80.069968 
   92600    955.91899   -114.92128   0.86493559   -114.05634    3457.6003    4.3042072    4.3042072    4.3042072    3457.6003    7487.9458   -7170.6473    10055.502   -1743.7842   -10902.576   -9353.5927    79.740601 
   92700    867.63397   -114.84548   0.78505345   -114.06043    -3564.674    4.3110863    4.3110863    4.3110863    -3564.674   -7640.6065   -10066.756      7013.34    10036.368   -3669.0931   -3817.0405    80.123543 
   92800    1202.5765   -115.14402    1.0881165   -114.05591   -4680.2063    4.3119406    4.3119406    4.3119406   -4680.2063   -20120.968    7296.5405   -1216.1915    8641.9739    20310.472    6219.7522    80.171188 
   92900      1219.24   -115.15562     1.103194   -114.05243    7835.4837    4.3045292    4.3045292    4.3045292    7835.4837    13871.189    4243.3979    5391.8639   -3969.0173   -1416.6523   -8739.5784      79.7585 
   93000    1057.2216   -115.01186   0.95659631   -114.05526   -7859.0829    4.3123502    4.3123502    4.3123502   -7859.0829    7315.9953   -19385.185   -11508.059    4158.2361   -9512.2351   -12091.129    80.194033 
   93100    917.29777   -114.88734    0.8299903   -114.05735    306.63289    4.3095098    4.3095098    4.3095098    306.63289   -13439.343     23508.23   -9148.9877    7735.2491      24465.2    5841.4921    80.035676 
   93200    1196.4333   -115.13805     1.082558   -114.05549    4635.2646    4.3052582    4.3052582    4.3052582    4635.2646    5450.6824    10721.994   -2266.8827    3841.0818     24079.69   -4624.9235    79.799028 
   93300    1362.8309   -115.28619     1.233118   -114.05307    1244.9351    4.3105279    4.3105279    4.3105279    1244.9351    19099.457   -10959.047   -4405.6051   -2092.9478   -7337.5959   -9677.4258    80.092413 
   93400    965.95961     -114.933   0.87402055   -114.05898    2976.8711    4.3091035    4.3091035    4.3091035    2976.8711    5041.5212    10156.165   -6267.0732    7730.1949    8584.6239     941.8688     80.01304 
   93500    881.79251   -114.85874   0.79786439   -114.06088   -132.24181     4.310796     4.310796     4.310796   -132.24181   -6360.9931     12253.49   -6289.2219    5932.8986    28066.946    3022.4421    80.107359 
   93600    1398.1421   -115.31876    1.2650684    -114.0537    2605.4849    4.3076258    4.3076258    4.3076258    2605.4849    9294.0029    -4987.331    3509.7828   -4201.9922     217.1018   -3739.7837    79.930753 
   93700    1203.7134   -115.14488    1.0891452   -114.05573    13771.386    4.3042166    4.3042166    4.3042166    13771.386    30179.879   -2569.4003     13703.68    6875.1657    1492.7563   -6743.1615    79.741124 
   93800    781.79974   -114.77031   0.70738884   -114.06292   -11630.024    4.3163846    4.3163846    4.3163846   -11630.024   -17497.925   -513.26004   -16878.888    10618.434    31482.483    6846.8002     80.41932 
   93900    1048.2037   -115.00824   0.94843671    -114.0598    2700.3752    4.3070931    4.3070931    4.3070931    2700.3752   -5839.4789    9387.9721    4552.6323    7806.0345    2158.3126    2196.6165    79.901104 
   94000    1385.8119   -115.30611    1.2539118   -114.05219    14320.237    4.3004019    4.3004019    4.3004019    14320.237    19689.847    6328.6534    16942.211    -3162.125   -13738.956   -8799.3174    79.529293 
   94100    892.47606   -114.86771    0.8075311   -114.06018   -16931.103    4.3184698    4.3184698    4.3184698   -16931.103   -22134.273   -9853.9391   -18805.096   -344.15172    29903.978    4905.5882    80.535928 
   94200     688.0197   -114.68355   0.62253468   -114.06102   -1217.2498    4.3086763    4.3086763    4.3086763   -1217.2498   -7381.7264    3139.3086    590.66847    14732.548    15594.625    4739.0695    79.989244 
   94300    1176.2936   -115.11624    1.0643351   -114.05191     14191.62    4.3015843    4.3015843    4.3015843     14191.62    13488.662     17073.32     12012.88   -2289.8125   -21370.305    545.55835    79.594912 
   94400    1083.3809   -115.03419   0.98026576   -114.05392   -9823.1865    4.3142789    4.3142789    4.3142789   -9823.1865   -11763.259   -4625.8098   -13080.491   -5001.2704    6649.0986     1427.483    80.301686 
   94500    588.09907   -114.59251    0.5321244   -114.06039   -2471.0754    4.3088054    4.3088054    4.3088054   -2471.0754   -9586.4976   -7326.5866     9499.858    11792.111    25192.569     3859.485    79.996435 
   94600    854.94439   -114.83056   0.77357165   -114.05699    5347.4151    4.3080778    4.3080778    4.3080778    5347.4151    8836.1513   -3798.0241    11004.118    9020.6855   -4478.0418    8325.7279     79.95592 
   94700    1177.1292   -115.11701    1.0650912   -114.05192    2930.9073     4.307288     4.307288     4.307288    2930.9073     5110.091    7040.3721   -3357.7411   -5418.1053   -8504.3764   -4777.3459    79.911948 
   94800     691.1462   -114.68475   0.62536361   -114.05938    1960.4424    4.3054998    4.3054998    4.3054998    1960.4424    3639.6017   -316.79705    2558.5224   -221.87846    23034.968   -1454.9002    79.812463 
   94900    598.64542   -114.60297   0.54166695    -114.0613   -12502.401    4.3153914    4.3153914    4.3153914   -12502.401    -14734.57   -26008.212     3235.579    25006.859    11580.532    6809.3995    80.363819 
   95000    1035.4677   -114.99057   0.93691292   -114.05366     13288.05    4.3038811    4.3038811    4.3038811     13288.05    29695.406   -305.77344    10474.517    9063.0165   -12525.637     182.3094    79.722481 
   95100    971.25624    -114.9327   0.87881306   -114.05389    5590.1652    4.3046351    4.3046351    4.3046351    5590.1652     4405.278     10059.07    2306.1479    -11473.96    10783.585    970.77225    79.764386 
   95200    505.57635   -114.51747    0.4574561   -114.06001   -23879.892    4.3174482    4.3174482    4.3174482   -23879.892    -44356.86   -25990.406   -1292.4091    17813.281    18525.498    4347.1792    80.478787 
   95300    755.95172   -114.74121   0.68400101    -114.0572    5798.9992    4.3023052    4.3023052    4.3023052    5798.9992     15569.77   -14810.473      16637.7    18713.509   -2230.5374     5252.187    79.634935 
   95400    1160.0929   -115.10198    1.0496764    -114.0523     7961.893    4.3055397    4.3055397    4.3055397     7961.893     15813.42    1807.9232    6264.3364   -4595.1208    1886.2202   -5137.5324    79.814681 
   95500     787.9891    -114.7713   0.71298909   -114.05831   -10822.667    4.3137955    4.3137955    4.3137955   -10822.667   -31611.648    -6070.618    5214.2635    8884.2012    15874.923   -3727.7434    80.274694 
   95600    590.97852   -114.59479   0.53472978   -114.06006    558.50661    4.3046419    4.3046419    4.3046419    558.50661   -2218.9984   -14456.365    18350.883    23021.842    7232.0851    9690.6774    79.764764 
   95700    1038.2608   -114.99446   0.93944018   -114.05501    363.54269    4.3102665    4.3102665    4.3102665    363.54269    14339.719   -19679.256    6430.1652    2439.6855   -5503.5636   -66.835452    80.077842 
   95800    1057.8039   -115.01139   0.95712316   -114.05426    10219.839    4.3057261    4.3057261    4.3057261    10219.839    6304.6797    3947.1273    20407.711   -4932.4326    10594.759   -4747.2451    79.825047 
   95900    679.93935   -114.67562   0.61522342    -114.0604    1997.2469    4.3072291    4.3072291    4.3072291    1997.2469   -14635.133    235.38454     20391.49    26064.494    14182.848    -363.1381    79.908673 
   96000    903.44109   -114.87634   0.81745248   -114.05889   -13358.394    4.3141115    4.3141115    4.3141115   -13358.394   -20028.694   -28529.035    8482.5456    15283.045    -3575.583    4239.1773    80.292337 
   96100    1120.5767   -115.06682    1.0139213    -114.0529    18258.498    4.2987572    4.2987572    4.2987572    18258.498    24117.828     3437.806     27219.86   -12175.907   -2757.3275    569.00772    79.438084 
   96200     782.3832    -114.7684   0.70791677   -114.06048   -3962.4061    4.3109378    4.3109378    4.3109378   -3962.4061   -25781.969   -2902.9511    16797.702     17243.36    16386.011      -6324.2    80.115262 
   96300    759.82691   -114.74641   0.68750735   -114.05891   -18039.847    4.3165258    4.3165258    4.3165258   -18039.847   -41381.133   -22924.326    10185.919     28207.53    9846.0605     7273.879    80.427212 
   96400    1159.7648   -115.09845    1.0493796   -114.04907    17811.203    4.2950973    4.2950973    4.2950973    17811.203    15730.525    5729.8148     31973.27   -3350.6188   -6629.3531    3838.3785    79.235356 
   96500    881.29177   -114.85525   0.79741132   -114.05784   -4342.2163    4.3105126    4.3105126    4.3105126   -4342.2163   -7893.1351   -10705.727    5572.2129    2224.0083    3986.3796   -6621.2956    80.091561 
   96600     514.6148   -114.52885   0.46563428   -114.06321   -16494.969    4.3139794    4.3139794    4.3139794   -16494.969   -41208.199   -17451.903    9175.1946     30987.63    17954.073   -519.37394    80.284958 
   96700    926.75761   -114.89513   0.83854976   -114.05658    13683.758    4.2986794    4.2986794    4.2986794    13683.758    7572.8581    7465.2082    26013.208    9268.4973    4874.8832    3314.5115    79.433768 
   96800    1139.6763   -115.08503    1.0312031   -114.05383   -6627.4943    4.3122511    4.3122511    4.3122511   -6627.4943   -3318.4773   -19837.366    3273.3607   -7657.7189   -4921.3667   -99.423878    80.188507 
   96900    422.73278   -114.44398    0.3824975   -114.06148   -3075.1171    4.3101277    4.3101277    4.3101277   -3075.1171   -8692.5618   -11718.417    11185.627    27617.266    11349.849    -6529.917     80.07011 
   97000     567.6044   -114.57497   0.51358039   -114.06139    1520.9957    4.3047327    4.3047327    4.3047327    1520.9957   -7769.1146   -7304.5179     19636.62    19612.199    8807.3141    1413.1297     79.76981 
   97100    1162.7073   -115.10414     1.052042    -114.0521    -5547.288    4.3102593    4.3102593    4.3102593    -5547.288   -1697.6029   -22404.418    7460.1566   -12784.112   -3655.2581    1899.7467    80.077442 
   97200    665.04719   -114.66097   0.60174868   -114.05922    7986.4524    4.3039767    4.3039767    4.3039767    7986.4524    15225.904   -6215.0085    14948.461    11372.035    2416.6958   -5799.0215    79.727792 
   97300     323.2175   -114.35901   0.29245399   -114.06656   -6524.1389    4.3106364    4.3106364    4.3106364   -6524.1389   -12185.522   -13707.749    6320.8545    30182.578    16615.289   -1839.6227    80.098463 
   97400    988.68552   -114.95205   0.89458343   -114.05747   -7224.3334    4.3097096    4.3097096    4.3097096   -7224.3334   -8639.0017   -15690.019    2656.0204   -1565.8148    8863.1153    676.31308    80.046806 
   97500    932.76135   -114.89781   0.84398207   -114.05383    2744.9093    4.3039157    4.3039157    4.3039157    2744.9093    9510.1926   -15054.082    13778.618   -3989.9826   -6858.9853   -1306.7465    79.724402 
   97600     328.9592   -114.35994    0.2976492   -114.06229   -17226.529     4.313146     4.313146     4.313146   -17226.529   -26585.116   -25355.838    261.36854    32809.596    15854.968   -6668.3961    80.238443 
   97700    645.32798   -114.64675   0.58390632   -114.06285    -2376.411    4.3043685    4.3043685    4.3043685    -2376.411   -3039.0948    -3890.378   -199.76004    10891.054    19435.795    1508.4805    79.749564 
   97800    1129.2651     -115.076    1.0217828   -114.05421    2062.5616    4.3052053    4.3052053    4.3052053    2062.5616    11592.331   -12415.489    7010.8433   -12159.793   -6298.6623    3203.9163    79.796089 
   97900    677.81848   -114.67387    0.6133044   -114.06056   -15310.692    4.3144053    4.3144053    4.3144053   -15310.692   -18997.736   -30126.301    3191.9619    23776.678    2830.1337    -2459.642    80.308744 
   98000     347.2996   -114.37845   0.31424398   -114.06421    6302.5339    4.3034829    4.3034829    4.3034829    6302.5339    8777.7342    4233.4017    5896.4657    21339.943    22075.788   -1189.8817    79.700351 
   98100    1048.2795   -115.00492   0.94850536   -114.05642    169.49773    4.3066524    4.3066524    4.3066524    169.49773    11310.075   -8931.7087    -1869.873    -6078.554    7197.4249    1462.9281    79.876581 
   98200    1038.0417   -114.99394   0.93924194    -114.0547   -4889.4894     4.311112     4.311112     4.311112   -4889.4894    5301.6764   -20500.786    530.64147    5588.3427   -7747.9792    1983.9362    80.124979 
   98300    459.68028   -114.47809   0.41592838   -114.06217   -1448.3085    4.3060272    4.3060272    4.3060272   -1448.3085   -6852.1514   -5769.3373    8276.5631    25445.174    17027.086   -4116.7132    79.841795 
   98400    639.47393    -114.6397   0.57860945   -114.06109   -7577.9069    4.3091595    4.3091595    4.3091595   -7577.9069   -2126.6041   -2933.7762    -17673.34    4337.7297    21082.192    495.64902    80.016163 
   98500     1120.293   -115.06648    1.0136647   -114.05281   -412.33004    4.3070245    4.3070245    4.3070245   -412.33004    16858.289   -3052.3778   -15042.901   -7304.0935   -7328.2374     3359.909    79.897288 
   98600     765.7633   -114.75063   0.69287873   -114.05775   -3472.8644    4.3080948    4.3080948    4.3080948   -3472.8644   -7336.2019    -6150.308    3067.9166    18323.145    7471.4585   -1929.1256    79.956866 
   98700    418.04998   -114.44187   0.37826041   -114.06361   -9454.9014    4.3084606    4.3084606    4.3084606   -9454.9014   -5947.9213   -3799.8808   -18616.902    12053.446    25316.665   -974.09977    79.977234 
   98800    746.08255    -114.7338   0.67507117   -114.05873    5187.5107     4.305572     4.305572     4.305572    5187.5107    34359.282     7406.063   -26202.813   -4371.3662    1097.8005    -461.0257    79.816479 
   98900    999.59015    -114.9573   0.90445017   -114.05285   -6059.6849    4.3107973    4.3107973    4.3107973   -6059.6849    4775.6031   -6509.6815   -16444.976    3794.3957   -4134.4173    1909.4066    80.107434 
   99000    471.40864   -114.48682   0.42654045   -114.06028   -6088.6385    4.3076096    4.3076096    4.3076096   -6088.6385   -1392.5092    2437.6068   -19311.013    13793.271    23472.432   -5072.9085    79.929851 
   99100    415.81276    -114.4374   0.37623613   -114.06116    2093.3604    4.3053944    4.3053944    4.3053944    2093.3604    22211.308    10310.317   -26241.543      6857.13    17063.645   -2399.4599      79.8066 
   99200    921.63692   -114.88797   0.83391645   -114.05405   -6538.0858    4.3105286    4.3105286    4.3105286   -6538.0858    11300.288   -6271.9906   -24642.554   -10517.898   -10247.688    8033.8586    80.092451 
   99300    677.66907    -114.6693   0.61316921   -114.05614   -5051.9317    4.3077687    4.3077687    4.3077687   -5051.9317   -310.75458    8863.2895    -23708.33   -452.22629    15395.888   -1785.2447    79.938707 
   99400    404.59557   -114.42566   0.36608657   -114.05957   -876.48442      4.30684      4.30684      4.30684   -876.48442    2450.6754      12426.2   -17506.329    10558.368    26534.513   -4718.9348    79.887016 
   99500    707.14093   -114.69534   0.63983598   -114.05551   -1887.0715    4.3083413    4.3083413    4.3083413   -1887.0715    17388.465   -13218.993   -9830.6866   -4162.7569   -6690.8746    2345.0804    79.970592 
   99600    722.20476   -114.70803   0.65346604   -114.05456   -4029.5435    4.3078455    4.3078455    4.3078455   -4029.5435     6714.122    1105.3391   -19908.092   -14042.264    3781.5657    3976.0269    79.942987 
   99700    574.87132   -114.57715   0.52015565     -114.057   -6491.0909    4.3088748    4.3088748    4.3088748   -6491.0909   -2556.4234    14824.781    -31741.63    733.91642    25186.154   -5084.2376    80.000301 
   99800    707.14469   -114.69459   0.63983937   -114.05475     3435.745    4.3071743    4.3071743    4.3071743     3435.745    17476.354   -6999.3444   -169.77448    8048.9509     5468.231   -2861.7173    79.905621 
   99900    684.27871   -114.67442   0.61914976   -114.05527    1025.6908    4.3072367    4.3072367    4.3072367    1025.6908    23458.975   -13278.397   -7103.5056   -8503.6552   -7141.8498    6380.1906    79.909096 
  100000    540.82072   -114.54749   0.48934595   -114.05814   -7859.4431     4.309349     4.309349     4.309349   -7859.4431    4565.5582    4399.6029    -32543.49   -14580.313     14981.27    2701.0404    80.026716 
Loop time of 22.2271 on 1 procs for 100000 steps with 8 atoms

Pair  time (%) = 7.11328 (32.0028)
Kspce time (%) = 5.31147 (23.8964)
Neigh time (%) = 0 (0)
Comm  time (%) = 1.07217 (4.82369)
Outpt time (%) = 0.0260692 (0.117286)
Other time (%) = 8.70409 (39.1598)

Nlocal:    8 ave 8 max 8 min
Histogram: 1 0 0 0 0 0 0 0 0 0
Nghost:    2189 ave 2189 max 2189 min
Histogram: 1 0 0 0 0 0 0 0 0 0
Neighs:    2344 ave 2344 max 2344 min
Histogram: 1 0 0 0 0 0 0 0 0 0

Total # of neighbors = 2344
Ave neighs/atom = 293
Neighbor list builds = 0
Dangerous builds = 0
unfix 20
unfix 21
print "seeds:1067367"
seeds:1067367
