LAMMPS (10 Feb 2015)
# ---- initialize simulations
clear
units metal
dimension 3
boundary p p p
atom_style charge
atom_modify map array
# ---- create atoms
read_data /Users/eugeneragasa/pyflamestk_git/pypospack/tests/tests_integration/workflow/WorkflowLammpsThermalExpansion/param_8221/MgO_NaCl_unit.npt.T400/lammps.structure
  triclinic box = (0 0 0) to (4.2565 4.2565 4.2565) with tilt (0 0 0)
  1 by 1 by 1 MPI processor grid
  reading atoms ...
  8 atoms
# ---- define interatomic potential
include potential.mod
mass 1 24.305
mass 2 15.999

group Mg type 1
4 atoms in group Mg
group O type 2
4 atoms in group O

set group Mg charge 1.65389423724
  4 settings made for charge
set group O charge -1.65389423724
  4 settings made for charge

variable R_cut equal 10.0

pair_style buck/coul/long ${R_cut}
pair_style buck/coul/long 10
pair_coeff 1 1 0.0 0.5 0.0 ${R_cut}
pair_coeff 1 1 0.0 0.5 0.0 10
pair_coeff 1 2 1300.0678519 0.288744572517 0.0 ${R_cut}
pair_coeff 1 2 1300.0678519 0.288744572517 0.0 10
pair_coeff 2 2 40472.9144105 0.202420171096 26.2679081719 ${R_cut}
pair_coeff 2 2 40472.9144105 0.202420171096 26.2679081719 10

kspace_style pppm 1.0e-5

neighbor 1.0 bin
neigh_modify every 1 delay 0 check yes
# ---- define settings
compute eng all pe/atom
compute eatoms all reduce sum c_eng
# ---- run minimization
reset_timestep 0
fix 1 all box/relax iso 0.0 vmax 0.001
thermo 10
thermo_style custom step pe lx ly lz xy xz yz press pxx pyy pzz pxy pxz pyz c_eatoms
min_style cg
minimize 1e-25 1e-25 5000 10000
PPPM initialization ...
  G vector (1/distance) = 0.352799
  grid = 8 8 8
  stencil order = 5
  estimated absolute RMS force accuracy = 3.93787e-05
  estimated relative force accuracy = 2.7347e-06
  using double precision FFTs
  3d grid and FFT values/proc = 3375 512
Neighbor list info ...
  1 neighbor list requests
  update every 1 steps, delay 0 steps, check yes
  master list distance cutoff = 11
Memory usage per processor = 4.06549 Mbytes
Step PotEng Lx Ly Lz Xy Xz Yz Press Pxx Pyy Pzz Pxy Pxz Pyz eatoms 
       0   -110.27609       4.2565       4.2565       4.2565            0            0            0    110960.29    110960.29    110960.29    110960.29 9.3314123e-11 1.6239754e-10 5.8891323e-11   -110.27609 
      10   -110.39349     4.299065     4.299065     4.299065            0            0            0    52923.265    52923.265    52923.265    52923.265 1.8718586e-11 -3.674075e-11 -9.001309e-11   -110.39349 
      20   -110.43343      4.34163      4.34163      4.34163            0            0            0    2089.5567    2089.5567    2089.5567    2089.5567 6.9298069e-11 -1.296578e-10 -9.997383e-11   -110.43343 
      22   -110.43352     4.343513     4.343513     4.343513            0            0            0   -5.7193123   -5.7193123   -5.7193123   -5.7193123 4.586585e-11 9.062077e-11 2.6249224e-10   -110.43352 
Loop time of 0.0138299 on 1 procs for 22 steps with 8 atoms

Minimization stats:
  Stopping criterion = linesearch alpha is zero
  Energy initial, next-to-last, final = 
        -110.276087498     -110.433524975     -110.433524975
  Force two-norm initial, final = 16.0227 0.00180648
  Force max component initial, final = 16.0227 0.000859982
  Final line search alpha, max atom move = 0.00390625 3.35931e-06
  Iterations, force evaluations = 22 39

Pair  time (%) = 0.00369191 (26.6951)
Kspce time (%) = 0.00225711 (16.3204)
Neigh time (%) = 0 (0)
Comm  time (%) = 0.000425816 (3.07894)
Outpt time (%) = 3.29018e-05 (0.237902)
Other time (%) = 0.00742221 (53.6677)

Nlocal:    8 ave 8 max 8 min
Histogram: 1 0 0 0 0 0 0 0 0 0
Nghost:    2189 ave 2189 max 2189 min
Histogram: 1 0 0 0 0 0 0 0 0 0
Neighs:    2344 ave 2344 max 2344 min
Histogram: 1 0 0 0 0 0 0 0 0 0

Total # of neighbors = 2344
Ave neighs/atom = 293
Neighbor list builds = 0
Dangerous builds = 0
unfix 1
# ---- define output variables ----
variable natoms equal "count(all)"
variable tot_energy equal "c_eatoms"
variable length_x equal "lx"
variable length_y equal "ly"
variable length_z equal "lz"
variable tilt_xy equal "xy"
variable tilt_xz equal "xz"
variable tilt_yz equal "yz"
variable tot_press equal "press"
variable press_xx equal "pxx"
variable press_yy equal "pyy"
variable press_zz equal "pzz"
variable press_xy equal "pxy"
variable press_xz equal "pxz"
variable press_yz equal "pyz"

# ---- output ----
print "pypospack:output_section:begin"
pypospack:output_section:begin
print "tot_energy = ${tot_energy}"
tot_energy = -110.433524975286
print "num_atoms = ${natoms}"
num_atoms = 8
print "xx = ${length_x}"
xx = 4.34351296178449
print "yy = ${length_y}"
yy = 4.34351296178449
print "zz = ${length_z}"
zz = 4.34351296178449
print "xy = ${tilt_xy}"
xy = 0
print "xz = ${tilt_xz}"
xz = 0
print "yz = ${tilt_yz}"
yz = 0
print "tot_press = ${tot_press}"
tot_press = -5.71931225965551
print "pxx = ${press_xx}"
pxx = -5.71931225981032
print "pyy = ${press_yy}"
pyy = -5.71931225968463
print "pzz = ${press_zz}"
pzz = -5.71931225947158
print "pxy = ${press_xy}"
pxy = 4.5865850341772e-11
print "pxz = ${press_xz}"
pxz = 9.06207702771322e-11
print "pyz = ${press_yz}"
pyz = 2.62492238241466e-10
print "pypospack:output_section:done"
pypospack:output_section:done
print "pypospack:lammps_sim:done"
pypospack:lammps_sim:done
#------------------------------------------------------------------------------
# RUN THERMOSTAT
# running using an NPT Nose-Hoover style thermostat
#------------------------------------------------------------------------------
variable tempdamp equal 0.1
variable pressdamp equal 1.0
# set initial velocities
velocity all create 400 6005721 mom yes dist gaussian loop all
# fix for Nose-Hoover style thermostat
fix 20 all npt temp 400 400 0.1 aniso 0.0 0.0 1.0 drag 1.0 couple xyz
variable boxx equal lx
variable boxy equal ly
variable boxz equal lz
variable boxp equal press
variable boxt equal temp
# calculate averages every 10000 steps
reset_timestep 0
fix 21 all ave/time 10 10 100 v_boxx v_boxy v_boxz v_boxp v_boxt file lattice.out
thermo_style custom step temp pe ke etotal press lx ly lz press pxx pyy pzz pxy pxz pyz vol
thermo_modify flush yes
thermo 100
run 100000
PPPM initialization ...
  G vector (1/distance) = 0.351923
  grid = 8 8 8
  stencil order = 5
  estimated absolute RMS force accuracy = 4.10067e-05
  estimated relative force accuracy = 2.84776e-06
  using double precision FFTs
  3d grid and FFT values/proc = 3375 512
Memory usage per processor = 3.06549 Mbytes
Step Temp PotEng KinEng TotEng Press Lx Ly Lz Press Pxx Pyy Pzz Pxy Pxz Pyz Volume 
       0          400   -110.43354   0.36192841   -110.07161    4709.7762     4.343513     4.343513     4.343513    4709.7762    4687.2431    3299.8827    6142.2028    627.77737    730.56111    2742.7512    81.945171 
     100    168.93638   -110.17156   0.15285719    -110.0187   -5404.9272    4.3631811    4.3631811    4.3631811   -5404.9272    -579.0102   -13200.984   -2434.7875    2024.9334   -898.71882    150.92682    83.063405 
     200    347.63347   -110.23659   0.31454607   -109.92204   -615.26506    4.3549046    4.3549046    4.3549046   -615.26506   -678.47977   -2867.2599    1699.9444    509.49666   -3345.1709    726.39094    82.591609 
     300    380.63276   -110.17975   0.34440452   -109.83535    3387.9457    4.3621099    4.3621099    4.3621099    3387.9457    1396.5645    848.81361    7918.4591   -399.74598    1542.1962   -538.27711    83.002242 
     400    228.44965   -109.97831   0.20670605   -109.77161    5807.8163    4.3610713    4.3610713    4.3610713    5807.8163     13157.73    4729.1112   -463.39257    2569.8022   -784.83604   -4494.0205    82.942966 
     500    307.90262   -110.00466   0.27859677   -109.72606   -6879.0391    4.3691989    4.3691989    4.3691989   -6879.0391   -13286.583    2785.3802   -10135.914    922.89804   -1710.3403   -3882.9556    83.407566 
     600    386.15097   -110.05315   0.34939751   -109.70375    15648.783     4.358022     4.358022     4.358022    15648.783     21116.09    17447.651     8382.608   -1351.2512    1929.0297    -6045.635    82.769104 
     700    261.99813   -109.93964   0.23706142   -109.70258    4454.4471    4.3688272    4.3688272    4.3688272    4454.4471   -5299.5227    15210.079     3452.785    1056.4242   -3098.5057   -5436.2714    83.386281 
     800    359.38542   -110.02889   0.32517948   -109.70371    4186.3502    4.3629994    4.3629994    4.3629994    4186.3502    7508.1362    10765.663   -5714.7488     1097.762    -551.1104   -5882.6661    83.053025 
     900    414.73324   -110.08015   0.37525935   -109.70489    13066.066    4.3618131    4.3618131    4.3618131    13066.066    13109.285    17490.103    8598.8095   -1700.7241   -4856.1853   -3256.8101    82.985295 
    1000    376.92245    -110.0459   0.34104735   -109.70485   -4837.9624    4.3705004    4.3705004    4.3705004   -4837.9624   -3665.0854    927.17217   -11775.974    303.47725   -5282.2711   -4551.2399    83.482123 
    1100     278.7628   -109.95573   0.25223044    -109.7035    9520.3284    4.3590948    4.3590948    4.3590948    9520.3284    23951.139    4568.6916    41.155078    1048.6696   -1025.5873   -6012.4342    82.830246 
    1200    550.90459   -110.20233   0.49847005   -109.70386    -5825.964    4.3677711    4.3677711    4.3677711    -5825.964   -5377.2321   -1743.5754   -10357.085    1169.8109   -667.94386    1708.0475    83.325822 
    1300    248.55579   -109.93167    0.2248985   -109.70677    5452.5057    4.3628407    4.3628407    4.3628407    5452.5057        22952   -4681.3376   -1913.1455    792.13232   -8116.6439   -2569.8709    83.043961 
    1400    482.02189   -110.14069   0.43614354   -109.70455   -11491.659     4.365228     4.365228     4.365228   -11491.659   -1192.0694   -13918.723   -19364.185     420.8508   -1666.5859   -2219.9818    83.180359 
    1500    520.39428   -110.17428   0.47086368   -109.70342   -5488.5628    4.3647085    4.3647085    4.3647085   -5488.5628    9175.1468   -15314.921   -10325.915   -1128.3618     1516.864    3510.9391    83.150663 
    1600    381.81266    -110.0516   0.34547212   -109.70613    -6478.332    4.3656462    4.3656462    4.3656462    -6478.332    10155.189   -14294.533   -15295.652    1277.3638   -9754.2703   -1402.1713    83.204267 
    1700    569.09051   -110.21966   0.51492506   -109.70473   -8155.3839    4.3619216    4.3619216    4.3619216   -8155.3839   -5564.1189   -14644.901   -4257.1321    2502.3418   -847.91034   -2119.4997    82.991489 
    1800    469.78413   -110.12948   0.42507056   -109.70441   -4347.6364    4.3686971    4.3686971    4.3686971   -4347.6364    10211.889   -15115.465   -8139.3333   -131.14713    -865.6707     2082.489    83.378833 
    1900    431.23518   -110.09411   0.39019065   -109.70392   -7381.2288    4.3636804    4.3636804    4.3636804   -7381.2288    -8540.526   -6280.3594   -7322.8008    1679.1735   -3281.6765   -2180.6542    83.091925 
    2000    391.35849   -110.05874   0.35410939   -109.70463   -1530.1249    4.3621628    4.3621628    4.3621628   -1530.1249    7698.1912   -9351.8943   -2936.6716     2779.456     1901.671   -1460.1083    83.005262 
    2100    388.21792   -110.05659   0.35126774   -109.70532   -4450.7357    4.3679765    4.3679765    4.3679765   -4450.7357   -3348.6154   -1975.3282   -8028.2637   -1338.1418    -4961.184    -1210.187    83.337579 
    2200    299.83295   -109.97839   0.27129515    -109.7071    2338.3758    4.3628234    4.3628234    4.3628234    2338.3758     87.61736    7247.4548   -319.94481   -509.08591   -3687.0444   -5596.4045    83.042976 
    2300    248.38883   -109.93067   0.22474743   -109.70592    10604.126    4.3641879    4.3641879    4.3641879    10604.126     8026.481    1763.7604    22022.138    439.45525    713.92815   -3536.4388    83.120919 
    2400    425.03366   -110.08807   0.38457939   -109.70349   -2826.6963    4.3666038    4.3666038    4.3666038   -2826.6963   -8497.1514    10400.074   -10383.011   -2882.7509   -6504.8152   -3689.1377    83.259035 
    2500    237.29772   -109.92049   0.21471197   -109.70578    7682.7882    4.3635126    4.3635126    4.3635126    7682.7882    8276.4064    8302.7045    6469.2537    -4596.329   -7830.4198   -7245.7116    83.082339 
    2600    417.47886   -110.08232   0.37774365   -109.70458    7009.9225    4.3631468    4.3631468    4.3631468    7009.9225   -3778.3197    18292.631    6515.4558   -1517.7469     2815.334   -3856.3447    83.061444 
    2700    433.21463   -110.09657    0.3919817   -109.70459   -2836.0723     4.367561     4.367561     4.367561   -2836.0723   -3590.8352     3993.916   -8911.2978   -2339.8342    -211.3153     1803.236    83.313799 
    2800    347.36092   -110.01858   0.31429946   -109.70428    4686.2612    4.3612641    4.3612641    4.3612641    4686.2612   -487.69348    5078.3002    9468.1769   -7093.8831   -5956.9451   -3331.8002    82.953965 
    2900    483.39798   -110.14006   0.43738865   -109.70267   -2549.1495    4.3664381    4.3664381    4.3664381   -2549.1495     -8028.45   -4130.3916    4511.3932    2175.0243    1644.3308   -1858.6628    83.249555 
    3000    456.56449    -110.1158   0.41310915   -109.70269   -7090.7755    4.3644536    4.3644536    4.3644536   -7090.7755   -426.04277   -10972.633   -9873.6502   -1325.6201   -3370.2855    3098.4141    83.136096 
    3100    327.09782   -109.99963   0.29596498   -109.70367   -2426.4242    4.3662335    4.3662335    4.3662335   -2426.4242   -8361.5011   -3609.6564     4691.885   -3889.7468   -681.39865    -293.9272    83.237853 
    3200    595.37024   -110.24041    0.5387035   -109.70171   -5604.8246    4.3617375    4.3617375    4.3617375   -5604.8246   -4675.5497   -2663.4306   -9475.4936      6649.74    2520.3967    2506.8112    82.980986 
    3300    321.99461   -109.99633   0.29134749   -109.70499    1935.1095    4.3655688    4.3655688    4.3655688    1935.1095   -3787.6319   -2706.6078    12299.568   -3245.5999   -6715.6578    1092.1118    83.199844 
    3400    470.07057   -110.13002   0.42532973   -109.70469   -6098.2964    4.3655399    4.3655399    4.3655399   -6098.2964       -14571   -2147.5254   -1576.3644    2443.4293     1776.704    839.64411    83.198193 
    3500    461.14021   -110.12155   0.41724935    -109.7043     4358.428      4.36069      4.36069      4.36069     4358.428   -299.94762    8562.0366    4813.1951    2445.4546    2824.5841   -1010.2249    82.921213 
    3600     318.9649   -109.99489   0.28860615   -109.70628    2993.3748    4.3660881    4.3660881    4.3660881    2993.3748   -995.38325     3278.109    6697.3987    -7669.972   -4979.8851    43.779713     83.22954 
    3700    412.42953   -110.07778   0.37317491    -109.7046   -661.01777    4.3628982    4.3628982    4.3628982   -661.01777   -3199.2031    7760.8848   -6544.7351   -380.46962   -3660.1862   -6455.5137    83.047246 
    3800    379.09693   -110.04745   0.34301487   -109.70443    3815.6726    4.3633114    4.3633114    4.3633114    3815.6726    11965.127   -2333.1775    1815.0679   -2863.5806    133.21516   -3703.9518    83.070843 
    3900    210.20277    -109.8963   0.19019589    -109.7061    8855.3449    4.3636543    4.3636543    4.3636543    8855.3449    1938.8773    5110.1849    19516.973   -5050.6477   -2419.4743     1988.432    83.090431 
    4000    499.31098   -110.15589   0.45178706    -109.7041   -8007.8866    4.3628974    4.3628974    4.3628974   -8007.8866    1908.5825   -8969.3658   -16962.877     -1703.32   -3947.5617   -6679.8298    83.047201 
    4100    272.93084   -109.95272   0.24695356   -109.70577    7832.3621    4.3642065    4.3642065    4.3642065    7832.3621    15019.609   -1060.2297    9537.7073   -1752.8252    1238.2109   -2865.9454    83.121978 
    4200    494.67074    -110.1527   0.44758848   -109.70511    -4803.991    4.3631114    4.3631114    4.3631114    -4803.991   -9738.1668   -3341.2041    -1332.602   -465.84265   -1910.7561    1246.4403    83.059422 
    4300    430.75047    -110.0951   0.38975207   -109.70535   -391.17767    4.3630927    4.3630927    4.3630927   -391.17767    6893.3898   -7859.1184   -207.80434   -1247.3716    1097.0232   -1825.7572    83.058354 
    4400    480.92677   -110.13992   0.43515265   -109.70476   -2710.9655    4.3642548    4.3642548    4.3642548   -2710.9655   -4769.0395   -12224.982    8861.1251    2760.0465    761.60591     561.8408    83.124738 
    4500    478.99245   -110.13742   0.43340244   -109.70401   -7773.1025    4.3642615    4.3642615    4.3642615   -7773.1025    -13080.27   -5368.2773   -4870.7598    1533.5186   -7067.4878   -2515.7594     83.12512 
    4600    380.07835   -110.04791   0.34390288   -109.70401    435.84129     4.361496     4.361496     4.361496    435.84129    7535.6982   -3004.1255   -3224.0489   -766.46427    359.81825   -3305.6167    82.967198 
    4700    450.07704   -110.11074   0.40723917    -109.7035   -7652.7203    4.3658343    4.3658343    4.3658343   -7652.7203    -9287.412   -5000.6626   -8670.0863    3841.0215    475.28399    1570.2136    83.215027 
    4800    370.36224   -110.03995   0.33511154   -109.70484   -1153.1064    4.3620551    4.3620551    4.3620551   -1153.1064   -1155.2163    2255.3123   -4559.4152   -1140.0058   -7352.6488    532.56311    82.999109 
    4900    304.58089    -109.9805   0.27559119   -109.70491    5445.4734    4.3618634    4.3618634    4.3618634    5445.4734     9763.819   -1119.8281    7692.4292   -1071.8239   -2151.8087   -6538.2098    82.988171 
    5000    490.18993   -110.14745   0.44353415   -109.70391   -11002.737    4.3667612    4.3667612    4.3667612   -11002.737   -10598.352   -11954.849    -10455.01    1518.1074     -561.804   -65.180187    83.268035 
    5100    250.81874   -109.93358   0.22694607   -109.70663     8958.984    4.3596448    4.3596448    4.3596448     8958.984    4132.5094    22180.507    563.93506   -4847.7001   -3766.8414    1964.3418    82.861602 
    5200     486.2476   -110.14539   0.43996705   -109.70542    1709.4148    4.3617316    4.3617316    4.3617316    1709.4148    5273.5887    1065.9863   -1211.3308   -2418.5486   -3084.3239   -7777.9567    82.980647 
    5300    411.09518   -110.07806   0.37196756    -109.7061    -2218.892    4.3677449    4.3677449    4.3677449    -2218.892   -8499.0851    8129.1459   -6286.7367    444.39603   -2071.6706   -793.05312    83.324321 
    5400    320.39002   -109.99567   0.28989562   -109.70577    7515.3552    4.3577035    4.3577035    4.3577035    7515.3552    8268.3248    8781.7323    5496.0086   -4879.3135   -6095.5725    1356.9285    82.750959 
    5500    504.92718   -110.16075   0.45686873   -109.70388   -2291.6444    4.3636049    4.3636049    4.3636049   -2291.6444   -1828.6338    2682.9881   -7729.2876   -645.10816    1651.7955   -1513.7368     83.08761 
    5600    358.79969   -110.03076    0.3246495   -109.70611   -4898.9693     4.365872     4.365872     4.365872   -4898.9693   -7210.9325   -1411.0941   -6074.8811    3953.6342    1113.7582     2655.118    83.217181 
    5700    341.76729   -110.01568   0.30923822   -109.70645    2203.8109    4.3576905    4.3576905    4.3576905    2203.8109    3159.8434    12203.538   -8751.9488    63.494516   -9367.7962   -640.51687     82.75022 
    5800    493.57963   -110.15069   0.44660122   -109.70408    -7016.102    4.3682231    4.3682231    4.3682231    -7016.102   -11530.785   -6070.7346   -3446.7865    1666.8471    5297.6118   -1514.9134    83.351697 
    5900    335.72247   -110.00893   0.30376874   -109.70516     3761.427    4.3587508    4.3587508    4.3587508     3761.427    2625.6764    2060.7407    6597.8639    4845.3049   -1420.7459    168.40962    82.810639 
    6000    452.43225   -110.11589   0.40937021   -109.70652   -9664.9768    4.3645835    4.3645835    4.3645835   -9664.9768   -11079.302   -6403.5135   -11512.115    1004.2017   -7328.3723    23.825909    83.143524 
    6100    406.50498   -110.07271   0.36781425   -109.70489    3051.4186    4.3651947    4.3651947    4.3651947    3051.4186   -1433.3998    8066.5807     2521.075   -1089.9294    1848.9311   -7182.5066    83.178459 
    6200    414.43523    -110.0796   0.37498971   -109.70461    1551.6984    4.3585221    4.3585221    4.3585221    1551.6984      6691.66   -2454.8922    418.32739    1449.8052   -5411.9384    1382.6509    82.797599 
    6300    374.40358   -110.04515   0.33876822   -109.70638   -4802.4777    4.3661184    4.3661184    4.3661184   -4802.4777   -7990.9023    5471.7532   -11888.284   -2018.8742   -1375.3285   -39.175925    83.231273 
    6400    342.77034   -110.01473    0.3101458   -109.70459    4623.5178    4.3648491    4.3648491    4.3648491    4623.5178    6030.7842   -3550.6476    11390.417   -4692.5295   -1178.6355   -8460.7472    83.158701 
    6500    415.43705   -110.07971   0.37589617   -109.70381    3285.3716    4.3554545    4.3554545    4.3554545    3285.3716    30.097856    13950.698   -4124.6812      1853.34   -6520.8207    1945.4348    82.622901 
    6600    306.49633   -109.98366   0.27732432   -109.70634   -11005.091    4.3715218    4.3715218    4.3715218   -11005.091   -11652.431   -9532.1401   -11830.702   -4360.4024   -51.918306   -3020.7696    83.540668 
    6700    383.44927   -110.05054   0.34695295   -109.70359    4533.9758    4.3584044    4.3584044    4.3584044    4533.9758    7772.6777    5010.8739     818.3759   -1822.6759   -3.6106926   -3018.4587    82.790893 
    6800    489.78988   -110.14696   0.44317217   -109.70378   -157.97039    4.3597455    4.3597455    4.3597455   -157.97039   -5959.0277     3270.625    2214.4915    5194.0932   -4386.4775    1770.8051    82.867345 
    6900    334.82302   -110.00894    0.3029549   -109.70599   -6992.2399    4.3702229    4.3702229    4.3702229   -6992.2399    -8236.659     -12013.3   -726.76079   -4843.2941   -3844.8931   -1761.2308    83.466221 
    7000    496.05116   -110.15139   0.44883751   -109.70256    842.30022    4.3565755    4.3565755    4.3565755    842.30022      4560.04   -5377.2881    3344.1488    1665.7472    2219.6157   -2293.7166    82.686712 
    7100    484.32456   -110.14171   0.43822704   -109.70348   -1869.6617    4.3634092    4.3634092    4.3634092   -1869.6617   -6256.1791    3101.4184   -2454.2245    3554.6773    465.79177    944.41529    83.076433 
    7200    272.22704   -109.95253   0.24631674   -109.70621   -898.17058    4.3661758    4.3661758    4.3661758   -898.17058    6977.7554   -9709.6923    37.425169   -3740.3638   -4848.7883   -886.29941    83.234554 
    7300    509.60116   -110.16524   0.46109784   -109.70415   -2889.6276    4.3579459    4.3579459    4.3579459   -2889.6276     4319.802    1553.0287   -14541.713    1583.3863    1052.5823   -8006.5557     82.76477 
    7400    308.96927   -109.98578   0.27956189   -109.70622    8661.9867    4.3647911    4.3647911    4.3647911    8661.9867    10092.715    361.67103    15531.574   -3763.9534   -1610.5507    2607.5117    83.155385 
    7500    337.93017   -110.01316   0.30576632    -109.7074   -4599.2958    4.3635147    4.3635147    4.3635147   -4599.2958    2148.9432   -8682.3843   -7264.4462   -2107.7446   -2971.0297   -2548.6774    83.082456 
    7600    419.16795   -110.08443   0.37927197   -109.70516    1469.3096    4.3574304    4.3574304    4.3574304    1469.3096    11440.186    -2622.241   -4410.0163   -2297.7033    1234.2986   -9715.0195    82.735403 
    7700    400.49449   -110.06711   0.36237584   -109.70474   -205.38567     4.369986     4.369986     4.369986   -205.38567    2568.6266   -2912.1398   -272.64381   -1403.1245   -3908.1429    3392.5655    83.452651 
    7800    403.16231   -110.07052   0.36478973   -109.70573     3992.121    4.3549198    4.3549198    4.3549198     3992.121    5764.2962    1636.1267    4575.9402   -436.85947    1591.0001   -7917.2702    82.592474 
    7900    425.27323   -110.09156   0.38479616   -109.70677    415.78748     4.364246     4.364246     4.364246    415.78748    12336.005   -9482.2759   -1606.3671   -2954.2698    2679.4892   -4095.8859    83.124238 
    8000    448.16038   -110.10957   0.40550493   -109.70407     1758.911    4.3669095    4.3669095    4.3669095     1758.911    1015.2908   -6210.9941    10472.436    3504.6705   -5362.1505    1825.5431    83.276523 
    8100    428.30355   -110.09237   0.38753805   -109.70483    312.01005    4.3534842    4.3534842    4.3534842    312.01005    6890.0118    2792.0084   -8745.9901   -3576.2477   -4379.4518   -9094.0908    82.510823 
    8200    294.32159   -109.97291   0.26630836    -109.7066    1354.2562    4.3673816    4.3673816    4.3673816    1354.2562    15453.966   -10522.216   -868.98079    479.14446    1298.7688     -1664.51    83.303535 
    8300    512.52637   -110.16731   0.46374463   -109.70356   -5684.7455    4.3653691    4.3653691    4.3653691   -5684.7455   -8263.6925    2898.9786   -11689.523    3417.7066   -1895.4622    428.72179    83.188425 
    8400    281.12403   -109.96013   0.25436693   -109.70576    11249.729     4.351754     4.351754     4.351754    11249.729    16127.353    10136.733    7485.1022   -4619.0947    -5702.938   -4390.8355    82.412484 
    8500    334.38684   -110.00841   0.30256024   -109.70585   -4594.4356    4.3724118    4.3724118    4.3724118   -4594.4356    4722.4627   -9882.5748   -8623.1948    1095.7105    502.66174   -3589.9789    83.591704 
    8600    543.28696   -110.19398   0.49157746    -109.7024   -2845.7734    4.3590665    4.3590665    4.3590665   -2845.7734   -8308.2158    4041.1746   -4270.2792   -1945.9527    11.282889     474.1657    82.828632 
    8700    289.20067    -109.9689   0.26167485   -109.70723    8865.5505    4.3567701    4.3567701    4.3567701    8865.5505    18447.663    6220.5142    1928.4738    727.84169   -845.32988   -3226.0601    82.697796 
    8800    412.11997   -110.07792   0.37289481   -109.70502   -3932.9708    4.3710948    4.3710948    4.3710948   -3932.9708   -3459.4852   -5456.0226   -2883.4046   -2403.1214    892.95898   -5852.9532    83.516192 
    8900    570.03864   -110.21829   0.51578294    -109.7025    1423.6766    4.3548249    4.3548249    4.3548249    1423.6766   -3369.6876    10381.466   -2740.7489    216.95321   -2982.8809    4609.4209    82.587077 
    9000    256.61946   -109.94065   0.23219468   -109.70845    6155.3877    4.3628014    4.3628014    4.3628014    6155.3877    15460.877    -2060.983    5066.2693    822.62619   -1861.9459   -5850.1761    83.041718 
    9100    450.54116   -110.11211   0.40765911   -109.70446   -7740.8041    4.3680979    4.3680979    4.3680979   -7740.8041   -3883.7728    673.71414   -20012.354   -2449.6205    5556.3635   -1438.4544     83.34453 
    9200    451.75889   -110.11107   0.40876094   -109.70231    3577.3702    4.3530891    4.3530891    4.3530891    3577.3702    3583.3728    10854.662   -3705.9241    3708.7407   -1737.8121    2487.8316    82.488358 
    9300    259.95917   -109.94379   0.23521652   -109.70857    556.90314    4.3677401    4.3677401    4.3677401    556.90314    12185.882    3575.3319   -14090.505   -1125.8721   -3915.4118   -6855.7155    83.324051 
    9400    418.97909   -110.08481   0.37910109   -109.70571   -150.82044    4.3626586    4.3626586    4.3626586   -150.82044    -8436.387    9506.2836   -1522.3579   -714.73291    5958.6907    598.07463    83.033563 
    9500    431.73525   -110.09381   0.39064313   -109.70317    9547.8686    4.3528769    4.3528769    4.3528769    9547.8686    14059.711    11807.132     2776.763    1628.6276   -525.61812    -2364.847    82.476297 
    9600    342.14717    -110.0165   0.30958195   -109.70692   -9693.7262    4.3747498    4.3747498    4.3747498   -9693.7262   -1171.9112   -9267.8915   -18641.376   -2784.4614   -2495.7585   -3271.1688    83.725866 
    9700    471.58442   -110.13045   0.42669949   -109.70375    5184.1043    4.3540034    4.3540034    4.3540034    5184.1043     -1977.45    14289.053    3240.7101   -1041.0981    403.90978   -3397.2221    82.540348 
    9800    441.21757   -110.10257   0.39922293   -109.70334    5757.9032    4.3598621    4.3598621    4.3598621    5757.9032    9860.7604    7297.1392    115.81004   -1039.3371     1154.823    1564.1094    82.873993 
    9900    399.12205   -110.06628   0.36113402   -109.70515   -10579.457    4.3722763    4.3722763    4.3722763   -10579.457   -8393.8435   -4257.8899   -19086.638   -2347.0436    1115.4331   -2884.9138    83.583929 
   10000     387.0399   -110.05454   0.35020183   -109.70434    6921.2937    4.3517656    4.3517656    4.3517656    6921.2937    714.07705    10283.999    9765.8055   -3670.6779    6472.0238   -3147.2189    82.413145 
   10100    388.17255   -110.05687   0.35122668   -109.70565    3174.4069    4.3628757    4.3628757    4.3628757    3174.4069    10470.191    14289.143   -15236.113    1303.6254    2042.2441    3040.5523    83.045963 
   10200    399.55458    -110.0677   0.36152538   -109.70617   -17735.139    4.3724986    4.3724986    4.3724986   -17735.139   -16407.915   -12098.545   -24698.958   -1109.2546   -1261.8577   -7896.0986    83.596682 
   10300    286.61099   -109.96432   0.25933164   -109.70499    14783.103    4.3465652    4.3465652    4.3465652    14783.103    12976.907    26055.336    5317.0658   -120.40109    11892.847   -280.81195    82.118044 
   10400    491.22129   -110.14839   0.44446735   -109.70393   -7472.7777    4.3724352    4.3724352    4.3724352   -7472.7777   -5536.3264   -3924.2041   -12957.803    2416.6331   -34.802063   -316.60915    83.593044 
   10500    407.98731   -110.07438   0.36915549   -109.70522   -6817.6361    4.3623062    4.3623062    4.3623062   -6817.6361   -7261.0052   -3777.2916   -9414.6116   -2279.3625   -1619.2725   -6251.9075    83.013448 
   10600     361.0459   -110.03278   0.32668191    -109.7061    4055.5573    4.3535759    4.3535759    4.3535759    4055.5573     9796.442    2837.8865   -467.65659    299.16288    8540.8293   -2007.6355    82.516036 
   10700    539.85503   -110.19123   0.48847218   -109.70276   -9469.0884    4.3714919    4.3714919    4.3714919   -9469.0884    -10938.67     -4045.14   -13423.456    109.87703    2668.9851   -1700.8656    83.538952 
   10800    328.47028   -110.00321   0.29720681   -109.70601    891.36841    4.3562595    4.3562595    4.3562595    891.36841    8795.2256   -8140.4946    2019.3743   -2437.8373    4678.6427   -575.87051    82.668721 
   10900     357.9193   -110.03261    0.3238529   -109.70876   -2065.0378    4.3616873    4.3616873    4.3616873   -2065.0378   -25.472271    1869.8917   -8039.5327   -5182.5619    2646.7005   -2185.4924    82.978121 
   11000    456.74193    -110.1168    0.4132697   -109.70353   -6104.4511    4.3707266    4.3707266    4.3707266   -6104.4511   -3080.1221   -12400.246   -2832.9849    1044.3367    3508.4506    1267.3289    83.495086 
   11100    277.90586   -109.95559   0.25145507   -109.70413    4476.9292    4.3512229    4.3512229    4.3512229    4476.9292    10779.778    2510.4725    140.53746   -3109.8816    1654.9053   -2951.8632    82.382313 
   11200    398.51434   -110.06781   0.36058415   -109.70723   -13670.034    4.3695666    4.3695666    4.3695666   -13670.034   -7251.7707   -11313.212   -22445.121   -3578.7956    4601.1912    939.77278    83.428625 
   11300    425.88852   -110.08949   0.38535289   -109.70414    498.23389    4.3649374    4.3649374    4.3649374    498.23389   -791.24546    3495.2905   -1209.3434    3488.5844    875.04352    953.29628    83.163746 
   11400    373.79561   -110.04174   0.33821813   -109.70352    8707.5925    4.3494707    4.3494707    4.3494707    8707.5925    14667.631    3701.2574    7753.8895    290.63936   -2074.4676   -8284.4639    82.282833 
   11500    436.61438   -110.09997   0.39505786   -109.70491   -15700.187    4.3766408    4.3766408    4.3766408   -15700.187   -15094.342   -10581.042   -21425.177   -124.04641    9458.2007    982.05215    83.834486 
   11600    433.28751   -110.09381   0.39204764   -109.70177    5829.4378    4.3578732    4.3578732    4.3578732    5829.4378    8758.6161   -2138.3525     10868.05    5439.7146   -2263.9269   -3130.1833    82.760624 
   11700    423.52835   -110.08603   0.38321735   -109.70282    273.86473    4.3556794    4.3556794    4.3556794    273.86473    5002.0231    3760.4946   -7940.9234    25.732967   -1643.3736   -6863.7581      82.6357 
   11800    400.66072   -110.06753   0.36252624     -109.705   -11731.863    4.3746877    4.3746877    4.3746877   -11731.863   -7186.9066   -13584.176   -14424.506   -1741.1696    5685.0918   -2248.4979    83.722301 
   11900    384.80005   -110.05186   0.34817517   -109.70369    10936.072    4.3539409    4.3539409    4.3539409    10936.072    10655.547     10509.36    11643.307    1602.6948   -2779.6047     841.5903     82.53679 
   12000    435.02122   -110.09968   0.39361635   -109.70607    377.59341    4.3586417    4.3586417    4.3586417    377.59341    7745.2255   -6979.3755    366.93019   -2490.9056    4205.1117   -1947.5574    82.804416 
   12100    267.40335   -109.94967   0.24195217   -109.70771   -5736.3848    4.3743093    4.3743093    4.3743093   -5736.3848   -10837.137    861.28594   -7233.3037   -1562.6248     2552.211    387.28113    83.700581 
   12200     504.5926   -110.15847   0.45656599   -109.70191    8213.0428    4.3482659    4.3482659    4.3482659    8213.0428    9195.5656    8724.3748     6719.188   -777.32296   -2463.8834    4512.2051    82.214472 
   12300    326.25777   -110.00149   0.29520489   -109.70628    1869.2098    4.3694527    4.3694527    4.3694527    1869.2098   -2456.5957    9505.2638   -1441.0387   -2097.2821    4840.5099   -3555.7886    83.422102 
   12400    378.75862   -110.04837   0.34270876   -109.70566    1598.8166    4.3645927    4.3645927    4.3645927    1598.8166   -1289.4017    3979.6186     2106.233    599.35785    3199.5214    2994.0184     83.14405 
   12500    469.69963   -110.12686    0.4249941   -109.70186    7816.9994    4.3523086    4.3523086    4.3523086    7816.9994    4507.4899    11722.418    7221.0902    3468.9406   -4805.0777    385.83123    82.443996 
   12600    389.02819   -110.05563   0.35200088   -109.70363    -5297.746    4.3726024    4.3726024    4.3726024    -5297.746   -4538.3028   -3768.7253   -7586.2099   -125.87825    3392.4068   -7505.5832    83.602637 
   12700    387.02891   -110.05402   0.35019189   -109.70383    3832.1527    4.3571971    4.3571971    4.3571971    3832.1527    1701.9272     12510.61   -2716.0797    1511.2193    1595.7183    881.19226    82.722114 
   12800    528.58092    -110.1819   0.47827113   -109.70363   -3128.4087    4.3588213    4.3588213    4.3588213   -3128.4087   -6286.1232    47.259905   -3146.3629    5115.2255   -3598.7585   -3259.1037    82.814654 
   12900      284.539   -109.96275   0.25745687   -109.70529    1676.6522     4.371657     4.371657     4.371657    1676.6522    2735.4934   -774.61542    3069.0786   -860.36817    4425.5195   -5339.5246    83.548419 
   13000    477.23921   -110.13543   0.43181607   -109.70361    3347.6412    4.3530337    4.3530337    4.3530337    3347.6412    7859.8101    154.46163    2028.6518    2552.9957   -994.95037   -806.99811     82.48521 
   13100    372.91022   -110.04311     0.337417   -109.70569   -679.97897    4.3653482    4.3653482    4.3653482   -679.97897   -2427.3199   -2013.9263    2401.3094    515.17106    889.21718   -705.83155    83.187229 
   13200     400.4248   -110.06776   0.36231277   -109.70545   -6263.5284    4.3676326    4.3676326    4.3676326   -6263.5284    3791.8749   -9074.9138   -13507.546    -4368.401    3208.1212   -3818.9017    83.317897 
   13300    358.39559   -110.02969   0.32428386   -109.70541    14439.148    4.3497112    4.3497112    4.3497112    14439.148    7297.0199     28546.05    7474.3751   -1439.9639   -538.89785    144.66986    82.296482 
   13400     435.1167   -110.09884   0.39370274   -109.70514   -6435.1213    4.3729506    4.3729506    4.3729506   -6435.1213   -6420.7867   -4703.8214   -8180.7559   -1760.0001    703.92823    1875.2909     83.62261 
   13500     321.7688   -109.99509   0.29114317   -109.70394     3482.822    4.3606334    4.3606334    4.3606334     3482.822    8351.8725    5993.4653   -3896.8719   -1786.4072    3619.1172    -4669.687    82.917983 
   13600    437.53342   -110.09971   0.39588944   -109.70382    5124.5188    4.3529318    4.3529318    4.3529318    5124.5188    -3933.489    21313.174   -2006.1288   -615.99677    3200.7723    2131.1723    82.479417 
   13700    360.33379   -110.02959   0.32603759   -109.70355   -6915.0547    4.3743702    4.3743702    4.3743702   -6915.0547   -5613.9728    -3429.486   -11701.705    3342.0124   -3001.6805    -597.2817    83.704074 
   13800    441.48071   -110.10164   0.39946102   -109.70218   -7254.5349    4.3568401    4.3568401    4.3568401   -7254.5349   -955.57257   -3315.1272   -17492.905    1761.7941    4672.2763   -9538.9232    82.701781 
   13900    347.75615   -110.02015   0.31465707   -109.70549    8785.0949    4.3567536    4.3567536    4.3567536    8785.0949    4244.0913    11734.288    10376.905   -592.38838      3392.34    600.67026    82.696854 
   14000    513.74748   -110.16919   0.46484951   -109.70434   -13866.945    4.3727122    4.3727122    4.3727122   -13866.945   -3236.2752   -25474.488   -12890.072    2356.0239   -5068.7267   -3469.1478    83.608933 
   14100    304.48305   -109.98031   0.27550266   -109.70481    4097.5062    4.3519279    4.3519279    4.3519279    4097.5062    14012.689    207.29547   -1927.4656   -1817.6447    8992.2503   -7886.2046    82.422366 
   14200    472.96339   -110.13474   0.42794722   -109.70679   -7445.4851    4.3669412    4.3669412    4.3669412   -7445.4851    -4767.357   -12230.855   -5338.2429   -1340.7629   -2967.7434    457.85879    83.278333 
   14300     390.2411   -110.05988   0.35309835   -109.70678    1198.0441    4.3636396    4.3636396    4.3636396    1198.0441    8649.4497    1018.4307    -6073.748   -1453.3883    923.40087   -3199.9685    83.089594 
   14400    429.25623   -110.09275   0.38840005   -109.70435   -408.58146    4.3540729    4.3540729    4.3540729   -408.58146    5294.1756   -205.03586   -6314.8841   -5783.6458    5242.6531   -4647.6936    82.544298 
   14500     322.6755   -109.99712   0.29196357   -109.70515   -998.44959    4.3722651    4.3722651    4.3722651   -998.44959   -2426.0598   -2127.3513    1558.0623    435.41421   -6573.1819    316.54234     83.58329 
   14600    495.99298   -110.15272   0.44878487   -109.70394    28.174939    4.3552359    4.3552359    4.3552359    28.174939    6285.9676    3508.7164   -9710.1592   -1886.6488    3712.2117   -5864.2726    82.610461 
   14700    253.55186   -109.93571   0.22941905   -109.70629    3582.5561    4.3579804    4.3579804    4.3579804    3582.5561    97.706322    9380.7388    1269.2231   -199.34724    5360.6352   -5288.7346    82.766736 
   14800    462.22461   -110.12226   0.41823054   -109.70403   -11423.833    4.3733671    4.3733671    4.3733671   -11423.833   -6435.8751   -8846.0308   -18989.592    176.63523   -5543.8433    3719.3553    83.646505 
   14900    350.30047   -110.01979   0.31695922   -109.70283    15002.775    4.3512921    4.3512921    4.3512921    15002.775    18720.089    18278.875    8009.3622     2374.574    1733.3307   -6033.5931    82.386245 
   15000    429.37307   -110.09346   0.38850578   -109.70496   -4114.5347     4.361903     4.361903     4.361903   -4114.5347   -75.332327   -8075.2362   -4193.0356    3071.8733     4181.671   -5167.0194    82.990428 
   15100    333.72861   -110.00652   0.30196466   -109.70455   -3057.5063    4.3710347    4.3710347    4.3710347   -3057.5063    7203.4334   -8592.2725   -7783.6796   -541.83382   -3046.8277    1585.3446    83.512744 
   15200      535.738   -110.18701     0.484747   -109.70226    8072.2475    4.3467018    4.3467018    4.3467018    8072.2475    11890.858    4957.2036    7368.6806    4561.9897   -590.63323   -5392.4136    82.125786 
   15300    306.57969   -109.98349   0.27739975   -109.70609   -4123.5847      4.37109      4.37109      4.37109   -4123.5847    4411.1319   -4120.3765    -12661.51   -2365.7369     699.1714   -3190.2753    83.515916 
   15400    515.87146   -110.17018   0.46677134   -109.70341   -4752.1504    4.3613478    4.3613478    4.3613478   -4752.1504    1925.8604   -5925.8702   -10256.442   -603.99138   -5010.9381   -390.27021    82.958743 
   15500    367.74065   -110.03796   0.33273947   -109.70522    10979.082    4.3536249    4.3536249    4.3536249    10979.082    9584.9581    10651.404    12700.883   -771.60341   -1953.0065   -3335.3006    82.518825 
   15600    439.25669   -110.10218   0.39744868   -109.70473     -12814.9    4.3712985    4.3712985    4.3712985     -12814.9   -915.50827   -14749.224   -22779.967   -2961.6435    1625.8144    -2174.586    83.527867 
   15700    355.63851   -110.02559    0.3217892    -109.7038    4651.8538    4.3557357    4.3557357    4.3557357    4651.8538   -6415.7849    11875.369    8495.9772     2595.561   -3717.5022    2744.9949    82.638908 
   15800    481.40496   -110.14087   0.43558533   -109.70528    1910.6199    4.3583497    4.3583497    4.3583497    1910.6199    8587.5389   -1342.8494   -1512.8297   -2964.9998   -196.26767   -6351.9803    82.787775 
   15900    258.91537   -109.93979   0.23427207   -109.70551       3576.2    4.3707869    4.3707869    4.3707869       3576.2    2420.0248    9788.0124   -1479.4373    805.00862    4344.0046   -3387.5715    83.498543 
   16000    524.80308   -110.17604   0.47485286   -109.70119    3466.4516    4.3515945    4.3515945    4.3515945    3466.4516   -2856.2359    6117.2532    7138.3374   -1139.0107   -6959.8119    3326.3735    82.403422 
   16100    311.07916   -109.98796   0.28147096   -109.70649    3473.0238    4.3648772    4.3648772    4.3648772    3473.0238    11514.145   -2414.4531    1319.3793     1322.807    3229.0885   -8774.0889    83.160306 
   16200    425.77249    -110.0906   0.38524789   -109.70535   -8562.1689     4.365427     4.365427     4.365427   -8562.1689   -8128.1037   -10358.414    -7199.989    864.64642    3805.5669   -2115.9196    83.191737 
   16300    382.83014   -110.04925   0.34639275   -109.70286    10960.522     4.349992     4.349992     4.349992    10960.522    4894.5704    20704.941    7282.0546   -4238.0702    -8016.329    1761.5536    82.312419 
   16400    438.87791   -110.10212   0.39710596   -109.70502     -9150.46    4.3714356    4.3714356    4.3714356     -9150.46   -1158.3716   -17833.404   -8459.6047    4642.6711    4697.0911   -6627.7784    83.535728 
   16500    318.29279   -109.99295   0.28799801   -109.70495    4186.7633    4.3577254    4.3577254    4.3577254    4186.7633   -5252.0702    9032.1052    8780.2549   -2207.7836   -2355.6569   -1155.7441    82.752206 
   16600     499.4303    -110.1556   0.45189503   -109.70371   -1122.7847    4.3547846    4.3547846    4.3547846   -1122.7847   -5346.1842    21.991908    1955.8383   -1247.0348   -3707.3684   -2227.4365    82.584785 
   16700    331.99557   -110.00651   0.30039657   -109.70611    -8055.808    4.3708865    4.3708865    4.3708865    -8055.808   -9053.6072   -12372.729   -2741.0878   -928.89266    3292.9072   -6204.7715    83.504253 
   16800    439.07144   -110.10299   0.39728107   -109.70571   -3468.3348    4.3534335    4.3534335    4.3534335   -3468.3348   -6523.8744   -2168.1058    -1713.024   -3825.3335   -3249.0162   -3722.1885     82.50794 
   16900      367.269   -110.03886   0.33231271   -109.70655    7410.7143    4.3590932    4.3590932    4.3590932    7410.7143   -5231.9626    14655.018    12809.087   -141.13859    3707.2615    644.79755    82.830153 
   17000    453.96964   -110.11578   0.41076127   -109.70502   -13029.371    4.3696886    4.3696886    4.3696886   -13029.371   -7568.4694    -19395.36   -12124.283   -1635.4091    2114.4958   -7006.6347    83.435614 
   17100      303.656   -109.97962   0.27475433   -109.70486    6002.2174    4.3507655    4.3507655    4.3507655    6002.2174    555.23052    10330.834    7120.5879   -1239.6567    1123.6542   -1940.6265    82.356337 
   17200     478.7491   -110.13757   0.43318225   -109.70439   -8146.5576    4.3656488    4.3656488    4.3656488   -8146.5576   -12839.447   -9576.4989   -2023.7265   -3166.6883    1383.6142     2008.049    83.204416 
   17300    345.17333   -110.01817   0.31232008   -109.70584    -5580.073    4.3629682    4.3629682    4.3629682    -5580.073    85.837165   -1439.1163    -15386.94    3525.8656    35.829455    -12013.53    83.051243 
   17400    368.47841   -110.03879   0.33340701   -109.70539    1932.5829    4.3541222    4.3541222    4.3541222    1932.5829   -3806.1739    1950.6945    7653.2281   -1583.9225    6379.8394    1716.0295    82.547102 
   17500    455.85202   -110.11695   0.41246449   -109.70448   -2676.8331    4.3664623    4.3664623    4.3664623   -2676.8331   -3807.2975     1028.605   -5251.8069   -5226.9352   -4573.5895    -1171.859     83.25094 
   17600    384.07458   -110.05337   0.34751875   -109.70585   -6888.8755    4.3596625    4.3596625    4.3596625   -6888.8755   -659.32298   -10780.411    -9226.893     415.9609    2785.1972   -8608.8434    82.862607 
   17700    355.62701   -110.02754   0.32177879   -109.70577   -833.07032    4.3564337    4.3564337    4.3564337   -833.07032   -8834.1056    3605.6714    2729.2232   -2487.3026    6371.7414    1430.7272    82.678641 
   17800    494.85427   -110.15192   0.44775454   -109.70417   -8056.7097    4.3679415    4.3679415    4.3679415   -8056.7097   -6164.2091   -7323.4517   -10682.468   -683.09814   -4672.2745   -3464.7962    83.335573 
   17900    298.09255    -109.9754    0.2697204   -109.70568    5947.1132    4.3538811    4.3538811    4.3538811    5947.1132    7197.1446    14336.039   -3691.8437   -1728.7615    7309.1365      -5343.1    82.533391 
   18000    410.05926   -110.07724   0.37103024   -109.70621   -3096.7662    4.3620784    4.3620784    4.3620784   -3096.7662   -11307.647   -197.11262    2214.4607   -1831.3722      373.105   -1286.4453    83.000442 
   18100    439.75391   -110.10197   0.39789858   -109.70407   -766.29899    4.3644501    4.3644501    4.3644501   -766.29899    1838.4269    2846.6866   -6984.0104   -1381.8214    -161.2708   -301.97369      83.1359 
   18200      360.443   -110.03131    0.3261364   -109.70518     2360.005    4.3540265    4.3540265    4.3540265     2360.005    1121.4474     3577.939    2380.6286    2583.1073     7427.305   -7080.0387     82.54166 
   18300    414.73609   -110.08103   0.37526193   -109.70577   -5534.2529    4.3656742    4.3656742    4.3656742   -5534.2529   -13546.522    6473.7587   -9529.9953   -3099.1801   -803.75241    3009.2797     83.20587 
   18400    461.55563   -110.12206   0.41762524   -109.70444    4984.8923    4.3593874    4.3593874    4.3593874    4984.8923    7817.6495    680.51278    6456.5146   -4775.4042     1992.002   -164.54273    82.846923 
   18500    355.24136   -110.02812   0.32142985   -109.70669    2243.5218    4.3581695    4.3581695    4.3581695    2243.5218    541.74014    9459.7914   -3270.9662    4439.5129    3372.6612   -10893.024    82.777508 
   18600     388.1111    -110.0576   0.35117108   -109.70643    1297.7187    4.3627818    4.3627818    4.3627818    1297.7187   -1609.0841    3529.6248    1972.6153   -5177.0511   -526.13737    3254.8809      83.0406 
   18700     455.6074   -110.11696   0.41224315   -109.70472   -1669.8961    4.3617533    4.3617533    4.3617533   -1669.8961    1524.9356   -3236.4117   -3298.2121   -389.31037   -602.26473   -5381.2704    82.981885 
   18800    288.10323    -109.9676   0.26068185   -109.70692    8016.3593    4.3552645    4.3552645    4.3552645    8016.3593    5543.8088    16212.661    2292.6083    910.78811    751.43569   -7943.3616    82.612091 
   18900    455.12613   -110.11743   0.41180769   -109.70562   -4546.6249    4.3660803    4.3660803    4.3660803   -4546.6249   -4443.7727   -2112.7186   -7083.3835   -2332.3752    573.10772    1613.0887    83.229091 
   19000    392.80192   -110.06051   0.35541543   -109.70509    6032.5084    4.3570264    4.3570264    4.3570264    6032.5084    9847.6592    600.60003    7649.2659   -199.95836   -901.90615   -7094.8277    82.712393 
   19100    411.59188   -110.07931   0.37241698    -109.7069   -5268.5393    4.3602991    4.3602991    4.3602991   -5268.5393   -947.46489   -8550.6493   -6307.5036   -2115.5405    1740.9139   -5878.5395    82.898917 
   19200    417.79484   -110.08381   0.37802955   -109.70578    -2369.683    4.3629743    4.3629743    4.3629743    -2369.683   -333.92099   -6991.1864    216.05825   -1315.6436    1524.0675    185.41251    83.051593 
   19300    468.08046   -110.12793   0.42352903    -109.7044   -4474.0195    4.3598983    4.3598983    4.3598983   -4474.0195   -2228.5201   -8668.2278   -2525.3106   -5072.8833    643.04541   -3386.4516    82.876054 
   19400    311.06158   -109.98816   0.28145505   -109.70671    2767.1601     4.359653     4.359653     4.359653    2767.1601    12311.541    607.64809   -4617.7091    3104.4047    1488.4839   -7523.5985    82.862071 
   19500    456.78722   -110.11826   0.41331067   -109.70495   -1733.0731     4.362322     4.362322     4.362322   -1733.0731   -655.82023   -3236.9227   -1306.4763   -4395.6757     2653.086    3414.4681     83.01435 
   19600    340.84054   -110.01389   0.30839968   -109.70549   -461.50322    4.3598327    4.3598327    4.3598327   -461.50322    5583.4148   -6638.6576   -329.26688     -6978.29    544.43494   -2660.2589    82.872316 
   19700    342.79837   -110.01744   0.31017117   -109.70727   -2816.4445    4.3609599    4.3609599    4.3609599   -2816.4445    9503.7227   -9115.2367   -8837.8194     5030.748    3154.9914   -8951.5829    82.936609 
   19800    400.29885   -110.06725   0.36219881   -109.70505    1174.4806      4.36288      4.36288      4.36288    1174.4806    130.34085    6569.9247   -3176.8237   -7745.6597   -1158.8124    5494.1436    83.046209 
   19900    435.63976   -110.09892   0.39417601   -109.70474   -1216.2799    4.3577436    4.3577436    4.3577436   -1216.2799    4762.2495   -4118.6656   -4292.4236    -966.7098   -395.45453   -9218.8881    82.753242 
   20000    354.23865   -110.02646   0.32052258   -109.70593   -5433.9737    4.3653186    4.3653186    4.3653186   -5433.9737    8947.7651   -8090.4079   -17159.278    1775.7313    1876.4159   -7983.6451    83.185539 
   20100    521.54966   -110.17477   0.47190909   -109.70286   -820.41601    4.3583664    4.3583664    4.3583664   -820.41601   -10.157354   -6935.5683    4484.4776   -2781.2174      320.534    2755.7275    82.788728 
   20200    413.20898   -110.07933   0.37388017   -109.70545   -4221.7484    4.3603716    4.3603716    4.3603716   -4221.7484    3392.6234   -4983.0251   -11074.844    2925.1942   -635.01281   -11667.689    82.903052 
   20300    372.56824   -110.04358   0.33710757   -109.70647   -1936.4312    4.3632507    4.3632507    4.3632507   -1936.4312    12640.502   -10951.562   -7498.2326   -2335.6429   -6.9288968   -2739.6213    83.067377 
   20400    468.59233   -110.12795   0.42399219   -109.70396    2007.0791    4.3607527    4.3607527    4.3607527    2007.0791    311.91282    8013.1844   -2303.8599   -432.74775    2733.3273    2040.4059    82.924788 
   20500    320.74721   -109.99583   0.29021881   -109.70561    4064.6675    4.3577104    4.3577104    4.3577104    4064.6675    18002.505   -421.19755    -5387.305   -3411.2352     385.6146   -8643.6926    82.751353 
   20600    360.29571    -110.0323   0.32600313    -109.7063   -5606.9451    4.3661499    4.3661499    4.3661499   -5606.9451    5645.8709   -9052.0463    -13414.66   -165.79381    3147.5135    -1233.229    83.233073 
   20700    420.73397   -110.08573   0.38068894   -109.70504    7732.8555    4.3559338    4.3559338    4.3559338    7732.8555     1999.675    10545.784    10653.107   -5208.3403    1371.1604    3361.4056    82.650181 
   20800    346.26567   -110.02053   0.31330845   -109.70723    1182.8696    4.3624031    4.3624031    4.3624031    1182.8696    14903.201    971.16809   -12325.761    -1900.559    695.83822   -5783.7303     83.01898 
   20900    416.83408   -110.08326   0.37716024    -109.7061   -1973.4335    4.3629116    4.3629116    4.3629116   -1973.4335   -2590.8268   -3060.9808   -268.49293    5505.0071    808.17779   -3135.1624    83.048015 
   21000    447.95954   -110.11069    0.4053232   -109.70537    3482.0166    4.3575176    4.3575176    4.3575176    3482.0166     2612.473    9841.2069     -2007.63   -2025.0645   -1274.9372    2057.4343    82.740366 
   21100    399.42889   -110.06745   0.36141165   -109.70604   -7707.9057    4.3649005    4.3649005    4.3649005   -7707.9057    1474.3855   -19298.401   -5299.7011   -84.026138   -680.97506   -10319.934     83.16164 
   21200    412.18917   -110.07766   0.37295742    -109.7047   -4811.0908    4.3610984    4.3610984    4.3610984   -4811.0908   -4167.5875   -1853.4533   -8412.2317   -1011.4749   -798.94418   -4722.0145    82.944512 
   21300    408.56533   -110.07393    0.3696785   -109.70425    2535.8201    4.3588039    4.3588039    4.3588039    2535.8201    5812.0138   -2044.9891    3840.4357      4555.62     2082.895     145.3144    82.813665 
   21400    397.17317   -110.06508   0.35937063   -109.70571   -5991.6882    4.3638721    4.3638721    4.3638721   -5991.6882   -3446.6756    1514.1972   -16042.586   -3251.6404   -1383.6987   -13396.007    83.102875 
   21500      341.955   -110.01525   0.30940807   -109.70584   -1357.2091    4.3612792    4.3612792    4.3612792   -1357.2091   -308.54917    5040.2849    -8803.363   -1127.4399     3054.261   -1364.8786    82.954826 
   21600    442.57478    -110.1046   0.40045096   -109.70415   -3230.4024    4.3592566    4.3592566    4.3592566   -3230.4024   -5806.4305     2103.195   -5987.9718    2705.7844    3077.4483    174.68461    82.839471 
   21700     373.8868   -110.04331   0.33830063   -109.70501   -7655.1193    4.3655627    4.3655627    4.3655627   -7655.1193   -5656.0967   -5441.4807    -11867.78   -450.41552   -846.70331   -10975.708    83.199494 
   21800    351.30277   -110.02229   0.31786613   -109.70443    5830.8823    4.3563523    4.3563523    4.3563523    5830.8823    575.92197    19660.887   -2744.1619    3654.3008    4798.1026    2964.4591    82.674006 
   21900    518.96093    -110.1741   0.46956675   -109.70454    -7877.769    4.3631908    4.3631908    4.3631908    -7877.769   -13917.356   -9176.9538    -538.9971   -3956.7808   -673.48029   -139.15483    83.063959 
   22000     300.1735   -109.97792   0.27160329   -109.70632   -2063.4364     4.363571     4.363571     4.363571   -2063.4364    3771.4347   -733.19221   -9228.5518    1599.8938   -338.54904   -8272.0951    83.085673 
   22100    447.65582   -110.10957   0.40504839   -109.70453   -140.72343     4.353537     4.353537     4.353537   -140.72343   -6295.0666     1557.445    4315.4513    2321.9983    3777.0738    643.49578    82.513826 
   22200    437.84583   -110.10143    0.3961721   -109.70526   -10481.849    4.3680964    4.3680964    4.3680964   -10481.849   -5275.5809   -18333.488   -7836.4792    1958.8694   -2438.6695   -3237.9722     83.34444 
   22300    313.43457   -109.98913   0.28360218   -109.70553    3111.3404    4.3600508    4.3600508    4.3600508    3111.3404    7159.4531     3319.919    -1145.351   -80.332108    2973.8563   -9095.5234    82.884755 
   22400    459.89822   -110.12001   0.41612557   -109.70388    6191.6766    4.3538398    4.3538398    4.3538398    6191.6766   -2824.0191    16572.416     4826.633   -1694.4741    3199.4775    -825.6036    82.531041 
   22500    382.98281   -110.05219    0.3465309   -109.70566   -3750.8509    4.3683536    4.3683536    4.3683536   -3750.8509    2136.2173   -4126.8252   -9261.9449    5119.1967   -749.50157   -1593.7809    83.359166 
   22600    316.51626   -109.99151   0.28639056   -109.70512    2889.5319    4.3586043    4.3586043    4.3586043    2889.5319   -1473.8596    11489.506   -1347.0508   -3811.2462    5290.7527    -10021.02    82.802289 
   22700    482.36695   -110.14026   0.43645575   -109.70381    4535.7362    4.3551483    4.3551483    4.3551483    4535.7362    2364.2263    9449.8617    1793.1207   -399.00422    2895.4586    1478.5549    82.605478 
   22800     362.5947   -110.03311   0.32808331   -109.70503   -3263.5151    4.3696749    4.3696749    4.3696749   -3263.5151   -1441.5671   -2908.4675   -5440.5106    1079.4451   -385.02636   -1129.2877     83.43483 
   22900    409.61584   -110.07477   0.37062902   -109.70414    2892.3102    4.3539708    4.3539708    4.3539708    2892.3102    2240.5187    6843.3039   -406.89188   -1022.1395    4545.5759    -10891.38    82.538495 
   23000    458.08766   -110.11967   0.41448734   -109.70518    2438.9811    4.3606479    4.3606479    4.3606479    2438.9811    5819.8619    853.80172    643.27976    1792.4455    948.76314    3571.7231    82.918809 
   23100    396.66529   -110.06474   0.35891109   -109.70583   -4326.3432    4.3660065    4.3660065    4.3660065   -4326.3432   -1453.0187   -5811.9955   -5714.0154   -377.62311    838.52223    -4538.914    83.224871 
   23200    403.61383   -110.06984   0.36519827   -109.70464    2454.0713    4.3533459    4.3533459    4.3533459    2454.0713    8687.6418   -359.63886   -965.78903   -92.595598    3119.7303   -7249.0307    82.502957 
   23300    398.65228   -110.06652   0.36070896   -109.70581    4185.2298    4.3653396    4.3653396    4.3653396    4185.2298    1155.6619    16783.587   -5383.5592    102.92145    1400.8517    2444.4837    83.186738 
   23400    401.36215   -110.06943   0.36316091   -109.70627   -1428.7547      4.36201      4.36201      4.36201   -1428.7547   -1521.3028   -3736.9006    971.93936    4347.7912    321.51908   -5782.4146    82.996537 
   23500    319.48675   -109.99562   0.28907832   -109.70654    4763.6876    4.3520759    4.3520759    4.3520759    4763.6876    10035.032    7731.3119   -3475.2809    1798.0197     1274.634   -6618.1606    82.430773 
   23600    442.76553   -110.10608   0.40062356   -109.70546   -6212.6042    4.3708938    4.3708938    4.3708938   -6212.6042   -7550.9673   -4350.6463   -6736.1991    2162.1829    5042.4607    572.23054    83.504671 
   23700    400.88464   -110.06766   0.36272885   -109.70493    1987.7564    4.3562031    4.3562031    4.3562031    1987.7564    6505.2512    1226.4553   -1768.4372    4620.3024    -2766.488   -3446.0962    82.665514 
   23800    363.88073   -110.03437   0.32924694   -109.70512    776.77445    4.3564474    4.3564474    4.3564474    776.77445    8317.3548   -3307.8232   -2679.2083    1442.8104    2994.9156     -9292.52    82.679422 
   23900    466.00023   -110.12493    0.4216468   -109.70328   -6679.4512    4.3711113    4.3711113    4.3711113   -6679.4512   -2874.2604   -3880.0651   -13284.028    415.52385    3239.8299    1926.3149    83.517135 
   24000    426.93976   -110.08979   0.38630406   -109.70348     6126.628    4.3507963    4.3507963    4.3507963     6126.628    15818.868   -5802.7532    8363.7696   -829.44502   -2466.2328   -3254.8114     82.35809 
   24100     372.7011   -110.04335   0.33722779   -109.70612   -4994.8403     4.364403     4.364403     4.364403   -4994.8403    7701.2854   -5578.1189   -17107.688   -2075.0372    5786.4879   -8592.2928    83.133209 
   24200     443.2857   -110.10497   0.40109421   -109.70388   -1612.1772    4.3662237    4.3662237    4.3662237   -1612.1772    2423.0693   -6636.4464   -623.15437   -1720.6176    745.90208    5117.0503    83.237294 
   24300    405.20128   -110.06992   0.36663464   -109.70329    7775.4838    4.3510561    4.3510561    4.3510561    7775.4838    11046.115    12521.089   -240.75252     3024.823   -1977.1213   -6011.6283    82.372842 
   24400     322.4164   -109.99795   0.29172914   -109.70622   -3619.1268    4.3681148    4.3681148    4.3681148   -3619.1268    2221.0793   -3683.4308   -9395.0288   -594.22652    6512.5784   -3036.6849    83.345493 
   24500    446.14081   -110.10712   0.40367758   -109.70344   -4009.1573    4.3629394    4.3629394    4.3629394   -4009.1573   -6812.7675    870.84353   -6085.5481    3746.2342    985.88269    3043.2978      83.0496 
   24600    353.10009   -110.02381   0.31949238   -109.70432    8687.3195    4.3514901    4.3514901    4.3514901    8687.3195    16601.962    3874.2165    5585.7796    7770.2265   -3036.5509   -6248.1116    82.397491 
   24700    334.79581   -110.00878   0.30293029   -109.70585    -7338.656    4.3715199    4.3715199    4.3715199    -7338.656    3211.9824   -6650.3635   -18577.587    60.689669    7124.2627   -479.52552     83.54056 
   24800    445.06428   -110.10669   0.40270351   -109.70399    1876.6006    4.3553748    4.3553748    4.3553748    1876.6006   -1369.0631   -1860.7078    8859.5727    4344.8266    1218.6482   -931.02518    82.618366 
   24900    391.55175    -110.0612   0.35428426   -109.70691    4081.6458    4.3572066    4.3572066    4.3572066    4081.6458     20692.42   -3190.2007   -5257.2817    1169.8391   -147.95828    -3000.547    82.722656 
   25000    416.63781   -110.08243   0.37698265   -109.70545   -10960.131    4.3701889    4.3701889    4.3701889   -10960.131   -10365.562   -18053.885   -4460.9455    -465.1794     6215.372   -3993.9701    83.464275 
   25100    488.15938   -110.14444   0.44169687   -109.70275    3699.8634    4.3498908    4.3498908    4.3498908    3699.8634    6291.8345    1913.3682    2894.3875   -2669.4735    1644.2216    237.81726    82.306676 
   25200    411.99815   -110.07823   0.37278459   -109.70544   -7469.5978    4.3673721    4.3673721    4.3673721   -7469.5978    -1754.475   -21468.614    814.29514   -2356.0113    3445.2932   -1895.5768     83.30299 
   25300    417.78974   -110.08364   0.37802493   -109.70561   -6642.6153    4.3609339    4.3609339    4.3609339   -6642.6153   -17204.143    3037.7184   -5761.4217    1027.8401    7499.4641   -5977.2285    82.935127 
   25400    356.07353   -110.02687   0.32218281   -109.70468    5516.1486    4.3533902    4.3533902    4.3533902    5516.1486   -3280.0265     4558.741    15269.731   -3504.9506    3566.4735     6085.708    82.505478 
   25500    422.16238   -110.08793   0.38198139   -109.70595   -10637.062     4.369594     4.369594     4.369594   -10637.062    -16967.79   -8988.3932    -5955.001    1861.7989   -2092.3512   -3276.6202    83.430193 
   25600    266.25548   -109.94828   0.24091356   -109.70736    3911.2798    4.3570352    4.3570352    4.3570352    3911.2798   -5959.7573    12513.481    5180.1154   -225.02852    11246.866    198.17468    82.712893 
   25700    455.16911   -110.11689   0.41184657   -109.70504     2017.271    4.3562657    4.3562657    4.3562657     2017.271   -5872.3658    8590.9903    3333.1884    2564.3907     2344.316    2618.4195    82.669078 
   25800    383.55609   -110.05188   0.34704961   -109.70483   -10199.276    4.3721712    4.3721712    4.3721712   -10199.276   -14453.556   -11699.088   -4445.1853    5183.8254    419.95208    -5594.825    83.577905 
   25900    322.92527   -109.99709   0.29218957    -109.7049    7475.6812    4.3503913    4.3503913    4.3503913    7475.6812   -1694.4607    24520.488   -398.98372   -1227.2974    18031.985    362.95717    82.335093 
   26000     489.6201   -110.14752   0.44301855    -109.7045   -484.43089    4.3625047    4.3625047    4.3625047   -484.43089   -5930.7513   -3589.4513    8066.9099    4598.6419    1045.2345   -1629.2373    83.024779 
   26100    363.06928   -110.03334   0.32851272   -109.70483   -9644.6753    4.3690401    4.3690401    4.3690401   -9644.6753   -15184.688   -6116.1443   -7633.1935    1854.4064    4253.7398   -2215.1908    83.398472 
   26200     277.0269   -109.95409   0.25065976   -109.70343    7590.7333    4.3494851    4.3494851    4.3494851    7590.7333   -3180.3227     14967.74    10984.782    1579.7345    18252.707   -5437.7875    82.283651 
   26300    477.79215    -110.1349   0.43231638   -109.70258   -6862.0651    4.3678094    4.3678094    4.3678094   -6862.0651   -12724.856   -6357.4482   -1503.8908    1862.9457   -4122.3506    958.15205    83.328016 
   26400    313.19606   -109.98864   0.28338638   -109.70526   -7108.4281    4.3617387    4.3617387    4.3617387   -7108.4281   -17054.281   -1325.5165   -2945.4868   -1623.2489    8913.8004   -1424.1982     82.98105 
   26500    345.73999   -110.01837   0.31283281   -109.70553    558.33893     4.353762     4.353762     4.353762    558.33893   -6818.1723    8865.8862   -372.69711    1311.2317    11696.641   -4350.7595    82.526617 
   26600    579.71785   -110.22673    0.5245409   -109.70219   -9949.0229    4.3690676    4.3690676    4.3690676   -9949.0229   -11757.368   -14291.528   -3798.1731   -2146.1295   -6135.4047     4513.717    83.400044 
   26700    357.72708   -110.02973   0.32367898   -109.70605   -2830.4655    4.3556292    4.3556292    4.3556292   -2830.4655   -9515.2917    5862.0821   -4838.1868    1392.3604    13394.708   -2799.5964    82.632844 
   26800    455.71524   -110.11943   0.41234073   -109.70709   -4338.6335    4.3579161    4.3579161    4.3579161   -4338.6335   -5826.3921   -884.69113   -6304.8171   -2142.0286    7273.6047    1291.2627    82.763072 
   26900     548.7261   -110.20025   0.49649891   -109.70375   -8174.1552    4.3689008    4.3689008    4.3689008   -8174.1552   -16615.035   -8291.3636    383.93286   -542.80604   -3433.6281    2061.1113    83.390492 
   27000    295.41609   -109.97273   0.26729868   -109.70543    3900.0013    4.3508199    4.3508199    4.3508199    3900.0013    3223.5767    13054.395   -4577.9676    3207.5596    13940.156   -2246.0079     82.35943 
   27100    373.77872   -110.04439   0.33820284   -109.70619   -6731.1164    4.3653464    4.3653464    4.3653464   -6731.1164   -13022.966   -4758.0613   -2412.3217   -2364.6185    5498.7489    458.42136    83.187131 
   27200    420.83518   -110.08434   0.38078051   -109.70356     379.0313    4.3627565    4.3627565    4.3627565     379.0313    2720.0389   -1373.7905   -209.15452    5144.4563   -213.16005   -1998.9837    83.039154 
   27300     256.6621   -109.93794   0.23223327   -109.70571    4199.5378    4.3531613    4.3531613    4.3531613    4199.5378    792.67591     11982.59   -176.65302    712.24726    11394.143    -577.3588    82.492466 
   27400    403.21224    -110.0702   0.36483491   -109.70536   -6089.8168    4.3678162    4.3678162    4.3678162   -6089.8168   -9199.7124    -2417.365    -6652.373    2967.3676    4494.4253    -4145.842    83.328405 
   27500    439.19663   -110.10089   0.39739434   -109.70349    6317.0029    4.3573785    4.3573785    4.3573785    6317.0029    8838.3169    8793.7228     1318.969    4247.0096   -1392.8415   -1202.4418    82.732447 
   27600    379.12403   -110.04939   0.34303939   -109.70635   -1218.4314    4.3570575    4.3570575    4.3570575   -1218.4314   -7974.6306     8738.708   -4419.3716   -20.907712    12274.921   -1828.3774    82.714164 
   27700    426.68167   -110.09225   0.38607054   -109.70617   -1310.1683    4.3663417    4.3663417    4.3663417   -1310.1683    7534.6464   -400.47531   -11064.676    2067.3134    2512.3004   -5492.5146    83.244044 
   27800    460.76535    -110.1217   0.41691017   -109.70479    5513.0221    4.3541777    4.3541777    4.3541777    5513.0221   -2262.9233     12435.09    6366.8992   -1627.7926   -3089.3619    2831.1515    82.550261 
   27900     334.8701   -110.01015    0.3029975   -109.70715   -3152.2003     4.360748     4.360748     4.360748   -3152.2003   -1379.5086    2270.6818   -10347.774    2274.3589    11355.271    -3476.225     82.92452 
   28000    333.21753   -110.00629   0.30150222   -109.70479    4009.1379     4.364428     4.364428     4.364428    4009.1379    4121.7755    7570.4818    335.15632    -3220.245    1822.2582   -150.25621    83.134635 
   28100    507.79666   -110.16232   0.45946509   -109.70285    550.42829    4.3530258    4.3530258    4.3530258    550.42829   -3587.8466    2591.8524     2647.279   -621.45938   -2394.3785    3038.8285    82.484761 
   28200    215.47889   -109.90209   0.19496983   -109.70712    231.33659    4.3636203    4.3636203    4.3636203    231.33659    7649.5042   -1928.1302   -5027.3643       2657.9    12137.686   -2583.1839     83.08849 
   28300    531.50991   -110.18515   0.48092133   -109.70423   -4142.0366    4.3612088    4.3612088    4.3612088   -4142.0366   -5536.5579   -4528.2333   -2361.3185   -3663.0156    767.37908    2273.3123    82.950812 
   28400    429.22012   -110.09285   0.38836738   -109.70448    6379.5363    4.3544249    4.3544249    4.3544249    6379.5363    6948.4718    2039.4154    10150.722    6234.6189   -1563.0455   -1449.2676     82.56432 
   28500    396.08372   -110.06503   0.35838487   -109.70664   -5355.0091    4.3654004    4.3654004    4.3654004   -5355.0091    4164.4317    -8304.616   -11924.843   -296.43863    12736.607    132.07361    83.190215 
   28600    481.19929   -110.13971   0.43539923   -109.70431    4311.6526     4.358402     4.358402     4.358402    4311.6526    1177.4744   -446.28774    12203.771    1988.9478    -2704.477   -4132.0686    82.790755 
   28700    449.86582   -110.11215   0.40704805   -109.70511    4855.4938    4.3549823    4.3549823    4.3549823    4855.4938    11457.768    429.28963    2679.4237    4202.5437   -2161.9993   -1693.0522     82.59603 
   28800     264.3462   -109.94628     0.239186   -109.70709   -2985.6319    4.3677253    4.3677253    4.3677253   -2985.6319   -8594.1859   -2001.3045    1638.5947    -1967.284    12472.923   -1864.4765    83.323201 
   28900    478.69984   -110.13667   0.43313767   -109.70354    4154.7769    4.3534891    4.3534891    4.3534891    4154.7769    1389.6315    5947.9761    5126.7231    4590.6166   -3516.0526    -5759.714    82.511103 
   29000    300.76267   -109.97891   0.27213638   -109.70678    5509.9174    4.3605748    4.3605748    4.3605748    5509.9174    1059.7494    8721.8751    6748.1276   -200.06008    860.68305    2605.3241    82.914642 
   29100    359.05189   -110.03152    0.3248777   -109.70665   -5271.0518    4.3644025    4.3644025    4.3644025   -5271.0518   -4810.4269    190.27677   -11193.005    1474.3329    11105.785   -2835.1986    83.133178 
   29200     423.2781   -110.08679   0.38299092    -109.7038    8546.5836    4.3528844    4.3528844    4.3528844    8546.5836    6109.5165    8643.3453    10886.889    1351.5115    -3875.704    1806.8598    82.476727 
   29300    408.53786   -110.07534   0.36965364   -109.70568    -3742.033    4.3648038    4.3648038    4.3648038    -3742.033   -3096.2994   -1349.3819   -6780.4179    132.85171    676.68589    2182.6679    83.156115 
   29400    349.64595   -110.02182     0.316367   -109.70545    2601.9106    4.3601866    4.3601866    4.3601866    2601.9106    2366.2889    4928.3462    511.09679     771.6453    8558.6116   -407.24651    82.892496 
   29500    531.05431   -110.18346    0.4805091   -109.70295    3338.9275    4.3547837    4.3547837    4.3547837    3338.9275    2850.8512    4170.0083    2995.9231   -310.76388   -3011.8062    1715.4321    82.584733 
   29600    318.84907   -109.99493   0.28850134   -109.70643   -2577.3623    4.3661227    4.3661227    4.3661227   -2577.3623   -1789.0869   -4332.5663   -1610.4336    530.42817    1399.7481   -161.25431    83.231517 
   29700    415.37598   -110.08144   0.37584092    -109.7056   -3756.1167    4.3570228    4.3570228    4.3570228   -3756.1167     -5749.09    4624.7312   -10143.991   -1529.5471    11555.537    1905.2956    82.712188 
   29800     434.5696   -110.09779   0.39320771   -109.70458    2820.4257    4.3557127    4.3557127    4.3557127    2820.4257   -47.534171   -323.92595    8832.7373    909.18747   -1977.0645   -4741.4523    82.637598 
   29900    367.36796   -110.03879   0.33240225   -109.70639   -14017.548    4.3692488    4.3692488    4.3692488   -14017.548   -14340.429   -8358.2507   -19353.963   -1149.2448    4157.0516    381.61815    83.410426 
   30000    357.20878   -110.02828   0.32321001   -109.70507    5920.1898    4.3522071    4.3522071    4.3522071    5920.1898    -4389.261    18401.688    3748.1425    124.66694    12733.237   -1610.6303    82.438232 
   30100    530.51396   -110.18394   0.48002018   -109.70392    -4024.334    4.3617242    4.3617242    4.3617242    -4024.334    5878.6116   -10681.131    -7270.483    298.66639    -4052.087   -3555.3807    82.980225 
   30200    324.02578   -109.99976   0.29318533   -109.70657   -5048.0204    4.3649152    4.3649152    4.3649152   -5048.0204   -11534.147    6535.4688   -10145.383    1169.2845    6045.8797    1981.7836    83.162477 
   30300     431.5402   -110.09529   0.39046664   -109.70483    6120.1403    4.3520257    4.3520257    4.3520257    6120.1403    1435.4225    20656.598      -3731.6    2893.6715    10663.711   -2427.7296    82.427922 
   30400    461.57429   -110.12225   0.41764211   -109.70461   -1856.8603     4.364441     4.364441     4.364441   -1856.8603   -451.13771   -2638.3116   -2481.1315   -1041.8379   -5366.3636    1418.4699    83.135381 
   30500    268.00762   -109.94938   0.24249892   -109.70688   -4489.6309    4.3617751    4.3617751    4.3617751   -4489.6309   -23406.251    25259.104   -15321.745    2000.9912    8452.0486   -112.31331    82.983127 
   30600     376.7138   -110.04572   0.34085856   -109.70487    6884.2462    4.3524791    4.3524791    4.3524791    6884.2462    316.52355    15575.984    4760.2308   -1882.7852    8589.3053    1499.7236    82.453689 
   30700    470.42687   -110.12958   0.42565212   -109.70393   -9119.7735    4.3687139    4.3687139    4.3687139   -9119.7735   -16570.968    2094.3748   -12882.727    287.24067   -4461.7068    239.58101    83.379794 
   30800      248.967   -109.93191   0.22527058   -109.70664   -588.05298    4.3559048    4.3559048    4.3559048   -588.05298   -20014.535    21035.352   -2784.9763   -858.56613    11630.647    -595.6289     82.64853 
   30900    553.56331   -110.20679   0.50087572   -109.70592   -2946.4662    4.3572603    4.3572603    4.3572603   -2946.4662   -6868.4308    3478.0917   -5449.0597   -2224.2552    2957.7378    2775.8551    82.725714 
   31000    440.16359   -110.10316   0.39826926   -109.70489    -5550.768    4.3690966    4.3690966    4.3690966    -5550.768   -15194.945    1531.8329   -2989.1922    1122.3265   -1722.5904   -2974.5734    83.401706 
   31100    419.07323    -110.0838   0.37918626   -109.70461    -1663.043    4.3509125    4.3509125    4.3509125    -1663.043   -7999.9975    14732.978   -11722.109   -691.08006    10427.577    2850.2756    82.364686 
   31200    440.06956   -110.10323   0.39818418   -109.70504   -1300.7466    4.3665494    4.3665494    4.3665494   -1300.7466   -7105.6107    4305.4409   -1102.0699    2225.6906   -246.94605    1461.5902    83.255922 
   31300    426.15262   -110.09005   0.38559184   -109.70446   -2331.6961    4.3612605    4.3612605    4.3612605   -2331.6961   -6859.9184    13643.154   -13778.324   -1130.8806    -378.4722   -60.938274    82.953761 
   31400    205.90975   -109.89202   0.18631147   -109.70571    4319.3472    4.3553177    4.3553177    4.3553177    4319.3472   -11488.546    23057.441    1389.1471    4836.0197    7015.7252    2039.6431    82.615119 
   31500    435.58091   -110.09736   0.39412276   -109.70324   -2966.9971    4.3662625    4.3662625    4.3662625   -2966.9971   -10800.881    15205.636   -13305.747    2113.0926      158.388      -1730.2    83.239515 
   31600    302.78981   -109.97883   0.27397059   -109.70486   -432.93599    4.3604439    4.3604439    4.3604439   -432.93599   -6766.1637    5731.5179    -264.1622    842.36078    1901.1272    446.20678    82.907176 
   31700     336.1921   -110.00964   0.30419368   -109.70544    1669.8814    4.3542321    4.3542321    4.3542321    1669.8814   -7769.3113     20072.81   -7293.8547    1097.3601    6160.8612   -3350.8842    82.553356 
   31800    510.97928   -110.16624    0.4623448   -109.70389   -8047.6268    4.3698024    4.3698024    4.3698024   -8047.6268   -6188.2622   -11915.966   -6038.6525   -582.92593    658.04349    1608.0694    83.442132 
   31900    440.38364    -110.1047   0.39846837   -109.70623   -4924.4547    4.3536553    4.3536553    4.3536553   -4924.4547   -9716.2569    1261.2023   -6318.3096   -2162.5765    1220.8933   -426.51596    82.520552 
   32000    338.50285    -110.0144    0.3062845   -109.70811   -1103.5286    4.3597388    4.3597388    4.3597388   -1103.5286   -14008.148    6780.3827    3917.1792   -2413.0391    5832.7128   -885.13013    82.866962 
   32100    597.60178   -110.24401   0.54072265   -109.70328   -14996.907    4.3688793    4.3688793    4.3688793   -14996.907    -15700.62   -12545.223   -16744.879   -238.01207   -1035.5067    5629.9152    83.389264 
   32200     179.0437   -109.86759    0.1620025   -109.70559    10352.137    4.3498264    4.3498264    4.3498264    10352.137   -10845.809    29929.897    11972.323   -2855.0148   -582.55541   -852.76798     82.30302 
   32300    435.28107   -110.09862   0.39385146   -109.70477   -13761.312     4.368575     4.368575     4.368575   -13761.312    -23279.98     4810.995   -22814.952    1666.1845    6403.0459    2536.9371    83.371841 
   32400    341.53574    -110.0132   0.30902872   -109.70417    4544.0232    4.3592493    4.3592493    4.3592493    4544.0232   -5710.0897    17004.261    2337.8981    730.71661   -3670.5128    2642.4199    82.839051 
   32500    318.86685   -109.99485   0.28851743   -109.70634    -3482.745    4.3572544    4.3572544    4.3572544    -3482.745    -13736.18    13752.187   -10464.242     2454.952    2199.7306   -237.60806    82.725376 
   32600    447.13431   -110.10954   0.40457652   -109.70496   -3313.3502    4.3660027    4.3660027    4.3660027   -3313.3502   -2392.5924    3935.4305   -11482.889    -247.7226    5298.4172    1151.2388    83.224653 
   32700    450.76015   -110.11202   0.40785726   -109.70417    2765.0741    4.3579061    4.3579061    4.3579061    2765.0741     6895.068    486.53396    913.62034    1801.1245   -4185.4753   -920.57715      82.7625 
   32800    398.33334   -110.06653   0.36042038   -109.70611   -4315.3927    4.3590951    4.3590951    4.3590951   -4315.3927   -1888.7309      362.977   -11420.424   -1246.3674    4068.5472    950.84659    82.830261 
   32900    413.84278   -110.07954   0.37445365   -109.70509   -1295.1713      4.36663      4.36663      4.36663   -1295.1713   -2603.8199     8319.664    -9601.358   -2473.4571    2388.8803   -2013.9293    83.260532 
   33000    466.52135   -110.12622   0.42211832    -109.7041    1661.4609    4.3525995    4.3525995    4.3525995    1661.4609     397.8074    3473.5705    1113.0049    657.02392    -3250.967    835.34985    82.460529 
   33100    235.92923   -109.92137   0.21347373    -109.7079   -930.24669    4.3637913    4.3637913    4.3637913   -930.24669    -17232.74      22109.6      -7667.6   -3869.3244    4046.6313     559.5016    83.098255 
   33200    466.11475   -110.12617   0.42175042   -109.70442    790.63778    4.3621219    4.3621219    4.3621219    790.63778    -1779.822     14380.63   -10228.895    1114.2146    1486.3204   -2765.8995    83.002926 
   33300    374.56974   -110.04372   0.33891857    -109.7048    7934.5745    4.3537688    4.3537688    4.3537688    7934.5745   -2112.2642    18074.953    7841.0346   -527.91928   -1274.9142    4842.2805    82.527007 
   33400    369.45136    -110.0408   0.33428735   -109.70652   -6996.2798    4.3666356    4.3666356    4.3666356   -6996.2798   -14472.746    14402.023   -20918.116    816.78638     5086.093   -1286.2084    83.260854 
   33500    528.19115   -110.18087   0.47791846   -109.70295    5870.9468    4.3573081    4.3573081    4.3573081    5870.9468    14000.094   -147.53495    3760.2811    1593.6726    -21.76865    16.741671    82.728432 
   33600    499.88572   -110.15685   0.45230711   -109.70454   -2297.4271    4.3591233    4.3591233    4.3591233   -2297.4271    -3992.277    9097.2534   -11997.258    2026.2114   -211.18673    4921.0683    82.831869 
   33700    333.85356   -110.00817   0.30207772   -109.70609    88.312211    4.3637964    4.3637964    4.3637964    88.312211    3680.5544     138.1279   -3553.7456   -2616.9189    5039.2572   -1375.0752     83.09855 
   33800    537.37418   -110.18943   0.48622745    -109.7032    472.50685    4.3596503    4.3596503    4.3596503    472.50685    6196.6452     5456.026   -10235.151   -1390.9878    1335.2692    2934.3617    82.861915 
   33900      269.627   -109.95033   0.24396418   -109.70637    6364.3673    4.3575289    4.3575289    4.3575289    6364.3673   -2249.5569    19425.023    1917.6363   -321.24207   -897.41738    1732.0076    82.741011 
   34000    313.19623   -109.99065   0.28338653   -109.70726   -4668.8558    4.3655839    4.3655839    4.3655839   -4668.8558     -3973.44    8622.9237   -18656.051   -3227.7037    3397.6032     2001.802    83.200708 
   34100    388.09585   -110.05572   0.35115728   -109.70457    12003.456    4.3551812    4.3551812    4.3551812    12003.456    1310.4442    25535.223    9164.7013   -2440.9558    2043.9071    494.61721    82.607351 
   34200    402.77342   -110.07226   0.36443785   -109.70782   -5135.7531    4.3621178    4.3621178    4.3621178   -5135.7531   -2169.5642    2314.1154   -15551.811    1870.5147   -1068.2524   -673.89301    83.002692 
   34300    311.60767   -109.98918   0.28194917   -109.70723    2650.2526    4.3618732    4.3618732    4.3618732    2650.2526   -265.75295     4300.275    3916.2358   -1426.7442    3095.9964    3860.5844    82.988727 
   34400    669.41537   -110.30869    0.6057011   -109.70299   -4357.7662    4.3566966    4.3566966    4.3566966   -4357.7662    11.553121   -5300.3736   -7784.4782   -950.83784   -689.59216   -7512.6543    82.693607 
   34500    305.83894   -109.98419    0.2767295   -109.70746   -1944.1614    4.3619763    4.3619763    4.3619763   -1944.1614   -75.570157   -4017.8785   -1739.0354    5154.4914    923.98963    1184.6732    82.994616 
   34600    453.89758   -110.11631   0.41069607   -109.70562   -5439.8369     4.360319     4.360319     4.360319   -5439.8369   -5443.5907   -5825.5441   -5050.3757   -2049.3178    3963.1352   -1166.0301    82.900049 
   34700    439.41337   -110.10296   0.39759045   -109.70537    2084.2142     4.358992     4.358992     4.358992    2084.2142   -3229.6291    9157.9927    324.27903    1987.6309   -3610.0091    -5633.282    82.824386 
   34800    250.39866   -109.93512   0.22656597   -109.70855    5525.5094    4.3584211    4.3584211    4.3584211    5525.5094     3752.166    17019.855   -4195.4931   -445.89743    2060.9316    2799.0107    82.791843 
   34900     334.8865   -110.00988   0.30301234   -109.70686   -1209.1266    4.3664777    4.3664777    4.3664777   -1209.1266   -13836.327    14956.109    -4747.161   -525.70814    3071.9037   -2315.7955    83.251818 
   35000    463.55295   -110.12303   0.41943245    -109.7036    11343.867    4.3512125    4.3512125    4.3512125    11343.867    7266.0057    24498.781     2266.814    -2377.561    -3221.181    1416.3819    82.381728 
   35100    310.79597   -109.98827   0.28121472   -109.70706    -3352.698    4.3684702    4.3684702    4.3684702    -3352.698   -3610.8392    651.36592   -7098.6208   -655.00279    3042.2578    1531.4566    83.365841 
   35200    539.62447    -110.1917   0.48826356   -109.70344    4494.6551    4.3567345    4.3567345    4.3567345    4494.6551    -1532.983    14297.735     719.2132    2722.2198    1033.7672    1045.0688    82.695769 
   35300    526.59647    -110.1812   0.47647555   -109.70473    2401.3743    4.3583245    4.3583245    4.3583245    2401.3743    5055.0296   -2694.1928    4843.2862   -1852.9989   -338.37043   -992.60375    82.786339 
   35400    341.55253   -110.01596   0.30904391   -109.70692   -2014.6401    4.3655066    4.3655066    4.3655066   -2014.6401    -4788.531    7476.4149   -8731.8041    1767.2434    2963.5167    40.013962    83.196289 
   35500    488.03909   -110.14615   0.44158803   -109.70456     3452.336      4.35713      4.35713      4.35713     3452.336   -8585.9785    14077.048    4865.9382    146.17908    357.51894    1989.7655     82.71829 
   35600    362.68653   -110.03384   0.32816639   -109.70568    4095.1924    4.3587634    4.3587634    4.3587634    4095.1924   -2332.4434    15475.086   -857.06532    1708.3189    402.65855    -6094.921    82.811355 
   35700    196.15527    -109.8861   0.17748541   -109.70861    2217.0935     4.365498     4.365498     4.365498    2217.0935    -5824.251    22371.372   -9895.8403    943.65538    2395.8695   -505.45055    83.195794 
   35800     511.6625   -110.16747   0.46296298    -109.7045    6985.6325    4.3520625    4.3520625    4.3520625    6985.6325   -4738.3093    14714.323    10980.884    3341.1824    1551.8856   -1425.2299    82.430015 
   35900    325.18771   -110.00326   0.29423667   -109.70903     1738.477    4.3626024    4.3626024    4.3626024     1738.477    2502.0671    9958.9816   -7245.6178    95.609474    393.34839   -7153.3819    83.030354 
   36000    408.16286   -110.07581   0.36931433   -109.70649   -7684.2815    4.3641204    4.3641204    4.3641204   -7684.2815   -3421.4564    -8354.397   -11276.991    473.48471    3188.8339   -473.25967     83.11706 
   36100    542.85431   -110.19373   0.49118598   -109.70255    8323.2656     4.350014     4.350014     4.350014    8323.2656    361.33405    7820.7577    16787.705    616.86809    1334.9743   -2844.8893    82.313668 
   36200    411.17403   -110.07754    0.3720389    -109.7055   -12323.917    4.3693582    4.3693582    4.3693582   -12323.917   -732.98065   -16705.104   -19533.666    -787.5176   -1992.3951   -662.82608     83.41669 
   36300    330.15037   -110.00464   0.29872699   -109.70592    3181.9143    4.3561829    4.3561829    4.3561829    3181.9143   -3058.4122    7945.5414    4658.6135    47.216659    4587.7409   -825.49822    82.664364 
   36400    513.14932   -110.16819   0.46430829   -109.70388     868.1532    4.3562976    4.3562976    4.3562976     868.1532   -5409.2797    7193.2457    820.49354    78.842032   -267.62782    787.38872    82.670892 
   36500      198.907   -109.88867   0.17997524   -109.70869   -293.40804    4.3656796    4.3656796    4.3656796   -293.40804   -815.37739    10309.568   -10374.415   -983.31161   -4244.8599   -2832.5704    83.206181 
   36600    361.55108   -110.03352   0.32713902   -109.70638    3256.7475    4.3571375    4.3571375    4.3571375    3256.7475    -11417.88    22308.844   -1120.7208    226.92694    6139.4644   -2309.7959     82.71872 
   36700     463.2009   -110.12419   0.41911391   -109.70507    5811.1556    4.3588947    4.3588947    4.3588947    5811.1556   -1617.7513    16709.987    2341.2306    2569.4052   -2911.6934    1388.1899    82.818837 
   36800    271.18687   -109.95333   0.24537558   -109.70795    898.32738    4.3647575    4.3647575    4.3647575    898.32738    3759.5487    6901.9159   -7966.4824   -2641.9161   -2748.8911   -5552.3175    83.153469 
   36900    575.67503   -110.22442   0.52088287   -109.70354   -697.91581    4.3560609    4.3560609    4.3560609   -697.91581   -5390.4599    2413.5187    883.19375    4822.3649    3796.1254   -983.32776    82.657417 
   37000    456.01701   -110.11778   0.41261378   -109.70517    3653.7351    4.3616862    4.3616862    4.3616862    3653.7351    1401.6942    5305.3037    4254.2073    1293.0872   -4141.2361    50.798113    82.978053 
   37100    400.48631   -110.06837   0.36236843     -109.706   -4236.4138    4.3625938    4.3625938    4.3625938   -4236.4138     -1267.53   -8889.7161   -2551.9953    461.89506   -469.57982   -2611.2438    83.029866 
   37200    459.91852   -110.12031   0.41614394   -109.70417    2934.4126    4.3577266    4.3577266    4.3577266    2934.4126   -11735.567    10805.789    9733.0164    1029.4411    1617.7548    790.29268    82.752274 
   37300     373.2485   -110.04277   0.33772309   -109.70505    2906.3495    4.3613828    4.3613828    4.3613828    2906.3495    -6064.238    8119.5762    6663.7103    1406.6604   -3914.8006    1442.9001    82.960738 
   37400    295.57746   -109.97383    0.2674447   -109.70638    2599.7006    4.3614628    4.3614628    4.3614628    2599.7006   -1415.2669    13749.895   -4535.5264    725.02107   -844.09099    348.80495    82.965307 
   37500    439.22947   -110.10177   0.39742406   -109.70434    9152.3444     4.357162     4.357162     4.357162    9152.3444   -5329.9959    22392.399     10394.63     -2229.53    2060.3412   -1218.1728    82.720112 
   37600    379.23682   -110.04989   0.34314145   -109.70675    2538.9282    4.3616689    4.3616689    4.3616689    2538.9282    58.375379     7819.445   -261.03567    4435.6884   -5117.3829    782.16067     82.97707 
   37700    371.69774   -110.04291   0.33631993   -109.70659    1822.4022    4.3603228    4.3603228    4.3603228    1822.4022    141.28658    9822.2496   -4496.3295   -5127.9151   -424.62657   -2394.2423    82.900264 
   37800    541.33893   -110.19396   0.48981484   -109.70414    188.35464    4.3583456    4.3583456    4.3583456    188.35464   -3697.4288   -5346.0607    9608.5535    2320.9887    1771.9089   -3088.1503    82.787543 
   37900    364.38774   -110.03641   0.32970568    -109.7067   -2213.9497    4.3605177    4.3605177    4.3605177   -2213.9497     471.0536   -3960.6452   -3152.2576    1201.5114   -5795.4741    2159.6438    82.911385 
   38000    408.22764   -110.07553   0.36937295   -109.70616   -6319.2277    4.3624593    4.3624593    4.3624593   -6319.2277   -6271.6923   -7068.4377   -5617.5531   -1110.1847   -525.67227   -3131.5444    83.022185 
   38100    426.60549   -110.09164   0.38600162   -109.70564    6343.3558    4.3544744    4.3544744    4.3544744    6343.3558    2315.3192    8737.5554    7977.1929    5078.9761    291.23416    291.86838    82.567135 
   38200    291.80941   -109.97256   0.26403529   -109.70853   -5682.1146    4.3647395    4.3647395    4.3647395   -5682.1146   -11265.304    1448.3464   -7229.3865    1669.5534   -5612.5524    3754.9571    83.152436 
   38300     352.8303   -110.02617   0.31924827   -109.70692    393.45933    4.3599054    4.3599054    4.3599054    393.45933   -9400.6783     20042.51   -9461.4534    3474.3905   -1957.1512   -2780.2328     82.87646 
   38400    441.72018   -110.10473    0.3996777   -109.70505    9810.5184    4.3554262    4.3554262    4.3554262    9810.5184    4646.3653     21918.17    2867.0199     583.5569   -1187.8937    468.88964    82.621292 
   38500    326.02288   -110.00191   0.29499236   -109.70691   -5467.9106    4.3681786    4.3681786    4.3681786   -5467.9106   -10852.703    12292.804   -17843.833    876.98095   -4269.7168    801.58134    83.349148 
   38600    449.30931   -110.11012    0.4065445   -109.70358    4126.8488    4.3555297    4.3555297    4.3555297    4126.8488   -365.92999    14246.245   -1499.7682   -3.4353564   -807.29492   -371.12512     82.62718 
   38700    554.96064   -110.20603   0.50214005   -109.70389   -3694.2466    4.3612741    4.3612741    4.3612741   -3694.2466   -443.47725   -3822.6617   -6816.6008    753.99426    291.76507   -1169.4082     82.95454 
   38800    302.00515   -109.98004   0.27326061   -109.70678   -4233.8732    4.3641372    4.3641372    4.3641372   -4233.8732   -14239.243    6310.4357    -4772.812   -323.59714     -6720.75    1641.7939    83.118018 
   38900    508.11226   -110.16369   0.45975065   -109.70394   -3396.1819    4.3570367    4.3570367    4.3570367   -3396.1819   -5539.6563    203.37862    -4852.268   -589.67821    1571.5006    3596.3678    82.712977 
   39000    344.28713   -110.01757   0.31151823   -109.70605     2802.139    4.3629449    4.3629449    4.3629449     2802.139   -10410.167    19808.743   -992.15971   -736.32346   -114.27878   -163.42742    83.049916 
   39100     304.5984   -109.98349   0.27560703   -109.70789   -3328.9581    4.3628073    4.3628073    4.3628073   -3328.9581   -7993.3522    15005.201   -16998.723    2508.1974   -8127.1103    6625.0903    83.042058 
   39200    403.93202   -110.07087   0.36548618   -109.70538    13442.172    4.3519324    4.3519324    4.3519324    13442.172    7284.0297    27076.188    5966.2995   -1922.2725    3217.6345    1168.0878    82.422624 
   39300    431.20386   -110.09753   0.39016232   -109.70737   -5625.1534    4.3688247    4.3688247    4.3688247   -5625.1534   -13400.363     14534.62   -18009.717    3150.1538   -3312.3731   -391.76017    83.386134 
   39400    347.90489   -110.02176   0.31479166   -109.70697    786.70458    4.3561561    4.3561561    4.3561561    786.70458    151.70349     5984.213   -3775.8027    485.65383   -4959.8621    4236.8235    82.662836 
   39500    547.65319   -110.19948   0.49552811   -109.70395   -223.09664    4.3579084    4.3579084    4.3579084   -223.09664    1606.9229    3598.5618   -5874.7746   -1881.9802    4315.8954   -2271.2338    82.762633 
   39600    447.60364   -110.11009   0.40500118   -109.70509   -13436.766    4.3680324    4.3680324    4.3680324   -13436.766   -14705.477   -12725.516   -12879.304    1720.2019   -8153.1762   -339.60038     83.34078 
   39700    326.14914   -110.00083    0.2951066   -109.70572    1739.0011    4.3535166    4.3535166    4.3535166    1739.0011    2603.9315    5556.8331   -2943.7611   -3848.9865   -2181.1443    176.67848    82.512665 
   39800    476.76915   -110.13477   0.43139075   -109.70338   -4205.8515    4.3647723    4.3647723    4.3647723   -4205.8515   -8494.0608    2753.0409   -6876.5345    1082.5883    3182.7456    588.66676    83.154311 
   39900    306.01494   -109.98318   0.27688875   -109.70629   -2424.0932    4.3611352    4.3611352    4.3611352   -2424.0932    -16425.39    20790.483   -11637.372   -2839.3204   -7423.4782   -539.00479    82.946613 
   40000    263.12235   -109.94631   0.23807863   -109.70824    2082.7964     4.360155     4.360155     4.360155    2082.7964    -11712.58    20984.778   -3023.8087    2550.9723    745.25637    7135.7422    82.890698 
   40100    473.11729   -110.13292   0.42808647   -109.70483    6158.3245    4.3595863    4.3595863    4.3595863    6158.3245    3416.6654    25080.638    -10022.33    458.76482    992.28318    6398.3491    82.858268 
   40200    315.18392   -109.99209   0.28518504    -109.7069   -2935.7251    4.3666375    4.3666375    4.3666375   -2935.7251   -18146.608    11235.313   -1895.8805   -2516.1732   -4279.0939    1557.2556    83.260958 
   40300    416.80721   -110.08161   0.37713592   -109.70447    4681.5865    4.3544468    4.3544468    4.3544468    4681.5865    2641.8173    9940.3716    1462.5706    2132.7259   -695.14318    9474.2531    82.565565 
   40400    497.71454   -110.15447   0.45034257   -109.70413   -5451.2945     4.366498     4.366498     4.366498   -5451.2945   -10021.067   -6668.3005    335.48405   -519.24185   -1993.1377    2664.4653     83.25298 
   40500    343.11644    -110.0164   0.31045897   -109.70594   -3955.2162    4.3590227    4.3590227    4.3590227   -3955.2162   -19273.765   -442.19542    7850.3113   -1976.0308   -5119.1845   -1043.0227    82.826136 
   40600    412.04031   -110.07813   0.37282273   -109.70531   -3585.7819    4.3605276    4.3605276    4.3605276   -3585.7819   -12734.243    700.69439    1276.2028   -222.61977    -948.8287     3132.723    82.911948 
   40700    472.72406   -110.13133   0.42773066    -109.7036   -3210.5878    4.3633572    4.3633572    4.3633572   -3210.5878   -6523.0536   -4315.1921    1206.4822   -1459.0044    126.66127   -2299.1595    83.073458 
   40800     352.9698   -110.02438   0.31937449     -109.705    1424.8761     4.358559     4.358559     4.358559    1424.8761    -9509.469    11768.699    2015.3977   -775.14806   -5045.4483   -3466.9368    82.799704 
   40900    518.79636   -110.17454   0.46941785   -109.70513   -3268.6069     4.361508     4.361508     4.361508   -3268.6069   -9502.5086    5373.7031   -5677.0153   -502.01296    75.035689    2737.9845    82.967888 
   41000    432.01084   -110.09716   0.39089249   -109.70627     3261.773    4.3607557    4.3607557    4.3607557     3261.773   -3003.5129    7928.0678    4860.7641   -1110.5564   -594.03122     4628.755     82.92496 
   41100    355.72507   -110.03013   0.32186752   -109.70826    1261.6403    4.3588687    4.3588687    4.3588687    1261.6403   -17884.185    18704.686    2964.4196    2042.0368   -9081.5139    32.964104    82.817357 
   41200    392.73253    -110.0616   0.35535264   -109.70625    7812.6953     4.359406     4.359406     4.359406    7812.6953   -6906.9464     5068.045    25276.987   -592.52153    737.14683    7900.7536    82.847985 
   41300    342.10427   -110.01487   0.30954313   -109.70533   -1379.1123    4.3655862    4.3655862    4.3655862   -1379.1123   -11195.039    4617.2954    2440.4065    2171.7103   -4767.1163    6776.5256    83.200836 
   41400    267.16705   -109.94673   0.24173836   -109.70499    10223.887    4.3527734    4.3527734    4.3527734    10223.887   -8447.2239    18369.747    20749.138   -893.80046   -9823.2825    1115.3872    82.470414 
   41500    458.20042   -110.11921   0.41458937   -109.70462   -7375.5896    4.3654795    4.3654795    4.3654795   -7375.5896   -6657.6523   -9151.2352   -6317.8814    1056.6244    1432.5425    5229.9467     83.19474 
   41600    356.26282    -110.0289   0.32235409   -109.70655    -894.1817    4.3578743    4.3578743    4.3578743    -894.1817   -8113.4277    9121.6392   -3690.7566      1940.78   -7694.1698    310.54929     82.76069 
   41700    422.25273    -110.0893   0.38206314   -109.70724   -6366.6744    4.3606946    4.3606946    4.3606946   -6366.6744    -10692.74   -2011.1419   -6396.1417   -2830.4802   -6422.6172   -2385.9836    82.921476 
   41800    510.83032   -110.16749   0.46221001   -109.70528    1886.4128    4.3596594    4.3596594    4.3596594    1886.4128    8607.1148   -8400.1641    5452.2878    4924.3066    4515.3063   -932.27581    82.862431 
   41900    363.42345   -110.03566   0.32883317   -109.70683   -6007.2725    4.3638377    4.3638377    4.3638377   -6007.2725   -11195.872   -3242.2584   -3583.6875   -972.99972   -4284.9575    1219.0827    83.100908 
   42000    405.87414   -110.07317   0.36724345   -109.70593    1637.7075    4.3558182    4.3558182    4.3558182    1637.7075   -3968.6417   -1917.9098    10799.674   -2861.2691   -1485.2364   -2155.3846    82.643603 
   42100    408.32122   -110.07407   0.36945762   -109.70461   -532.75316    4.3643272    4.3643272    4.3643272   -532.75316   -7144.3233   -9304.3938    14850.458    240.48102     2341.088    3029.9557    83.128876 
   42200    356.54346    -110.0291   0.32260802   -109.70649   -6600.8139    4.3584568    4.3584568    4.3584568   -6600.8139    -18962.71    1723.4801   -2563.2122   -2304.5895    -5225.605    6143.4321    82.793879 
   42300    345.75502   -110.01964   0.31284641    -109.7068   -1096.4507    4.3617374    4.3617374    4.3617374   -1096.4507   -15467.175    -2045.551    14223.374   -982.07829   -3481.2886    696.27214    82.980977 
   42400    587.63649   -110.23532   0.53170584   -109.70361   -6422.9048    4.3615328    4.3615328    4.3615328   -6422.9048   -6090.3441   -4837.4689   -8340.9015   -2554.9448    915.63735    4302.5597    82.969298 
   42500    288.45214   -109.96826   0.26099755   -109.70727   -2702.1954    4.3599919    4.3599919    4.3599919   -2702.1954   -17961.049     3106.154    6748.3094    115.87013    -4110.023    749.41115    82.881396 
   42600    514.00964   -110.17134   0.46508673   -109.70625   -2300.3429    4.3594398    4.3594398    4.3594398   -2300.3429   -9204.6479   -2947.0148     5250.634   -462.25892   -5629.2906    342.71781    82.849912 
   42700    453.58712   -110.11564   0.41041516   -109.70522    3434.1417    4.3618766    4.3618766    4.3618766    3434.1417   -5854.2159    685.60944    15471.032    946.45689    3407.8769   -3153.3221    82.988925 
   42800    303.69612   -109.98216   0.27479063   -109.70737   -5002.0643    4.3599675    4.3599675    4.3599675   -5002.0643   -17971.465   -4493.7785     7459.051   -226.24939   -3830.5446    511.19357    82.880002 
   42900    390.45108   -110.05939   0.35328835    -109.7061     4236.429    4.3571365    4.3571365    4.3571365     4236.429   -4326.5509    6440.4158    10595.422   -194.40969   -3466.7024   -4375.5534    82.718661 
   43000    419.15335   -110.08386   0.37925876    -109.7046   -4350.4374    4.3652386    4.3652386    4.3652386   -4350.4374   -10905.242   -4575.1121    2429.0416    3757.2662    5854.1265   -1563.4298    83.180964 
   43100    267.59752   -109.94849   0.24212786   -109.70636   -968.47053    4.3542143    4.3542143    4.3542143   -968.47053   -6714.9977    3263.3888    546.19731    1761.9545   -6173.0217    3534.3059    82.552343 
   43200     382.5112   -110.05267   0.34610417   -109.70656   -1690.2963    4.3621613    4.3621613    4.3621613   -1690.2963   -8279.6578    2426.0841    782.68496    1590.8697   -4810.8343   -3020.2685    83.005175 
   43300    473.83967   -110.13441   0.42874009   -109.70567   -2006.0594    4.3597999    4.3597999    4.3597999   -2006.0594    1592.1854   -4848.0808   -2762.2827     2837.249    2969.3003     3451.399    82.870448 
   43400    225.14027    -109.9127   0.20371165   -109.70899    2006.7039      4.35918      4.35918      4.35918    2006.7039   -2408.7279   -2540.6186    10969.458    3285.1994   -9038.8445    1334.4665      82.8351 
   43500     532.3573   -110.18743   0.48168807   -109.70574   -969.88861      4.36002      4.36002      4.36002   -969.88861   -1930.7138   -2331.9904    1353.0383    201.52252   -8774.8787    2961.5112    82.882997 
   43600    346.77594   -110.02119   0.31377016   -109.70742   -945.74272    4.3626616    4.3626616    4.3626616   -945.74272   -1548.2995   -15243.077    13954.148    1357.6996    3482.8668   -2267.0525    83.033734 
   43700    332.18116   -110.00845   0.30056449   -109.70789    765.73775    4.3524511    4.3524511    4.3524511    765.73775    -5837.294    5389.4674    2745.0398    2090.7996   -7528.5283    2212.2144    82.452097 
   43800      454.663   -110.11686   0.41138864   -109.70547   -7437.5944    4.3679343    4.3679343    4.3679343   -7437.5944   -18570.024   -12684.078    8941.3189   -2818.1015   -1668.8161   -601.44953    83.335164 
   43900    404.20078   -110.07101   0.36572936   -109.70528   -3854.8914    4.3572468    4.3572468    4.3572468   -3854.8914   -7474.3241   -6731.4298    2641.0798    3984.6324    2923.5535   -2723.0306    82.724942 
   44000    286.24758   -109.96702   0.25900283   -109.70802   -367.77259     4.357643     4.357643     4.357643   -367.77259   -15229.508   -1288.3997     15414.59   -1219.5529   -1698.9745    2688.1788     82.74751 
   44100    576.97563   -110.22727   0.52205967   -109.70521   -7333.1324    4.3634215    4.3634215    4.3634215   -7333.1324   -14560.583   -10806.187    3367.3727   -1778.6206   -740.45721   -4495.8408    83.077135 
   44200    362.35748   -110.03498   0.32786866   -109.70711   -531.77939    4.3569167    4.3569167    4.3569167   -531.77939   -11210.738   -7735.1731    17350.573    5405.5148     5436.043    313.93416    82.706143 
   44300    393.77882   -110.06367   0.35629935   -109.70737    -2516.496    4.3590351    4.3590351    4.3590351    -2516.496   -14039.599   -4732.5468    11222.657   -3155.7105   -26.578834    2552.3701    82.826839 
   44400     586.8742    -110.2353   0.53101611   -109.70429   -5042.5529    4.3623271    4.3623271    4.3623271   -5042.5529   -11382.243   -9818.9596    6073.5434    1367.2917   -4194.4987    2336.1923    83.014636 
   44500    317.45743   -109.99445   0.28724215   -109.70721   -3679.8805    4.3586942    4.3586942    4.3586942   -3679.8805   -13949.432   -6062.4831    8972.2733    5106.8037    5495.4812   -1297.5245    82.807412 
   44600    426.58363   -110.09313   0.38598183   -109.70715   -5556.6435    4.3578947    4.3578947    4.3578947   -5556.6435   -5601.1298    -5608.696   -5460.1046   -1212.3892   -5825.5752    2886.7928    82.761851 
   44700    411.13448   -110.07732   0.37200311   -109.70532   -5357.9808    4.3643027    4.3643027    4.3643027   -5357.9808   -17892.874   -3845.4211    5664.3523    3519.3994     -906.372    90.693949    83.127477 
   44800    279.14698   -109.95922   0.25257805   -109.70665   -2931.7769    4.3537802    4.3537802    4.3537802   -2931.7769   -10402.177   -3392.9264    4999.7727    4320.0267    7104.0256   -5022.2584    82.527652 
   44900    310.83842   -109.98954   0.28125314   -109.70829   -3297.5541    4.3654092    4.3654092    4.3654092   -3297.5541   -11981.792   -6987.5259    9076.6555    254.19494   -3641.9906    758.62992    83.190718 
   45000    484.51422   -110.14345   0.43839865   -109.70505    270.67473    4.3594684    4.3594684    4.3594684    270.67473   -2850.5499   -3122.1017    6784.6758    4829.6711    6557.5322   -5291.2429    82.851545 
   45100    209.70212   -109.89792   0.18974289   -109.70818    567.61326     4.357189     4.357189     4.357189    567.61326   -293.07431   -9350.8547    11346.769    4875.6547    5326.2148   -1729.1579    82.721652 
   45200    529.74529   -110.18468   0.47932467   -109.70535   -5247.3566    4.3627167    4.3627167    4.3627167   -5247.3566   -611.21661   -5673.8092   -9457.0441    14.803934   -4058.6449   -84.469814     83.03688 
   45300    383.30807    -110.0527   0.34682519   -109.70588    3259.5636     4.359714     4.359714     4.359714    3259.5636   -82.965679   -6633.7135     16495.37    6211.7404    2182.9674   -250.14298    82.865544 
   45400    330.90879   -110.00677   0.29941323   -109.70736   -2283.1728    4.3539163    4.3539163    4.3539163   -2283.1728   -2052.2557   -4181.0578   -616.20484    4565.1526    7072.0615    -2809.964    82.535396 
   45500     403.0765   -110.06989   0.36471209   -109.70517   -6031.1729    4.3705837    4.3705837    4.3705837   -6031.1729   -12118.299   -11052.934    5077.7137   -599.84538   -3560.4689    4746.4102    83.486897 
   45600    394.99485   -110.06104   0.35739964   -109.70364    8115.8427    4.3499689    4.3499689    4.3499689    8115.8427    6343.6017     2454.232    15549.694    7522.1144   -1159.8343    144.47286    82.311109 
   45700    244.58316   -109.92856   0.22130399   -109.70726   -6517.1476    4.3625398    4.3625398    4.3625398   -6517.1476   -15568.733   -9345.1116     5362.402    1437.8825    4036.8678   -174.53031    83.026783 
   45800    480.09766   -110.13858   0.43440245   -109.70417   -1883.9672    4.3629327    4.3629327    4.3629327   -1883.9672    -10987.75   -4771.6246    10107.473    131.85755   -2981.6296     5587.581    83.049216 
   45900      470.049   -110.13036   0.42531021   -109.70505    3420.0525    4.3521188    4.3521188    4.3521188    3420.0525    -6478.475   -2815.7749    19554.407    6077.7218    494.65392   -5129.3789    82.433213 
   46000    312.42508   -109.99106   0.28268878   -109.70837   -3962.0126    4.3631011    4.3631011    4.3631011   -3962.0126   -11051.845   -7927.2055    7093.0129   -208.88208    8039.9134    537.01759    83.058834 
   46100    603.73615   -110.25048   0.54627315   -109.70421   -4680.6822    4.3615815    4.3615815    4.3615815   -4680.6822   -4749.8706   -6505.5488   -2786.6271    666.20215   -248.64041   -1690.7806     82.97208 
   46200    384.34584   -110.05412   0.34776419   -109.70636    7203.5181    4.3514539    4.3514539    4.3514539    7203.5181   -1544.8536   -1883.0387    25038.446    2779.8856    5494.9804   -590.69662    82.395438 
   46300    373.04985   -110.04619   0.33754334   -109.70865   -10596.498    4.3653157    4.3653157    4.3653157   -10596.498    -16622.28   -7484.0922   -7683.1217      610.707    6519.0298   -4540.1356    83.185373 
   46400    395.61302   -110.06543   0.35795897   -109.70747    5332.6169    4.3568855    4.3568855    4.3568855    5332.6169   -2083.2381    1862.6726    16218.416   -486.20719   -2091.8067    2382.5733    82.704367 
   46500    437.50184   -110.10454   0.39586086   -109.70868   -3812.2678    4.3546163    4.3546163    4.3546163   -3812.2678   -14259.846   -4629.1317    7452.1743    4826.0213    3457.0075    324.21672    82.575207 
   46600    184.06097   -109.87706   0.16654223   -109.71052   -1399.1459    4.3657057    4.3657057    4.3657057   -1399.1459   -3012.9051   -56.600503   -1127.9322    1310.0578    3031.8064   -1578.7499    83.207669 
   46700     560.0204   -110.21061   0.50671823   -109.70389    5574.3861    4.3511466    4.3511466    4.3511466    5574.3861    9271.0427    1554.3376    5897.7779   -781.93469   -1817.4957    6979.0766    82.377983 
   46800     367.3589   -110.03932   0.33239405   -109.70692    -2832.301    4.3626908    4.3626908    4.3626908    -2832.301   -12884.557   -3990.2617    8377.9152    6994.1957    3963.0614   -4382.4026    83.035403 
   46900    355.72952   -110.02938   0.32187154   -109.70751    847.14636    4.3584025    4.3584025    4.3584025    847.14636    5215.0841    4291.8262   -6965.4712    433.93958    5787.1102    52.241963    82.790784 
   47000    531.44729   -110.18483   0.48086468   -109.70397    2859.0236    4.3568499    4.3568499    4.3568499    2859.0236    5186.8046   -2400.0332    5790.2993    1346.9161   -2826.4931   -83.002654     82.70234 
   47100    410.97726   -110.07895   0.37186086   -109.70709    951.56568    4.3582311    4.3582311    4.3582311    951.56568   -9313.6759    4847.5908    7320.7822    5033.1436    98.606238   -3790.4391     82.78102 
   47200    265.45257   -109.94839   0.24018706    -109.7082    1988.9433    4.3624523    4.3624523    4.3624523    1988.9433    5525.7553   -800.42227     1241.497     883.9952    10011.429   -3509.6659    83.021785 
   47300    523.58079   -110.17809    0.4737469   -109.70434    6588.3216    4.3514381    4.3514381    4.3514381    6588.3216    135.86819    4738.1424    14890.954    1015.4723   -3301.0278   -1699.7529    82.394542 
   47400    316.67854     -109.995    0.2865374   -109.70847   -3767.0566     4.364037     4.364037     4.364037   -3767.0566   -15500.217    2662.6029    1536.4443    4133.9793    476.73783    238.05111    83.112297 
   47500    333.37532   -110.01008   0.30164499   -109.70843      3317.05    4.3561113    4.3561113    4.3561113      3317.05    3342.0872    2652.1771    3956.8856    4.1080541    7343.3025   -5391.1953    82.660285 
   47600    525.14487    -110.1814   0.47516211   -109.70624    2940.8059     4.356449     4.356449     4.356449    2940.8059   -1631.4973    1553.4912    8900.4237   -1248.5818   -4745.4242    3989.9483    82.679514 
   47700    365.26942   -110.03833   0.33050345   -109.70783    4346.1107    4.3605508    4.3605508    4.3605508    4346.1107    1001.1863    3413.8904    8623.2554     5526.896    101.26669   -94.377658    82.913274 
   47800    421.77974   -110.08831   0.38163517   -109.70668    3409.6808    4.3575277    4.3575277    4.3575277    3409.6808    6058.3497   -4243.2991    8413.9917   -2250.2632    5138.9849   -1260.4989    82.740946 
   47900    481.42661   -110.14099   0.43560491   -109.70538     7009.188    4.3558049    4.3558049    4.3558049     7009.188    1711.6363    3312.6263    16003.301   -95.029728   -461.08494    2537.5192    82.642843 
   48000    388.96784   -110.05902   0.35194628   -109.70708    119.86826    4.3615727    4.3615727    4.3615727    119.86826   -988.89582   -1032.7957    2381.2963    5429.5735   -950.35564   -441.07417    82.971577 
   48100    364.00312   -110.03589   0.32935767   -109.70653    5303.7469    4.3557492    4.3557492    4.3557492    5303.7469    696.40216   -3064.9211    18279.759   -1511.6022    5901.7591   -2120.5434    82.639676 
   48200    441.42567   -110.10586   0.39941122   -109.70645    2044.4264    4.3565447    4.3565447    4.3565447    2044.4264    1148.0057    3857.7277    1127.5459    3704.7208   -1120.8496   -2489.7594    82.684962 
   48300    278.84105    -109.9598   0.25230124    -109.7075    1542.6207    4.3623462    4.3623462    4.3623462    1542.6207   -2334.9282   -5874.0734    12836.864    4093.7649   -2669.7867    679.86595     83.01573 
   48400    479.20003   -110.13863   0.43359026   -109.70504   -1457.8469    4.3546411    4.3546411    4.3546411   -1457.8469   -4407.7455   -1250.3889    1284.5937    301.84406    6418.5106   -7338.5061    82.576622 
   48500     353.5527   -110.02699   0.31990191   -109.70709    1570.6395    4.3583157    4.3583157    4.3583157    1570.6395   -2000.4539   -1522.4802    8234.8527    3898.6971   -5402.6823    1773.9172    82.785841 
   48600     413.7952   -110.08206   0.37441059   -109.70765   -3643.3652     4.361236     4.361236     4.361236   -3643.3652   -2648.2519   -6157.0503   -2124.7934    4534.7641    386.44852   -1263.7321    82.952363 
   48700    466.43603   -110.12797   0.42204112   -109.70593    4364.2885    4.3540347    4.3540347    4.3540347    4364.2885    3638.4648   -4631.8294     14086.23    1454.7998    6028.2986   -2074.9092    82.542125 
   48800     421.2662   -110.08878   0.38117051   -109.70761   -3224.3644    4.3600907    4.3600907    4.3600907   -3224.3644    175.88853    -1407.133   -8441.8486    428.37139   -5506.6167    1580.2549    82.887027 
   48900     356.8392   -110.03025   0.32287561   -109.70737   -4657.6931    4.3609388    4.3609388    4.3609388   -4657.6931   -8366.0694   -10990.413     5383.403    7051.1369   -2451.2078    2004.5361    82.935404 
   49000    465.32889   -110.12654   0.42103936    -109.7055     3106.347    4.3527474    4.3527474    4.3527474     3106.347   -3613.5714    8756.3866    4176.2258   -292.55954    5676.3214   -361.59843    82.468935 
   49100     329.4525    -110.0059   0.29809554    -109.7078   -6062.5106    4.3632963    4.3632963    4.3632963   -6062.5106   -12135.564   -7385.2691    1333.3013    -6.274327     479.0854   -2712.5494    83.069982 
   49200    287.27484   -109.96777   0.25993231   -109.70783    2518.3128    4.3568843    4.3568843    4.3568843    2518.3128   -7154.4552    2888.8167    11820.577    6216.3802   -7984.9362    3371.2729    82.704296 
   49300    536.31196   -110.19065   0.48526633   -109.70538    2253.5277    4.3538059    4.3538059    4.3538059    2253.5277   -1571.4918    1343.0309    6989.0441    -4098.518    5793.0883   -9135.8973    82.529116 
   49400     265.0955   -109.94842   0.23986398   -109.70856    1839.2594    4.3640638    4.3640638    4.3640638    1839.2594   -7200.3866   -1798.0717    14516.236    2731.2172   -3054.9266    497.61011    83.113827 
   49500    470.32901   -110.13248   0.42556358   -109.70692   -5329.0652    4.3562637    4.3562637    4.3562637   -5329.0652   -15926.072   -4933.7362    4872.6124    3688.0382   -8762.3789   -1082.2769     82.66896 
   49600    426.49051   -110.09215   0.38589757   -109.70625     15534.18     4.353152     4.353152     4.353152     15534.18    9969.8328    9886.7499    26745.956   -2490.0975    3320.8059   -5798.8529    82.491936 
   49700    461.98945   -110.12499   0.41801776   -109.70697   -11549.036    4.3672935    4.3672935    4.3672935   -11549.036   -15485.509   -16826.997   -2334.6022    3468.0167   -3551.7595    2580.5332    83.298491 
   49800    296.74359   -109.97481   0.26849984   -109.70631    10894.522    4.3487387    4.3487387    4.3487387    10894.522   -814.23456    13095.211    20402.589    1862.2008   -4934.6925    22.314288    82.241295 
   49900     539.1562   -110.19336   0.48783986   -109.70552   -5932.3363    4.3628063    4.3628063    4.3628063   -5932.3363   -5344.3903   -10024.126   -2428.4928    1391.8961    66.641903   -187.31751    83.041999 
   50000    276.50683   -109.95776   0.25018919   -109.70757    1169.7558     4.358737     4.358737     4.358737    1169.7558    -13439.63    1532.7869    15416.111    1704.7081   -3097.6104   -1752.2784    82.809847 
   50100    395.62437   -110.06477   0.35796925    -109.7068   -6974.7644    4.3562455    4.3562455    4.3562455   -6974.7644   -19396.798   -4922.0694    3394.5738    3227.2414   -5982.9122    4817.8154    82.667923 
   50200    391.58498   -110.05982   0.35431432   -109.70551    3266.2339     4.360213     4.360213     4.360213    3266.2339     2391.818     64.18206    7342.7016   -787.62525   -1146.4281   -5927.4064    82.894002 
   50300     432.7521   -110.09813   0.39156319   -109.70657   -10598.542     4.359759     4.359759     4.359759   -10598.542   -10773.468   -15474.225   -5547.9323    2104.4029   -3619.0331   -1771.2393    82.868115 
   50400    325.69376   -110.00221   0.29469456   -109.70752     2839.894    4.3528871    4.3528871    4.3528871     2839.894   -6020.9253    8478.4705    6062.1369    1799.2346   -8852.7016    2744.6531    82.476879 
   50500    553.42169    -110.2067   0.50074757   -109.70595   -11183.754    4.3653016    4.3653016    4.3653016   -11183.754   -6312.3554   -14846.556    -12392.35   -2755.6966    2250.8414   -11200.021    83.184565 
   50600    342.78251   -110.01731   0.31015682   -109.70715    865.54732    4.3540467    4.3540467    4.3540467    865.54732   -1486.4138   -64.267333     4147.323    1825.7232   -3432.7171    1252.1615    82.542811 
   50700    400.20405   -110.06838   0.36211303   -109.70627    -8514.144    4.3596312    4.3596312    4.3596312    -8514.144   -15883.796   -1762.0028   -7896.6336   -910.82599   -13179.034   -746.68007    82.860825 
   50800    413.91342   -110.07911   0.37451756   -109.70459   -3645.4585    4.3614799    4.3614799    4.3614799   -3645.4585    1564.8395   -3032.5994   -9468.6157   -223.90221    4723.5839   -5539.7494     82.96628 
   50900    312.65715    -109.9893   0.28289876    -109.7064     357.8892    4.3544042    4.3544042    4.3544042     357.8892   -6420.6037    1855.6991    5638.5722   -402.87742   -4640.5399    890.18772    82.563144 
   51000    358.13386   -110.03083   0.32404704   -109.70678   -2570.2069     4.358991     4.358991     4.358991   -2570.2069   -18138.367    9724.2319    703.51484    484.83392   -8672.3903    2626.9634    82.824328 
   51100    399.63283   -110.06791   0.36159618   -109.70631   -4661.0445    4.3626751    4.3626751    4.3626751   -4661.0445    -11006.35   -7368.4779     4391.694   -539.28261    4702.9269   -3766.8796    83.034508 
   51200    324.01635   -110.00013    0.2931768   -109.70696    3856.6414    4.3539169    4.3539169    4.3539169    3856.6414   -1000.2931    3121.6296    9448.5878   -539.30581   -5082.0865   -1287.3432    82.535427 
   51300    455.10253   -110.11734   0.41178633   -109.70556   -1079.2564    4.3609907    4.3609907    4.3609907   -1079.2564   -11664.799   -1498.5364    9925.5661    4988.4955   -3961.5372    2642.8066    82.938367 
   51400    467.36368   -110.12788   0.42288048     -109.705   -3996.2985    4.3610783    4.3610783    4.3610783   -3996.2985   -1320.4116   -7261.4147   -3407.0692   -2855.8938    2334.9667   -9034.5601    82.943367 
   51500    361.74764   -110.03377   0.32731686   -109.70646     5291.096    4.3530311    4.3530311    4.3530311     5291.096   -1510.6329   -45.219606    17429.141    2558.4218   -1245.0192   -735.25043    82.485065 
   51600    521.86234   -110.17699   0.47219201    -109.7048   -8929.7821    4.3636437    4.3636437    4.3636437   -8929.7821   -15537.455   -6665.7174   -4586.1742    2576.1895   -2904.0288   -249.11355    83.089826 
   51700    380.78422   -110.04991   0.34454156   -109.70537    -156.8365    4.3574648    4.3574648    4.3574648    -156.8365   -3159.0869   -8569.9808    11258.558   -1272.1288    4474.8058    -8587.301    82.737361 
   51800    352.90834   -110.02564   0.31931888   -109.70632   -6002.7099    4.3604675    4.3604675    4.3604675   -6002.7099   -4864.0586   -9216.5153   -3927.5559    3265.3649    694.11665   -981.76366    82.908519 
   51900    415.05621   -110.08034   0.37555158   -109.70479    4730.1919    4.3567017    4.3567017    4.3567017    4730.1919   -2646.1768   -1891.1139    18727.867   -2318.1529   -4345.2925    2363.4413    82.693901 
   52000    375.67956   -110.04648   0.33992276   -109.70656   -11740.711    4.3634439    4.3634439    4.3634439   -11740.711   -12625.833   -13654.269   -8942.0305     508.7932    7316.5029   -6356.4278    83.078415 
   52100    355.67396    -110.0295   0.32182127   -109.70768    2916.9741    4.3514643    4.3514643    4.3514643    2916.9741   -646.36192    833.21804    8564.0662   -115.04916   -3724.9044    2054.1331    82.396028 
   52200    501.58509   -110.15913   0.45384473   -109.70528   -8460.5137    4.3671926    4.3671926    4.3671926   -8460.5137   -4768.2598   -12220.823   -8392.4582    1242.2915   -3059.0478     5875.845    83.292719 
   52300    419.15139   -110.08458   0.37925699   -109.70532    2904.7771    4.3517305    4.3517305    4.3517305    2904.7771     5261.448    2645.7716    807.11165   -592.12185    13530.879   -5931.9665    82.411152 
   52400    405.50189   -110.07438   0.36690663   -109.70748   -7517.9741    4.3632929    4.3632929    4.3632929   -7517.9741     309.8582   -7159.5267   -15704.254    1728.9608   -4939.3977    1331.2196    83.069786 
   52500     466.6601   -110.12711   0.42224387   -109.70487    3168.5392    4.3577653    4.3577653    4.3577653    3168.5392    2543.0362    562.23492    6400.3465    4809.7175    1260.4155    689.96855    82.754478 
   52600    322.74689   -109.99806   0.29202816   -109.70604   -635.63348     4.355818     4.355818     4.355818   -635.63348   -3509.8722     4444.531   -2841.5593   -2896.5973    8813.6744   -8062.4522    82.643588 
   52700    323.17411   -109.99934   0.29241473   -109.70693   -3471.7625     4.363208     4.363208     4.363208   -3471.7625   -9078.3675   -4738.9469     3402.027    3499.3938    -855.3312   -1884.2641    83.064937 
   52800    320.39022   -109.99587   0.28989581   -109.70598    10579.974    4.3576982    4.3576982    4.3576982    10579.974     13069.45    663.41439    18007.058    3483.7483    2548.6844   -2708.4271    82.750659 
   52900    359.69271    -110.0331   0.32545752   -109.70764    2211.0562    4.3558822    4.3558822    4.3558822    2211.0562    -6044.328    3007.6244    9669.8721   -1624.7994    3568.7837   -7494.2788    82.647247 
   53000    299.05202   -109.97903   0.27058855   -109.70844    808.36128    4.3664184    4.3664184    4.3664184    808.36128    5420.3183     -10057.9    7062.6657    2928.8255    1385.1255   -1446.0276    83.248431 
   53100    529.90322   -110.18356   0.47946757   -109.70409    6175.8237    4.3537426    4.3537426    4.3537426    6175.8237    10004.699     5415.176    3107.5961     1104.505   -2953.3179    2364.3674    82.525517 
   53200    402.45339   -110.07035   0.36414829    -109.7062    3278.0904    4.3587335    4.3587335    4.3587335    3278.0904    4717.1729   -1331.1732    6448.2714   -54.333098    2852.1802   -6123.9115    82.809652 
   53300    444.88653    -110.1078   0.40254269   -109.70526   -4127.8293    4.3669711    4.3669711    4.3669711   -4127.8293    7677.4645   -14760.348    -5300.604    951.89072    -1465.496    3401.7142    83.280046 
   53400     513.5316   -110.16746   0.46465418    -109.7028    8451.2783    4.3522041    4.3522041    4.3522041    8451.2783    6215.7412    4749.5626    14388.531     259.2414   -2159.4471    4767.6204    82.438062 
   53500    360.73409   -110.03173   0.32639979   -109.70533   -5911.4522    4.3651315    4.3651315    4.3651315   -5911.4522   -4066.8968   -15228.302    1560.8423   -5500.5925    6901.6162   -3614.3565    83.174841 
   53600    356.66174   -110.02718   0.32271504   -109.70447   -464.07624    4.3607327    4.3607327    4.3607327   -464.07624    2369.4527   -10470.857    6709.1753    274.52611   -2116.1406    5239.2136    82.923648 
   53700    436.21504   -110.09928   0.39469654   -109.70458    4369.3905    4.3556929    4.3556929    4.3556929    4369.3905    7160.7126   -6046.0501    11993.509   -1546.9426    5247.1833    527.02348    82.636467 
   53800    280.58705    -109.9622   0.25388106   -109.70832    -829.3617    4.3651555    4.3651555    4.3651555    -829.3617    12967.015   -19121.736     3666.635   -4875.3132    6608.5105   -3834.8199    83.176215 
   53900    440.19214   -110.10551   0.39829509   -109.70721   -3302.1905    4.3587634    4.3587634    4.3587634   -3302.1905    5504.4641   -16938.889    1527.8529    5283.6063    -670.7641    638.35954    82.811355 
   54000    457.54541   -110.12042   0.41399671   -109.70642    6896.8565    4.3564524    4.3564524    4.3564524    6896.8565    20019.886   -7656.3265    8327.0105    2990.1528    2137.6554   -793.94458    82.679704 
   54100    453.93126   -110.11629   0.41072655   -109.70556   -14699.856    4.3708056    4.3708056    4.3708056   -14699.856   -1617.2458   -26508.276   -15974.045   -1062.0325    5215.8913   -5960.6066    83.499613 
   54200    480.06062   -110.13693   0.43436894   -109.70256    6305.7578    4.3492614    4.3492614    4.3492614    6305.7578    15857.919   -3438.7923    6498.1469    5757.9081   -2639.4544   -888.23882    82.270953 
   54300    533.18471    -110.1868   0.48243673   -109.70437     -10091.1     4.367793     4.367793     4.367793     -10091.1   -3121.5792   -12880.663   -14271.057    2867.1413   -2872.1984   -670.13581    83.327075 
   54400    349.41321   -110.02245   0.31615641   -109.70629   -3220.4867    4.3604605    4.3604605    4.3604605   -3220.4867    9283.2352   -10247.865   -8696.8298   -2448.0556    3405.1251   -7378.4884    82.908118 
   54500    404.05872   -110.06996   0.36560082   -109.70436    431.78575    4.3562462    4.3562462    4.3562462    431.78575    9764.1592   -495.79038   -7973.0116    711.96406   -2013.4609    2385.0284    82.667967 
   54600    398.00129   -110.06439   0.36011993   -109.70427   -5904.7404    4.3678158    4.3678158    4.3678158   -5904.7404    3139.5857   -11149.907   -9703.8999   -2104.2071     4725.806   -625.31431    83.328382 
   54700    277.35424   -109.95777   0.25095594   -109.70681    4583.8618    4.3549551    4.3549551    4.3549551    4583.8618    12499.396    1902.8927   -650.70308   -6235.6532    6811.7632   -3112.3571    82.594484 
   54800    381.07844   -110.05196   0.34480778   -109.70715    3304.3152    4.3611661    4.3611661    4.3611661    3304.3152    5481.5147   -1014.2427    5445.6736   -190.21759    2171.1578     6436.511    82.948374 
   54900    441.76809   -110.10599   0.39972105   -109.70627   -1183.6169    4.3645617    4.3645617    4.3645617   -1183.6169    -9568.281   -5734.1671    11751.597   -3749.2409     5068.791     2675.559    83.142277 
   55000    256.88559   -109.94007   0.23243548   -109.70763    7383.8713    4.3546437    4.3546437    4.3546437    7383.8713   -2006.3121    11818.042    12339.884   -2902.9212    6905.3276     3047.649     82.57677 
   55100    460.97221   -110.12275   0.41709734   -109.70565   -1262.8258    4.3645627    4.3645627    4.3645627   -1262.8258   -6317.0718    -10225.01    12753.604    2865.9478   -5070.3874    5924.9535    83.142333 
   55200    432.64278   -110.09713   0.39146428   -109.70567   -1475.7583    4.3605198    4.3605198    4.3605198   -1475.7583   -7473.9705    981.76334    2064.9322    1718.9858    1172.1693    2064.5359    82.911502 
   55300    254.56575   -109.93914   0.23033644    -109.7088   -345.78291    4.3549337    4.3549337    4.3549337   -345.78291   -2675.3065    4113.7567   -2475.7989   -1375.0675    6136.4439   -64.897701    82.593267 
   55400    459.95789   -110.12161   0.41617957   -109.70543   -8769.1735    4.3674453    4.3674453    4.3674453   -8769.1735   -2466.5064   -12892.967   -10948.047    4056.2986   -3851.7458    1613.7565    83.307176 
   55500    395.86987   -110.06275   0.35819137   -109.70456   -19.880386    4.3576583    4.3576583    4.3576583   -19.880386   -3124.8496    4858.8964    -1793.688    3340.9004    6404.8077   -2893.4723    82.748386 
   55600    301.08894    -109.9791    0.2724316   -109.70667   -3816.7613    4.3579157    4.3579157    4.3579157   -3816.7613   -2345.7488   -6272.9017   -2831.6333   -3255.5013    7872.9361   -3428.2104    82.763046 
   55700    427.74464   -110.09329   0.38703234   -109.70626   -1689.7255    4.3667474    4.3667474    4.3667474   -1689.7255   -1394.1701   -21834.857     18159.85    1939.4149     1622.586   -261.69005    83.267245 
   55800     443.0017   -110.10742   0.40083725   -109.70658    10921.058    4.3504968    4.3504968    4.3504968    10921.058    3519.5494    7758.9146    21484.709    -888.1568    7757.1566   -2382.8905    82.341078 
   55900    344.92216   -110.02264   0.31209282   -109.71054   -5895.6138    4.3661913    4.3661913    4.3661913   -5895.6138   -8972.2397   -24936.344    16221.742   -2838.2304    5217.8031   -1627.6069    83.235442 
   56000    448.62902   -110.11169   0.40592897   -109.70576    1059.5511    4.3606088    4.3606088    4.3606088    1059.5511    6951.4995   -10050.232    6277.3856    1559.6948    2517.5335    2766.7515     82.91658 
   56100    476.37158   -110.13565   0.43103101   -109.70462    2215.8093    4.3522012    4.3522012    4.3522012    2215.8093   -2915.2061    3238.8878    6323.7461   -4657.1065    6789.4893    3164.7324    82.437894 
   56200    355.80412   -110.02704   0.32193905   -109.70511   -17925.053    4.3715667    4.3715667    4.3715667   -17925.053   -17991.315   -26951.149   -8832.6948   -3304.7367   -1546.8057   -1839.4974     83.54324 
   56300    448.84163   -110.10772   0.40612134    -109.7016    2372.3336    4.3532372    4.3532372    4.3532372    2372.3336    11087.639   -5804.6402    1834.0023   -577.91994     1276.201    4948.4547    82.496782 
   56400     428.4551    -110.0911   0.38767518   -109.70342   -2912.4814     4.359781     4.359781     4.359781   -2912.4814    -12597.68   -2619.4376    6479.6734   -3011.4274    1663.4004     74.39214    82.869369 
   56500    328.33874   -110.00368   0.29708779   -109.70659   -6180.9774    4.3657684    4.3657684    4.3657684   -6180.9774   -823.92203   -19481.391    1762.3809   -4836.2615    673.14651   -1196.8199    83.211255 
   56600    469.78008   -110.12981   0.42506689   -109.70474    5584.8194     4.353057     4.353057     4.353057    5584.8194    11721.064   -5750.6148    10784.009   -1109.7587    -912.2549    2554.8083    82.486538 
   56700    449.81765   -110.11324   0.40700446   -109.70624     2327.072    4.3602408    4.3602408    4.3602408     2327.072      4367.82   -4812.4999    7425.8958    1320.8116    6266.1385   -2790.1226    82.895587 
   56800    278.99476   -109.96029   0.25244033   -109.70785   -1446.1804    4.3654688    4.3654688    4.3654688   -1446.1804    22709.811   -24398.402   -2649.9507   -4185.6803    7825.1417   -1722.1611    83.194126 
   56900     499.4089   -110.15466   0.45187567   -109.70278    10078.339    4.3481104    4.3481104    4.3481104    10078.339    21514.194   -740.48292    9461.3043    1569.6229   -2763.3832   -1643.3511    82.205654 
   57000    367.16662   -110.03787   0.33222008   -109.70565   -5481.1593    4.3684565    4.3684565    4.3684565   -5481.1593    10658.941   -17097.659    -10004.76    887.30821    7226.9028   -966.38823    83.365058 
   57100    274.86927   -109.95733   0.24870749   -109.70862    327.91918    4.3535324    4.3535324    4.3535324    327.91918    10510.931   -5623.0825   -3904.0909   -4903.5556    1547.5748   -5295.9548    82.513563 
   57200    502.97654   -110.16207   0.45510375   -109.70697   -3243.6687    4.3569608    4.3569608    4.3569608   -3243.6687    3964.7886   -11078.593   -2617.2012    5185.1866   -447.50251    945.05992    82.708657 
   57300    375.03943   -110.04564   0.33934356   -109.70629   -3706.7202    4.3662703    4.3662703    4.3662703   -3706.7202     8914.312   -10415.512   -9618.9604   -162.56515     3141.684   -99.822834    83.239958 
   57400    372.79402   -110.04402   0.33731186   -109.70671    1274.5903    4.3490311    4.3490311    4.3490311    1274.5903    9993.5295   -7307.9691    1138.2105   -2690.9431   -2045.4618   -5973.3795    82.257883 
   57500     483.5133   -110.14462   0.43749299   -109.70713   -4713.2982    4.3635701    4.3635701    4.3635701   -4713.2982    8693.7247   -14470.652   -8362.9669    1586.0398    261.24205    2727.9903     83.08562 
   57600    353.17745   -110.02723   0.31956238   -109.70767   -1374.7511    4.3612085    4.3612085    4.3612085   -1374.7511    9599.6974   -13916.678    192.72753   -532.25809    3094.4553   -1504.3482    82.950794 
   57700    386.54112   -110.05641   0.34975052   -109.70666    6643.6753    4.3474376    4.3474376    4.3474376    6643.6753    17590.738    1626.7252    713.56287   -2195.3507    1852.0156   -3703.0706    82.167502 
   57800    420.65548   -110.08719   0.38061792   -109.70657   -2152.0565    4.3691209    4.3691209    4.3691209   -2152.0565    11695.624   -20868.382    2716.5885    185.01368   -1495.6714    2190.0082    83.403099 
   57900    390.95919    -110.0605   0.35374809   -109.70675    1262.9189    4.3532758    4.3532758    4.3532758    1262.9189    3341.0877   -2944.5746    3392.2437    1815.3685      6122.63   -865.43107    82.498974 
   58000    352.79198   -110.02638   0.31921359   -109.70717    787.72309    4.3539801    4.3539801    4.3539801    787.72309    7028.0876   -7328.9143     2663.996   -2887.4459      4896.62   -3361.2841    82.539025 
   58100    480.76038    -110.1398   0.43500209    -109.7048   -8509.7425    4.3674046    4.3674046    4.3674046   -8509.7425   -6298.5386   -18759.027   -471.66193    4620.2259   -2341.2182     1286.438    83.304848 
   58200    321.51888    -109.9979   0.29091704   -109.70698    11901.775    4.3470715    4.3470715    4.3470715    11901.775    20871.838     9154.436    5679.0504    3825.4828    2620.1181   -1400.4597    82.146742 
   58300    422.84391   -110.09121   0.38259806   -109.70861   -10186.616    4.3654797    4.3654797    4.3654797   -10186.616   -1859.5593   -19876.678    -8823.612   -3253.7403    3851.2813   -5481.2149    83.194751 
   58400    407.36934   -110.07513   0.36859634   -109.70653    1530.8045    4.3581221    4.3581221    4.3581221    1530.8045    7837.9598   -4499.8213    1254.2751    5079.8891   -3307.9263    2308.4111    82.774808 
   58500    412.19443   -110.07987   0.37296218   -109.70691    500.84928    4.3507075    4.3507075    4.3507075    500.84928    2933.3171   -3928.3635    2497.5943    6203.8202    4019.5016   -1183.8512    82.353044 
   58600       334.67   -110.00995   0.30281645   -109.70713   -6449.8964    4.3668668    4.3668668    4.3668668   -6449.8964     12504.83   -20939.746   -10914.774   -3080.4397    3200.5641   -5535.6989    83.274079 
   58700    501.58187   -110.15813   0.45384182   -109.70428     2045.133    4.3531907    4.3531907    4.3531907     2045.133    9694.9416   -6708.5609    3149.0182    3199.7817   -2538.4096     1875.453    82.494137 
   58800     315.2581   -109.99301   0.28525216   -109.70775    6087.3284     4.356449     4.356449     4.356449    6087.3284    14958.078   -3848.6973    7152.6045    4824.8419    3761.0805    -1052.141    82.679512 
   58900    357.74677   -110.03149   0.32369679   -109.70779   -2606.7709    4.3633707    4.3633707    4.3633707   -2606.7709    19859.224   -15044.768   -12634.769   -1885.2166   -1709.4788   -4813.5829    83.074234 
   59000    495.42071   -110.15252   0.44826707   -109.70425    5002.1963    4.3511514    4.3511514    4.3511514    5002.1963    8628.1862   -2583.1883     8961.591    3874.9871    770.78619    1684.4411    82.378255 
   59100    290.09916   -109.97042   0.26248781   -109.70794    3204.0695    4.3619451    4.3619451    4.3619451    3204.0695    27679.206     -11714.9   -6352.0978    2795.9685    905.38799   -307.44877    82.992831 
   59200     453.9734   -110.11953   0.41076468   -109.70876   -4761.5855    4.3563106    4.3563106    4.3563106   -4761.5855    4034.5512   -6869.1467   -11450.161    3148.5358    4609.5329   -4367.1207    82.671634 
   59300     463.7059   -110.12751   0.41957084   -109.70794    2157.8229    4.3569749    4.3569749    4.3569749    2157.8229    13446.356    -8428.334    1455.4464    350.55838   -1614.8549    3320.7493    82.709455 
   59400    380.43074   -110.05151   0.34422173   -109.70729   -7930.6176      4.36395      4.36395      4.36395   -7930.6176   -501.46956   -13530.528   -9759.8554    2231.3159    2387.2666   -2208.3032    83.107323 
   59500    361.61335   -110.03344   0.32719536   -109.70624    4886.3703    4.3498922    4.3498922    4.3498922    4886.3703    19659.733    3830.7936   -8831.4157   -755.06483    8724.1521   -5752.2859    82.306757 
   59600    464.31464   -110.12466   0.42012165   -109.70454   -7019.7455    4.3653855    4.3653855    4.3653855   -7019.7455    6644.7267   -20544.266   -7159.6973   -277.27302   -6851.9852    3511.1061    83.189364 
   59700    356.11931   -110.02882   0.32222423    -109.7066   -1624.0703    4.3552628    4.3552628    4.3552628   -1624.0703    10084.517   -9480.9902   -5475.7376    5111.1432    4892.5294   -4811.5456    82.611991 
   59800    322.20017   -110.00035   0.29153348   -109.70882   -47.004403    4.3564845    4.3564845    4.3564845   -47.004403    3386.1888   -579.60684   -2947.5952   -5705.6484    -964.5925   -5444.7882     82.68153 
   59900    513.13263   -110.16969   0.46429319   -109.70539   -5277.4982    4.3639036    4.3639036    4.3639036   -5277.4982   -5941.2198   -14702.368     4811.093    4705.0509   -3103.4161    1227.6417    83.104676 
   60000    348.59019   -110.02278   0.31541173   -109.70736   -745.54721    4.3549556    4.3549556    4.3549556   -745.54721   -2249.4451   -1291.8763    1304.6798    3971.4003    1432.5206   -3811.3558    82.594512 
   60100    351.65214   -110.02718   0.31818225     -109.709    946.83781    4.3563695    4.3563695    4.3563695    946.83781   -1324.9177    1017.0069    3148.4243   -3446.9523    2671.7662   -5083.9871    82.674986 
   60200    451.75142   -110.11681   0.40875418   -109.70806    -6925.996     4.365525     4.365525     4.365525    -6925.996   -978.76909   -19009.152   -790.06666    3913.8532    3302.6659    -1854.715    83.197338 
   60300    334.38432   -110.01143   0.30255796   -109.70887     7844.121    4.3479652    4.3479652    4.3479652     7844.121    15869.128    1809.1021    5854.1323    1713.4621   -895.49386   -2063.8483    82.197417 
   60400    278.57932   -109.96066   0.25206443   -109.70859   -5949.7705    4.3698913    4.3698913    4.3698913   -5949.7705     17064.61   -17306.511   -17607.411    1888.3172    7172.3505   -5059.7188    83.447225 
   60500    501.90312    -110.1582   0.45413249   -109.70406    3056.1597    4.3532757    4.3532757    4.3532757    3056.1597    14657.138   -6077.4105    588.75143   -92.714493   -4635.2593    381.62462    82.498971 
   60600    348.04595   -110.02148   0.31491929   -109.70656    2.3287518    4.3563477    4.3563477    4.3563477    2.3287518    15016.351   -6443.5368   -8565.8283       1348.5   -1955.5889   -2339.3031    82.673744 
   60700    456.59867   -110.11922   0.41314007   -109.70608   -11102.961    4.3662622    4.3662622    4.3662622   -11102.961    -2194.763   -13718.542   -17395.577   -1648.8646    2295.3024   -3136.1529    83.239492 
   60800    500.13554   -110.15728   0.45253315   -109.70474    5017.9805    4.3528253    4.3528253    4.3528253    5017.9805    10180.016   -8080.9167    12954.842   -5760.3536   -1620.1488    4568.3579    82.473366 
   60900    453.07459    -110.1167   0.40995141   -109.70675   -1697.8583    4.3600585    4.3600585    4.3600585   -1697.8583    9261.9103   -7593.0369   -6762.4483    484.71492   -154.59817   -4458.7402    82.885194 
   61000    319.59001   -109.99719   0.28917175   -109.70802   -262.19195    4.3640093    4.3640093    4.3640093   -262.19195    13079.312    -13564.03   -301.85758   -3636.0927    6151.0435   -2125.7782     83.11071 
   61100    432.38477   -110.09749   0.39123083   -109.70626    9810.7402    4.3490356    4.3490356    4.3490356    9810.7402    17978.933   -5495.3576    16948.645   -828.96273    5566.4774    3771.8539     82.25814 
   61200    359.90817   -110.03491   0.32565248   -109.70926   -4847.9597    4.3659029    4.3659029    4.3659029   -4847.9597    8456.3961   -17858.122   -5142.1533    3335.1177    2764.3894   -1584.1765    83.218949 
   61300    263.70751   -109.94752    0.2386081   -109.70891    496.70332    4.3574122    4.3574122    4.3574122    496.70332    2096.6628   -12143.424    11536.871   -4223.5886    3944.1881   -2949.7591    82.734363 
   61400    457.03696   -110.12008   0.41353664   -109.70654    274.09754    4.3527354    4.3527354    4.3527354    274.09754    4309.5947    -12921.46    9434.1582    2183.6945   -373.05163    1266.1578    82.468254 
   61500    411.03191   -110.07707   0.37191031   -109.70516   -11771.043     4.369654     4.369654     4.369654   -11771.043   -6073.3646    -22844.48   -6395.2853    3269.8145   -478.39247   -2013.9253     83.43363 
   61600    407.62461   -110.07317   0.36882731   -109.70434   -1641.6309    4.3509306    4.3509306    4.3509306   -1641.6309   -6495.8212    3087.5913   -1516.6628   -8360.5995   -1155.4519   -3583.4637    82.365714 
   61700    456.20493   -110.11821    0.4127838   -109.70542   -2098.2254    4.3611705    4.3611705    4.3611705   -2098.2254    7218.8972   -15340.738    1827.1646    2852.4187   -3229.0577    2661.4828    82.948628 
   61800    540.58821   -110.19402   0.48913557   -109.70488   -6144.4676    4.3627139    4.3627139    4.3627139   -6144.4676   -231.89127   -9450.1607   -8751.3509    1397.1434    937.52474     -4104.28    83.036725 
   61900    304.15858   -109.98222   0.27520907   -109.70701    2448.1066    4.3549805    4.3549805    4.3549805    2448.1066    9707.5109    -2911.257    548.06592     -6066.56    5629.9895    -826.3469    82.595932 
   62000    464.43407   -110.12632   0.42022971   -109.70609   -2706.9202    4.3596016    4.3596016    4.3596016   -2706.9202    3203.8664    -17188.86    5864.2331   -2837.3055      974.697    3329.0078    82.859136 
   62100     383.5458   -110.05328    0.3470403   -109.70624   -6430.5992    4.3634241    4.3634241    4.3634241   -6430.5992   -3383.6947   -12737.818    -3170.285   -855.55404    3037.1211    1579.7227    83.077281 
   62200    273.14671   -109.95434   0.24714889   -109.70719    6161.4776    4.3500238    4.3500238    4.3500238    6161.4776    1808.3647    4892.4088    11783.659   -1334.4421    5749.8066   -1768.7471    82.314227 
   62300    378.03756   -110.04824   0.34205633   -109.70619   -2897.7034    4.3653387    4.3653387    4.3653387   -2897.7034   -5751.4642   -15976.723    13035.077   -5662.5059   -1408.4986    6327.7994    83.186688 
   62400    400.99499   -110.06866    0.3628287   -109.70584    489.09335    4.3548517    4.3548517    4.3548517    489.09335    4451.6417   -1174.5974   -1809.7643    1415.6971    2376.8638    3650.6326    82.588601 
   62500    336.64692   -110.01321   0.30460521   -109.70861   -3283.5317    4.3563824    4.3563824    4.3563824   -3283.5317   -6345.2294   -4010.5013     505.1356    -2438.509     1032.252   -2572.0422    82.675718 
   62600    463.25353   -110.12494   0.41916153   -109.70578   -4156.8496    4.3641552    4.3641552    4.3641552   -4156.8496    306.87448   -1241.4063   -11536.017   -2656.3001   -184.88855    8333.2999    83.119049 
   62700    460.85279   -110.12158   0.41698929   -109.70459    7501.0173    4.3500398    4.3500398    4.3500398    7501.0173    13286.889    7069.9659     2146.197    4685.9146      803.629   -1090.5286    82.315135 
   62800    415.93433   -110.08355   0.37634612    -109.7072   -6304.6789    4.3626047    4.3626047    4.3626047   -6304.6789   -7501.0914    1758.1388   -13171.084   -6470.5344   -549.54904   -1337.0706    83.030486 
   62900     386.4847   -110.05608   0.34969947   -109.70639    3188.8275      4.35757      4.35757      4.35757    3188.8275    11015.551    2369.0605   -3818.1292    2067.4586      2002.28    6463.1787    82.743352 
   63000    484.27613   -110.14361   0.43818322   -109.70542   -770.57556    4.3535333    4.3535333    4.3535333   -770.57556    7024.1754   -5583.9028   -3751.9993    3754.4134    1232.7857    1222.5723    82.513613 
   63100     314.7552   -109.99228   0.28479712   -109.70748   -4998.9631    4.3642059    4.3642059    4.3642059   -4998.9631   -4259.8412   -5268.9416   -5468.1067   -6330.2911      5248.29   -3278.3706    83.121948 
   63200    345.43822   -110.01899   0.31255976   -109.70643    4652.6217    4.3545472    4.3545472    4.3545472    4652.6217    7166.8724    4604.6414    2186.3514    672.62819   -1323.8361    9054.3206    82.571278 
   63300    427.98165   -110.09269   0.38724679   -109.70544    4733.2325    4.3549445    4.3549445    4.3549445    4733.2325    9366.3453   -2609.6084    7442.9606   -2568.4906    1264.6434    6732.2264     82.59388 
   63400    325.26869   -110.00064   0.29430995   -109.70633   -4739.5441    4.3643995    4.3643995    4.3643995   -4739.5441   -7915.6857   -673.79934   -5629.1473   -3170.6729    3310.8195   -2052.0812    83.133009 
   63500    380.73843   -110.05051   0.34450013   -109.70601   -2709.4869    4.3531601    4.3531601    4.3531601   -2709.4869    1761.0203    -6357.852   -3531.6291   -4807.1707   -1751.2308    17026.756    82.492397 
   63600    419.79885   -110.08616   0.37984282   -109.70632     5603.366    4.3568518    4.3568518    4.3568518     5603.366    11093.345    5491.2683    225.48488   -836.50404    1093.6583    6915.4613    82.702445 
   63700    469.31326    -110.1311    0.4246445   -109.70646   -7296.8576    4.3635323    4.3635323    4.3635323   -7296.8576   -12790.264   -1040.6926   -8059.6165    965.08924   -1038.7654   -1466.6458     83.08346 
   63800    321.74787   -109.99827   0.29112424   -109.70715    1904.5916    4.3519399    4.3519399    4.3519399    1904.5916    9200.3276    4455.2192   -7941.7721   -3372.4497    1108.9605    17339.213    82.423047 
   63900    534.30899   -110.18903   0.48345401   -109.70558    -5449.908    4.3614419    4.3614419    4.3614419    -5449.908    1658.4514   -6997.3264   -11010.849    3278.8018   -1573.4729    2056.3772    82.964112 
   64000    412.74199      -110.08   0.37345762   -109.70655   -5852.4498    4.3588913    4.3588913    4.3588913   -5852.4498   -10120.224    2980.8197   -10417.945   -3832.1931   -129.71599   -1781.0856    82.818646 
   64100    349.84298   -110.02427   0.31654528   -109.70773   -4828.6913    4.3536476    4.3536476    4.3536476   -4828.6913    8009.7078   -10067.368   -12428.413    2050.5593    41.046136    14066.802    82.520112 
   64200    450.92339   -110.11342   0.40800496   -109.70542   -965.97244    4.3646229    4.3646229    4.3646229   -965.97244   -2243.0864    7792.1555   -8446.9864    2526.0647   -740.34841   -458.99975    83.145774 
   64300    439.37836   -110.10367   0.39755878   -109.70611    1303.8495    4.3521637    4.3521637    4.3521637    1303.8495   -4048.9739    4752.8375    3207.6848   -5007.6461    3344.4725    594.50178    82.435766 
   64400    230.25746   -109.91831   0.20834179   -109.70997   -4677.3957    4.3582906    4.3582906    4.3582906   -4677.3957    2461.3083   -3778.5684   -12714.927   -1405.4475   -657.75061    17143.052    82.784412 
   64500    446.35547   -110.10909   0.40387181   -109.70522   -2320.7074    4.3644559    4.3644559    4.3644559   -2320.7074   -9409.9474    13315.493   -10867.668   -833.23961    2514.8943    599.74186    83.136231 
   64600    427.76888   -110.09209   0.38705427   -109.70504    7650.2883    4.3486469    4.3486469    4.3486469    7650.2883   -1052.5633    13234.551    10768.877    -3102.379    3006.8856    3623.3398    82.236089 
   64700    228.57888   -109.91664   0.20682298   -109.70981    275.97238    4.3622859    4.3622859    4.3622859    275.97238    2992.8917    11436.532   -13601.506   -3843.7612    534.73972    16730.406    83.012288 
   64800    522.53328   -110.17796   0.47279909   -109.70516    2517.2945    4.3602997    4.3602997    4.3602997    2517.2945   -2191.8792    11856.735   -2112.9724    1239.4272    3289.2848    1624.9026    82.898947 
   64900    473.35959   -110.13381    0.4283057    -109.7055    6129.6448     4.350098     4.350098     4.350098    6129.6448    2968.4553    10964.065    4456.4142   -1878.2319    568.45177     609.6038    82.318441 
   65000      273.055   -109.95615    0.2470659   -109.70908   -8890.6086    4.3669108    4.3669108    4.3669108   -8890.6086     3590.634   -6325.3098    -23937.15    -948.2683   -48.027305    14498.335    83.276595 
   65100    518.40076   -110.17394    0.4690599   -109.70488    6384.0869    4.3528326    4.3528326    4.3528326    6384.0869    8005.8606     13217.66   -2071.2602    919.65622    572.99188   -4747.1961    82.473777 
   65200    438.77008   -110.10342   0.39700839   -109.70641     692.3319    4.3569113    4.3569113    4.3569113     692.3319    -337.7933    10536.731   -8121.9422   -306.35838    1415.3708    522.38102    82.705833 
   65300    195.99157   -109.88676   0.17733729   -109.70942   -3003.8391    4.3623285    4.3623285    4.3623285   -3003.8391    9987.6095   -1710.9438   -17288.183    1127.4689   -1120.3767    16327.471    83.014718 
   65400    502.43038   -110.15986   0.45460957   -109.70525     1516.679    4.3536863    4.3536863    4.3536863     1516.679    2449.4253    6221.7995   -4121.1879   -96.440387   -851.73251   -6364.0771    82.522317 
   65500    381.98069   -110.05248   0.34562415   -109.70685    172.99013    4.3586074    4.3586074    4.3586074    172.99013   -265.20242    11326.705   -10542.532    1327.1895   -550.37176     5999.342    82.802464 
   65600    266.44778   -109.95008   0.24108756   -109.70899   -7010.9215    4.3615162    4.3615162    4.3615162   -7010.9215    7527.4453   -19213.942   -9346.2676   -2385.1195   -2323.3038    14898.728    82.968353 
   65700    524.61469   -110.17937    0.4746824   -109.70469    5597.6233    4.3521766    4.3521766    4.3521766    5597.6233    3042.3722    10607.712     3142.786    902.66392   -431.77293   -5922.4314    82.436496 
   65800    471.25239   -110.13318   0.42639906   -109.70678   -5291.6068    4.3619578    4.3619578    4.3619578   -5291.6068    271.99414   -11838.099   -4308.7161   -2162.5822   -250.25122    5285.9559    82.993555 
   65900    256.84046   -109.94206   0.23239464   -109.70966   -1207.9786    4.3563392    4.3563392    4.3563392   -1207.9786    12237.615   -12091.519   -3770.0316   -3713.3523    535.47476    10997.824    82.673262 
   66000    582.07361   -110.23255   0.52667244   -109.70588   -2417.9973    4.3574895    4.3574895    4.3574895   -2417.9973   -999.06228    747.50004   -7002.4297     3604.905     3140.733   -6243.3939    82.738768 
   66100    379.61347   -110.05062   0.34348224   -109.70714    3807.7775    4.3596364    4.3596364    4.3596364    3807.7775     9052.793    5562.2542   -3191.7146   -683.51555    811.66828    2912.5132    82.861124 
   66200    331.56342   -110.00792   0.30000555   -109.70791   -3552.7967    4.3571701    4.3571701    4.3571701   -3552.7967    7173.6633   -7351.8183   -10480.235   -660.98003    317.58309    12840.725    82.720573 
   66300    446.02227   -110.10907   0.40357032    -109.7055    4032.7848    4.3585793    4.3585793    4.3585793    4032.7848     2689.346    12441.161   -3032.1528   -683.43633    2401.2677   -6673.3577    82.800862 
   66400    430.49757   -110.09584   0.38952325   -109.70631    2338.5757     4.357026     4.357026     4.357026    2338.5757    14387.644   -3922.9392   -3448.9777    1268.9436   -633.61384     6326.042     82.71237 
   66500    263.66194    -109.9476   0.23856686   -109.70903   -5966.6528    4.3600962    4.3600962    4.3600962   -5966.6528    664.73987   -3984.7407   -14579.958   -730.40542   -1605.1552    14330.687    82.887345 
   66600    460.26613   -110.12269   0.41645847   -109.70623    5136.9653    4.3552569    4.3552569    4.3552569    5136.9653    5819.8655    3219.4131    6371.6173   -2511.5949   -3246.0607   -8453.6848    82.611656 
   66700    437.89026   -110.10239   0.39621231   -109.70617   -860.59584    4.3613198    4.3613198    4.3613198   -860.59584    3996.7743   -2394.6047   -4183.9571    1415.6779    1421.1912    8502.0513    82.957148 
   66800    295.74748   -109.97572   0.26759853   -109.70812    1754.1253    4.3548059    4.3548059    4.3548059    1754.1253    9047.4845   -3692.6262   -92.482457   -5387.6852   -2320.6698    10918.134    82.585993 
   66900    485.87782   -110.14579   0.43963246   -109.70615   -54.497912    4.3597097    4.3597097    4.3597097   -54.497912   -316.60501   -1185.4916    1338.6029   -2576.9826   -2633.7572   -9928.5756    82.865304 
   67000    474.55223   -110.13535   0.42938483   -109.70596   -933.97547    4.3574442    4.3574442    4.3574442   -933.97547    4272.5019   -2060.2463    -5014.182     2021.259   -79.501701    7425.4978    82.736189 
   67100    256.85444   -109.94094    0.2324073   -109.70854   -1552.1672    4.3574912    4.3574912    4.3574912   -1552.1672    1828.3446   -613.41898   -5871.4273   -4358.4666   -198.46471    8621.5453    82.738862 
   67200    503.12877   -110.16051   0.45524149   -109.70527   -4086.9196    4.3581246    4.3581246    4.3581246   -4086.9196   -7308.1947   -3423.8752   -1528.6888   -152.08719    2717.9862   -8395.9131    82.774949 
   67300    390.39641   -110.05958   0.35323888   -109.70635   -2343.8895    4.3590328    4.3590328    4.3590328   -2343.8895    4079.5838   -2331.1756   -8780.0766    1879.0213   -2162.9313    7110.8233    82.826708 
   67400    265.29888   -109.94914     0.240048    -109.7091   -3032.2795    4.3552916    4.3552916    4.3552916   -3032.2795    7418.1681   -11035.249   -5479.7578   -3572.8125    1470.3493    11028.759    82.613634 
   67500    463.75919   -110.12593   0.41961906   -109.70631   -9304.1106     4.360944     4.360944     4.360944   -9304.1106   -5568.3972   -11002.805    -11341.13   -1629.0766     308.3386   -8310.1969    82.935705 
   67600    395.93491   -110.06406   0.35825023   -109.70581    -4104.216     4.358512     4.358512     4.358512    -4104.216    4264.0562   -9040.2582   -7536.4458    759.06703   -210.61949    9006.0292    82.797026 
   67700     320.6069   -109.99717   0.29009186   -109.70708   -1643.5047    4.3561066    4.3561066    4.3561066   -1643.5047     5021.423   -5020.8157   -4931.1214   -6555.4556   -1424.3085    10040.267    82.660018 
   67800    483.00686   -110.14297   0.43703476   -109.70593   -476.78735    4.3593566    4.3593566    4.3593566   -476.78735    6350.2264   -4761.6616   -3018.9269   -2244.9762   -4523.8042   -11583.466    82.845169 
   67900    416.43051   -110.08398   0.37679508   -109.70719    3737.3443    4.3571104    4.3571104    4.3571104    3737.3443    4662.2448    6816.6149   -266.82683    1053.7928    3519.8959     7196.547    82.717176 
   68000    337.32693   -110.01351    0.3052205   -109.70829    1046.3938    4.3580887    4.3580887    4.3580887    1046.3938    1517.3003   -2669.3895    4291.2707   -3325.9473   -2486.4715    5526.9005    82.772907 
   68100    461.26177   -110.12265   0.41735934   -109.70529     2038.029    4.3581386    4.3581386    4.3581386     2038.029    2650.7619    5237.4155   -1774.0905   -2152.4743   -1725.5674   -9604.5939    82.775745 
   68200    380.76591   -110.04994   0.34452499   -109.70542    326.29806      4.35949      4.35949      4.35949    326.29806   -6625.0793   -2753.4549    10357.428    1631.9369   -209.49092    8187.9225    82.852777 
   68300     365.4037   -110.03733   0.33062495   -109.70671    408.07153    4.3554803    4.3554803    4.3554803    408.07153     6246.683   -4393.2664   -629.20198   -369.63083      110.962     6318.833    82.624371 
   68400    422.02261   -110.08739   0.38185492   -109.70553    1728.1636     4.361107     4.361107     4.361107    1728.1636    2230.6204    1585.0159    1368.8546   -2986.8879    1914.1173   -4934.6395    82.945001 
   68500    478.91585   -110.13844   0.43333313    -109.7051    -3055.561    4.3567154    4.3567154    4.3567154    -3055.561   -7897.8179   -5838.3584    4569.4932    3522.1153   -1310.5927    7369.3899     82.69468 
   68600    336.72835   -110.01265   0.30467889   -109.70797    2185.1366    4.3580474    4.3580474    4.3580474    2185.1366    3934.9925    2819.0002   -198.58295   -2347.2762    3779.1686    7379.2823    82.770549 
   68700    501.76703   -110.15895   0.45400935   -109.70494    3122.6107    4.3606149    4.3606149    4.3606149    3122.6107    1302.0883    6725.8504    1339.8933   -3895.5817   -658.32451   -6828.2852    82.916931 
   68800    435.30996   -110.09941    0.3938776   -109.70554    5715.8959    4.3551164    4.3551164    4.3551164    5715.8959     2836.308    1967.8986    12343.481    5561.7724   -1504.5949     5638.853    82.603663 
   68900    349.24398   -110.02399   0.31600329   -109.70798    3674.4376    4.3586604    4.3586604    4.3586604    3674.4376    14622.724     429.0379   -4028.4494   -5844.5253   -475.73025    7178.0863    82.805485 
   69000    398.30366   -110.06622   0.36039352   -109.70583    7413.9323    4.3589469    4.3589469    4.3589469    7413.9323    4738.1954   -666.87043    18170.472   -2719.8673   -1007.3495    -8060.919    82.821813 
   69100     434.9405   -110.09958   0.39354331   -109.70603   -3023.6363    4.3560942    4.3560942    4.3560942   -3023.6363    2094.3084    -8395.345   -2769.8723    4767.2613    599.81575    8585.0291     82.65931 
   69200    233.14469   -109.91982   0.21095422   -109.70887    4292.1372    4.3575508    4.3575508    4.3575508    4292.1372    13891.986   -5451.6675    4436.0935   -5099.9705   -2994.3768     8891.021    82.742257 
   69300    495.04979   -110.15388   0.44793145   -109.70595   -5937.8841    4.3604107    4.3604107    4.3604107   -5937.8841   -3459.8352   -9923.0554   -4430.7616    291.92969    1255.7315   -4618.8558    82.905281 
   69400    346.69314   -110.02049   0.31369524   -109.70679    3856.8846    4.3525563    4.3525563    4.3525563    3856.8846    19539.171   -6299.7357   -1668.7816    2244.8166    788.27097    9212.5025    82.458076 
   69500    373.66861   -110.04585   0.33810321   -109.70774   -9014.5482    4.3637801    4.3637801    4.3637801   -9014.5482   -1811.8683   -17985.549   -7246.2277   -3208.2274    1799.4905    7282.2093    83.097617 
   69600    511.14114   -110.16744   0.46249124   -109.70495   -2365.8146    4.3562882    4.3562882    4.3562882   -2365.8146   -5145.8306   -6374.1047    4422.4916   -1232.6744   -1187.3364   -5986.3998    82.670356 
   69700    366.38307   -110.03793    0.3315111   -109.70642    2091.3153    4.3554199    4.3554199    4.3554199    2091.3153    16465.532   -11672.838    1481.2515    2263.1618   -2039.8562     7040.692    82.620933 
   69800     434.9392   -110.09965   0.39354213    -109.7061   -9300.3948    4.3650806    4.3650806    4.3650806   -9300.3948   -9992.4837   -13985.061     -3923.64   -4447.7889    3434.8926    4129.0504    83.171932 
   69900    421.17944   -110.08553     0.381092   -109.70444    3609.4568    4.3550523    4.3550523    4.3550523    3609.4568    3817.4495   -2466.6249    9477.5457   -4351.3224    -3954.993   -7849.8805    82.600014 
   70000    378.56283    -110.0484   0.34253161   -109.70587   -1393.6755    4.3569424    4.3569424    4.3569424   -1393.6755    9432.0804    -8058.059   -5555.0478    1755.9625   -4667.0827    8862.2065    82.707607 
   70100    338.20987   -110.01264    0.3060194   -109.70662   -8544.8491    4.3657102    4.3657102    4.3657102   -8544.8491   -9171.5265   -15258.115   -1204.9058   -7037.0789   -2018.8736    2848.1852    83.207929 
   70200    396.74268   -110.06371   0.35898111   -109.70473    3263.2465    4.3523395    4.3523395    4.3523395    3263.2465    9039.3923   -1384.1551    2134.5023   -3706.4845    104.57777   -2392.6694    82.445753 
   70300     321.7851   -109.99783   0.29115792   -109.70668   -511.55374    4.3601507    4.3601507    4.3601507   -511.55374    16956.763    -12149.66   -6341.7646     965.1169    290.07691    10660.625    82.890452 
   70400    358.18839   -110.03091   0.32409638   -109.70682   -4007.0735    4.3630614    4.3630614    4.3630614   -4007.0735   -272.96549   -19272.375    7524.1197   -6216.1542    575.12436    2217.8628    83.056566 
   70500    428.68492   -110.09247   0.38788312   -109.70459    7235.4969    4.3510627    4.3510627    4.3510627    7235.4969    11485.635   -779.69532    11000.551   -2472.7238    6103.6741   -932.45605    82.373215 
   70600    395.56882   -110.06434   0.35791899   -109.70642   -5681.7107    4.3644189    4.3644189    4.3644189   -5681.7107   -1678.3276   -23167.616    7800.8119     3366.804    564.05419    7674.9912    83.134117 
   70700    396.96376   -110.06528   0.35918115    -109.7061    936.29464    4.3568564    4.3568564    4.3568564    936.29464   -103.42063   -14565.195    17477.499   -8324.8442    2100.4758    1881.0148    82.702707 
   70800    539.66089   -110.19367   0.48829652   -109.70538    588.09198    4.3556002    4.3556002    4.3556002    588.09198   -1587.1838   -3607.3654    6958.8252    226.24767   -1138.4647   -5327.5666    82.631194 
   70900    368.64864   -110.03979   0.33356103   -109.70623   -3433.8402    4.3641317    4.3641317    4.3641317   -3433.8402   -2262.0472   -17979.372    9939.8991    3799.0838   -2886.3397    8642.3882    83.117706 
   71000    463.86782   -110.12459   0.41971735   -109.70487   -4598.5103    4.3547748    4.3547748    4.3547748   -4598.5103   -10808.246   -4413.3969    1426.1117   -10791.166    1108.0326    1279.7533    82.584224 
   71100    457.65901   -110.11926   0.41409949   -109.70516   -3929.3619    4.3608589    4.3608589    4.3608589   -3929.3619   -9928.4305   -7105.8158    5246.1606    2601.0431   -2783.6835   -3234.0401     82.93085 
   71200    363.05158   -110.03476    0.3284967   -109.70626    -3728.641    4.3604857    4.3604857    4.3604857    -3728.641    1293.9527   -11116.206   -1363.6701   -2409.6705    572.71201    10989.617    82.909556 
   71300     331.8427   -110.00681   0.30025825   -109.70655    5404.1765    4.3556154    4.3556154    4.3556154    5404.1765    7312.4872     -2841.61    11741.652   -7887.8288    2398.6957    1048.9992    82.632058 
   71400    441.05507   -110.10366    0.3990759   -109.70459    197.51041    4.3619529    4.3619529    4.3619529    197.51041   -3742.7696   -10438.833    14774.134    848.88677    2185.3683    1995.8256    82.993277 
   71500    289.64135   -109.96952   0.26207358   -109.70744    1823.2808    4.3586278    4.3586278    4.3586278    1823.2808     8567.844   -8665.0706     5567.069    -4981.195    658.62003    11044.138    82.803623 
   71600    345.57377   -110.01938   0.31268241    -109.7067    7637.8728    4.3558684    4.3558684    4.3558684    7637.8728    9277.2542   -7663.1729    21299.537   -3604.8799    2097.2564    1628.5867     82.64646 
   71700    525.66926   -110.18048   0.47563659   -109.70485   -3282.1468    4.3617522    4.3617522    4.3617522   -3282.1468   -18.875321   -10742.856    915.29134   -593.77143    7066.2092    426.82498     82.98182 
   71800    268.79231   -109.95121   0.24320893     -109.708    1416.9225    4.3578403    4.3578403    4.3578403    1416.9225    15127.365   -7942.2571   -2934.3407    -2375.044   -3344.3651    9740.7756    82.758754 
   71900    456.54137   -110.11878   0.41308822   -109.70569   -721.40285    4.3560828    4.3560828    4.3560828   -721.40285    2195.6963   -10165.118    5805.2132   -8211.0289    789.05248    1253.5951    82.658662 
   72000    496.43524   -110.15499   0.44918503    -109.7058    -7382.552    4.3613474    4.3613474    4.3613474    -7382.552   -8263.8818   -3374.3767   -10509.397    1456.7128    1218.2116   -4623.3392    82.958719 
   72100    307.78084   -109.98729   0.27848657    -109.7088   -7407.2588    4.3561285    4.3561285    4.3561285   -7407.2588   -1361.5151   -9171.0004   -11689.261   -2650.5379   -2130.8968    12485.975    82.661265 
   72200    404.23575   -110.07443     0.365761   -109.70867    444.89256    4.3577364    4.3577364    4.3577364    444.89256    8459.6861   -10869.442    3744.4341   -10064.398    702.83416    1556.6365    82.752833 
   72300    505.22094   -110.16331   0.45713452   -109.70617   -1005.7236    4.3599083    4.3599083    4.3599083   -1005.7236    3225.1871   -392.32261   -5850.0353    5017.3392   -2883.0908   -768.21921    82.876625 
   72400     268.5702   -109.95141   0.24300796    -109.7084   -1643.5932    4.3561563    4.3561563    4.3561563   -1643.5932    11609.412    -13787.33   -2752.8607   -4328.0063    3318.1962    15259.057    82.662848 
   72500    419.88783   -110.08799   0.37992333   -109.70807   -1035.6691    4.3589803    4.3589803    4.3589803   -1035.6691   -2083.2719   -13316.895     12293.16   -4405.4591   -909.71553   -417.07862    82.823719 
   72600    456.75083    -110.1194   0.41327775   -109.70612    5715.6304    4.3558028    4.3558028    4.3558028    5715.6304      9881.86     3519.683    3745.3481     2748.399    2103.3895    2917.0074    82.642727 
   72700    316.65065   -109.99561   0.28651216   -109.70909   -6645.1484    4.3596662    4.3596662    4.3596662   -6645.1484   -605.96652   -21769.855     2440.376   -5568.4672    1066.9385    12270.393    82.862823 
   72800    369.59247   -110.04193   0.33441503   -109.70751    3194.2353    4.3571956    4.3571956    4.3571956    3194.2353    7770.8878   -8974.9379    10786.756   -1870.5171    780.18802   -708.52642     82.72203 
   72900    528.18676   -110.18246   0.47791448   -109.70455   -1002.5632    4.3577077    4.3577077    4.3577077   -1002.5632   -4372.2408   -1414.9715    2779.5228    2180.4506    4753.7459   -488.12524    82.751196 
   73000    280.29522   -109.96168     0.253617   -109.70806   -8551.4108    4.3594428    4.3594428    4.3594428   -8551.4108   -5421.0773   -19810.745   -422.41019    -4096.787   -4888.7187    12259.044    82.850082 
   73100      459.747   -110.12265   0.41598874   -109.70666   -6209.6052    4.3571604    4.3571604    4.3571604   -6209.6052   -14955.702    -3219.501   -453.61295   -5947.5696    3670.8705    923.00803    82.720025 
   73200    477.40198   -110.13802   0.43196334   -109.70605    3870.8876    4.3579768    4.3579768    4.3579768    3870.8876     14680.94   -65.010955   -3003.2665    3325.4254    645.99207   -2399.0659    82.766527 
   73300    389.93956   -110.06127   0.35282551   -109.70845   -7924.0179    4.3575454    4.3575454    4.3575454   -7924.0179    1141.9245   -14154.998   -10758.981    -4604.126   -2522.9428    11919.324    82.741949 
   73400    337.35991   -110.01357   0.30525034   -109.70832    164.68961    4.3606616    4.3606616    4.3606616    164.68961    2671.3507    2547.8406   -4725.1225   -6009.3358    1462.2747    699.65561    82.919593 
   73500    544.75878   -110.19699    0.4929092   -109.70408    2664.5592    4.3565657    4.3565657    4.3565657    2664.5592    10876.491   -6958.8436    4076.0305     3438.487     1458.822    1944.1644    82.686156 
   73600    268.29311   -109.95035   0.24275724   -109.70759    2388.4231    4.3567879    4.3567879    4.3567879    2388.4231    8439.6379   -3827.8753    2553.5065   -3780.5874    4117.5622    11216.184    82.698809 
   73700    369.07369    -110.0418   0.33394563   -109.70786    19.955302    4.3614602    4.3614602    4.3614602    19.955302   -444.52614   -6786.2379      7290.63   -4071.4845   -2756.5261    1183.0194    82.965158 
   73800     458.9483   -110.11991   0.41526606   -109.70464    11770.499    4.3549932    4.3549932    4.3549932    11770.499    23011.796     -3792.07    16091.771    2956.9705    5065.9612    3606.9355     82.59665 
   73900    318.97319   -109.99662   0.28861365     -109.708    2588.6105    4.3571815    4.3571815    4.3571815    2588.6105   -622.41911   -1161.8409    9550.0916   -3532.4747    596.19626    10398.076    82.721226 
   74000    344.61741    -110.0187   0.31181708   -109.70689    1031.9401    4.3625736    4.3625736    4.3625736    1031.9401    7926.2146   -11730.083    6899.6889    -7095.992   -242.11527    686.76536     83.02871 
   74100    547.33099   -110.19919   0.49523658   -109.70395    9635.5518    4.3523748    4.3523748    4.3523748    9635.5518    12962.678    3292.5294    12651.448    4336.6799   -649.19692   -1821.5948     82.44776 
   74200     292.4237   -109.97264   0.26459111   -109.70805   -213.56232    4.3613502    4.3613502    4.3613502   -213.56232    15818.507   -5882.0334    -10577.16   -5877.8271   -5287.8664     9820.858    82.958882 
   74300     416.4187   -110.08321   0.37678439   -109.70643   -1490.4703    4.3570439    4.3570439    4.3570439   -1490.4703     10254.19   -8436.2833    -6289.317   -7892.9311    1470.6129    128.10005    82.713388 
   74400    551.14801    -110.2046    0.4986903   -109.70591    261.13531    4.3569371    4.3569371    4.3569371    261.13531    4967.3353    335.67751   -4519.6069    6596.3431   -2197.5832   -2531.1435    82.707303 
   74500    275.64335   -109.95787    0.2494079   -109.70846    490.75318    4.3593888    4.3593888    4.3593888    490.75318    17431.119   -9913.0533   -6045.8065   -9976.0271    651.41325    10107.748    82.847006 
   74600    463.88355   -110.12647   0.41973159   -109.70673   -6498.7559    4.3579728    4.3579728    4.3579728   -6498.7559   -3459.2116   -9081.6279   -6955.4282   -2800.4687   -1808.0104   -1277.3436    82.766301 
   74700    501.41696    -110.1591    0.4536926   -109.70541    1799.3022     4.356888     4.356888     4.356888    1799.3022    7106.1609   -2703.4261    995.17184    5533.2937    2943.5936    1452.7676    82.704511 
   74800     316.3085   -109.99452   0.28620258   -109.70831   -2136.3185     4.359793     4.359793     4.359793   -2136.3185    4986.5689   -12040.652    645.12725    -7767.226    305.26358    8265.8739    82.870051 
   74900     407.6053   -110.07678   0.36880984   -109.70797   -2289.1264    4.3569065    4.3569065    4.3569065   -2289.1264   -10378.511   -9351.7868    12862.918   -4055.3958   -6068.7414    2056.4716     82.70556 
   75000    495.87032   -110.15513   0.44867388   -109.70646    2823.1115    4.3579835    4.3579835    4.3579835    2823.1115    706.57969   -3481.9919    11244.747    2732.4169    4727.5774    2212.7636    82.766909 
   75100    241.71985   -109.92772    0.2187132   -109.70901   -1150.0719    4.3604564    4.3604564    4.3604564   -1150.0719    3254.0679   -8691.5879    1987.3042   -4365.3234   -1931.1313    10528.912    82.907888 
   75200    387.37973   -110.05729   0.35050932   -109.70678   -1065.9741    4.3531307    4.3531307    4.3531307   -1065.9741   -5998.5275   -5436.4999    8237.1051   -8601.6244   -837.58084    4852.7729    82.490726 
   75300     430.4988   -110.09514   0.38952436   -109.70562   -4662.5415    4.3639842    4.3639842    4.3639842   -4662.5415    412.26952    -3471.282   -10928.612    4554.1477   -1576.2618    -1001.764    83.109279 
   75400    278.57401   -109.96002   0.25205962   -109.70796   -946.68062    4.3551188    4.3551188    4.3551188   -946.68062   -2650.8354   -5399.5075    5210.3011   -8552.9132     1335.475    10712.797    82.603798 
   75500    361.24976   -110.03509   0.32686637   -109.70822   -1822.7312    4.3570703    4.3570703    4.3570703   -1822.7312    459.88103   -5233.1738   -694.90081   -8807.8639    494.60224   -455.92099    82.714892 
   75600    545.43243   -110.19926   0.49351873   -109.70574   -7570.4428    4.3630255    4.3630255    4.3630255   -7570.4428   -5939.5912    -1388.807    -15382.93    5395.3827   -3228.8865   -972.35472    83.054515 
   75700    336.53574    -110.0127   0.30450461    -109.7082   -4826.8792    4.3559929    4.3559929    4.3559929   -4826.8792    4657.8946   -13660.158   -5478.3744   -12991.721     1348.471    4289.0589    82.653548 
   75800    459.81007   -110.12346   0.41604581   -109.70741   -1079.7054    4.3568477    4.3568477    4.3568477   -1079.7054   -5238.6073   -4261.6142    6261.1052   -5044.7578   -4349.4238   -3343.1282    82.702216 
   75900      606.594   -110.25303     0.548859   -109.70417   -9364.2594    4.3651982    4.3651982    4.3651982   -9364.2594   -7260.5177   -9769.2573   -11063.003    5519.0404    2626.2927    2224.3215    83.178656 
   76000    294.35818   -109.97373   0.26634147   -109.70739    2528.1894    4.3535252    4.3535252    4.3535252    2528.1894    2970.7964   -9596.7534    14210.525   -11080.773   -2983.1139    4051.3119    82.513153 
   76100    421.76214   -110.08812   0.38161925    -109.7065   -4964.5351    4.3623404    4.3623404    4.3623404   -4964.5351   -12568.944   -1110.2651   -1214.3966   -3334.4048   -5308.5175     3063.421    83.015399 
   76200    472.64212   -110.13205   0.42765652    -109.7044   -1161.6284    4.3596246    4.3596246    4.3596246   -1161.6284   -1857.7315    1851.3421   -3478.4958    3519.9853    220.74572     1390.757     82.86045 
   76300    214.67386   -109.90205   0.19424142   -109.70781   -1158.9636    4.3576713    4.3576713    4.3576713   -1158.9636   -7076.6233    2769.1297    830.60274   -11448.739   -104.93355    9203.3338    82.749127 
   76400    299.29523   -109.97903   0.27080861   -109.70822    4881.8719    4.3609041    4.3609041    4.3609041    4881.8719    -4665.222    10333.112     8977.726   -5660.9591   -1275.2524    5687.8654    82.933428 
   76500    504.26609    -110.1617   0.45627056   -109.70543    1732.9404    4.3596153    4.3596153    4.3596153    1732.9404    240.36703    5247.2749   -288.82074    112.03436   -725.11528   -1269.5652    82.859916 
   76600    212.99997   -109.90198   0.19272685   -109.70926     3047.358    4.3568734    4.3568734    4.3568734     3047.358   -1896.9724    1556.9418    9482.1047   -13724.451    4818.6588    8397.6408    82.703678 
   76700    415.55804   -110.08427   0.37600565   -109.70827   -1248.8175    4.3624712    4.3624712    4.3624712   -1248.8175    3443.5347   -5184.9788   -2005.0084   -4370.5945   -662.96223    1130.9492    83.022866 
   76800    521.92098   -110.17719   0.47224507   -109.70495     4858.695    4.3567297    4.3567297    4.3567297     4858.695    6819.0048    1560.9538    6196.1264   -196.24776    2364.1479    1859.6276    82.695492 
   76900    313.64252   -109.99342   0.28379034   -109.70963      -2574.9    4.3594069    4.3594069    4.3594069      -2574.9    3166.2693    -14280.38    3389.4103   -9810.3398    276.83379     231.4007    82.848034 
   77000    382.23014    -110.0523   0.34584986   -109.70645   -1376.0364    4.3632322    4.3632322    4.3632322   -1376.0364    127.57986    8.9561462   -4264.6453   -76.673978   -3086.5866    -2075.526    83.066319 
   77100    554.72913    -110.2049   0.50193058   -109.70297    3120.0639    4.3527724    4.3527724    4.3527724    3120.0639    2249.8968    8974.2847   -1863.9898    1928.8674    516.03468    861.98865    82.470355 
   77200    291.79784    -109.9725   0.26402482   -109.70847   -10823.539    4.3637736    4.3637736    4.3637736   -10823.539   -8659.0789   -9482.7527   -14328.785   -8466.0456   -2543.2425    3155.3703    83.097248 
   77300    403.52936   -110.07226   0.36512185   -109.70713    516.47467    4.3581166    4.3581166    4.3581166    516.47467   -7844.8359    14066.731   -4672.4706   -2167.8057   -3084.2034    1161.9293    82.774493 
   77400    557.39493   -110.20882   0.50434265   -109.70448    5788.0447    4.3567027    4.3567027    4.3567027    5788.0447    1535.3915    6482.4935    9346.2491    1244.5266   -4301.0466   -861.97771    82.693958 
   77500    350.18737   -110.02483   0.31685689   -109.70798   -3176.8115     4.361624     4.361624     4.361624   -3176.8115   -8423.8404    1635.6759   -2742.2701   -9570.9621     1494.956    7096.4881    82.974506 
   77600    388.97339   -110.05979   0.35195129   -109.70784    1657.7521    4.3592115    4.3592115    4.3592115    1657.7521   -84.538506     2734.344    2323.4507   -4406.0916   -3845.5189   -911.96505    82.836898 
   77700    531.45623   -110.18623   0.48087276   -109.70536    10136.888    4.3530862    4.3530862    4.3530862    10136.888    15529.531    4168.1061    10713.028    2861.4148   -80.763716   -2564.9649    82.488195 
   77800    312.81705   -109.99271   0.28304344   -109.70967   -3680.3294    4.3642321    4.3642321    4.3642321   -3680.3294   -1535.2741   -6857.7499   -2647.9643   -10034.822    4088.0446     4282.742    83.123441 
   77900    286.47519   -109.96837   0.25920877   -109.70916    7758.4868    4.3548373    4.3548373    4.3548373    7758.4868    20749.344   -2773.3359    5299.4527    -2013.186   -3566.9889    1897.2747    82.587782 
   78000    491.65937   -110.15137   0.44486373    -109.7065    7246.8261    4.3549704    4.3549704    4.3549704    7246.8261    10884.379    9199.1475    1656.9517    2363.6059    1585.0985    721.96726    82.595355 
   78100     297.4206   -109.97736   0.26911241   -109.70825   -7950.1326    4.3651612    4.3651612    4.3651612   -7950.1326    2230.1456   -12364.539   -13716.004   -6828.6087   -1609.8167    3663.6404    83.176544 
   78200    376.15909   -110.04597   0.34035665   -109.70562   -894.50934    4.3530253    4.3530253    4.3530253   -894.50934    10446.531   -2585.9315   -10544.127   -1955.5871   -1080.2003    3632.1467    82.484734 
   78300     545.7164    -110.1985   0.49377567   -109.70472   -1952.5799    4.3594743    4.3594743    4.3594743   -1952.5799   -5014.3817    1153.6036   -1996.9616     44.78731   -4047.3347    -1757.888    82.851882 
   78400    401.49916   -110.07073   0.36328488   -109.70744   -9256.3466    4.3608801    4.3608801    4.3608801   -9256.3466   -4537.9492   -17812.355   -5418.7354   -8025.8667   -1060.9121    7487.5022    82.932058 
   78500    362.09677   -110.03562   0.32763277   -109.70799   -3271.1524    4.3552004    4.3552004    4.3552004   -3271.1524    -659.0126   -8958.5505   -195.89406   -2882.1455   -3250.0692    2659.7365    82.608444 
   78600    558.24328   -110.21072   0.50511025   -109.70561   -4472.1411    4.3605926    4.3605926    4.3605926   -4472.1411   -5302.5191   -3815.0941   -4298.8101    1540.0379    -4677.159   -4726.8041    82.915657 
   78700    262.28408   -109.94637   0.23732015   -109.70905   -2810.2261    4.3593711    4.3593711    4.3593711   -2810.2261    7889.6648   -18139.809    1819.4653   -9070.4051    6278.5189    8412.3816    82.845995 
   78800    354.97313   -110.02935   0.32118715   -109.70816   -1608.4441    4.3552184    4.3552184    4.3552184   -1608.4441    10760.436   -10768.748   -4817.0202    -974.3881   -4838.2138   -4419.9228    82.609466 
   78900    423.59147   -110.08914   0.38327446   -109.70586   -185.20459     4.364388     4.364388     4.364388   -185.20459    9890.9007   -9303.0227   -1143.4918    4089.7873    2008.7303   -1614.7952    83.132349 
   79000    275.02841    -109.9571   0.24885148   -109.70825    1351.7758    4.3538098    4.3538098    4.3538098    1351.7758    14549.703   -7267.3386   -3227.0373   -7099.4772    3640.3071    6676.1443    82.529338 
   79100    381.30758   -110.05267   0.34501511   -109.70765   -5155.8233    4.3580781    4.3580781    4.3580781   -5155.8233    3596.9093   -8145.3105   -10919.069   -4628.3771   -3362.6501   -1320.7987    82.772303 
   79200    521.65932   -110.17689   0.47200831   -109.70488   -5088.4723    4.3639477    4.3639477    4.3639477   -5088.4723    -765.2469    43.983886   -14544.154    3864.0921   -207.08178     3437.241    83.107191 
   79300    321.19946    -109.9988   0.29062803   -109.70817    1769.3834    4.3511913    4.3511913    4.3511913    1769.3834   -236.45064    -6831.211    12375.812   -8080.7278   -3128.2825    4018.0687     82.38052 
   79400    463.65718   -110.12646   0.41952676   -109.70693   -10087.796    4.3625505    4.3625505    4.3625505   -10087.796   -13248.163   -10259.802    -6755.424   -4983.1648   -545.62211    1276.2857    83.027391 
   79500    496.21929   -110.15328   0.44898964   -109.70429   -4234.1719    4.3624858    4.3624858    4.3624858   -4234.1719   -7498.8994   -4672.5734   -531.04281    1974.2856   -237.79946    916.47481    83.023701 
   79600    292.18741   -109.97093   0.26437731   -109.70655    5317.9011    4.3490711    4.3490711    4.3490711    5317.9011    11156.782   -5368.6377    10165.559   -9736.5143    2512.6849    5217.8083    82.260153 
   79700    380.45562   -110.05196   0.34424424   -109.70772   -6061.1656     4.366268     4.366268     4.366268   -6061.1656   -2998.3388   -9444.7182     -5740.44   -2519.4921   -491.86149    1397.8353    83.239827 
   79800    458.45293   -110.12055   0.41481784   -109.70573    6495.8228    4.3560596    4.3560596    4.3560596    6495.8228    19714.484   -1053.0729    826.05705    3496.1896    688.74063   -3900.3482    82.657342 
   79900    280.87203   -109.96373   0.25413891   -109.70959    6010.6271    4.3546315    4.3546315    4.3546315    6010.6271    11983.835   -4880.1554    10928.201   -4339.3135    6046.2645    5487.8398    82.576071 
   80000    399.08117   -110.06839   0.36109703   -109.70729   -1134.4527    4.3656915    4.3656915    4.3656915   -1134.4527    6034.2597     699.0763   -10136.694   -3046.1591   -3571.1793   -218.41634    83.206859 
   80100    522.71212   -110.17742   0.47296091   -109.70446    3599.0326    4.3540975    4.3540975    4.3540975    3599.0326    5942.2086    3463.5647    1391.3246    5246.4736     1396.375   -2515.1147    82.545699 
   80200    311.76922    -109.9916   0.28209534    -109.7095   -207.60449    4.3565762    4.3565762    4.3565762   -207.60449   -3948.5013    3816.9395   -491.25169   -3721.7908    271.72506    6216.6793    82.686753 
   80300    457.38307   -110.12048   0.41384981   -109.70663   -8406.7627    4.3668126    4.3668126    4.3668126   -8406.7627   -7046.9506   -10492.527   -7680.8108   -7640.8984    -900.5904   -232.23608    83.270981 
   80400     515.4979   -110.16991   0.46643333   -109.70348    4860.8875    4.3500243    4.3500243    4.3500243    4860.8875    5882.8243    3118.6148    5581.2235    6284.9729   -153.18703    878.39985    82.314257 
   80500    260.45441   -109.94545   0.23566462   -109.70979   -3362.4558    4.3635482    4.3635482    4.3635482   -3362.4558    8505.8364   -12114.309   -6478.8949   -11271.063    -760.6142    7285.8791    83.084369 
   80600    433.58097   -110.10141   0.39231318    -109.7091    784.32098    4.3598936    4.3598936    4.3598936    784.32098    17918.589   -10779.596   -4786.0306   -3341.1161    1828.6119    2497.5761    82.875789 
   80700    529.30145   -110.18423   0.47892308   -109.70531    8525.5026    4.3518085    4.3518085    4.3518085    8525.5026    20781.437    2422.7017    2372.3692    4869.3732    2580.1706    823.96969     82.41558 
   80800    294.94895   -109.97538   0.26687601    -109.7085   -9067.2451    4.3698622    4.3698622    4.3698622   -9067.2451    6637.3977    -21733.78   -12105.353   -7010.0269    3594.3831    6203.5557    83.445558 
   80900    487.96439   -110.14669   0.44152044   -109.70516    7198.8946     4.351695     4.351695     4.351695    7198.8946    12328.138   -1207.2258    10475.772   -857.49679       3103.4   -2.7380334    82.409131 
   81000    601.15394   -110.24832   0.54393671   -109.70438   -2476.4191    4.3615525    4.3615525    4.3615525   -2476.4191    3537.1006   -6430.3566   -4536.0013    2472.9557    2693.7133    -1853.163    82.970425 
   81100    262.69721    -109.9455   0.23769395   -109.70781   -5759.7553    4.3649761    4.3649761    4.3649761   -5759.7553    4579.9741   -17771.634   -4087.6058    -7310.084    1011.6559    4775.2241    83.165962 
   81200    423.45121   -110.08969   0.38314756   -109.70654    5723.8894     4.351624     4.351624     4.351624    5723.8894    10172.652   -2764.4824    9763.4992     -8302.64   -1955.8128   -1187.6546    82.405098 
   81300    427.47433   -110.09284   0.38678776   -109.70605    674.03779    4.3647082    4.3647082    4.3647082    674.03779    20464.511   -10381.083   -8061.3143     651.2605   -3585.6771   -397.91304    83.150651 
   81400    122.01258   -109.82025   0.11039955   -109.70985    1212.9628    4.3611224    4.3611224    4.3611224    1212.9628    22741.581   -18503.171   -599.52156   -13406.032   -1016.9788    5162.0458    82.945881 
   81500    361.30824   -110.03495   0.32691929   -109.70803    8872.9606    4.3515921    4.3515921    4.3515921    8872.9606     23022.03   -3412.4046    7009.2563   -8338.0078   -4884.9733   -540.09119    82.403289 
   81600    489.36406   -110.14966   0.44278688   -109.70687   -6258.4303    4.3683135    4.3683135    4.3683135   -6258.4303   -3582.1253   -3443.2316   -11749.934    263.98179   -3071.1862   -825.85287    83.356868 
   81700      275.281   -109.95937   0.24908003   -109.71029   -2852.9199    4.3536517    4.3536517    4.3536517   -2852.9199   -6427.0552   -9655.3683    7523.6638   -12427.087   -1106.8087    4314.9594    82.520349 
   81800    460.23633   -110.12489    0.4164315   -109.70846    2012.4619    4.3566282    4.3566282    4.3566282    2012.4619    2757.0986      585.083    2695.2039   -3270.8588    2552.2402   -1736.0913    82.689713 
   81900    544.73532   -110.19926   0.49288796   -109.70637   -4677.0197    4.3656226    4.3656226    4.3656226   -4677.0197    2437.8206   -9929.3863   -6539.4934    3393.3367    196.78454   -1625.2544    83.202922 
   82000    243.61294   -109.93071   0.22042611   -109.71028    5510.4119    4.3487766    4.3487766    4.3487766    5510.4119    15900.366   -12573.381    13204.251   -11128.204    4101.9848    7171.3077    82.243447 
   82100    356.16718   -110.03099   0.32226755   -109.70872   -5336.0207    4.3659694    4.3659694    4.3659694   -5336.0207    11466.573   -18587.246   -8887.3892   -2624.1887    2796.0946   -480.35375    83.222748 
   82200    481.94596   -110.14141   0.43607483   -109.70533    2090.9729    4.3563485    4.3563485    4.3563485    2090.9729    12373.989    -5509.861   -591.20915    79.964426   -682.31698    2741.6351     82.67379 
   82300    196.03946   -109.88707   0.17738062   -109.70969    824.48387    4.3554742    4.3554742    4.3554742    824.48387    13885.196   -10661.823   -749.92116   -15381.359    3632.7014    8494.2324    82.624022 
   82400    456.05812   -110.12093   0.41265097   -109.70828   -7645.0671    4.3619436    4.3619436    4.3619436   -7645.0671   -6386.3363   -8491.7027   -8057.1623   -4811.9536    -1159.658    456.49705    82.992749 
   82500    501.83854   -110.16069   0.45407406   -109.70661   -1991.3329    4.3588897    4.3588897    4.3588897   -1991.3329   -4190.7046    6634.3256   -8417.6196    2348.4463   -1139.7006    3794.6959    82.818554 
   82600    341.72885   -110.01814   0.30920344   -109.70893   -4686.4207      4.35829      4.35829      4.35829   -4686.4207   -1492.5131   -4812.8321   -7753.9169   -9149.0691    -2041.017    4902.9276    82.784377 
   82700    466.60366   -110.12908    0.4221928   -109.70689   -4979.4793    4.3620132    4.3620132    4.3620132   -4979.4793    -1796.013   -1760.4644   -11381.961    3126.1303     1340.839     395.3779    82.996717 
   82800    454.93712   -110.11693   0.41163667   -109.70529    4329.9379    4.3565836    4.3565836    4.3565836    4329.9379    14629.674    4794.9401   -6434.8005    5615.2787   -1618.0458    2041.3822    82.687177 
   82900    329.23166   -110.00649   0.29789572    -109.7086    -2849.393    4.3597066    4.3597066    4.3597066    -2849.393     18979.29   -15825.284   -11702.185   -6746.2343   -2821.1191    3622.0154    82.865126 
   83000    318.66293   -109.99663   0.28833292    -109.7083   -3449.9939    4.3618001    4.3618001    4.3618001   -3449.9939    5077.0998   -7319.8659   -8107.2157   -150.36631     4657.924   -1267.8662    82.984556 
   83100    443.58991   -110.10675   0.40136948   -109.70538   -1163.1154    4.3563718    4.3563718    4.3563718   -1163.1154    9474.5307   -5512.4712   -7451.4056    3474.4281   -3894.5715    -777.5654    82.675117 
   83200    372.76681   -110.04388   0.33728725    -109.7066   -8344.4396    4.3621556    4.3621556    4.3621556   -8344.4396   -3952.9472   -9868.7735   -11211.598   -13262.273    3717.7911    4597.0335    83.004851 
   83300    415.00827   -110.08195    0.3755082   -109.70644   -843.28548    4.3564465    4.3564465    4.3564465   -843.28548   -7870.6804    6705.7386   -1364.9146   -3183.1158    2331.2129   -2587.3914    82.679371 
   83400    499.73419   -110.15851      0.45217   -109.70634   -3851.5143    4.3600274    4.3600274    4.3600274   -3851.5143   -909.16522    296.89448   -10942.272     3815.889   -4774.1532    10.245041    82.883416 
   83500    455.84588    -110.1201   0.41245893   -109.70764    1740.1529    4.3556843    4.3556843    4.3556843    1740.1529    2362.2342     8010.192   -5151.9676   -7507.1215    3878.8086    3809.1341    82.635983 
   83600     353.5314   -110.02819   0.31988264    -109.7083    4382.4492    4.3604491    4.3604491    4.3604491    4382.4492    12925.022    2777.4472   -2555.1214   -427.59615   -313.39065   -1386.1236    82.907471 
   83700    430.44021   -110.09612   0.38947135   -109.70665    6489.2303    4.3559579    4.3559579    4.3559579    6489.2303    24962.842    2753.6783   -8248.8294    5817.2492   -4706.6819    3212.8506    82.651553 
   83800    343.17255   -110.01832   0.31050973   -109.70781    7738.9143    4.3578307    4.3578307    4.3578307    7738.9143    16712.935    11002.437   -4498.6296   -6989.1615   -2151.6242    3770.3385    82.758204 
   83900    381.77875   -110.05281   0.34544143   -109.70737    611.67044    4.3586453    4.3586453    4.3586453    611.67044    9047.0536   -6374.2262   -837.81605   -2786.9402   -477.55463   -202.71366    82.804623 
   84000    393.22512   -110.06411   0.35579835   -109.70832   -3742.8708    4.3560077    4.3560077    4.3560077   -3742.8708   -8474.7327    4536.6507   -7290.5303    3532.3492   -3187.9093    2665.2418     82.65439 
   84100    396.91821   -110.06743   0.35913994   -109.70829   -3489.8601    4.3605318    4.3605318    4.3605318   -3489.8601   -3791.9756   -1776.7084   -4900.8963   -5604.6853   -2932.8363    1685.0847    82.912186 
   84200    444.05171   -110.10914   0.40178732   -109.70736   -1270.2384    4.3572933    4.3572933    4.3572933   -1270.2384   -3583.7397   -550.13474    323.15911   -7851.3348    2376.0332   -2391.5472    82.727593 
   84300    408.32664   -110.07727   0.36946253   -109.70781   -2041.4983    4.3577317    4.3577317    4.3577317   -2041.4983   -4746.7184    11407.709   -12785.486    5969.6566   -3179.9915   -1049.0588    82.752566 
   84400    378.71296   -110.05095   0.34266744   -109.70828   -828.07982    4.3625052    4.3625052    4.3625052   -828.07982    8458.5521   -1711.4027   -9231.3888     -929.907   -119.84628    949.24804    83.024808 
   84500    413.56677   -110.08083   0.37420391   -109.70663    5016.3585     4.354729     4.354729     4.354729    5016.3585    20650.694   -3081.4466   -2520.1721    -4853.956    1616.1606   -1689.2698    82.581622 
   84600    320.82836   -109.99832   0.29029224   -109.70803   -854.17525    4.3609224    4.3609224    4.3609224   -854.17525    11801.018    3750.9039   -18114.448    6657.6188   -8666.6092    314.51043    82.934468 
   84700    340.01409   -110.01424    0.3076519   -109.70659    746.47091    4.3606485    4.3606485    4.3606485    746.47091    16748.187   -9381.6393   -5127.1354   -2861.3545    29.081706    176.36174    82.918846 
   84800    478.85895   -110.13819   0.43328164   -109.70491    2289.3604    4.3539331    4.3539331    4.3539331    2289.3604    5215.9189    5661.5343   -4009.3719   -2293.7675   -657.49705    -1623.904    82.536349 
   84900    356.37388   -110.02996   0.32245458    -109.7075   -9055.1527    4.3648198    4.3648198    4.3648198   -9055.1527   -9319.7465   -4265.0442   -13580.667    3677.6804   -7571.8241    2450.8922    83.157029 
   85000    431.23109   -110.09595   0.39018695   -109.70576   -3234.8188     4.357618     4.357618     4.357618   -3234.8188    4074.2883   -8278.6361   -5500.1087   -5755.2767    49.717642    1021.8463    82.746088 
   85100    530.72599   -110.18513   0.48021203   -109.70491    3851.7796    4.3535628    4.3535628    4.3535628    3851.7796    8811.4024    1846.2227    897.71358   -1567.6245   -875.99539   -1738.3241     82.51529 
   85200    326.91342   -110.00438   0.29579814   -109.70858   -1271.3979    4.3640072    4.3640072    4.3640072   -1271.3979     9849.775   -1406.4339   -12257.535    2208.0373   -3025.2043    1663.8987    83.110592 
   85300    417.03333   -110.08565   0.37734052   -109.70831    5164.3387    4.3541184    4.3541184    4.3541184    5164.3387    17158.662    674.63191   -2340.2782    1967.9378   -316.67054    2702.4721    82.546888 
   85400    470.12622   -110.13314   0.42538008   -109.70776    8540.0835    4.3569494    4.3569494    4.3569494    8540.0835    25221.921    5143.4793   -4745.1501   -1859.7488    1411.1744   -3707.7615    82.708006 
   85500    343.02899   -110.01932   0.31037984   -109.70894   -4175.4218     4.361931     4.361931     4.361931   -4175.4218    184.03053   -6109.5625   -6600.7334    6274.0074   -4110.7018   -166.82288    82.992026 
   85600    338.33608   -110.01434    0.3061336    -109.7082     2119.526    4.3518746    4.3518746    4.3518746     2119.526    7650.6757    4445.0078   -5737.1054     4704.886   -1094.8363     773.0042    82.419334 
   85700    455.94519   -110.11903   0.41254879   -109.70648   -3295.2998    4.3632899    4.3632899    4.3632899   -3295.2998   -5025.4592    1770.0064   -6630.4467   -5891.4114    1775.6675   -4580.7857    83.069615 
   85800    355.52871   -110.02928   0.32168985   -109.70759   -2392.1638    4.3571036    4.3571036    4.3571036   -2392.1638   -10066.505    8432.7023   -5542.6889    6335.7616   -7836.6235    163.53193    82.716787 
   85900    314.95708   -109.99305   0.28497979   -109.70807   -1380.2987    4.3570824    4.3570824    4.3570824   -1380.2987    358.97862    4906.1102   -9405.9848   -543.67416    72.724715    741.57349    82.715582 
   86000    489.25136   -110.14839   0.44268492    -109.7057   -2596.2997      4.36124      4.36124      4.36124   -2596.2997    7789.5987   -5410.8072   -10167.691   -6285.6343    1281.2456   -4195.7012    82.952594 
   86100    394.42905   -110.06419    0.3568877    -109.7073    2666.7429    4.3562476    4.3562476    4.3562476    2666.7429    12147.966   -484.72179   -3663.0155    3879.6111   -7133.8012    2901.0249    82.668047 
   86200    368.38066   -110.04203   0.33331856   -109.70871    -3528.665     4.358938     4.358938     4.358938    -3528.665    13528.341   -7815.2016   -16299.134    1421.3517    1311.3602    2567.8962    82.821306 
   86300    415.85199   -110.08323   0.37627162   -109.70695    1378.9027    4.3607489    4.3607489    4.3607489    1378.9027    16636.901   -7126.4617   -5373.7312    2135.6032    2079.7979   -5592.6954    82.924569 
   86400    468.19583   -110.12981   0.42363343   -109.70617   -1363.9754    4.3567034    4.3567034    4.3567034   -1363.9754   -233.71481    3607.5476   -7465.7588     3044.539   -3634.8993    2745.3354    82.693995 
   86500    318.00295   -109.99589   0.28773575   -109.70815   -2237.9159    4.3573242    4.3573242    4.3573242   -2237.9159    5514.1485   -2957.2379   -9270.6582    4193.6305    4369.0978     746.8645    82.729353 
   86600    383.17468   -110.05468    0.3467045   -109.70797   -4749.4262    4.3623364    4.3623364    4.3623364   -4749.4262   -3458.5113    2211.2516   -13001.019   -1549.9163    1641.6126   -5218.5265     83.01517 
   86700    491.49173   -110.15091   0.44471204   -109.70619    8365.4309    4.3528454    4.3528454    4.3528454    8365.4309    10486.747    14156.091     453.4548    314.45804    -2166.131     577.4479    82.474504 
   86800    310.45641   -109.98994   0.28090748   -109.70903    740.36645    4.3627021    4.3627021    4.3627021    740.36645    14811.115    3914.0255   -16504.041   -709.70109    1241.2692   -2824.2533    83.036047 
   86900    393.85255   -110.06471   0.35636606   -109.70834    5449.1952    4.3558109    4.3558109    4.3558109    5449.1952    19786.893    6328.0075   -9767.3144   -4088.7495    1704.0129   -4947.0492    82.643187 
   87000    501.48586   -110.16005   0.45375495   -109.70629    7423.7599    4.3569861    4.3569861    4.3569861    7423.7599    25539.954    1389.5115   -4658.1854   -1002.7196   -4834.4223   -466.81846    82.710097 
   87100    354.17208   -110.03144   0.32046234   -109.71097   -1969.6062    4.3587048    4.3587048    4.3587048   -1969.6062    2367.0011     308.4895   -8584.3094    1173.4472   -125.34836   -3923.7821    82.808012 
   87200    292.84976   -109.97589   0.26497662   -109.71091   -522.23559    4.3568773    4.3568773    4.3568773   -522.23559     19456.35   -10478.357     -10544.7    834.32671    3727.5888   -5960.8795    82.703897 
   87300    589.68147   -110.23942   0.53355619   -109.70586   -3942.6189    4.3597664    4.3597664    4.3597664   -3942.6189   -499.55662   -9937.8508   -1390.4492    -382.1228   -2778.8349     730.5132    82.868533 
   87400    289.92767   -109.97112   0.26233265   -109.70879   -1675.6269    4.3572805    4.3572805    4.3572805   -1675.6269    5327.3007   -6605.3036   -3748.8778    3194.1175    2798.4294    -2659.721    82.726861 
   87500    321.86841   -110.00106    0.2912333   -109.70983   -5886.0082    4.3573109    4.3573109    4.3573109   -5886.0082    9309.8646   -11225.572   -15742.317   -787.71308     5401.702   -5838.9078    82.728595 
   87600    567.99575   -110.22075   0.51393449   -109.70681    400.12004    4.3600006    4.3600006    4.3600006    400.12004    11684.308   -7629.1956   -2854.7521    3247.9735    1187.4661     3057.672    82.881892 
   87700    355.30042   -110.03144   0.32148328   -109.70995    5756.8836    4.3547914    4.3547914    4.3547914    5756.8836     26151.19   -224.01593   -8656.5229   -1526.2737    3161.9966   -3529.6341    82.585173 
   87800    319.53836   -110.00126   0.28912502   -109.71213   -5662.4898    4.3601659    4.3601659    4.3601659   -5662.4898    14521.095   -10687.278   -20821.286   -305.93977    5508.4184   -4675.4425    82.891318 
   87900    518.76686   -110.17715   0.46939116   -109.70776    6162.4729    4.3547518    4.3547518    4.3547518    6162.4729    17037.146    -844.0674    2294.3401     -4803.88   -1246.0961    3191.2603    82.582919 
   88000    442.00607   -110.10935   0.39993638   -109.70942   -6478.4404    4.3618753    4.3618753    4.3618753   -6478.4404    5926.3209    -8641.003   -16720.639   -1600.0677    1711.8711   -6703.7392    82.988846 
   88100    220.12394   -109.90939   0.19917277   -109.71022   -1734.9234    4.3562938    4.3562938    4.3562938   -1734.9234     14733.91   -9505.3536   -10433.327    332.47345    3493.0436   -2868.4386    82.670676 
   88200    519.66446   -110.17664   0.47020332   -109.70644   -1737.7366    4.3550355    4.3550355    4.3550355   -1737.7366    258.21338   -4694.5934   -776.82981    -4731.015   -2575.6943    3242.8435    82.599059 
   88300     397.3928   -110.06723   0.35956936   -109.70766   -3383.4263    4.3620544    4.3620544    4.3620544   -3383.4263     20778.05   -16028.519   -14899.809    7070.3596     187.7544   -8736.0013    82.999072 
   88400    266.59653   -109.95087   0.24122214   -109.70964    4625.9831    4.3530542    4.3530542    4.3530542    4625.9831    23390.653   -4137.9405   -5374.7628   -3888.5934    3669.2144   -1832.4508    82.486377 
   88500    485.11562   -110.14653   0.43894281   -109.70759   -1787.5185    4.3605193    4.3605193    4.3605193   -1787.5185    15238.017   -5664.9853   -14935.588    3524.5861     562.2471    3390.3822    82.911472 
   88600    418.72775   -110.08709   0.37887367   -109.70822     2689.245     4.357614     4.357614     4.357614     2689.245    23096.903   -7253.1405   -7776.0275    2916.1732   -831.41835   -8305.6127    82.745859 
   88700    404.80001   -110.07596   0.36627156   -109.70969   -4196.9401    4.3553192    4.3553192    4.3553192   -4196.9401    7505.9834   -8318.2389   -11778.565    1882.8403    9646.5334   -2095.0476    82.615201 
   88800    385.22097   -110.05716   0.34855603    -109.7086   -729.54075    4.3601825    4.3601825    4.3601825   -729.54075    12758.187   -6955.2798   -7991.5292   -39.538253   -1896.1132    2973.2894    82.892266 
   88900    461.64792   -110.12454   0.41770874   -109.70683   -6818.7053    4.3581182    4.3581182    4.3581182   -6818.7053    1734.8878   -15672.695   -6518.3082   -2971.5874   -1186.4503   -7981.0181    82.774584 
   89000    307.70982   -109.98692   0.27842231    -109.7085    1824.3184    4.3537455    4.3537455    4.3537455    1824.3184    15449.316   -3582.0015    -6394.359    4005.5381    5010.4424    252.95794    82.525683 
   89100    371.88978   -110.04445   0.33649369   -109.70796   -7227.2205    4.3638685    4.3638685    4.3638685   -7227.2205    6639.1632   -12850.243   -15470.582   -7471.6564   -2045.5149    2453.1776    83.102666 
   89200    337.67597   -110.01242   0.30553631   -109.70689    7335.8592      4.35289      4.35289      4.35289    7335.8592    31022.543   -8632.6326   -382.33297    1339.8963   -2975.0563   -8299.2033    82.477042 
   89300    422.02886   -110.08917   0.38186058   -109.70731   -4576.1968    4.3611123    4.3611123    4.3611123   -4576.1968    15405.959   -12352.675   -16781.875   -516.35825   -1128.6516    4502.5503    82.945307 
   89400    350.80504   -110.02545   0.31741577   -109.70804    2297.8138    4.3577161    4.3577161    4.3577161    2297.8138    13050.928    983.28265   -7140.7692   -4501.4021   -1409.3975   -525.38849    82.751679 
   89500    474.86128   -110.13632   0.42966446   -109.70665   -3762.2093    4.3563248    4.3563248    4.3563248   -3762.2093    4352.7635   -4376.2128   -11263.179    2563.5281   -4819.7809   -8305.0007    82.672442 
   89600    446.97408   -110.11132   0.40443154   -109.70688   -7218.6514    4.3618717    4.3618717    4.3618717   -7218.6514   -271.87004   -10533.369   -10850.715    3860.4169    4632.0658    5332.8885    82.988642 
   89700     362.9691   -110.03579   0.32842207   -109.70737    1464.2204    4.3551558    4.3551558    4.3551558    1464.2204    6982.5967    3534.6706   -6124.6062   -1916.8171   -1558.9571   -1593.2769    82.605904 
   89800    385.85027   -110.05591   0.34912543   -109.70679   -5039.5526    4.3599907    4.3599907    4.3599907   -5039.5526    10264.569   -14825.031   -10558.196     2214.958   -1173.9304   -2758.5371    82.881323 
   89900    302.05127   -109.98024   0.27330234   -109.70694    1046.8612    4.3591565    4.3591565    4.3591565    1046.8612    21564.033   -12751.543   -5671.9062    7082.7661    5663.5027     3517.428    82.833761 
   90000    372.11391   -110.04374   0.33669648   -109.70704    494.80409    4.3565772    4.3565772    4.3565772    494.80409    14186.073    486.91373   -13188.574   -2606.1519   -1758.3902   -485.30086     82.68681 
   90100    372.28393   -110.04468   0.33685033   -109.70783    432.55427    4.3584511    4.3584511    4.3584511    432.55427    21107.644   -10576.372   -9233.6087    2063.1618   -5054.6362    957.08014    82.793557 
   90200    487.28804   -110.14854   0.44090846   -109.70764   -4768.0337    4.3594638    4.3594638    4.3594638   -4768.0337    46.845667   -6316.8986   -8034.0482    2161.2703    2262.2284    2968.6194    82.851278 
   90300    544.64138   -110.19925   0.49280296   -109.70645   -4628.2425     4.359103     4.359103     4.359103   -4628.2425    1525.0544   -48.458902   -15361.323   -3035.2536   -5113.1849   -427.46203    82.830714 
   90400    446.32482   -110.11158   0.40384408   -109.70774    -3004.846    4.3571158    4.3571158    4.3571158    -3004.846    1142.4661   -4788.6684   -5368.3358    1562.4843   -4983.0869   -153.68464    82.717484 
   90500    431.07215   -110.09847   0.39004314   -109.70843   -3134.9162    4.3597201    4.3597201    4.3597201   -3134.9162    7100.2974   -3166.4455     -13338.6    5339.7975    170.80803    6264.0514    82.865896 
   90600    410.04387    -110.0786   0.37101631   -109.70758    3813.7964    4.3585797    4.3585797    4.3585797    3813.7964    26261.747   -6459.6489   -8360.7094   -3195.5569   -3817.9677    1480.6596    82.800884 
   90700    266.83397   -109.95063   0.24143698    -109.7092    3113.8059    4.3569832    4.3569832    4.3569832    3113.8059    18105.131   -2957.3712   -5806.3416    2250.9947   -1166.3827   -2778.6443    82.709933 
   90800    322.02448   -109.99997   0.29137451   -109.70859   -1998.7183    4.3602863    4.3602863    4.3602863   -1998.7183    12408.895   -7518.8126   -10886.238    9850.8905    1530.1821    7176.5791    82.898187 
   90900    477.05931   -110.13766   0.43165329   -109.70601   -710.50504    4.3599315    4.3599315    4.3599315   -710.50504    8861.8367   -8110.3168    -2883.035   -3710.8683    3511.6418   -355.61109    82.877949 
   91000      389.062   -110.05964   0.35203148   -109.70761    116.41234    4.3552548    4.3552548    4.3552548    116.41234   -3618.5033    8145.9361   -4178.1958    5034.4101   -5621.0728   -2806.8191    82.611536 
   91100    412.43305   -110.08279   0.37317809   -109.70961   -5629.7099    4.3619089    4.3619089    4.3619089   -5629.7099    417.31008   -10407.485    -6898.955    5525.7723    2542.1495    5327.3849    82.990766 
   91200    515.28492    -110.1739   0.46624062   -109.70766    4215.4089    4.3566393    4.3566393    4.3566393    4215.4089     12168.42   -457.32625    935.13311    -4942.729   -3570.9093   -3136.1782     82.69035 
   91300    348.89297   -110.02545   0.31568569   -109.70976    7493.8749    4.3553252    4.3553252    4.3553252    7493.8749    25977.301    2837.1639   -6332.8401    197.20319   -7975.3244     1498.532    82.615541 
   91400    270.80038   -109.95615   0.24502588   -109.71113   -5039.3734    4.3663637    4.3663637    4.3663637   -5039.3734    14147.569   -25927.904   -3337.7851     8202.603   -604.43343     5480.256    83.245298 
   91500    441.56024   -110.10578   0.39953299   -109.70624    15849.305     4.346314     4.346314     4.346314    15849.305    31338.945    4216.7335    11992.237   -1607.1603   -5472.0523   -3359.3486    82.103807 
   91600    389.81446   -110.06124   0.35271232   -109.70852   -11804.893      4.36867      4.36867      4.36867   -11804.893   -628.74735   -21298.335   -13487.598   -102.38169   -3048.6611    1416.1923    83.377279 
   91700    303.35656    -109.9828   0.27448339   -109.70832   -1243.1319    4.3551696    4.3551696    4.3551696   -1243.1319    2739.7964   -17954.226    11485.034    13604.632    148.81903    7146.1689    82.606689 
   91800     538.2604   -110.19272   0.48702932   -109.70569    479.63291    4.3564145    4.3564145    4.3564145    479.63291    9033.1997   -6174.7882   -1419.5128   -980.37747    1279.3882   -19.856675    82.677547 
   91900    402.72394   -110.07173   0.36439309   -109.70734   -3140.6344    4.3641907    4.3641907    4.3641907   -3140.6344    10361.717   -11725.868   -8057.7523    594.26089    2414.7155    641.93168    83.121076 
   92000    273.38295   -109.95681   0.24736264   -109.70945    1572.3143    4.3562962    4.3562962    4.3562962    1572.3143    17823.835   -13056.965   -49.926466    10773.237    2035.2963    7193.3905    82.670811 
   92100     555.8283   -110.20956   0.50292513   -109.70664    2570.1962    4.3566435    4.3566435    4.3566435    2570.1962     16933.62    1208.0624   -10431.094   -1585.3302    2459.0342    862.92187    82.690587 
   92200    364.04016    -110.0385   0.32939119   -109.70911   -5143.0976    4.3652682    4.3652682    4.3652682   -5143.0976    7871.1343   -11386.894   -11913.533   -477.95745   -4657.7171    2846.0387    83.182658 
   92300    345.85346   -110.02228   0.31293548   -109.70934   -4934.8922    4.3524988    4.3524988    4.3524988   -4934.8922      -2792.5   -7375.7766   -4636.3998    10371.405    2393.7808    4759.0404    82.454806 
   92400    523.80171   -110.18256   0.47394679   -109.70861   -2958.8506    4.3613146    4.3613146    4.3613146   -2958.8506    4315.1925   -1330.1678   -11861.577    15.247426    1445.4055   -2426.0068     82.95685 
   92500     422.4152   -110.09273   0.38221015   -109.71052   -8568.6683    4.3601602    4.3601602    4.3601602   -8568.6683    -1244.612   -16907.544   -7553.8488    5251.9826    -5605.555    3021.3715    82.890994 
   92600    218.77877   -109.90896   0.19795563     -109.711    1378.7292     4.352725     4.352725     4.352725    1378.7292    22167.329   -12283.623   -5747.5187    10737.414    3899.3448    3719.5632    82.467665 
   92700    492.42921   -110.15241    0.4455603   -109.70685   -4351.0307    4.3663239    4.3663239    4.3663239   -4351.0307    14695.774   -11228.441   -16520.426    1309.3652    3020.1664   -2211.8269    83.243022 
   92800    386.69632   -110.05627   0.34989096   -109.70637    10224.118    4.3513826    4.3513826    4.3513826    10224.118    26548.873    -1439.135    5562.6145    3779.6182    1409.0685    375.96009    82.391385 
   92900     336.7207   -110.01373   0.30467197   -109.70906   -11225.619    4.3633372    4.3633372    4.3633372   -11225.619   -3697.6167   -18990.472   -10988.767     8262.308    4533.9801    4387.9394     83.07232 
   93000    514.99397    -110.1725   0.46597737   -109.70652    5775.8297    4.3565131    4.3565131    4.3565131    5775.8297    5689.4326    6272.7036    5365.3528   -2213.8579    4386.3633   -665.54836    82.683161 
   93100    498.58319   -110.15856   0.45112855   -109.70743   -3888.5791    4.3592913    4.3592913    4.3592913   -3888.5791    5175.4483   -15052.325   -1788.8608    1321.0447     960.1531    334.50886    82.841447 
   93200    265.43144   -109.95047   0.24016795    -109.7103    2142.7159    4.3551904    4.3551904    4.3551904    2142.7159    13493.852   -9733.0885     2667.384    10585.801   -2233.8826    4232.5462    82.607872 
   93300    419.32428   -110.08678   0.37941342   -109.70737   -2145.0048    4.3662747    4.3662747    4.3662747   -2145.0048    8579.1516     -7215.24    -7798.926   -2900.5069    3810.8201   -1971.7283    83.240208 
   93400     421.2576   -110.08688   0.38116273   -109.70571    13999.849    4.3473004    4.3473004    4.3473004    13999.849    28091.498    2725.6465    11182.401    3631.0328   -6455.0266    4230.3358    82.159722 
   93500     241.2771   -109.92828   0.21831259   -109.70997   -6544.2133    4.3648329    4.3648329    4.3648329   -6544.2133    5907.4677   -16080.815   -9459.2925    8888.3508    1175.5329    3477.1501    83.157776 
   93600    463.35269    -110.1264   0.41925125   -109.70715    1717.2301       4.3547       4.3547       4.3547    1717.2301   -7.9930531    6903.4432   -1743.7598   -3181.2196    7982.6744    -1066.582    82.579969 
   93700    506.95433   -110.16569   0.45870293   -109.70699    -2614.002    4.3572498    4.3572498    4.3572498    -2614.002    3140.6917   -4585.8457   -6396.8519    1345.7414   -1347.4785    5298.9801    82.725116 
   93800    360.24831   -110.03501   0.32596024   -109.70904   -4934.5914    4.3589026    4.3589026    4.3589026   -4934.5914   -13181.213    1221.5527   -2844.1136     10172.81    2443.8308    3292.1805    82.819291 
   93900    447.72457   -110.11329    0.4051106   -109.70818   -3543.9379    4.3588953    4.3588953    4.3588953   -3543.9379   -2370.8517    2373.8379     -10634.8   -1867.2745    6545.3915    -1344.755    82.818873 
   94000    434.15643   -110.10013   0.39283386   -109.70729    8001.5524    4.3543038    4.3543038    4.3543038    8001.5524    19010.875    2132.5745    2861.2073   -3206.8608    1311.0957   -34.280229    82.557432 
   94100    318.99438   -109.99802   0.28863281   -109.70938    -3307.554    4.3612786    4.3612786    4.3612786    -3307.554    11771.128   -10273.573   -11420.217    9711.1399   -1567.1182    2845.5672    82.954792 
   94200    334.16957   -110.01108   0.30236365   -109.70872    1286.0037    4.3572031    4.3572031    4.3572031    1286.0037    12645.329   -5397.5682   -3389.7496   -2058.7615    5988.7322   -2472.8318    82.722452 
   94300    476.47467   -110.13859   0.43112429   -109.70746    1694.4104    4.3568852    4.3568852    4.3568852    1694.4104    14081.064   -5643.5682   -3354.2645    1969.0643   -747.75825   -160.78014     82.70435 
   94400    348.60961   -110.02386    0.3154293   -109.70843   -310.71177    4.3609387    4.3609387    4.3609387   -310.71177   -293.07199   -1612.2996    973.23624    7683.3714   -462.60936    2444.7635    82.935402 
   94500      452.284   -110.11584   0.40923606    -109.7066    433.82089     4.354878     4.354878     4.354878    433.82089    1454.0847    61.919404   -214.54141   -265.98543    9459.4328   -1387.5765    82.590096 
   94600    426.08149   -110.09244   0.38552748   -109.70691    851.65466    4.3608193    4.3608193    4.3608193    851.65466    12804.835   -3317.3156    -6932.555    -467.7302   -894.21555    3597.0315     82.92859 
   94700    421.92866   -110.08912   0.38176992   -109.70735    2984.8209    4.3552219    4.3552219    4.3552219    2984.8209    6848.2598   -1283.1539    3389.3569    3909.5787    4805.0947    499.13111    82.609665 
   94800    295.28698   -109.97545   0.26718187   -109.70827    2860.6893     4.360114     4.360114     4.360114    2860.6893    22347.511   -4533.4702   -9231.9728   -1229.1163    10677.814   -979.27709    82.888355 
   94900    498.58297   -110.15769   0.45112835   -109.70656    2324.1844    4.3546734    4.3546734    4.3546734    2324.1844    11051.067    -121.2072   -3957.3067   -3641.4646   -1799.9687    4088.2652    82.578459 
   95000    348.35717   -110.02319   0.31520089   -109.70799    -192.7842    4.3611061    4.3611061    4.3611061    -192.7842    7126.5804   -6157.8368   -1547.0962    5054.1645   -353.90334      1196.07    82.944951 
   95100    469.23122    -110.1317   0.42457027   -109.70713   -4774.1633     4.353942     4.353942     4.353942   -4774.1633   -3963.5145    995.75898   -11354.735     53.25017    10019.989    905.91083    82.536855 
   95200    379.66599   -110.05229   0.34352977   -109.70876   -2187.9806    4.3592833    4.3592833    4.3592833   -2187.9806    7862.1349   -4795.6372   -9630.4394   -2062.1035   -424.06155    856.65958    82.840988 
   95300    413.72341   -110.08264   0.37434564   -109.70829   -4542.7765    4.3604683    4.3604683    4.3604683   -4542.7765    6442.6045   -13418.984   -6651.9498    5948.6044    148.89586    1898.7097    82.908564 
   95400    361.79602   -110.03512   0.32736064   -109.70776    5408.4652    4.3536426    4.3536426    4.3536426    5408.4652    18985.013    5310.7566   -8070.3736   -1815.5522     11433.26    194.25441    82.519827 
   95500    405.86647   -110.07453   0.36723651   -109.70729   -63.369342    4.3599538    4.3599538    4.3599538   -63.369342    10068.703   -5224.8083   -5034.0032   -1167.9179    1140.2907   -956.11785    82.879221 
   95600    416.44815   -110.08398   0.37681104   -109.70717   -3917.6997    4.3603394    4.3603394    4.3603394   -3917.6997    2881.7147   -8498.0791   -6136.7347    8371.5738     3473.931    1575.0277    82.901212 
   95700    431.62652   -110.09782   0.39054475   -109.70727    1285.1343    4.3522769    4.3522769    4.3522769    1285.1343    239.76519    8197.2633   -4581.6257    -2517.623    14061.804   -2227.3859    82.442194 
   95800    419.62674   -110.08795   0.37968709   -109.70826   -1725.0077    4.3609636    4.3609636    4.3609636   -1725.0077    2380.7498   -10386.866    2831.0927   -4468.9213   -620.91045    1474.4584    82.936823 
   95900    366.11226    -110.0402   0.33126606   -109.70893   -724.82991    4.3580245    4.3580245    4.3580245   -724.82991    10875.983   -9877.6995   -3172.7733    5172.7986   -1645.5226    2439.0028    82.769246 
   96000    354.86623   -110.02938   0.32109042   -109.70829     6834.364    4.3530173    4.3530173    4.3530173     6834.364     10852.07     887.5082    8763.5133   -602.39983    9736.6038    -2924.116    82.484279 
   96100    301.74791   -109.98153   0.27302785    -109.7085    2775.9166    4.3631224    4.3631224    4.3631224    2775.9166    28163.068   -10715.642   -9119.6763   -3513.9659   -4154.7654     3215.931     83.06005 
   96200    434.55671   -110.10174   0.39319604   -109.70855    2632.2805    4.3517095    4.3517095    4.3517095    2632.2805    11982.842   -3385.1053   -700.89489    2294.8642   -1988.2939    3086.8364    82.409957 
   96300    388.60655   -110.06138   0.35161937   -109.70976   -2961.1015    4.3615567    4.3615567    4.3615567   -2961.1015    7443.2935   -7731.1148   -8595.4833    3115.4284    9194.1065   -282.60362    82.970667 
   96400    520.78284   -110.17838   0.47121526   -109.70717   -2322.9326    4.3564656    4.3564656    4.3564656   -2322.9326   -2032.6905   -1227.5651   -3708.5424   -5245.2437    3341.1082    4018.2379    82.680455 
   96500    423.81251   -110.09084   0.38347446   -109.70737   -1064.1868    4.3571567    4.3571567    4.3571567   -1064.1868    9124.9378   -6399.8787   -5917.6194    4260.7035    -1149.871    1879.1976    82.719813 
   96600    435.56828   -110.10143   0.39411133   -109.70732   -1921.4208    4.3590635    4.3590635    4.3590635   -1921.4208    4865.0271   -3225.1081   -7404.1814    4418.7357    7965.5543   -881.62393    82.828458 
   96700    379.63852   -110.05062   0.34350491   -109.70711    1539.7647    4.3584318    4.3584318    4.3584318    1539.7647    18528.664   -3803.0317   -10106.338   -5171.9959    284.21159    4691.1268    82.792456 
   96800    361.01652   -110.03387   0.32665533   -109.70721    2294.6018     4.354465     4.354465     4.354465    2294.6018    13241.258   -5586.4454   -771.00685    5175.5861   -4890.4463    1724.9271    82.566605 
   96900    381.19151   -110.05303   0.34491009   -109.70812   -8582.8025    4.3623235    4.3623235    4.3623235   -8582.8025   -2986.7276   -9973.5051   -12788.175   -619.08427    9900.3556   -2678.0086    83.014431 
   97000    340.86037   -110.01648   0.30841762   -109.70806    6205.6585    4.3521844    4.3521844    4.3521844    6205.6585    8150.4434     350.6473    10115.885   -2020.8507   -3037.1616    3973.1615    82.436938 
   97100    435.97644   -110.10316   0.39448065   -109.70867   -6977.6755    4.3612528    4.3612528    4.3612528   -6977.6755   -1059.4172   -12059.294    -7814.315    208.24825   -1749.4996   -581.71403    82.953322 
   97200    364.73097   -110.03876   0.33001625   -109.70875   -880.27933    4.3579534    4.3579534    4.3579534   -880.27933    1537.8509   -857.94241   -3320.7465    108.61869    12174.323   -869.99911    82.765197 
   97300    463.75756   -110.12713   0.41961759   -109.70751    899.55641     4.353642     4.353642     4.353642    899.55641    10260.664   -4032.4995   -3529.4956    501.15214    141.00202    4436.5866    82.519794 
   97400    340.30669   -110.01593   0.30791665   -109.70801    190.31413    4.3631218    4.3631218    4.3631218    190.31413    17831.295   -11355.516   -5904.8363    1286.5659   -2598.3066   -1867.9403    83.060016 
   97500    474.13905   -110.13547   0.42901098   -109.70646    1180.5396    4.3532535    4.3532535    4.3532535    1180.5396    1491.9749    156.35887    1893.2849    3954.5216     9266.518    662.36786    82.497709 
   97600    393.79971   -110.06364   0.35631825   -109.70732    1330.8051    4.3595129    4.3595129    4.3595129    1330.8051    18439.064   -9896.7852   -4549.8639   -1124.4547   -942.85505    3898.0834    82.854082 
   97700    451.75983   -110.11611   0.40876179   -109.70735   -5991.8989      4.35851      4.35851      4.35851   -5991.8989   -7132.7036   -9054.2294   -1788.7637    3551.2775   -7515.0293   -844.06462    82.796909 
   97800     333.2265   -110.00945   0.30151034   -109.70794    1059.6525    4.3559711    4.3559711    4.3559711    1059.6525     -208.613    -3830.874    7218.4444    4648.8018    5286.4229    31.214928    82.652303 
   97900    454.04973    -110.1174   0.41083374   -109.70657    -5430.794    4.3601998    4.3601998    4.3601998    -5430.794    1898.7253   -11320.648   -6870.4592    -3334.368     3851.577    4538.3726    82.893253 
   98000    273.86546   -109.95625   0.24779923   -109.70845    4133.9507    4.3576047    4.3576047    4.3576047    4133.9507    11410.904   -9425.4891    10416.438    1696.5885   -3863.7324    624.19942     82.74533 
   98100    374.67318   -110.04765   0.33901217   -109.70864    2055.3797    4.3552056    4.3552056    4.3552056    2055.3797    12245.963   -845.35164   -5234.4719     1669.218    6659.1524    368.76497     82.60874 
   98200    358.81379   -110.03336   0.32466225    -109.7087    253.65157    4.3624995    4.3624995    4.3624995    253.65157    16373.904   -10155.058   -5457.8914   -5608.3417    5762.0544    5726.0147    83.024483 
   98300    391.60605   -110.06254   0.35433338    -109.7082    6148.9016    4.3534547    4.3534547    4.3534547    6148.9016    13884.243    1576.7128    2985.7492    856.62536   -4723.0446   -1218.5743    82.509148 
   98400    432.09985   -110.09879   0.39097303   -109.70782   -2233.4725    4.3617218    4.3617218    4.3617218   -2233.4725   -2602.5129    -4458.649    360.74443    1791.0345    3273.2743    238.65395    82.980085 
   98500    453.30312   -110.11646   0.41015819    -109.7063   -578.23852     4.358054     4.358054     4.358054   -578.23852    5044.6138   -4068.3008   -2711.0286   -2238.3953    2936.2089    6783.7483     82.77093 
   98600    468.62847   -110.13005   0.42402489   -109.70602   -1512.4711    4.3563094    4.3563094    4.3563094   -1512.4711   -6498.8448      689.259    1272.1724    1039.0776   -7029.2703    -1897.857    82.671566 
   98700    337.42559    -110.0128   0.30530976   -109.70749    -4254.309    4.3623151    4.3623151    4.3623151    -4254.309    2205.6231    -8628.146    -6340.404     3045.381    1115.2654   -75.295557    83.013953 
   98800    434.08627   -110.09867   0.39277038    -109.7059    2148.2074    4.3532251    4.3532251    4.3532251    2148.2074    10137.425    1885.0464   -5577.8491    2867.9972    2874.4652    3326.3047    82.496091 
   98900    303.44659   -109.98236   0.27456485   -109.70779     1962.567    4.3622235    4.3622235    4.3622235     1962.567    18978.004   -6823.2792   -6267.0241    1648.3248   -4391.9349   -1709.1983    83.008725 
   99000    349.33161   -110.02433   0.31608258   -109.70824    4747.4828     4.355115     4.355115     4.355115    4747.4828    7783.5785   -1117.1573    7576.0271    5947.5669      2870.77   -437.39091    82.603583 
   99100    400.57577   -110.07021   0.36244937   -109.70776    -972.5335    4.3595379    4.3595379    4.3595379    -972.5335    13377.424   -7781.4891   -8513.5354   -775.21756    7078.9978    4318.0781    82.855508 
   99200    466.75042   -110.12879   0.42232558   -109.70647     837.2536    4.3580424    4.3580424    4.3580424     837.2536    2952.7253   -4142.2379    3701.2733   -1378.2043   -2526.7482   -2641.2782    82.770265 
   99300    433.88704   -110.10072   0.39259011   -109.70812   -7244.6248    4.3592803    4.3592803    4.3592803   -7244.6248   -12345.598   -6051.3846   -3336.8919    2928.0494   -256.34636   -164.58085    82.840821 
   99400    416.98576   -110.08502   0.37729748   -109.70773    2555.2332    4.3547394    4.3547394    4.3547394    2555.2332    10535.991   -4062.9264    1192.6353    -3482.482    2811.1741    9661.9158     82.58221 
   99500    522.16326   -110.17917   0.47246429   -109.70671   -8821.9197    4.3636281    4.3636281    4.3636281   -8821.9197   -7386.0232   -13145.335   -5934.4004   -742.80271   -8543.5859   -2127.7006    83.088935 
   99600     251.9829   -109.93726   0.22799943   -109.70926    5217.6801    4.3524457    4.3524457    4.3524457    5217.6801    19148.897   -3318.8472   -177.00953    1156.0747   -4950.4013    1810.6119    82.451787 
   99700    354.31421   -110.02948   0.32059094   -109.70889   -7809.8801    4.3617966    4.3617966    4.3617966   -7809.8801    11835.095   -16486.316    -18778.42   -319.10134    4911.8749    9218.9425    82.984356 
   99800     387.5744   -110.05688   0.35068546   -109.70619    319.73651     4.358131     4.358131     4.358131    319.73651    17539.016   -7884.0321   -8695.7746    2851.9185   -5515.4693   -1540.8341    82.775317 
   99900    353.80267   -110.02848   0.32012809   -109.70835   -4879.7859    4.3564489    4.3564489    4.3564489   -4879.7859    1601.2518   -512.37206   -15728.237    2501.5735    -1056.883    5803.8433    82.679507 
  100000    377.62217   -110.05038   0.34168047    -109.7087   -2541.8633    4.3594754    4.3594754    4.3594754   -2541.8633    12223.139   -10211.436   -9637.2925    1849.0911    8727.4816    6707.1332    82.851943 
Loop time of 22.6714 on 1 procs for 100000 steps with 8 atoms

Pair  time (%) = 7.07949 (31.2266)
Kspce time (%) = 5.51478 (24.3249)
Neigh time (%) = 0 (0)
Comm  time (%) = 1.12612 (4.96715)
Outpt time (%) = 0.0255401 (0.112654)
Other time (%) = 8.92543 (39.3687)

Nlocal:    8 ave 8 max 8 min
Histogram: 1 0 0 0 0 0 0 0 0 0
Nghost:    2189 ave 2189 max 2189 min
Histogram: 1 0 0 0 0 0 0 0 0 0
Neighs:    2056 ave 2056 max 2056 min
Histogram: 1 0 0 0 0 0 0 0 0 0

Total # of neighbors = 2056
Ave neighs/atom = 257
Neighbor list builds = 0
Dangerous builds = 0
unfix 20
unfix 21
print "seeds:6005721"
seeds:6005721
