LAMMPS (10 Feb 2015)
# ---- initialize simulations
clear
units metal
dimension 3
boundary p p p
atom_style charge
atom_modify map array
# ---- create atoms
read_data /Users/eugeneragasa/pyflamestk_git/pypospack/tests/tests_integration/workflow/WorkflowLammpsThermalExpansion/param_4927/MgO_NaCl_unit.npt.T1500/lammps.structure
  triclinic box = (0 0 0) to (4.2565 4.2565 4.2565) with tilt (0 0 0)
  1 by 1 by 1 MPI processor grid
  reading atoms ...
  8 atoms
# ---- define interatomic potential
include potential.mod
mass 1 24.305
mass 2 15.999

group Mg type 1
4 atoms in group Mg
group O type 2
4 atoms in group O

set group Mg charge 1.66679564584
  4 settings made for charge
set group O charge -1.66679564584
  4 settings made for charge

variable R_cut equal 10.0

pair_style buck/coul/long ${R_cut}
pair_style buck/coul/long 10
pair_coeff 1 1 0.0 0.5 0.0 ${R_cut}
pair_coeff 1 1 0.0 0.5 0.0 10
pair_coeff 1 2 1241.53975785 0.290586946924 0.0 ${R_cut}
pair_coeff 1 2 1241.53975785 0.290586946924 0.0 10
pair_coeff 2 2 7336.97641517 0.111647641293 25.3936876208 ${R_cut}
pair_coeff 2 2 7336.97641517 0.111647641293 25.3936876208 10

kspace_style pppm 1.0e-5

neighbor 1.0 bin
neigh_modify every 1 delay 0 check yes
# ---- define settings
compute eng all pe/atom
compute eatoms all reduce sum c_eng
# ---- run minimization
reset_timestep 0
fix 1 all box/relax iso 0.0 vmax 0.001
thermo 10
thermo_style custom step pe lx ly lz xy xz yz press pxx pyy pzz pxy pxz pyz c_eatoms
min_style cg
minimize 1e-25 1e-25 5000 10000
PPPM initialization ...
  G vector (1/distance) = 0.352901
  grid = 8 8 8
  stencil order = 5
  estimated absolute RMS force accuracy = 3.98348e-05
  estimated relative force accuracy = 2.76637e-06
  using double precision FFTs
  3d grid and FFT values/proc = 3375 512
Neighbor list info ...
  1 neighbor list requests
  update every 1 steps, delay 0 steps, check yes
  master list distance cutoff = 11
Memory usage per processor = 4.06549 Mbytes
Step PotEng Lx Ly Lz Xy Xz Yz Press Pxx Pyy Pzz Pxy Pxz Pyz eatoms 
       0    -112.5899       4.2565       4.2565       4.2565            0            0            0    58061.201    58061.201    58061.201    58061.201 6.8070985e-11 -1.221979e-10 1.2952011e-11    -112.5899 
      10   -112.63526     4.299065     4.299065     4.299065            0            0            0    6762.9013    6762.9013    6762.9013    6762.9013 -3.6532134e-11 6.5076144e-11 2.4224675e-10   -112.63526 
      13     -112.636    4.3051131    4.3051131    4.3051131            0            0            0   -6.5125139   -6.5125139   -6.5125139   -6.5125139 2.4815902e-11 -1.1583773e-10 3.0521581e-11     -112.636 
Loop time of 0.0112751 on 1 procs for 13 steps with 8 atoms

Minimization stats:
  Stopping criterion = linesearch alpha is zero
  Energy initial, next-to-last, final = 
        -112.589903458     -112.636003249     -112.636003249
  Force two-norm initial, final = 8.38407 0.00186563
  Force max component initial, final = 8.38407 0.000962014
  Final line search alpha, max atom move = 0.00390625 3.75787e-06
  Iterations, force evaluations = 13 30

Pair  time (%) = 0.00299168 (26.5336)
Kspce time (%) = 0.00183225 (16.2504)
Neigh time (%) = 0 (0)
Comm  time (%) = 0.0003438 (3.04921)
Outpt time (%) = 1.40667e-05 (0.124759)
Other time (%) = 0.00609326 (54.042)

Nlocal:    8 ave 8 max 8 min
Histogram: 1 0 0 0 0 0 0 0 0 0
Nghost:    2189 ave 2189 max 2189 min
Histogram: 1 0 0 0 0 0 0 0 0 0
Neighs:    2344 ave 2344 max 2344 min
Histogram: 1 0 0 0 0 0 0 0 0 0

Total # of neighbors = 2344
Ave neighs/atom = 293
Neighbor list builds = 0
Dangerous builds = 0
unfix 1
# ---- define output variables ----
variable natoms equal "count(all)"
variable tot_energy equal "c_eatoms"
variable length_x equal "lx"
variable length_y equal "ly"
variable length_z equal "lz"
variable tilt_xy equal "xy"
variable tilt_xz equal "xz"
variable tilt_yz equal "yz"
variable tot_press equal "press"
variable press_xx equal "pxx"
variable press_yy equal "pyy"
variable press_zz equal "pzz"
variable press_xy equal "pxy"
variable press_xz equal "pxz"
variable press_yz equal "pyz"

# ---- output ----
print "pypospack:output_section:begin"
pypospack:output_section:begin
print "tot_energy = ${tot_energy}"
tot_energy = -112.63600324896
print "num_atoms = ${natoms}"
num_atoms = 8
print "xx = ${length_x}"
xx = 4.30511307073731
print "yy = ${length_y}"
yy = 4.30511307073731
print "zz = ${length_z}"
zz = 4.30511307073731
print "xy = ${tilt_xy}"
xy = 0
print "xz = ${tilt_xz}"
xz = 0
print "yz = ${tilt_yz}"
yz = 0
print "tot_press = ${tot_press}"
tot_press = -6.51251387968517
print "pxx = ${press_xx}"
pxx = -6.51251387980119
print "pyy = ${press_yy}"
pyy = -6.51251387961014
print "pzz = ${press_zz}"
pzz = -6.51251387964418
print "pxy = ${press_xy}"
pxy = 2.48159019880152e-11
print "pxz = ${press_xz}"
pxz = -1.15837732664817e-10
print "pyz = ${press_yz}"
pyz = 3.05215812050655e-11
print "pypospack:output_section:done"
pypospack:output_section:done
print "pypospack:lammps_sim:done"
pypospack:lammps_sim:done
#------------------------------------------------------------------------------
# RUN THERMOSTAT
# running using an NPT Nose-Hoover style thermostat
#------------------------------------------------------------------------------
variable tempdamp equal 0.1
variable pressdamp equal 1.0
# set initial velocities
velocity all create 1500 9485422 mom yes dist gaussian loop all
# fix for Nose-Hoover style thermostat
fix 20 all npt temp 1500 1500 0.1 aniso 0.0 0.0 1.0 drag 1.0 couple xyz
variable boxx equal lx
variable boxy equal ly
variable boxz equal lz
variable boxp equal press
variable boxt equal temp
# calculate averages every 10000 steps
reset_timestep 0
fix 21 all ave/time 10 10 100 v_boxx v_boxy v_boxz v_boxp v_boxt file lattice.out
thermo_style custom step temp pe ke etotal press lx ly lz press pxx pyy pzz pxy pxz pyz vol
thermo_modify flush yes
thermo 100
run 100000
PPPM initialization ...
  G vector (1/distance) = 0.352409
  grid = 8 8 8
  stencil order = 5
  estimated absolute RMS force accuracy = 4.075e-05
  estimated relative force accuracy = 2.82993e-06
  using double precision FFTs
  3d grid and FFT values/proc = 3375 512
Memory usage per processor = 3.06549 Mbytes
Step Temp PotEng KinEng TotEng Press Lx Ly Lz Press Pxx Pyy Pzz Pxy Pxz Pyz Volume 
       0         1500   -112.63601    1.3572315   -111.27878    18160.519    4.3051131    4.3051131    4.3051131    18160.519    6711.4663    22987.333    24782.759   -6028.9927    289.96067    11709.076    79.790959 
     100    521.13767   -111.58095   0.47153631   -111.10942    30293.867     4.340575     4.340575     4.340575    30293.867   -26356.505    64980.461    52257.646    5067.2491   -8264.7369   -8431.2142    81.779001 
     200    961.22257   -111.61827   0.86973438   -110.74854    -31727.13    4.3911546    4.3911546    4.3911546    -31727.13   -70051.845    16419.136   -41548.682    4910.9374   -2968.1886    6071.6339    84.671293 
     300    1159.1732   -111.45447    1.0488443   -110.40562   -10130.014    4.3891994    4.3891994    4.3891994   -10130.014   -45211.845    64123.189   -49301.387   -2382.9518   -639.71242    -9677.783    84.558242 
     400    1203.2896   -111.23189    1.0887617   -110.14313    29884.266    4.3601986    4.3601986    4.3601986    29884.266   -38854.236    1060.8425    127446.19    8874.9602    10310.449   -17429.903    82.893185 
     500     1953.247   -111.75588    1.7673389   -109.98854   -3770.8198    4.3701427    4.3701427    4.3701427   -3770.8198   -46770.874    19183.391    16275.023    6228.9836    1241.8447    9255.8831    83.461629 
     600    1454.2636   -111.22291    1.3158483   -109.90706   -5886.2614    4.3981788    4.3981788    4.3981788   -5886.2614   -56995.442    16868.448     22468.21     7549.529    -4120.826    7816.9894    85.078266 
     700    1270.2236   -110.99474     1.149325   -109.84541   -22990.951    4.4087397    4.4087397    4.4087397   -22990.951   -79602.014    40014.558   -29385.398    4648.1845     3679.889    24818.834    85.692608 
     800    1783.2904   -111.44714    1.6135586   -109.83358   -8265.8966    4.3964494    4.3964494    4.3964494   -8265.8966    -50798.83     27588.39    -1587.249   -1208.3217    3598.8171   -14252.395    84.977947 
     900    1726.1124   -111.40014    1.5618228   -109.83831    13563.599    4.3750762    4.3750762    4.3750762    13563.599   -23116.797    6953.0834    56854.509     3571.055    -16437.03    4689.3747    83.744612 
    1000    1014.6708   -110.79568   0.91809544   -109.87759    16055.224    4.3790193    4.3790193    4.3790193    16055.224   -24926.861     33897.29    39195.242   -5086.1499    21553.787   -11310.326    83.971245 
    1100    1418.0533   -111.16601    1.2830845   -109.88293   -19263.072    4.4002136    4.4002136    4.4002136   -19263.072   -33846.879   -3245.7801   -20696.556   -2027.8674      4673.17   -4785.3419    85.196405 
    1200    1834.9479   -111.51149    1.6602995   -109.85119   -35608.817    4.4079888    4.4079888    4.4079888   -35608.817   -50916.267   -31302.454    -24607.73   -14058.952   -15891.362    3582.7662     85.64883 
    1300    1723.0026   -111.39644    1.5590089   -109.83743   -1455.3781    4.3839602    4.3839602    4.3839602   -1455.3781     2895.153   -35998.122    28736.835   -3294.3558    24241.531    23507.805    84.255801 
    1400    1463.5663   -111.18292    1.3242655   -109.85866    13389.493     4.370788     4.370788     4.370788    13389.493    58862.864    12576.361   -31270.747    6247.3343   -18673.828     6541.017    83.498606 
    1500    1498.2686    -111.2499    1.3556649   -109.89424   -37481.996    4.3915306    4.3915306    4.3915306   -37481.996   -31953.189   -54500.808    -25991.99   -2913.6758    7806.8206    11631.952    84.693045 
    1600    1682.9263   -111.39699    1.5227471   -109.87424   -10585.039    4.3989209    4.3989209    4.3989209   -10585.039    774.67616   -41732.449    9202.6554    5246.9763    2549.4602     19115.07    85.121342 
    1700    2017.8425   -111.68131    1.8257863   -109.85552   -33221.758    4.3971925    4.3971925    4.3971925   -33221.758   -21429.576   -44178.723   -34056.974   -15957.385   -8126.9453   -11102.025    85.021046 
    1800    1010.4921   -110.77289   0.91431446   -109.85858    8220.3652    4.3842934    4.3842934    4.3842934    8220.3652    36370.622   -19548.948    7839.4215   -1879.8511    16991.797   -12129.384    84.275015 
    1900    1400.9468   -111.13279    1.2676061   -109.86518   -6330.1228    4.3652841    4.3652841    4.3652841   -6330.1228    2972.1295   -6967.8888   -14994.609   -19251.952    8030.7344     12810.46     83.18357 
    2000      1467.77   -111.23863    1.3280691   -109.91056   -2100.4972    4.3704166    4.3704166    4.3704166   -2100.4972    18371.726   -36886.185    12212.967   -2263.2155   -11131.118   -16015.578    83.477323 
    2100    1864.8134    -111.5916    1.6873223   -109.90428   -29070.305    4.3988661    4.3988661    4.3988661   -29070.305   -11099.597    -64261.98    -11849.34   -9979.2923   -11325.673    11428.382    85.118158 
    2200      1412.18   -111.14446    1.2777702   -109.86669    14248.352    4.3929287    4.3929287    4.3929287    14248.352    11407.029   -15779.241    47117.268   -6436.3979   -1751.4654    2954.8312    84.773957 
    2300    1282.3152   -111.01399    1.1602658   -109.85372    895.13807    4.3834791    4.3834791    4.3834791    895.13807   -9481.5301    -14609.13    26776.074    10645.517   -1663.8628   -4075.6565    84.228064 
    2400    1031.8584    -110.7967   0.93364713   -109.86305    15403.714    4.3898257    4.3898257    4.3898257    15403.714    22403.412    18224.883    5582.8482    18532.561    1723.6145   -7269.3896    84.594444 
    2500    1580.2968   -111.30212    1.4298858   -109.87224   -5917.6993    4.3896423    4.3896423    4.3896423   -5917.6993   -36342.878     -13254.3     31844.08   -13092.483   -40480.702    1024.2774     84.58384 
    2600    1198.0235   -110.95785    1.0839968   -109.87386    37966.013    4.3806259    4.3806259    4.3806259    37966.013    49512.627    23432.061     40953.35    884.14817   -1911.2021    7173.3904    84.063701 
    2700    1548.7163   -111.27172    1.4013111   -109.87041   -649.76019    4.3897792    4.3897792    4.3897792   -649.76019   -23065.672     21904.47   -788.07927   -3618.0208    6848.8451    6748.0776    84.591754 
    2800    1087.2878   -110.84338   0.98380087   -109.85958   -17968.246    4.4057251    4.4057251    4.4057251   -17968.246   -34668.088   -642.28208   -18594.367    -769.6397   -5974.5125    11826.848    85.516949 
    2900    1571.0852   -111.25972    1.4215509   -109.83817     11968.88    4.3941015    4.3941015    4.3941015     11968.88    34509.904    15912.045    -14515.31    8380.2237    7074.0208    13956.538    84.841873 
    3000    1345.7933   -111.07266    1.2177021   -109.85495    27557.146    4.3829392    4.3829392    4.3829392    27557.146   -39140.098    64011.367    57800.167   -7494.9094   -15758.175   -1285.3188    84.196946 
    3100     1652.208   -111.35873    1.4949525   -109.86378    2152.0325    4.3829568    4.3829568    4.3829568    2152.0325   -22273.914    43268.001   -14537.989    10941.295   -11746.544   -198.50358    84.197963 
    3200    962.96431   -110.74218   0.87131035   -109.87087    38933.645    4.3874332    4.3874332    4.3874332    38933.645    39657.613    45104.634    32038.688    307.42543    4916.2832   -7051.9062    84.456201 
    3300    837.66367      -110.63   0.75793569   -109.87206    37960.705    4.3980554    4.3980554    4.3980554    37960.705    40323.573     49513.73    24044.812    3570.3623    7878.9608   -18601.788    85.071106 
    3400    1691.2371   -111.37936    1.5302669    -109.8491   -3259.0663     4.399919     4.399919     4.399919   -3259.0663   -31698.791    43257.097   -21335.505    6078.6635   -11336.573   -6869.3176    85.179295 
    3500    1893.6389   -111.54522    1.7134042   -109.83182   -23775.824    4.3874051    4.3874051    4.3874051   -23775.824   -58558.015   -24378.537     11609.08   -1785.1341   -10777.366   -14125.817    84.454581 
    3600    1506.8361   -111.19585    1.3634169   -109.83243     4887.197    4.3777858    4.3777858    4.3777858     4887.197   -2556.5623    45234.726   -28016.573   -1085.6593   -4688.5308   -16792.187    83.900302 
    3700    1262.9593   -111.00295    1.1427521    -109.8602    535.84924    4.3948555    4.3948555    4.3948555    535.84924    22503.684    3829.3022   -24725.438    7854.1057    7895.4328    3246.0237    84.885554 
    3800    1962.0271   -111.62331    1.7752834   -109.84802   -30594.868    4.3960015    4.3960015    4.3960015   -30594.868   -20528.152   -35485.379   -35771.073    1764.9211   -6588.3042   -6577.0849    84.951976 
    3900     1443.896   -111.15412    1.3064675   -109.84765    16131.756    4.3705061    4.3705061    4.3705061    16131.756   -4033.2131    76970.108   -24541.626      4473.44   -11706.525    2397.1672    83.482452 
    4000    1381.5601   -111.12294    1.2500646   -109.87287   -3074.2657    4.3765704    4.3765704    4.3765704   -3074.2657    40489.056   -1353.5772   -48358.276   -8935.5514   -3692.9534   -3295.1064     83.83044 
    4100    1361.7052   -111.09632    1.2320995   -109.86422   -948.48079    4.3867088    4.3867088    4.3867088   -948.48079    2146.3829    35031.269   -40023.094   -32856.577    6801.0237   -20119.367    84.414375 
    4200    1670.8935   -111.36552    1.5118595   -109.85366   -7665.7999    4.3791376    4.3791376    4.3791376   -7665.7999   -7046.0294   -4114.4713   -11836.899    3377.9079   -1126.1337   -4554.2798    83.978046 
    4300    1544.8997   -111.25467    1.3978577   -109.85681     14627.59     4.374638     4.374638     4.374638     14627.59     34477.33    47056.188   -37650.749   -11805.734   -21504.984   -1894.5684    83.719448 
    4400    1073.4001   -110.84674   0.97123494    -109.8755    2766.7375    4.3812821    4.3812821    4.3812821    2766.7375    12051.741    41385.421    -45136.95   -23509.638    1959.8091   -8857.8036     84.10148 
    4500    1422.3582   -111.16431    1.2869796   -109.87733   -9598.8124    4.3877691    4.3877691    4.3877691   -9598.8124   -5037.9716   -11696.896   -12061.569   -873.88561   -5263.8266    7270.2242    84.475605 
    4600    1825.1304    -111.5129    1.6514163   -109.86148    3205.9265    4.3869532    4.3869532    4.3869532    3205.9265   -12115.633     34571.94   -12838.527     7277.899   -15752.976   -20990.878    84.428485 
    4700     1580.586   -111.28521    1.4301474   -109.85506   -17857.856    4.3819049    4.3819049    4.3819049   -17857.856    6269.2337   -42391.157   -17451.644   -19299.312    7313.7792   -4732.3192    84.137354 
    4800    1176.1003   -110.92688    1.0641602   -109.86272    16862.311    4.3751536    4.3751536    4.3751536    16862.311    9105.8383    11247.435    30233.659    8098.9411    2465.9578    5223.6738    83.749057 
    4900    1979.3012    -111.6575    1.7909134   -109.86659    -37472.53    4.3832564    4.3832564    4.3832564    -37472.53    -28293.62   -19874.382   -64249.588    11520.653    2127.1337    -15136.18    84.215228 
    5000    1432.7213   -111.16883    1.2963563   -109.87247   -5810.6573     4.389472     4.389472     4.389472   -5810.6573   -5181.4972   -10143.302   -2107.1731    -8744.888     11024.98    8087.2031    84.573993 
    5100    1354.0355   -111.08777    1.2251597   -109.86261    15218.434    4.3812591    4.3812591    4.3812591    15218.434   -29801.719    112418.58   -36961.555    8702.1219   -6474.0855   -1880.9723    84.100158 
    5200     1465.142   -111.19802    1.3256913   -109.87233   -19316.799    4.3782735    4.3782735    4.3782735   -19316.799   -18891.167     18131.14   -57190.369   -7876.0307    7875.4741    1956.4948    83.928343 
    5300    1550.2043   -111.28955    1.4026575    -109.8869   -21001.262    4.3915159    4.3915159    4.3915159   -21001.262   -31361.626    25094.868   -56737.027   -7691.9891   -1453.7112    8541.3397    84.692193 
    5400    1352.5892    -111.1074    1.2238511   -109.88355    4276.6838     4.392845     4.392845     4.392845    4276.6838   -20781.958    95551.126   -61939.117    7172.6177    15063.838   -6521.2872    84.769113 
    5500    1408.9394   -111.17347     1.274838   -109.89863    5884.6571    4.3773866    4.3773866    4.3773866    5884.6571   -30909.567     83588.07   -35024.532    -15258.67    9281.4433    3372.6644    83.877351 
    5600    1242.9547   -111.04928    1.1246515   -109.92463    5318.7602    4.3809548    4.3809548    4.3809548    5318.7602    9141.4452    28305.355    -21490.52   -4200.9882   -9876.5706    2619.4461    84.082633 
    5700    1515.5444   -111.29897    1.3712964   -109.92768   -27925.442    4.4002884    4.4002884    4.4002884   -27925.442   -18523.456   -208.10694   -65044.764    7651.4445    2142.2699    11114.933    85.200749 
    5800    1441.7105   -111.19941      1.30449   -109.89492   -9809.9934     4.397622     4.397622     4.397622   -9809.9934    19329.872   -748.54704   -48011.305   -10408.279    6527.1945    7241.9932    85.045962 
    5900     1499.949   -111.22868    1.3571854    -109.8715    24336.748    4.3812149    4.3812149    4.3812149    24336.748    14984.083    112942.34    -54916.18   -4398.7841    7911.2631   -10098.629     84.09761 
    6000    1673.5367   -111.41148    1.5142512   -109.89723   -15368.106    4.3971961    4.3971961    4.3971961   -15368.106    18970.916    2475.8068    -67551.04    19690.592   -4390.1424   -646.18756    85.021253 
    6100    1289.5372   -111.06251    1.1668004    -109.8957   -13114.727    4.4122114    4.4122114    4.4122114   -13114.727    28139.831   -183.10829   -67300.902   -13375.408   -3680.9619   -11986.409    85.895205 
    6200    2009.9326   -111.70281    1.8186293   -109.88418    -4829.736    4.3871024    4.3871024    4.3871024    -4829.736   -13925.812    45922.686   -46486.082    22705.591   -10543.441   -13960.378    84.437102 
    6300     943.3012   -110.75777   0.85351875   -109.90425    43274.239    4.3685673    4.3685673    4.3685673    43274.239    11804.695    148038.42     -30020.4    4460.7429   -3846.2595    13823.079      83.3714 
    6400    1242.2764   -111.07657    1.1240378   -109.95254     23998.62    4.3869163    4.3869163    4.3869163     23998.62    69106.098    34133.111   -31243.349   -7431.4738   -2331.6019   -11882.646    84.426356 
    6500    1698.4316     -111.473    1.5367766   -109.93622   -13681.699    4.3995423    4.3995423    4.3995423   -13681.699   -906.35829   -3527.2566   -36611.481    8.5636176    10711.563   -11507.339    85.157421 
    6600    1595.2603   -111.36697     1.443425   -109.92355   -27524.201    4.3932338    4.3932338    4.3932338   -27524.201   -37740.522    28497.305   -73329.386   -8390.6502    7213.6727     9739.364    84.791621 
    6700    1408.8809   -111.18385     1.274785   -109.90907    25578.997    4.3852313    4.3852313    4.3852313    25578.997    50705.765    91759.049   -65727.821   -6638.9467   -454.50108    1144.7574    84.329109 
    6800     1292.177   -111.08955    1.1691889   -109.92036   -21898.476    4.4001505    4.4001505    4.4001505   -21898.476     27731.41   -9479.3063   -83947.531    1312.6205   -11241.296      12091.5    85.192741 
    6900    1915.1107   -111.62026    1.7328324   -109.88743   -24642.014    4.3972692    4.3972692    4.3972692   -24642.014   -7118.3751   -11697.895   -55109.773    11034.969     2230.365    11589.629    85.025494 
    7000    1019.0504   -110.80386   0.92205826    -109.8818    25471.209    4.3850929    4.3850929    4.3850929    25471.209    41011.564    72226.629   -36824.567   -2946.8742   -1616.2356   -7023.1108    84.321124 
    7100    1250.2183   -111.02066    1.1312238   -109.88944    2328.0867    4.3935869    4.3935869    4.3935869    2328.0867   -36485.102    70741.125   -27271.762    19256.854   -2575.2738   -1144.9609    84.812067 
    7200    1891.5524   -111.59462    1.7115163   -109.88311   -27814.434    4.3989162    4.3989162    4.3989162   -27814.434   -887.68244    -19866.27   -62689.349    543.22721   -7937.5613    12992.388    85.121067 
    7300    1705.0605   -111.42947    1.5427746    -109.8867   -10575.804    4.3807192    4.3807192    4.3807192   -10575.804   -32343.228    52363.733   -51747.915       3489.3   -1981.2235    18374.723    84.069072 
    7400    687.38722   -110.51458    0.6219624   -109.89262    52009.978    4.3659737    4.3659737    4.3659737    52009.978    24193.474     174643.6   -42807.142    23810.824   -15037.783    5571.2338    83.222996 
    7500    1424.4094   -111.21437    1.2888355   -109.92553   -10424.587    4.3904462    4.3904462    4.3904462   -10424.587   -33185.124     67239.04   -65327.678    5938.4489   -4200.0623   -5687.7446     84.63032 
    7600     1518.544   -111.26908    1.3740105   -109.89507   -17784.988    4.4025945    4.4025945    4.4025945   -17784.988   -9208.9384   -6607.9349   -37538.089    1809.8153   -10008.623    984.08751     85.33478 
    7700      1649.52   -111.34658    1.4925203   -109.85406    12244.953    4.3813981    4.3813981    4.3813981    12244.953    7175.4277    41724.717   -12165.286   -13211.575   -11712.192    14813.169    84.108162 
    7800     1235.822   -110.97861    1.1181977   -109.86041    22121.329    4.3788073    4.3788073    4.3788073    22121.329    47859.667    58464.931   -39960.611   -32.908658    2782.9934    10553.768    83.959049 
    7900    1515.9298   -111.24934    1.3716451    -109.8777   -15275.404    4.3882885    4.3882885    4.3882885   -15275.404    10373.725    1671.5226    -57871.46    12910.953   -9835.5152    4199.3178    84.505607 
    8000    2112.8132   -111.77995    1.9117178   -109.86823   -14129.614    4.3891161    4.3891161    4.3891161   -14129.614    25443.059   -26957.714   -40874.187   -8020.5081   -14046.048    15828.778    84.553425 
    8100     1443.382   -111.17142    1.3060024   -109.86542   -17497.265    4.3886418    4.3886418    4.3886418   -17497.265   -15761.844    16416.983   -53146.934    3004.8245   -13164.869    9402.3374    84.526015 
    8200    1289.7384   -111.03132    1.1669824   -109.86433   -2562.0449    4.3841403    4.3841403    4.3841403   -2562.0449    58696.882   -5198.0758   -61184.941    17962.189    15961.872    800.31679    84.266186 
    8300    1513.0896   -111.24619    1.3690753   -109.87711   -2314.4967    4.3804642    4.3804642    4.3804642   -2314.4967    31167.796    2428.7554   -40540.041   -12141.301    5046.1019    17808.824    84.054393 
    8400    1542.8138   -111.28553    1.3959704   -109.88956    21313.617    4.3803501    4.3803501    4.3803501    21313.617    66802.281    24302.222   -27163.651   -10417.499   -17039.769   -4212.3645    84.047821 
    8500    1741.4186   -111.47346    1.5756721   -109.89779   -32266.028    4.3990629    4.3990629    4.3990629   -32266.028   -752.68639   -39682.347   -56363.049    18408.314   -2143.8367    7123.4282    85.129583 
    8600    1570.5958   -111.29238     1.421108   -109.87127   -34636.374    4.4080402    4.4080402    4.4080402   -34636.374   -20067.649   -3287.9971   -80553.477   -2013.6532   -13328.941    7214.7976     85.65183 
    8700    1194.8984   -110.93985    1.0811692   -109.85868    6290.2522    4.3922038    4.3922038    4.3922038    6290.2522     48956.34    10688.287   -40773.871   -12825.093    -1441.777    3971.0835    84.731999 
    8800    1693.7669     -111.395    1.5325559   -109.86245    12472.653    4.3779404    4.3779404    4.3779404    12472.653    60110.941   -4886.0722   -17806.912    14105.046   -11697.455    154.17956     83.90919 
    8900    1134.1106   -110.91047    1.0261671    -109.8843    21166.254    4.3923592    4.3923592    4.3923592    21166.254    61443.797    50316.976   -48262.012   -7240.7799   -8860.4215   -13858.373    84.740994 
    9000    1583.2555   -111.31024    1.4325628   -109.87768   -41714.286    4.4070929    4.4070929    4.4070929   -41714.286    715.71941   -30080.764   -95777.814    1010.8527   -9950.6221    10366.554     85.59662 
    9100    1480.8884   -111.19823     1.339939   -109.85829    7232.1679    4.3943917    4.3943917    4.3943917    7232.1679    35192.466    27484.656   -40980.618   -3596.0444   -2088.4931   -12506.365    84.858683 
    9200    1560.6026    -111.2896     1.412066   -109.87753    6733.8523    4.3859294    4.3859294    4.3859294    6733.8523    53158.738   -2954.4032   -30002.778   -7667.1646   -15995.713   -6693.9024     84.36939 
    9300    1208.6813   -110.98593    1.0936402   -109.89229      19772.9    4.3982753    4.3982753    4.3982753      19772.9    69278.738    60550.102   -70510.139   -9939.6212    -11242.12   -1738.1649    85.083869 
    9400    1482.1484   -111.22297     1.341079   -109.88189   -18254.552    4.4101644    4.4101644    4.4101644   -18254.552   -3595.6824    34479.945    -85647.92    4604.8985    172.19687    10437.896    85.775714 
    9500    1687.7824    -111.3917     1.527141   -109.86456   -14447.022    4.4050485    4.4050485    4.4050485   -14447.022     11753.54   -1692.0192   -53402.588    10806.998   -10911.785   -5350.3297    85.477551 
    9600    979.65046   -110.74908   0.88640833   -109.86267    28183.837    4.3837941    4.3837941    4.3837941    28183.837    47354.901    96081.601   -58884.993    1975.2507    5571.7519   -3816.2506    84.246223 
    9700    1706.2188   -111.41447    1.5438226   -109.87065   -23310.422    4.3719254    4.3719254    4.3719254   -23310.422   -13743.959    8134.7277   -64322.036    17125.411   -6272.4688    13232.036     83.56381 
    9800    1515.6102   -111.28488     1.371356   -109.91352   -6050.3299    4.3939536    4.3939536    4.3939536   -6050.3299    12897.546    32798.914   -63847.449   -13809.312    13046.667   -9323.0555     84.83331 
    9900    1264.9723   -111.03045    1.1445735   -109.88588   -29962.002    4.4175915    4.4175915    4.4175915   -29962.002   -13758.505   -4093.1263   -72034.375    18742.905    22888.212    1874.0139    86.209806 
   10000    1969.4193    -111.6393     1.781972   -109.85733   -39786.134    4.3877262    4.3877262    4.3877262   -39786.134   -37026.221   -29109.333   -53222.847    11496.442    6850.0933    11093.577    84.473127 
   10100    1720.8744   -111.41854    1.5570833   -109.86146    9654.7265    4.3580604    4.3580604    4.3580604    9654.7265    40394.301    52679.078     -64109.2    5170.5093     3888.101    196.75689    82.771294 
   10200    1147.6813    -110.9479    1.0384462   -109.90946    35313.681    4.3690273    4.3690273    4.3690273    35313.681    9858.5694    130096.68   -34014.211    -4623.629   -1361.3837    15741.311     83.39774 
   10300    1880.6002   -111.62391    1.7016065    -109.9223   -30446.315    4.4087071    4.4087071    4.4087071   -30446.315   -7857.2975     -43850.8   -39630.847    5200.5831   -4114.3334   -10274.127    85.690709 
   10400    1589.0447   -111.30053     1.437801   -109.86273    -28015.29    4.4107861    4.4107861    4.4107861    -28015.29   -22204.327    36652.974   -98494.516    890.53886    6445.1223   -561.48016    85.811993 
   10500    1380.9193   -111.07747    1.2494848   -109.82799   -1863.8566    4.3656947    4.3656947    4.3656947   -1863.8566    -12621.27    35690.347   -28660.647    25531.586    4591.3039   -7828.8219    83.207045 
   10600    1187.9534   -110.94033    1.0748852   -109.86544    66179.279    4.3523268    4.3523268    4.3523268    66179.279    26491.354    154647.95    17398.532    27575.176   -3221.8053    9424.5841    82.445032 
   10700    1644.3028   -111.41763    1.4877997   -109.92983   -13783.339    4.3953189    4.3953189    4.3953189   -13783.339   -18059.212   -5312.9796   -17977.825    9426.2568   -5978.6366   -18206.674    84.912413 
   10800     416.3251   -110.27423    0.3766997   -109.89753    -16572.14    4.4069099    4.4069099    4.4069099    -16572.14   -4877.5662    16828.495   -61667.348    17001.351   -710.18593   -33374.031    85.585956 
   10900     2100.854   -111.74198    1.9008968   -109.84108   -3840.1357    4.3628275    4.3628275    4.3628275   -3840.1357    4898.4933    18007.248   -34426.148   -3666.2295   -4273.4389   -2337.7371     83.04321 
   11000    1276.1853   -111.03154    1.1547192   -109.87682    30676.331    4.3555422    4.3555422    4.3555422    30676.331    31142.072    70613.836   -9726.9167    33038.279    13068.353    3289.6474    82.627893 
   11100    1705.7036   -111.46809    1.5433564   -109.92474   -15013.036    4.3903626    4.3903626    4.3903626   -15013.036   -8478.3349    16493.968    -53054.74    24113.684   -1998.6241     49.29725    84.625484 
   11200    1385.4186   -111.14352    1.2535559   -109.88997   -23819.797    4.4079473    4.4079473    4.4079473   -23819.797    18830.746    10596.832   -100886.97    -9121.703   -3304.0268    21865.226    85.646413 
   11300    1171.6928   -110.91636    1.0601723   -109.85619    5082.8115    4.3633498    4.3633498    4.3633498    5082.8115    49167.044   -9850.4663   -24068.143    15584.894    7248.3894    4804.4203    83.073038 
   11400    1625.7843   -111.32697    1.4710438   -109.85592    48598.975    4.3500351    4.3500351    4.3500351    48598.975    41256.872    94006.785    10533.269    17215.376   -11134.113   -4713.7254     82.31487 
   11500    1542.8677   -111.28027    1.3960191   -109.88425   -3148.0849    4.3959536    4.3959536    4.3959536   -3148.0849    22832.462   -15938.474   -16338.243     4167.968    1400.1055   -2972.1944    84.949203 
   11600    579.70962   -110.36621   0.52453345   -109.84168    19190.231    4.4086152    4.4086152    4.4086152    19190.231    36371.048    51172.146   -29972.499    55709.133    13449.264   -11178.456    85.685352 
   11700    1270.2878   -110.97123    1.1493831   -109.82185     23910.94     4.389557     4.389557     4.389557     23910.94    121826.04   -3998.6927   -46094.531    13131.579     14848.76   -8615.6473    84.578906 
   11800     1616.767    -111.2981    1.4628848   -109.83522    27623.835    4.3688735    4.3688735    4.3688735    27623.835    32297.647    37183.844    13390.013     6597.206    10458.013    571.69371     83.38893 
   11900    1536.2776   -111.27279    1.3900563   -109.88274    10871.907    4.3869286    4.3869286    4.3869286    10871.907    1883.0416    45310.081   -14577.403    18803.383    2092.1244   -9036.4081    84.427069 
   12000    1407.6829   -111.13645    1.2737011   -109.86275   -18119.901    4.4196492    4.4196492    4.4196492   -18119.901    1554.1684    -23316.36   -32597.511    1725.8832    7129.1738   -18765.001    86.330327 
   12100    1005.0455   -110.74896   0.90938633   -109.83957   -14351.672    4.3940472    4.3940472    4.3940472   -14351.672   -19914.859   -23523.499    383.34159    31073.188     4998.548   -10926.987    84.838727 
   12200    2040.4085   -111.64599    1.8462045   -109.79978    32841.032    4.3468798    4.3468798    4.3468798    32841.032    79301.806    16727.099    2494.1907   -4582.1598    -12463.49    9152.7553    82.135878 
   12300    1728.4965   -111.43954    1.5639799   -109.87556   -4782.9303    4.3717901    4.3717901    4.3717901   -4782.9303    771.71074   -27777.049    12656.547    18439.819    6270.8755     -9260.84    83.556051 
   12400    1618.8507    -111.3395    1.4647701   -109.87473   -58162.634    4.4011864    4.4011864    4.4011864   -58162.634   -55542.722   -59201.329   -59743.851    15445.003   -2442.0757   -2653.5117    85.252926 
   12500    1518.8026   -111.22164    1.3742445    -109.8474   -20493.995    4.3930369    4.3930369    4.3930369   -20493.995    12871.976   -25274.025   -49079.936   -9740.0848    23074.705   -597.45821    84.780221 
   12600    1726.3889   -111.40495    1.5620729   -109.84288   -19435.896    4.3717011    4.3717011    4.3717011   -19435.896   -29905.507   -16171.491    -12230.69    16781.589    4893.7327   -5020.7823    83.550946 
   12700    1567.6078    -111.2873    1.4184045   -109.86889    -7212.442    4.3648312    4.3648312    4.3648312    -7212.442   -4252.0123    -16500.37   -884.94335    4170.7591   -15668.436   -8347.1292    83.157677 
   12800    1241.4152   -111.01779    1.1232586   -109.89453    22064.391    4.3743473    4.3743473    4.3743473    22064.391    45081.569    61004.446    -39892.84    -182.8051    8888.7814    10166.351    83.702762 
   12900    1470.6218   -111.22995    1.3306495    -109.8993   -7909.2987    4.3868241    4.3868241    4.3868241   -7909.2987    33547.361   -7087.0951   -50188.161    25495.303    14348.506    524.89847    84.421035 
   13000    1477.2994     -111.217    1.3366916   -109.88031    7687.7507    4.3871035    4.3871035    4.3871035    7687.7507     2126.339     64102.17   -43165.257    -5415.303    2693.0069   -6900.5767    84.437165 
   13100    1411.3719   -111.15421     1.277039   -109.87717    2332.7002    4.3777262    4.3777262    4.3777262    2332.7002      36191.5    3141.0237   -32334.423   -11446.443   -13209.088    2155.4289    83.896873 
   13200     1527.172    -111.2722    1.3818173   -109.89039   -2817.2583    4.3688026    4.3688026    4.3688026   -2817.2583   -19560.025    24466.335   -13358.085    32645.238    4125.5461   -15514.642    83.384871 
   13300    1822.9948   -111.55038     1.649484   -109.90089   -2773.0908     4.381678     4.381678     4.381678   -2773.0908    30622.091    3038.9386   -41980.302   -15944.591   -448.90957    4866.0647    84.124283 
   13400    1274.2758   -111.04825    1.1529915   -109.89525    17577.975    4.3936889    4.3936889    4.3936889    17577.975    6229.4519    51955.408    -5450.934    -4575.923   -2864.2549   -11650.559    84.817978 
   13500    1641.2553   -111.36161    1.4850423   -109.87657   -38064.626    4.3871605    4.3871605    4.3871605   -38064.626    -33885.09   -41122.343   -39186.444    7567.6296    11186.731   -16719.003    84.440458 
   13600     1052.007   -110.82553   0.95187807   -109.87365    59900.231    4.3553988    4.3553988    4.3553988    59900.231    64255.328    92029.096     23416.27   -15003.168   -20714.659    17432.106    82.619734 
   13700    1731.1834   -111.46722    1.5664111   -109.90081    5210.5311    4.3588821    4.3588821    4.3588821    5210.5311    10626.359   -2071.6083    7076.8422    6029.6755    8055.3134   -19441.436    82.818119 
   13800    1063.5696   -110.87571   0.96234014   -109.91337   -651.63616    4.3829488    4.3829488    4.3829488   -651.63616    25825.216    18731.146    -46511.27   -5366.5185     3323.551   -12231.122    84.197499 
   13900    1587.4319   -111.32284    1.4363417    -109.8865    6008.5156    4.3882251    4.3882251    4.3882251    6008.5156   -10295.994    16457.701     11863.84   -3267.8942    1565.5312   -3555.8248     84.50194 
   14000    1492.9101   -111.22323    1.3508164   -109.87241   -12322.081    4.3774711    4.3774711    4.3774711   -12322.081    -9773.895   -23839.402   -3352.9443     19436.85    8185.3376   -8465.2709     83.88221 
   14100    984.17367   -110.76381   0.89050102    -109.8733    22159.136    4.3665351    4.3665351    4.3665351    22159.136    44745.857     8116.239    13615.313   -5616.7382    10176.527    1468.1175    83.255105 
   14200    1805.1428    -111.5166    1.6333312   -109.88327     1124.444    4.3747686    4.3747686    4.3747686     1124.444   -17511.196    35046.887   -14162.359    4371.5153    3697.6967   -10175.122    83.726945 
   14300    1189.4864   -110.96577    1.0762723    -109.8895   -28929.773    4.3897938    4.3897938    4.3897938   -28929.773   -52988.635   -24643.396    -9157.288    17762.495   -7522.5396    10438.871    84.592597 
   14400     1743.904   -111.44249    1.5779209   -109.86457   -9587.7205    4.3824873    4.3824873    4.3824873   -9587.7205   -27554.659    41434.957   -42643.458   -2495.6797   -5105.8944    15424.062    84.170908 
   14500    1389.6787   -111.11631    1.2574104    -109.8589    4840.5565    4.3758046    4.3758046    4.3758046    4840.5565    16070.983    38582.529   -40131.842    288.59259    3171.6737   -24496.197    83.786446 
   14600    1135.8255   -110.89752    1.0277188    -109.8698   -802.15301    4.3723827    4.3723827    4.3723827   -802.15301   -14802.074    41.444615    12354.171    7300.0744    2125.3563   -10994.277    83.590037 
   14700    1500.2763   -111.23853    1.3574816   -109.88104    29306.733    4.3835178    4.3835178    4.3835178    29306.733    54381.077    11948.415    21590.706   -23105.077   -20253.906    1939.4873    84.230293 
   14800    1232.0954   -110.99137    1.1148258   -109.87655   -30515.796    4.4141101    4.4141101    4.4141101   -30515.796   -52351.308     15389.45   -54585.531    15130.304   -1719.2346   -5635.8546    86.006143 
   14900    1498.1135    -111.1856    1.3555246   -109.83008   -26064.962    4.3997965    4.3997965    4.3997965   -26064.962   -17170.468   -4383.7088    -56640.71   -14041.256     14463.64    22518.184     85.17218 
   15000    1503.9787   -111.17202    1.3608316   -109.81119    57081.797    4.3564941    4.3564941    4.3564941    57081.797    86255.391    68291.489    16698.512    4815.9957     22997.74   -3489.5041    82.682082 
   15100    1408.7813    -111.1576    1.2746949    -109.8829   -1318.3893    4.3671905    4.3671905    4.3671905   -1318.3893   -29326.926    3454.2314    21917.527    34147.745    15866.741   -1627.2638    83.292596 
   15200    1613.3068   -111.34615    1.4597539    -109.8864   -8738.8512    4.3974641    4.3974641    4.3974641   -8738.8512   -17177.056    2212.1886   -11251.686    8158.5812   -5056.3079    -10954.45    85.036798 
   15300    810.09223   -110.60061   0.73298847   -109.86762    29584.222    4.3940752    4.3940752    4.3940752    29584.222    49743.599    87886.436   -48877.368    20423.026    14674.568   -19550.892    84.840348 
   15400    1816.1032   -111.49427    1.6432483   -109.85102   -10285.438    4.3849303    4.3849303    4.3849303   -10285.438   -32171.777    11374.014   -10058.552    11017.996    13794.785   -7151.4556    84.311744 
   15500    2089.8603    -111.7449    1.8909495   -109.85395   -10034.463    4.3789281    4.3789281    4.3789281   -10034.463   -32941.218    28431.204   -25593.376   -2516.0025   -3076.0093   -21437.245    83.965998 
   15600    1520.2904   -111.23725    1.3755907   -109.86166    9174.5826    4.3703203    4.3703203    4.3703203    9174.5826   -24365.975    25945.213     25944.51    24955.341    12146.064   -7376.1726    83.471803 
   15700    1522.6924   -111.25704    1.3777641   -109.87928    15486.883    4.4001623    4.4001623    4.4001623    15486.883   -1519.3051    56490.749   -8510.7952   -7400.6322     17655.28   -4663.4202    85.193424 
   15800    1641.3133   -111.34127    1.4850947   -109.85617   -60902.195    4.4072924    4.4072924    4.4072924   -60902.195   -36126.853   -65321.797   -81257.936     5526.225    25567.374    628.70234    85.608243 
   15900     1191.976   -110.91813    1.0785249   -109.83961    31523.875    4.3512691    4.3512691    4.3512691    31523.875   -11434.279    26670.539    79335.364    17649.081    6987.6691    304.40591     82.38494 
   16000    1812.9253   -111.50253    1.6403729   -109.86215    40271.439    4.3504108    4.3504108    4.3504108    40271.439    36545.686    53128.533    31140.099   -5045.6637    21914.229    8425.8838    82.336198 
   16100    1024.3155   -110.81616   0.92682218   -109.88933   -30703.104    4.3997819    4.3997819    4.3997819   -30703.104   -71343.931    -25844.79    5079.4096    31706.397    4819.3566    5556.0494    85.171332 
   16200    1845.3763    -111.5076    1.6697352   -109.83787   -24774.386     4.404965     4.404965     4.404965   -24774.386   -37895.236    -32240.12   -4187.8011   -6122.5634    1875.3184   -6389.6932    85.472691 
   16300     1735.589   -111.38611    1.5703974   -109.81571    7073.6964    4.3814544    4.3814544    4.3814544    7073.6964   -18409.639    34872.637    4758.0914    4871.6501    22936.107    8046.4787    84.111406 
   16400    952.34152   -110.71124   0.86169862   -109.84954   -15949.863    4.3719822    4.3719822    4.3719822   -15949.863   -44130.833   -25068.967    21350.211    34958.037    28278.335   -177.28077    83.567066 
   16500    1931.3674   -111.62248    1.7475418   -109.87494    21119.327    4.3679431    4.3679431    4.3679431    21119.327    19195.638    16151.702    28010.642   -20075.594   -375.50353    3637.9596    83.335666 
   16600    1483.8041   -111.25565    1.3425771   -109.91307   -24947.092    4.3905982    4.3905982    4.3905982   -24947.092   -46992.658   -55040.142    27191.525    24985.823    4639.7594    3231.3369    84.639111 
   16700     833.1391   -110.64566   0.75384176   -109.89182    4321.1914    4.3867267    4.3867267    4.3867267    4321.1914    22974.428    -33875.61    23864.757    11379.173    13535.563   -9872.5755    84.415408 
   16800    1932.0866   -111.60697    1.7481925   -109.85878     24502.54    4.3594196    4.3594196    4.3594196     24502.54   -5715.5945    43442.352    35780.862    449.41535   -21873.084   -4203.8441    82.848761 
   16900    1335.4015   -111.10636    1.2082994   -109.89806   -33272.555    4.3795525    4.3795525    4.3795525   -33272.555   -37896.183   -18767.758   -43153.725    20151.587    29606.027    3287.0128    84.001919 
   17000    1599.5613   -111.31726    1.4473167   -109.86994    -12780.53    4.3954979    4.3954979    4.3954979    -12780.53   -12014.825    -3064.786   -23261.981   -681.89253    12640.878   -7401.4863    84.922785 
   17100    1773.0861   -111.45352    1.6043255   -109.84919   -15013.836    4.3839458    4.3839458    4.3839458   -15013.836   -30125.438   -17720.592    2804.5216    14415.261    11887.446   -15370.106     84.25497 
   17200     1208.135   -110.94849    1.0931459   -109.85535   -8924.4187      4.37478      4.37478      4.37478   -8924.4187   -1779.8459    -9975.136   -15018.274    31524.127    2074.8979   -3774.2396    83.727602 
   17300    1736.9291   -111.42761      1.57161     -109.856    13793.492    4.3642895    4.3642895    4.3642895    13793.492    -9622.116    59616.666    -8614.074   -10341.672    5180.0201    1355.0133    83.126724 
   17400    1100.4036   -110.89031   0.99566828   -109.89464     -8596.88    4.3839053    4.3839053    4.3839053     -8596.88   -8862.1145   -21120.022     4191.496    23439.469    15709.284    2016.4502    84.252634 
   17500    1595.5239   -111.30083    1.4436636   -109.85717   -22712.884    4.3959969    4.3959969    4.3959969   -22712.884   -9299.0908   -13412.247   -45427.314    28083.433   -1122.5647    5034.6189     84.95171 
   17600    1399.2365    -111.0998    1.2660586   -109.83374    30195.419    4.3683477    4.3683477    4.3683477    30195.419    75194.909    13390.137    2001.2104    26553.479    2623.3145   -3361.2454    83.358827 
   17700    974.69881   -110.75027   0.88192797   -109.86834    33715.865     4.371049     4.371049     4.371049    33715.865    105911.51   -17374.592    12610.681    9785.0777    14140.029    7659.6655    83.513565 
   17800    1843.9144   -111.54034    1.6684125   -109.87193    -22979.74    4.3878441    4.3878441    4.3878441    -22979.74   -9330.6956     -35739.4   -23869.124    7341.0447   -5739.8338   -6716.0145    84.479936 
   17900    1349.1086   -111.09986    1.2207018   -109.87915    12314.339    4.3766379    4.3766379    4.3766379    12314.339    30257.992   -1860.1777    8545.2034    14796.256    12380.494   -2989.0607    83.834323 
   18000    1391.6847   -111.14776    1.2592256   -109.88854    10144.832     4.385702     4.385702     4.385702    10144.832    46991.612   -15050.017   -1507.0991    8933.9443    3321.9163    148.74505    84.356267 
   18100    1559.7947   -111.29002     1.411335   -109.87868   -21807.173    4.3898279    4.3898279    4.3898279   -21807.173   -32057.732   -24510.718   -8853.0683    9201.2739   -4983.3345   -757.59105    84.594568 
   18200     1304.453   -111.04099    1.1802965   -109.86069    23976.422    4.3715286    4.3715286    4.3715286    23976.422    68376.209   -20697.888    24250.945     6019.539    7541.9201     1805.986    83.541056 
   18300     1764.274   -111.45983    1.5963522   -109.86348     4286.119    4.3688503    4.3688503    4.3688503     4286.119    12277.022    2328.8642   -1747.5291    -8713.149   -7128.6852     -5996.31    83.387604 
   18400    1512.5417   -111.24802    1.3685795   -109.87944   -14141.456    4.3886321    4.3886321    4.3886321   -14141.456    7473.4122   -39531.644   -10366.136    463.49073   -17273.119    9011.4091    84.525457 
   18500    1786.4359   -111.48376    1.6164048   -109.86736   -27524.382    4.3918923    4.3918923    4.3918923   -27524.382    22950.419    -59659.86   -45863.704      4355.06     9146.779   -8301.6113    84.713971 
   18600    1825.5162   -111.51985    1.6517654   -109.86809   -10271.873    4.3748357    4.3748357    4.3748357   -10271.873   -16629.906   -20436.734    6251.0211   -2889.7858   -18511.061    15600.998    83.730802 
   18700    1394.2503   -111.15495     1.261547    -109.8934   -6378.0818    4.3698498    4.3698498    4.3698498   -6378.0818    26570.369   -53146.835    7442.2211   -718.08963    11963.021   -24466.233    83.444847 
   18800    1766.9106   -111.51442    1.5987378   -109.91568   -135.57191    4.3744179    4.3744179    4.3744179   -135.57191    60260.391   -27629.273   -33037.833    4283.1946    4233.1727    -6757.739    83.706813 
   18900    1098.2558   -110.93035   0.99372491   -109.93663    26979.921    4.3837639    4.3837639    4.3837639    26979.921    54968.183   -9121.7055    35093.285   -2213.5195   -13148.581   -9814.3698    84.244481 
   19000    1726.4135   -111.48621    1.5620952   -109.92412   -12161.786    4.3982512    4.3982512    4.3982512   -12161.786    22740.115   -44048.207   -15177.265    8099.6433    17977.296   -13983.614    85.082471 
   19100    1646.6661    -111.3881    1.4899381   -109.89816     -1445.18    4.3921577    4.3921577    4.3921577     -1445.18    25895.683   -47176.628    16945.405    -2618.154   -17904.872    6919.0005     84.72933 
   19200    1367.9016   -111.12844    1.2377061   -109.89073    9725.2416    4.3753093    4.3753093    4.3753093    9725.2416    36856.681    -30885.65    23204.694    1509.0064   -19103.844   -5914.9488    83.757994 
   19300    1846.0466   -111.56475    1.6703418   -109.89441   -6165.7394    4.3787717    4.3787717    4.3787717   -6165.7394    54821.453   -40321.494   -32997.177   -8054.6276    15309.278    2671.6179    83.956998 
   19400    1248.4115    -111.0502     1.129589   -109.92061    1812.7613    4.3924836    4.3924836    4.3924836    1812.7613    3479.5879   -26689.688    28648.384    4986.5011   -6922.3267    3235.9255    84.748192 
   19500    1605.3163    -111.3542    1.4525239   -109.90167   -43823.712    4.3949238    4.3949238    4.3949238   -43823.712    -27473.91   -35922.722   -68074.503    20679.978    17408.904   -20168.878    84.889514 
   19600    1238.9973   -110.99718    1.1210708   -109.87611    43241.054    4.3608359    4.3608359    4.3608359    43241.054    41836.583    21343.689    66542.891     -6058.24   -8185.3746   -7904.3904    82.929538 
   19700    1240.3187   -111.02008    1.1222665   -109.89781    23170.369    4.3670526    4.3670526    4.3670526    23170.369    31754.277    23814.415    13942.414   -1268.7938   -21041.084   -16892.592    83.284706 
   19800    1361.5827   -111.11821    1.2319887   -109.88622   -19538.914    4.4065837    4.4065837    4.4065837   -19538.914   -12582.984   -8900.0425   -37133.714   -167.88042    17945.407     3001.505    85.566952 
   19900    1897.0621   -111.55575    1.7165017   -109.83925   -8813.0136    4.3950935    4.3950935    4.3950935   -8813.0136   -16823.767   -2437.7762   -7177.4972   -8378.0518    5994.7067     5352.559     84.89935 
   20000    1358.6749   -111.06477    1.2293576   -109.83542    17688.004    4.3722659    4.3722659    4.3722659    17688.004    8711.7151    5898.6342    38453.661    20147.848   -26856.889   -9186.8411    83.583335 
   20100    1180.7153   -110.93381     1.068336   -109.86547    20673.368    4.3771785    4.3771785    4.3771785    20673.368    76337.797    30805.371   -45123.063   -5932.6443     20931.96    17960.418    83.865388 
   20200    1640.4305   -111.36641     1.484296   -109.88211   -9746.3499    4.3897292    4.3897292    4.3897292   -9746.3499   -46335.103    1106.0875    15989.966    2141.9616    2361.2188   -9110.1188    84.588862 
   20300    1193.5439   -110.96203    1.0799436   -109.88209    5215.6768    4.3854622    4.3854622    4.3854622    5215.6768    45319.867   -10433.887   -19238.949     6184.513   -12445.966    4053.3968    84.342433 
   20400    1660.3715   -111.36905     1.502339   -109.86671   -8831.7069    4.3742427    4.3742427    4.3742427   -8831.7069   -181.59848   -5956.6854   -20356.837   -21703.228    1892.1353   -7825.1028    83.696757 
   20500    1067.5095   -110.84644   0.96590499   -109.88054    26442.316     4.379363     4.379363     4.379363    26442.316    45708.287   -3259.6136    36878.275    13789.982   -16827.745   -21930.778    83.991015 
   20600     1612.807   -111.33188    1.4593016   -109.87258   -24668.063    4.3897018    4.3897018    4.3897018   -24668.063   -45180.803   -3861.9418   -24961.444    6549.3287    8025.7622    7078.1909    84.587279 
   20700    1185.1262   -110.93936     1.072327   -109.86703    35132.938     4.379715     4.379715     4.379715    35132.938    67103.451    7603.9921     30691.37    -3299.057    17378.315   -17294.524     84.01127 
   20800    1191.9239   -110.95286    1.0784778   -109.87438    33633.142    4.3827864    4.3827864    4.3827864    33633.142    49089.571   -25923.244    77733.101     9331.391    20867.593    -8113.261    84.188141 
   20900    1667.9948   -111.37502    1.5092368   -109.86578   -15971.682    4.3923375    4.3923375    4.3923375   -15971.682    34955.671   -56091.129   -26779.588    9942.9661     24574.06   -6263.9746    84.739734 
   21000    1470.9952   -111.18955    1.3309874   -109.85856   -21428.562    4.3931688    4.3931688    4.3931688   -21428.562    42653.387   -68621.177   -38317.895    7569.4173    3031.9789   -33580.439    84.787857 
   21100    1494.3797   -111.19703    1.3521461   -109.84488    44622.136    4.3645667    4.3645667    4.3645667    44622.136    53960.294    19329.346    60576.768    8535.9037    3587.9467    5751.4556    83.142563 
   21200    1191.3724   -110.97164    1.0779788   -109.89366    9637.7666    4.3755827    4.3755827    4.3755827    9637.7666    67173.261   -33487.029   -4772.9329   -11759.483   -16245.423   -24702.837    83.773701 
   21300    1865.5136   -111.55285    1.6879559   -109.86489   -7481.7538    4.4018222    4.4018222    4.4018222   -7481.7538    58469.754   -65055.528   -15859.488    10417.268     -26617.9    12358.581     85.28988 
   21400    1131.8569   -110.88574    1.0241279   -109.86161    4463.5947    4.3852452    4.3852452    4.3852452    4463.5947    32627.896   -27792.214    8555.1019   -7858.6657     5947.485    -6720.426    84.329911 
   21500    1169.0359   -110.92761    1.0577682   -109.86984     13268.63     4.367268     4.367268     4.367268     13268.63    91459.122   -28992.934   -22660.297   -15541.716    25270.693   -4047.7708    83.297034 
   21600    2026.9868    -111.7221    1.8340602   -109.88804   -6998.8565     4.371261     4.371261     4.371261   -6998.8565    45676.942   -44604.127   -22069.385   -10863.886   -248.82579   -6936.4562    83.525715 
   21700    1232.0337   -111.02072      1.11477   -109.90595   -22540.241    4.3940115    4.3940115    4.3940115   -22540.241    38424.522   -76623.824   -29421.423   -14619.034    13968.594   -21278.262    84.836662 
   21800    1768.9224   -111.47482    1.6005581   -109.87427   -26035.386    4.3903771    4.3903771    4.3903771   -26035.386    19500.136   -62694.286   -34912.007   -3584.4387   -891.82912    5406.1129    84.626325 
   21900    1361.4384   -111.10215     1.231858    -109.8703    5901.3956     4.369067     4.369067     4.369067    5901.3956    84883.756   -52791.148    -14388.42    -11590.29    -14071.84   -19506.509    83.400012 
   22000    1615.0938    -111.3428    1.4613708   -109.88143   -10742.882    4.3687375    4.3687375    4.3687375   -10742.882    19512.595   -48997.754   -2743.4858   -19541.045   -13353.518    19528.753    83.381147 
   22100    1444.4855   -111.20513    1.3070009   -109.89813    24133.033    4.3782931    4.3782931    4.3782931    24133.033    68431.437   -32144.717    36112.379    10197.857    10018.514    2218.6365    83.929471 
   22200    1518.5049    -111.2685    1.3739752   -109.89453    6540.7417    4.3863835    4.3863835    4.3863835    6540.7417   -5764.7029   -25950.393     51337.32   -3246.7795   -10861.291   -1542.6021    84.395601 
   22300     837.4798    -110.6408   0.75776932   -109.88303    3802.3485    4.3875133    4.3875133    4.3875133    3802.3485    76295.901   -34863.916   -30024.939   -12834.887    7531.2945    16906.847    84.460831 
   22400    2204.7091   -111.85782    1.9948671   -109.86295   -5732.5201    4.3619641    4.3619641    4.3619641   -5732.5201   -2821.5197   -19136.142    4760.1011    5635.0681    13938.708    -3476.659    82.993918 
   22500    1145.6745   -110.92742    1.0366304   -109.89079    61399.524    4.3508198    4.3508198    4.3508198    61399.524     146600.7    8964.4168    28633.457   -9966.5875   -29365.182    20010.216    82.359422 
   22600    1188.8171   -111.00489    1.0756667   -109.92922   -14471.913    4.3858084    4.3858084    4.3858084   -14471.913    535.15322     -49603.8    5652.9089    17582.771    16081.021    8371.9408    84.362408 
   22700    1875.6063   -111.58591     1.697088   -109.88882   -24982.638    4.3867144    4.3867144    4.3867144   -24982.638    2509.3683   -32199.741    -45257.54    18808.121   -10351.453   -2242.2623    84.414699 
   22800    866.60164   -110.67566   0.78411938   -109.89154    9204.5788    4.3656428    4.3656428    4.3656428    9204.5788     96898.95   -47301.855   -21983.358   -24766.366    -2736.834    9822.7882    83.204072 
   22900    2210.6629   -111.88856    2.0002543   -109.88831   -18413.341    4.3543443    4.3543443    4.3543443   -18413.341   -6151.7238   -41033.625   -8054.6742   -7038.1095    24283.919   -6925.4282    82.559735 
   23000    1454.5791   -111.23019    1.3161337   -109.91405    2427.3717    4.3725526    4.3725526    4.3725526    2427.3717    98987.198   -43969.208   -47735.875   -5579.1633   -18697.616    6703.2871    83.599776 
   23100    1207.2385   -111.00082    1.0923348   -109.90849   -12433.043    4.3825504    4.3825504    4.3825504   -12433.043    59188.665   -49750.907   -46736.886   -18890.563    15067.443   -3641.3618    84.174542 
   23200    1521.0837   -111.27736    1.3763085   -109.90105   -1971.0984    4.3677766    4.3677766    4.3677766   -1971.0984    23257.968   -38713.361    9542.0978    11912.679    4783.8252     3106.066    83.326139 
   23300      1534.82   -111.28427    1.3887374   -109.89553    8348.8814    4.3619078    4.3619078    4.3619078    8348.8814    52003.043   -26507.198   -449.20033    1851.5139   -23056.913    18419.322    82.990702 
   23400    1714.8798   -111.44788    1.5516593   -109.89622   -627.50219    4.3721307    4.3721307    4.3721307   -627.50219    32533.674   -52371.786    17955.605   -12957.977   -10397.293   -9624.7168    83.575582 
   23500    1331.1459   -111.10583    1.2044488   -109.90138   -146.26784    4.3782472    4.3782472    4.3782472   -146.26784    78118.702   -53142.736    -25414.77     1809.274   -9910.4931     15645.27    83.926834 
   23600    1320.3221   -111.09899    1.1946552   -109.90433   -4762.7172    4.3738042    4.3738042    4.3738042   -4762.7172    46162.151   -18081.706   -42368.597    3558.8255   -33246.904    8336.4354    83.671591 
   23700    1967.9527    -111.6714    1.7806449   -109.89075    14446.786    4.3688081    4.3688081    4.3688081    14446.786    45458.396    12015.453   -14133.492    10017.089     11654.54    12806.471    83.385188 
   23800    1098.6605   -110.89907    0.9940911   -109.90498   -27061.399    4.3856335    4.3856335    4.3856335   -27061.399   -9031.4277    11636.781   -83789.552    748.82886   -45544.971    9288.3556    84.352316 
   23900    1707.2438   -111.41843    1.5447501   -109.87368   -3021.6426    4.3779525    4.3779525    4.3779525   -3021.6426    18236.385    6615.7732   -33917.086    5437.5222   -5654.2923    3096.4904    83.909888 
   24000     1726.494   -111.43317     1.562168     -109.871   -7230.8797    4.3786329    4.3786329    4.3786329   -7230.8797    16793.786    3720.0797   -42206.505    7157.6889   -4651.4302    17306.004    83.949014 
   24100    1360.1482   -111.09831    1.2306907   -109.86762   -11065.594    4.3886875    4.3886875    4.3886875   -11065.594    36525.138   -14140.648   -55581.271    1887.8007   -31424.321    1125.8139    84.528657 
   24200    1846.6201   -111.52283    1.6708606   -109.85197   -12444.396    4.3848954    4.3848954    4.3848954   -12444.396    42049.378   -50314.812   -29067.753      2291.29    22125.257   -5235.7454    84.309733 
   24300    1220.9283   -110.96695    1.1047216   -109.86223   -14260.424    4.3714452    4.3714452    4.3714452   -14260.424   -18779.908    12911.186    -36912.55   -3165.2098   -53351.476    2350.4954    83.536277 
   24400    1782.3144   -111.49277    1.6126755    -109.8801    4052.4504    4.3646902    4.3646902    4.3646902    4052.4504    14088.663    20115.472   -22046.784   -7181.6081   -5620.3365   -6201.6234    83.149619 
   24500     1404.449   -111.16763     1.270775   -109.89685    9343.0871    4.3814312    4.3814312    4.3814312    9343.0871    51373.024   -9292.0594   -14051.703     2814.829   -719.56446   -537.46175    84.110068 
   24600    1124.4587   -110.89405    1.0174338   -109.87662   -803.96657    4.4000918    4.4000918    4.4000918   -803.96657   -5670.3481    26323.331   -23064.883   -6966.6735   -39075.462   -8128.1485    85.189334 
   24700    1363.2812   -111.06956    1.2335255   -109.83604   -5914.2542    4.3948832    4.3948832    4.3948832   -5914.2542   -24359.118    35910.065    -29293.71   -4685.5543    7653.8421   -3663.9689    84.887162 
   24800    1365.5473   -111.06304    1.2355759   -109.82747   -2714.3725    4.3696892    4.3696892    4.3696892   -2714.3725   -28156.048    20418.072   -405.14192   -5659.7566   -23024.485    19262.836     83.43565 
   24900    1909.6285   -111.56837     1.727872   -109.84049    3771.4092    4.3738663    4.3738663    4.3738663    3771.4092   -5623.5394    37725.358    -20787.59   -6918.5094    9020.2039    -16015.39    83.675151 
   25000    1070.5873   -110.83578   0.96868988   -109.86709   -7874.2405    4.3881561    4.3881561    4.3881561   -7874.2405   -53268.059    -2838.109    32483.446   -15095.632   -13129.279    5117.3572    84.497959 
   25100    1980.3933   -111.65382    1.7919015   -109.86192   -25181.915    4.3876618    4.3876618    4.3876618   -25181.915    2195.1465   -27145.529   -50595.362   -8754.9993    4397.2543    9553.3668    84.469408 
   25200    1367.1415   -111.10699    1.2370183   -109.86997    773.09885    4.3794293    4.3794293    4.3794293    773.09885   -44051.046    39321.931    7048.4123    3547.2364   -12427.154   -12720.062    83.994832 
   25300    1340.6039   -111.09022    1.2130066   -109.87722   -22485.319    4.3673117    4.3673117    4.3673117   -22485.319    9587.1195   -14837.634   -62205.442    9849.2295   -23891.948    8711.2033    83.299536 
   25400    1402.5713   -111.14691     1.269076   -109.87784     52239.53    4.3634129    4.3634129    4.3634129     52239.53    33835.756    91263.244    31619.592    -2363.062    1538.0073   -9400.1817    83.076643 
   25500    1353.6591   -111.12619    1.2248192   -109.90137   -25656.174    4.3890037    4.3890037    4.3890037   -25656.174   -44652.072    46873.317   -79189.769    5508.9419   -25261.942   -389.20057    84.546931 
   25600     1820.428   -111.50324    1.6471615   -109.85608   -13354.372    4.3902717    4.3902717    4.3902717   -13354.372    -10915.02   -21330.163   -7817.9316     155.1863    897.92892   -3116.1245    84.620226 
   25700    1313.9577   -111.02602    1.1888966   -109.83712    29017.447    4.3674111    4.3674111    4.3674111    29017.447    19162.181    60052.391     7837.767   -11495.031   -16961.533   -8680.6114    83.305221 
   25800    1287.1425   -111.03038    1.1646336   -109.86575   -6220.0957    4.3666326    4.3666326    4.3666326   -6220.0957   -19998.382    10578.861   -9240.7663    2006.9084   -11321.085   -978.95069     83.26068 
   25900    1908.4222   -111.60331    1.7267805   -109.87653    11308.023    4.3762411    4.3762411    4.3762411    11308.023    22112.624    13258.068   -1446.6219   -22515.045   -4242.3999    8272.0026     83.81152 
   26000    1005.0828   -110.79753   0.90942007   -109.88811   -18506.142    4.3980137    4.3980137    4.3980137   -18506.142    -14895.77   -12321.274   -28301.381   -13210.338   -16760.803    8217.5369     85.06869 
   26100    1721.2126   -111.40719    1.5573893    -109.8498   -7943.2347    4.3817513    4.3817513    4.3817513   -7943.2347    7515.8406   -4235.0991   -27110.446   -12361.639    11763.899    18200.749    84.128506 
   26200    1057.0738   -110.80279   0.95646262   -109.84632     31571.78    4.3614411    4.3614411    4.3614411     31571.78    86878.334    11287.918   -3450.9121   -17594.722   -15562.484   -6788.3488    82.964065 
   26300    1672.4017   -111.39603    1.5132242   -109.88281   -17351.797    4.3791963    4.3791963    4.3791963   -17351.797   -18995.218      14603.3   -47663.473   -2467.9893   -18306.174    923.37932    83.981424 
   26400    1229.1364   -110.97933    1.1121485   -109.86718    13107.126    4.3976515    4.3976515    4.3976515    13107.126    54663.001    -18166.18    2824.5568    10033.096   -433.32616   -16295.359    85.047674 
   26500     1353.055   -111.08026    1.2242726   -109.85599   -42342.952    4.3925173    4.3925173    4.3925173   -42342.952   -71064.204   -20899.608   -35065.045   -7790.3144   -18896.027   -10472.452    84.750145 
   26600    1626.0744   -111.31311    1.4713063   -109.84181    42845.517    4.3613879    4.3613879    4.3613879    42845.517    91297.873   -5365.6459    42604.322   -5941.1779    19149.708   -2161.9315    82.961034 
   26700    1332.4035   -111.09383    1.2055867   -109.88824   -5186.0886    4.3691019    4.3691019    4.3691019   -5186.0886   -15676.394   -7388.0518    7506.1796    6905.4952   -15039.528   -15881.997    83.402009 
   26800    1279.2709   -111.04811    1.1575112    -109.8906   -33394.418    4.3941111    4.3941111    4.3941111   -33394.418   -21087.909   -39976.679   -39118.666    -4455.591   -29102.077     8587.398    84.842432 
   26900    2002.5376   -111.65993    1.8119381   -109.84799    7276.1367    4.3793326    4.3793326    4.3793326    7276.1367    22659.738   -18875.927    18044.599    3885.8537   -9659.6069   -13310.884    83.989268 
   27000    1529.2876   -111.23578    1.3837316   -109.85204   -18154.109    4.3801573    4.3801573    4.3801573   -18154.109    12496.708   -35779.559   -31179.476    8603.1983   -29360.485   -13821.696    84.036728 
   27100    1501.9127   -111.20506    1.3589621    -109.8461   -21419.226     4.392104     4.392104     4.392104   -21419.226    3706.8453   -41271.108   -26693.417    14473.004   -1712.1526    602.12974    84.726222 
   27200    1796.2591    -111.4614     1.625293   -109.83611    10287.206    4.3611293    4.3611293    4.3611293    10287.206    2506.2907    8621.5508    19733.777    12198.167   -7690.2159   -9333.5832    82.946275 
   27300    1184.8074   -110.95367    1.0720387   -109.88163     22160.35    4.3656986    4.3656986    4.3656986     22160.35    67544.976    3665.2278   -4729.1546   -1896.2991   -18558.784    4108.2759    83.207268 
   27400    1840.4312   -111.54672    1.6652609   -109.88146    -27788.67    4.4031934    4.4031934    4.4031934    -27788.67   -5270.7294   -75590.502   -2504.7782    13659.604    9887.7277   -8855.3205    85.369604 
   27500    1425.3068   -111.17418    1.2896476   -109.88453   -6684.7649    4.3763423    4.3763423    4.3763423   -6684.7649   -5338.4685   -22572.079    7856.2524   -9459.9676   -9474.7646   -16346.819    83.817336 
   27600    1329.6926   -111.05749    1.2031338   -109.85436    57183.748    4.3399463    4.3399463    4.3399463    57183.748    95855.577     61011.79    14683.876   -10480.073   -14958.321    2368.8172    81.743471 
   27700    1579.7899   -111.33058    1.4294271   -109.90115    3934.6247     4.376334     4.376334     4.376334    3934.6247    39533.919   -43350.694    15620.648    14312.028     5196.498   -16856.098    83.816856 
   27800    1358.3445   -111.10896    1.2290586    -109.8799    1105.3404    4.3949686    4.3949686    4.3949686    1105.3404    42421.417   -6366.9564   -32738.439   -16403.889   -23979.059    123.90385    84.892109 
   27900    1678.4158   -111.37263    1.5186659   -109.85397   -7483.3835    4.3785445    4.3785445    4.3785445   -7483.3835   -37358.992    15503.379   -594.53843    4882.1563   -5692.9669   -3323.7991    83.943931 
   28000    1713.5185   -111.39719    1.5504276   -109.84676    25513.174    4.3701386    4.3701386    4.3701386    25513.174    90447.987    1907.6248    -15816.09    1734.7476     7716.453   -22910.503    83.461391 
   28100    1066.9376   -110.83677   0.96538757   -109.87138   -11814.975    4.3884865    4.3884865    4.3884865   -11814.975   -49136.672    3498.6742    10193.073    16961.546   -15760.799    70.502736    84.517045 
   28200    1883.2254   -111.56017    1.7039819   -109.85618   -29075.584    4.3893809    4.3893809    4.3893809   -29075.584   -35223.202   -62878.461    10874.911   -2509.3206    909.48327   -11030.207    84.568732 
   28300    1417.0619    -111.1365    1.2821874   -109.85431    37282.654    4.3655022    4.3655022    4.3655022    37282.654    65354.383    46931.439   -437.85937   -23583.275   -14558.403   -5113.7339    83.196039 
   28400    1383.1658   -111.11206    1.2515175   -109.86055    20248.425    4.3655896    4.3655896    4.3655896    20248.425   -18613.557     14277.04    65081.792    5800.9973   -6540.6941   -4740.1184    83.201036 
   28500    1962.9111   -111.62837    1.7760832   -109.85228   -19309.436    4.3948686    4.3948686    4.3948686   -19309.436   -11541.409   -17300.567   -29086.332    3872.3648   -7561.9906   -9374.2695    84.886313 
   28600     1294.139   -111.01166    1.1709641    -109.8407   -34885.676    4.3947338    4.3947338    4.3947338   -34885.676   -30414.882   -14807.819   -59434.327    12136.574   -25745.517   -7523.4546    84.878504 
   28700    1205.3452   -110.92839    1.0906217   -109.83777    54243.835    4.3707494    4.3707494    4.3707494    54243.835    25970.547    60404.273    76356.685   -8967.5519    20125.792   -10463.936    83.496395 
   28800    1423.6272    -111.1465    1.2881278   -109.85837    7700.0978    4.3655443    4.3655443    4.3655443    7700.0978   -12310.509     49963.06   -14552.258   -24092.418   -20202.478     6789.621    83.198444 
   28900    1695.9504    -111.4055    1.5345316   -109.87097   -8908.9877    4.3793175    4.3793175    4.3793175   -8908.9877   -21361.939   -3476.1037   -1888.9201    11771.289      -2913.8      8752.64    83.988398 
   29000    1655.8502   -111.34829     1.498248   -109.85004   -17063.468    4.3986909    4.3986909    4.3986909   -17063.468   -46661.463     16174.82    -20703.76   -5060.8396   -2144.1898   -19607.958     85.10799 
   29100    651.75029   -110.43377   0.58971736   -109.84405   -780.85663    4.3846578    4.3846578    4.3846578   -780.85663   -6012.1933   -8756.7274    12426.351   -11189.254   -34115.987   -1802.6967    84.296028 
   29200    1960.2656   -111.59463    1.7736895   -109.82094    22018.383    4.3531446    4.3531446    4.3531446    22018.383    21555.236    16721.966    27777.947    16856.018    8426.3565     2670.672    82.491513 
   29300    1589.1069   -111.31089    1.4378573   -109.87303   -14327.557    4.3654775    4.3654775    4.3654775   -14327.557     4388.925    8334.2408   -55705.837   -22009.703   -8766.7886   -2808.9834    83.194625 
   29400    1411.8136   -111.14973    1.2774386   -109.87229   -19006.093     4.401279     4.401279     4.401279   -19006.093   -21546.861   -12440.049   -23031.369   -9455.7311    6203.1896   -7388.5455    85.258308 
   29500    1340.2834   -111.04541    1.2127166   -109.83269   -5765.4084    4.3940178    4.3940178    4.3940178   -5765.4084     -24993.2    29913.747   -22216.773   -2795.9747    15299.713   -10919.373    84.837023 
   29600     1551.568   -111.21852    1.4038914   -109.81463    88.446056    4.3673134    4.3673134    4.3673134    88.446056   -35121.049    59673.188   -24286.801   -20536.993   -9148.4009    2677.7581    83.299631 
   29700    1915.1996   -111.57539    1.7329128   -109.84248   -683.58236    4.3777806    4.3777806    4.3777806   -683.58236   -8543.7424    27028.133   -20535.137    5272.2882    16928.607   -4778.4291    83.900005 
   29800    1319.6828   -111.04735    1.1940768   -109.85327   -17642.218    4.3944635    4.3944635    4.3944635   -17642.218   -63965.929    55825.151   -44785.877   -9989.8707    14058.142   -20883.521    84.862847 
   29900    1833.9084    -111.4835    1.6593589   -109.82414   -13486.887     4.401206     4.401206     4.401206   -13486.887   -8817.6572    -3314.322   -28328.682   -43.361007   -5397.1652   -3472.2095    85.254063 
   30000    1215.6685   -110.91631    1.0999624   -109.81634   -7878.7529    4.3861203    4.3861203    4.3861203   -7878.7529    8488.6634   -25466.631   -6658.2906    9733.8189    17032.736   -9484.9495    84.380408 
   30100    1472.3378   -111.14976    1.3322022   -109.81756    5373.0002    4.3626799    4.3626799    4.3626799    5373.0002   -15688.519    33771.797   -1964.2777   -6645.1546    8995.7213   -11482.893     83.03478 
   30200    2022.1651   -111.66772    1.8296975   -109.83802    19121.323    4.3656811    4.3656811    4.3656811    19121.323    25792.968    3151.9161    28419.085     2030.749    3982.4825    7614.5578    83.206267 
   30300     1090.589     -110.858   0.98678781   -109.87121    10631.807    4.3820764    4.3820764    4.3820764    10631.807    46080.814   -23307.832    9122.4404   -11915.225    14599.317   -11231.375    84.147233 
   30400    1819.3303   -111.50889    1.6461683   -109.86272   -34542.728    4.3888717    4.3888717    4.3888717   -34542.728   -37079.279   -46264.402   -20284.502   -7182.8043    9617.0585   -10199.856    84.539299 
   30500    1557.3178   -111.26193    1.4090939   -109.85283    22981.166     4.363094     4.363094     4.363094    22981.166    35351.483    -22468.41    56060.426    23380.458   -4261.2064     9986.091    83.058429 
   30600     1436.224   -111.16344    1.2995256   -109.86391    21688.676    4.3564719    4.3564719    4.3564719    21688.676    46926.618   -21995.729    40135.137   -21649.017    7631.3523   -9405.3288    82.680813 
   30700    1598.2617   -111.32109    1.4461408   -109.87495   -40611.501    4.3860016    4.3860016    4.3860016   -40611.501   -34128.267   -63268.434     -24437.8    27441.929    1710.2506    17272.237    84.373555 
   30800    1679.7239   -111.37665    1.5198495    -109.8568    4115.1988    4.3699737    4.3699737    4.3699737    4115.1988    57850.485   -50411.098    4906.2099    27450.975     13056.51   -10599.475    83.451949 
   30900    1315.7319    -111.0606    1.1905019    -109.8701   -3125.5661    4.3617767    4.3617767    4.3617767   -3125.5661   -8250.5283   -31376.413    30250.243    -19423.47   -3007.8495   -2784.1069    82.983221 
   31000    1130.8678   -110.91139     1.023233   -109.88815   -19113.241    4.3702317    4.3702317    4.3702317   -19113.241   -10459.785   -29111.521   -17768.418    23737.574    18033.912    9760.1346    83.466727 
   31100    1546.5126   -111.27823    1.3993171   -109.87892    23940.491    4.3659731    4.3659731    4.3659731    23940.491    14278.314   -15489.411    73032.569   -398.78239    2042.3398   -5438.3782    83.222963 
   31200     1775.148   -111.48758    1.6061912   -109.88139   -41221.316    4.3866381    4.3866381    4.3866381   -41221.316   -44308.943   -40241.999   -39113.006   -8711.0041    18852.544    7655.4103    84.410296 
   31300    1303.0395    -111.0547    1.1790175   -109.87569   -33097.482    4.3748425    4.3748425    4.3748425   -33097.482   -69922.268   -31988.187    2618.0095    19536.084    6510.0014    6587.4446    83.731191 
   31400    1608.7985   -111.30776    1.4556747   -109.85209    52210.351    4.3405401    4.3405401    4.3405401    52210.351    44180.242    33658.619    78792.191   -6911.9086   -1304.6852   -24693.023    81.777028 
   31500     1722.455    -111.4543    1.5585134   -109.89579   -25411.279    4.3700676    4.3700676    4.3700676   -25411.279   -45210.605   -30781.537   -241.69537    7970.6869     8434.288    3722.6621    83.457325 
   31600     1487.113   -111.21997    1.3455711    -109.8744   -16650.722     4.387368     4.387368     4.387368   -16650.722   -43492.929   -10187.687    3728.4493    11763.753   -22027.867   -4668.8548    84.452435 
   31700    1788.9539   -111.46802    1.6186831   -109.84933    11602.033    4.3755498    4.3755498    4.3755498    11602.033     21305.37   -32329.848    45830.577   -5655.4947    4910.5053    -22138.69    83.771809 
   31800    1415.0255   -111.14058    1.2803448   -109.86023   -26404.117    4.3756692    4.3756692    4.3756692   -26404.117   -42835.415   -959.03673   -35417.899     20118.25   -12603.396    8887.1395    83.778669 
   31900    1839.6138   -111.51927    1.6645212   -109.85475   -7459.6938    4.3745966    4.3745966    4.3745966   -7459.6938    3693.1762     -4272.01   -21800.248    2792.2447   -7468.7745   -15587.801    83.717073 
   32000    2006.5977   -111.67314    1.8156117   -109.85753   -22952.697    4.3808689    4.3808689    4.3808689   -22952.697    18025.626   -37594.779   -49288.939    8129.4253     13336.49   -3522.5049    84.077688 
   32100    1294.1217   -111.03526    1.1709486   -109.86431    -30496.82    4.3786684    4.3786684    4.3786684    -30496.82   -46007.721    16970.751   -62453.491    27567.522   -22112.842     12216.16     83.95106 
   32200    1810.0223   -111.48552    1.6377462   -109.84777    8915.9099    4.3573698    4.3573698    4.3573698    8915.9099    21669.581   -1585.1857    6663.3346   -3415.3918    622.47052   -16087.245    82.731947 
   32300    1258.7564   -111.02313    1.1389493   -109.88418   -15762.549    4.3766163    4.3766163    4.3766163   -15762.549    -29650.16    10027.756   -27665.244   -16153.719   -2703.8661    6911.4878    83.833081 
   32400    1401.4431   -111.13449    1.2680552   -109.86643    6957.4704    4.3775398    4.3775398    4.3775398    6957.4704    61835.181   -3880.7536   -37082.017    1012.0451   -19582.455    12921.756    83.886161 
   32500    1570.4462   -111.27488    1.4209727   -109.85391    3819.1542    4.3631728    4.3631728    4.3631728    3819.1542   -4262.3794    28996.871   -13277.029   -13340.471    33203.658   -10321.341    83.062927 
   32600    1337.4181   -111.07853     1.210124   -109.86841   -13864.692    4.3696773    4.3696773    4.3696773   -13864.692   -39227.456    12390.684   -14757.304   -3408.0565   -35386.782   -9758.3506    83.434967 
   32700    1655.0909   -111.35792     1.497561   -109.86036    14146.473    4.3665135    4.3665135    4.3665135    14146.473    46397.748    23960.245   -27918.573   -140.51212    15411.028    429.64924    83.253871 
   32800    1321.6897   -111.08061    1.1958926   -109.88472   -9153.6379    4.3768281    4.3768281    4.3768281   -9153.6379   -39819.361    25108.695   -12750.248   -2829.8821    2945.0654   -7682.3598     83.84525 
   32900    1620.3117   -111.34287    1.4660921   -109.87678    -23718.25    4.3758404    4.3758404    4.3758404    -23718.25   -50186.825    46736.503   -67704.427   -518.92617   -43720.664   -1198.0839    83.788503 
   33000    1080.2749   -110.84881    0.9774554   -109.87135    54818.247     4.347952     4.347952     4.347952    54818.247    58475.983    86336.146    19642.613   -11540.019     25382.13    3672.4401    82.196668 
   33100    1213.7172   -111.00099    1.0981968    -109.9028    22739.917    4.3683769    4.3683769    4.3683769    22739.917    36036.577    69504.283    -37321.11   -22367.531   -25384.349    -15542.86    83.360498 
   33200    1448.4055   -111.17933    1.3105478   -109.86878   -8821.7245    4.4024109    4.4024109    4.4024109   -8821.7245    24030.369    10898.116   -61393.659   -18291.415   -3754.6323   -453.20184    85.324101 
   33300    1102.1085   -110.83609   0.99721094   -109.83888    7350.7588    4.3897781    4.3897781    4.3897781    7350.7588    27938.169    29012.096   -34897.988   -13144.964    336.85319    1165.8388    84.591688 
   33400    1849.4663   -111.50394     1.673436   -109.83051   -6500.6148    4.3598802    4.3598802    4.3598802   -6500.6148   -8953.4085    15059.564       -25608     -18354.3    -9990.308   -2735.3665    82.875025 
   33500    1289.0345   -111.02557    1.1663455   -109.85922    16122.868     4.347331     4.347331     4.347331    16122.868    9191.5042    35392.788    3784.3107   -2906.8699    9416.1587    22410.843    82.161453 
   33600    1384.8315   -111.15091    1.2530247   -109.89788    18703.032    4.3678897    4.3678897    4.3678897    18703.032    52948.658    22420.621   -19260.182   -14513.071   -32591.673   -7343.9205     83.33261 
   33700    1787.0845   -111.49703    1.6169916   -109.88004   -15617.844    4.3917711    4.3917711    4.3917711   -15617.844   -28797.126    27652.762   -45709.168   -6469.4989    -1721.537   -969.38833    84.706959 
   33800    940.32741   -110.71649     0.850828   -109.86566    25778.353    4.3722835    4.3722835    4.3722835    25778.353    74161.277     38961.84   -35788.059    14039.287    1572.2461    9195.2386    83.584342 
   33900     2001.701   -111.65948    1.8111811    -109.8483    5329.6002    4.3628961    4.3628961    4.3628961    5329.6002   -23093.848    3999.7161    35082.933   -1354.7722   -17722.417   -7730.5034    83.047124 
   34000    1525.4599    -111.2573    1.3802682   -109.87703   -21307.675    4.3735747    4.3735747    4.3735747   -21307.675    18503.309   -32117.628   -50308.708   -9324.0691    -3907.174    25347.541    83.658418 
   34100    1455.8863   -111.19035    1.3173165   -109.87303   -10782.955    4.3862952    4.3862952    4.3862952   -10782.955   -4075.8042   -1163.5219    -27109.54   -6445.1275   -6960.3739   -12413.696    84.390501 
   34200     1367.306   -111.07914    1.2371672   -109.84197    25645.729    4.3683394    4.3683394    4.3683394    25645.729    89192.412    -39141.72    26886.495   -11380.904    19360.283    14911.914    83.358351 
   34300    1358.7478   -111.08989    1.2294236   -109.86047   -1108.4783    4.3565751    4.3565751    4.3565751   -1108.4783    55606.928   -37006.814   -21925.548     490.7745    1003.0302    24156.548    82.686689 
   34400     1575.459   -111.31319    1.4255084   -109.88768    18838.368    4.3667519    4.3667519    4.3667519    18838.368    10362.471    15252.436    30900.198   -16595.128    11062.491   -7001.8051    83.267506 
   34500    1109.1521   -110.90549    1.0035841   -109.90191   -404.48719    4.3827451    4.3827451    4.3827451   -404.48719     14642.68   -51757.627    35901.486   -479.53734   -2329.0723    23281.976    84.185763 
   34600    1671.8903   -111.37863    1.5127614   -109.86587   -30260.994    4.3887701    4.3887701    4.3887701   -30260.994   -43316.042   -38248.978   -9217.9623   -5615.7869    47591.254   -5505.6641    84.533432 
   34700    1693.5902   -111.37594     1.532396   -109.84354    23513.934    4.3584042    4.3584042    4.3584042    23513.934    55245.408    -27476.67    42773.065    1118.9235   -83.507597    18687.534    82.790884 
   34800    1479.7503   -111.20285    1.3389092   -109.86394    2933.3824     4.354118     4.354118     4.354118    2933.3824    62241.142   -36898.779   -16542.216    -20434.95    22484.296    6998.4645    82.546866 
   34900    1596.2002   -111.30762    1.4442755   -109.86334   -8138.0626    4.3844248    4.3844248    4.3844248   -8138.0626    41990.172   -41644.167   -24760.192    6074.3268    23668.553    -2135.295    84.282593 
   35000    1721.6887   -111.40993    1.5578201   -109.85211   -471.02199     4.378256     4.378256     4.378256   -471.02199    40887.048   -68496.398    26196.283   -5927.9716   -10012.463    29279.661     83.92734 
   35100    1699.4667   -111.39659    1.5377132   -109.85887    7802.4179    4.3657443    4.3657443    4.3657443    7802.4179   -11952.219   -24.005019    35383.478   -9611.4827   -2940.5016    3693.1215    83.209876 
   35200    1179.1192   -110.95246    1.0668918   -109.88557    14287.386    4.3756728    4.3756728    4.3756728    14287.386   -11925.431   -28890.691     83678.28    14875.767   -3534.4165     16150.06    83.778876 
   35300    1291.6603   -111.04494    1.1687214   -109.87621   -9572.6085    4.3832773    4.3832773    4.3832773   -9572.6085    42779.619   -69047.416   -2450.0282    13483.334   -8471.0122    13520.379    84.216434 
   35400    1629.2068   -111.33429    1.4741405   -109.86015    3985.9663    4.3621821    4.3621821    4.3621821    3985.9663   -3511.3364   -12744.702    28213.937    9597.1702    20415.041   -5160.3148    83.006358 
   35500    1658.2252   -111.37808     1.500397   -109.87768   -6710.2019    4.3578668    4.3578668    4.3578668   -6710.2019    10955.469   -36370.983    5284.9085    1322.7555    13245.331    30491.001    82.760262 
   35600    1554.0431   -111.30354    1.4061309   -109.89741    1420.9572    4.3753098    4.3753098    4.3753098    1420.9572    16764.595   -40732.374    28230.651    6795.1544   -5875.2937   -15947.492    83.758023 
   35700    1042.3889    -110.8296    0.9431754   -109.88643   -6496.8881    4.3892454    4.3892454    4.3892454   -6496.8881    -13655.27   -45240.604    39405.209    2145.9223    29518.909    12599.679      84.5609 
   35800    1294.9779   -111.03522    1.1717232    -109.8635   -11.868743    4.3725565    4.3725565    4.3725565   -11.868743   -9338.1114   -24882.037    34184.542    5432.2276    4202.0887    33283.188    83.600002 
   35900    2330.4231   -111.95781    2.1086158    -109.8492   -7096.8716    4.3501855    4.3501855    4.3501855   -7096.8716   -24584.718   -2437.2435    5731.3468    10080.525   -748.26153   -21122.345    82.323403 
   36000    982.49534   -110.79134   0.88898243   -109.90235   -1697.3948    4.3752908    4.3752908    4.3752908   -1697.3948   -11886.954    37673.602   -30878.833     1600.536    13875.834    23749.868    83.756932 
   36100     1890.438   -111.57518     1.710508   -109.86468   -24921.458    4.3957031    4.3957031    4.3957031   -24921.458   -11818.422   -26649.794   -36296.158   -9832.6123   -11854.667    19019.774    84.934681 
   36200    1647.4802   -111.33364    1.4906748   -109.84297    -15296.74    4.3864874    4.3864874    4.3864874    -15296.74   -63038.952    35632.541   -18483.809    22479.102    3207.4918   -10587.474    84.401594 
   36300    1006.9088   -110.76975   0.91107221   -109.85868    1160.3116    4.3679637    4.3679637    4.3679637    1160.3116    5207.8609   -18125.103    16398.176   -8525.9947    7133.4355    21452.892    83.336848 
   36400    1963.3629   -111.64139    1.7764921   -109.86489    12519.991    4.3601742    4.3601742    4.3601742    12519.991   -3289.8947   -6360.9741    47210.842    7042.6308   -524.98636    9371.5468    82.891791 
   36500    1319.6578   -111.08515    1.1940541    -109.8911    907.62905    4.3806193    4.3806193    4.3806193    907.62905   -57514.844    66439.475   -6201.7443     4489.602    19210.621    22691.262    84.063322 
   36600    930.01502   -110.72683   0.84149713   -109.88534   -14402.228    4.3874757    4.3874757    4.3874757   -14402.228   -23131.778     332.7812   -20407.688   -4019.9641     5379.812    34540.615    84.458659 
   36700    1702.2865   -111.39234    1.5402646   -109.85208    21576.015     4.363795     4.363795     4.363795    21576.015    3145.3514    1885.7074    59696.987    288.45878    4836.8842    3712.7624    83.098471 
   36800    1400.1269   -111.13959    1.2668643   -109.87272     26356.96    4.3646337    4.3646337    4.3646337     26356.96   -4666.8853    76179.841     7557.923   -3517.9104    7697.9935    27688.008    83.146394 
   36900    1537.2062   -111.27165    1.3908965   -109.88075   -29328.557    4.3980752    4.3980752    4.3980752   -29328.557   -11334.465    -12846.44   -63804.767     1251.166   -4045.3147    -3277.906    85.072254 
   37000    2043.6826   -111.68738     1.849167   -109.83822   -33294.916    4.3911952    4.3911952    4.3911952   -33294.916   -62362.407    11890.689   -49413.031   -14770.604    11936.327   -11775.326    84.673642 
   37100    1609.2861   -111.27729    1.4561158   -109.82118     19145.04    4.3538654    4.3538654    4.3538654     19145.04    24582.686    24715.538    8136.8947    4228.9976    5934.9143    34843.459      82.5325 
   37200    1683.1613   -111.38125    1.5229597   -109.85829   -9914.4574    4.3628697    4.3628697    4.3628697   -9914.4574    12560.597   -42400.477    96.507096   -5601.8995    5060.2332   -17883.942     83.04562 
   37300    1556.9349   -111.28437    1.4087474   -109.87562   -12205.567    4.3973341    4.3973341    4.3973341   -12205.567   -11791.532   -40033.984    15208.816   -16765.343    10744.892   -4115.0396    85.029256 
   37400    1615.1658   -111.29543    1.4614359     -109.834   -46695.759    4.4102817    4.4102817    4.4102817   -46695.759   -36217.063   -65014.347   -38855.868    8876.1655    -2509.541    7445.1624    85.782557 
   37500    1979.3171   -111.62051    1.7909278   -109.82958   -22914.178    4.3640215    4.3640215    4.3640215   -22914.178   -39096.737   -32487.203     2841.407    19890.803    5948.1715   -30896.606    83.111411 
   37600    1584.3045   -111.26233     1.433512   -109.82882    25746.898     4.333766     4.333766     4.333766    25746.898    19591.794    14975.923    42672.978   -6216.1733    12487.349    4899.8229    81.394745 
   37700    1547.6266   -111.29974     1.400325   -109.89942   -7082.2017    4.3732431    4.3732431    4.3732431   -7082.2017   -62631.546    4652.4221    36732.518    7922.6073   -9633.9317    1500.9815    83.639389 
   37800    1791.5722   -111.49437    1.6210522   -109.87332   -44775.983    4.4117344    4.4117344    4.4117344   -44775.983   -79083.415   -54283.972   -960.56088    6528.8116     9136.309    -2067.396    85.867353 
   37900    1287.3337   -111.02989    1.1648066   -109.86508   -35569.021     4.381811     4.381811     4.381811   -35569.021   -49801.099    -43226.11   -13679.855    7636.2442    -18385.06    20319.613    84.131945 
   38000    1522.0191   -111.21459    1.3771549   -109.83744    46586.263    4.3286634    4.3286634    4.3286634    46586.263   -22089.645    68014.469    93833.966    9562.0771   -16145.061     9516.556    81.107583 
   38100    1731.5226   -111.45145    1.5667181   -109.88473    46056.993    4.3450384    4.3450384    4.3450384    46056.993   -10172.621    113520.08    34823.518    13520.745    685.91511    637.30236    82.031541 
   38200    671.00086   -110.52564   0.60713568    -109.9185   -21197.514    4.3990696    4.3990696    4.3990696   -21197.514   -73155.569    -8967.411    18530.437    16980.558   -22296.581    10860.587    85.129973 
   38300    1752.5134   -111.45129     1.585711   -109.86558   -36501.821    4.3976894    4.3976894    4.3976894   -36501.821   -83440.194   -4366.5779    -21698.69    9170.5281    21540.655    20619.094    85.049871 
   38400    1760.4884   -111.44763    1.5929269    -109.8547     20281.97    4.3475523    4.3475523    4.3475523     20281.97   -21470.962    52193.008    30123.862   -3380.1929   -14457.836   -26558.805    82.174003 
   38500    1012.8903   -110.79719   0.91648446    -109.8807    13469.218    4.3334131    4.3334131    4.3334131    13469.218   -5993.1553    11873.921    34526.889    1833.5009    8025.8806    25776.102    81.374862 
   38600    1897.1887   -111.62667    1.7166162   -109.91006   -24275.641    4.3692347    4.3692347    4.3692347   -24275.641   -52841.632    6592.4726   -26577.765    5793.9455    28994.141   -437.36041    83.409618 
   38700    1612.9221   -111.33748    1.4594058   -109.87807   -36143.759     4.406334     4.406334     4.406334   -36143.759   -68243.442   -22460.746   -17727.088   -3191.6357   -8850.7375   -19152.467    85.552408 
   38800     563.2828   -110.39391   0.50967011   -109.88424   -41938.211    4.3771513    4.3771513    4.3771513   -41938.211   -66198.718    17746.889   -77362.805   -10646.278    29119.811    5023.7665    83.863824 
   38900     1835.889   -111.50721    1.6611509   -109.84606    49074.206    4.3186192    4.3186192    4.3186192    49074.206    2193.6857    89743.264    55285.668   -6378.1285   -6732.1395    5642.8536    80.544285 
   39000    2102.2792   -111.80845    1.9021864   -109.90627     16264.52    4.3387521    4.3387521    4.3387521     16264.52   -33460.692    73964.667    8289.5868   -2291.4875    23673.355    7805.0372    81.676012 
   39100    1316.3147     -111.112    1.1910292   -109.92097   -48879.856    4.3872548    4.3872548    4.3872548   -48879.856   -57324.396    -33934.16    -55381.01   -6979.6789    6673.9901    27525.199    84.445901 
   39200    1505.7841   -111.25823    1.3624651   -109.89576   -31192.807    4.3858279    4.3858279    4.3858279   -31192.807    -46713.68   -13966.704   -32898.036   -2538.2487   -24138.226    23192.759    84.363534 
   39300    2109.9515   -111.77341    1.9091285   -109.86428     21705.57    4.3601676    4.3601676    4.3601676     21705.57   -37930.706    86078.184    16969.233   -12737.663    9882.1305   -1082.9486    82.891416 
   39400    621.03654   -110.45805   0.56192691   -109.89612     15592.52    4.3524178    4.3524178    4.3524178     15592.52   -29952.737    78978.398   -2248.1012   -8988.5922   -36728.248   -4286.6986    82.450203 
   39500    1644.6089   -111.38772    1.4880767   -109.89964    9165.1322    4.3643091    4.3643091    4.3643091    9165.1322   -8166.7132     33851.02    1811.0899   -16145.584    591.32509    5677.5105    83.127839 
   39600    1876.4349   -111.59261    1.6978377   -109.89477   -12299.059    4.3830221    4.3830221    4.3830221   -12299.059   -35011.767   -18772.723    16887.314   -4371.2641   -5652.1187     2279.663    84.201722 
   39700    1155.0348   -110.93316    1.0450997   -109.88806   -12687.801    4.3681057    4.3681057    4.3681057   -12687.801   -32913.659   -10210.609    5060.8658   -10442.003   -15898.462    9703.5939    83.344976 
   39800    2018.5011   -111.68475    1.8263822   -109.85836     7591.153    4.3489982    4.3489982    4.3489982     7591.153    -22041.38    29976.114    14838.725   -11501.571     21964.45    14712.033    82.256019 
   39900    1355.6238   -111.10368    1.2265969   -109.87708    15828.119    4.3687434    4.3687434    4.3687434    15828.119   -13261.883   -3641.3992     64387.64    4407.0752   -12931.372    9937.7392     83.38148 
   40000     1157.198   -110.92144    1.0470571   -109.87438   -30876.484    4.3843434    4.3843434    4.3843434   -30876.484   -22538.848   -4074.0294   -66016.576     -11184.3    9881.5241    23565.529    84.277898 
   40100    1765.6998   -111.45887    1.5976423   -109.86123   -7971.9668    4.3666082    4.3666082    4.3666082   -7971.9668   -59919.078   -15450.189    51453.366    16558.173    20084.784   -12852.713    83.259283 
   40200    1776.1558   -111.46745    1.6071031   -109.86035    19765.976    4.3389166    4.3389166    4.3389166    19765.976   -1588.9272    21005.972    39880.884     9911.282   -7297.1434   -6369.0773      81.6853 
   40300      1214.43   -110.99368    1.0988418   -109.89484    19280.616    4.3425822    4.3425822    4.3425822    19280.616   -10551.295    45445.495    22947.648    -16296.33     19181.56    18297.053    81.892503 
   40400    1664.7244   -111.41533    1.5062776   -109.90905   -25123.476    4.3777342    4.3777342    4.3777342   -25123.476   -70716.307    -19420.27    14766.148    20637.081    1263.2289   -9685.3714    83.897337 
   40500     1434.258   -111.16833    1.2977468   -109.87058    6100.1933    4.3839428    4.3839428    4.3839428    6100.1933   -36796.175    33392.332    21704.422    1889.1112    8770.4372    4283.2722    84.254797 
   40600    1390.8245   -111.10336    1.2584473   -109.84492    6620.4902     4.366984     4.366984     4.366984    6620.4902   -4558.0984    5639.4939    18780.075   -678.81036    15951.735    13705.571    83.280784 
   40700    1736.8354   -111.42417    1.5715251   -109.85265   -24763.309    4.3569098    4.3569098    4.3569098   -24763.309   -47026.131   -26860.832   -402.96398    16603.432   -5745.7509    -5249.016    82.705749 
   40800    1349.0158    -111.0916    1.2206178   -109.87098    30986.094    4.3424159    4.3424159    4.3424159    30986.094   -11936.936    88828.552    16066.665   -24517.377    10672.732    9016.9208    81.883093 
   40900    2021.6623   -111.73251    1.8292425   -109.90327   -19569.227    4.3625291    4.3625291    4.3625291   -19569.227   -7523.6634   -20494.517   -30689.501    12797.297    7134.4091    19973.923    83.026173 
   41000    1631.6125   -111.36337    1.4763173   -109.88705   -29947.683    4.3879088    4.3879088    4.3879088   -29947.683   -69174.121   -6494.8662   -14174.061    -14958.59   -5356.5571   -28310.139    84.483671 
   41100    1345.5001   -111.07995    1.2174368   -109.86252   -9547.4198    4.3698724    4.3698724    4.3698724   -9547.4198   -43112.041    2138.9836    12330.798   -32316.012    8370.5244    24452.183    83.446144 
   41200    1969.9179   -111.63222    1.7824231    -109.8498    11249.216    4.3472206    4.3472206    4.3472206    11249.216    -24274.13    24003.925    34017.854     13550.18   -9639.7209   -9866.3078    82.155196 
   41300    1358.1677   -111.10813    1.2288986   -109.87923   -3781.6151    4.3489209    4.3489209    4.3489209   -3781.6151    -49187.26   -4613.8041    42456.218    -43353.84   -128.12015    11567.974    82.251635 
   41400    1244.1232   -111.01707    1.1257088   -109.89136    16850.918    4.3695938    4.3695938    4.3695938    16850.918    -15065.97    8537.5986    57081.126    5217.3204     1222.518    28892.627    83.430185 
   41500     1446.825   -111.17444    1.3091176   -109.86533   -14284.922    4.3859622    4.3859622    4.3859622   -14284.922   -64054.839    7428.9381    13771.134   -23498.891   -3737.2582   -1418.7117    84.371281 
   41600    1039.2416   -110.79434   0.94032765   -109.85401    20132.071    4.3587944    4.3587944    4.3587944    20132.071   -24080.092    36075.849    48400.456   -10377.342    -25340.61    30823.581    82.813124 
   41700    1074.6833   -110.81671   0.97239604   -109.84432    45308.552    4.3400058    4.3400058    4.3400058    45308.552    50801.297    30230.725    54893.635    11083.257   -12636.846    12779.042    81.746834 
   41800    1758.3968   -111.45411    1.5910344   -109.86308   -10185.544    4.3547085    4.3547085    4.3547085   -10185.544   -17081.231   -7116.6154   -6358.7867   -33063.842   -15542.897   -8470.1175    82.580457 
   41900    1323.4102    -111.0712    1.1974494   -109.87375    -11131.49     4.371941     4.371941     4.371941    -11131.49     19508.97   -28676.327   -24227.112    13359.894    -13275.23    29876.298    83.564705 
   42000    1540.7566   -111.25454     1.394109   -109.86043   -29336.721    4.3734265    4.3734265    4.3734265   -29336.721    10362.181   -55808.842   -42563.501   -4013.8356   -3034.2196   -23919.427    83.649914 
   42100    1384.1827   -111.09982    1.2524376   -109.84738    2346.0263    4.3587874    4.3587874    4.3587874    2346.0263   -7571.0407     12319.92    2289.1997   -14467.124   -16269.458     5916.299     82.81272 
   42200    1629.4561   -111.32352    1.4743661   -109.84915   -8187.1853    4.3474655    4.3474655    4.3474655   -8187.1853    26535.725   -38848.786   -12248.495    7130.6131    5194.2563    18691.277     82.16908 
   42300    1342.4278   -111.08101    1.2146569   -109.86636    23212.405    4.3440677    4.3440677    4.3440677    23212.405    54588.021     23750.91   -8701.7149   -3504.7388   -8697.3965   -41918.031    81.976574 
   42400    1697.9379   -111.41359    1.5363299   -109.87726   -1657.0668    4.3609931    4.3609931    4.3609931   -1657.0668    25304.337   -7077.1708   -23198.367   -220.76788   -16256.545    27004.679    82.938504 
   42500    1059.8667   -110.84127   0.95898967   -109.88228   -15326.225    4.3660465    4.3660465    4.3660465   -15326.225    61110.321   -63221.414   -43867.581    8.3107881    3912.0662   -35764.183    83.227158 
   42600     1640.161   -111.34223    1.4840521   -109.85817    31519.138    4.3469947    4.3469947    4.3469947    31519.138    58805.281    36220.201   -468.06861    9632.3921   -9700.1066   -8144.6856    82.142387 
   42700    1570.3678   -111.28957    1.4209018   -109.86867   -10926.471    4.3450514    4.3450514    4.3450514   -10926.471    44426.369   -15354.348   -61851.434   -7103.5174   -10894.161   -11812.395    82.032277 
   42800    1185.4361   -110.95276    1.0726075   -109.88015   -16425.412    4.3529875    4.3529875    4.3529875   -16425.412    26693.087   -32389.726   -43579.596    5773.8603    1782.0211   -39616.616    82.482584 
   42900    1634.3307   -111.35062    1.4787767   -109.87184    17881.852    4.3590929    4.3590929    4.3590929    17881.852   -27259.445    97834.489   -16929.487    12484.746   -19332.728    8428.2743    82.830134 
   43000    1320.3436    -111.0867    1.1946747   -109.89203    2154.1999     4.351682     4.351682     4.351682    2154.1999    43725.354    22184.025   -59446.779   -13541.489   -430.98485   -51362.373    82.408394 
   43100     1505.195   -111.25927     1.361932   -109.89734    7567.3067    4.3531213    4.3531213    4.3531213    7567.3067    12153.086    31990.774    -21441.94    26518.354    2311.4698   -240.01683    82.490192 
   43200    1803.3676   -111.51968    1.6317249   -109.88795   -44125.764    4.3615016    4.3615016    4.3615016   -44125.764   -54578.578   -34244.385   -43554.329    22806.095   -14733.293   -15569.864    82.967518 
   43300    1547.8968   -111.27591    1.4005696   -109.87534     7929.807    4.3443343    4.3443343    4.3443343     7929.807    19717.459    45977.817   -41905.855   -17798.973   -4056.2562   -36742.793    81.991667 
   43400    1560.8474   -111.30491    1.4122876   -109.89262   -181.27307     4.352426     4.352426     4.352426   -181.27307   -12252.303    20634.656   -8926.1717    32096.125    2378.9835    17803.699    82.450668 
   43500    961.05421   -110.76762   0.86958205   -109.89804    -17456.55      4.36815      4.36815      4.36815    -17456.55    1285.3881   -5176.8814   -48478.156    17281.186   -15882.748   -31861.021    83.347508 
   43600    1735.1668   -111.44731    1.5700154   -109.87729   -17096.357    4.3668494    4.3668494    4.3668494   -17096.357   -4331.5455    8276.2575   -55233.784   -14791.967   -2740.6642   -7389.5936    83.273082 
   43700    1901.5931   -111.58593    1.7206014   -109.86533   -9788.8258    4.3562228    4.3562228    4.3562228   -9788.8258   -1351.9861   -1568.2031   -26446.288    7213.8367    -2581.402    14966.486    82.666632 
   43800    1311.4372   -111.05759    1.1866159   -109.87097   -7740.6457    4.3449543    4.3449543    4.3449543   -7740.6457    12626.412    5323.8085   -41172.157    7873.7004   -28748.423   -28042.375    82.026773 
   43900    1368.0161   -111.12575    1.2378098   -109.88794    19616.508    4.3465082    4.3465082    4.3465082    19616.508     51498.15    35843.963   -28492.589   -10059.194    18601.319    26183.386    82.114812 
   44000    1872.1727   -111.58814    1.6939812   -109.89416   -33551.163    4.3633458    4.3633458    4.3633458   -33551.163   -33303.622   -19469.973   -47879.893    9371.7453    -27061.26    2144.8233    83.072811 
   44100    1058.1266     -110.846   0.95741518   -109.88859   -20846.393    4.3725485    4.3725485    4.3725485   -20846.393   -16913.274     9281.544    -54907.45   -5838.2842    10260.991   -22672.872    83.599541 
   44200    2045.5292   -111.71803    1.8508378   -109.86719   -552.67143    4.3485496    4.3485496    4.3485496   -552.67143    18602.048   -910.49918   -19349.563    5514.0361    7874.2598    40903.063    82.230569 
   44300    1590.4286   -111.30806    1.4390533   -109.86901    1167.9619     4.345753     4.345753     4.345753    1167.9619     33682.07     7177.421   -37355.605   -5112.8511   -35700.478   -24518.131    82.072018 
   44400    1528.9064   -111.26262    1.3833866   -109.87924   -28746.089    4.3637066    4.3637066    4.3637066   -28746.089   -27113.887    -26692.84    -32431.54    1018.5275     34628.04   -3370.7841    83.093421 
   44500    1474.8644    -111.2026    1.3344883   -109.86811    432.68461    4.3672007    4.3672007    4.3672007    432.68461    7913.0592   -6018.2845   -596.72088   -5878.4987   -19529.509    7367.2028    83.293184 
   44600    1854.6179   -111.54265    1.6780973   -109.86455    -13404.47    4.3642239    4.3642239    4.3642239    -13404.47   -19456.725    14356.456   -35113.143   -1846.0555   -3070.3282   -1730.8139    83.122972 
   44700    1623.4819   -111.32989    1.4689606   -109.86093   -25652.043    4.3647308    4.3647308    4.3647308   -25652.043    -12042.89   -25382.058   -39531.182    6917.4694    26680.718     11382.43    83.151941 
   44800    1579.8651   -111.28571    1.4294951   -109.85621    4779.3781    4.3564199    4.3564199    4.3564199    4779.3781   -11564.564    38641.492   -12738.794    2302.8505   -36769.759     7726.938    82.677853 
   44900    1491.9606   -111.21281    1.3499573   -109.86286    2566.6136    4.3544641    4.3544641    4.3544641    2566.6136   -31894.798    21444.361    18150.278   -1442.8636    35965.335   -2424.8405    82.566553 
   45000    1693.3759   -111.40574    1.5322021   -109.87354   -43060.571    4.3657634    4.3657634    4.3657634   -43060.571   -57601.483   -46514.823   -25065.407        11962    1336.9929    3879.3389    83.210968 
   45100    1818.9452   -111.51728    1.6458199   -109.87146    12848.509    4.3582801    4.3582801    4.3582801    12848.509    18327.871    2076.0924    18141.565   -5885.9079   -8193.1659    21271.018    82.783813 
   45200     1031.392   -110.81913   0.93322511   -109.88591   -7583.5202    4.3502168    4.3502168    4.3502168   -7583.5202   -64072.896   -16320.155     57642.49    263.03956    45796.799   -3694.6174    82.325181 
   45300    1972.3181    -111.6607    1.7845949   -109.87611   -2841.5905    4.3470879    4.3470879    4.3470879   -2841.5905   -14078.111   -8790.1013    14343.441    16370.316   -2358.7145    3632.3531    82.147672 
   45400    1533.3353   -111.26974     1.387394   -109.88235    1608.0935    4.3558776    4.3558776    4.3558776    1608.0935   -7852.1035   -7788.9459     20465.33   -10109.793    25080.349    3013.4662    82.646984 
   45500    911.34523   -110.71127   0.82460431   -109.88667   -27527.908    4.3709627    4.3709627    4.3709627   -27527.908   -48508.856   -29336.205   -4738.6624    870.57738    29330.893   -328.18676     83.50862 
   45600    2126.6084   -111.77547       1.9242   -109.85127   -2333.5648    4.3524571    4.3524571    4.3524571   -2333.5648   -2609.6536    1124.6652    -5515.706    9394.0986   -15443.075    191.76822    82.452434 
   45700     1344.434   -111.08207    1.2164721    -109.8656    11135.893    4.3388065    4.3388065    4.3388065    11135.893   -22180.324    80374.586   -24786.583   -672.00413    26168.799    5712.2033    81.679084 
   45800     1248.534   -111.01207    1.1296998   -109.88237    4797.6203    4.3512544    4.3512544    4.3512544    4797.6203    -16011.21    12822.911     17581.16    15259.091   -3516.3597   -1721.6154    82.384102 
   45900     1390.908    -111.1381    1.2585228   -109.87958   -22075.986    4.3682937    4.3682937    4.3682937   -22075.986   -59180.559    69433.527   -76480.927   -926.88785   -8988.5822    2846.7702    83.355738 
   46000      1539.32   -111.24928    1.3928091   -109.85647    6679.0616    4.3593551    4.3593551    4.3593551    6679.0616   -20995.108    60219.606   -19187.313   -8583.0846    14632.971    7033.5216    82.845084 
   46100     1098.947   -110.85639   0.99435031   -109.86204   -3522.2923    4.3521782    4.3521782    4.3521782   -3522.2923   -34705.286    21441.132    2697.2773    322.40854   -19285.926    1611.9926    82.436586 
   46200    1946.2045   -111.61799    1.7609667   -109.85702   -5392.9809    4.3647276    4.3647276    4.3647276   -5392.9809   -15816.321    36829.804   -37192.425    -1248.398    12483.254     3363.268    83.151756 
   46300     1567.934   -111.29947    1.4186997   -109.88077   -24877.247    4.3533489    4.3533489    4.3533489   -24877.247   -38117.105   -32132.792   -4381.8448    5016.2727   -8980.4674    9295.5596     82.50313 
   46400    862.83227   -110.67488   0.78070877   -109.89418    21873.495    4.3282965    4.3282965    4.3282965    21873.495   -19192.238    44710.638    40102.085    5918.0931   -36749.574   -11651.146    81.086957 
   46500    2273.7079   -111.95447    2.0572987   -109.89717     7914.475    4.3477434    4.3477434    4.3477434     7914.475    2633.1915    39459.133   -18348.899   -1879.1813    16842.101    9790.5078    82.184838 
   46600    1110.8848   -110.90643    1.0051519   -109.90128   -21617.111     4.357962     4.357962     4.357962   -21617.111   -70517.951    14628.193   -8961.5747    6315.3049    -17856.84    606.03975    82.765685 
   46700    1357.1677   -111.10571    1.2279938   -109.87771    38682.376     4.348782     4.348782     4.348782    38682.376    19244.592    57112.995    39689.541   -5782.3218   -20013.303    -17381.24     82.24375 
   46800    1982.3342   -111.66004    1.7936577   -109.86638   -9245.3459    4.3565716    4.3565716    4.3565716   -9245.3459    -12977.02    7707.2454   -22466.263    9985.5175    18985.039    9212.6371    82.686494 
   46900    1039.6413   -110.82237   0.94068931   -109.88168   -2850.8095    4.3464249    4.3464249    4.3464249   -2850.8095   -1883.3589   -24118.129    17449.059    649.52695   -36216.327     10155.23     82.11009 
   47000    1776.2178   -111.47318    1.6071592   -109.86602    44511.504    4.3366106    4.3366106    4.3366106    44511.504    3060.6416    51161.798    79312.072     708.7495    17308.951   -8790.6078    81.555132 
   47100    1193.2275   -110.97212    1.0796573   -109.89246   -11436.325    4.3553119    4.3553119    4.3553119   -11436.325   -19732.213    30879.431   -45456.194    13148.142    8229.6183    12122.594    82.614788 
   47200    1942.2446   -111.62191    1.7573837   -109.86453   -12190.827    4.3656941    4.3656941    4.3656941   -12190.827   -32389.543   -7781.2877    3598.3492    5517.2583   -36108.643      11091.6    83.207007 
   47300     1503.445   -111.21815    1.3603487    -109.8578    42722.628    4.3455219    4.3455219    4.3455219    42722.628    13923.137    52114.627    62130.121   -2292.4285    49293.131    5209.0825    82.058924 
   47400    1372.3996   -111.11449     1.241776   -109.87271   -8414.9631    4.3420482    4.3420482    4.3420482   -8414.9631   -13195.036    4752.9303   -16802.784    8311.5251   -31743.994    2966.4863    81.862293 
   47500    1668.4841   -111.38116    1.5096795   -109.87148    20355.911     4.344628     4.344628     4.344628    20355.911     34610.18     19198.92    7258.6329   -1414.6643   -3214.8833    1541.7135    82.008295 
   47600    1385.6974   -111.13067    1.2538081   -109.87687     29179.58    4.3519708    4.3519708    4.3519708     29179.58    7316.4115    32233.764    47988.564   -4294.6591    33891.339   -684.51988    82.424802 
   47700    1463.8059    -111.1992    1.3244823   -109.87472   -12939.041    4.3599008    4.3599008    4.3599008   -12939.041    3756.8357   -2217.2665   -40356.692    19405.733   -42679.392    3737.1268    82.876198 
   47800    1773.8784   -111.47877    1.6050425   -109.87372    7034.2035    4.3412027    4.3412027    4.3412027    7034.2035    10027.257    29129.581   -18054.227   -8418.3125    27247.692   -3146.2351    81.814481 
   47900    1241.3798   -111.01032    1.1232265   -109.88709    42100.372    4.3406958    4.3406958    4.3406958    42100.372    11864.131    42455.079    71981.907    20791.211     2165.789    2612.8935    81.785825 
   48000     1292.188   -111.06281    1.1691989   -109.89361   -32589.294    4.3655891    4.3655891    4.3655891   -32589.294   -48858.654   -8478.7353   -40430.492    1544.4486   -34560.529    2331.6555    83.201004 
   48100    1936.2413   -111.62228    1.7519518   -109.87033    19279.382    4.3518835    4.3518835    4.3518835    19279.382    15120.716    6331.8585    36385.572   -3081.0054    18744.204   -3550.7803    82.419842 
   48200    1019.0913   -110.80249   0.92209518    -109.8804    22878.935    4.3372491    4.3372491    4.3372491    22878.935   -21011.011    62052.413    27595.403    39777.982   -23976.698    10303.041    81.591158 
   48300    1622.4811   -111.34946     1.468055    -109.8814    -13174.77    4.3469872    4.3469872    4.3469872    -13174.77   -10120.408     -3238.38   -26165.521   -8853.6307    -30167.96    2785.3951    82.141964 
   48400    1997.4105   -111.67276     1.807299   -109.86546    2409.6537    4.3548477    4.3548477    4.3548477    2409.6537    2738.8888   -15086.328      19576.4    18089.102    19968.677   -12310.595    82.588373 
   48500    1063.7167   -110.84044   0.96247324   -109.87797   -16197.467    4.3554731    4.3554731    4.3554731   -16197.467   -49268.075    30009.361   -29333.686    22187.936   -40695.737   -153.33136    82.623959 
   48600    2046.3745   -111.71644    1.8516026   -109.86483   -13876.892    4.3549443    4.3549443    4.3549443   -13876.892   -6611.3335   -6224.8381   -28794.504    -627.1599   -4154.9824   -10182.338    82.593871 
   48700    1383.5255    -111.1192     1.251843   -109.86736   -20578.598    4.3591446    4.3591446    4.3591446   -20578.598   -43416.551   -8857.6432      -9461.6    37473.272    6654.5514   -789.30151    82.833082 
   48800    1768.1488   -111.45214    1.5998582   -109.85228    -26509.94    4.3631818    4.3631818    4.3631818    -26509.94   -23827.112   -15844.447   -39858.262    10916.813   -33073.012   -13299.412    83.063441 
   48900    1538.7569   -111.24015    1.3922996   -109.84785    19792.833    4.3446734    4.3446734    4.3446734    19792.833    4615.1508    29037.151    25726.198    8699.4108    17386.184   -282.98312    82.010867 
   49000    1490.4899   -111.20991    1.3486266   -109.86128    8731.1569    4.3448293    4.3448293    4.3448293    8731.1569   -6940.2695    5514.1407      27619.6    29366.633   -23308.474     -5504.24    82.019694 
   49100    1647.4244   -111.34842    1.4906242    -109.8578   -24163.046    4.3677971    4.3677971    4.3677971   -24163.046   -11242.581     243.0122   -61489.568   -15999.951    21690.894    10286.053    83.327314 
   49200    1115.6473   -110.88118    1.0094611   -109.87171    1308.5831    4.3484402    4.3484402    4.3484402    1308.5831   -21036.121    21773.264    3188.6063     11058.18    17267.919   -5523.4364    82.224364 
   49300    2043.9952   -111.70543    1.8494498   -109.85598     24379.76    4.3371309    4.3371309    4.3371309     24379.76    10896.599    51391.407    10851.273    -4564.111   -13671.132    17552.682     81.58449 
   49400    651.56387   -110.47854   0.58954869     -109.889   -11441.079     4.350255     4.350255     4.350255   -11441.079   -16742.684    61611.173   -79191.726   -4026.2615    57967.111     6384.743     82.32735 
   49500    2017.0062   -111.69246    1.8250296   -109.86743    3845.4544    4.3510381    4.3510381    4.3510381    3845.4544   -1462.6968    14838.854   -1839.7943    -4824.353   -11618.426    9933.5787    82.371818 
   49600    1289.3433   -111.04314    1.1666249   -109.87652   -27503.176     4.360872     4.360872     4.360872   -27503.176   -46085.875    22736.415   -59160.067     5507.012    28067.156    9996.6467    82.931594 
   49700    1578.1129   -111.29585    1.4279097   -109.86794       -35027    4.3471216    4.3471216    4.3471216       -35027   -32772.736   -25361.207   -46947.058   -18611.564    17418.805    22787.769    82.149582 
   49800    1886.4676    -111.5619    1.7069155   -109.85498    29840.604    4.3315641    4.3315641    4.3315641    29840.604   -1403.6355    75922.789    15002.659   -9023.1471   -14708.368    1691.2794    81.270742 
   49900    1379.6571   -111.12694    1.2483428    -109.8786   -21130.199     4.354299     4.354299     4.354299   -21130.199   -21572.169   -9620.9158   -32197.512   -8530.0399    20541.321     22455.98    82.557161 
   50000    1443.5891   -111.17104    1.3061898   -109.86485   -8960.8295    4.3664921    4.3664921    4.3664921   -8960.8295   -51013.753    49823.083   -25691.819   -29179.205   -9137.3737   -3150.7842    83.252642 
   50100    1431.6531   -111.15856    1.2953898   -109.86317     10786.44    4.3529935    4.3529935    4.3529935     10786.44   -47593.762    119820.24   -39867.154   -6109.4933   -2152.0896    3909.5876    82.482927 
   50200    1499.7543    -111.2197    1.3570092   -109.86269    23730.616    4.3467899    4.3467899    4.3467899    23730.616    12396.928    31208.189    27586.731   -3678.8285    12482.563    3813.4196    82.130779 
   50300    1583.5604   -111.29767    1.4328388   -109.86483   -38985.891    4.3633408    4.3633408    4.3633408   -38985.891    -68801.67   -4081.6242   -44074.378    -18602.87   -11212.789    1800.2524    83.072522 
   50400    1630.8899   -111.32588    1.4756635   -109.85021     603.6162    4.3579281    4.3579281    4.3579281     603.6162   -13840.635    16499.278    -847.7949    9549.8073    13484.521    4542.0034    82.763754 
   50500    1502.6998   -111.21023    1.3596743   -109.85056   -6758.9105    4.3588649    4.3588649    4.3588649   -6758.9105    -29164.12    20355.484   -11468.095   -4131.8809    -22339.24   -2084.9826    82.817139 
   50600    1649.8956   -111.34787    1.4928602   -109.85501   -12192.161    4.3588123    4.3588123    4.3588123   -12192.161   -59651.707     68704.58   -45629.355   -2503.8985   -8112.5749   -3261.8074    82.814139 
   50700    1161.1394   -110.90878    1.0506234   -109.85815    30784.579    4.3463716    4.3463716    4.3463716    30784.579    11787.116    75034.372    5532.2488    11545.651     6131.988   -4777.9708    82.107072 
   50800    1375.8835   -111.11841    1.2449283   -109.87348    -12419.31    4.3506769    4.3506769    4.3506769    -12419.31   -46631.159    51819.692   -42446.462   -8979.8348   -46567.223    2666.5765    82.351309 
   50900    2148.8431   -111.81039    1.9443184   -109.86608   -20735.735    4.3545076    4.3545076    4.3545076   -20735.735   -29829.314   -17862.185   -14515.708    878.45022    17025.424   -14459.775    82.569025 
   51000    835.47353   -110.64495   0.75595401   -109.88899   -3577.0637    4.3480169    4.3480169    4.3480169   -3577.0637   -12184.827    -467.0809    1920.7166    26162.668   -35847.406   -1225.0417    82.200352 
   51100    2134.8914   -111.81152    1.9316946   -109.87983   -14213.288    4.3545052    4.3545052    4.3545052   -14213.288   -27090.436    25000.035   -40549.464   -16529.495   -15337.611    405.01286     82.56889 
   51200    1491.2571   -111.22585    1.3493208   -109.87653   -10092.745    4.3557138    4.3557138    4.3557138   -10092.745   -29682.224    23689.958   -24285.968    14121.697    5923.4983   -13046.404    82.637657 
   51300     1068.864   -110.84113   0.96713058     -109.874    9845.5353    4.3402518    4.3402518    4.3402518    9845.5353   -490.45093    21331.267    8695.7901     12994.38   -50232.935   -6183.1583    81.760733 
   51400     1684.624    -111.3958    1.5242832   -109.87151    11757.946    4.3566427    4.3566427    4.3566427    11757.946    32667.527    20062.371   -17456.059   -25047.872    28617.109   -1808.7265    82.690542 
   51500    1344.2111   -111.08521    1.2162705   -109.86894   -29455.692    4.3650124    4.3650124    4.3650124   -29455.692   -37625.043   -16832.256   -33909.776    23796.378   -41451.301   -13739.759    83.168038 
   51600    1167.3665   -110.91681    1.0562578   -109.86055    27411.393     4.344231     4.344231     4.344231    27411.393    44728.658    60139.121   -22633.599   -6892.8398    -7914.743   -5717.0137    81.985816 
   51700    1338.4715    -111.0889    1.2110771   -109.87782    2895.7486    4.3475064    4.3475064    4.3475064    2895.7486   -38367.997    62123.365   -15068.122   -9024.4494    33912.686   -4369.6312      82.1714 
   51800    1532.9948   -111.26291    1.3870859   -109.87582    9500.7885    4.3569658    4.3569658    4.3569658    9500.7885   -28565.063    77332.062   -20264.634    2956.1445   -35790.684   -5198.0556    82.708939 
   51900    1169.1202   -110.93565    1.0578445   -109.87781   -4848.1004    4.3685467    4.3685467    4.3685467   -4848.1004   -34692.623    69109.024   -48960.702   -2813.9554    54915.522   -9158.9096    83.370219 
   52000    1611.3395   -111.31589    1.4579738   -109.85792    -18906.98    4.3640911    4.3640911    4.3640911    -18906.98   -36950.689      22662.2   -42432.451   -15368.771    -20193.02    11299.345    83.115388 
   52100    998.18334   -110.75593   0.90317727   -109.85275    19489.989    4.3346871    4.3346871    4.3346871    19489.989    -33834.25    82588.281    9715.9352    18653.765    12427.353   -17327.093    81.446656 
   52200    1544.2217   -111.27237    1.3972442   -109.87513    7620.7855    4.3370638    4.3370638    4.3370638    7620.7855   -9294.6507    58416.844   -26259.837     118.8665     41260.08    2438.1048    81.580698 
   52300    1869.0124   -111.56943    1.6911217   -109.87831   -15885.098    4.3652328    4.3652328    4.3652328   -15885.098   -15228.058    2003.5119   -34430.749    2081.9528   -27973.221    2174.3273    83.180632 
   52400    915.09764   -110.69867   0.82799957   -109.87067    -10557.47    4.3724423    4.3724423    4.3724423    -10557.47   -32969.884    22694.393    -21396.92    4965.1163    51684.268   -5067.7077    83.593452 
   52500    2085.4011   -111.72282    1.8869147   -109.83591   -4070.6765    4.3596769    4.3596769    4.3596769   -4070.6765    27194.201   -21744.603   -17661.627    7668.5243   -11128.045     18395.54    82.863429 
   52600    932.28097    -110.6914   0.84354742   -109.84785     3557.161    4.3418148    4.3418148    4.3418148     3557.161    4948.6962    59569.942   -53847.155   -7993.8923    64836.578    2357.5697    81.849096 
   52700    1932.5916   -111.61158    1.7486495   -109.86293    8506.7422    4.3498516    4.3498516    4.3498516    8506.7422    35372.621   -25932.343    16079.948     21973.93    3682.3573   -2437.6974     82.30445 
   52800    1529.7192   -111.25204    1.3841221   -109.86792   -43496.634    4.3734411    4.3734411    4.3734411   -43496.634   -18471.981   -44511.349   -67506.571    3210.2001    23618.407    24152.939    83.650751 
   52900      1297.33   -111.03332    1.1738515   -109.85947    2307.9436    4.3581617    4.3581617    4.3581617    2307.9436    17751.207    16190.996   -27018.372    -3773.578    36762.026   -11181.449    82.777063 
   53000    1798.6139   -111.46943    1.6274237     -109.842    3614.6325    4.3525758    4.3525758    4.3525758    3614.6325   -296.96055    6834.6058    4306.2523   -8865.2654   -11429.586    14026.899    82.459184 
   53100     825.4517   -110.61592   0.74688604   -109.86903   -31779.014    4.3499369    4.3499369    4.3499369   -31779.014   -18565.826    5970.4421   -82741.658   -1345.1028    56524.855    26771.836    82.309292 
   53200    2349.6181   -111.98678    2.1259839    -109.8608     16922.58    4.3393135    4.3393135    4.3393135     16922.58    19726.315    25905.305    5136.1208   -8722.2187   -6277.4345   -12999.146     81.70772 
   53300     1065.674   -110.86183   0.96424423   -109.89758   -12848.779    4.3615394    4.3615394    4.3615394   -12848.779   -27162.022    30083.735   -41468.051    1637.4896    28254.912    19223.512    82.969676 
   53400    1398.3283   -111.13066    1.2652368   -109.86543   -33829.484    4.3675557    4.3675557    4.3675557   -33829.484   -43301.478    3902.2485   -62089.223   -1134.1087    16301.918    16474.713    83.313497 
   53500    1810.0711   -111.47204    1.6377904   -109.83425    27616.523    4.3455575    4.3455575    4.3455575    27616.523    36643.118    41285.711      4920.74    17738.053    15565.155   -7160.5107     82.06094 
   53600    948.96713   -110.72332    0.8586454   -109.86467   -15581.389    4.3642459    4.3642459    4.3642459   -15581.389   -8355.0835    28301.759   -66690.843   -3823.2241    29077.155    24288.287     83.12423 
   53700    2292.9225   -111.90616    2.0746845   -109.83147   -31702.988    4.3750395    4.3750395    4.3750395   -31702.988   -18089.093   -37834.152    -39185.72    18131.711    -12886.66   -24241.367    83.742501 
   53800    916.46567    -110.6804    0.8292374   -109.85116   -12998.094    4.3493389    4.3493389    4.3493389   -12998.094   -30004.303    36259.463   -45249.443    5319.6419    71596.208     18200.49    82.275351 
   53900    1923.0499   -111.58924     1.740016   -109.84922    9849.2025    4.3298778    4.3298778    4.3298778    9849.2025    44552.296    -7462.295   -7542.3935    8414.0378   -21723.927    9264.9526    81.175864 
   54000    1675.7607   -111.38958    1.5162635   -109.87331    4128.0039    4.3420962    4.3420962    4.3420962    4128.0039   -27330.565    56681.104   -16966.527    12875.352    31227.546   -4335.6771    81.865013 
   54100    976.13292   -110.77703   0.88322558    -109.8938   -480.96784    4.3613629    4.3613629    4.3613629   -480.96784    18427.371   -10399.437   -9470.8373   -4554.3848    40474.171    22561.323    82.959606 
   54200    2039.9113   -111.70964    1.8457546   -109.86388   -26165.195    4.3720324    4.3720324    4.3720324   -26165.195   -7527.4841    -35123.83   -35844.271    13535.982   -19600.013   -8320.1341    83.569947 
   54300     1275.541   -111.02896    1.1541363   -109.87482    4862.2459    4.3384464    4.3384464    4.3384464    4862.2459   -40980.244    48873.725     6693.257    2640.2227    52406.481     3391.871    81.658746 
   54400    1457.7291   -111.18692    1.3189839   -109.86794    39699.795    4.3169564    4.3169564    4.3169564    39699.795    62736.265    11416.566    44946.554    8084.9266    3201.9164    36412.137    80.451286 
   54500    1847.5821   -111.55191    1.6717311   -109.88018   -3453.9861    4.3531182    4.3531182    4.3531182   -3453.9861   -10792.598   -6237.1409     6667.781   -2922.1214    16949.148   -19957.372    82.490015 
   54600    794.75813    -110.5975   0.71911385   -109.87838   -11439.496      4.36421      4.36421      4.36421   -11439.496    -20744.83   -39761.534    26187.877    4099.7014     42887.41    21645.534     83.12218 
   54700    2079.3239   -111.74122     1.881416    -109.8598   -14718.932    4.3526896    4.3526896    4.3526896   -14718.932    9132.3493   -44062.651   -9226.4946    957.29875   -15371.485    23914.982    82.465652 
   54800     1247.885    -111.0016    1.1291126   -109.87249    16168.393     4.337742     4.337742     4.337742    16168.393   -7903.1258     13028.65    43379.654   -7736.6752    34885.141   -27132.687    81.618976 
   54900     1296.399   -111.06074    1.1730091   -109.88773   -15760.125    4.3335868    4.3335868    4.3335868   -15760.125   -14985.301   -1582.9721   -30712.101    618.81416    20723.863    42138.807    81.384649 
   55000    1806.7701    -111.5206    1.6348035   -109.88579   -528.24145    4.3459558    4.3459558    4.3459558   -528.24145    5887.4492   -23824.541    16352.367    2856.9932    3957.5193   -14275.284    82.083509 
   55100    1127.7885   -110.90854    1.0204468    -109.8881   -23213.347    4.3610556    4.3610556    4.3610556   -23213.347   -17413.788   -2736.5252   -49489.727    1507.4776    36210.533   -5241.6203    82.942067 
   55200    1383.7749   -111.12391    1.2520686   -109.87184   -6068.6706    4.3560329    4.3560329    4.3560329   -6068.6706    6376.4008    -666.2939   -23916.119   -784.95669   -4449.6907    22105.189    82.655821 
   55300    1536.0626   -111.25126    1.3898617    -109.8614    20795.275    4.3349028    4.3349028    4.3349028    20795.275    41718.171    15927.722    4739.9307   -1416.8893    14070.501   -53726.092    81.458816 
   55400    1702.1456   -111.41306    1.5401371   -109.87293   -7375.7378    4.3432658    4.3432658    4.3432658   -7375.7378   -19127.952    20481.407   -23480.668    10628.221    23145.006    29364.544    81.931181 
   55500    1379.1339   -111.12046    1.2478694   -109.87259   -26194.455    4.3572323    4.3572323    4.3572323   -26194.455   -7806.7706   -23220.851   -47555.743    4494.3308   -4065.8758   -10403.782    82.724117 
   55600    1518.7562   -111.25133    1.3742026   -109.87713   -10975.762    4.3458889    4.3458889    4.3458889   -10975.762    2784.8667   -34094.074   -1618.0796   -2304.0417    10512.771   -52226.107    82.079718 
   55700    1620.5402   -111.34486    1.4662988   -109.87856    19083.803    4.3411221    4.3411221    4.3411221    19083.803     6071.741    18311.842    32867.825    9103.1324    10276.043    33946.169    81.809924 
   55800    1012.2944   -110.81448   0.91594529   -109.89854   -10951.096    4.3532648    4.3532648    4.3532648   -10951.096    23679.228   -34368.363   -22164.152    2239.1004   -3655.6043   -59112.125    82.498347 
   55900    2031.1848   -111.70941    1.8378587   -109.87155     -3869.53    4.3606929    4.3606929    4.3606929     -3869.53   -22807.869   -13717.424    24916.703     2718.664    7244.3893   -19806.579    82.921375 
   56000    1439.7347   -111.17663    1.3027022   -109.87393    10773.083    4.3401944    4.3401944    4.3401944    10773.083    2102.4787     23312.17    6904.6012   -1887.2137    6682.6078   -16414.151    81.757489 
   56100     1093.198   -110.88066   0.98914855   -109.89151   -7373.7752    4.3409054    4.3409054    4.3409054   -7373.7752    27910.353   -35569.307   -14462.372    11810.604   -7200.9414    -42936.76    81.797679 
   56200    2228.5938   -111.88241    2.0164785   -109.86593    3557.3416    4.3555932    4.3555932    4.3555932    3557.3416   -19469.735    8592.0459    21549.714    4630.2411    4054.9014    11988.881    82.630797 
   56300    1186.3207   -110.94425    1.0734079   -109.87084    1151.2537    4.3572068    4.3572068    4.3572068    1151.2537    10115.928   -30582.642    23920.475    3861.4827    10502.395   -55070.033    82.722666 
   56400    1844.6929   -111.52346    1.6691169   -109.85434   -650.86262    4.3609023    4.3609023    4.3609023   -650.86262   -27910.698    -25418.94     51377.05    799.14139   -15665.257    17549.245    82.933324 
   56500    1687.0185   -111.39188    1.5264498   -109.86543   -12165.045    4.3388666    4.3388666    4.3388666   -12165.045   -11347.565   -35202.637    10055.069    7435.7841    431.34738   -24973.345    81.682476 
   56600    1063.4838   -110.84141   0.96226253   -109.87915    48096.512    4.3266672    4.3266672    4.3266672    48096.512     56123.39    5279.8458    82886.301   -12788.164    4823.1323   -37941.932    80.995423 
   56700     2344.243     -111.987    2.1211204   -109.86588    -13834.13    4.3599743    4.3599743    4.3599743    -13834.13   -25714.804   -17054.877     1267.291    446.88992   -10032.492      26519.6     82.88039 
   56800    623.43591   -110.44914   0.56409791   -109.88504   -28597.659    4.3493447    4.3493447    4.3493447   -28597.659   -14604.343   -49871.068   -21317.566     19985.29    9514.1226   -65947.208    82.275681 
   56900    1891.4083   -111.58072     1.711386   -109.86933    31748.656    4.3278552    4.3278552    4.3278552    31748.656   -2851.6805    63085.789    35011.861   -19011.205    2601.6082    9584.6266    81.062157 
   57000    1624.4277   -111.35186    1.4698163   -109.88204    5218.1314    4.3387588    4.3387588    4.3387588    5218.1314    26237.839   -6419.5761   -4163.8692     13228.65   -1624.4635   -35857.926    81.676387 
   57100    947.44451   -110.75986   0.85726771   -109.90259    497.79223     4.342697     4.342697     4.342697    497.79223   -12682.085   -1848.3832    16023.845     8069.206   -5120.9134   -48287.383    81.898995 
   57200    2244.1564   -111.91089    2.0305599   -109.88033   -521.80228    4.3519336    4.3519336    4.3519336   -521.80228   -20152.466   -8691.2787    27278.338   -5876.8705    10896.132    18662.086     82.42269 
   57300    920.70574   -110.73296    0.8330739   -109.89989   -16130.158    4.3424341    4.3424341    4.3424341   -16130.158    19135.922   -13853.455   -53672.941     11941.49   -3358.2729   -59457.831    81.884127 
   57400     1723.275   -111.44706    1.5592555   -109.88781    9978.4945    4.3345454    4.3345454    4.3345454    9978.4945    18666.018   -15881.696    27151.161     17576.99    3039.5796    -1652.352     81.43867 
   57500     1911.603    -111.6108    1.7296585   -109.88114   -1031.0356    4.3500741    4.3500741    4.3500741   -1031.0356    7396.8002   -8137.5219   -2352.3851   -3081.2785    11995.102   -21686.176    82.317083 
   57600    983.10531   -110.77424   0.88953435   -109.88471   -10456.499     4.349342     4.349342     4.349342   -10456.499    5188.6059   -39357.502    2799.3978    17062.835   -6552.4489   -45771.401    82.275529 
   57700    2059.3285   -111.72748    1.8633237   -109.86416    23048.019    4.3460072    4.3460072    4.3460072    23048.019   -1660.3773   -11419.589    82224.024    12155.366    9532.4241    18988.888    82.086423 
   57800    1460.9718   -111.20185    1.3219179   -109.87993   -7214.0769    4.3421459    4.3421459    4.3421459   -7214.0769    23311.606   -31088.118   -13865.719    -7427.588   -3835.7332   -40306.016    81.867819 
   57900    1048.6191   -110.83667   0.94881262   -109.88786    21829.679    4.3370418    4.3370418    4.3370418    21829.679   -9094.8166   -9671.6151     84255.47     35685.27   -12363.065   -6112.7711    81.579462 
   58000    1858.5686   -111.56385    1.6816719   -109.88218    -22786.07    4.3493024    4.3493024    4.3493024    -22786.07   -38096.415    -15430.54   -14831.254    -17301.31    19987.638    3898.7553     82.27328 
   58100    1202.8741   -110.97214    1.0883858   -109.88375   -9451.3269     4.340338     4.340338     4.340338   -9451.3269   -23612.403   -51923.475    47181.898    15075.813    12826.496   -42785.192    81.765604 
   58200    1763.8225    -111.4796    1.5959437   -109.88366    4628.0584    4.3397204    4.3397204    4.3397204    4628.0584   -20642.469   -11254.966     45781.61    23612.099    -10473.51    25939.797    81.730705 
   58300    1175.3533   -110.95095    1.0634843   -109.88746   -12620.597    4.3526636    4.3526636    4.3526636   -12620.597   -27054.425   -22934.823    12127.458   -22390.504    26145.263   -22752.397    82.464173 
   58400    1003.0813   -110.79233   0.90760907   -109.88472   -8800.2752    4.3443213    4.3443213    4.3443213   -8800.2752    7152.9605   -41891.115    8337.3294    38547.823   -5559.1005   -33917.434    81.990931 
   58500     2410.324   -112.05016    2.1809118   -109.86925   -1206.1597    4.3453936    4.3453936    4.3453936   -1206.1597   -23273.958    15824.236    3831.2426   -8530.3159    8292.0403    85.115675    82.051661 
   58600    858.35905   -110.67685    0.7766613   -109.90019    -22435.23    4.3445671    4.3445671    4.3445671    -22435.23   -24628.801    -48616.25    5939.3608    -888.3181    29531.736   -29058.288    82.004849 
   58700    1517.4026   -111.26801    1.3729778   -109.89503   -1022.4334    4.3317341    4.3317341    4.3317341   -1022.4334   -4280.1196   -7906.9628    9119.7823    28632.188   -8153.7426   -32957.876    81.280311 
   58800     1848.108   -111.56712     1.672207   -109.89491    11444.971    4.3504147    4.3504147    4.3504147    11444.971   -24181.909    34033.584    24483.237   -11559.485    11186.222    15235.287    82.336418 
   58900    1247.4594   -111.02426    1.1287275   -109.89553   -36723.203    4.3583518    4.3583518    4.3583518   -36723.203   -35214.352   -50120.563   -24834.694    31132.319    20674.175   -20777.874    82.787896 
   59000    1807.4898   -111.50409    1.6354547   -109.86864    16534.833    4.3427086    4.3427086    4.3427086    16534.833    619.75989    42056.348    6928.3926   -800.63394   -24769.281    2897.5866    81.899656 
   59100      1110.96   -110.87735    1.0052199   -109.87213   -2075.9376    4.3480873    4.3480873    4.3480873   -2075.9376    2820.9294   -10583.386    1534.6439    3021.1397    4153.9774    14835.703    82.204346 
   59200    1857.6711   -111.54553    1.6808599   -109.86467    -20826.41    4.3438126    4.3438126    4.3438126    -20826.41    -13335.51   -52082.259    2938.5393    38456.032    2206.4016   -24060.586    81.962133 
   59300    1409.3097   -111.14662     1.275173   -109.87144    19820.787    4.3402892    4.3402892    4.3402892    19820.787    28873.337    28161.571    2427.4522   -14989.731   -29436.376    30988.724    81.762845 
   59400    1422.8624   -111.16241    1.2874358   -109.87497   -28999.006    4.3577841    4.3577841    4.3577841   -28999.006   -22098.425   -37462.728   -27435.865    28248.694    181.75201   -6673.4263    82.755547 
   59500    1674.3719   -111.37616    1.5150069   -109.86116   -10802.276    4.3497487    4.3497487    4.3497487   -10802.276    9486.5043   -46267.151    4373.8188    24746.354    -7912.512   -4525.0284    82.298612 
   59600    1137.5305   -110.89663    1.0292615   -109.86737   -2272.8515    4.3392496    4.3392496    4.3392496   -2272.8515    7123.7867    10512.154   -24454.496   -6702.2955   -20728.294    30457.313    81.704107 
   59700    1608.9301   -111.32917    1.4557938   -109.87337   -4080.7523    4.3480075    4.3480075    4.3480075   -4080.7523    1783.7225   -34130.583    20104.604    27222.476    6604.0171   -8439.8651    82.199816 
   59800    1513.4006   -111.24834    1.3693567   -109.87898    6176.0765    4.3446954    4.3446954    4.3446954    6176.0765    1889.1575     26867.45   -10228.378    1534.9446   -18212.239    16311.671    82.012113 
   59900    1159.5207   -110.94362    1.0491587   -109.89446    13851.768    4.3458154    4.3458154    4.3458154    13851.768    16485.524    24762.014    307.76472    1495.7152   -12072.809     8640.311    82.075554 
   60000    2223.0094    -111.8852    2.0114256   -109.87377   -6629.3502    4.3622404    4.3622404    4.3622404   -6629.3502    1777.9759   -9346.1023   -12319.924    10448.963     883.3758    157.75238    83.009689 
   60100    565.42487   -110.40705    0.5116083   -109.89544   -5286.2229    4.3455081    4.3455081    4.3455081   -5286.2229    10865.807    20793.287   -47517.763   -9110.9253    -24827.43    29637.787    82.058144 
   60200    1784.8982   -111.48738    1.6150134   -109.87237    30005.152    4.3310132    4.3310132    4.3310132    30005.152    41523.779    7937.2055     40554.47   -12855.911     6975.342   -11397.586    81.239738 
   60300    1826.1425   -111.52862    1.6523321   -109.87629   -18294.345    4.3554217    4.3554217    4.3554217   -18294.345   -5485.6642   -8431.4502   -40965.921    11674.046   -14921.913     16999.25    82.621038 
   60400    837.39593   -110.63627   0.75769343   -109.87858   -5188.9698    4.3626045    4.3626045    4.3626045   -5188.9698    6373.4991    18940.778   -40881.186   -16548.838   -4341.2393    17383.106    83.030476 
   60500    1718.1742   -111.39543    1.5546402   -109.84079    10549.019    4.3625792    4.3625792    4.3625792    10549.019    48924.299   -15702.577   -1574.6648   -181.70942   -11892.647   -25598.176    83.029034 
   60600    834.09451   -110.61958   0.75470624   -109.86487   -33525.201    4.3478376    4.3478376    4.3478376   -33525.201    36410.013   -52239.174   -84746.443    14731.519   -21843.514    29583.602    82.190184 
   60700    2321.2062   -111.94653    2.1002761   -109.84625    33900.582    4.3296705    4.3296705    4.3296705    33900.582    62676.338    29725.791    9299.6177   -731.82276    9065.0043    180.59608    81.164205 
   60800    1003.4696   -110.79564   0.90796041   -109.88768   -29241.615    4.3540986    4.3540986    4.3540986   -29241.615    4751.5727   -27888.743   -64587.675    5210.5294   -21728.297   -4036.0591    82.545764 
   60900    1212.4914   -110.97231    1.0970877   -109.87522   -36427.286    4.3480567    4.3480567    4.3480567   -36427.286   -38352.066   -15812.365   -55117.427     4291.895   -34344.667    9501.7051     82.20261 
   61000    2068.0292   -111.72824    1.8711963   -109.85705    5407.3009    4.3350548    4.3350548    4.3350548    5407.3009     35912.83   -32734.189    13043.262   -16571.662    9511.8737   -813.62715    81.467385 
   61100    680.23462   -110.50213   0.61549058   -109.88664   -22268.362    4.3514537    4.3514537    4.3514537   -22268.362    18529.439    -15500.57   -69833.953     5176.714   -24215.054    15592.098    82.395424 
   61200    2059.1766   -111.72147    1.8631862   -109.85829    1337.4326     4.344599     4.344599     4.344599    1337.4326    6858.0498   -8296.2944    5450.5423   -16491.012   -38388.176   -9248.3243    82.006654 
   61300    1226.9735   -110.98662    1.1101914   -109.87643    6222.7812    4.3432171    4.3432171    4.3432171    6222.7812    87044.721   -46985.436   -21390.941    -24022.53    19233.849    24310.721    81.928424 
   61400    1614.5156   -111.32672    1.4608477   -109.86587    -30830.61    4.3556415    4.3556415    4.3556415    -30830.61    -13210.21   -16657.177   -62624.443    10395.576   -40512.924   -5318.4171    82.633543 
   61500    1497.8616   -111.22289    1.3552967   -109.86759   -3779.7631    4.3399084    4.3399084    4.3399084   -3779.7631   -23939.151   -3604.9401    16204.802   -27433.907    11841.884    3842.5474    81.741329 
   61600    1211.6651   -110.98528    1.0963401   -109.88894   -19058.054    4.3321124    4.3321124    4.3321124   -19058.054    10571.223   -40695.324   -27050.061   -13078.211    1338.5819    36687.715    81.301613 
   61700    2134.0914   -111.80632    1.9309707   -109.87535    10078.472     4.343033     4.343033     4.343033    10078.472    -1441.787    24116.859    7560.3441    1571.1739    -17995.81   -27462.712    81.918008 
   61800    846.94247   -110.65171   0.76633134   -109.88538   -30011.887    4.3671397    4.3671397    4.3671397   -30011.887   -30369.962   -35603.025   -24062.673   -19502.595    19295.566    38803.528    83.289694 
   61900    1909.9756   -111.58433     1.728186   -109.85614     -10804.8    4.3576433    4.3576433    4.3576433     -10804.8   -8422.5755   -7866.6487   -16125.175    7669.5929    2472.8145    8766.8811    82.747526 
   62000    1758.7785   -111.44432    1.5913797   -109.85294    15252.762    4.3218665    4.3218665    4.3218665    15252.762    8016.8416   -10911.067    48652.511   -23729.409    269.28153    -5124.207    80.726112 
   62100    928.91943   -110.73521   0.84050582    -109.8947    5433.6056    4.3329773    4.3329773    4.3329773    5433.6056    20570.247   -28025.684    23756.254   -16581.606    27927.106    36183.916    81.350314 
   62200     2085.091   -111.74786    1.8866342   -109.86123   -7146.2489    4.3711356    4.3711356    4.3711356   -7146.2489   -24069.071   -13290.668    15920.993    3879.5336   -538.46123   -12658.433     83.51853 
   62300    961.30553   -110.73202   0.86980945   -109.86221   -11806.325    4.3656593    4.3656593    4.3656593   -11806.325   -30908.098   -41593.789    37082.912   -21907.714   -1332.5004    19024.321     83.20502 
   62400    1608.3629    -111.3053    1.4552806   -109.85002    4930.7024    4.3373399    4.3373399    4.3373399    4930.7024    -19092.98    5382.6144    28502.473     6298.129    20769.953    10308.149    81.596281 
   62500     1842.584   -111.52091    1.6672087    -109.8537    36650.208     4.320532     4.320532     4.320532    36650.208    8604.9975    22326.489    79019.136   -12763.041   -12624.849   -7783.9948    80.651357 
   62600    1269.9113   -111.04687    1.1490424   -109.89782    8602.3691    4.3442928    4.3442928    4.3442928    8602.3691    5050.4384   -3872.4489    24629.118   -7108.9868    11317.267    41833.408    81.989318 
   62700    2070.0755    -111.7335    1.8730478   -109.86046   -11899.396    4.3688039    4.3688039    4.3688039   -11899.396   -26379.816    10080.312   -19398.682    60.826856    11525.508   -12328.401    83.384945 
   62800    1220.9923   -110.97123    1.1047795   -109.86645   -13270.443    4.3509603    4.3509603    4.3509603   -13270.443    6945.7769   -45003.199   -1753.9072   -11642.466   -13217.713    15060.614    82.367402 
   62900    1877.9863   -111.55695    1.6992415   -109.85771    14341.258    4.3315211    4.3315211    4.3315211    14341.258    37950.821   -12488.691    17561.644    3642.8241     18123.67    44537.271    81.268321 
   63000     1777.087   -111.47641    1.6079457   -109.86846    19837.476    4.3482308    4.3482308    4.3482308    19837.476     21205.49   -13633.767    51940.704   -6506.7134     20784.44   -29339.357    82.212484 
   63100    695.11387   -110.50582   0.62895363   -109.87687   -22104.787    4.3733085    4.3733085    4.3733085   -22104.787    9904.0176   -79564.872    3346.4928   -9601.6228   -2673.6828    57329.157    83.643142 
   63200    1795.2305   -111.47308    1.6243623   -109.84872    9111.3044    4.3561472    4.3561472    4.3561472    9111.3044   -24365.085   -10186.357    61885.355   -163.76409   -3185.8819   -7843.9501    82.662331 
   63300     1283.409   -111.01276    1.1612554    -109.8515    1348.7892    4.3243498    4.3243498    4.3243498    1348.7892     520.0771   -37994.161    41520.451   -24003.149    11623.912    28463.881    80.865348 
   63400    1647.3463   -111.36715    1.4905536   -109.87659   -7274.5434    4.3251162    4.3251162    4.3251162   -7274.5434   -690.87375    1387.7973   -22520.554    6624.9708   -12753.094    47391.626    80.908352 
   63500    1764.8849   -111.48379    1.5969049   -109.88689   -6448.5639    4.3479721    4.3479721    4.3479721   -6448.5639    -52214.94    6225.9445    26643.304   -5251.3929    6166.9257   -12073.237    82.197807 
   63600    724.93355   -110.55176   0.65593511   -109.89582   -37781.541    4.3613516    4.3613516    4.3613516   -37781.541   -23648.409   -82035.634   -7660.5823    -26260.21    11974.693    44388.563    82.958961 
   63700    2212.3815   -111.88092    2.0018093   -109.87911   -2250.5913    4.3399402    4.3399402    4.3399402   -2250.5913   -6823.2879    -8094.483    8165.9971    11943.365    -9715.138   -4168.8333    81.743123 
   63800    1377.8322   -111.13814    1.2466916   -109.89145    28199.197    4.3127767    4.3127767    4.3127767    28199.197    6045.6603    10816.858    67735.074    5528.8366    11020.124    20176.858    80.217829 
   63900    1093.1412   -110.91478   0.98909716   -109.92568   -8909.0303    4.3326151    4.3326151    4.3326151   -8909.0303   -8671.7121    670.05648   -18725.435   -22024.121    7271.4202    45072.774    81.329915 
   64000    2281.5416   -111.94368    2.0643868   -109.87929   -11332.741    4.3607531    4.3607531    4.3607531   -11332.741   -35529.724    1333.0599      198.442    12381.076    1413.9383   -11842.636    82.924813 
   64100    852.13149   -110.65375   0.77102648   -109.88272   -715.31324    4.3480318    4.3480318    4.3480318   -715.31324     5568.454   -18342.938    10628.544    5202.8308    4436.2898    52888.106    82.201195 
   64200    1640.4635   -111.33773    1.4843259    -109.8534    16217.166    4.3352278    4.3352278    4.3352278    16217.166   -5809.5958    54206.939    254.15622   -9496.9074   -10655.162    1223.4085    81.477141 
   64300    1872.3521   -111.55756    1.6941435   -109.86341    16009.747    4.3298283    4.3298283    4.3298283    16009.747    17579.475    22132.378    8317.3876    7607.5478   -4373.5981    18503.964    81.173079 
   64400     1343.542    -111.1059     1.215665   -109.89024    13212.973    4.3378822    4.3378822    4.3378822    13212.973    15022.525    14797.985    9818.4083    889.20197    6234.0298    47372.558     81.62689 
   64500    1967.6794   -111.65462    1.7803977   -109.87423   -5940.7573    4.3518887    4.3518887    4.3518887   -5940.7573   -25540.305    9794.4444    -2076.411    3536.1671   -12546.086   -17062.892    82.420139 
   64600    1020.4551   -110.80495   0.92332918   -109.88162   -5368.6182    4.3390042    4.3390042    4.3390042   -5368.6182    50543.182   -27305.708   -39343.328    14083.566   -1961.6867    56117.482    81.690246 
   64700    1708.6542   -111.41592    1.5460262   -109.86989    26110.456    4.3334573    4.3334573    4.3334573    26110.456    16872.921    38152.288    23306.158    -10100.81   -4387.4514   -2456.0668    81.377352 
   64800    1634.2187   -111.35905    1.4786754   -109.88038   -1496.4195    4.3381818    4.3381818    4.3381818   -1496.4195    15614.351    2995.1363   -23098.745   -1412.0278   -9762.8751    32540.885    81.643806 
   64900    1023.3283   -110.81861   0.92592895   -109.89269   -13152.841    4.3402366    4.3402366    4.3402366   -13152.841    26565.586   -17115.418    -48908.69    12142.714   -6153.8025    41086.204    81.759874 
   65000    1871.9604   -111.57238    1.6937891   -109.87859   -7723.3802    4.3471214    4.3471214    4.3471214   -7723.3802    -18879.05    -18098.09    13806.999   -4977.7872    9882.0767   -23274.538    82.149573 
   65100    1406.9737   -111.15109    1.2730594   -109.87804   -8903.5907    4.3456743    4.3456743    4.3456743   -8903.5907    40828.802   -39924.917   -27614.657    -1433.184    -5877.856    73730.883    82.067561 
   65200    1406.5224    -111.1434     1.272651   -109.87075    11988.372    4.3413484    4.3413484    4.3413484    11988.372    34726.886    18115.349   -16877.118    -420.2499    742.47575   -31221.378    81.822724 
   65300    1570.6366   -111.29768     1.421145   -109.87653   -8707.4229    4.3306133    4.3306133    4.3306133   -8707.4229    15275.921   -20939.022   -20459.168    7821.7158    22994.218    20433.062    81.217235 
   65400    1580.6082   -111.30844    1.4301675   -109.87828    31437.035    4.3304897    4.3304897    4.3304897    31437.035    46531.702     43669.94    4109.4618   -5925.1156   -18092.809    30021.908    81.210285 
   65500    1127.2783   -110.90543    1.0199851   -109.88545    -14629.39    4.3516287    4.3516287    4.3516287    -14629.39   -5019.0309    12362.091    -51231.23   -10830.563    20516.825   -35777.052    82.405364 
   65600     1497.298   -111.23046    1.3547867   -109.87567   -14478.393    4.3444205    4.3444205    4.3444205   -14478.393   -5830.4554   -21648.572    -15956.15    -5367.033    5050.4463    25846.936    81.996548 
   65700    1734.2153   -111.43649    1.5691544   -109.86734     23413.51    4.3242753    4.3242753    4.3242753     23413.51    6975.1555    40664.553    22600.822   -11323.195   -5319.8669   -13979.529    80.861167 
   65800    791.64024   -110.61521   0.71629273   -109.89892    -4635.152    4.3389541    4.3389541    4.3389541    -4635.152   -20958.557    71606.094   -64552.992   -3402.6335    26454.937   -16798.549    81.687419 
   65900     2469.795   -112.10517    2.2347224   -109.87045   -4274.6387    4.3488894    4.3488894    4.3488894   -4274.6387   -23971.296    43.485612    11103.895   -5927.2554   -8373.2827   -7835.2522    82.249846 
   66000    1119.7226   -110.90965    1.0131485    -109.8965   -7261.2504    4.3416428    4.3416428    4.3416428   -7261.2504   -34414.658    44882.787   -32251.881   -13789.686    26595.792    -3713.261    81.839371 
   66100    1001.4249   -110.80511   0.90611027     -109.899   -20970.654    4.3371722    4.3371722    4.3371722   -20970.654   -45538.764    5777.2173   -23150.416    3961.3023    161.32845   -22897.245     81.58682 
   66200    2280.7193   -111.94269    2.0636428   -109.87905    17507.683    4.3251481    4.3251481    4.3251481    17507.683   -7243.7129    11369.207    48397.555    7214.3661   -2524.7729    10408.787    80.910137 
   66300    1220.1652   -111.01347    1.1040311   -109.90943    4985.6454    4.3348943    4.3348943    4.3348943    4985.6454    -1543.538    42994.046   -26493.572    -5204.762    35715.448   -4423.8731    81.458337 
   66400    1716.5063   -111.44675     1.553131   -109.89362    -24327.27     4.348779     4.348779     4.348779    -24327.27   -39128.888   -12991.529   -20861.392    3748.8142   -7662.4161   -22949.257    82.243584 
   66500     1509.849    -111.2579    1.3661431   -109.89176    21248.812    4.3251235    4.3251235    4.3251235    21248.812    9095.1774    15699.194    38952.066    19363.948    875.00927    44741.579    80.908761 
   66600    1431.3759   -111.18888     1.295139   -109.89374    27196.569    4.3202703    4.3202703    4.3202703    27196.569    25759.316    58123.273   -2292.8821   -4728.0217    36735.248   -28626.624    80.636705 
   66700    1619.6027   -111.35361    1.4654505   -109.88815    325.75268    4.3412699    4.3412699    4.3412699    325.75268   -9335.8559   -13939.322    24252.436    7407.6005   -9084.1923    3304.3519    81.818285 
   66800    1366.7613   -111.12646    1.2366744   -109.88979    9524.0904    4.3395621    4.3395621    4.3395621    9524.0904    7674.8493    26605.589   -5708.1672    17124.797    11157.753    50137.263    81.721762 
   66900    1740.6241   -111.45963    1.5749533   -109.88468    13966.306    4.3367304    4.3367304    4.3367304    13966.306     27381.92    38916.155   -24399.156   -3187.0243    30013.502   -45348.743     81.56189 
   67000    1668.5506   -111.39844    1.5097397    -109.8887     5119.166    4.3295804    4.3295804    4.3295804     5119.166     21477.79   -14354.036     8233.744    12534.505    -11754.32    34012.842    81.159136 
   67100     1387.926   -111.15358    1.2558246   -109.89775     10944.51    4.3268833    4.3268833    4.3268833     10944.51     4945.889    16112.242    11775.399    15684.006    16493.042    21407.597    81.007559 
   67200    1523.3791   -111.27618    1.3783854    -109.8978   -13199.675    4.3429573    4.3429573    4.3429573   -13199.675    799.94877   -3297.4763   -37101.496   -4474.7919    15325.704   -30817.712    81.913727 
   67300     1705.495   -111.43082    1.5431677   -109.88765    14045.563    4.3408192    4.3408192    4.3408192    14045.563    32436.019   -10501.372    20202.042    5455.0015   -6577.8487    40390.248    81.792806 
   67400    1527.8984   -111.26924    1.3824746   -109.88676    13180.384    4.3319289    4.3319289    4.3319289    13180.384    17252.129    26815.005   -4525.9807    6692.3452    16612.648   -7564.8087    81.291281 
   67500      1035.84   -110.83576    0.9372498   -109.89851    -7923.972    4.3328768    4.3328768    4.3328768    -7923.972     8972.184   -17692.509   -15051.591    -3648.512    10516.467   -15155.769    81.344657 
   67600    2098.8061   -111.78324    1.8990438    -109.8842    26987.235    4.3347832    4.3347832    4.3347832    26987.235    58765.893   -16303.948     38499.76    -3962.386   -10941.123    20165.625    81.452071 
   67700    1286.1889   -111.06008    1.1637708   -109.89631   -3923.7876    4.3434113    4.3434113    4.3434113   -3923.7876    13914.238    16454.136   -42139.737    6882.9361    25780.686   -27946.215    81.939416 
   67800    1248.6969   -111.02156    1.1298472   -109.89171   -12077.368    4.3444354    4.3444354    4.3444354   -12077.368   -3835.6628    -2271.217   -30125.225   -9935.4888   -13008.992    -8129.462    81.997393 
   67900    1852.9517   -111.55489    1.6765896    -109.8783    20154.649    4.3289483    4.3289483    4.3289483    20154.649    20532.555   -5752.5541    45683.947   -10867.177   -2510.4397    3449.1151    81.123595 
   68000    1361.4395   -111.12364    1.2318591   -109.89178   -2171.5152    4.3273873    4.3273873    4.3273873   -2171.5152    27432.828   -4172.6956   -29774.678    6137.8539    24098.981   -29006.191    81.035871 
   68100    1553.5265   -111.30036    1.4056634    -109.8947   -10442.851    4.3405581    4.3405581    4.3405581   -10442.851   -19145.302   -34046.765    21863.514   -15860.246   -32697.527   -2472.2812    81.778044 
   68200    1531.1786   -111.27613    1.3854426   -109.89068    9441.0392    4.3378222    4.3378222    4.3378222    9441.0392    11919.601   -23947.726    40351.242    5110.7869    15220.684   -7246.0384    81.623507 
   68300    1330.4447   -111.09772    1.2038144   -109.89391    1117.1679    4.3296326    4.3296326    4.3296326    1117.1679    11644.525    21997.521   -30290.543   -1297.6694   -11747.657   -22784.203    81.162073 
   68400    1590.7436   -111.33257    1.4393382   -109.89323    2496.8271    4.3338603    4.3338603    4.3338603    2496.8271   -12762.253   -12403.664    32656.399     4861.737   -32328.264     1288.359     81.40006 
   68500    1601.7447   -111.34694    1.4492922   -109.89765    3604.6785    4.3321296    4.3321296    4.3321296    3604.6785    20525.682   -29792.909    20081.263    19360.786     18220.15   -13099.572    81.302579 
   68600    1101.3468   -110.90216   0.99652175   -109.90564    3859.8059    4.3372409    4.3372409    4.3372409    3859.8059    17065.491   -2519.6473   -2966.4265   -6587.2808   -22542.296   -21546.274    81.590693 
   68700    2140.7678   -111.81921    1.9370117   -109.88219    4517.2741    4.3450846    4.3450846    4.3450846    4517.2741   -6337.1733   -9622.8105    29511.806    8240.1338   -9732.5244    8566.9035    82.034154 
   68800     1249.061   -111.03246    1.1301766   -109.90228    11990.257    4.3231507    4.3231507    4.3231507    11990.257    39842.486    2413.1594   -6284.8747    7983.4388    15507.013   -16634.467    80.798097 
   68900    1051.8741   -110.86373   0.95175776   -109.91198     10386.72    4.3284331    4.3284331    4.3284331     10386.72   -8605.4147   -11699.997    51465.573   -3914.9689   -22195.241    -19342.77    81.094633 
   69000    2147.7934   -111.82493    1.9433686   -109.88156   -13420.032    4.3477276    4.3477276    4.3477276   -13420.032   -20927.044   -39441.819    20108.766   -25871.803    2621.6163   -4926.2039    82.183942 
   69100     1052.538    -110.8444   0.95235847   -109.89205     16767.75     4.330007     4.330007     4.330007     16767.75    42024.799    448.23554    7830.2157    1541.7605    15673.109   -22764.559     81.18313 
   69200    1511.5812   -111.26077    1.3677104   -109.89306   -4946.0017    4.3250245    4.3250245    4.3250245   -4946.0017   -16382.025   -26704.919    28248.939   -21317.139   -11946.994   -3574.1593    80.903201 
   69300    1632.1885   -111.37339    1.4768384   -109.89655    3739.7636    4.3323962    4.3323962    4.3323962    3739.7636   -21372.985   -32169.084    64761.359    1037.5081    14673.963    596.14007    81.317591 
   69400    1423.2959   -111.19124     1.287828   -109.90341     6290.455    4.3388932    4.3388932    4.3388932     6290.455    44803.318    4018.0057   -29949.958   -3501.8089    7949.4651   -17331.917    81.683979 
   69500    1817.5093   -111.52769    1.6445207   -109.88317   -291.97678    4.3496623    4.3496623    4.3496623   -291.97678    -1675.178   -31688.885    32488.133    214.46949   -10488.689    9642.1007    82.293708 
   69600     1281.535   -111.04676    1.1595598    -109.8872   -20234.545    4.3362139    4.3362139    4.3362139   -20234.545   -27144.804   -39643.908    6085.0765    28059.917    23118.819   -7632.4119    81.532752 
   69700    1256.7777   -111.02524    1.1371589   -109.88808    15571.776    4.3169338    4.3169338    4.3169338    15571.776    53799.622    13016.283   -20100.578   -11137.469    -12655.89   -3247.7032    80.450025 
   69800    1966.2431   -111.66703    1.7790981   -109.88793    20599.227    4.3308951    4.3308951    4.3308951    20599.227    14112.796    -3958.979    51643.862    12208.923    5848.6296    7367.5417    81.233092 
   69900    732.18943   -110.57197   0.66250038   -109.90947   -11887.712    4.3466588    4.3466588    4.3466588   -11887.712   -17495.211   -25259.218     7091.292    16687.398    16712.092   -11133.264    82.123351 
   70000    1624.3976   -111.36376    1.4697891   -109.89398   -12809.777    4.3444172    4.3444172    4.3444172   -12809.777    18675.346    -42311.13   -14793.548   -15290.523   -15766.035    1573.0066    81.996361 
   70100    2067.7645   -111.75035    1.8709568   -109.87939    16557.508    4.3289182    4.3289182    4.3289182    16557.508    26150.993    -10060.43    33581.962    -15490.47    26387.908    5298.4158    81.121907 
   70200    1167.5623   -110.95352    1.0564349   -109.89708   -4301.9225     4.321949     4.321949     4.321949   -4301.9225      14449.7    5779.2886   -33134.757    7685.4969    12263.974   -13472.838    80.730737 
   70300    1265.6971   -111.04807    1.1452294   -109.90284    4279.9727    4.3297604    4.3297604    4.3297604    4279.9727    25076.696    -28010.98    15774.203   -29569.355   -11593.708   -2398.8902    81.169261 
   70400    1501.7498   -111.25751    1.3588148    -109.8987   -8598.5668    4.3397472    4.3397472    4.3397472   -8598.5668    9185.9142   -24579.246   -10402.368   -73.561724    16065.763   -2543.0569    81.732217 
   70500     1605.961   -111.35181    1.4531073    -109.8987   -13316.827    4.3358363    4.3358363    4.3358363   -13316.827    23402.406   -24828.796   -38524.092    177.95327    1408.0109   -8365.2883    81.511451 
   70600     1781.473   -111.50383    1.6119142   -109.89192    17503.511    4.3245998    4.3245998    4.3245998    17503.511    23285.981    -16048.35    45272.902   -18492.544   -24508.709    9471.1714    80.879372 
   70700     1233.499    -111.0195    1.1160958   -109.90341     -7752.55    4.3263517    4.3263517    4.3263517     -7752.55   -7501.3191   -26094.145    10337.814    24225.831     26498.76   -16035.671    80.977705 
   70800    1216.7833   -111.01299    1.1009711   -109.91202   -11086.252    4.3340524    4.3340524    4.3340524   -11086.252    12922.911   -12733.582   -33448.086   -7193.7857   -25037.509   -2111.9613    81.410887 
   70900    2212.3795   -111.89336    2.0018075   -109.89156    17114.741    4.3336039    4.3336039    4.3336039    17114.741    36830.922   -11310.034    25823.334    6055.7197   -8334.4125    5939.6473    81.385613 
   71000    984.83727   -110.80703   0.89110146   -109.91593   -15289.001    4.3330961    4.3330961    4.3330961   -15289.001    10168.044   -28732.526    -27302.52    11224.842    28361.139    -14817.44    81.357006 
   71100    1452.2944   -111.22251    1.3140665   -109.90844    4768.9511    4.3326571    4.3326571    4.3326571    4768.9511     41907.87   -16561.303   -11039.714     2780.527   -36633.256    7502.3955    81.332282 
   71200    2020.0919   -111.72195    1.8278216   -109.89413    5126.1212    4.3295728    4.3295728    4.3295728    5126.1212    18165.438   -2924.1891    137.11469   -5620.2529    28624.705   -6394.4523    81.158709 
   71300    1146.4837   -110.94564    1.0373626   -109.90828   -930.65406    4.3298427    4.3298427    4.3298427   -930.65406    44499.678   -12294.721   -34996.919    9379.2201    1813.8074   -12345.058    81.173889 
   71400    1567.5316   -111.32236    1.4183355   -109.90402   -4359.5513    4.3315974    4.3315974    4.3315974   -4359.5513   -7464.5322   -27029.865    21415.743   -9241.1314   -9998.3095    3596.6502    81.272616 
   71500    1549.7206   -111.29976    1.4022198   -109.89754    15420.912    4.3332187    4.3332187    4.3332187    15420.912    41484.447   -17645.386    22423.675    -10181.18    23966.358   -10090.689     81.36391 
   71600    1627.2258   -111.36806    1.4723481   -109.89571   -14838.471     4.339797     4.339797     4.339797   -14838.471     27466.36   -33293.259   -38688.515    8179.8302   -9831.2794   -9654.1396    81.735034 
   71700    1785.8276   -111.50045    1.6158543   -109.88459   -1653.0203    4.3405026    4.3405026    4.3405026   -1653.0203     9281.035   -23075.121    8835.0246   -22006.638   -4933.2002    2777.9523    81.774908 
   71800    1120.7263   -110.90457    1.0140567   -109.89052   -18429.652    4.3330975    4.3330975    4.3330975   -18429.652    12823.525   -43096.356   -25016.124    4737.7514    16549.746    -8903.849    81.357088 
   71900    1374.2686   -111.14908    1.2434672   -109.90562    3073.8291    4.3361524    4.3361524    4.3361524    3073.8291    43121.091   -28410.468   -5489.1362    16978.385   -25907.445    937.35586    81.529279 
   72000     2451.422   -112.10268    2.2180982   -109.88458    7057.1285      4.34506      4.34506      4.34506    7057.1285    18511.177   -19831.259    22491.467    1606.6726    2533.2693   -1811.6292     82.03276 
   72100    1010.9483   -110.81917   0.91472723   -109.90445    6340.2402     4.337611     4.337611     4.337611    6340.2402    72901.487   -50916.011   -2964.7548    10944.026     7043.754   -9960.4758    81.611581 
   72200     1565.278    -111.3107    1.4162964    -109.8944     13427.13    4.3427291    4.3427291    4.3427291     13427.13    23226.272   -39667.986    56723.104    11335.285   -15264.919    900.21026    81.900815 
   72300     1615.457    -111.3465    1.4616994    -109.8848   -4513.3959    4.3416112    4.3416112    4.3416112   -4513.3959    20696.822   -41427.306    7190.2964   -6463.5225    14778.276   -3992.7507    81.837582 
   72400    1272.6291   -111.03822    1.1515016   -109.88672   -3473.2373    4.3359301    4.3359301    4.3359301   -3473.2373    58891.837   -38963.055   -30348.494    8994.5547   -1420.4901   -3523.3887    81.516741 
   72500    1867.1243   -111.57139    1.6894133   -109.88198   -5756.6611     4.344342     4.344342     4.344342   -5756.6611   -1577.5579   -63747.006    48054.581   -16153.618    -8887.119   -631.39369    81.992101 
   72600    1286.0504   -111.05783    1.1636454   -109.89418   -4776.9322    4.3379395    4.3379395    4.3379395   -4776.9322    34619.801   -57444.901    8494.3029   -8126.8796     11977.38   -16150.151    81.630127 
   72700    1543.2395   -111.28365    1.3963555   -109.88729    16037.635     4.335218     4.335218     4.335218    16037.635     59592.01   -28753.042    17273.936    1252.7346   -3916.5834    6340.7876    81.476586 
   72800    2053.5369    -111.7369    1.8580834   -109.87881   -7377.2035    4.3491091    4.3491091    4.3491091   -7377.2035   -867.72352   -39838.745    18574.858   -16155.935    926.48843    634.84821    82.262311 
   72900    595.20782   -110.44175   0.53855654   -109.90319   -737.51437    4.3364085    4.3364085    4.3364085   -737.51437    43795.092   -38756.388   -7251.2468   -3141.9705    1340.5714    -3707.388    81.543727 
   73000    1890.7551    -111.6056    1.7107949   -109.89481     5989.359    4.3298304    4.3298304    4.3298304     5989.359    48309.326   -46349.585    16008.336    19069.209   -6735.4955    2955.7163    81.173198 
   73100    1931.8437    -111.6425    1.7479728   -109.89453    -4306.756    4.3396062    4.3396062    4.3396062    -4306.756    9886.9083   -10021.961   -12785.215   -564.73799    3507.4742    194.69352    81.724252 
   73200    790.80497   -110.61286   0.71553695   -109.89732   -12612.297     4.344931     4.344931     4.344931   -12612.297    3483.3497    -24342.55   -16977.692    4708.0747   -13883.819    4614.0356    82.025453 
   73300    1985.5578   -111.67072    1.7965745   -109.87415    -679.7269     4.343836     4.343836     4.343836    -679.7269      -8145.8   -34853.616    40960.235    15906.893    4717.6136    153.51908    81.963454 
   73400    1356.5447   -111.11326    1.2274302   -109.88583     -17492.4    4.3384105    4.3384105    4.3384105     -17492.4   -23872.879    -2571.646   -26032.676   -13483.677    8347.4434   -6722.8629    81.656717 
   73500    1488.0938   -111.23433    1.3464586   -109.88787    14469.068    4.3302068    4.3302068    4.3302068    14469.068    17457.254   -6886.0945    32836.044    14370.119    1021.1155    5904.7855    81.194372 
   73600    2075.3165   -111.75848    1.8777899   -109.88069    6740.8402    4.3392131    4.3392131    4.3392131    6740.8402    4203.0907   -689.46409    16708.894   -1295.5339    -6850.084   -2328.5988    81.702047 
   73700    385.57132   -110.25527   0.34887303    -109.9064   -24551.955    4.3438436    4.3438436    4.3438436   -24551.955   -44484.728   -6394.8819   -22776.255    -10584.93   -4371.2408   -406.27198    81.963884 
   73800    2165.6748   -111.84321     1.959548   -109.88366     6260.678    4.3368979    4.3368979    4.3368979     6260.678    6679.9896   -17157.395     29259.44    21937.902    16516.475    5280.2101    81.571341 
   73900    1645.6264   -111.37602    1.4889973   -109.88702    5534.1167    4.3353824    4.3353824    4.3353824    5534.1167    1190.4193   -6429.6249    21841.556   -858.11181   -20431.763   -716.02619    81.485855 
   74000    1287.7497    -111.0611     1.165183   -109.89591   -2767.7008     4.335923     4.335923     4.335923   -2767.7008    708.96997   -21537.752     12525.68   -2077.7385    793.37818    1856.9512    81.516343 
   74100    1749.0356   -111.46541    1.5825642   -109.88285    18957.579    4.3399466    4.3399466    4.3399466    18957.579    33307.852   -33026.208    56591.093    26535.373    5085.0016   -391.60484    81.743487 
   74200    982.47239   -110.78039   0.88896166   -109.89143   -14062.716    4.3425243    4.3425243    4.3425243   -14062.716    29695.764   -30849.353   -41034.559   -7084.9389   -20141.513   -5446.3723    81.889227 
   74300    1850.3405     -111.555     1.674227   -109.88077    6668.1768    4.3359521    4.3359521    4.3359521    6668.1768    36149.268   -16264.956    120.21802    9989.0339     17780.63   -1181.1314    81.517983 
   74400    1892.1949   -111.59454    1.7120977   -109.88244    21843.294    4.3339366    4.3339366    4.3339366    21843.294    52841.867   -21354.175    34042.191    14642.378   -36.027959    1451.3219    81.404361 
   74500    805.18578   -110.63759   0.72854901   -109.90904   -37340.814    4.3423802    4.3423802    4.3423802   -37340.814   -20259.648   -43062.799   -48699.994   -6558.0766    -5794.297   -11644.677    81.881077 
   74600    2079.2003   -111.76562    1.8813042   -109.88432    6916.4056    4.3428563    4.3428563    4.3428563    6916.4056    5723.3168   -23850.963    38876.863   -4131.7317    16054.531    1399.6594    81.908009 
   74700    1116.7431   -110.89703    1.0104526   -109.88658   -21305.938    4.3478886    4.3478886    4.3478886   -21305.938    11889.957   -35728.335   -40079.436   -39.093269   -7878.5786   -13303.993    82.193074 
   74800    1406.1278   -111.15867    1.2722939   -109.88637   -29455.068    4.3368764    4.3368764    4.3368764   -29455.068   -23143.859   -42498.226   -22723.118   -7038.3956   -17806.164    12291.532    81.570124 
   74900    2112.1776   -111.78309    1.9111427   -109.87195    27870.461      4.31523      4.31523      4.31523    27870.461    16064.485   -12593.539    80140.438    5641.0784    2672.3411   -12312.909    80.354804 
   75000    724.94495   -110.56926   0.65594543   -109.91331    -32067.49    4.3369743    4.3369743    4.3369743    -32067.49    20786.682   -59177.338   -57811.816    6972.3581    -11015.61    -3227.427    81.575648 
   75100    1883.1153   -111.59268    1.7038823    -109.8888   -9730.5234    4.3501559    4.3501559    4.3501559   -9730.5234     15311.87   -31973.368   -12530.072    679.31567    -15613.48    14415.057    82.321728 
   75200    1275.5926   -111.04735     1.154183   -109.89317   -19796.356    4.3468224    4.3468224    4.3468224   -19796.356    8072.5468     -53994.4   -13467.214    14078.139    18366.183   -23052.276    82.132625 
   75300    1343.2111   -111.10683    1.2153656   -109.89147   -21252.083    4.3304173    4.3304173    4.3304173   -21252.083    36071.582   -58497.399   -41330.431    8506.1931   -17652.021   -1909.0257    81.206211 
   75400    2071.9731   -111.74901    1.8747648   -109.87424    44083.788    4.3166987    4.3166987    4.3166987    44083.788     56177.43    11733.999    64339.935   -7218.6055    12558.042    415.63125    80.436876 
   75500    1173.5831     -110.967    1.0618826   -109.90512   -6268.4634     4.337076     4.337076     4.337076   -6268.4634    33358.532   -34291.632    -17872.29    6771.5334    25665.839   -19415.222    81.581392 
   75600    1631.5842   -111.35757    1.4762917   -109.88128    7550.3858    4.3481709    4.3481709    4.3481709    7550.3858    63077.006   -36811.076   -3614.7724   -3575.4718   -13172.314    12097.017    82.209088 
   75700    1372.5788   -111.12598    1.2419382   -109.88404    2204.9275    4.3385462    4.3385462    4.3385462    2204.9275   -4916.5052   -4464.4596    15995.747   -21945.654    41328.665   -9112.1795    81.664379 
   75800    1543.6953   -111.27665    1.3967679   -109.87989    13292.329    4.3350779    4.3350779    4.3350779    13292.329    47990.024   -18432.738    10319.701     16729.85    2734.1706   -12288.173    81.468689 
   75900    1535.6417   -111.27008    1.3894809    -109.8806    11145.451    4.3361929    4.3361929    4.3361929    11145.451    19250.215    2235.3808    11950.756   -28865.593    4679.9544     5314.209    81.531564 
   76000    1455.0089   -111.20325    1.3165226   -109.88673    428.21966    4.3350518    4.3350518    4.3350518    428.21966   -7999.0011      12044.4   -2760.7403   -17462.404    37200.865   -2222.9228    81.467218 
   76100    1873.3187   -111.56885    1.6950181   -109.87383   -2113.5726    4.3472491    4.3472491    4.3472491   -2113.5726    55911.478   -35245.468   -27006.728    3226.1825   -17606.821   -2660.4469    82.156814 
   76200    1040.6018   -110.83456   0.94155836     -109.893   -26022.052    4.3368729    4.3368729    4.3368729   -26022.052    -56280.42    21091.692   -42877.427   -34825.433    51227.574    414.32083    81.569928 
   76300    1610.7348   -111.34486    1.4574267   -109.88743    25824.952    4.3256404    4.3256404    4.3256404    25824.952    4196.3892    43837.774    29440.693   -2660.6998    22100.912    8474.3467    80.937769 
   76400    2002.5236   -111.70206    1.8119255   -109.89013   -6182.1282    4.3397846    4.3397846    4.3397846   -6182.1282    16362.345   -19801.658   -15107.072   -5816.9686   -3675.8582    401.39654    81.734334 
   76500    725.66481   -110.56775   0.65659677   -109.91115   -21565.145    4.3373083    4.3373083    4.3373083   -21565.145   -42443.318   -3013.5529   -19238.564   -35954.772    64073.872   -2783.5231    81.594499 
   76600    2130.4044   -111.81734    1.9276347   -109.88971    31583.209    4.3380311    4.3380311    4.3380311    31583.209     5036.642    13931.812    75781.173   -2658.9447   -11628.375    5330.7765    81.635297 
   76700    1411.7231    -111.1819    1.2773567   -109.90455   -483.85866    4.3407084    4.3407084    4.3407084   -483.85866   -50325.624    23638.859    25235.189   -2843.8092    38788.285   -600.33844    81.786539 
   76800     1097.563   -110.89547   0.99309805   -109.90237   -4031.2764    4.3366195    4.3366195    4.3366195   -4031.2764   -40105.889   -9566.8027    37578.863   -36728.662    33428.352    6226.9768    81.555634 
   76900    2281.2808   -111.94126    2.0641508   -109.87711     2579.651    4.3467951    4.3467951    4.3467951     2579.651    27139.073   -25059.653    5659.5329    5125.2765   -15556.899    210.88786    82.131073 
   77000    1165.5881   -110.94693    1.0546486   -109.89228   -15611.179     4.342968     4.342968     4.342968   -15611.179   -50309.026   -18740.867    22216.356   -26185.027    48864.979    5105.3615    81.914332 
   77100    1277.0823   -111.04597    1.1555309   -109.89044    10674.982    4.3272511    4.3272511    4.3272511    10674.982    33824.316    -37789.53     35990.16   -25254.759    4210.8193    10694.099    81.028221 
   77200    1660.0613   -111.39745    1.5020583   -109.89539    8480.4187    4.3305658    4.3305658    4.3305658    8480.4187    41163.473    -19100.84    3378.6224    6926.5665   -7035.7659    5471.0918    81.214564 
   77300    1414.3112   -111.18344    1.2796985   -109.90374   -312.06657    4.3447312    4.3447312    4.3447312   -312.06657   -35711.363   -24535.493    59310.656   -39934.083    24742.057   -6591.4981    82.014143 
   77400    1559.5694   -111.29365    1.4111311   -109.88252   -29160.319    4.3598305    4.3598305    4.3598305   -29160.319     31303.13   -81070.406   -37713.682    -8129.719    3970.9758    4816.3144    82.872191 
   77500     1464.317   -111.19974    1.3249448   -109.87479   -8297.6623    4.3422677    4.3422677    4.3422677   -8297.6623    21626.651   -21820.032   -24699.606    4510.2396    165.54725   -10052.879    81.874712 
   77600    1939.8938   -111.61813    1.7552567   -109.86287    24533.347    4.3182507    4.3182507    4.3182507    24533.347    16439.555   -1291.9388    58452.426   -24781.282      12804.4   -233.39156    80.523672 
   77700    810.06534   -110.63914   0.73296414   -109.90618   -35430.748    4.3345509    4.3345509    4.3345509   -35430.748    24520.505   -71829.579   -58983.169    10452.579   -6453.1752    10582.971    81.438981 
   77800    1411.4457   -111.18828    1.2771058   -109.91118    -16524.57    4.3454901    4.3454901    4.3454901    -16524.57    17134.606   -38447.287   -28261.028    3996.8986   -8545.1211   -16228.676    82.057127 
   77900    2157.0803   -111.84139    1.9517715   -109.88962    15436.695    4.3441166    4.3441166    4.3441166    15436.695    69442.217   -38942.025    15809.892   -1506.1104     13394.59    10503.168    81.979339 
   78000      898.226   -110.71563   0.81273376    -109.9029   -48632.144    4.3441696    4.3441696    4.3441696   -48632.144    25311.822   -102548.72   -68659.534    14337.838   -5380.8997   -16969.963    81.982343 
   78100    1854.4586   -111.55987    1.6779532   -109.88192    23358.963    4.3294644    4.3294644    4.3294644    23358.963    69972.687   -22817.672    22921.874   -13629.809   -12445.579   -7361.3195    81.152616 
   78200    1652.4466   -111.38593    1.4951684   -109.89076   -20820.874    4.3396889    4.3396889    4.3396889   -20820.874    8382.1461   -60550.393   -10294.375   -16884.529    11763.244   -8423.5385    81.728924 
   78300    1206.0872   -110.98689    1.0912931    -109.8956   -2806.1636    4.3455984    4.3455984    4.3455984   -2806.1636    101095.39   -62907.612   -46606.268    6742.0569   -1853.1488   -14857.851    82.063262 
   78400    1745.2158   -111.46524    1.5791079   -109.88614   -3779.6088     4.345759     4.345759     4.345759   -3779.6088    4509.6114    -31729.96    15881.522   -31497.311    6269.2459    3046.8466    82.072361 
   78500    932.94956   -110.73649   0.84415237   -109.89234   -24060.985    4.3469154    4.3469154    4.3469154   -24060.985    45727.153   -74919.587    -42990.52   -6498.7047    3173.5059   -23296.199    82.137896 
   78600     2303.921   -111.95277    2.0846361   -109.86813    8779.5598    4.3306692    4.3306692    4.3306692    8779.5598    25661.041   -3552.1227    4229.7615   -6796.5889   -8887.9068   -3053.2258    81.220384 
   78700    1210.2937   -110.98447    1.0950991   -109.88937   -2515.6413    4.3336812    4.3336812    4.3336812   -2515.6413   -3929.6165   -8187.4443    4570.1371   -27496.348    12283.794   -8347.1164    81.389969 
   78800    1286.5372   -111.05655    1.1640859   -109.89247   -33684.733     4.340763     4.340763     4.340763   -33684.733    -6595.735   -49195.119   -45263.346    4633.1214    9247.7615   -30173.558    81.789627 
   78900    1757.1161   -111.47356    1.5898755   -109.88369     22205.02    4.3386746    4.3386746    4.3386746     22205.02    68321.346   -21548.451    19842.165    23550.924   -19547.727    8743.2464    81.671634 
   79000    1418.6159   -111.18186    1.2835935   -109.89826   -7413.8945    4.3374259    4.3374259    4.3374259   -7413.8945    28263.978   -23838.857   -26666.804   -11855.141    5216.4644   -36964.885    81.601139 
   79100    1287.1508   -111.06131    1.1646411   -109.89667    28560.296     4.330135     4.330135     4.330135    28560.296    90367.881   -20499.204    15812.212     14146.34    13793.116   -11759.976    81.190331 
   79200    1764.3721   -111.49588    1.5964409   -109.89944   -11202.785     4.337274     4.337274     4.337274   -11202.785   -8383.9587   -41931.575    16707.179    50630.681    -2039.025   -1896.8017    81.592562 
   79300    1604.9694   -111.34543      1.45221   -109.89322    8451.7111    4.3411119    4.3411119    4.3411119    8451.7111    73699.886   -18509.241   -29835.512   -19412.906    14375.737   -40310.605    81.809353 
   79400    1298.4691   -111.06431    1.1748821   -109.88943   -19187.449    4.3571429    4.3571429    4.3571429   -19187.449   -16884.381   -53328.982    12651.017    44631.879    18884.226    11919.189    82.719027 
   79500    1413.4314   -111.14883    1.2789025   -109.86993   -21587.576    4.3566705    4.3566705    4.3566705   -21587.576    67063.361   -78218.911   -53607.178    2997.1442   -4275.7691   -47144.269    82.692122 
   79600    2014.6591   -111.67834    1.8229059   -109.85544    9001.5099     4.331017     4.331017     4.331017    9001.5099    62168.349    -17757.89   -17405.929    1861.5669     2135.502    2433.1489    81.239952 
   79700    978.94114   -110.76604   0.88576651   -109.88028   -6379.5449    4.3304061    4.3304061    4.3304061   -6379.5449    28205.401   -42670.532    -4673.504    56238.211    9953.4318   -21095.657    81.205581 
   79800    1801.5053   -111.50789    1.6300398   -109.87785   -20895.014    4.3478026    4.3478026    4.3478026   -20895.014    25590.117   -31194.142   -57081.018   -9203.2189   -2803.3739   -35010.583    82.188198 
   79900    1620.4424   -111.33495    1.4662103   -109.86874   -35989.358    4.3636831    4.3636831    4.3636831   -35989.358   -48609.953   -30750.163   -28607.959    27185.162     10794.63    20543.325    83.092077 
   80000    999.07645   -110.77925   0.90398537   -109.87526   -24425.542    4.3509576    4.3509576    4.3509576   -24425.542   -3630.9085   -37130.512   -32515.207    39360.085    7398.9036    -52111.25    82.367249 
   80100    2200.4336   -111.84395    1.9909985   -109.85295    43282.209    4.3222643    4.3222643    4.3222643    43282.209    62671.686    70660.736   -3485.7956   -22379.727   -3967.9306    19486.159    80.748407 
   80200     1005.296   -110.80543   0.90961292   -109.89582    177.44234    4.3299065    4.3299065    4.3299065    177.44234    55838.184   -25548.867   -29756.991    16663.944    20365.747    -33656.71    81.177475 
   80300    1094.5892   -110.89944   0.99040732   -109.90903   -6057.6718    4.3558426    4.3558426    4.3558426   -6057.6718    28201.401   -21055.469   -25318.947    29655.423    1322.3628    -22896.92    82.644993 
   80400    2049.6506   -111.72873     1.854567   -109.87416   -5908.5395    4.3619053    4.3619053    4.3619053   -5908.5395    32683.981   -7405.4816   -43004.118   -20642.529   -9829.0131    630.20303     82.99056 
   80500    815.53557   -110.61302   0.73791372    -109.8751    -7043.606    4.3489882    4.3489882    4.3489882    -7043.606    19180.884   -7622.7024   -32688.999    48712.851    15256.787   -58745.122    82.255453 
   80600    1974.3603   -111.64262    1.7864427   -109.85618    14008.781    4.3337585    4.3337585    4.3337585    14008.781   -8607.9869    23499.824    27134.506    7914.5718   -20826.039    23840.332    81.394323 
   80700    1204.9657   -110.96331    1.0902783   -109.87303   -10257.937    4.3354239    4.3354239    4.3354239   -10257.937    5905.0499     7743.494   -44422.356     2072.372    2376.9845    -53407.96    81.488196 
   80800    1037.5992   -110.83346   0.93884158   -109.89462   -18958.041    4.3431796    4.3431796    4.3431796   -18958.041   -44370.873   -15614.193    3110.9416    51285.209    14865.663   -21932.618    81.926306 
   80900    2095.3277   -111.77378    1.8958966   -109.87788    13530.658    4.3380713    4.3380713    4.3380713    13530.658    8124.4937    31204.068    1263.4133    3855.6963   -11154.386    3066.7033    81.637565 
   81000    1325.1274   -111.09476    1.1990031   -109.89576   -9658.7436    4.3356768    4.3356768    4.3356768   -9658.7436    36345.504   -29605.983   -35715.752    18475.396    8053.4513     -59998.9    81.502454 
   81100    1465.8299   -111.21554    1.3263137   -109.88923   -3166.4731     4.346846     4.346846     4.346846   -3166.4731    -39314.16    23964.014    5850.7265    25430.848    13413.442    11146.523    82.133962 
   81200    1698.2668   -111.41507    1.5366275   -109.87844   -7428.8693    4.3435874    4.3435874    4.3435874   -7428.8693    30105.914   -28037.029   -24355.493   -10003.674   -12886.052   -35499.651    81.949383 
   81300    1085.0428   -110.86225   0.98176951   -109.88048    16954.934    4.3293641    4.3293641    4.3293641    16954.934    46733.595    3871.9987    259.20719    23869.987    4970.4709   -36801.678    81.146973 
   81400    1935.4454   -111.62109    1.7512317   -109.86986     768.0927    4.3405578    4.3405578    4.3405578     768.0927   -17655.282    24502.845   -4543.2848    15632.386    13924.251    9354.3411    81.778028 
   81500    1150.3523   -110.92251    1.0408629   -109.88165   -26523.456    4.3488486    4.3488486    4.3488486   -26523.456    28376.819   -52179.827   -55767.359   -12561.801   -10243.118   -59131.795    82.247528 
   81600     1841.643   -111.53509    1.6663572   -109.86873    21875.224    4.3322539    4.3322539    4.3322539    21875.224    46785.964    14944.346    3895.3625     24659.65    5087.1475    13030.976    81.309578 
   81700    1366.9149   -111.11626    1.2368133   -109.87945    8630.7756    4.3369936    4.3369936    4.3369936    8630.7756    52274.892   -6205.6543   -20176.911     2640.302    6628.2948   -38456.828     81.57674 
   81800    1225.5803   -110.99723    1.1089308    -109.8883   -37274.216    4.3410841    4.3410841    4.3410841   -37274.216    9542.5135   -54824.524   -66540.636   -23011.436   -12659.699   -25316.636    81.807778 
   81900    2022.5612   -111.69495    1.8300559    -109.8649     24761.62    4.3276761    4.3276761    4.3276761     24761.62    24112.788    43314.908    6857.1641    18286.396    4095.6684    11474.124    81.052094 
   82000    804.37531   -110.61645   0.72781569   -109.88864   -25141.235    4.3479334    4.3479334    4.3479334   -25141.235    59078.014   -81379.687   -53122.032   -5773.4682    4967.2917    -73294.71    82.195614 
   82100     1815.633   -111.51363    1.6428229   -109.87081   -23131.702    4.3442237    4.3442237    4.3442237   -23131.702   -12378.667   -37487.145   -19529.294   -15347.467    -1306.579    48397.655    81.985402 
   82200    1450.7953    -111.1828    1.3127101   -109.87009    24585.282     4.323567     4.323567     4.323567    24585.282    64274.084    8343.2403    1138.5208   -4865.4885    -6475.832   -53048.448    80.821442 
   82300    1685.9908   -111.39854    1.5255199   -109.87302   -11622.724    4.3387578    4.3387578    4.3387578   -11622.724    40341.974     -46758.5   -28451.644   -5169.4396    8690.1883    -17345.41    81.676334 
   82400    1274.2035   -111.02964    1.1529261   -109.87672   -16546.904    4.3425511    4.3425511    4.3425511   -16546.904   -4897.4807   -37548.398   -7194.8315   -21714.383    -4452.584    38672.368    81.890744 
   82500    1853.8612   -111.54768    1.6774125   -109.87027   -2111.2877    4.3403183    4.3403183    4.3403183   -2111.2877    23350.254    1264.3645   -30948.482    -7081.732   -6269.3843    -57329.98    81.764494 
   82600    1191.7195   -110.95727    1.0782928   -109.87898   -22246.861     4.344363     4.344363     4.344363   -22246.861    7569.6073   -54132.275   -20177.917    -4281.346    8257.5674     41276.86    81.993292 
   82700    1390.8696   -111.14527    1.2584881   -109.88679   -12188.151    4.3302777    4.3302777    4.3302777   -12188.151   -34382.725   -10941.872    8760.1453   -21162.572     4420.131    10076.153    81.198359 
   82800    2220.9438   -111.88148    2.0095566   -109.87192    20573.015     4.333489     4.333489     4.333489    20573.015    43177.264    15205.555    3336.2257    5697.3059    -11923.25   -5319.3517    81.379138 
   82900    610.30446    -110.4485   0.55221631   -109.89628   -43323.748     4.350425     4.350425     4.350425   -43323.748   -15994.294   -93982.879    -19994.07   -17169.286    12581.347    44313.264    82.337004 
   83000    1962.7893   -111.64755     1.775973   -109.87158    2832.4773    4.3439859    4.3439859    4.3439859    2832.4773   -14521.396   -9318.5115    32337.339   -5699.4825   -10972.209   -18883.558    81.971944 
   83100    1588.1962   -111.31126    1.4370333   -109.87423   -10929.954    4.3415533    4.3415533    4.3415533   -10929.954    29090.823   -21435.482   -40445.203     13668.44    725.77418    13216.125    81.834307 
   83200    1232.1711   -110.99552    1.1148943   -109.88063   -11451.545    4.3308773    4.3308773    4.3308773   -11451.545   -9590.8852   -39874.387    15110.637   -14148.107    1837.5046    23786.874     81.23209 
   83300    1722.0667   -111.43611    1.5581621   -109.87794    15165.792    4.3343535    4.3343535    4.3343535    15165.792    31224.101    14717.036   -443.76052    4946.8446   -18310.881   -27704.136    81.427851 
   83400    1137.5678   -110.90871    1.0292953   -109.87941    -47116.81    4.3553979    4.3553979    4.3553979    -47116.81    2238.8542   -84885.395   -58703.888     -8645.15   -1558.2367     20134.52    82.619678 
   83500    2102.1884   -111.75802    1.9021042   -109.85591   -672.59845    4.3387214    4.3387214    4.3387214   -672.59845   -1509.7269   -27842.328     27334.26    -14352.18    -9420.777   -478.97085    81.674278 
   83600    1384.6707   -111.11479    1.2528791   -109.86191   -13052.224    4.3327359    4.3327359    4.3327359   -13052.224    49386.183    -42790.87   -45751.985    2028.8078   -5755.5078    -35996.14    81.336721 
   83700    1369.1531   -111.10488    1.2388385   -109.86604   -27339.042    4.3458312    4.3458312    4.3458312   -27339.042   -10779.463   -75199.001    3961.3365   -20860.217   -13484.821    43988.012    82.076447 
   83800    1662.0471   -111.36869    1.5038552   -109.86484   -8278.6186    4.3390228    4.3390228    4.3390228   -8278.6186    20581.089   -62760.808    17343.863   -2953.9174   -8595.2786   -45878.967    81.691297 
   83900     1250.229   -111.00915    1.1312335   -109.87792   -125.14654    4.3372217    4.3372217    4.3372217   -125.14654    39389.427    -51619.01    11854.144   -1590.4262   -5620.5967    10269.384    81.589612 
   84000    1891.2778   -111.58529    1.7112679   -109.87402   -1472.0997    4.3417345    4.3417345    4.3417345   -1472.0997   -1954.0956   -32032.783     29570.58   -6590.3569   -13667.413    34098.166    81.844553 
   84100     1348.653   -111.10158    1.2202895   -109.88129   -4292.8779    4.3371825    4.3371825    4.3371825   -4292.8779    50216.859   -47675.755   -15419.738    6160.1645    6809.3092   -58561.216    81.587397 
   84200     1232.143   -110.99443    1.1148689   -109.87956   -5780.8818    4.3405488    4.3405488    4.3405488   -5780.8818    52441.345   -37349.479   -32434.512   -1841.0638   -5786.2625      58122.5     81.77752 
   84300    1592.4706   -111.31168    1.4409009   -109.87078   -334.63684     4.335548     4.335548     4.335548   -334.63684    24261.506   -43021.325    17755.908   -6446.2949   -835.16487   -22746.621    81.495196 
   84400    1162.6943   -110.93166    1.0520303   -109.87963   -9359.7131    4.3376627    4.3376627    4.3376627   -9359.7131    45926.299   -23590.398    -50415.04    1208.1336    4380.9821   -24860.952    81.614501 
   84500    1959.0315   -111.63377    1.7725729   -109.86119    7761.4026    4.3449333    4.3449333    4.3449333    7761.4026    27609.972    -18663.47    14337.706    4416.7463    -4136.207    40863.197    82.025587 
   84600    1055.4283   -110.83165   0.95497368   -109.87667    -19626.07    4.3364802    4.3364802    4.3364802    -19626.07    11998.842   -65311.165   -5565.8867   -8657.3785     1440.216   -60122.227    81.547771 
   84700    1518.8214   -111.25799    1.3742615   -109.88373    6833.7432    4.3340049    4.3340049    4.3340049    6833.7432    27369.632   -12153.613    5285.2107      4490.26    7382.7624   -200.59472    81.408209 
   84800    1956.1835    -111.6456    1.7699959    -109.8756    14359.621    4.3359848    4.3359848    4.3359848    14359.621   -4335.1433    27547.831    19866.175   -1105.4395   -4689.7783    5093.2432    81.519826 
   84900    736.17756    -110.5659   0.66610893   -109.89979   -4993.1037     4.344101     4.344101     4.344101   -4993.1037    7991.7533   -13371.721   -9599.3431   -6478.8536   -2029.9482   -55226.475    81.978457 
   85000    2457.3009   -112.08224    2.2234175   -109.85883    2992.3764    4.3513907    4.3513907    4.3513907    2992.3764   -26550.739     22291.53    13236.338    5232.5164    4854.0883    31245.367    82.391849 
   85100    699.78271   -110.50636    0.6331781   -109.87318    8536.6096    4.3327068    4.3327068    4.3327068    8536.6096   -932.34991    2078.5014    24463.677   -989.76429   -5178.1181   -29297.876    81.335078 
   85200    1533.1114   -111.25687    1.3871914   -109.86968    13641.906    4.3313481    4.3313481    4.3313481    13641.906    16904.626    -15104.41    39125.502    5379.2384   -2467.4625   -22270.181    81.258588 
   85300    1762.7768   -111.46421    1.5949975   -109.86921   -15031.855    4.3446823    4.3446823    4.3446823   -15031.855   -13196.203   -12137.964   -19761.397   -9971.2679    2075.0523    34726.696    82.011372 
   85400    1273.7802   -111.03347    1.1525431   -109.88093   -4224.1839    4.3367932    4.3367932    4.3367932   -4224.1839    1917.6432    6510.3053     -21100.5   -11376.595   -6607.9584   -43330.446    81.565435 
   85500    1864.8979   -111.55782    1.6873988   -109.87042    2053.6641    4.3391916    4.3391916    4.3391916    2053.6641    11789.629   -10536.195    4907.5579   -2061.2518    3673.9227    24771.026    81.700832 
   85600    707.59396   -110.52186   0.64024589   -109.88162   -23681.594    4.3460678    4.3460678    4.3460678   -23681.594    12220.922   -26494.184    -56771.52    1475.0033    12801.904    15972.324    82.089856 
   85700    2147.0802   -111.79698    1.9427233   -109.85425    20668.749    4.3297531    4.3297531    4.3297531    20668.749    33773.855    12894.456    15337.936   -6484.5861   -8664.9512   -20460.626    81.168848 
   85800    1017.9804   -110.80037   0.92109004   -109.87928   -11573.156     4.339404     4.339404     4.339404   -11573.156    43853.846   -18402.809   -60170.504   -2452.0346     7555.042    55193.452    81.712832 
   85900    1816.9504   -111.50206    1.6440149   -109.85804   -6167.8387     4.349182     4.349182     4.349182   -6167.8387     22848.39   -8063.1323   -33288.774    1410.3293   -1340.8347   -13474.447    82.266446 
   86000     1323.774   -111.05868    1.1977786    -109.8609    5125.9053    4.3378563    4.3378563    4.3378563    5125.9053    33525.143   -21760.008    3612.5815   -10391.484    3448.7783    36844.028    81.625431 
   86100    855.60757   -110.65092   0.77417171   -109.87674   -28640.614    4.3354925    4.3354925    4.3354925   -28640.614   -19471.177   -22425.505   -44025.161    8677.3395    731.16608    28553.023    81.492064 
   86200    2226.9244    -111.8705     2.014968   -109.85553     20582.82    4.3311189    4.3311189    4.3311189     20582.82    22012.692   -2011.4242    41747.191   -1317.4455   -2278.3488    894.74575    81.245687 
   86300    961.48641   -110.75706   0.86997311   -109.88709   -15721.992    4.3420488    4.3420488    4.3420488   -15721.992    32316.414   -15959.945   -63522.445   -3361.0804    7357.9295     52413.37     81.86233 
   86400    1774.4743   -111.46916    1.6055817   -109.86358   -5158.9277    4.3480091    4.3480091    4.3480091   -5158.9277   -12223.553    -4846.397     1593.167    899.01877    3154.7125   -14735.365    82.199907 
   86500    1375.5669   -111.10812    1.2446418   -109.86348    3318.5018    4.3329921    4.3329921    4.3329921    3318.5018    61669.659   -37844.003   -13870.151   -1959.3141    1166.4924    52025.098    81.351149 
   86600    1263.7602   -111.01328    1.1434768   -109.86981    5377.8709    4.3357495    4.3357495    4.3357495    5377.8709    26885.132    -2510.251   -8241.2682   -1338.0962    4376.8899    415.35916    81.506554 
   86700    1791.1891   -111.48042    1.6207055   -109.85971    14110.053    4.3418216    4.3418216    4.3418216    14110.053    33644.281   -12672.258    21358.136   -16906.994    6226.1354     16703.47    81.849481 
   86800     1262.335   -111.01808    1.1421873   -109.87589   -9313.7758    4.3401077    4.3401077    4.3401077   -9313.7758    37339.732   -23449.669   -41831.391   -1671.7992   -8237.5255    56391.035    81.752588 
   86900    1817.7075   -111.50971       1.6447   -109.86501   -7301.9243    4.3394559    4.3394559    4.3394559   -7301.9243   -21259.482    3764.2756    -4410.567   -11546.244    30259.692   -34209.464     81.71576 
   87000    1131.9062   -110.89963    1.0241726   -109.87546   -7324.4709    4.3322647    4.3322647    4.3322647   -7324.4709    60555.176   -58062.707   -24465.882   -1812.1539     6552.607     78635.64    81.310188 
   87100    1737.5763   -111.43899    1.5721956   -109.86679    3781.6229    4.3362762    4.3362762    4.3362762    3781.6229    30842.994   -3162.8677   -16335.258   -11416.462    10658.039    -13716.14    81.536262 
   87200    1176.9054   -110.94556    1.0648887   -109.88067    -10510.88    4.3397784    4.3397784    4.3397784    -10510.88    7235.8664   -19561.002   -19207.505   -4385.1547    31996.369    32985.569    81.733984 
   87300    1643.7303   -111.36702    1.4872818   -109.87974    2810.4783    4.3439907    4.3439907    4.3439907    2810.4783     25885.55   -4217.4327   -13236.682    1012.7758   -7251.6417     49857.07    81.972213 
   87400    1691.7118   -111.39828    1.5306964   -109.86758    3025.0541    4.3450247    4.3450247    4.3450247    3025.0541   -15682.322     11508.02    13249.465    -9789.147    4634.2133   -14367.622    82.030764 
   87500    788.68126   -110.59608   0.71361538   -109.88246   -17141.958    4.3352715    4.3352715    4.3352715   -17141.958    25906.505   -37685.694   -39646.683    476.46221    14455.305    80786.865    81.479605 
   87600    1965.1305   -111.64691    1.7780913   -109.86882    9829.6707    4.3347828    4.3347828    4.3347828    9829.6707   -25602.879    47756.707    7335.1839   -290.48551   -22770.456   -13077.744    81.452049 
   87700    1241.8653   -111.00469    1.1236658   -109.88103   -7785.3269    4.3407329    4.3407329    4.3407329   -7785.3269    17475.716    14095.391   -54927.087    1660.3596    350.95789    52047.908    81.787926 
   87800     1517.844   -111.24739    1.3733772   -109.87401    4555.0362    4.3421361    4.3421361    4.3421361    4555.0362    48005.243    10105.094   -44445.228    2932.6323    9541.5934    34814.209     81.86727 
   87900    1527.4971   -111.24757    1.3821115   -109.86546    6048.4453    4.3491946    4.3491946    4.3491946    6048.4453   -10045.371    43848.366   -15657.658    20476.106    -26085.81    8305.2744    82.267161 
   88000    1197.2156   -110.93814    1.0832658   -109.85487   -1379.7601    4.3502989    4.3502989    4.3502989   -1379.7601    40413.065   -17288.759   -27263.586   -591.77183    13891.805    56552.589    82.329845 
   88100    1619.2939   -111.31209    1.4651712   -109.84692    21671.219    4.3328543    4.3328543    4.3328543    21671.219    13003.084    46784.618    5225.9551    877.50873   -17492.953   -17364.699    81.343388 
   88200       1237.4   -110.98347    1.1196256   -109.86384    12457.714     4.331189     4.331189     4.331189    12457.714    40576.807    7293.7916   -10497.458    12341.306   -14911.718    56403.473    81.249635 
   88300    1584.4231   -111.30194    1.4336193   -109.86832    6774.4354    4.3430847    4.3430847    4.3430847    6774.4354    24779.806   -11445.415    6988.9154   -6221.1526    4666.5827    24648.807    81.920937 
   88400    1174.7335   -110.93019    1.0629235   -109.86726     18028.35    4.3503958    4.3503958    4.3503958     18028.35    26700.429     13916.83    13467.791    7643.6383    -24846.62    15445.327    82.335345 
   88500     1390.877   -111.11097    1.2584948   -109.85248    4605.9645    4.3576585    4.3576585    4.3576585    4605.9645    78129.753   -48248.883   -16062.977   -347.78127   -8866.4734    46902.098    82.748393 
   88600    1394.1402   -111.10421    1.2614473   -109.84276    4423.7047    4.3442132    4.3442132    4.3442132    4423.7047    1169.5436    16207.436   -4105.8659   -1733.1809   -2175.2089   -6622.1715     81.98481 
   88700    864.55366   -110.63853   0.78226632   -109.85626    33228.224    4.3236597    4.3236597    4.3236597    33228.224    75605.121    29817.841   -5738.2906    15006.953   -15452.329    59343.047    80.826637 
   88800    2218.2396   -111.85227    2.0071098   -109.84516    22609.559     4.340762     4.340762     4.340762    22609.559    51926.324    9126.9795    6775.3724    11128.293   -10761.436   -12700.008    81.789568 
   88900    856.22932   -110.64238   0.77473428   -109.86764    4021.6008    4.3511816    4.3511816    4.3511816    4021.6008    49401.468   -2188.4748   -35148.191    5802.5339   -7816.9005    14787.652    82.379972 
   89000    1562.9007   -111.26484    1.4141454   -109.85069    8533.9507    4.3529082    4.3529082    4.3529082    8533.9507      31557.7    352.67415   -6308.5217    14618.938   -9950.2623    17711.537    82.478076 
   89100      1362.77   -111.09412    1.2330629   -109.86106   -9858.4534    4.3409352    4.3409352    4.3409352   -9858.4534    20439.397   -30756.339   -19258.419     26850.95   -4096.5846   -28228.562    81.799363 
   89200    1802.3078   -111.48955     1.630766   -109.85878    18159.242    4.3224948    4.3224948    4.3224948    18159.242    1720.4631    64469.085   -11711.823   -4082.1099   -20207.316    24213.832    80.761325 
   89300    1605.2963   -111.32943    1.4525059   -109.87693   -5149.1722    4.3364262    4.3364262    4.3364262   -5149.1722    2123.3758    1654.0317   -19224.924    29022.809    1656.8334   -27515.021    81.544725 
   89400    1162.1463   -110.93504    1.0515344   -109.88351   -44641.567    4.3524464    4.3524464    4.3524464   -44641.567   -37724.985   -58882.863   -37316.853    5368.6709   -5039.6093   -18155.588    82.451828 
   89500    1782.5342   -111.47108    1.6128744   -109.85821    1719.2895    4.3398288    4.3398288    4.3398288    1719.2895    -20940.92    44374.065   -18275.276   -9020.9524   -16606.215    4900.3905     81.73683 
   89600    1262.5044   -111.01189    1.1423405   -109.86955   -35157.463     4.343683     4.343683     4.343683   -35157.463   -19300.956   -64778.937   -21392.496    32782.029    7341.4284   -39042.341    81.954795 
   89700    2107.1939   -111.76722    1.9066333   -109.86059   -7475.6531    4.3419516    4.3419516    4.3419516   -7475.6531   -24075.495    29964.282   -28315.746   -15397.809   -21375.839    8773.2009    81.856829 
   89800    1500.2832   -111.23276    1.3574878   -109.87527    19013.279    4.3248403    4.3248403    4.3248403    19013.279    11630.719    30549.019    14860.101    11767.137   -7741.7918   -8644.4953    80.892868 
   89900    1233.2219   -111.01227    1.1158451   -109.89642   -2001.7528    4.3391617    4.3391617    4.3391617   -2001.7528   -8316.6635   -7311.9748    9623.3798    28225.748   -2185.4362   -21434.819    81.699144 
   90000    1625.8414   -111.33761    1.4710955   -109.86651   -22849.164    4.3644027    4.3644027    4.3644027   -22849.164   -47334.725    27404.534     -48617.3   -12242.691   -23998.719    12218.261    83.133189 
   90100      1129.87   -110.87706    1.0223301   -109.85473   -26171.837    4.3523655    4.3523655    4.3523655   -26171.837   -21648.697   -42003.067   -14863.745    22111.522   -4911.7738    -24220.92    82.447231 
   90200    1850.6813   -111.51197    1.6745353   -109.83744    16741.848    4.3315778    4.3315778    4.3315778    16741.848   -28461.949    62573.769    16113.724    15217.647    11783.383    10340.754    81.271513 
   90300     1505.069   -111.22153    1.3618181   -109.85971   -19284.719    4.3303916    4.3303916    4.3303916   -19284.719   -1690.0952   -18937.257   -37226.804    -16141.25   -14222.552    13397.782    81.204764 
   90400    1536.0747   -111.26314    1.3898727   -109.87327    1844.8567    4.3368775    4.3368775    4.3368775    1844.8567   -6196.9253    12964.458   -1232.9628    29678.499    6000.2654   -26373.687    81.570186 
   90500    1425.4663    -111.1652    1.2897918    -109.8754   -39225.371    4.3521099    4.3521099    4.3521099   -39225.371   -54521.301   -17672.663    -45482.15    -6059.339    40790.373     26861.48    82.432707 
   90600    1563.1152   -111.28224    1.4143395    -109.8679   -16682.575    4.3419303    4.3419303    4.3419303   -16682.575   -3994.2924   -31260.177   -14793.255   -4139.6904   -25754.722   -1706.4192    81.855626 
   90700    1459.3063    -111.1907     1.320411   -109.87029    -3321.838    4.3234071    4.3234071    4.3234071    -3321.838    -31882.55     38046.41   -16129.374    11040.671     63972.85   -9723.2338     80.81247 
   90800    1823.5981   -111.52776    1.6500299   -109.87773   -487.92749    4.3309985    4.3309985    4.3309985   -487.92749   -14480.349    11755.468    1261.0986   -6079.0951    6291.8884    13891.353    81.238911 
   90900    1552.7135   -111.29376    1.4049278   -109.88884   -14367.106    4.3402899    4.3402899    4.3402899   -14367.106   -26427.243    2743.4059    -19417.48   -2078.2267    17614.956    1033.9668    81.762887 
   91000     1164.608   -110.94675    1.0537618   -109.89299   -2930.8396    4.3408546    4.3408546    4.3408546   -2930.8396   -69219.328    44134.778    16292.031    8324.9441     50864.31   -8319.6501    81.794805 
   91100     2129.582    -111.7918    1.9268905   -109.86491   -4665.5152    4.3438354    4.3438354    4.3438354   -4665.5152   -25835.506   -19912.133    31751.094   -7408.8781   -22048.592    1780.5538    81.963424 
   91200     907.7468   -110.70061   0.82134838   -109.87926    -20255.86     4.335887     4.335887     4.335887    -20255.86   -57254.229    21653.575   -25166.927   -5140.0346    87591.271   -1222.2108    81.514314 
   91300    1773.6679   -111.47487     1.604852   -109.87002    9963.8943    4.3370625    4.3370625    4.3370625    9963.8943   -4175.3012   -3007.3565     37074.34    6597.7517   -29428.967   -9344.6297    81.580626 
   91400    1662.7392    -111.3806    1.5044814   -109.87612   -17702.375    4.3369511    4.3369511    4.3369511   -17702.375   -51121.016    27526.462   -29512.569    2926.8875    33250.125    7275.5902    81.574339 
   91500    1570.5994   -111.30077    1.4211114   -109.87966    10711.504    4.3273709    4.3273709    4.3273709    10711.504    16045.121    12717.335    3372.0569       -17730    39813.079   -4733.2961     81.03495 
   91600    1379.3568   -111.13683     1.248071   -109.88876   -11540.369    4.3370367    4.3370367    4.3370367   -11540.369   -5518.5346   -8349.4222   -20753.149   -2029.1535   -37259.412   -6915.3428    81.579174 
   91700    1222.9914   -110.99408    1.1065883    -109.8875   -2278.5627    4.3378771    4.3378771    4.3378771   -2278.5627   -20811.995    45130.876   -31154.569    5903.1435    41001.696   -4394.3696    81.626603 
   91800     1558.227   -111.29014    1.4099166   -109.88022     8399.806    4.3406788    4.3406788    4.3406788     8399.806     33099.32    -9436.847    1536.9448   -39999.681   -10695.449   -3254.1231    81.784866 
   91900    1395.6703   -111.13149    1.2628318   -109.86866    -6589.957    4.3504743    4.3504743    4.3504743    -6589.957    14517.478    2109.4932   -36396.842    4174.6243    -4625.524   -9794.1647    82.339805 
   92000    1729.2504   -111.42495    1.5646621   -109.86029    17799.726    4.3291837    4.3291837    4.3291837    17799.726    7263.1685    31017.288    15118.722   -18241.684    35711.423    -6164.794    81.136829 
   92100    893.93867   -110.69021    0.8088545   -109.88135    17467.242    4.3197148    4.3197148    4.3197148    17467.242    42785.251    14869.687   -5253.2112   -37921.241   -24557.947   -11822.679      80.6056 
   92200    1749.9121   -111.46927    1.5833572   -109.88592   -12383.582    4.3396691    4.3396691    4.3396691   -12383.582    4267.5297    172.76387   -41591.041    4561.6548   -11871.192   -1860.6356    81.727806 
   92300    1421.9349   -111.16953    1.2865965   -109.88293    27946.684    4.3402021    4.3402021    4.3402021    27946.684    31129.435   -2072.2864    54782.905   -21159.188    22390.356   -9114.5983    81.757922 
   92400     1017.179   -110.80311   0.92036494   -109.88274   -6253.5767    4.3498259    4.3498259    4.3498259   -6253.5767    24887.149   -27193.174   -16454.705   -17386.056    -27215.48   -17598.637    82.302993 
   92500    2023.2286   -111.68528    1.8306597   -109.85462    5054.4774    4.3490239    4.3490239    4.3490239    5054.4774   -13136.392     35186.29   -6886.4656    5848.5593    1362.1384    11765.152    82.257475 
   92600    1182.8596    -110.9396    1.0702763   -109.86933    17777.325     4.325962     4.325962     4.325962    17777.325    6622.1737    3468.7802    43241.022    -17631.72   -8898.0706   -25129.458    80.955823 
   92700    1461.7017    -111.2056    1.3225784   -109.88303    11092.977    4.3290799    4.3290799    4.3290799    11092.977   -10782.037    19733.865    24327.103   -868.93556   -38867.134   -13805.579    81.130997 
   92800    1685.9115   -111.40782    1.5254481   -109.88237     7793.708     4.338252     4.338252     4.338252     7793.708   -9901.6015    5008.4618    28274.264    13461.073    4666.1061      5749.13    81.647772 
   92900    922.21018    -110.7244   0.83443515   -109.88997    11855.002    4.3483268    4.3483268    4.3483268    11855.002   -8138.1632   -24168.212    67871.381   -16504.866   -5426.1177   -38729.315     82.21793 
   93000    1910.3295   -111.58195    1.7285063   -109.85344    10118.132    4.3597411    4.3597411    4.3597411    10118.132   -26653.717    17254.868    39753.246    11447.526    -12867.62   -40.427139    82.867092 
   93100    835.85278   -110.62543   0.75629716   -109.86913    11312.575    4.3371024    4.3371024    4.3371024    11312.575   -36611.467    1266.8174    69282.375    -13782.11    10270.943   -22096.891    81.582882 
   93200    1733.5517   -111.42814     1.568554   -109.85959    33725.769    4.3276686    4.3276686    4.3276686    33725.769    13708.265    47633.337    39835.704   -9175.1981    9243.8284   -37539.956    81.051673 
   93300     1571.543   -111.30007    1.4219652   -109.87811    379.88914     4.347872     4.347872     4.347872    379.88914    -34912.36    3272.7858    32779.242    17146.808     -3744.69    16742.764    82.192132 
   93400    881.99228   -110.67818   0.79804515   -109.88013   -17996.747       4.3519       4.3519       4.3519   -17996.747   -59277.522   -14628.143    19915.422   -20604.682    14920.164   -21371.139    82.420781 
   93500    1804.5047   -111.48564    1.6327537   -109.85289    20476.872    4.3362735    4.3362735    4.3362735    20476.872   -1643.6404    49213.663    13860.593    12071.349   -2930.8711   -12851.879    81.536114 
   93600    1016.1351   -110.79716   0.91942039   -109.87774   -26215.443    4.3389353    4.3389353    4.3389353   -26215.443   -51860.365    -53620.97    26835.005    -14676.15    6775.5954    27983.027    81.686354 
   93700    1636.2415   -111.35517    1.4805057   -109.87466    4965.7919    4.3389364    4.3389364    4.3389364    4965.7919   -15325.216   -10371.166    40593.758   -3903.2275     14315.82   -14317.554    81.686419 
   93800    1791.1303   -111.49773    1.6206524   -109.87707    358.73289    4.3394025    4.3394025    4.3394025    358.73289    -13695.21   -9264.7408    24036.149    6649.3187   -20567.591    15937.682    81.712748 
   93900    803.41441    -110.6256   0.72694625   -109.89866   -31163.883    4.3429235    4.3429235    4.3429235   -31163.883   -25142.743   -87919.367     19570.46   -29737.969   -593.23966    21827.651    81.911815 
   94000    2241.1675   -111.90595    2.0278554   -109.87809    26933.403    4.3246131    4.3246131    4.3246131    26933.403    -780.0868     26667.85    54912.446    5911.0328   -5870.4918   -8742.9592     80.88012 
   94100    954.39715   -110.77285    0.8635586   -109.90929     4438.257    4.3337409    4.3337409    4.3337409     4438.257   -6469.6585   -2549.9536    22334.383   -28687.457    -9549.329    22633.426    81.393334 
   94200    1416.0669   -111.17644    1.2812871   -109.89516   -10577.679    4.3567109    4.3567109    4.3567109   -10577.679   -44080.652   -1458.4954    13806.112   -17181.634   -6906.4697     6425.961    82.694423 
   94300    1846.5329   -111.53332    1.6707818   -109.86253    5353.8804    4.3568496    4.3568496    4.3568496    5353.8804   -26121.142    37490.305    4692.4777    3174.2101    11607.307    -6797.993    82.702324 
   94400    902.22278   -110.69943   0.81635013   -109.88308   -12043.068    4.3339633    4.3339633    4.3339633   -12043.068   -40506.244   -14459.646    18836.686   -41334.133   -8755.1653    13446.444    81.405864 
   94500    1601.9899   -111.32584    1.4495141   -109.87633    23608.337    4.3138608    4.3138608    4.3138608    23608.337   -22220.555    63269.194    29776.371   -8900.9642    22262.281    8805.2527    80.278342 
   94600    1889.4985    -111.6071    1.7096579   -109.89744    7991.8881    4.3307913    4.3307913    4.3307913    7991.8881    998.48355   -13850.131    36827.312    60.606733    8128.7707    -15723.62    81.227252 
   94700    1153.8632   -110.95622    1.0440397   -109.91218    -35156.27    4.3580167    4.3580167    4.3580167    -35156.27    -26753.74    -60391.14   -18323.929   -37131.166   -1133.0985    22091.928    82.768802 
   94800    1905.3327   -111.61357    1.7239851   -109.88958   -2344.1635    4.3463455    4.3463455    4.3463455   -2344.1635   -41584.078    14703.788    19847.799     9359.803    19176.254    8321.8177     82.10559 
   94900    1463.1522   -111.20551    1.3238908   -109.88162    24228.692    4.3228758    4.3228758    4.3228758    24228.692   -8992.9476    12731.408    68947.616   -18269.423   -12291.666    6302.4918    80.782683 
   95000    1238.1519   -111.01833    1.1203058   -109.89802   -14314.529    4.3275114    4.3275114    4.3275114   -14314.529   -16779.178   -18733.333   -7431.0771   -35272.494    8624.8707    39219.089    81.042841 
   95100    2058.8618   -111.75934    1.8629015   -109.89643    10164.011    4.3376845    4.3376845    4.3376845    10164.011    -33670.41    25831.462     38330.98    23300.931   -3590.9127   -15123.462    81.615732 
   95200    1186.9462   -110.98459    1.0739739   -109.91061   -5026.5274     4.343068     4.343068     4.343068   -5026.5274   -40684.281    21514.411    4090.2878   -30503.429   -15467.464    11072.552     81.91999 
   95300    1484.6831   -111.25513    1.3433725   -109.91175   -18739.465    4.3369488    4.3369488    4.3369488   -18739.465   -14589.944   -25674.738   -15953.712   -27618.837    1206.5343    24998.678    81.574212 
   95400    1899.3381   -111.61723     1.718561   -109.89867     38693.87    4.3199498    4.3199498    4.3199498     38693.87   -9200.1588    73905.955    51375.812    31155.989   -5163.2208   -18658.716     80.61876 
   95500    1024.9986   -110.85151   0.92744024   -109.92407   -26882.895    4.3288912    4.3288912    4.3288912   -26882.895   -51530.327   -48307.916    19189.559   -38194.334   -7730.3086    18354.362    81.120385 
   95600     1623.273    -111.3825    1.4687715   -109.91373   -6940.4119    4.3414498    4.3414498    4.3414498   -6940.4119   -12691.111   -4849.5446     -3280.58   -2661.3406   -6325.8697    25425.088    81.828454 
   95700    1962.3561   -111.65954     1.775581   -109.88396   -18673.983     4.354961     4.354961     4.354961   -18673.983   -55990.549   -6717.4967    6686.0954    7674.4383    2590.5674   -8841.0787    82.594819 
   95800    745.27962   -110.56431   0.67434466   -109.88996   -35868.038     4.345492     4.345492     4.345492   -35868.038   -34837.766   -62263.749   -10502.599   -45202.762   -5598.9909    27010.968    82.057234 
   95900    1844.0739   -111.53125    1.6685568   -109.86269    17231.854    4.3225516    4.3225516    4.3225516    17231.854    27596.203     38473.06   -14373.701    17893.033    6867.1893    18544.351    80.764509 
   96000    1618.3271   -111.34357    1.4642964   -109.87927    646.27554    4.3328242    4.3328242    4.3328242    646.27554   -37403.104   -10681.267    50023.198   -37255.104     1653.667   -7612.7012    81.341695 
   96100    1216.2563   -110.99414    1.1004942   -109.89365    3132.0107    4.3433141    4.3433141    4.3433141    3132.0107   -12721.616   -11549.999    33667.647   -3003.8915   -8448.6223    53397.934    81.933918 
   96200    1658.6938   -111.38071     1.500821   -109.87989    3929.7935    4.3504343    4.3504343    4.3504343    3929.7935   -47249.451    26002.457    33036.375   -10582.325    11936.119   -4450.9906    82.337531 
   96300    1322.8179   -111.07831    1.1969134    -109.8814   -12190.561     4.341237     4.341237     4.341237   -12190.561   -47380.917   -52718.396    63527.629   -34387.235    531.95721    4595.9396    81.816421 
   96400    1055.4706   -110.82974   0.95501201   -109.87473    6788.2192     4.319796     4.319796     4.319796    6788.2192    12486.079    -1613.389    9491.9681    16684.557    2642.0667    49739.492    80.610144 
   96500     1890.532    -111.5946    1.7105931   -109.88401    5679.5394    4.3284035    4.3284035    4.3284035    5679.5394   -26599.808    34067.715    9570.7116   -25805.542    14871.561   -35338.426    81.092971 
   96600    1673.5328     -111.401    1.5142477   -109.88675   -19475.427    4.3443816    4.3443816    4.3443816   -19475.427   -9139.6951   -31436.575   -17850.011    2403.0604   -9117.7506     49911.25    81.994343 
   96700    1196.8522   -110.97874    1.0829371    -109.8958    4055.3105    4.3295641    4.3295641    4.3295641    4055.3105   -15264.725    15262.696     12167.96    8995.6268    9801.7468    18632.182    81.158222 
   96800    1833.0596   -111.53914    1.6585908   -109.88055    15120.086    4.3284102    4.3284102    4.3284102    15120.086   -7722.0442    6928.2612    46154.041    -9826.873    5615.6901   -10518.407     81.09335 
   96900    841.64753   -110.65949   0.76154037   -109.89794   -22502.389    4.3370291    4.3370291    4.3370291   -22502.389    15870.026   -60891.927   -22485.267    12322.309   -5503.5742    91561.862    81.578741 
   97000    1984.0551   -111.68058    1.7952148   -109.88537    674.41925    4.3384815    4.3384815    4.3384815    674.41925   -36213.742    4480.7881    33756.211   -64.211906    13049.455   -20961.055     81.66073 
   97100    1475.6131   -111.23222    1.3351658   -109.89706   -24896.984    4.3361917    4.3361917    4.3361917   -24896.984    7603.6249   -45242.173   -37052.403   -5709.0704    5493.6419     69268.14    81.531495 
   97200     1252.962   -111.02423    1.1337064   -109.89052    27813.354    4.3193391    4.3193391    4.3193391    27813.354    22645.864    -24134.76    84928.959    10914.778   -2202.7855    43278.736    80.584569 
   97300     2099.847   -111.78634    1.8999857   -109.88635   -9272.7647    4.3335412    4.3335412    4.3335412   -9272.7647   -12904.543   -25866.257    10952.506   -93.028098    15664.488   -4197.5473    81.382081 
   97400    807.58434   -110.62569   0.73071928   -109.89497   -35607.293    4.3463411    4.3463411    4.3463411   -35607.293    31624.725   -82802.302   -55644.302   -916.33696    6038.0491    89629.938    82.105341 
   97500    1977.2914   -111.65686    1.7890948   -109.86777    24154.458    4.3376823    4.3376823    4.3376823    24154.458   -2126.7067    13127.197    61462.883   -268.06628    1796.2987   -32364.962     81.61561 
   97600    1296.2118   -111.05379    1.1728397   -109.88095   -2664.2705    4.3324072    4.3324072    4.3324072   -2664.2705    22314.271   -42806.258    12499.175    1832.4018   -612.65023    55916.727    81.318208 
   97700     1495.793   -111.23535    1.3534249   -109.88192    8976.3709    4.3234383    4.3234383    4.3234383    8976.3709    5200.8674   -14297.079    36025.324   -3671.5392    2846.8482    26006.036    80.814221 
   97800    1555.7741   -111.30099    1.4076971   -109.89329    7561.8834    4.3264186    4.3264186    4.3264186    7561.8834    15548.614   -9333.4434     16470.48   -5273.6074     -4179.75   -26680.439     80.98146 
   97900    1638.0625   -111.37217    1.4821534   -109.89001   -14918.887    4.3459654    4.3459654    4.3459654   -14918.887    27551.929   -47711.863   -24596.726    -1774.536    984.02208    26565.294    82.084054 
   98000    1511.6692   -111.24575      1.36779   -109.87796   -20095.204    4.3446957    4.3446957    4.3446957   -20095.204   -39848.247   -20839.929    402.56427    -14793.66    8007.7923   -1489.5401     82.01213 
   98100    1330.4012   -111.08159     1.203775   -109.87782    -1084.973     4.323081     4.323081     4.323081    -1084.973    20288.836   -22342.631   -1201.1247    7035.7593   -3136.6504   -38481.809    80.794187 
   98200    1855.5552   -111.55377    1.6789454   -109.87482    782.23221    4.3202247    4.3202247    4.3202247    782.23221    10892.038   -14208.306     5662.965   -13854.666    7822.5365    13787.661     80.63415 
   98300    948.22522   -110.75694   0.85797411   -109.89897   -11419.273    4.3355597    4.3355597    4.3355597   -11419.273   -31199.819   -26617.531    23559.531   -33028.094   -4142.9166   -16507.135    81.495852 
   98400    1770.5537   -111.49108    1.6020342   -109.88905   -32549.967    4.3467001    4.3467001    4.3467001   -32549.967    9651.4842   -57343.175   -49958.211    29957.789    9887.7622    -51261.52    82.125692 
   98500    2015.1489   -111.70589     1.823349   -109.88255    11258.002    4.3295009    4.3295009    4.3295009    11258.002   -15108.683    22364.852    26517.836   -35566.085   -5604.0772    18448.399    81.154665 
   98600    1035.9052   -110.83037   0.93730881   -109.89306    7248.9137     4.316983     4.316983     4.316983    7248.9137    14257.789   -22456.854    29945.806   -14904.853   -774.06395   -61668.099    80.452775 
   98700    1518.1772   -111.26285    1.3736786   -109.88918    7507.8664    4.3277676    4.3277676    4.3277676    7507.8664    11853.225   -17828.703    28499.077    13990.073    1.1344125   -15877.525    81.057235 
   98800    1309.3039   -111.07578    1.1846857   -109.89109     15856.09    4.3354875    4.3354875    4.3354875     15856.09   -10082.941    26505.371    31145.839   -23682.353   -6885.5288    9665.5562    81.491784 
   98900    1552.8702   -111.28965    1.4050696   -109.88458    5030.9968    4.3435483    4.3435483    4.3435483    5030.9968    14340.587   -23914.711    24667.115    1345.6545    7796.5815   -64843.272    81.947171 
   99000    1885.1236   -111.58001    1.7056995   -109.87431    8124.3441    4.3348756    4.3348756    4.3348756    8124.3441    8207.4116    7301.7304    8863.8903   -6689.4593    9023.3361    39125.653    81.457283 
   99100    1061.9151   -110.84638   0.96084309   -109.88554    12062.656     4.321195     4.321195     4.321195    12062.656    19689.749   -9376.3822    25874.601   -24611.325   -8888.1338   -11120.465     80.68849 
   99200    1992.7367   -111.67913    1.8030701   -109.87606    2666.2472    4.3365739    4.3365739    4.3365739    2666.2472   -1890.2283   -25841.899    35730.869    10110.194    10954.385   -13324.285    81.553058 
   99300    1032.9809     -110.825   0.93466283   -109.89034   -11089.385    4.3380585    4.3380585    4.3380585   -11089.385   -17317.896   -7255.7313   -8694.5265    5676.1296    1476.6402     42260.45    81.636845 
   99400    1717.8545   -111.43394    1.5543509   -109.87959    26868.939    4.3234829    4.3234829    4.3234829    26868.939    4057.0831    17870.933    58678.801   -30791.665   -2869.4435   -10379.981    80.816722 
   99500    1773.3595   -111.48869    1.6045729   -109.88412   -4645.9924    4.3322991    4.3322991    4.3322991   -4645.9924   -9059.6164   -37571.315    32692.954    42434.129   -5431.7198     6659.447     81.31212 
   99600    1007.8677    -110.8051   0.91193984   -109.89316    3666.8552    4.3378128    4.3378128    4.3378128    3666.8552    -2986.359    967.58698    13019.338   -16931.152    7038.1711    26542.131    81.622972 
   99700    1823.2642   -111.52058    1.6497278   -109.87086   -3106.8176    4.3440468    4.3440468    4.3440468   -3106.8176   -24437.057   -16711.568    31828.172     16902.28   -6794.5374   -2468.7889    81.975387 
   99800    1213.0318   -110.97927    1.0975767    -109.8817   -24311.835    4.3376243    4.3376243    4.3376243   -24311.835   -40735.821   -43999.257    11799.574    44005.527   -3946.2267    10676.231    81.612335 
   99900      1868.24    -111.5567    1.6904228   -109.86628    30975.612     4.311467     4.311467     4.311467    30975.612    32691.224    51709.549    8526.0622   -20206.845   -670.21155    23705.404     80.14477 
  100000    1349.3345    -111.1116    1.2209062   -109.89069   -4265.2365    4.3278291    4.3278291    4.3278291   -4265.2365   -33600.911    -26404.69    47209.892    64653.456    2488.6897   -20004.934    81.060694 
Loop time of 22.135 on 1 procs for 100000 steps with 8 atoms

Pair  time (%) = 6.74513 (30.4727)
Kspce time (%) = 5.42615 (24.5139)
Neigh time (%) = 0.154575 (0.698328)
Comm  time (%) = 1.04568 (4.7241)
Outpt time (%) = 0.0270391 (0.122155)
Other time (%) = 8.73645 (39.4689)

Nlocal:    8 ave 8 max 8 min
Histogram: 1 0 0 0 0 0 0 0 0 0
Nghost:    2147 ave 2147 max 2147 min
Histogram: 1 0 0 0 0 0 0 0 0 0
Neighs:    2208 ave 2208 max 2208 min
Histogram: 1 0 0 0 0 0 0 0 0 0

Total # of neighbors = 2208
Ave neighs/atom = 276
Neighbor list builds = 1844
Dangerous builds = 0
unfix 20
unfix 21
print "seeds:9485422"
seeds:9485422
