LAMMPS (10 Feb 2015)
# ---- initialize simulations
clear
units metal
dimension 3
boundary p p p
atom_style charge
atom_modify map array
# ---- create atoms
read_data /Users/eugeneragasa/pyflamestk_git/pypospack/tests/tests_integration/workflow/WorkflowLammpsThermalExpansion/param_9837/MgO_NaCl_unit.npt.T800/lammps.structure
  triclinic box = (0 0 0) to (4.2565 4.2565 4.2565) with tilt (0 0 0)
  1 by 1 by 1 MPI processor grid
  reading atoms ...
  8 atoms
# ---- define interatomic potential
include potential.mod
mass 1 24.305
mass 2 15.999

group Mg type 1
4 atoms in group Mg
group O type 2
4 atoms in group O

set group Mg charge 1.66768155913
  4 settings made for charge
set group O charge -1.66768155913
  4 settings made for charge

variable R_cut equal 10.0

pair_style buck/coul/long ${R_cut}
pair_style buck/coul/long 10
pair_coeff 1 1 0.0 0.5 0.0 ${R_cut}
pair_coeff 1 1 0.0 0.5 0.0 10
pair_coeff 1 2 1248.0823356 0.293822485762 0.0 ${R_cut}
pair_coeff 1 2 1248.0823356 0.293822485762 0.0 10
pair_coeff 2 2 31778.9957117 0.212502502632 34.6036277069 ${R_cut}
pair_coeff 2 2 31778.9957117 0.212502502632 34.6036277069 10

kspace_style pppm 1.0e-5

neighbor 1.0 bin
neigh_modify every 1 delay 0 check yes
# ---- define settings
compute eng all pe/atom
compute eatoms all reduce sum c_eng
# ---- run minimization
reset_timestep 0
fix 1 all box/relax iso 0.0 vmax 0.001
thermo 10
thermo_style custom step pe lx ly lz xy xz yz press pxx pyy pzz pxy pxz pyz c_eatoms
min_style cg
minimize 1e-25 1e-25 5000 10000
PPPM initialization ...
  G vector (1/distance) = 0.352908
  grid = 8 8 8
  stencil order = 5
  estimated absolute RMS force accuracy = 3.98663e-05
  estimated relative force accuracy = 2.76856e-06
  using double precision FFTs
  3d grid and FFT values/proc = 3375 512
Neighbor list info ...
  1 neighbor list requests
  update every 1 steps, delay 0 steps, check yes
  master list distance cutoff = 11
Memory usage per processor = 4.06549 Mbytes
Step PotEng Lx Ly Lz Xy Xz Yz Press Pxx Pyy Pzz Pxy Pxz Pyz eatoms 
       0   -110.76064       4.2565       4.2565       4.2565            0            0            0    174504.14    174504.14    174504.14    174504.14 9.3704156e-11 -1.8744789e-10 -4.5445427e-11   -110.76064 
      10   -110.96575     4.299065     4.299065     4.299065            0            0            0    110293.78    110293.78    110293.78    110293.78 1.4024136e-10 -8.8674493e-11 1.1163093e-10   -110.96575 
      20   -111.08678      4.34163      4.34163      4.34163            0            0            0    53874.038    53874.038    53874.038    53874.038 -1.7149362e-10 -3.6153785e-12 -2.8025662e-10   -111.08678 
      30   -111.12967     4.384195     4.384195     4.384195            0            0            0    4480.0037    4480.0037    4480.0037    4480.0037 2.9824961e-11 1.1991676e-10 2.4884808e-10   -111.12967 
      35   -111.13002    4.3883439    4.3883439    4.3883439            0            0            0  -0.29149971   -0.2914997  -0.29149971  -0.29149971 -2.2034763e-11 5.2889443e-11 3.1711826e-11   -111.13002 
Loop time of 0.0160279 on 1 procs for 35 steps with 8 atoms

Minimization stats:
  Stopping criterion = linesearch alpha is zero
  Energy initial, next-to-last, final = 
        -110.760644492     -111.130018171     -111.130018171
  Force two-norm initial, final = 25.1985 4.50194e-05
  Force max component initial, final = 25.1985 4.47407e-05
  Final line search alpha, max atom move = 0.5 2.23704e-05
  Iterations, force evaluations = 35 47

Pair  time (%) = 0.00425124 (26.524)
Kspce time (%) = 0.00252724 (15.7677)
Neigh time (%) = 0 (0)
Comm  time (%) = 0.000502348 (3.1342)
Outpt time (%) = 3.88622e-05 (0.242466)
Other time (%) = 0.00870824 (54.3317)

Nlocal:    8 ave 8 max 8 min
Histogram: 1 0 0 0 0 0 0 0 0 0
Nghost:    2189 ave 2189 max 2189 min
Histogram: 1 0 0 0 0 0 0 0 0 0
Neighs:    2344 ave 2344 max 2344 min
Histogram: 1 0 0 0 0 0 0 0 0 0

Total # of neighbors = 2344
Ave neighs/atom = 293
Neighbor list builds = 0
Dangerous builds = 0
unfix 1
# ---- define output variables ----
variable natoms equal "count(all)"
variable tot_energy equal "c_eatoms"
variable length_x equal "lx"
variable length_y equal "ly"
variable length_z equal "lz"
variable tilt_xy equal "xy"
variable tilt_xz equal "xz"
variable tilt_yz equal "yz"
variable tot_press equal "press"
variable press_xx equal "pxx"
variable press_yy equal "pyy"
variable press_zz equal "pzz"
variable press_xy equal "pxy"
variable press_xz equal "pxz"
variable press_yz equal "pyz"

# ---- output ----
print "pypospack:output_section:begin"
pypospack:output_section:begin
print "tot_energy = ${tot_energy}"
tot_energy = -111.130018170686
print "num_atoms = ${natoms}"
num_atoms = 8
print "xx = ${length_x}"
xx = 4.38834393192064
print "yy = ${length_y}"
yy = 4.38834393192064
print "zz = ${length_z}"
zz = 4.38834393192064
print "xy = ${tilt_xy}"
xy = 0
print "xz = ${tilt_xz}"
xz = 0
print "yz = ${tilt_yz}"
yz = 0
print "tot_press = ${tot_press}"
tot_press = -0.291499705167032
print "pxx = ${press_xx}"
pxx = -0.291499704907524
print "pyy = ${press_yy}"
pyy = -0.291499705134451
print "pzz = ${press_zz}"
pzz = -0.291499705459123
print "pxy = ${press_xy}"
pxy = -2.20347627600699e-11
print "pxz = ${press_xz}"
pxz = 5.28894429779567e-11
print "pyz = ${press_yz}"
pyz = 3.17118260401048e-11
print "pypospack:output_section:done"
pypospack:output_section:done
print "pypospack:lammps_sim:done"
pypospack:lammps_sim:done
#------------------------------------------------------------------------------
# RUN THERMOSTAT
# running using an NPT Nose-Hoover style thermostat
#------------------------------------------------------------------------------
variable tempdamp equal 0.1
variable pressdamp equal 1.0
# set initial velocities
velocity all create 800 3522684 mom yes dist gaussian loop all
# fix for Nose-Hoover style thermostat
fix 20 all npt temp 800 800 0.1 aniso 0.0 0.0 1.0 drag 1.0 couple xyz
variable boxx equal lx
variable boxy equal ly
variable boxz equal lz
variable boxp equal press
variable boxt equal temp
# calculate averages every 10000 steps
reset_timestep 0
fix 21 all ave/time 10 10 100 v_boxx v_boxy v_boxz v_boxp v_boxt file lattice.out
thermo_style custom step temp pe ke etotal press lx ly lz press pxx pyy pzz pxy pxz pyz vol
thermo_modify flush yes
thermo 100
run 100000
PPPM initialization ...
  G vector (1/distance) = 0.351569
  grid = 8 8 8
  stencil order = 5
  estimated absolute RMS force accuracy = 4.24255e-05
  estimated relative force accuracy = 2.94629e-06
  using double precision FFTs
  3d grid and FFT values/proc = 3375 512
Memory usage per processor = 3.06549 Mbytes
Step Temp PotEng KinEng TotEng Press Lx Ly Lz Press Pxx Pyy Pzz Pxy Pxz Pyz Volume 
       0          800   -111.12999   0.72385681   -110.40613    9152.7432    4.3883439    4.3883439    4.3883439    9152.7432    5925.4502    8750.2572    12782.522     553.3618   -93.044148    6372.9377    84.508807 
     100    535.73271   -110.78816   0.48474222   -110.30342   -1136.1898      4.40683      4.40683      4.40683   -1136.1898   -10077.166     7876.073   -1207.4765   -1952.6927   -2071.3152   -633.52073    85.581305 
     200     636.4021   -110.68869   0.57582999   -110.11286   -12094.996    4.4130951    4.4130951    4.4130951   -12094.996   -16933.327   -3312.8191    -16038.84   -1440.6971    1975.2796   -5929.7853    85.946831 
     300    670.77119   -110.54312   0.60692787    -109.9362      18380.2    4.3995222    4.3995222    4.3995222      18380.2    24136.367     8177.935    22826.298    5302.5515    1030.5699    1580.0466    85.156253 
     400    363.39942   -110.13839   0.32881143   -109.80957   -4423.5064    4.4139264    4.4139264    4.4139264   -4423.5064   -3631.8281    5903.3653   -15542.057   -5825.1263    -6904.287    937.92241    85.995407 
     500    331.62127   -110.01824   0.30005789   -109.71818   -23282.779    4.4219606    4.4219606    4.4219606   -23282.779    -6957.409    -17497.63   -45393.297   -6074.3205   -2834.5271   -3941.9441    86.465849 
     600    718.97836   -110.32362   0.65054673   -109.67307     1993.874    4.4074548    4.4074548    4.4074548     1993.874    8896.8586    8448.2601   -11363.497    6769.5435    838.89489   -3036.3255    85.617706 
     700     717.2545   -110.31815   0.64898694   -109.66916    5070.4637    4.4149057    4.4149057    4.4149057    5070.4637     7229.463     342.1553    7639.7729   -914.49607   -7378.4111    2312.3563    86.052657 
     800    987.51406   -110.56394   0.89352347   -109.67042   -6978.3395    4.4220926    4.4220926    4.4220926   -6978.3395    3764.4599   -22722.108   -1977.3709   -4874.7738   -11348.048    1737.0359    86.473589 
     900    1368.0873   -110.90515    1.2378742   -109.66727    3113.8952    4.4117126    4.4117126    4.4117126    3113.8952    2834.1761   -3868.3518    10375.861   -766.15985    4641.1338   -1092.2233    85.866078 
    1000    1092.9098   -110.66439   0.98888777    -109.6755   -170.44836    4.4148628    4.4148628    4.4148628   -170.44836    6552.0418   -6068.9498   -994.43708   -3948.0056   -2399.2085   -5369.3297    86.050149 
    1100    882.88911   -110.47647   0.79885662   -109.67761   -10819.708     4.418843     4.418843     4.418843   -10819.708     3994.261    -15187.94   -21265.445    -379.3773   -9285.6789   -91.653378    86.283096 
    1200    891.83471   -110.48089   0.80695079   -109.67394   -5760.2096    4.4142636    4.4142636    4.4142636   -5760.2096    8625.6609   -221.49213   -25684.797    2895.7678    842.56385    8846.7063    86.015116 
    1300    431.66958   -110.06817    0.3905837   -109.67758    3354.1051    4.4174828    4.4174828    4.4174828    3354.1051    22683.595    4244.5757   -16865.856    -6692.547   -6116.8343   -5233.5508    86.203442 
    1400    466.49489   -110.09849   0.42209438    -109.6764   -7281.1362    4.4162328    4.4162328    4.4162328   -7281.1362    7014.2341   -21003.401    -7854.242   -5091.3521   -5313.8949   -4035.6033    86.130282 
    1500    641.48891   -110.25523   0.58043264    -109.6748    -11292.37     4.414971     4.414971     4.414971    -11292.37   -7567.4269   -17534.248    -8775.435    742.93413   -440.84149    5661.3625     86.05648 
    1600    787.08994   -110.38863   0.71217552   -109.67645   -12041.618    4.4169978    4.4169978    4.4169978   -12041.618   -14798.928    -9662.468   -11663.459   -6518.0865   -7951.7071   -1255.6875    86.175053 
    1700     992.2116   -110.57287   0.89777391    -109.6751    4711.1537    4.4160651    4.4160651    4.4160651    4711.1537    5633.9254    15139.924   -6640.3882   -9404.0372   -266.84484   -1326.9752    86.120473 
    1800    1340.0306   -110.88274    1.2124878   -109.67025   -5043.2981    4.4173985    4.4173985    4.4173985   -5043.2981    1783.1812    126.21525   -17039.291   -1610.5108    1117.3131   -2602.0162    86.198504 
    1900    1040.0522   -110.61524   0.94106109   -109.67418    1793.7083    4.4132078    4.4132078    4.4132078    1793.7083    5071.6395    19144.787   -18835.302    2907.2763   -7764.3545   -57.152825    85.953415 
    2000    1075.8279   -110.64847   0.97343167   -109.67504   -6180.9227    4.4165642    4.4165642    4.4165642   -6180.9227    1431.3915    4872.6389   -24846.798   -12088.024   -5012.7192    3388.8236    86.149673 
    2100    858.09972    -110.4511   0.77642666   -109.67467    -9887.017    4.4180513    4.4180513    4.4180513    -9887.017   -5815.5345   -3721.4424   -20124.074   -3214.9449    1922.0356    620.98363    86.236727 
    2200    603.96486   -110.22309    0.5464801   -109.67661   -6277.1454     4.410097     4.410097     4.410097   -6277.1454   -6874.6203   -6278.0906   -5678.7253   -35.174882   -7138.1188    -1567.837    85.771779 
    2300     424.3465   -110.06326   0.38395763    -109.6793    9036.6432    4.4191248    4.4191248    4.4191248    9036.6432    5113.9873    22481.008   -485.06599   -6723.9618   -6537.5945    589.35097    86.299606 
    2400    686.45046    -110.2944    0.6211148   -109.67329    1648.6789    4.4172161    4.4172161    4.4172161    1648.6789   -11146.864    13795.375    2297.5257    3858.6776    2065.2753    4048.0378    86.187828 
    2500    612.88097   -110.22891   0.55454758   -109.67436   -5487.1025     4.409118     4.409118     4.409118   -5487.1025   -21511.975   -3488.3437     8539.011   -4789.2135   -6215.2386   -3812.2055    85.714671 
    2600    909.54368   -110.50157   0.82297424    -109.6786   -11633.408    4.4217006    4.4217006    4.4217006   -11633.408   -18479.287   -6805.8634    -9615.073    1376.6567   -1559.6979    3380.3564    86.450596 
    2700    1197.7906    -110.7576    1.0837861   -109.67381     6587.504    4.4148339    4.4148339    4.4148339     6587.504    13403.085    15839.326   -9479.8988    6384.6322   -3250.7172    4316.8978    86.048463 
    2800    1086.4254   -110.65771   0.98302054   -109.67469    2738.9681    4.4106975    4.4106975    4.4106975    2738.9681     9649.121    8473.4918   -9905.7084   -8779.9212   -9335.4547   -2970.8724    85.806822 
    2900    904.72712    -110.4962   0.81861611   -109.67759    3355.6191    4.4212452    4.4212452    4.4212452    3355.6191    18722.315    2947.0701   -11602.528    989.11873   -780.94327    4021.3848    86.423886 
    3000    889.47994   -110.47717   0.80482014   -109.67234    9368.7263    4.4126229    4.4126229    4.4126229    9368.7263     14641.96    17509.062   -4044.8429    6295.6355    1868.7081    1781.1875    85.919241 
    3100    424.04381   -110.05975   0.38368375   -109.67607   -12749.484    4.4164562    4.4164562    4.4164562   -12749.484   -11616.838   -17158.288   -9473.3267   -2193.9039   -6737.9296   -940.07986    86.143356 
    3200     357.2707    -109.9981   0.32326604   -109.67483   -10793.372    4.4194456    4.4194456    4.4194456   -10793.372      -763.25    -23714.21   -7902.6571   -3809.7347   -4680.9766   -2259.7226    86.318401 
    3300     547.7135   -110.16723   0.49558268   -109.67165    19486.252    4.4082232    4.4082232    4.4082232    19486.252    45277.486    4597.5498    8583.7192    1137.7129    233.55236    563.25651    85.662496 
    3400    715.30487   -110.32397   0.64722288   -109.67675   -7600.8591    4.4197407    4.4197407    4.4197407   -7600.8591   -4707.4592   -3198.0503   -14897.068    545.45271   -3644.6819    1558.5575    86.335693 
    3500    935.49987   -110.52272   0.84645994   -109.67626   -3998.6196    4.4165008    4.4165008    4.4165008   -3998.6196     9867.865   -3139.9429   -18723.781   -474.30892   -1693.7495   -2827.9444    86.145963 
    3600    1358.9754   -110.90448    1.2296295   -109.67485    5034.8788    4.4084327    4.4084327    4.4084327    5034.8788    17553.997    3444.4659   -5893.8263   -3201.7913   -538.71262    1089.3267    85.674709 
    3700    1067.2433   -110.64396   0.96566418    -109.6783   -13858.032    4.4233033    4.4233033    4.4233033   -13858.032    2959.6002    -22792.92   -21740.776   -16618.574   -7090.5623   -842.80932    86.544638 
    3800    1021.5154   -110.59813   0.92428864   -109.67384    -2387.346    4.4114313    4.4114313    4.4114313    -2387.346    12504.668   -11349.937   -8316.7688    2553.5494    -1137.529   -2388.5947    85.849654 
    3900    697.54749   -110.30882   0.63115563   -109.67767    11281.365    4.4098757    4.4098757    4.4098757    11281.365    34773.128   -12711.552     11782.52    543.50693    3450.9247    1309.8275    85.758872 
    4000    468.37177   -110.10003   0.42379262   -109.67624   -21507.735    4.4228713    4.4228713    4.4228713   -21507.735    -32059.86   -30102.728   -2360.6181   -7545.4985   -3532.2645   -2505.3982    86.519279 
    4100    358.77451   -109.99778   0.32462672   -109.67316    1954.9139    4.4105323    4.4105323    4.4105323    1954.9139   -5715.1232     1865.758    9714.1068   -1356.1083   -2949.4109    532.88637    85.797179 
    4200    640.94564   -110.25424   0.57994108    -109.6743   -906.44327    4.4151933    4.4151933    4.4151933   -906.44327   -3389.4619   -7000.7058    7670.8379    -11232.75    -93.31918    1041.0653    86.069478 
    4300    829.77166   -110.42471   0.75079483   -109.67391    5815.0796    4.4164083    4.4164083    4.4164083    5815.0796    33199.073   -12323.461   -3430.3737   -1990.4541   -5544.1951    -2499.793     86.14055 
    4400     1189.326   -110.75056    1.0761272   -109.67443    2081.0513    4.4119946    4.4119946    4.4119946    2081.0513     19898.96   -1030.9411   -12624.865    5268.0235   -232.02333    1761.0411    85.882548 
    4500     1080.057    -110.6549   0.97725831   -109.67764    -1978.362    4.4174423    4.4174423    4.4174423    -1978.362    16848.182   -12280.241   -10503.026    -8784.033     1886.602   -1837.8499    86.201069 
    4600     1061.382    -110.6362   0.96036076   -109.67583   -9893.2664    4.4137898    4.4137898    4.4137898   -9893.2664    4943.8978   -25094.718   -9528.9793   -12007.389   -9959.2307    1375.6947    85.987422 
    4700    767.30806   -110.37207   0.69427646    -109.6778   -6574.6739    4.4128564    4.4128564    4.4128564   -6574.6739    -9644.722    -5093.022   -4986.2776    4339.6136    598.00053    3244.3369    85.932882 
    4800    552.35542   -110.17871   0.49978279   -109.67892   -1077.2743    4.4168582    4.4168582    4.4168582   -1077.2743   -7982.4152   -108.16557    4858.7578    3326.8542     5358.253   -3884.2213    86.166879 
    4900    433.05907   -110.06737   0.39184094   -109.67553   -421.23322    4.4174911    4.4174911    4.4174911   -421.23322    11059.966   -10873.435   -1450.2304   -10414.489    -2165.275    3726.6549    86.203929 
    5000    529.47904   -110.15297   0.47908376   -109.67388   -6266.8806    4.4099742    4.4099742    4.4099742   -6266.8806   -18507.899    615.22114   -907.96356   -1133.6379    445.29853    1388.2608    85.764616 
    5100    653.61375   -110.27402   0.59140345   -109.68262   -9134.2668    4.4168543    4.4168543    4.4168543   -9134.2668   -7908.7936   -14772.704   -4721.3028   -3975.1351     3129.284    115.54933     86.16665 
    5200    1078.9976   -110.65563   0.97629969   -109.67933    1462.3222    4.4151486    4.4151486    4.4151486    1462.3222     22451.83   -7219.7103   -10845.153   -4120.6042    2608.3561    3357.6683    86.066862 
    5300    1206.4179   -110.76684    1.0915923   -109.67525    15009.825    4.4042267    4.4042267    4.4042267    15009.825    54004.702    1822.9688   -10798.197     1641.106    6356.2436   -2927.1071    85.429721 
    5400    1110.4453   -110.68673    1.0047542   -109.68198   -10728.274    4.4244978    4.4244978    4.4244978   -10728.274    11349.614    -22378.64   -21155.796   -10215.639    4736.7368    1836.3396    86.614768 
    5500    990.83128   -110.57248   0.89652497   -109.67596   -2571.9537    4.4130601    4.4130601    4.4130601   -2571.9537    5494.1292   -8016.6323   -5193.3579   -7345.2424   -5188.8617    2101.9469    85.944782 
    5600     693.6496    -110.3007   0.62762874   -109.67307    3444.0539    4.4006869    4.4006869    4.4006869    3444.0539   -2363.0819    3241.0744    9454.1693    4380.1648    4160.1325    -182.0044    85.223902 
    5700    385.85741   -110.02956   0.34913189   -109.68043   -34567.521    4.4323264    4.4323264    4.4323264   -34567.521   -53932.732   -35532.866   -14236.965   -6795.9818    10968.951    182.34793    87.075344 
    5800    558.12989   -110.17974   0.50500766   -109.67473    7552.3964    4.4061862    4.4061862    4.4061862    7552.3964    16877.289   -4907.6159    10687.516   -4468.2721   -1397.9277   -1937.7533    85.543798 
    5900    534.21705   -110.15977   0.48337082    -109.6764    15878.071    4.4047847    4.4047847    4.4047847    15878.071    23055.018    15586.768    8992.4275   -2260.0359    2996.7763     2618.824    85.462199 
    6000    765.72734   -110.36985   0.69284619     -109.677   -20402.591    4.4323823    4.4323823    4.4323823   -20402.591    -823.8052   -32011.325   -28372.642   -4963.1827    8566.2885   -450.49469    87.078639 
    6100    1232.0022   -110.78555    1.1147415   -109.67081    14814.542    4.4026043    4.4026043    4.4026043    14814.542    55235.271   -5327.8735   -5463.7702    8492.2179    2106.0272   -3076.9492    85.335347 
    6200    1108.4022   -110.68071    1.0029056    -109.6778    4472.2422    4.4126915    4.4126915    4.4126915    4472.2422    34778.916    -2605.306   -18756.883    2677.7333    8620.9296    315.35701     85.92325 
    6300    980.28223    -110.5609   0.88697996   -109.67392   -14281.064    4.4258839    4.4258839    4.4258839   -14281.064     4443.098   -22538.661    -24747.63    -13464.68    6347.3155   -3486.8966    86.696196 
    6400    783.50461   -110.37801   0.70893144   -109.66907    12868.018    4.4029806    4.4029806    4.4029806    12868.018    25718.065    1512.7995    11373.189     2227.414   -4552.6452    1095.8297    85.357231 
    6500    552.22113   -110.17639   0.49966128   -109.67673   -21524.019    4.4179395    4.4179395    4.4179395   -21524.019   -48773.444   -9272.2965   -6526.3155    6633.1454    7615.1207    2572.1464    86.230178 
    6600    402.86127   -110.04149   0.36451734   -109.67697   -14305.794    4.4217834    4.4217834    4.4217834   -14305.794   -27950.503       -10575   -4391.8792   -4281.6593    1370.3807   -5963.5179    86.455455 
    6700    655.62438   -110.26702   0.59322272    -109.6738    17508.222     4.403909     4.403909     4.403909    17508.222    33575.622    7891.5193    11057.526    586.63448   -1689.6453    1340.3071    85.411236 
    6800    829.25151   -110.42798    0.7503242   -109.67766   -3043.7677    4.4155205    4.4155205    4.4155205   -3043.7677    22748.165   -18826.165   -13053.303   -490.21219    2248.1685    1999.8954    86.088615 
    6900    1041.8608   -110.62178   0.94269755   -109.67909   -9717.8073    4.4205373    4.4205373    4.4205373   -9717.8073     21917.96   -25675.151   -25396.231   -5197.1809    420.63667   -2900.3009    86.382382 
    7000     1249.129   -110.80758    1.1302382   -109.67734    8154.9608    4.4045542    4.4045542    4.4045542    8154.9608    38720.954   -6687.5316   -7568.5403    6149.2664    4496.9857    1878.0664    85.448784 
    7100     1014.431   -110.59749   0.91787851   -109.67961    2818.7296    4.4131752    4.4131752    4.4131752    2818.7296     18673.51   -7580.5271   -2636.7946    3842.7374    6287.7801   -2117.8106     85.95151 
    7200     852.7404   -110.44816   0.77157743   -109.67658   -24329.647    4.4257824    4.4257824    4.4257824   -24329.647   -26002.288   -24104.571   -22882.083   -8872.4173   -1617.0475   -4258.6892    86.690232 
    7300    587.89617   -110.20205   0.53194081   -109.67011    19157.753    4.4011319    4.4011319    4.4011319    19157.753    16629.673    22075.763    18767.823    5994.6223   -126.16865   -85.286127    85.249761 
    7400    483.08127   -110.11258   0.43710208   -109.67548    -10887.43    4.4124648    4.4124648    4.4124648    -10887.43   -39338.701   -4419.1535    11095.564    1371.6572    3909.8621   -2450.3045    85.910006 
    7500    491.04908    -110.1221   0.44431152   -109.67779   -27961.552    4.4210682    4.4210682    4.4210682   -27961.552   -40965.211   -30681.968   -12237.479   -7199.5298    761.37295   -3124.9794    86.413511 
    7600     791.7862   -110.39113   0.71642479    -109.6747    7462.2815    4.4065497    4.4065497    4.4065497    7462.2815    21462.293     -2806.47    3731.0213    2205.9024   -257.59813   -1356.8274    85.564974 
    7700    986.92751   -110.56916   0.89299275   -109.67617   -1985.1179     4.417024     4.417024     4.417024   -1985.1179    26592.437   -18455.753   -14092.038   -6343.0716   -2660.4124   -1965.5945    86.176587 
    7800    1075.6589   -110.65161   0.97327875   -109.67833    5244.1689     4.411061     4.411061     4.411061    5244.1689     32945.42   -6759.7868   -10453.127    2792.9499     2580.384   -5114.7522    85.828039 
    7900    1083.6764   -110.65968    0.9805332   -109.67915    9860.0632    4.4128776    4.4128776    4.4128776    9860.0632    36425.845    7122.0868   -13967.742    686.94583   -2114.1144   -160.39446    85.934121 
    8000    962.37397   -110.54863   0.87077619   -109.67785   -5688.4362      4.41716      4.41716      4.41716   -5688.4362    6601.2068    -8163.902   -15502.613   -8095.2188   -973.57351    1170.6981    86.184543 
    8100    610.61609    -110.2287   0.55249827    -109.6762    6791.0465    4.4083955    4.4083955    4.4083955    6791.0465    7041.1928    6749.8929    6582.0539   -2455.3459    1531.7502   -6030.4391    85.672541 
    8200    505.51282   -110.13268   0.45739862   -109.67528   -7482.5049    4.4211161    4.4211161    4.4211161   -7482.5049   -2827.9807   -8369.2595   -11250.274    6496.3433    -9131.603   -2159.5051    86.416318 
    8300    487.96269   -110.11528    0.4415189   -109.67376    2709.0452    4.4075923    4.4075923    4.4075923    2709.0452    20720.519    -18358.42    5765.0373   -900.90476    2189.6544   -3850.8136     85.62572 
    8400    568.88873   -110.19427   0.51474248   -109.67953   -6791.7931    4.4096926    4.4096926    4.4096926   -6791.7931   -15781.028   -7000.5929    2406.2416   -3705.8505    352.99095   -3430.1101    85.748185 
    8500    931.75691   -110.51873   0.84307323   -109.67565   -19369.293    4.4247372    4.4247372    4.4247372   -19369.293   -17945.062   -14802.993   -25359.826      5663.68   -10885.668    2875.1565    86.628831 
    8600    1201.7511   -110.76107    1.0873697    -109.6737    3964.8982    4.4047165    4.4047165    4.4047165    3964.8982     27190.61   -7019.3334   -8276.5819   -3439.2351   -3008.4701    -9303.579    85.458226 
    8700    1209.8526   -110.77321    1.0947001   -109.67851    33.913065    4.4126511    4.4126511    4.4126511    33.913065    19527.895   -1606.0921   -17820.064    6660.8359    339.93321   -4729.3582     85.92089 
    8800    951.06029   -110.53737   0.86053934   -109.67683   -2776.5342    4.4231851    4.4231851    4.4231851   -2776.5342    24564.963   -5458.8436   -27435.722    6387.5118   -7111.6498    4902.1684    86.537699 
    8900    798.07784   -110.39748    0.7221176   -109.67536    9008.0387    4.4012331    4.4012331    4.4012331    9008.0387    33704.659    -3388.757   -3291.7861   -7376.1663   -1561.4369   -3577.8491    85.255639 
    9000    489.28653   -110.12217   0.44271674   -109.67945    -5482.753    4.4153639    4.4153639    4.4153639    -5482.753    4632.5232   -16303.694   -4777.0878    1867.9017    -553.7808    623.91836    86.079455 
    9100    255.64574   -109.90724   0.23131364   -109.67593   -11711.823    4.4238764    4.4238764    4.4238764   -11711.823   -5949.9217   -16562.383   -12623.164    4829.6526   -12417.441   -1597.3778     86.57828 
    9200    498.95786   -110.12238   0.45146756   -109.67092    26562.383    4.3961892    4.3961892    4.3961892    26562.383    49383.822    17777.762    12525.566   -2746.5773    1900.9025   -4730.6043    84.962862 
    9300    791.84204   -110.39604   0.71647532   -109.67957   -15057.102    4.4173051    4.4173051    4.4173051   -15057.102   -14930.558   -22370.898   -7869.8504    1902.6211   -1031.3511    5355.3702     86.19304 
    9400    941.97725   -110.53019   0.85232081   -109.67787   -21446.029    4.4208491    4.4208491    4.4208491   -21446.029   -19654.689   -15822.986   -28860.411    5665.8802   -13451.483   -954.43941    86.400661 
    9500    1405.0807   -110.94244    1.2713465   -109.67109    11420.549    4.3970726    4.3970726    4.3970726    11420.549    27387.923     10436.28   -3562.5562   -148.19798   -1479.8363   -4325.4081     85.01409 
    9600    1193.7512   -110.75698    1.0801312   -109.67685   -12264.696    4.4216067    4.4216067    4.4216067   -12264.696   -2562.8017   -12344.417   -21886.869    1386.0377   -2483.4725   -43.305412    86.445092 
    9700    691.56556   -110.30535   0.62574306   -109.67961   -6408.5395     4.414967     4.414967     4.414967   -6408.5395    13447.755   -16396.731   -16276.643    3205.0783    -7900.953    96.534108    86.056243 
    9800    692.98772   -110.29996   0.62702985   -109.67293    21026.821    4.3972956    4.3972956    4.3972956    21026.821    39624.607    9806.5138    13649.341     3383.348    6896.0708     2935.632    85.027022 
    9900    328.53574   -109.97485   0.29726604   -109.67758   -6375.5604    4.4218771    4.4218771    4.4218771   -6375.5604   -3256.4439   -13105.275    -2764.962   -2226.8025   -2872.5467    125.48491    86.460951 
   10000    245.32377   -109.89851    0.2219741   -109.67654   -6126.4634    4.4156633    4.4156633    4.4156633   -6126.4634    2939.7946   -21577.425    258.24022    1961.5729   -8678.8681   -3377.7268    86.096966 
   10100    871.15501   -110.45868   0.78823936   -109.67044    10411.496    4.4015125    4.4015125    4.4015125    10411.496    31648.302   -7446.6885    7032.8757   -542.36519    7783.1502    1187.2491    85.271874 
   10200    1078.3956   -110.65104   0.97575496   -109.67528   -7705.2147    4.4177681    4.4177681    4.4177681   -7705.2147     13069.17   -15124.586   -21060.229   -2294.7678   -2899.5614    1143.6074    86.220146 
   10300    1069.0669   -110.64565   0.96731418   -109.67834    -11394.48    4.4156115    4.4156115    4.4156115    -11394.48   -6853.7718   -5364.0792   -21965.589    8192.3225   -9597.0921    625.44987    86.093937 
   10400    1318.2845   -110.86556    1.1928115   -109.67275    5379.6241    4.4015797    4.4015797    4.4015797    5379.6241     20164.69   -1461.8525   -2563.9653   -2038.5246   -43.268241   -1012.1261     85.27578 
   10500    905.47468   -110.49953   0.81929252   -109.68023   -15303.968    4.4217713    4.4217713    4.4217713   -15303.968    -1448.598   -27652.495    -16810.81   -346.27703   -6223.9793   -3400.0233    86.454747 
   10600    486.76839   -110.11903   0.44043827   -109.67859    691.50816    4.4134929    4.4134929    4.4134929    691.50816    10393.805   -7975.8374   -343.44278    6305.9415   -4318.6663    3275.7088    85.970073 
   10700    465.57099   -110.09519   0.42125841   -109.67393    23595.758    4.4024688    4.4024688    4.4024688    23595.758    55261.652    2479.5877    13046.033   -1719.4401    5759.8598    -432.9995    85.327466 
   10800    422.90988    -110.0604   0.38265775   -109.67774   -14243.164    4.4219424    4.4219424    4.4219424   -14243.164    1657.7108   -32865.188   -11522.014    965.24671     -6621.13   -3531.9083    86.464781 
   10900    578.94795   -110.19977   0.52384427   -109.67593   -5242.3797    4.4118013    4.4118013    4.4118013   -5242.3797    340.07584   -7715.7361   -8351.4787    3686.3355   -4941.3745     1160.659    85.871258 
   11000    904.92697   -110.49466   0.81879694   -109.67586      8307.07    4.4058949    4.4058949    4.4058949      8307.07      32109.2    7151.2281   -14339.218   -11884.432    4192.0899   -4091.9905    85.526836 
   11100    1042.6618   -110.62187   0.94342233   -109.67845   -11154.283     4.419103     4.419103     4.419103   -11154.283    6163.7919   -11241.426   -28385.214    4373.2868   -2260.4461   -3178.7573    86.298329 
   11200    1205.5954   -110.76629    1.0908481   -109.67544   -6230.1507    4.4119193    4.4119193    4.4119193   -6230.1507    2677.4416   -7229.0953   -14138.798    8861.8453    2023.4524    2791.7118    85.878151 
   11300    1103.2992   -110.67467   0.99828827   -109.67638   -42.731987    4.4089141    4.4089141    4.4089141   -42.731987    17685.389   -6501.4382   -11312.146   -7631.2165    4064.1279   -5877.6479    85.702779 
   11400    890.72481   -110.48401   0.80594653   -109.67806   -11959.224    4.4169964    4.4169964    4.4169964   -11959.224   -379.96167   -23523.423   -11974.288    2196.5799   -7840.4292   -3173.2979    86.174967 
   11500    728.42517   -110.33485    0.6590944   -109.67575   -9162.6246    4.4123598    4.4123598    4.4123598   -9162.6246   -8795.6105    -19868.34    1176.0767    1344.0759   -3963.9893     1889.362    85.903874 
   11600    360.93592   -110.00445   0.32658241   -109.67787    9253.3599    4.4097516    4.4097516    4.4097516    9253.3599    47016.467   -13602.336   -5654.0521    -1285.214    5823.2075   -7049.1602    85.751631 
   11700    476.38685   -110.11189   0.43104483   -109.68085   -4564.8635     4.412731     4.412731     4.412731   -4564.8635    2903.3279    -4473.103   -12124.815    3834.0711   -2524.6271     -2712.81    85.925559 
   11800    604.42064   -110.22587    0.5468925   -109.67897   -1182.4574    4.4132106    4.4132106    4.4132106   -1182.4574    4724.7341    6247.6093   -14519.716    6200.3549    -4600.443    179.83362    85.953575 
   11900    795.47677   -110.39746    0.7197641    -109.6777   -9303.9237    4.4186447    4.4186447    4.4186447   -9303.9237    9999.2768   -14621.961   -23289.087   -9879.7828    2152.7484    -4288.905    86.271481 
   12000    1018.9587    -110.5966   0.92197526   -109.67463    15635.891    4.4034747    4.4034747    4.4034747    15635.891    38821.925    2228.7045     5857.044    1520.6385   -1505.8788   -737.98141     85.38597 
   12100    1306.2871    -110.8609     1.181956   -109.67894   -10037.957    4.4166597    4.4166597    4.4166597   -10037.957    746.24241   -15812.776   -15047.338    12784.357   -601.63863   -1573.5959    86.155266 
   12200    1041.0345   -110.61834    0.9419499   -109.67639   -12076.616    4.4200799    4.4200799    4.4200799   -12076.616    10187.766   -28807.735    -17609.88   -5375.0578     5200.041   -2964.4465     86.35557 
   12300     957.1633   -110.53786   0.86606147    -109.6718    4918.1084    4.4002433    4.4002433    4.4002433    4918.1084    7858.0169   -2407.5986    9303.9068    3358.0364    -1399.981   -373.12222    85.198132 
   12400    676.97195   -110.29144   0.61253845   -109.67891   -18144.864     4.422067     4.422067     4.422067   -18144.864   -13873.675   -16573.159   -23987.759    3077.2268   -1604.7273   -2085.6112     86.47209 
   12500    323.88826    -109.9713    0.2930609   -109.67823   -2750.3621    4.4175466    4.4175466    4.4175466   -2750.3621    17040.152     148.0758   -25439.314    1365.9456    3125.5448   -1573.2357    86.207176 
   12600    402.48891   -110.03798   0.36418042    -109.6738    20341.385    4.3990526    4.3990526    4.3990526    20341.385    38968.771    15321.244    6734.1399    3915.7201    475.33563   -1163.9907    85.128984 
   12700    576.50958   -110.20193   0.52163798   -109.68029   -12754.286    4.4262167    4.4262167    4.4262167   -12754.286    3637.4067   -14635.722   -27264.544   -413.41659    963.58774   -1539.1858    86.715758 
   12800    862.90481   -110.45692   0.78077441   -109.67614   -1770.2691    4.4158936    4.4158936    4.4158936   -1770.2691    25859.452   -15663.528   -15506.731   -6117.8917   -2300.2666    2891.3895    86.110438 
   12900    1145.8204   -110.70856    1.0367624    -109.6718    18676.643    4.3988115    4.3988115    4.3988115    18676.643    46348.994   -1748.7721    11429.707    7329.8187   -3240.3111   -609.37781    85.114991 
   13000    1336.5414   -110.88675    1.2093307   -109.67741   -18767.408    4.4275975    4.4275975    4.4275975   -18767.408    516.87815    -31385.62   -25433.483     3048.239    4309.2947   -1052.4721    86.796939 
   13100    999.44487   -110.57977   0.90431873   -109.67546    -3290.657     4.412918     4.412918     4.412918    -3290.657    10133.812   -11375.836   -8629.9465     -8232.84    4005.3278    5257.9514     85.93648 
   13200    793.39596   -110.38857   0.71788134   -109.67069    641.61201    4.4030951    4.4030951    4.4030951    641.61201   -11696.174    10724.115    2896.8948    545.99223   -3602.9669   -541.98412    85.363888 
   13300    611.77402    -110.2268   0.55354599   -109.67326   -26760.561    4.4258425    4.4258425    4.4258425   -26760.561   -37963.798   -10127.689   -32190.196    -1613.126     3205.364    3241.1396    86.693767 
   13400    273.04103   -109.92284   0.24705326   -109.67578      13344.6    4.4061756    4.4061756    4.4061756      13344.6    21858.401    13640.102    4535.2981   -4458.5499    2752.7288    4489.0244    85.543183 
   13500    549.74426   -110.17492   0.49742016    -109.6775    8147.4139    4.4092664    4.4092664    4.4092664    8147.4139    12097.372    6156.1047    6188.7655   -2550.8234    1004.5252   -1244.7622    85.723326 
   13600    807.27269   -110.40595    0.7304373   -109.67552   -9773.4459    4.4225588    4.4225588    4.4225588   -9773.4459    14909.561   -16712.947   -27516.952   -5314.7056    4015.3987    6718.5982    86.500942 
   13700     951.7614   -110.53719   0.86117371   -109.67602    10255.683    4.4042822    4.4042822    4.4042822    10255.683    36659.879   -2515.6324   -3377.1967   -7193.4147    2118.8869    3482.4262    85.432952 
   13800    1247.5546   -110.80554    1.1288136   -109.67673    5490.9772    4.4117899    4.4117899    4.4117899    5490.9772    36775.249    -9186.287   -11116.031    5710.8862   -1897.7706   -981.70997    85.870592 
   13900    1190.8442    -110.7559    1.0775008   -109.67839   -11052.692     4.419268     4.419268     4.419268   -11052.692    10220.804    -15405.37   -27973.509   -2665.7787    4661.8368    5958.9759    86.307995 
   14000    762.33339   -110.36833   0.68977528   -109.67855    6020.1621    4.4029743    4.4029743    4.4029743    6020.1621    11239.913    12900.124   -6079.5509   -8846.8845    8625.4945    1324.1904    85.356866 
   14100    740.77422   -110.34703   0.67026808   -109.67676   -14638.986     4.415985     4.415985     4.415985   -14638.986   -30486.816    2689.7339   -16119.875    3370.6839   -3215.6518      91.5148    86.115783 
   14200    397.68559   -110.03732   0.35983428   -109.67749   -17419.589    4.4171783    4.4171783    4.4171783   -17419.589    -39287.98    1733.6947   -14704.482   -1114.0864     2666.339    5709.0799    86.185614 
   14300    314.53124   -109.96276   0.28459448   -109.67817    13604.127     4.401047     4.401047     4.401047    13604.127    6481.5672    23896.499    10434.316   -1070.3371    4129.0866   -654.02551    85.244825 
   14400    760.44023   -110.36559    0.6880623   -109.67753   -2284.0698    4.4197068    4.4197068    4.4197068   -2284.0698     16914.74   -6532.1939   -17234.755    998.02289    3480.3526    192.23182    86.333703 
   14500    846.24684   -110.44396   0.76570193   -109.67826    2059.0611    4.4138686    4.4138686    4.4138686    2059.0611    34632.217   -11901.554    -16553.48   -2242.7365    4317.1719    4219.8701    85.992029 
   14600    1040.5201   -110.62029   0.94148445   -109.67881    17340.425    4.4018223    4.4018223    4.4018223    17340.425    47927.917    2897.4277    1195.9295   -2278.9695    1929.1959    386.37346    85.289881 
   14700    1248.2872   -110.80543    1.1294765   -109.67595   -5400.6632    4.4223988    4.4223988    4.4223988   -5400.6632    28496.061   -22198.427   -22499.623    7603.2203    271.84492   -372.52961    86.491558 
   14800    923.31845   -110.51351   0.83543794   -109.67807   -491.08879     4.409776     4.409776     4.409776   -491.08879    12215.508   -3202.9226   -10485.851   -534.06471    5598.8439     3323.461    85.753051 
   14900    690.96737   -110.30353   0.62520179   -109.67833    10378.905    4.4034547    4.4034547    4.4034547    10378.905    4449.9788    15182.864    11503.871   -9692.5762    4405.1304    -513.1476    85.384806 
   15000    638.42616   -110.25204   0.57766141   -109.67438   -19965.284    4.4229086    4.4229086    4.4229086   -19965.284   -40552.733   -5193.4455   -14149.675     2329.916   -1008.2986   -890.13552     86.52147 
   15100    340.62042   -109.98514   0.30820052   -109.67694   -8390.5404    4.4083051    4.4083051    4.4083051   -8390.5404   -33595.657    13389.755   -4965.7187   -2572.3433   -678.03596    3578.4356    85.667268 
   15200    538.77238   -110.16712   0.48749257   -109.67962    6301.0065    4.4049278    4.4049278    4.4049278    6301.0065    12022.173    11424.878   -4544.0309   -9148.6619   -858.38105   -1366.1241    85.470528 
   15300     915.0711   -110.50477   0.82797556    -109.6768   -5717.9078    4.4222895    4.4222895    4.4222895   -5717.9078     24407.49   -19533.189   -22028.024    65.788453    837.76512    242.40576    86.485142 
   15400    977.26325   -110.56022   0.88424833   -109.67597    12006.177    4.4067203    4.4067203    4.4067203    12006.177    45876.084   -7561.4154    -2296.136   -8623.2069   -1206.4511    2646.6108    85.574909 
   15500    1159.3968   -110.72566    1.0490466   -109.67661    10493.913    4.4079957    4.4079957    4.4079957    10493.913    47095.569   -3652.3537   -11961.477   -10284.147   -4868.2326   -2012.0568    85.649238 
   15600    1082.4615   -110.65418    0.9794339   -109.67474   -7905.7704     4.418839     4.418839     4.418839   -7905.7704    14220.919   -16223.471   -21714.759    6356.8348   -666.53654    2044.0407    86.282862 
   15700    689.07405   -110.29882   0.62348868   -109.67533    2335.0485    4.4056019    4.4056019    4.4056019    2335.0485   -5445.8032    8954.1365    3496.8123   -5851.3172     2739.799    3652.0647    85.509773 
   15800    568.32396   -110.19091   0.51423147   -109.67668   -2103.6255    4.4111581    4.4111581    4.4111581   -2103.6255    -8767.532    12626.855   -10170.199   -8920.2863   -4861.6268   -2456.0865    85.833709 
   15900    552.71717   -110.17651   0.50011011    -109.6764   -15073.695    4.4145171    4.4145171    4.4145171   -15073.695   -35211.832    595.35878   -10604.613    6025.8841   -1905.0187    1035.2932    86.029937 
   16000    497.14837   -110.12912    0.4498303   -109.67929   -5458.5821    4.4080773    4.4080773    4.4080773   -5458.5821   -20605.776    4333.0892   -103.06007   -4706.5038   -2976.2926    -87.36497    85.653991 
   16100    834.98495   -110.43462   0.75551193   -109.67911   -299.33186    4.4133855    4.4133855    4.4133855   -299.33186    18063.431   -8693.5948   -10267.831    498.92349   -4956.3173   -690.14077      85.9638 
   16200    985.05406   -110.57086   0.89129761   -109.67956    9042.8656    4.4108889    4.4108889    4.4108889    9042.8656    46953.918   -13882.282   -5943.0389    5545.5467   -2282.8824    2302.8123    85.817992 
   16300    1062.9388   -110.64097   0.96176932    -109.6792    11019.393    4.4076982    4.4076982    4.4076982    11019.393    47559.221   -12583.525   -1917.5164   -8118.2748   -1854.3506   -4481.4344    85.631894 
   16400    1050.7002   -110.62825   0.95069563   -109.67756    1274.2379    4.4159445    4.4159445    4.4159445    1274.2379    29385.343   -13432.417   -12130.212    3067.3486   -5951.9587   -1305.1019    86.113414 
   16500    781.46052   -110.38494    0.7070819   -109.67786   -3598.3109    4.4084069    4.4084069    4.4084069   -3598.3109   -7347.7456   -1364.3517   -2082.8354    6521.7812   -6452.2468    3375.1017    85.673208 
   16600     627.6419   -110.24452   0.56790358   -109.67661   -3312.8549     4.406684     4.406684     4.406684   -3312.8549   -18568.525    9480.1202   -850.16033   -6713.4887   -94.225209   -55.243709    85.572799 
   16700    589.90942    -110.2078   0.53376244   -109.67404   -14498.022    4.4187508    4.4187508    4.4187508   -14498.022   -24414.532   -2265.1305   -16814.405    2461.0328   -2205.8777    1212.1043    86.277695 
   16800    557.49692   -110.17927   0.50443493   -109.67483   -1226.7759    4.4062349    4.4062349    4.4062349   -1226.7759    -14009.67    4004.8838    6324.4584    4084.1824   -4238.1367   -2121.9125    85.546639 
   16900    792.37069   -110.39441   0.71695365   -109.67745   -3102.5686    4.4099519    4.4099519    4.4099519   -3102.5686   -1858.3877   -3602.8428   -3846.4754   -2746.0185   -808.43888   -2405.1795    85.763312 
   17000    1020.1744   -110.59888   0.92307527    -109.6758   -4938.6519    4.4153979    4.4153979    4.4153979   -4938.6519    24678.656   -20843.947   -18650.665    7246.7535    466.45073    2129.5016    86.081442 
   17100    974.30843   -110.56197   0.88157475   -109.68039    7360.7411    4.4060962    4.4060962    4.4060962    7360.7411    42454.779   -17518.013   -2854.5425    3185.6593    -5392.563    -1204.045    85.538558 
   17200    1136.0938   -110.70642    1.0279616   -109.67846    11795.753    4.4080808    4.4080808    4.4080808    11795.753    52365.649    -6292.716   -10685.674   -5154.6308   -848.22041   -1287.0913    85.654195 
   17300     864.8859   -110.46241   0.78256693   -109.67984   -3049.6264    4.4168768    4.4168768    4.4168768   -3049.6264    16455.293     -8173.46   -17430.712    8150.1133     966.5819   -16.768537    86.167968 
   17400    619.21482   -110.23872   0.56027859   -109.67844   -3155.1679    4.4054631    4.4054631    4.4054631   -3155.1679   -12829.097    2823.7092    539.88372    8071.7425   -5389.0046    157.25267    85.501691 
   17500    734.32453   -110.34003   0.66443227    -109.6756   -3674.2827    4.4078897    4.4078897    4.4078897   -3674.2827   -21461.185    10353.436    84.900536   -4494.1117   -800.28242    2148.2053    85.643058 
   17600    399.55152   -110.03986   0.36152262   -109.67834   -9571.7827    4.4169845    4.4169845    4.4169845   -9571.7827   -24336.255   -2044.6553   -2334.4376    5437.7863    5607.7239    500.30781    86.174271 
   17700    613.16599   -110.23184   0.55480547   -109.67703   -1226.6715    4.4044083    4.4044083    4.4044083   -1226.6715    948.50647    -7580.567    2952.0461    8125.8224   -2339.6937    1111.7575    85.440292 
   17800    918.76134   -110.50728   0.83131457   -109.67597   -8300.9956    4.4118831    4.4118831    4.4118831   -8300.9956    9305.9748   -19730.034   -14478.928   -1591.1071     1679.839   -277.32959    85.876038 
   17900    859.93916   -110.45648   0.77809102   -109.67839   -5407.1614    4.4129168    4.4129168    4.4129168   -5407.1614    19388.754    -22546.58   -13063.659    5538.6865    2943.8394   -1103.1231     85.93641 
   18000    1106.5226    -110.6792    1.0012049   -109.67799    12305.836    4.4051017    4.4051017    4.4051017    12305.836    39500.459    2012.9239   -4595.8739    3456.0791   -2297.2877     4939.632    85.480652 
   18100    1172.8928   -110.73719    1.0612581   -109.67594    6138.8033    4.4116364    4.4116364    4.4116364    6138.8033    33464.523      987.714   -16035.827   -4053.1662    5119.0192   -670.62412     85.86163 
   18200    742.06883   -110.35208   0.67143947   -109.68064    3315.1626    4.4111251    4.4111251    4.4111251    3315.1626    17859.859   -981.55179   -6932.8198    5714.0287    1176.2818   -217.12251     85.83178 
   18300    726.13459   -110.33367   0.65702184   -109.67665    4718.1661     4.407353     4.407353     4.407353    4718.1661    2410.7293    12013.091   -269.32158    1212.0138   -2159.1139    2101.8211    85.611775 
   18400    619.46639   -110.23656   0.56050621   -109.67606    -9644.673    4.4103898    4.4103898    4.4103898    -9644.673   -14271.069   -6310.9103   -8352.0396   -2033.9504    5092.3141   -3579.6777    85.788867 
   18500    320.55212    -109.9698    0.2900423   -109.67975   -12596.058    4.4110481    4.4110481    4.4110481   -12596.058   -12930.306   -18150.409   -6707.4583    5035.1838    5671.8318    3475.8831    85.827285 
   18600    699.70275   -110.30931   0.63310576   -109.67621   -3680.1536    4.4069853    4.4069853    4.4069853   -3680.1536    6360.5301   -11967.679    -5433.312   -1296.9197   -2935.8793    1707.0874     85.59035 
   18700     863.8407   -110.45867   0.78162122   -109.67705    -5983.487    4.4133516    4.4133516    4.4133516    -5983.487    -5093.095   -3043.6355   -9813.7306    3638.0902    6251.6462   -5640.7226    85.961814 
   18800    981.72238   -110.56606   0.88828304   -109.67778   -1140.5826    4.4095268    4.4095268    4.4095268   -1140.5826    813.73608   -2467.1842   -1768.2996    6013.8416    2042.8753    2954.6252    85.738514 
   18900    1286.9072    -110.8396    1.1644207   -109.67518    6061.1292    4.4058135    4.4058135    4.4058135    6061.1292    21859.898     3879.317    -7555.827   -5737.2982   -2484.6792    2379.2415    85.522092 
   19000    1139.5854   -110.70946    1.0311209   -109.67834      -2860.6    4.4154627    4.4154627    4.4154627      -2860.6    3630.4977   -533.27974   -11679.018     1584.156    7845.3485   -1651.7868    86.085235 
   19100    881.47376    -110.4754   0.79757598   -109.67782     12378.72    4.4051231    4.4051231    4.4051231     12378.72    32618.807    1636.0784    2881.2749    8049.3123    331.23326     2119.385    85.481898 
   19200    608.03028   -110.22892   0.55015857   -109.67877    2111.7437    4.4093367    4.4093367    4.4093367    2111.7437    27561.752   -11537.126    -9689.394   -4708.9203   -2164.4357   -2363.5029    85.727426 
   19300    376.85694   -110.01849   0.34098808    -109.6775    -8940.408     4.414176     4.414176     4.414176    -8940.408    3773.5076   -23175.377   -7419.3551    483.47821    3166.2585   -86.469881    86.009995 
   19400    365.21137   -110.00579   0.33045093   -109.67533    7527.0252    4.4045908    4.4045908    4.4045908    7527.0252    12867.985   -328.74216    10041.833     6368.856    1572.2206     4034.842    85.450912 
   19500    465.47072   -110.09956   0.42116769   -109.67839    1848.4451    4.4093386    4.4093386    4.4093386    1848.4451      8620.03    2473.3626   -5548.0572     -10719.1   -4833.8629   -3573.9055     85.72754 
   19600    810.56246   -110.41157   0.73341395   -109.67816   -2482.2826    4.4099939    4.4099939    4.4099939   -2482.2826    4123.8569   -8050.0099   -3520.6949    3677.9251     -2328.66   -1792.7632    85.765768 
   19700     1140.932   -110.70945    1.0323393   -109.67711   -6697.7464    4.4112123    4.4112123    4.4112123   -6697.7464   -9120.8862   -5637.4898   -5334.8633    11521.168   -1731.9937    3626.1094    85.836871 
   19800    1194.9354   -110.75946    1.0812026   -109.67826   -3419.4882    4.4064253    4.4064253    4.4064253   -3419.4882   -7642.9738     9685.159    -12300.65   -7286.5062   -9920.2924    450.99611    85.557727 
   19900    1238.2577   -110.79782    1.1204016   -109.67742    1716.9838    4.4066451    4.4066451    4.4066451    1716.9838   -4248.1315    8851.9071    547.17574   -2634.6594    1367.1528   -2919.4352     85.57053 
   20000    1068.8886    -110.6452   0.96715287   -109.67804   -14369.628    4.4161863    4.4161863    4.4161863   -14369.628   -14684.012   -16597.554   -11827.318     6314.444   -4558.8079   -1177.6232    86.127565 
   20100     641.5454   -110.25881   0.58048376   -109.67832    11975.781    4.3999267    4.3999267    4.3999267    11975.781    5254.7036    28204.528    2468.1127    1521.3611   -15112.683   -913.71181    85.179743 
   20200     544.7578   -110.17223    0.4929083   -109.67932   -101.55538    4.4087563    4.4087563    4.4087563   -101.55538   -1077.0663   -4083.5342    4855.9344     2001.967    4234.8892   -1317.3078    85.693579 
   20300    429.65008   -110.06736   0.38875642    -109.6786   -18547.689    4.4143579    4.4143579    4.4143579   -18547.689   -22474.391   -26811.759   -6356.9173    3416.6321   -2952.0954    159.80634    86.020633 
   20400    347.62589   -109.99314   0.31453921   -109.67861    6364.1022    4.3987229    4.3987229    4.3987229    6364.1022    7606.4781    10687.003    798.82569   -3980.5361    -13685.07   -5641.6746    85.109846 
   20500    680.51652    -110.2946   0.61574564   -109.67885   -481.03042    4.4140465    4.4140465    4.4140465   -481.03042   -4392.6106   -651.77538    3601.2947    3457.0499     3235.754    1176.1374    86.002431 
   20600    937.08334   -110.52683    0.8478927   -109.67894    4996.5206    4.4066867    4.4066867    4.4066867    4996.5206   -1543.1505    12868.304    3664.4079    2540.9667   -1220.0742    4796.3329    85.572952 
   20700    1052.6776    -110.6332   0.95248479   -109.68071    8530.4502    4.4012386    4.4012386    4.4012386    8530.4502    15492.487    15926.709   -5827.8451   -2220.9712    -12025.85   -5840.2404    85.255959 
   20800    1254.3464   -110.81346     1.134959    -109.6785   -5785.1361    4.4150775    4.4150775    4.4150775   -5785.1361    401.51368   -8814.2838   -8942.6383    8985.0999    1112.1435   -2114.7504    86.062703 
   20900    1071.0074   -110.64755   0.96907002   -109.67848    10884.413    4.4011184    4.4011184    4.4011184    10884.413    23495.688    7459.7155    1697.8364    132.69635   -3900.2674   -431.27516    85.248975 
   21000    949.43226   -110.53805   0.85906626   -109.67899   -5720.6991    4.4100615    4.4100615    4.4100615   -5720.6991    3899.7331    -7465.003   -13596.827   -8252.4093   -8816.6042    229.60984    85.769707 
   21100    657.84497   -110.27193   0.59523195    -109.6767   -5729.9902    4.4116254    4.4116254    4.4116254   -5729.9902    3646.0542   -15112.289   -5723.7362    9661.4339    7937.1297    2150.3551    85.860988 
   21200     380.9899    -110.0219   0.34472767   -109.67717     12397.35    4.3973259    4.3973259    4.3973259     12397.35   -3606.3923    19237.999    21560.445    2008.8495   -4653.9412   -4303.7314    85.028785 
   21300    428.26653   -110.06613   0.38750456   -109.67863   -18489.492    4.4150816    4.4150816    4.4150816   -18489.492    -36535.52    -9445.779   -9487.1769   -6592.0664   -10623.187   -887.33366    86.062944 
   21400    455.64196   -110.08998   0.41227442    -109.6777   -9566.3425    4.4073683    4.4073683    4.4073683   -9566.3425   -12355.107    -16650.37    306.44874    1503.0924    10473.214     2190.713     85.61267 
   21500    657.26826   -110.27414   0.59471014   -109.67943    5305.7633    4.4018543    4.4018543    4.4018543    5305.7633    7701.5548    1512.3507    6703.3843    4079.2522   -2876.8515      2786.46    85.291745 
   21600    1105.4562    -110.6761      1.00024   -109.67586   -6906.4764    4.4135236    4.4135236    4.4135236   -6906.4764   -3283.7185   -7530.6309   -9905.0798    4136.0358   -10396.673   -321.51149    85.971868 
   21700    1090.3372   -110.66529   0.98655999   -109.67873    5740.3606     4.403116     4.403116     4.403116    5740.3606    11321.713    4070.8954    1828.4732   -2915.7325    12146.483   -4028.7536    85.365104 
   21800     1227.726    -110.7914    1.1108723   -109.68053   -2525.5137    4.4091624    4.4091624    4.4091624   -2525.5137   -575.25834    5503.1811   -12504.464    -355.5955   -461.80551    1179.1734    85.717262 
   21900    1264.1055   -110.82069    1.1437892    -109.6769    176.37354    4.4081738    4.4081738    4.4081738    176.37354    4372.5163    1149.8145   -4993.2102    4455.7926   -3788.6882    3255.0054    85.659614 
   22000    778.42021   -110.38627   0.70433096   -109.68194   -619.92003    4.4042026    4.4042026    4.4042026   -619.92003   -1307.6871    7705.5951    -8257.668    5647.2008    11748.009    994.21322     85.42832 
   22100    635.24792    -110.2538   0.57478566   -109.67902   -3797.1066    4.4113197    4.4113197    4.4113197   -3797.1066    2656.4629   -3873.9109   -10173.872    1644.5883    1577.6421   -1084.2983    85.843143 
   22200    568.98684   -110.19112   0.51483125   -109.67629    8686.3755    4.4015095    4.4015095    4.4015095    8686.3755    28850.534   -8896.7562     6105.349   -4216.8878   -276.20006   -2994.2601    85.271699 
   22300    165.01684   -109.83248   0.14931071   -109.68317   -12574.654    4.4113895    4.4113895    4.4113895   -12574.654   -17488.694   -14374.911   -5860.3563    3771.8391    11684.865    2391.7051    85.847215 
   22400    539.96511   -110.16666   0.48857178   -109.67808    -4234.809    4.4081383    4.4081383    4.4081383    -4234.809   -10068.916   -9221.3101    6585.7992    334.13384    2307.4278    3784.2348    85.657547 
   22500      830.646   -110.42727   0.75158596   -109.67568     11173.62    4.3980276    4.3980276    4.3980276     11173.62    27358.202    -524.2404    6686.8987    203.82243    518.28885   -4294.5657    85.069492 
   22600    701.33329   -110.31852    0.6345811   -109.68394   -14975.248    4.4163667    4.4163667    4.4163667   -14975.248   -5868.0983   -15922.035   -23135.611    4734.5309    18839.261   -862.21076    86.138118 
   22700    1334.8572   -110.88431    1.2078068    -109.6765    1510.5115    4.4029046    4.4029046    4.4029046    1510.5115    6248.4008    1241.0223   -2957.8887   -263.32167    3547.2158     2007.626    85.352808 
   22800    1326.3779   -110.87791    1.2001346   -109.67777     4974.627    4.4029921    4.4029921    4.4029921     4974.627    11242.899    7276.1858   -3595.2034    -1894.314   -3987.7052    1599.8614    85.357901 
   22900    921.82641   -110.51636   0.83408791   -109.68227   -17636.556     4.414736     4.414736     4.414736   -17636.556   -24866.788   -3416.0015   -24626.879    4249.6682    19533.417    226.94065    86.042735 
   23000     1025.888   -110.60275   0.92824499    -109.6745    7590.2888     4.398229     4.398229     4.398229    7590.2888    2757.3634    5798.6688    14214.834     7469.325    3558.2739    -5284.272    85.081184 
   23100    718.34162   -110.32999   0.64997059   -109.68002   -4773.5892    4.4108112    4.4108112    4.4108112   -4773.5892   -11123.966   -3018.7919   -178.00956   -4432.4928   -395.04324    3419.3824    85.813458 
   23200     214.3458   -109.87577   0.19394458   -109.68183   -4380.6733    4.4082021    4.4082021    4.4082021   -4380.6733   -1067.4551   -6208.3494   -5866.2154   -76.198118     17863.24    2323.5788    85.661264 
   23300    476.12026   -110.10641   0.43080362    -109.6756   -700.79853    4.4004027    4.4004027    4.4004027   -700.79853    8611.5674   -21541.655    10827.692    4004.4813   -4475.0091     -1800.79    85.207392 
   23400    519.75658    -110.1478   0.47028668   -109.67751    -17057.89    4.4137982    4.4137982    4.4137982    -17057.89   -19180.032   -29336.191   -2657.4449   -5567.2504    2314.8743    1786.0272    85.987913 
   23500    528.37563   -110.15867   0.47808537   -109.68058    11222.979     4.401263     4.401263     4.401263    11222.979    6710.6942    14947.002    12011.241    6069.9456     17089.66   -3411.4886    85.257378 
   23600    1113.3548   -110.68546    1.0073868   -109.67808    3504.1748    4.4068269    4.4068269    4.4068269    3504.1748    7524.9147    5638.7985   -2651.1888    2319.6947   -10487.643     4048.947    85.581122 
   23700    1202.9745   -110.76543    1.0884766   -109.67696   -3953.7585    4.4117722    4.4117722    4.4117722   -3953.7585   -4762.4104     2539.865   -9638.7301   -3986.6531    2051.9659    2052.7484    85.869563 
   23800    1102.2392    -110.6764   0.99732919   -109.67907     9380.719    4.3994083    4.3994083    4.3994083     9380.719    7721.9578    22844.836   -2424.6365    4505.2732     15598.04    -2101.959    85.149638 
   23900    1152.1234   -110.72017    1.0424654    -109.6777   -2858.3792     4.409939     4.409939     4.409939   -2858.3792   -3439.7582   -5499.5388    364.15951   -3531.3535   -8397.0662    2399.6317    85.762559 
   24000     866.3064    -110.4626   0.78385223   -109.67875   -5166.9219    4.4075263    4.4075263    4.4075263   -5166.9219   -7782.3361   -9289.4317    1571.0019    2367.3196    4127.1587    -2539.413    85.621873 
   24100    467.47601   -110.10313   0.42298212   -109.68015    395.10258    4.4040754    4.4040754    4.4040754    395.10258   -10821.262   -4072.1264    16078.696    6841.4248    9346.2601    3167.6817    85.420916 
   24200    444.14921   -110.07822   0.40187554   -109.67635    347.85681    4.4093276    4.4093276    4.4093276    347.85681   -6108.1681   -7970.0843    15121.823   -8011.5112   -8079.6777   -705.80469    85.726899 
   24300    437.38068    -110.0724   0.39575123   -109.67665   -5839.5473    4.4049705    4.4049705    4.4049705   -5839.5473   -9520.9427   -7873.1542   -124.54485    3035.7904    7002.4686   -3846.1046    85.473011 
   24400    423.75924   -110.06353   0.38342626    -109.6801   -12682.455    4.4065195    4.4065195    4.4065195   -12682.455   -15207.924   -15089.985    -7749.455    9598.9798    10900.236     665.0478    85.563215 
   24500    854.41579   -110.45149   0.77309336   -109.67839   -3855.7281    4.4073566    4.4073566    4.4073566   -3855.7281   -3006.0324   -9432.1345    870.98262   -2690.1452    -7805.401   -4235.0871    85.611987 
   24600    1059.3272   -110.63648   0.95850152   -109.67798    3280.1503    4.4062161    4.4062161    4.4062161    3280.1503   -8488.7375    16732.044    1597.1448   -3196.8299    7675.0953    5301.4681    85.545539 
   24700    1173.3749   -110.74035    1.0616943   -109.67865   -4038.8138    4.4057479    4.4057479    4.4057479   -4038.8138   -12944.043    8264.8513   -7437.2494     4310.055    10597.999   -2157.8732    85.518276 
   24800    1169.3539   -110.73703     1.058056   -109.67897   -200.70993    4.4071831    4.4071831    4.4071831   -200.70993   -419.21788    2154.3686   -2337.2805    1334.7902   -5463.8638    -6834.101    85.601877 
   24900    1077.2676   -110.65136   0.97473438   -109.67663    -6315.856    4.4089012    4.4089012    4.4089012    -6315.856   -15855.993    3855.2985    -6946.874    1959.8058    7348.3171    4181.4922     85.70203 
   25000    722.33481   -110.33128   0.65358371   -109.67769   -2771.4745    4.4025714    4.4025714    4.4025714   -2771.4745   -11345.446   -8930.9703    11961.992    686.03546    3088.8366   -1430.5197    85.333432 
   25100    558.16794    -110.1849   0.50504208   -109.67986   -8872.1417    4.4072998    4.4072998    4.4072998   -8872.1417     -816.277   -20543.025   -5257.1227   -7320.4085    -4043.596   -1644.3061    85.608678 
   25200    439.16847   -110.07494   0.39736886   -109.67757    2677.1859    4.4093177    4.4093177    4.4093177    2677.1859   -7738.1461    4024.8558    11744.848    4522.1547    9198.1063    -843.3805    85.726321 
   25300    547.64133   -110.17152   0.49551739   -109.67601    2824.1743    4.4008939    4.4008939    4.4008939    2824.1743   -7643.9835    9057.0174    7059.4888    3564.9487     655.8868   -3050.0206     85.23593 
   25400    508.97583   -110.14154   0.46053203   -109.68101   -13941.065    4.4099898    4.4099898    4.4099898   -13941.065   -6243.7631   -2030.8703   -33548.563   -7056.6543   -10.384138   -945.19484    85.765524 
   25500    981.99555   -110.56509   0.88853021   -109.67656   -6785.1502    4.4083169    4.4083169    4.4083169   -6785.1502   -7059.5384     14084.87   -27380.782    3076.5786    5442.1964   -117.10974     85.66796 
   25600     1124.219   -110.69316     1.017217   -109.67595    15705.309    4.3988657    4.3988657    4.3988657    15705.309     6519.895    23437.397    17158.635    375.15691   -75.682961   -3733.6393    85.118136 
   25700    1001.0811   -110.58705   0.90579921   -109.68125   -3986.4046    4.4113836    4.4113836    4.4113836   -3986.4046    571.34307     -1546.33   -10984.227    -1525.458    1285.7335   -294.81396    85.846873 
   25800    1188.8072    -110.7517    1.0756577   -109.67604    3301.0303    4.4072786    4.4072786    4.4072786    3301.0303      1366.66    6705.8078     1830.623    2219.9264    511.44586    5658.1383    85.607443 
   25900    979.88265   -110.56377   0.88661842   -109.67715    10745.415    4.4001609    4.4001609    4.4001609    10745.415    3190.2425     3303.074    25742.927   -6081.0331    2000.4362   -6198.1987    85.193347 
   26000    490.16524   -110.12593   0.44351181   -109.68242   -14371.029    4.4099705    4.4099705    4.4099705   -14371.029   -4141.9566   -20759.099   -18212.033   -1540.7878    1027.2617   -3211.0438    85.764397 
   26100    572.40076   -110.19542   0.51792023    -109.6775   -5322.3776    4.4059675    4.4059675    4.4059675   -5322.3776     -8659.38    3623.3238   -10931.077   -781.61997   -411.57958    9270.1152    85.531062 
   26200    585.23008   -110.20636   0.52952847   -109.67683    4876.9056    4.4039645    4.4039645    4.4039645    4876.9056    934.18124    15414.302   -1717.7666    -3034.256    1180.6752   -4950.0483    85.414466 
   26300    283.67199   -109.93934   0.25667237   -109.68267    6118.6565    4.4070632    4.4070632    4.4070632    6118.6565      12696.9     9880.847   -4221.7777    1042.2059    1534.7324   -2194.9584     85.59489 
   26400    886.96656   -110.48059   0.80254598   -109.67804    129.58997    4.4060085    4.4060085    4.4060085    129.58997   -6291.5285    17736.931   -11056.633   -1627.0536    955.06283    8939.2712    85.533452 
   26500    1080.1015   -110.65359   0.97729853   -109.67629   -4390.0501    4.4068696    4.4068696    4.4068696   -4390.0501   -9055.0111    8656.6997   -12771.839    1148.3445   -1664.3426     -2767.64    85.583612 
   26600    889.68224   -110.48756   0.80500319   -109.68255    -808.6614    4.4032239    4.4032239    4.4032239    -808.6614    10263.423   -2947.8767   -9741.5307    1078.6654   -1898.1866    5540.7166    85.371381 
   26700    1188.1172   -110.75422    1.0750334   -109.67918    3321.2792    4.4070069    4.4070069    4.4070069    3321.2792    3146.6326   -4224.3214    11041.526   -581.46489    2430.4122    4930.9637    85.591607 
   26800    1178.3346   -110.74428    1.0661819   -109.67809   -119.14266      4.40765      4.40765      4.40765   -119.14266   -477.77614    1239.2551   -1118.9069    2227.1362     4101.378   -7279.4681    85.629084 
   26900     526.8531    -110.1605   0.47670776   -109.68379    12526.352    4.4021656    4.4021656    4.4021656    12526.352    24525.006    8217.7684     4836.281   -595.45718      -1806.5    11089.585    85.309838 
   27000    682.50906   -110.29595   0.61754854    -109.6784   -2859.5824    4.4090672    4.4090672    4.4090672   -2859.5824    -4404.995    857.88148   -5031.6336    2809.9788   -2892.7534    4796.8311    85.711707 
   27100    604.48341   -110.22387    0.5469493   -109.67692   -7512.4561    4.4048623    4.4048623    4.4048623   -7512.4561   -12669.889    15388.893   -25256.373   -237.32029    2331.9042   -4316.9289    85.466713 
   27200    283.97219    -109.9393     0.256944   -109.68235   -4174.3917    4.4033334    4.4033334    4.4033334   -4174.3917   -2189.7725    20173.744   -30507.146    1420.0698    1623.7095    10503.573     85.37775 
   27300    697.36991   -110.31057   0.63099495   -109.67957   -365.13761    4.4100783    4.4100783    4.4100783   -365.13761   -11380.113     16008.47   -5723.7689    5185.9062   -1392.4919   -880.50811    85.770687 
   27400    945.79354    -110.5327   0.85577387   -109.67693    12534.523    4.4019837    4.4019837    4.4019837    12534.523    23.160413    21454.127    16126.282   -3675.4282   -1267.9712    2906.7575    85.299265 
   27500    894.40123   -110.49078   0.80927303   -109.68151    551.81461    4.4067412    4.4067412    4.4067412    551.81461   -53.512286    8529.4585   -6820.5024    311.00589     737.0172    9234.8251    85.576128 
   27600    1208.5785   -110.77073    1.0935472   -109.67718   -2788.3302    4.4092258    4.4092258    4.4092258   -2788.3302    -8950.918    -6217.813    6803.7405   -1965.5057    6184.9369   -5462.3863    85.720956 
   27700    1164.8635   -110.73009     1.053993    -109.6761    8007.5341    4.3998105    4.3998105    4.3998105    8007.5341    8810.0909    8105.3731    7107.1384    -2512.442    2289.1779    6357.9511    85.172993 
   27800    848.71316   -110.44836    0.7679335   -109.68043   -8644.8979    4.4097221    4.4097221    4.4097221   -8644.8979    7201.9268   -5631.6183   -27505.002    5092.1866   -4456.7258    6109.9235    85.749907 
   27900    696.03542   -110.30728   0.62978747   -109.67749   -1303.5329     4.407838     4.407838     4.407838   -1303.5329   -8496.8067    16526.147   -11939.938   -6392.7041    2705.1225   -2478.1695    85.640043 
   28000    543.96166   -110.16867   0.49218794   -109.67648    11881.048    4.4007307    4.4007307    4.4007307    11881.048    5707.5027    25921.858    4013.7834   -1019.5677    4615.6884    6087.9472    85.226444 
   28100    372.22859   -110.01535   0.33680025   -109.67855   -7149.5867    4.4100898    4.4100898    4.4100898   -7149.5867   -8206.2441    11066.567   -24309.083    2978.4619     -1082.18    3584.2411    85.771361 
   28200    523.10327   -110.15104   0.47331483   -109.67772   -7236.6718    4.4053875    4.4053875    4.4053875   -7236.6718   -33821.449    14189.067    -2077.633   -3129.7008    935.85424   -2171.5635    85.497291 
   28300    805.85228   -110.40737   0.72915207   -109.67822   -1449.8729    4.4044718    4.4044718    4.4044718   -1449.8729   -23591.662    18280.405    961.63796     1601.062    3087.6894      1378.15    85.443987 
   28400    1037.0508   -110.61599   0.93834531   -109.67764    -1320.038    4.4092356    4.4092356    4.4092356    -1320.038    2385.5565   -2187.1852   -4158.4855   -6002.0294    1803.9283    4468.0544    85.721531 
   28500    1174.3423    -110.7405    1.0625696   -109.67793    5918.0584      4.40282      4.40282      4.40282    5918.0584    1912.7146    4442.0521    11399.409   -3070.8496    3860.9917   -1294.6815    85.347888 
   28600    1227.8258   -110.78989    1.1109626   -109.67892    835.51402    4.4073666    4.4073666    4.4073666    835.51402    1068.9318    5417.8192    -3980.209     4487.848    690.54967    1708.1488    85.612571 
   28700    1012.1645   -110.59379    0.9158277   -109.67797   -2154.8465    4.4078836    4.4078836    4.4078836   -2154.8465    12478.237   -3950.8413   -14991.936   -2623.4878   -3044.9566     5682.687    85.642698 
   28800    629.00455   -110.24761   0.56913653   -109.67847   -455.69604    4.4028349    4.4028349    4.4028349   -455.69604   -8802.0314    16348.307   -8913.3642   -5095.0551    7851.6787   -4611.5653    85.348758 
   28900    543.90476   -110.16905   0.49213646   -109.67692   -15630.043    4.4098193    4.4098193    4.4098193   -15630.043   -34888.931     10976.95   -22978.149   -505.78891    3493.3596    5778.9969    85.755581 
   29000    376.75854   -110.01751   0.34089905   -109.67661   -1167.2353    4.4053741    4.4053741    4.4053741   -1167.2353   -16430.107    22531.333   -9602.9316    2346.0309   -6398.6136    3188.7263     85.49651 
   29100    511.83891   -110.14139    0.4631226   -109.67827   -2921.5884    4.4039505    4.4039505    4.4039505   -2921.5884   -19496.303    10575.547    155.99026   -2323.3351    8535.7693   -7691.8644    85.413654 
   29200    775.44277   -110.38013   0.70163692   -109.67849   -8789.8623    4.4098767    4.4098767    4.4098767   -8789.8623   -19565.659    2724.8734   -9528.8017    455.49313    5344.6015    3785.1337    85.758927 
   29300    1114.6929   -110.68523    1.0085976   -109.67663    -3542.608    4.4041618    4.4041618    4.4041618    -3542.608    6345.4007   -10375.592   -6597.6325   -1982.5582   -5799.2379   -1242.2083    85.425949 
   29400    1065.0078   -110.64272   0.96364146   -109.67908    2747.2182    4.4062109    4.4062109    4.4062109    2747.2182    1827.5501    8609.7338   -2195.6293   -1903.5885    7582.8708   -283.33218     85.54524 
   29500    1137.0478   -110.70626    1.0288248   -109.67743   -3646.4238    4.4075947    4.4075947    4.4075947   -3646.4238   -5506.1906    2849.3571   -8282.4378     10143.27    1087.5969    1406.4179     85.62586 
   29600    954.33408   -110.54029   0.86350153   -109.67678   -1736.1308    4.4041578    4.4041578    4.4041578   -1736.1308    1259.2282   -1372.0553   -5095.5652   -3777.1961   -2980.4911   -3017.0261    85.425714 
   29700    692.70481   -110.30597   0.62677387    -109.6792   -8631.4571    4.4079159    4.4079159    4.4079159   -8631.4571   -25470.621    10596.022   -11019.772   -2773.6611    11518.348     2447.161    85.644585 
   29800    643.92622   -110.26021   0.58263797   -109.67757    -5761.721    4.4059202    4.4059202    4.4059202    -5761.721   -32198.305    26255.582    -11342.44    8403.1702   -1525.9383    805.19164     85.52831 
   29900    682.25609   -110.29371   0.61731965   -109.67639   -2707.6406    4.4057971    4.4057971    4.4057971   -2707.6406   -11282.797    14625.403   -11465.528   -1792.1772   -6662.6055    4642.8511    85.521137 
   30000    689.12348   -110.30151   0.62353341   -109.67797   -963.49018    4.4075319    4.4075319    4.4075319   -963.49018   -13673.487    19551.465   -8768.4486    1786.8184    13545.486   -672.67708    85.622205 
   30100    740.49025   -110.34804   0.67001114   -109.67803    7374.5418    4.4046293    4.4046293    4.4046293    7374.5418   -6521.0745    27069.295    1575.4054    2802.5689   -729.54546   -3099.3432    85.453153 
   30200    899.59493   -110.49079    0.8139724   -109.67682   -5632.4276    4.4058741    4.4058741    4.4058741   -5632.4276    9972.9205   -22036.503   -4833.7001    197.50459   -7551.0624    4168.1571    85.525621 
   30300    717.77564   -110.32785   0.64945848   -109.67839   -7887.9568    4.4085629    4.4085629    4.4085629   -7887.9568   -23.834327   -18374.002   -5266.0337    529.20187    11347.221   -2007.8645      85.6823 
   30400    786.89668   -110.38936   0.71200065   -109.67736   -2089.4646     4.405602     4.405602     4.405602   -2089.4646   -13401.268    3202.5577    3930.3167    1383.8278     -3483.68    3241.0953    85.509778 
   30500    919.57895   -110.50812   0.83205436   -109.67606    7717.3443    4.4040971    4.4040971    4.4040971    7717.3443   -7389.0098    31652.086   -1111.0428    2363.3648   -5245.7166   -770.74531    85.422181 
   30600    974.21666   -110.55903   0.88149171   -109.67754   -808.11287    4.4089972    4.4089972    4.4089972   -808.11287   -19482.847    25020.891   -7962.3824   -677.09609    11105.804   -4434.8537    85.707624 
   30700    927.00298   -110.51727   0.83877178    -109.6785    3623.8225    4.4058763    4.4058763    4.4058763    3623.8225   -22993.611    34419.696   -554.61822    6020.0063   -6221.1965     3702.881    85.525752 
   30800    1053.9324   -110.62984   0.95362019   -109.67622   -860.34605    4.4034676    4.4034676    4.4034676   -860.34605   -12807.255    16393.647   -6167.4299   -467.99897   -6540.0756   -1198.0142    85.385559 
   30900    786.27691    -110.3889   0.71143987   -109.67746   -9432.2547    4.4093691    4.4093691    4.4093691   -9432.2547   -9302.4819    -11297.24   -7697.0424    2983.9024    9959.9444    1287.3559     85.72932 
   31000     571.9654   -110.19594   0.51752632   -109.67841   -8157.9944    4.4068896    4.4068896    4.4068896   -8157.9944   -5509.4777   -22406.308    3441.8025    10197.027   -6132.7531    -3856.076    85.584773 
   31100    530.04789   -110.15696   0.47959847   -109.67736    10867.548    4.4024642    4.4024642    4.4024642    10867.548    9836.6174    6637.7865    16128.239   -6037.2673   -7876.9178   -513.42696      85.3272 
   31200    695.53017   -110.30564   0.62933032   -109.67631   -8292.7926    4.4097741    4.4097741    4.4097741   -8292.7926    -5455.965   -15253.108    -4169.305    3634.0462    8150.2704    6448.1468    85.752941 
   31300    583.24438   -110.20701   0.52773177   -109.67927   -8912.5149    4.4071827    4.4071827    4.4071827   -8912.5149   -14252.124   -8226.4286   -4258.9923    8248.9543   -8551.3796   -2601.0114    85.601851 
   31400    1006.4859   -110.58877   0.91068963   -109.67808    285.15284    4.4026322    4.4026322    4.4026322    285.15284   -14819.555    16875.669    -1200.656   -2657.4478   -7861.2942    3784.3259    85.336971 
   31500      1136.69    -110.7047     1.028501    -109.6762    208.98158    4.4088023    4.4088023    4.4088023    208.98158   -20340.038    23379.275   -2412.2921    1455.5598    8089.2318   -1638.4538    85.696262 
   31600    961.94288   -110.55028   0.87038613    -109.6799   -6016.3617    4.4053535    4.4053535    4.4053535   -6016.3617   -26972.936    14546.307   -5622.4568    467.78273   -10626.489   -677.18929    85.495308 
   31700    854.60218   -110.45424   0.77326202   -109.68097     4761.538    4.4046632    4.4046632    4.4046632     4761.538   -7390.4017    13638.808    8036.2076   -1359.0852   -7373.5459    4582.4198    85.455126 
   31800    985.92152   -110.56762   0.89208251   -109.67553   -3941.1153     4.409028     4.409028     4.409028   -3941.1153   -1111.9876   -14714.569    4003.2108    2748.6352    3805.4597    -5175.939    85.709421 
   31900    593.62036   -110.21597   0.53712018   -109.67885   -9025.0728    4.4052525    4.4052525    4.4052525   -9025.0728   -11639.699   -25919.323    10483.803    967.56874   -10654.064    2149.8576    85.489428 
   32000    628.94258   -110.24817   0.56908046   -109.67908   -8769.6545    4.4075451    4.4075451    4.4075451   -8769.6545    -7005.845   -26865.334     7562.215   -8265.6179   -2277.2016    -1996.344     85.62297 
   32100    835.01919   -110.43001   0.75554291   -109.67446    5095.3787    4.4064233    4.4064233    4.4064233    5095.3787   -458.84366    10262.835    5482.1445    1183.9593    537.25629   -4270.9893    85.557608 
   32200    585.24369   -110.20822   0.52954079   -109.67868   -88.042817    4.4039695    4.4039695    4.4039695   -88.042817    -19129.16    24106.672   -5241.6405    4413.6679    -12871.37    3929.2256    85.414759 
   32300     577.1247     -110.203   0.52219456    -109.6808   -13732.883    4.4091108    4.4091108    4.4091108   -13732.883    -20805.18    5706.6274   -26100.097   -10202.924   -545.75021   -1011.3661    85.714251 
   32400    911.84229   -110.50074   0.82505407   -109.67569    -3461.464    4.4061269    4.4061269    4.4061269    -3461.464    1965.7055    14511.118   -26861.215    -2827.688    2583.8764    2949.6653    85.540348 
   32500    879.59351   -110.47373    0.7958747   -109.67786   -2195.3177    4.4050204    4.4050204    4.4050204   -2195.3177   -12789.875    9821.3167    -3617.395    1512.2802   -15302.655   -2768.4834    85.475918 
   32600    950.64105   -110.53982      0.86016   -109.67966   -6209.5004    4.4077571    4.4077571    4.4077571   -6209.5004   -16435.924   -18853.649    16661.072    -6316.123   -2464.0211    71.197365    85.635324 
   32700    1221.2597   -110.78151    1.1050215   -109.67649    903.43341    4.4065339    4.4065339    4.4065339    903.43341   -3700.4692   -3389.3791    9800.1486   -1169.5074     920.6227    6581.9358    85.564055 
   32800    1020.6077   -110.60099   0.92346726   -109.67752    701.01949    4.4063453    4.4063453    4.4063453    701.01949   -13689.325    6707.0012    9085.3823    -1299.513   -10428.422   -2105.7157    85.553068 
   32900    684.79069    -110.2984     0.619613   -109.67878    -7065.829    4.4056628    4.4056628    4.4056628    -7065.829   -8282.2369   -13184.087    268.83692   -8739.8597    1807.0581   -102.71273    85.513316 
   33000    601.98468   -110.22163   0.54468839   -109.67694   -11483.185    4.4076124    4.4076124    4.4076124   -11483.185   -306.29456      3986.72    -38129.98    2081.7666   -4437.6397   -2381.8806    85.626895 
   33100    444.50233   -110.07884   0.40219505   -109.67665   -2783.8369    4.4066858    4.4066858    4.4066858   -2783.8369    9647.4097     18581.19   -36580.111   -220.98207   -10127.817   -226.04534    85.572901 
   33200     431.2365   -110.06896   0.39019185   -109.67876    1425.8961    4.4039245    4.4039245    4.4039245    1425.8961    164.49187    11079.544   -6966.3472   -12218.292    5646.8865    4743.3961    85.412137 
   33300    718.57053   -110.32978   0.65017771    -109.6796   -8541.5087    4.4094433    4.4094433    4.4094433   -8541.5087   -11167.862    5213.2022   -19669.867    1578.8186   -6619.6138   -2830.0053    85.733644 
   33400    1100.9446   -110.67246   0.99615781    -109.6763   -4410.6833    4.4078985    4.4078985    4.4078985   -4410.6833    -14344.32    4616.4765   -3504.2065   -2551.4512   -11053.708   -1958.2328    85.643572 
   33500    1111.9857   -110.68361     1.006148   -109.67746    7327.2761    4.4027671    4.4027671    4.4027671    7327.2761    7584.0053   -7290.2224    21688.046   -9699.4359    4205.5284    1789.7398    85.344815 
   33600    1088.4588   -110.66312   0.98486043   -109.67826   -4330.7241    4.4095729    4.4095729    4.4095729   -4330.7241   -2579.4558   -2854.7118   -7558.0047    2677.6068   -2276.3262    3203.6593    85.741207 
   33700      955.083   -110.54035   0.86417917   -109.67617   -826.34142    4.4070641    4.4070641    4.4070641   -826.34142    12943.539    4754.6886   -20177.252   -4718.8644   -8141.8366    108.68581    85.594945 
   33800    643.52208   -110.26048    0.5822723   -109.67821    4066.5052    4.4022793    4.4022793    4.4022793    4066.5052    22275.674    6345.3131   -16421.472   -5857.3486   -177.37375   -1298.6776     85.31645 
   33900    360.56212   -110.00632   0.32624419   -109.68007   -7286.5249    4.4118181    4.4118181    4.4118181   -7286.5249    9789.0584    12746.562   -44395.195    3975.0824   -4082.2966     1361.559    85.872242 
   34000    597.65872   -110.21637   0.54077417    -109.6756   -5274.7214    4.4066831    4.4066831    4.4066831   -5274.7214    2526.2662    11046.515   -29396.946   -1929.2642   -3342.1707    128.14032    85.572742 
   34100    623.35902   -110.24122   0.56402834   -109.67719    8353.3399     4.402686     4.402686     4.402686    8353.3399     18927.68    5147.0245    985.31548   -8738.5322    2061.0276    3750.6271    85.340101 
   34200     774.0435   -110.37946   0.70037082   -109.67909   -2729.1965    4.4108508    4.4108508    4.4108508   -2729.1965   -2491.1792    1864.0016   -7560.4119     2011.685   -7569.2609    482.67511    85.815768 
   34300    1083.5316   -110.65654   0.98040218   -109.67614    993.76211    4.4041855    4.4041855    4.4041855    993.76211   -13026.874    9120.8381    6887.3217   -408.55584   -3626.5765   -3206.9232    85.427327 
   34400    1045.5483   -110.62375   0.94603403   -109.67772   -500.31019     4.405314     4.405314     4.405314   -500.31019   -7082.7447    243.90663    5337.9075   -10240.979    1610.5074    4326.2498    85.493007 
   34500    811.30229   -110.41273   0.73408336   -109.67865   -5098.6428     4.410712     4.410712     4.410712   -5098.6428    8961.6045    6136.0164   -30393.549    3562.3502   -7547.9016    1396.7167     85.80767 
   34600    809.00556   -110.40733   0.73200523   -109.67532    4474.5888    4.4033727    4.4033727    4.4033727    4474.5888    25552.661    15402.731   -27531.626   -3862.5493   -3012.5868   -3965.8433    85.380038 
   34700    802.31025   -110.40234   0.72594717   -109.67639   -186.24546    4.4060786    4.4060786    4.4060786   -186.24546    14844.024    8320.4569   -23723.218   -7514.7363   -1017.5478    1728.5821    85.537534 
   34800    561.78723   -110.18702   0.50831689    -109.6787     1570.387    4.4093407    4.4093407    4.4093407     1570.387     19127.19    18034.813   -32450.842    6370.8016   -5474.9076   -991.92024    85.727657 
   34900    841.04826   -110.43734   0.76099814   -109.67634   -3639.9412    4.4035329    4.4035329    4.4035329   -3639.9412   -11437.919    12387.116   -11869.021   -4962.8694   -1605.3926   -3363.6834    85.389353 
   35000     895.5893   -110.48765   0.81034802   -109.67731   -4629.4115    4.4064214    4.4064214    4.4064214   -4629.4115   -30585.712    8924.4248    7773.0533   -4855.9786    2376.5227     4246.893    85.557502 
   35100     811.2373   -110.41286   0.73402456   -109.67883   -2551.8299    4.4087984    4.4087984    4.4087984   -2551.8299   -15849.029    11680.618   -3487.0789    2492.7421   -5553.1157      710.795    85.696031 
   35200    833.40785    -110.4313   0.75408493   -109.67722    10447.388    4.4035743    4.4035743    4.4035743    10447.388    22551.007    8849.7438   -58.586125   -2348.8545    -3223.643   -4894.9453    85.391765 
   35300    935.09957   -110.52144   0.84609774   -109.67534   -799.41061    4.4068446    4.4068446    4.4068446   -799.41061    2522.1049    3514.3935   -8434.7302   -3360.2374    3995.0954    1286.6713    85.582152 
   35400    642.60108   -110.26048   0.58143896   -109.67904   -542.00886    4.4083458    4.4083458    4.4083458   -542.00886    19619.237    7432.5977   -28677.861      1707.99   -6955.3642    737.72175    85.669641 
   35500    745.95873   -110.35259   0.67495914   -109.67763    2894.3675    4.4035036    4.4035036    4.4035036    2894.3675    24907.387    12232.528   -28456.813    5683.0169   -3205.7035   -3247.6715    85.387653 
   35600    851.46704   -110.44659   0.77042527   -109.67617   -5001.8475     4.406749     4.406749     4.406749   -5001.8475    6823.5639    3766.4037    -25595.51    -6514.944    3406.8214   -384.65965    85.576584 
   35700    706.69306   -110.31847   0.63943073   -109.67904    -8031.981    4.4089011    4.4089011    4.4089011    -8031.981   -3281.1045     282.6791   -21097.518    384.96163   -8167.5538   -5006.6882    85.702021 
   35800    774.19449   -110.37853   0.70050744   -109.67802    6344.1791    4.4040395    4.4040395    4.4040395    6344.1791    5674.4142    6102.0988    7256.0243    3178.9359    1473.6051    -3587.796    85.418832 
   35900    976.89446    -110.5602   0.88391464   -109.67628    3900.2149    4.4047916    4.4047916    4.4047916    3900.2149    -8513.199    12022.923    8190.9205   -8790.5785    5910.4441    7304.4727    85.462598 
   36000    798.83192   -110.40204    0.7227999   -109.67924   -6653.3374     4.409297     4.409297     4.409297   -6653.3374   -15516.778     1884.431   -6327.6654     5377.807   -8022.1433   -4330.5561    85.725109 
   36100    825.32662   -110.42495   0.74677287   -109.67818   -2902.3342    4.4060136    4.4060136    4.4060136   -2902.3342   -7432.5318    5442.2608   -6716.7315   -68.346135    43.197335    -7730.229    85.533749 
   36200    913.44138   -110.50191   0.82650096   -109.67541    2162.6447    4.4036218    4.4036218    4.4036218    2162.6447    14774.359    11974.525    -20260.95   -8039.8099    6922.2614    2566.6729    85.394527 
   36300    687.47806   -110.30054    0.6220446   -109.67849   -10815.999    4.4084579    4.4084579    4.4084579   -10815.999    18886.531   -14059.768   -37274.759    5776.3589   -4500.8732   -1363.8825    85.676177 
   36400    623.85331   -110.24369   0.56447559   -109.67922   -8371.5729    4.4058125    4.4058125    4.4058125   -8371.5729    9023.4533   -14088.254   -20049.918    2090.9452   -1044.8016   -463.49168    85.522035 
   36500    704.16678   -110.31431    0.6371449   -109.67717    6343.2756    4.4033484    4.4033484    4.4033484    6343.2756     12394.64   -61.657842    6696.8441    -2449.802    6924.0361   -3834.6901    85.378621 
   36600    663.85849   -110.27916   0.60067311   -109.67849    -7100.266    4.4088901    4.4088901    4.4088901    -7100.266   -11559.202    -1366.908   -8374.6878   -91.116298    -2115.492   -4828.3189    85.701382 
   36700     718.7983   -110.32928   0.65038381   -109.67889   -8376.4915    4.4061706    4.4061706    4.4061706   -8376.4915   -29834.491    7537.9015   -2832.8844    3988.8868    1912.8084    5280.4539    85.542889 
   36800    1021.9876   -110.60154   0.92471583   -109.67682    996.97667    4.4042601    4.4042601    4.4042601    996.97667   -11150.254    11567.745    2573.4393    399.30235    5892.6116    -252.5545    85.431664 
   36900    980.58145    -110.5659    0.8872507   -109.67865   -405.09578    4.4074148    4.4074148    4.4074148   -405.09578    7688.6635    3902.5943   -12806.545   -1445.2663   -2908.1256   -6796.2275    85.615377 
   37000    968.43745   -110.55508   0.87626256   -109.67882   -4445.9164    4.4048287    4.4048287    4.4048287   -4445.9164   -1145.8224    7018.9501   -19210.877    6261.3188    3861.4684   -3591.0885     85.46476 
   37100    994.86335   -110.57772   0.90017327   -109.67754    1763.2119    4.4063539    4.4063539    4.4063539    1763.2119    18468.662   -2383.6761   -10795.351   -7042.9225    6667.6102    887.02552    85.553568 
   37200    693.44957   -110.30642   0.62744775   -109.67897     4778.056     4.406226     4.406226     4.406226     4778.056    18344.217   -1436.2743   -2573.7751    24.770499   -3594.4095    2223.6556    85.546117 
   37300    508.20047   -110.13896   0.45983047   -109.67913   -2038.7154    4.4048709    4.4048709    4.4048709   -2038.7154    1017.6942    4184.6645   -11318.505    11716.911    2202.0897   -2718.2712    85.467217 
   37400    651.25641   -110.26566   0.58927049   -109.67639   -6908.9017    4.4082094    4.4082094    4.4082094   -6908.9017   -3832.6697   -4745.9989   -12148.036   -7665.2883    4396.4225   -1055.8784    85.661694 
   37500    580.17465   -110.20301   0.52495422   -109.67806    3463.3823    4.4049195    4.4049195    4.4049195    3463.3823    6729.6046     9035.912   -5375.3698    2001.5517   -2545.9571    1172.0995    85.470042 
   37600    717.47729   -110.32961   0.64918853   -109.68042    4536.4276    4.4045317    4.4045317    4.4045317    4536.4276   -5306.5231    15363.589    3552.2164    10565.264    1628.0713    1607.2777    85.447474 
   37700     1120.389   -110.69046    1.0137516   -109.67671   -704.40353    4.4075031    4.4075031    4.4075031   -704.40353   -17023.237    19052.858   -4142.8313   -3007.1301    2041.1148    1555.4549    85.620523 
   37800    1072.2157   -110.64932   0.97016332   -109.67916   -1135.1537    4.4067282    4.4067282    4.4067282   -1135.1537   -5097.3123    10390.426   -8698.5746    -1061.915    733.47645   -2847.9268    85.575372 
   37900    905.09182   -110.49957    0.8189461   -109.68062    4557.9922    4.4056212    4.4056212    4.4056212    4557.9922    19276.699   -1645.3588   -3957.3638    2581.7483    2013.4359    1322.9318    85.510895 
   38000    1088.0383   -110.65939    0.9844799   -109.67491    1597.4776    4.4046052    4.4046052    4.4046052    1597.4776    16426.849    659.36078   -12293.777    1881.3087   -2231.6833    2975.3616     85.45175 
   38100    643.32388   -110.26243   0.58209296   -109.68034   -9235.3072    4.4085477    4.4085477    4.4085477   -9235.3072    13081.189   -21881.116   -18905.995    3328.4157    505.88319   -406.63551    85.681418 
   38200    381.71584   -110.02688   0.34538451   -109.68149   -524.72107    4.4054677    4.4054677    4.4054677   -524.72107     20922.89   -11577.569   -10919.485    5615.7084     1559.956     2219.793    85.501961 
   38300    795.07616   -110.39458   0.71940162   -109.67518    2316.5167    4.4040985    4.4040985    4.4040985    2316.5167   -15253.837    16943.827    5259.5598    179.44945   -869.06952   -390.96198    85.422261 
   38400    640.32759    -110.2585   0.57938186   -109.67912    -13016.21    4.4102834    4.4102834    4.4102834    -13016.21   -30411.789   -2986.2395   -5650.6012    2907.8154      1323.96    -709.2568    85.782654 
   38500    740.75741    -110.3518   0.67025287   -109.68155     -4242.85    4.4038632    4.4038632    4.4038632     -4242.85   -13446.503    7953.5787   -7235.6257    11713.359   -316.80722    4769.0239    85.408574 
   38600    1219.3023   -110.78023    1.1032504   -109.67698    10125.405    4.4047265    4.4047265    4.4047265    10125.405    9181.5644    21352.523   -157.87389   -4780.8613    1096.1847   -2638.2843    85.458812 
   38700    1123.8356   -110.69643      1.01687   -109.67956   -7359.1786    4.4094106    4.4094106    4.4094106   -7359.1786    2758.7562   -13358.988   -11477.304    992.29488    2293.8743     -2812.41    85.731735 
   38800    706.85469   -110.32149   0.63957697   -109.68191    2806.7178    4.4032725    4.4032725    4.4032725    2806.7178    18531.156   -5325.9951   -4785.0076    10307.293   -1338.6826    1879.9984     85.37421 
   38900    951.93148   -110.53732   0.86132761   -109.67599    933.95131    4.4076342    4.4076342    4.4076342    933.95131    9885.6956    1381.2109   -8465.0525   -7086.9185   -722.93934   -1831.2971    85.628162 
   39000    622.11838    -110.2405   0.56290578    -109.6776   -3869.0272    4.4072134    4.4072134    4.4072134   -3869.0272   -1382.5508   -8431.8671   -1792.6637    7298.5307     1073.935    1184.4391    85.603639 
   39100    325.19845   -109.97574   0.29424639    -109.6815   -3973.5179    4.4043591    4.4043591    4.4043591   -3973.5179   -12764.948   -1006.9999    1851.3946    6371.9846    562.55453    -235.9627    85.437426 
   39200    788.73211    -110.3914   0.71366139   -109.67774   -355.88471    4.4075235    4.4075235    4.4075235   -355.88471   -807.86779    11787.947   -12047.733   -9016.6496   -1604.1057   -1569.4331    85.621715 
   39300    892.29898   -110.48443   0.80737087   -109.67706    7464.3512    4.4039648    4.4039648    4.4039648    7464.3512    6403.5185    24480.684   -8491.1491    7777.7939    2468.3513    4765.0372    85.414483 
   39400    809.74578   -110.41449     0.732675   -109.68182   -7328.4901    4.4077821    4.4077821    4.4077821   -7328.4901   -14348.886    4295.0275   -11931.612    4328.3636     1703.303   -3611.9118    85.636787 
   39500    1071.6746   -110.64698   0.96967366   -109.67731    1614.5877    4.4076337    4.4076337    4.4076337    1614.5877    2081.4109    2862.0713   -99.719045   -3103.7638   -2353.9141   -4363.4796    85.628136 
   39600    1090.9596   -110.66184   0.98712315   -109.67472    4902.2944    4.4046897    4.4046897    4.4046897    4902.2944    11718.332    1030.0463    1958.5044    3254.6496    3897.0416     3883.471    85.456668 
   39700    603.88785   -110.22686   0.54641042   -109.68045    -7356.594    4.4077767    4.4077767    4.4077767    -7356.594    9036.1624   -30924.243   -181.70096   -1784.0125   -749.95442   -3070.8735    85.636472 
   39800    666.48568   -110.28138   0.60305025   -109.67833   -281.18328    4.4046291    4.4046291    4.4046291   -281.18328    11584.611   -21460.741    9032.5807   -1539.9844   -2776.5906   -3348.9368    85.453138 
   39900    756.47454   -110.36042   0.68447406   -109.67594    2135.6673    4.4075453    4.4075453    4.4075453    2135.6673    15657.089    676.77026   -9926.8574    4582.7501    4744.6463   -863.30882     85.62298 
   40000    461.25776   -110.09805   0.41735572    -109.6807   -4725.6683    4.4071204    4.4071204    4.4071204   -4725.6683   -1598.8483    10861.832   -23439.989   -232.26854   -1748.0019   -3731.1122    85.598225 
   40100    751.52304   -110.35867   0.67999384   -109.67868   -3334.4924    4.4042669    4.4042669    4.4042669   -3334.4924   -8607.4415    16799.868   -18195.903   -8132.1013   -2853.1146    4319.3586    85.432065 
   40200    1033.2287   -110.61016   0.93488708   -109.67527    814.31532    4.4104713    4.4104713    4.4104713    814.31532   -8968.3719    16460.615   -5049.2976    2598.9652     6827.468   -798.87764    85.793619 
   40300    776.27316   -110.38233   0.70238827   -109.67994    7487.6495    4.4034543    4.4034543    4.4034543    7487.6495    13485.668    1257.2998    7719.9811    4917.7505   -1458.4598   -9912.3109    85.384785 
   40400    856.06249   -110.45438   0.77458334    -109.6798   -1269.3947    4.4051638    4.4051638    4.4051638   -1269.3947    9757.2274   -17898.948    4333.5369   -8122.9492   -3384.0001    2914.9492    85.484267 
   40500      1007.67   -110.58706   0.91176096    -109.6753   -5813.4522    4.4127485    4.4127485    4.4127485   -5813.4522    4146.4125    -27743.15    6156.3807    525.45904    3066.6833    1000.2417    85.926579 
   40600    678.92663   -110.29284   0.61430708   -109.67853    5651.2601    4.4002579    4.4002579    4.4002579    5651.2601    20566.315   -7568.2851    3955.7502    721.10438   -4317.4993   -7761.7739    85.198978 
   40700    584.76385   -110.20882   0.52910662   -109.67972   -2743.3073    4.4069607    4.4069607    4.4069607   -2743.3073    3709.7562    3664.1533   -15603.831   -6503.2934   -594.54832   -482.42635    85.588919 
   40800     876.5058   -110.46756   0.79308086   -109.67448   -11897.498    4.4129691    4.4129691    4.4129691   -11897.498   -7698.6521    1886.8832   -29880.724    4388.6555    2830.5117   -3809.4267    85.939468 
   40900    581.14576   -110.20325    0.5258329   -109.67742     14232.17    4.3992382    4.3992382    4.3992382     14232.17    13037.995    21719.031    7939.4841   -1905.3403   -5266.9191   -916.78334     85.13976 
   41000    656.44364     -110.274     0.593964   -109.68004   -1498.9086    4.4073727    4.4073727    4.4073727   -1498.9086   -4108.8947    11596.551   -11984.383   -6476.9526   -980.95006    7152.2722    85.612923 
   41100    966.22307   -110.55018   0.87425894   -109.67592   -9071.0828    4.4105109    4.4105109    4.4105109   -9071.0828   -5838.0275   -1620.9304   -19754.291    2581.0695    4056.8624    -6487.541    85.795932 
   41200     843.1531    -110.4403   0.76290264    -109.6774    99.404562    4.4019021    4.4019021    4.4019021    99.404562    8211.0437   -9981.9092    2069.0792   -1420.3148   -3101.0694   -4238.1708    85.294521 
   41300    773.78921   -110.38078   0.70014074   -109.68064    254.69508    4.4078762    4.4078762    4.4078762    254.69508   -5030.4727   -7091.1122     12885.67   -5063.5986   -6289.4794    9163.5212     85.64227 
   41400    1024.1803   -110.60225   0.92669986   -109.67555    2106.4129    4.4069435    4.4069435    4.4069435    2106.4129    3729.5495   -4049.2638    6638.9531    727.23811    2675.1402    1775.2287    85.587915 
   41500    858.93933   -110.45413   0.77718635   -109.67694   -1474.4408     4.405898     4.405898     4.405898   -1474.4408     3999.746   -11157.464     2734.395    -2797.686   -65.245461   -5688.0291    85.527014 
   41600    525.26957   -110.15587   0.47527494   -109.68059    4005.3602      4.40626      4.40626      4.40626    4005.3602   -717.89329    6451.8624    6282.1115   -5380.4864   -3181.0833    3607.4654    85.548098 
   41700    836.18186   -110.43241   0.75659492   -109.67582    817.13724    4.4036005    4.4036005    4.4036005    817.13724    5192.4772     23090.31   -25831.376    2350.8568    2297.4104    6188.1989    85.393287 
   41800    637.69198   -110.25586   0.57699711   -109.67887   -8710.2554    4.4090038    4.4090038    4.4090038   -8710.2554   -2242.6518    15388.364   -39276.478   -1922.2374   -2536.5305   -3062.9712    85.708013 
   41900     594.0242   -110.21886   0.53748558   -109.68137   -2522.3181    4.4051304    4.4051304    4.4051304   -2522.3181   -8819.5401    14234.841   -12982.255   -5456.1286   -123.16938    6239.5543    85.482321 
   42000    909.46772   -110.50078    0.8229055   -109.67788    15289.739    4.4049398    4.4049398    4.4049398    15289.739   -320.23153    12962.477    33226.971    3697.0681    3384.2667    3326.3612    85.471229 
   42100    1113.9158   -110.68412    1.0078944   -109.67622   -40.575394     4.408655     4.408655     4.408655   -40.575394   -8358.3038   -4140.0843    12376.662   -3039.7456    -2136.639    -2458.758    85.687674 
   42200    792.39721    -110.3977   0.71697765   -109.68072    3199.4704    4.4043733    4.4043733    4.4043733    3199.4704   -10183.703   -10826.121    30608.234   -2260.7561   -1768.8511    9185.2377    85.438252 
   42300    998.81173   -110.58194   0.90374584    -109.6782    1291.9496    4.4054973    4.4054973    4.4054973    1291.9496   -4101.7013   -9489.6219    17467.172    7267.3971    465.08316   -2676.4527     85.50368 
   42400    893.78566   -110.48529   0.80871605   -109.67658   -1928.3488    4.4065223    4.4065223    4.4065223   -1928.3488    2751.6824    17658.955   -26195.684   -4853.4665   -577.53216    422.74253    85.563375 
   42500     430.9591   -110.07069   0.38994085   -109.68075   -13882.159    4.4086779    4.4086779    4.4086779   -13882.159   -6206.3995    3333.5728    -38773.65   -3026.7936   -1475.1288    10562.279     85.68901 
   42600    573.67881   -110.19737   0.51907664    -109.6783    5541.4881    4.4039758    4.4039758    4.4039758    5541.4881    3464.5345    12879.163    280.76683    7691.2235    2219.2194     -8103.34    85.415122 
   42700    814.69207   -110.41284   0.73715051   -109.67569    10745.991    4.4044741    4.4044741    4.4044741    10745.991    5479.1107    19843.178     6915.683   -670.39304   -639.29865    2687.3486    85.444118 
   42800    705.22083    -110.3192   0.63809863    -109.6811   -15008.084    4.4116202    4.4116202    4.4116202   -15008.084   -21203.405   -18071.348    -5749.499   -493.22737   -997.96799    11278.255    85.860685 
   42900    926.16699   -110.51733   0.83801536   -109.67931    587.87363    4.4017712    4.4017712    4.4017712    587.87363   -11060.048   -8928.9268    21752.596    4532.1443    5205.8317   -3297.1901    85.286911 
   43000    1312.7825   -110.86396    1.1878331   -109.67613    1492.6932    4.4062594    4.4062594    4.4062594    1492.6932   -7463.7719   -3995.1109    15936.963    549.52939    -1598.176   -97.248642    85.548062 
   43100    820.12415    -110.4243   0.74206556   -109.68223   -7431.9333    4.4109225    4.4109225    4.4109225   -7431.9333   -14442.765   -12852.546     4999.511    1632.1179   -670.17551     6725.884    85.819954 
   43200     777.3073   -110.38188   0.70332398   -109.67855    3529.4034    4.4004679    4.4004679    4.4004679    3529.4034    1430.7198     12195.53   -3038.0394    4710.7528    2316.7729     4360.666    85.211177 
   43300    743.29123   -110.34955   0.67254553   -109.67701    7962.6465    4.4103683    4.4103683    4.4103683    7962.6465    8939.4009      13710.1    1238.4382   -448.84987   -1135.7835   -2522.6156    85.787609 
   43400       481.34   -110.11521   0.43552655   -109.67968   -3455.5355    4.4074119    4.4074119    4.4074119   -3455.5355    0.3436303    9388.0409   -19754.991    291.86235    2897.3184    1853.4316     85.61521 
   43500    412.25225    -110.0531    0.3730145   -109.68008   -2815.9808    4.4005738    4.4005738    4.4005738   -2815.9808   -55.850301    23726.565   -32118.657    5808.3658     1309.276   -1695.8476     85.21733 
   43600     931.8288   -110.52071   0.84313828   -109.67757   -7916.0192    4.4119978    4.4119978    4.4119978   -7916.0192   -10537.544    2512.3906   -15722.904    1029.5151   -1690.3988   -6655.8365    85.882734 
   43700    961.63908   -110.54837   0.87011125   -109.67826    9165.4022     4.404419     4.404419     4.404419    9165.4022     -13119.6    10300.213    30315.594    321.86402    3941.1553    7463.3174    85.440913 
   43800    886.08345   -110.48229   0.80174692   -109.68054    4706.0339    4.4041343    4.4041343    4.4041343    4706.0339   -17071.333    8436.7446     22752.69    3381.8627    2537.8221   -2664.3108    85.424347 
   43900    1151.4543   -110.71786    1.0418601     -109.676    120.89539    4.4107926    4.4107926    4.4107926    120.89539   -13293.486   -4212.2096    17868.381   -367.70113   -3863.0615   -6718.8155    85.812373 
   44000    931.07333   -110.51906   0.84245472    -109.6766    8916.4822    4.4030638    4.4030638    4.4030638    8916.4822   -1378.4808    12604.814    15523.113    1992.2369   -2131.0872    8491.6101    85.362067 
   44100    485.90943   -110.12121   0.43966107   -109.68155   -9454.0134    4.4059159    4.4059159    4.4059159   -9454.0134    1412.0071    -235.4836   -29538.564    2205.8755    892.35454   -4362.9012    85.528055 
   44200    635.00121   -110.25323   0.57456244   -109.67867   -9538.2783     4.408364     4.408364     4.408364   -9538.2783    8952.8647    6642.3935   -44210.093   -1889.2057   -565.98129   -1141.3044    85.670705 
   44300    729.72013   -110.33667   0.66026611    -109.6764    1199.6795    4.4057494    4.4057494    4.4057494    1199.6795      654.657     13414.53   -10470.149    424.86277   -132.68475    3509.4815    85.518363 
   44400    437.69157     -110.078   0.39603253   -109.68196    2693.8891    4.4052568    4.4052568    4.4052568    2693.8891   -10011.728     2476.312    15617.083    1909.8723   -1756.2031   -9271.6345    85.489679 
   44500    917.16086   -110.50904   0.82986642   -109.67918   -4088.6488    4.4063617    4.4063617    4.4063617   -4088.6488   -18614.981    2113.9752    4235.0592    1324.8004   -1194.6678   -1513.0075    85.554024 
   44600     1114.303   -110.68455    1.0082448    -109.6763   -1450.2581    4.4084878    4.4084878    4.4084878   -1450.2581   -28436.138    2872.2265    21213.138   -896.85115     4937.269    3176.2074    85.677924 
   44700    761.84432   -110.37166   0.68933275   -109.68232    1748.8912    4.4030713    4.4030713    4.4030713    1748.8912   -15374.933    3523.1936    17098.413   -447.93133   -1382.4079   -8106.3911    85.362506 
   44800    906.75265   -110.49987   0.82044886   -109.67942   -3997.8764    4.4070706    4.4070706    4.4070706   -3997.8764   -2871.8896    1876.1665   -10997.906    745.07113   -6392.8515   -7687.9547    85.595318 
   44900    1024.5976   -110.60177   0.92707746   -109.67469   -5164.0983    4.4102147    4.4102147    4.4102147   -5164.0983   -1173.3493    6052.0041    -20370.95    969.80711    1595.3662    1616.4545    85.778647 
   45000    558.21212   -110.18584   0.50508206   -109.68076    8931.3922     4.400152     4.400152     4.400152    8931.3922    12274.235    12481.721    2038.2207    104.74574    1965.9391   -4589.5242    85.192829 
   45100    630.25435    -110.2513   0.57026738   -109.68103   -964.12312    4.4078852    4.4078852    4.4078852   -964.12312    795.77844    14287.603   -17975.751   -981.59579   -1093.2973   -5208.1289    85.642792 
   45200    943.86308   -110.52934   0.85402715   -109.67531   -8876.7427     4.409683     4.409683     4.409683   -8876.7427   -17659.585    7330.0155   -16300.659    444.28646     -891.541    3186.2773    85.747624 
   45300    579.08626    -110.2037   0.52396942   -109.67973    4017.1418     4.401207     4.401207     4.401207    4017.1418    -18785.37    23535.663    7301.1332     2211.151   -2041.1927   -10857.545    85.254119 
   45400    741.57759   -110.35083   0.67099499   -109.67983   -7191.8255     4.409798     4.409798     4.409798   -7191.8255   -28843.776   -4854.1758    12122.476    1808.2295    1049.6795   -6590.7109    85.754337 
   45500    1031.6355   -110.60849   0.93344549   -109.67505   -464.77101     4.405636     4.405636     4.405636   -464.77101   -16701.454   -1613.4316    16920.572    478.58631    2381.4578    5749.4679    85.511759 
   45600    834.70082   -110.43493   0.75525484   -109.67967   -2700.9792     4.404647     4.404647     4.404647   -2700.9792   -7758.5307   -3507.3256    3162.9188   -827.01822    -4745.635   -9264.2433    85.454183 
   45700    772.27798   -110.37864   0.69877334   -109.67987    -937.9747    4.4097344    4.4097344    4.4097344    -937.9747   -945.47261    745.52904   -2613.9805     1048.224    -3506.037   -4933.5081    85.750627 
   45800    1090.9179   -110.66093   0.98708547   -109.67384    5622.8126    4.4019306    4.4019306    4.4019306    5622.8126    11956.328    17917.175   -13005.066    1181.0056     1787.202    3774.2527    85.296179 
   45900    814.26107   -110.41622   0.73676053   -109.67946   -9074.7393    4.4086432    4.4086432    4.4086432   -9074.7393   -3277.5793    9499.2804   -33445.919     1463.152   -485.20428   -7141.9237    85.686983 
   46000    637.40543   -110.25702   0.57673783   -109.68028   -4074.3426    4.4076372    4.4076372    4.4076372   -4074.3426   -12493.743    9322.3068   -9051.5915    -1156.294   -1930.3278    439.92099     85.62834 
   46100    830.50931   -110.42714   0.75146228   -109.67568    3767.2643    4.4025135    4.4025135    4.4025135    3767.2643   -14661.995    11026.393    14937.395   -1933.9972   -1318.6312    4903.2536    85.330068 
   46200    687.30052   -110.29936   0.62188396   -109.67747    -11541.98     4.410873     4.410873     4.410873    -11541.98   -30200.874    -6524.828    2099.7629    3904.5889   -2262.8312   -10976.024    85.817064 
   46300    585.30731   -110.20774   0.52959835   -109.67814    350.12403    4.4051484    4.4051484    4.4051484    350.12403   -18609.348    593.85598    19065.864    1660.0336    1353.7202    -101.6587    85.483369 
   46400    835.12521   -110.43188   0.75563884   -109.67624    9517.0903    4.4043127    4.4043127    4.4043127    9517.0903   -3119.3071    21321.223    10349.355   -459.44046   -500.92352    8956.6553    85.434728 
   46500    1005.3362   -110.58628   0.90964929   -109.67663   -7514.3635    4.4089681    4.4089681    4.4089681   -7514.3635   -3417.6495   -1417.3196   -17708.121    1295.8383   -5306.8632    -7649.987    85.705931 
   46600    788.69896   -110.39319   0.71363139   -109.67956   -1340.6509    4.4058478    4.4058478    4.4058478   -1340.6509    7029.5085    1686.7328   -12738.194    1051.0618    1051.5281   -3.7652111    85.524094 
   46700    1013.8725   -110.59414   0.91737315   -109.67677   -1424.3432    4.4067976    4.4067976    4.4067976   -1424.3432    4171.7855    6620.7137   -15065.529   -1038.4673    357.71883    9008.6226    85.579417 
   46800    935.76464   -110.52239   0.84669951    -109.6757    5068.5676    4.4053382    4.4053382    4.4053382    5068.5676    -6172.562    23632.531   -2254.2657    1900.1542   -4735.1717   -1598.6224     85.49442 
   46900     711.0598   -110.32218   0.64338185    -109.6788   -4665.3996    4.4069666    4.4069666    4.4069666   -4665.3996   -15263.501   -2385.1744    3652.4762   -720.80328    2502.0776     6390.538    85.589261 
   47000    591.02307   -110.21396   0.53477009   -109.67919    2884.3768    4.4067787    4.4067787    4.4067787    2884.3768    -14358.67    17265.719    5746.0814   -5692.4806   -2475.2056    4196.2217    85.578316 
   47100    819.79582   -110.41695   0.74176849   -109.67518   -391.06961    4.4043263    4.4043263    4.4043263   -391.06961   -21678.069    8592.6167    11912.243    3750.3668   -6969.0192   -3244.9035    85.435518 
   47200    598.44492   -110.21961   0.54148554   -109.67812   -9954.0574    4.4088206    4.4088206    4.4088206   -9954.0574   -15349.411   -26337.963    11825.202    810.49541    2932.0139    5552.5308    85.697328 
   47300    723.84842   -110.33316   0.65495326   -109.67821   -6509.9257     4.406414     4.406414     4.406414   -6509.9257    5599.0734   -16391.616   -8737.2349   -4441.1575   -4029.8298    7864.3412    85.557069 
   47400    964.44543   -110.54867   0.87265049   -109.67602    11517.978    4.4038546    4.4038546    4.4038546    11517.978    11465.155    20467.489     2621.289    2040.1428   -6043.3292   -1803.7918    85.408073 
   47500    904.53939   -110.49655   0.81844625    -109.6781    3850.1323    4.4075969    4.4075969    4.4075969    3850.1323    7200.1049    7262.6292   -2912.3373   -3128.1355     3226.261     -929.632    85.625992 
   47600    777.77479   -110.38376   0.70374697   -109.68002   -1004.0487    4.4075567    4.4075567    4.4075567   -1004.0487    5900.2397    14745.752   -23658.137   -2550.3296   -6183.0239     9809.113    85.623646 
   47700    1010.8707   -110.59067   0.91465704   -109.67601   -44.114038    4.4057654    4.4057654    4.4057654   -44.114038   -13919.081    22274.715   -8487.9767   -2184.3803   -4942.6284   -577.72658    85.519291 
   47800    900.15616   -110.49111   0.81448021   -109.67663    1277.4824    4.4042333    4.4042333    4.4042333    1277.4824   -17563.111    10685.682    10709.876   -3997.7911    5246.5107    438.19074    85.430109 
   47900    665.56307   -110.28303   0.60221545   -109.68081   -5888.3037       4.4094       4.4094       4.4094   -5888.3037   -20536.023    1241.8962    1629.2158   -2148.4768   -8110.2151    6108.7476    85.731118 
   48000    833.05232   -110.43057   0.75376324    -109.6768     6168.816     4.405296     4.405296     4.405296     6168.816    -5799.305    10150.602    14155.151    -5048.594   -9063.8048    -5010.041    85.491963 
   48100    759.40959   -110.36362   0.68712976   -109.67649    14436.198    4.4028907    4.4028907    4.4028907    14436.198    8728.2213    14928.146    19652.226    1731.3757     3820.969    9252.0053    85.352001 
   48200    488.04951   -110.12234   0.44159745   -109.68075     -13266.2    4.4123251    4.4123251    4.4123251     -13266.2   -3669.6466   -18263.551   -17865.403   -1060.3173   -8858.2861    4456.6166    85.901846 
   48300     665.8339   -110.27919   0.60246051   -109.67673   -3592.6075    4.4031185    4.4031185    4.4031185   -3592.6075    9855.5664   -6836.4295   -13796.959    181.81059   -7097.9816   -6327.1215    85.365252 
   48400    830.15129   -110.42778   0.75113833   -109.67664    5247.3131    4.4031208    4.4031208    4.4031208    5247.3131    12075.515    15418.943   -11752.519   -2041.6877    2787.4925    8385.4752    85.365386 
   48500    601.16004   -110.22544   0.54394224    -109.6815   -3988.3578    4.4130402    4.4130402    4.4130402   -3988.3578   -10879.608    19601.129   -20686.594   -5430.6354   -14533.519    1737.6015    85.943622 
   48600    1067.4117    -110.6431   0.96581651   -109.67728    3802.8399     4.401676     4.401676     4.401676    3802.8399   -3076.6094     16432.87   -1947.7407    6437.0459   -3565.9146   -4156.7353    85.281378 
   48700    1163.2355   -110.73105    1.0525199   -109.67853    5167.3549    4.4056085    4.4056085    4.4056085    5167.3549   -1836.0736    17500.288   -162.14939   -2676.4414    4393.3762         3394    85.510157 
   48800    939.64309   -110.53241   0.85020881    -109.6822   -11208.728    4.4102966    4.4102966    4.4102966   -11208.728   -22616.351   -4106.3899    -6903.442   -5115.4665   -17029.814    3518.3745    85.783424 
   48900    1000.7753   -110.58297   0.90552252   -109.67745    1606.0146    4.3996901    4.3996901    4.3996901    1606.0146   -3948.3737   -4159.5487    12925.966    -734.4396   -4903.1501   -5778.5963    85.166001 
   49000    927.52527   -110.51767   0.83924436   -109.67842   -6339.7344    4.4110738    4.4110738    4.4110738   -6339.7344   -7076.7729    -6617.347   -5325.0834    639.81383   -222.83404    264.24392    85.828789 
   49100    327.79672     -109.978   0.29659736    -109.6814    2502.6029    4.4066732    4.4066732    4.4066732    2502.6029    8662.3149    13269.924    -14424.43    2217.7059   -13087.361    3174.3039     85.57217 
   49200    498.01434   -110.12673   0.45061384   -109.67612    1478.1899    4.3989961    4.3989961    4.3989961    1478.1899    20969.137   -6241.6845   -10292.883   -5357.2752    340.48825   -6582.9097    85.125705 
   49300    487.79752   -110.11884   0.44136945   -109.67747   -19499.522    4.4149313    4.4149313    4.4149313   -19499.522    -252.3628   -22997.203       -35249    1792.7837   -4357.6047    6385.6721    86.054155 
   49400    541.10374    -110.1692   0.48960203    -109.6796   -3826.5847    4.4021903    4.4021903    4.4021903   -3826.5847    7008.7443    3141.0136   -21629.512     -155.331   -12263.217   -4668.6855    85.311276 
   49500    881.93576   -110.47754   0.79799401   -109.67955    12212.071    4.4006986    4.4006986    4.4006986    12212.071    8604.4176    20938.392    7093.4048    1696.7957     2898.004   -9236.2768    85.224581 
   49600    1296.9361   -110.85021    1.1734951   -109.67671   -13270.045    4.4155104    4.4155104    4.4155104   -13270.045    -23379.87   -5055.3147   -11374.951    4726.7036   -2613.9654    10940.536    86.088026 
   49700    1131.6665   -110.70257    1.0239556   -109.67861    9304.3387    4.3986292    4.3986292    4.3986292    9304.3387     2353.467    21703.408     3856.141   -6783.4557   -11070.114   -4881.2654    85.104411 
   49800    1147.2788   -110.71831    1.0380819   -109.68023    1015.0815     4.404731     4.404731     4.404731    1015.0815   -3201.5179    2480.2541    3766.5084    4825.5013   -189.65024   -7919.1194    85.459069 
   49900    958.58549   -110.54552   0.86734829   -109.67817   -14620.414    4.4135634    4.4135634    4.4135634   -14620.414   -15394.471     -6428.18   -22038.593    6315.2137    -2607.004    1578.5962    85.974195 
   50000    547.95427   -110.17314   0.49580054   -109.67734    3603.0404     4.397913     4.397913     4.397913    3603.0404    17801.311    5051.1398    -12043.33   -1817.8068   -6149.5464   -4235.3995    85.062844 
   50100    286.67817    -109.9401   0.25939243   -109.68071    4898.7425    4.4082679    4.4082679    4.4082679    4898.7425     7261.799    8245.9849   -811.55656    2481.7112    425.21959   -816.31631    85.665101 
   50200    516.13952   -110.14407   0.46701389   -109.67706   -5222.0148    4.4086943    4.4086943    4.4086943   -5222.0148    14.926836    4796.7188    -20477.69     232.2605   -3403.4211   -690.04909    85.689962 
   50300    474.97546   -110.10761   0.42976778   -109.67784   -3748.4681    4.3986353    4.3986353    4.3986353   -3748.4681    18798.361   -9863.3633   -20180.402   -414.25169   -3978.0868   -7384.4631     85.10476 
   50400    738.92881   -110.35083   0.66859831   -109.68223   -12543.419    4.4118257    4.4118257    4.4118257   -12543.419   -11929.038   -23345.693   -2355.5268    1134.1577   -121.67091   -4129.8807    85.872685 
   50500    1204.7803   -110.76745    1.0901106   -109.67734    6471.2999    4.4052567    4.4052567    4.4052567    6471.2999   -13029.375    18409.517    14033.757    1080.8441   -1488.1172    3403.5148    85.489676 
   50600     1238.296   -110.79745    1.1204363   -109.67702    6720.2207    4.3997029    4.3997029    4.3997029    6720.2207    1335.2104    16324.059    2501.3926   -3322.6932    -1386.928   -7104.9336    85.166748 
   50700    1058.3743   -110.63884   0.95763928    -109.6812   -3369.2382    4.4120308    4.4120308    4.4120308   -3369.2382   -22026.797    322.12619    11596.957    1580.1414   -1101.4612   -6332.0275    85.884659 
   50800    1051.6055   -110.62813   0.95151475   -109.67661    5436.0877    4.4028757    4.4028757    4.4028757    5436.0877   -7063.5366    20974.277    2397.5228     6270.961    716.89256     6672.205    85.351131 
   50900    686.91803   -110.29908   0.62153787   -109.67754   -5853.5535    4.4023112    4.4023112    4.4023112   -5853.5535    9372.5765   -2946.1726   -23987.064   -2373.1969    1771.2375   -5431.6255    85.318308 
   51000    370.29963   -110.01466   0.33505489    -109.6796   -19218.923    4.4122305    4.4122305    4.4122305   -19218.923   -8997.6436    -30442.53   -18216.595    2804.8134   -1803.8861   -3153.0947    85.896324 
   51100    416.72345   -110.05374   0.37706013   -109.67668    8768.7494    4.4014079    4.4014079    4.4014079    8768.7494    9441.5334    8601.6029    8263.1119     1410.845    3567.2223    7969.2958    85.265797 
   51200    527.19916    -110.1544   0.47702088   -109.67738    8227.3751    4.4028276    4.4028276    4.4028276    8227.3751    12740.848    10621.459    1319.8183   -238.26731    3571.9774   -7295.8363     85.34833 
   51300    674.90557    -110.2904   0.61066874   -109.67973   -15501.989     4.411115     4.411115     4.411115   -15501.989    -16711.34   -24574.899   -5219.7298    4094.6163   -3322.5863    -1685.902    85.831189 
   51400    990.57897   -110.57476   0.89629666   -109.67847   -3446.0796    4.4029697    4.4029697    4.4029697   -3446.0796   -9278.1532    1408.6612   -2468.7468   -747.16691    7387.6306    1317.3764    85.356595 
   51500    1276.6729    -110.8324    1.1551605   -109.67724    2358.4164    4.4037666    4.4037666    4.4037666    2358.4164    -9871.343     14855.17    2091.4218   -393.46696    4597.8508   -7377.1846     85.40295 
   51600    1159.9515   -110.72886    1.0495485   -109.67931   -3875.2138    4.4075925    4.4075925    4.4075925   -3875.2138    -22732.63     3611.189    7495.8001    626.67065   -4240.8675    6446.4898    85.625735 
   51700    1017.3759   -110.60021   0.92054313   -109.67967    579.72603    4.4056402    4.4056402    4.4056402    579.72603   -12574.911    15624.335   -1310.2461    4104.7743    10662.345    762.27917    85.512005 
   51800    813.42728   -110.41434    0.7360061   -109.67833    7378.7905    4.4050759    4.4050759    4.4050759    7378.7905    -1824.218    18150.573    5810.0165    180.97774    1985.4756   -7949.5136     85.47915 
   51900     495.1722   -110.12672   0.44804221   -109.67868   -11168.563    4.4060362    4.4060362    4.4060362   -11168.563   -5608.2562   -19159.739   -8737.6921   -951.35818   -3651.4992     3633.932    85.535065 
   52000    234.69543   -109.89211   0.21235735   -109.67975   -15067.271    4.4061832    4.4061832    4.4061832   -15067.271    1351.3199   -18064.406   -28488.726    596.40501    13523.734    6861.2077    85.543626 
   52100    507.35044   -110.13712   0.45906134   -109.67806   -835.99976    4.4048973    4.4048973    4.4048973   -835.99976    1740.3837   -2377.2883   -1871.0946   -1236.0359   -1362.1414   -541.84543    85.468753 
   52200     609.9788   -110.23044   0.55192163   -109.67852    9790.6645    4.4056451    4.4056451    4.4056451    9790.6645   -3560.0772    13194.301     19737.77    4151.1436    -2872.284   -5916.5329    85.512286 
   52300    901.42783   -110.49604   0.81563085   -109.68041   -2766.1449    4.4054401    4.4054401    4.4054401   -2766.1449   -11443.971    9799.1836   -6653.6477    -938.4893    14306.562     5646.023     85.50035 
   52400    1165.6944   -110.73443    1.0547448   -109.67968    310.67287    4.4071975    4.4071975    4.4071975    310.67287   -18774.527    10528.835    9177.7101   -1126.6004   -5063.7186   -927.82314    85.602713 
   52500    1308.3961   -110.86098    1.1838643   -109.67712    1608.0378    4.4050624    4.4050624    4.4050624    1608.0378    -16358.74    16792.254    4390.5999    963.91094   -2201.5424   -5678.7562    85.478365 
   52600    987.27541   -110.57285   0.89330754   -109.67955    2885.2728    4.4041627    4.4041627    4.4041627    2885.2728    -12448.63    21601.563   -497.11457    1946.8427    15286.214    3708.9501    85.425999 
   52700    896.39592   -110.48906   0.81107786   -109.67798   -6322.2955     4.408981     4.408981     4.408981   -6322.2955    -14666.33   -1239.7934   -3060.7627    3635.2441   -8273.4802   -4104.2378    85.706684 
   52800    532.64864   -110.15918   0.48195168   -109.67722    16649.739    4.4028581    4.4028581    4.4028581    16649.739    7101.3119    23630.293    19217.614   -1573.1558   -1817.1261   -1421.6902    85.350106 
   52900    370.09956    -110.0136   0.33487386   -109.67873   -3080.8272    4.4050223    4.4050223    4.4050223   -3080.8272    1208.8527   -2489.1508   -7962.1833    1611.0353     13711.25    6429.6837     85.47603 
   53000    357.88753   -110.00242   0.32382415    -109.6786   -16912.079    4.4098112    4.4098112    4.4098112   -16912.079    -3120.201   -25798.613   -21817.424    930.30463   -10670.127   -1387.7037    85.755108 
   53100     655.4886   -110.27007   0.59309986   -109.67697   -234.02747    4.4029358    4.4029358    4.4029358   -234.02747    4979.2662    113.99584   -5795.3445     1672.157    1205.7153    913.02392    85.354627 
   53200    814.99246   -110.41633    0.7374223   -109.67891    8839.4351    4.4055989    4.4055989    4.4055989    8839.4351   -7838.0589    20283.247    14073.117    1047.7611    10252.349    1234.6946      85.5096 
   53300    1161.4563   -110.72907    1.0509101   -109.67816   -1475.1901    4.4075248    4.4075248    4.4075248   -1475.1901   -16678.964     11291.69    961.70386   -3959.6129   -13383.182   -2217.2018    85.621789 
   53400    1203.5745   -110.76688    1.0890195   -109.67786    5690.1153    4.4057041    4.4057041    4.4057041    5690.1153   -13386.569     22821.58    7635.3356    103.61815    3743.8672      912.709    85.515723 
   53500    1170.5719   -110.73634     1.059158   -109.67718   -1171.0953     4.406637     4.406637     4.406637   -1171.0953   -20057.276    17755.054    -1211.064   -472.80665    8896.4908    5573.8327    85.570056 
   53600    846.58052    -110.4442   0.76600385    -109.6782   -2376.9999    4.4040066    4.4040066    4.4040066   -2376.9999   -5670.7486    4099.1826   -5559.4336    1233.2832   -11885.703   -1845.7231    85.416916 
   53700    668.68918   -110.28387   0.60504402   -109.67883   -8387.1532    4.4079134    4.4079134    4.4079134   -8387.1532   -3331.4076   -8711.5144   -13118.538   -756.93713    2924.9115   -7755.3804    85.644437 
   53800    459.31138   -110.09291   0.41559459   -109.67732    8533.7506    4.4066316    4.4066316    4.4066316    8533.7506    2785.3267    7413.1854     15402.74   -1360.1756    4087.5078    8261.5086    85.569746 
   53900    419.67338     -110.057   0.37972929   -109.67727    5775.2123     4.404148     4.404148     4.404148    5775.2123    9677.3393   -5777.2699    13425.567    2047.1869   -10014.547    381.01005    85.425145 
   54000    586.39861   -110.20825   0.53058579   -109.67766   -12623.587    4.4091494    4.4091494    4.4091494   -12623.587   -1312.1883   -23899.539   -12659.033   -483.94935    3846.6729   -6508.6914    85.716501 
   54100    902.11911   -110.49247   0.81625633   -109.67621   -3403.0453    4.4053775    4.4053775    4.4053775   -3403.0453   -6960.5905   -2872.4812   -376.06424    2245.4842    753.89979    6115.5229    85.496707 
   54200    1000.0755   -110.58309    0.9048893    -109.6782     6194.216    4.4044693    4.4044693    4.4044693     6194.216   -9280.2002    15577.788    12285.061   -1648.4233   -9480.4117   -6373.2916    85.443841 
   54300    1144.8477    -110.7141    1.0358823   -109.67822   -2288.2902    4.4082929    4.4082929    4.4082929   -2288.2902   -18782.165     7140.223    4777.0719   -1531.0096    2606.9396    -2944.088    85.666561 
   54400    1132.4976   -110.70183    1.0247076   -109.67712    5268.9947    4.4052817    4.4052817    4.4052817    5268.9947   -12955.985     21467.17    7295.7992    418.25186   -273.64424     9353.548    85.491132 
   54500    893.51524   -110.48657   0.80847136    -109.6781    4805.5437    4.4051601    4.4051601    4.4051601    4805.5437   -3914.2276    9518.3706    8812.4881    42.417873   -5202.3408   -9150.8813    85.484048 
   54600    652.59161   -110.26828    0.5904786    -109.6778   -7887.7446    4.4074427    4.4074427    4.4074427   -7887.7446   -474.24825   -10532.452   -12656.533    1404.5917    2859.2371    -5800.449    85.617006 
   54700     566.5651   -110.18898   0.51264001   -109.67634   -8556.0146    4.4073867    4.4073867    4.4073867   -8556.0146    8758.2295    -15525.51   -18900.763   -346.92072   -3575.8508    9126.9595    85.613738 
   54800    538.83706   -110.16401    0.4875511   -109.67646    6477.0995    4.4045276    4.4045276    4.4045276    6477.0995    13599.919    13337.503   -7506.1233    793.46407   -4930.5021   -6666.9579    85.447231 
   54900    598.43278   -110.21902   0.54147455   -109.67754    7113.6386    4.4047528    4.4047528    4.4047528    7113.6386     3763.745    6151.8987    11425.272     -2351.67    3499.4554    -2510.767    85.460341 
   55000     792.1959   -110.39602    0.7167955   -109.67922   -6102.8728    4.4070438    4.4070438    4.4070438   -6102.8728   -4901.9506   -9260.6672   -4146.0005    1854.3361   -2497.9954     11491.58    85.593758 
   55100    1075.5271   -110.65039   0.97315952   -109.67723    376.03295    4.4055499    4.4055499    4.4055499    376.03295   -12029.918    15841.863   -2683.8468    290.54064   -4248.1235    -6171.708    85.506744 
   55200    1039.2447   -110.61765   0.94033041   -109.67732   -2143.1973      4.40706      4.40706      4.40706   -2143.1973   -19785.614    12709.847    646.17527   -5327.1353    540.39683   -616.34004    85.594703 
   55300    915.96622    -110.5079   0.82878548   -109.67911   -2535.4198    4.4032422    4.4032422    4.4032422   -2535.4198    -4927.094    2551.8855   -5231.0507   -604.41001   -975.02735    14881.361    85.372446 
   55400    999.34448   -110.58169   0.90422788   -109.67746    3754.8443    4.4060794    4.4060794    4.4060794    3754.8443    -1157.967    22432.267   -10009.767    579.27302    860.39126   -3102.9515    85.537582 
   55500    612.43348   -110.23369   0.55414269   -109.67955   -1204.0378    4.4081761    4.4081761    4.4081761   -1204.0378    3440.7768   -2882.7447   -4170.1455    1904.7553   -92.501559    1380.5052    85.659748 
   55600    396.03732   -110.03794   0.35834289    -109.6796   -1120.8125    4.4004005    4.4004005    4.4004005   -1120.8125    20559.545   -24258.047    336.06451    -696.7782   -3607.1755    13856.371    85.207266 
   55700    768.40224    -110.3706    0.6952665   -109.67533   -12767.735    4.4104374    4.4104374    4.4104374   -12767.735      1380.71   -21272.514   -18411.401   -519.18343    518.66487   -963.50677    85.791643 
   55800    680.53099   -110.29369   0.61575874   -109.67793   -4186.3045     4.406449     4.406449     4.406449   -4186.3045   -3161.4173    3900.9954   -13298.492    1268.1476    778.85432    6118.7044    85.559106 
   55900    786.32847   -110.39154   0.71148653   -109.68005    10460.307    4.3987049    4.3987049    4.3987049    10460.307    1837.2174    32557.517   -3013.8117    2618.6082   -1212.8815     13697.48    85.108804 
   56000    1360.5768    -110.9067    1.2310785   -109.67563   -4848.5518    4.4130998    4.4130998    4.4130998   -4848.5518   -21872.313    14341.636   -7014.9786    1932.7048    526.47732    -1720.541    85.947102 
   56100    1025.6524   -110.60722   0.92803185   -109.67919    7147.7073    4.4034776    4.4034776    4.4034776    7147.7073   -9366.3357    29338.094    1471.3631   -5156.6779    -875.5447    9616.9504    85.386139 
   56200       845.49   -110.44496   0.76501712   -109.67994   -483.17438    4.4012324    4.4012324    4.4012324   -483.17438   -1373.8684    1039.9762   -1115.6309    1092.5291   -829.89664    10967.899      85.2556 
   56300    846.84413    -110.4426   0.76624237   -109.67635   -8436.0172    4.4112209    4.4112209    4.4112209   -8436.0172   -3822.1584   -17639.771    -3846.122   -140.74365    3417.3398   -5962.0282    85.837372 
   56400    468.59232   -110.10227   0.42399218   -109.67827    3476.1451    4.4033598    4.4033598    4.4033598    3476.1451    13467.115   -2051.7328    -986.9463   -1878.8638   -1493.3289    12485.115    85.379285 
   56500    268.81547   -109.92302   0.24322988   -109.67979      4818.52    4.4056883    4.4056883    4.4056883      4818.52    13836.371    13918.905   -13299.716    3111.9353   -979.47764    3938.8087    85.514806 
   56600    801.62361   -110.40019   0.72532589   -109.67486   -6475.0932    4.4068494    4.4068494    4.4068494   -6475.0932    2895.0345   -8311.2582   -14009.056   -2808.5567    2778.6571    -9827.826    85.582435 
   56700    809.90082   -110.41082   0.73281529   -109.67801   -1499.0596    4.4051658    4.4051658    4.4051658   -1499.0596     156.5446   -6050.4303    1396.7069     1983.374   -2133.4974    14244.366    85.484382 
   56800    1078.7196   -110.65555   0.97604818    -109.6795   -4872.9789    4.4068679    4.4068679    4.4068679   -4872.9789    -11573.77    2767.8805   -5813.0476    3176.3519     443.1157    1955.2159    85.583508 
   56900    1270.1563   -110.82593    1.1492641   -109.67667    5621.8183    4.4028009    4.4028009    4.4028009    5621.8183   -6379.7026     19104.41    4140.7475   -48.940178    3279.0115   -10923.056     85.34678 
   57000    1119.6194   -110.69195    1.0130551   -109.67889   -4510.9272    4.4100743    4.4100743    4.4100743   -4510.9272   -11264.508   -7913.2582    5644.9848    1707.0629   -2959.4528    10123.216    85.770459 
   57100    721.82078   -110.33085   0.65311861   -109.67773    6535.4035     4.405764     4.405764     4.405764    6535.4035     4434.673    14435.067    736.47048   -624.15189   -1706.5279   -173.65079    85.519213 
   57200    589.90304   -110.20861   0.53375667   -109.67486    3128.6997    4.4006797    4.4006797    4.4006797    3128.6997    14110.389   -4523.6489     -200.641    3739.1105    3841.1775    -6647.337    85.223482 
   57300    404.41456   -110.04383    0.3659228   -109.67791   -16901.296    4.4114827    4.4114827    4.4114827   -16901.296     2008.633   -41383.267   -11329.255   -77.830032    -3345.812    9907.1296    85.852655 
   57400     449.2853   -110.08416   0.40652278   -109.67763    2382.3577    4.4035392    4.4035392    4.4035392    2382.3577    12071.031   -10732.389    5808.4301   -54.617344   -3281.8756   -892.02629     85.38972 
   57500     752.5362   -110.35798   0.68091057   -109.67707    8477.2358    4.4041575    4.4041575    4.4041575    8477.2358    7821.4216    20539.856     -2929.57    2567.7071    4688.8051   -8460.8194    85.425697 
   57600    1017.9255   -110.59842   0.92104037   -109.67738   -5502.7643    4.4106794    4.4106794    4.4106794   -5502.7643   -12239.955    11798.018   -16066.356   -1733.7762    -5063.958      8157.74    85.805766 
   57700    1171.6644   -110.73689    1.0601465   -109.67674    6787.3491    4.4017914    4.4017914    4.4017914    6787.3491   -2390.7886    23696.268   -943.43212    2689.5004   -2796.3088    1056.1006    85.288086 
   57800     1169.824   -110.73652    1.0584814   -109.67804    4003.4897    4.4062704    4.4062704    4.4062704    4003.4897    -8066.943    9916.0964    10161.316   -2136.7053    6035.2161   -6620.3904    85.548702 
   57900    937.31956   -110.52764   0.84810644   -109.67953   -1971.8394    4.4064174    4.4064174    4.4064174   -1971.8394   -9782.4649   -3260.4316    7127.3782   -3052.7687   -7120.8166    7843.4129    85.557265 
   58000    667.68213   -110.28257   0.60413282   -109.67844     4361.907    4.4051307    4.4051307    4.4051307     4361.907    7856.6504    -11469.45    16698.521    2687.7221   -4451.1506   -4638.3217    85.482339 
   58100     502.9917   -110.13093   0.45511746   -109.67581    646.33301    4.4096062    4.4096062    4.4096062    646.33301    4871.5282    -17346.91    14414.381   -1415.3417    6590.0841   -6096.4965    85.743146 
   58200    362.86605   -110.00561   0.32832882   -109.67728    5012.5782    4.4014798    4.4014798    4.4014798    5012.5782    8918.4895    15252.206   -9132.9607     992.7841   -7582.9598    13128.281    85.269978 
   58300    584.37098   -110.20862   0.52875114   -109.67987   -6189.0348    4.4058636    4.4058636    4.4058636   -6189.0348    4793.3226    -5084.615   -18275.812    137.15764   -3824.0109   -4501.5416     85.52501 
   58400    855.42677    -110.4519   0.77400812   -109.67789   -1858.4681    4.4095386    4.4095386    4.4095386   -1858.4681   -9874.5333   -2108.7219    6407.8509   -587.95842    6088.2369   -8586.6664    85.739205 
   58500    890.73417   -110.48556   0.80595499   -109.67961    9474.0941    4.4017676    4.4017676    4.4017676    9474.0941   -14424.774    23919.424    18927.632      2474.29   -9525.4566    10826.672    85.286701 
   58600    1194.9747   -110.75831    1.0812382   -109.67707   -2055.2777    4.4093397    4.4093397    4.4093397   -2055.2777   -16775.077    5591.2633    5017.9809   -708.50515   -2930.9654    715.06795    85.727601 
   58700    1121.6918   -110.68972    1.0149303   -109.67479   -644.02329     4.407865     4.407865     4.407865   -644.02329   -13445.253   -4705.8315    16219.015    448.97876    4070.1005    -3488.562    85.641614 
   58800    754.30808   -110.36222   0.68251381   -109.67971    3726.9163    4.3981384    4.3981384    4.3981384    3726.9163   -4173.2987    14653.937    700.11038     1027.558   -13170.886    1670.9578    85.075927 
   58900    747.39217   -110.35587   0.67625614   -109.67962   -6563.8767    4.4108832    4.4108832    4.4108832   -6563.8767   -2484.8019   -6493.4911   -10713.337    78.414188   -3943.7784    571.81254    85.817659 
   59000    679.10782   -110.29111   0.61447103   -109.67664   -3013.7141    4.4078808    4.4078808    4.4078808   -3013.7141     2037.909   -14549.757    3470.7054    2071.9336    4186.0535    648.62591    85.642538 
   59100    256.29564   -109.91236   0.23190168   -109.68046    11197.831    4.3994957    4.3994957    4.3994957    11197.831    4185.0864    5897.0885    23511.317    748.99224    -11572.64    7091.2299    85.154716 
   59200    799.27182   -110.39968   0.72319794   -109.67648   -9354.4333    4.4116365    4.4116365    4.4116365   -9354.4333   -14617.476   -2841.7446   -10604.079    1102.3791   -2662.3151    1739.5967    85.861637 
   59300    911.42179   -110.50018   0.82467359   -109.67551    3064.7225    4.4039839    4.4039839    4.4039839    3064.7225    -14088.41    15681.191    7601.3863    414.15078    920.97185   -3014.3775    85.415594 
   59400    763.03169   -110.37372   0.69040711   -109.68332      1999.65    4.4012286    4.4012286    4.4012286      1999.65   -18611.099    19503.021    5107.0279     -281.165   -10161.225    10407.338    85.255378 
   59500    1139.0228   -110.70907    1.0306118   -109.67845   -849.88384    4.4103115    4.4103115    4.4103115   -849.88384   -22960.724    4521.2963    15889.776    1485.0709    1212.3741    4408.8839    85.784297 
   59600    1146.7586   -110.71413    1.0376113   -109.67652    -218.8145    4.4061761    4.4061761    4.4061761    -218.8145   -16295.863    6228.3063    9411.1132    19.608522   -4056.1599   -3850.3124    85.543213 
   59700    610.00695   -110.23305    0.5519471    -109.6811    919.29212    4.4039444    4.4039444    4.4039444    919.29212    -2701.182    734.45119    4724.6072    773.66372   -12752.624    10083.603    85.413298 
   59800    865.09062   -110.45856   0.78275218   -109.67581   -5014.7962    4.4057849    4.4057849    4.4057849   -5014.7962    6113.4434   -11835.857   -9321.9745    529.45271    4610.3447    186.01896    85.520428 
   59900    669.33179   -110.28418   0.60562547   -109.67855   -7422.0457    4.4079301    4.4079301    4.4079301   -7422.0457    559.99517   -586.99344   -22239.139    366.15875   -3122.9108   -1652.8802    85.645413 
   60000    417.45386   -110.05926   0.37772103   -109.68154    3131.7359      4.40391      4.40391      4.40391    3131.7359   -1119.6543    16487.088   -5972.2262    817.03466   -10270.516    10265.733    85.411297 
   60100    730.45361   -110.33824   0.66092978   -109.67731    6916.4739    4.4058119    4.4058119    4.4058119    6916.4739   -9901.7955    1909.8499    28741.367   -299.59373    1775.4575   -517.64116    85.522003 
   60200    808.49178   -110.40784   0.73154035    -109.6763   -3421.8356    4.4085247    4.4085247    4.4085247   -3421.8356   -28091.083    3318.2268    14507.349    1853.7975   -4289.8546    1616.4745    85.680075 
   60300     775.7334   -110.38043   0.70189988   -109.67853    333.44413    4.4041249    4.4041249    4.4041249    333.44413   -25046.436    7315.9851    18730.784   -2895.0177   -4869.9656    10091.131    85.423796 
   60400    1048.4107   -110.62541   0.94862405   -109.67678    937.34393    4.4056953    4.4056953    4.4056953    937.34393   -13166.018    2221.5809    13756.469    1343.0965    5658.7751   -4168.8051     85.51521 
   60500    1048.0763   -110.62593   0.94832142   -109.67761   -2231.5422    4.4061734    4.4061734    4.4061734   -2231.5422   -2951.3012   -4334.6825     591.3572    5087.9068   -4747.6052   -1039.5845    85.543056 
   60600    920.91693   -110.51296   0.83326499    -109.6797   -1088.6653    4.4071436    4.4071436    4.4071436   -1088.6653    7627.7433    4739.8981   -15633.637   -1641.7872   -6407.6318    13952.704    85.599574 
   60700    939.51007    -110.5256   0.85008846   -109.67551    4163.4338    4.4067899    4.4067899    4.4067899    4163.4338    9787.1601   -929.91557     3633.057     2923.025    4676.6665   -3132.4058    85.578968 
   60800    706.91084   -110.31586   0.63962779   -109.67623   -44.472071    4.4041457    4.4041457    4.4041457   -44.472071   -362.31942   -3181.1142    3410.0174    2612.1602   -3158.8945   -4066.8177    85.425012 
   60900      532.963   -110.16016   0.48223612   -109.67792   -13509.811    4.4086596    4.4086596    4.4086596   -13509.811   -16216.303    -5902.215   -18410.914    1207.9464   -4931.1262    14337.927    85.687942 
   61000    597.27936   -110.21667   0.54043092   -109.67624   -1982.7918    4.4051152    4.4051152    4.4051152   -1982.7918   -20910.293    8563.4715    6398.4462    4693.3345    758.92105   -1569.2793    85.481438 
   61100     579.4935   -110.20217   0.52433789   -109.67783    3538.7481    4.4036175    4.4036175    4.4036175    3538.7481   -23091.302    18855.955    14851.591    513.76584   -4312.4262   -4826.0963    85.394277 
   61200    750.07231    -110.3575   0.67868119   -109.67881   -11936.421    4.4109949    4.4109949    4.4109949   -11936.421   -24922.467   -4232.1506   -6654.6442    164.83058   -906.09269    12065.157    85.824182 
   61300    1050.8129   -110.62624   0.95079759   -109.67545    -68.69549    4.4046789    4.4046789    4.4046789    -68.69549   -4197.0248   -1447.7957    5438.7341    4530.7041    1959.4641   -4921.7572    85.456037 
   61400    1123.9764   -110.69391    1.0169974   -109.67691     3464.735    4.4039447    4.4039447    4.4039447     3464.735    14071.618   -828.18188   -2849.2308    5362.6408   -4274.1186   -239.62606    85.413314 
   61500    1061.4374   -110.63872   0.96041088   -109.67831   -3939.7796    4.4097591    4.4097591    4.4097591   -3939.7796    13956.376    742.67119   -26518.386   -1140.8183   -2626.5061    15153.328    85.752064 
   61600    1082.2373    -110.6549   0.97923104   -109.67567    1554.4169    4.4034483    4.4034483    4.4034483    1554.4169     11578.85    2851.5643   -9767.1639    646.29172    3116.2495   -6910.4964    85.384436 
   61700     663.6769   -110.28011   0.60050881    -109.6796    2292.5202      4.40692      4.40692      4.40692    2292.5202   -90.227466    20010.098    -13042.31    5212.3492   -3024.5931   -41.969655    85.586543 
   61800    502.68995   -110.13301   0.45484443   -109.67817   -7189.6347    4.4076785    4.4076785    4.4076785   -7189.6347   -25246.282    6591.2862   -2913.9081    -1090.378   -5331.4785    15333.492    85.630743 
   61900    525.21701   -110.15022   0.47522739     -109.675   -3551.0358    4.4024856    4.4024856    4.4024856   -3551.0358   -36837.842    8122.4791    18062.256    6932.8871    33.803373   -3802.7905    85.328445 
   62000    542.40182    -110.1691   0.49077657   -109.67832   -12020.594    4.4106028    4.4106028    4.4106028   -12020.594   -24070.501   -4322.5164   -7668.7636    697.36904   -3214.0751    472.74986    85.801297 
   62100    661.44095   -110.27715   0.59848567   -109.67866    10261.107    4.4041225    4.4041225    4.4041225    10261.107    19978.221    12225.255   -1420.1551    -6152.496   -3812.8015    12081.275    85.423662 
   62200    1092.7927   -110.66412   0.98878181   -109.67534    5214.4482    4.4023454    4.4023454    4.4023454    5214.4482    10316.949    22.269042    5304.1263    12344.175    1377.8981   -2102.2635    85.320296 
   62300    1004.9103   -110.58782   0.90926392   -109.67856    -11124.47    4.4128868    4.4128868    4.4128868    -11124.47    12607.662    -22977.41   -23003.662    1951.1491   -2298.0378    2596.7571    85.934662 
   62400    1072.6274   -110.64733    0.9705358   -109.67679    1712.8607    4.4014999    4.4014999    4.4014999    1712.8607    24361.753   -5883.8251   -13339.345   -1274.7831    -3442.338    12319.114    85.271142 
   62500    1016.3357   -110.59573   0.91960189   -109.67613     2754.986     4.404329     4.404329     4.404329     2754.986   -5238.4109    9524.8992    3978.4698    6167.8075    4509.9868   -4613.7896    85.435674 
   62600    817.57787   -110.41719   0.73976164   -109.67743   -12284.218    4.4121138    4.4121138    4.4121138   -12284.218   -22943.413    3701.2001   -17610.442   -2354.7716   -1872.9668    3364.4203    85.889508 
   62700    632.49008   -110.24843   0.57229032   -109.67614    9574.7654    4.4002248    4.4002248    4.4002248    9574.7654        11093    20874.766   -3243.4694    5070.0008   -4178.3653    11257.721    85.197058 
   62800    578.89803    -110.2015    0.5237991    -109.6777    2138.2224     4.406848     4.406848     4.406848    2138.2224   -8370.0505    12777.293    2007.4247    3792.1127    6152.8705   -4973.9332    85.582352 
   62900    642.42302   -110.25812   0.58127785   -109.67684   -12975.933     4.408919     4.408919     4.408919   -12975.933   -15077.559    -18745.07   -5105.1703   -3799.4293   -3261.8978    3310.3241    85.703069 
   63000    622.02014   -110.23927   0.56281689   -109.67645   -5596.6329    4.4023662    4.4023662    4.4023662   -5596.6329    2518.8045   -23490.441    4181.7382    511.14218    324.08523     5589.016    85.321503 
   63100    779.38234   -110.38401   0.70520152    -109.6788   -7974.8869    4.4083356    4.4083356    4.4083356   -7974.8869    1261.4171   -21876.969    -3309.109    2118.8655    9628.4523   -2046.1718    85.669051 
   63200    1007.7558     -110.588   0.91183859   -109.67616    7493.0531    4.4045465    4.4045465    4.4045465    7493.0531    25722.584   -1724.2208   -1519.2037    1847.0878   -4206.0334    3771.1735    85.448333 
   63300    1132.3987   -110.70114    1.0246181   -109.67652   -4107.6539    4.4061121    4.4061121    4.4061121   -4107.6539    6523.4262   -5942.1069   -12904.281    2432.2001    2392.4365    1606.6021    85.539484 
   63400    857.75288   -110.45628   0.77611283   -109.68016    -2576.421    4.4069061    4.4069061    4.4069061    -2576.421   -498.06569    5434.8759   -12666.073    2763.7637    9442.0166   -1007.2225    85.585738 
   63500    1070.7564    -110.6441    0.9688429   -109.67526    -2128.426    4.4030942    4.4030942    4.4030942    -2128.426    -3277.818     8474.744   -11582.204   -1538.0705   -1346.7559    3248.7353     85.36384 
   63600    759.44958    -110.3651   0.68716594   -109.67793   -11667.508    4.4085221    4.4085221    4.4085221   -11667.508   -25366.978   -3229.2265   -6406.3208     5427.548    3284.3389    3766.7882     85.67992 
   63700    414.41515   -110.05565   0.37497154   -109.68068   -5184.7479    4.4045401    4.4045401    4.4045401   -5184.7479   -8466.3256   -13226.721    6138.8025    7162.5176    5874.8629   -3501.3552    85.447962 
   63800    606.81734   -110.22605   0.54906108   -109.67699    7298.9026    4.4057606    4.4057606    4.4057606    7298.9026    31689.457   -12777.693    2984.9437    -4895.948     312.7102    271.39385    85.519017 
   63900    754.30982   -110.35896   0.68251538   -109.67644   -22.923815     4.406374     4.406374     4.406374   -22.923815    12878.184   -15211.924    2264.9683     3568.364    2449.1156    4269.2559    85.554739 
   64000    635.00363   -110.25601   0.57456463   -109.68145   -2206.7484    4.4029483    4.4029483    4.4029483   -2206.7484    19005.668    -26438.65    812.73657    3602.0463     8601.365   -1967.3037     85.35535 
   64100    1090.1999   -110.66582   0.98643574   -109.67939   -7218.2114    4.4086885    4.4086885    4.4086885   -7218.2114    7747.8606   -21565.616    -7836.879   -8045.5181   -1880.3706    564.07396    85.689624 
   64200    1235.0978   -110.79407    1.1175424   -109.67652    3018.0975    4.4021494    4.4021494    4.4021494    3018.0975    6807.5526    8399.3635   -6152.6235    12.495853    -1090.317    -868.8898    85.308899 
   64300     849.0948   -110.45021   0.76827882   -109.68193   -4051.6208    4.4066599    4.4066599    4.4066599   -4051.6208   -15085.498    5979.9791   -3049.3438    5116.6098    11015.258   -798.17688    85.571393 
   64400    764.08823   -110.36967   0.69136309   -109.67831   -1474.2047    4.4084812    4.4084812    4.4084812   -1474.2047   -2771.0033     -426.617   -1224.9938   -6816.9197   -6214.9907    3842.8299    85.677541 
   64500    749.05398   -110.35193   0.67775979   -109.67417    8193.2405    4.3992637    4.3992637    4.3992637    8193.2405    10527.188     10648.51    3404.0234   -1376.5398   -2094.6975   -3265.3167     85.14124 
   64600    326.61745   -109.97694   0.29553034   -109.68141   -14986.301    4.4096161    4.4096161    4.4096161   -14986.301   -20913.047   -21050.406   -2995.4495    3684.7496    9702.4635   -1409.9109    85.743722 
   64700    530.66906   -110.16042   0.48016052   -109.68026   -10900.392    4.4050627    4.4050627    4.4050627   -10900.392    -2400.371   -32415.447    2114.6407    -6334.994   -11388.939    1394.1237    85.478382 
   64800    934.15949   -110.52146   0.84524714   -109.67621    3760.0192    4.4026299    4.4026299    4.4026299    3760.0192    24149.025   -21640.356    8771.3888    3508.7203    762.21524    294.13409    85.336833 
   64900    979.57179   -110.56581   0.88633715   -109.67947   -7647.7596    4.4090687    4.4090687    4.4090687   -7647.7596    291.29042   -15518.848   -7715.7209   -1381.1048    7111.2797    1139.0689    85.711798 
   65000    967.07484   -110.55502   0.87502964   -109.67999    7860.4998    4.4036221    4.4036221    4.4036221    7860.4998    11873.389    12029.352   -321.24195   -9308.0081   -13375.269   -3813.2596    85.394543 
   65100    1237.3013   -110.79466    1.1195362   -109.67513    2408.6179     4.407079     4.407079     4.407079    2408.6179    6766.6822    8725.7141   -8266.5425     5007.757    1673.2243    290.35156     85.59581 
   65200    808.47483   -110.41072   0.73152502   -109.67919   -704.58637    4.4031252    4.4031252    4.4031252   -704.58637   -9457.9089    9921.7226   -2577.5727   -3961.0914    3856.3601    1991.1519    85.365638 
   65300    450.83507   -110.09083   0.40792504   -109.68291   -7638.3084    4.4059864    4.4059864    4.4059864   -7638.3084   -16721.002    2302.0421   -8495.9656   -4711.9299   -11822.923   -955.91809    85.532165 
   65400    644.98675    -110.2605   0.58359757   -109.67691   -4997.0694    4.4082888    4.4082888    4.4082888   -4997.0694    6074.2268   -20832.646   -232.78928    1807.8541     780.9259    1077.6535    85.666321 
   65500    493.39075    -110.1237   0.44643032   -109.67727    9701.0414    4.3991688    4.3991688    4.3991688    9701.0414    34361.137   -21554.102    16296.089   -6897.6977   -669.19562   -1189.1614    85.135735 
   65600    529.07856    -110.1616    0.4787214   -109.68288   -13817.719    4.4114923    4.4114923    4.4114923   -13817.719   -4926.7559   -19233.926   -17292.477    2312.3734   -13095.248    2207.9241    85.853216 
   65700    979.51237   -110.56297   0.88628338   -109.67669    3050.4867    4.4052259    4.4052259    4.4052259    3050.4867    17705.307    -58.34085   -8495.5061    3027.5741   -1529.0473    1625.2277     85.48788 
   65800    1192.5977   -110.75549    1.0790874    -109.6764    4116.6611    4.3983291    4.3983291    4.3983291    4116.6611    11038.752     4128.216   -2816.9846   -9517.5536   -2008.1013   -2322.2786    85.086991 
   65900    953.34837   -110.54401   0.86260964    -109.6814   -11422.593    4.4131905    4.4131905    4.4131905   -11422.593   -26942.339    7035.1886    -14360.63   -4602.4318   -10095.695    -448.0907    85.952403 
   66000    1146.7966   -110.71328    1.0376456   -109.67563    1105.0271    4.4027189    4.4027189    4.4027189    1105.0271   -4196.1225     13886.64   -6375.4364    4810.7538   -1585.8576    3231.2473    85.342013 
   66100    800.64236   -110.40256   0.72443803   -109.67812    7578.0567    4.4022851    4.4022851    4.4022851    7578.0567     12287.54    2584.4053    7862.2254   -2202.0917   -3361.1253    2290.1375    85.316789 
   66200    505.91709    -110.1367   0.45776441   -109.67893   -11876.485     4.410371     4.410371     4.410371   -11876.485   -14040.307   -17509.418   -4079.7293   -7606.6013   -7297.4488   -4154.8339     85.78777 
   66300     437.1678   -110.07184   0.39555861   -109.67628   -1453.4834    4.4024773    4.4024773    4.4024773   -1453.4834    10276.192   -10275.877   -4360.7655     1424.355    1796.8795    1670.0123    85.327961 
   66400    480.80343   -110.11272   0.43504105   -109.67768   -4230.0637    4.4062359    4.4062359    4.4062359   -4230.0637    6666.8197   -7076.1435   -12280.867   -2118.6401     -1169.21    3744.7604    85.546695 
   66500    706.83369   -110.31762   0.63955798   -109.67806   -893.41202    4.4050285    4.4050285    4.4050285   -893.41202    10592.816   -9254.1213   -4018.9306   -2741.0399   -7556.8102   -3716.5847    85.476389 
   66600    922.94211   -110.51403   0.83509741   -109.67893    2578.3064    4.4053781    4.4053781    4.4053781    2578.3064    14341.552    -5587.109   -1019.5238    7104.9578    3341.6059    4121.9033    85.496741 
   66700    1219.8056    -110.7816    1.1037057   -109.67789   -4253.1647     4.407614     4.407614     4.407614   -4253.1647    -1694.422    4534.3607   -15599.433   -3973.5825   -310.06366   -10.470501    85.626989 
   66800    1222.0474   -110.78247    1.1057341   -109.67673    10163.009     4.401513     4.401513     4.401513    10163.009    6769.9547    20712.556    3006.5152   -3846.1336   -5289.1096   -1365.6139    85.271907 
   66900     1011.773    -110.5945   0.91547351   -109.67903   -7935.4532    4.4089148    4.4089148    4.4089148   -7935.4532   -5086.4186   -4908.2212    -13811.72    7590.1265    7262.3001    9342.2621    85.702819 
   67000     666.3382   -110.28165   0.60291681   -109.67873   -2061.7222    4.4052956    4.4052956    4.4052956   -2061.7222    284.02672    1330.0907   -7799.2842   -2112.7134   -1435.1256   -3188.8591    85.491938 
   67100    582.76738   -110.20419   0.52730017   -109.67689    4763.8684    4.4008995    4.4008995    4.4008995    4763.8684    6579.0803    4194.6142    3517.9108   -3020.9201   -3895.2728   -1250.6522    85.236257 
   67200    288.96791   -109.94087   0.26146424   -109.67941   -10931.369    4.4117176    4.4117176    4.4117176   -10931.369     12121.53   -35487.498   -9428.1375    2499.6643    9199.3397    9643.6801    85.866372 
   67300    454.00327   -110.08879    0.4107917     -109.678   -2652.4592    4.4032896    4.4032896    4.4032896   -2652.4592    11122.109   -21979.577    2900.0901   -4147.5986   -2777.6755   -344.99395      85.3752 
   67400    889.44064   -110.48133   0.80478458   -109.67654    384.33644    4.4026251    4.4026251    4.4026251    384.33644   -6361.2456    11830.497   -4316.2416   -1652.6351    -1482.919   -1171.3855    85.336554 
   67500    922.90862   -110.51475   0.83506712   -109.67968   -5842.4137    4.4104379    4.4104379    4.4104379   -5842.4137   -11354.465     17997.04   -24169.816    3207.0286    6045.2869    6205.2771    85.791673 
   67600      1193.31   -110.75832     1.079732   -109.67859    1891.0085    4.4019409    4.4019409    4.4019409    1891.0085    875.85819    14634.038   -9836.8711   -3713.5933   -2651.7373    3314.8569    85.296776 
   67700    1194.6462   -110.75833     1.080941   -109.67739    7987.3718    4.4056547    4.4056547    4.4056547    7987.3718   -548.59328    22314.466    2196.2426   -5463.2401    3875.1579    237.46169    85.512848 
   67800    932.04522   -110.52231    0.8433341   -109.67897   -6285.5452     4.407989     4.407989     4.407989   -6285.5452   -20.950669   -5716.0665   -13119.618    2827.8805     4230.847    5100.3208    85.648845 
   67900    606.36029   -110.22688   0.54864753   -109.67823   -1692.7187    4.4041546    4.4041546    4.4041546   -1692.7187    18565.301   -28710.726    5067.2689   -722.62115   -3214.1296   -1088.3701    85.425526 
   68000    649.84666   -110.26348   0.58799491   -109.67549   -5236.8712    4.4069274    4.4069274    4.4069274   -5236.8712    2465.9769   -23677.052    5500.4612   -7713.8367    3663.3142   -1923.9481    85.586975 
   68100    439.25488   -110.07543   0.39744705   -109.67799    1189.8445    4.4037271    4.4037271    4.4037271    1189.8445    543.90442    14494.016   -11468.387    2109.7295    4676.1169    10836.743    85.400653 
   68200    539.81558   -110.16765   0.48843648   -109.67922   -9414.1027    4.4068836    4.4068836    4.4068836   -9414.1027    -12843.09   -1695.2617   -13703.957   -3650.4862    316.74666   -4376.6093    85.584427 
   68300    834.81966   -110.43236   0.75536237     -109.677   -3172.8311    4.4067557    4.4067557    4.4067557   -3172.8311   -13493.753    8184.2884   -4209.0287   -9474.0838    509.48994   -6713.4034    85.576971 
   68400    888.34902   -110.48151   0.80379686   -109.67771    10090.108    4.4026866    4.4026866    4.4026866    10090.108     6951.496    23340.498   -21.670828    5780.0778    3869.5991    12659.328    85.340134 
   68500    1021.0975   -110.60124   0.92391046   -109.67733   -8383.6772    4.4091581    4.4091581    4.4091581   -8383.6772   -14054.995   -3355.6486    -7740.388   -3740.8612    1609.5147   -134.87363    85.717012 
   68600      1005.15   -110.58528   0.90948086    -109.6758   -4429.2489    4.4058258    4.4058258    4.4058258   -4429.2489   -8005.9205   -7194.0234    1912.1973   -6076.5273    2642.4354   -4398.4587    85.522812 
   68700    980.27246   -110.56465   0.88697112   -109.67768    1376.0605    4.4022391    4.4022391    4.4022391    1376.0605    9303.6003   -4244.6456   -930.77314     4880.149    6146.8334      6529.49    85.314113 
   68800     778.7872   -110.38304   0.70466303   -109.67838   -981.62006    4.4081928    4.4081928    4.4081928   -981.62006    7891.3331   -14309.371    3473.1774   -5450.2678   -2219.4881   -1058.7895    85.660724 
   68900    760.12283    -110.3646   0.68777511   -109.67683   -7627.0983    4.4058193    4.4058193    4.4058193   -7627.0983   -7415.5824   -14703.086   -762.62658   -1375.4941     1638.081     1852.962    85.522432 
   69000    595.58762   -110.21698    0.5389002   -109.67808    1377.3221     4.405014     4.405014     4.405014    1377.3221    9002.5825   -8465.1042     3594.488    667.51789    7996.9029    9966.8387    85.475547 
   69100    692.71773   -110.30278   0.62678556   -109.67599    1806.1085    4.4063586    4.4063586    4.4063586    1806.1085   -1665.3847    1667.8874    5415.8229   -7311.7187   -3087.0798   -3354.9962     85.55384 
   69200      682.881   -110.29529   0.61788508    -109.6774   -6378.0988    4.4044326    4.4044326    4.4044326   -6378.0988   -30189.999    22228.857   -11173.154   -1229.6823    1951.0459     -952.199    85.441706 
   69300    696.93664   -110.31007   0.63060292   -109.67946   -10032.254    4.4066268    4.4066268    4.4066268   -10032.254   -25817.821    11215.952   -15494.892    352.07792    3048.7263    9900.9769    85.569466 
   69400    980.88457   -110.56403   0.88752497   -109.67651    1494.0963    4.4059388    4.4059388    4.4059388    1494.0963   -9650.9771    6528.1349    7605.1313   -1929.1529   -2444.1373    694.44235    85.529391 
   69500    913.33295   -110.50392   0.82640284   -109.67752    9887.9231    4.4039769    4.4039769    4.4039769    9887.9231    8671.7085    6379.2233    14612.837   -1780.2412    6860.3403   -3921.8318    85.415187 
   69600    937.15333   -110.52683   0.84795603   -109.67887   -6572.8843    4.4066858    4.4066858    4.4066858   -6572.8843    1607.5847   -20910.707   -415.53103   -119.38272    663.31182    7251.7775    85.572901 
   69700    993.04333   -110.57534   0.89852647   -109.67681    3218.9259    4.4054489    4.4054489    4.4054489    3218.9259     9101.617   -19405.628    19960.789    1421.2836   -4147.6509     2274.221    85.500867 
   69800    852.09197   -110.44825   0.77099072   -109.67726    928.41494    4.4045536    4.4045536    4.4045536    928.41494   -2307.7626   -2520.5253    7613.5327   -2620.3063    7297.4383   -2307.5022    85.448746 
   69900    581.62314   -110.20552   0.52626484   -109.67925   -7361.1916    4.4066985    4.4066985    4.4066985   -7361.1916   -20982.715    8467.7706   -9568.6301     -1239.68    526.23986    11555.198    85.573639 
   70000       754.31   -110.35829   0.68251554   -109.67577   -4733.4349    4.4048454    4.4048454    4.4048454   -4733.4349   -30735.472    14494.209    2040.9585   -578.08049   -2037.3754   -1423.1359    85.465731 
   70100    615.01669   -110.23396   0.55648003   -109.67748    8706.8919    4.4051459    4.4051459    4.4051459    8706.8919   -14960.607    20647.232    20434.051    -29.35341    5573.1579   -675.10332    85.483224 
   70200    614.51162    -110.2358   0.55602303   -109.67978     322.9112    4.4063246    4.4063246    4.4063246     322.9112   -2351.3953    12070.099   -8749.9697    1044.1251   -4534.9137    12502.236    85.551862 
   70300    902.35279   -110.49313   0.81646777   -109.67666   -2439.8205    4.4036786    4.4036786    4.4036786   -2439.8205   -8954.9031     1097.556    537.88564   -974.15448   -1450.5751   -3591.5205    85.397831 
   70400    977.74758   -110.56205   0.88468656   -109.67736   -5963.7306    4.4075465    4.4075465    4.4075465   -5963.7306   -6956.7836   -17302.638    6368.2301    3121.5769    5731.2069    4705.2808    85.623054 
   70500    856.73575   -110.45434   0.77519251   -109.67915    939.25319    4.4053584    4.4053584    4.4053584    939.25319    1780.7501   -10493.605    11530.614    969.30911   -4141.9489    6929.4754    85.495593 
   70600     999.2112   -110.58097   0.90410729   -109.67687     5168.623    4.4016037    4.4016037    4.4016037     5168.623   -3224.9247    1580.7278    17150.066    2767.4274   -3495.9748   -4753.7593     85.27718 
   70700     858.5697   -110.45461    0.7768519   -109.67775   -3134.2301    4.4097733    4.4097733    4.4097733   -3134.2301   -18339.869   -11827.194    20764.373    3045.5947    883.58095    6387.4955    85.752894 
   70800    649.31945   -110.26602   0.58751789    -109.6785   -1709.0394    4.4053213    4.4053213    4.4053213   -1709.0394    -15361.23    7227.5798    3006.5318    -2801.045   -1841.0179    5705.9623    85.493436 
   70900    653.98256   -110.26821   0.59173716   -109.67647    2244.2474     4.401128     4.401128     4.401128    2244.2474   -9312.0258    19744.962   -3700.1938    5989.0578   -1337.5312    -2069.952    85.249528 
   71000    729.07611   -110.33625   0.65968339   -109.67657   -11855.309    4.4099795    4.4099795    4.4099795   -11855.309   -23281.224    3973.5779    -16258.28    3193.6822    362.84193   -1218.3985    85.764922 
   71100    667.28493   -110.28219   0.60377343   -109.67841   -1411.2533    4.4039913    4.4039913    4.4039913   -1411.2533   -14766.555    8434.2903    2098.5046    -3647.155   -5386.2193    6487.2394    85.416027 
   71200    753.02992   -110.35996   0.68135729    -109.6786    8038.0405    4.4022916    4.4022916    4.4022916    8038.0405   -3431.8987    2406.7329    25139.287     7674.994   -2387.7093     1577.928    85.317166 
   71300    977.94009   -110.56142   0.88486075   -109.67656    -8521.548    4.4105122    4.4105122    4.4105122    -8521.548   -572.40758   -23984.173   -1008.0636    3203.0159    2670.5151   -3906.9081    85.796008 
   71400    837.56771   -110.43487   0.75784887   -109.67702   -292.17079    4.4034374    4.4034374    4.4034374   -292.17079    5280.9423   -14679.529    8522.0746    64.999676   -6681.9025    8510.4521    85.383799 
   71500    904.45523   -110.49619    0.8183701   -109.67782   -2977.0091    4.4034733    4.4034733    4.4034733   -2977.0091   -4822.4677   -16713.946    12605.386    8189.4545   -3592.3377   -5568.2928     85.38589 
   71600    912.31235    -110.5026   0.82547938   -109.67712   -813.49602    4.4086504    4.4086504    4.4086504   -813.49602   -4164.5376   -2424.5941    4148.6436   -831.18886    768.26644   -637.14744    85.687402 
   71700    920.02912   -110.50937   0.83246169   -109.67691     1320.692      4.40365      4.40365      4.40365     1320.692   -10897.794    16457.431   -1597.5609    660.68794    -4369.846    13783.909    85.396166 
   71800    697.04279   -110.30947   0.63069896   -109.67877    4847.0695    4.4056061    4.4056061    4.4056061    4847.0695   -23962.642    12328.953    26174.897     10454.66   -97.025444   -9655.0205    85.510019 
   71900    820.30693   -110.41824   0.74223095   -109.67601   -5653.0852    4.4068543    4.4068543    4.4068543   -5653.0852    -17919.03    6621.5255   -5661.7508   -1442.3674   -792.78654    757.24675    85.582716 
   72000    655.82665   -110.27028   0.59340574   -109.67688   -3708.5195    4.4037349    4.4037349    4.4037349   -3708.5195   -2043.8418   -1226.6678   -7855.0487    965.15307   -3597.3019    11150.489    85.401105 
   72100    540.33791   -110.16787   0.48890909   -109.67896   -6575.0585    4.4074573    4.4074573    4.4074573   -6575.0585    7227.5286   -24757.914   -2194.7902    9577.0422   -3162.7605   -7895.6235    85.617856 
   72200     679.5931   -110.29179   0.61491012   -109.67688     4247.074    4.4046626    4.4046626    4.4046626     4247.074    15992.276     -16990.3    13739.246   -814.54194    1384.6434    2100.9904    85.455089 
   72300    761.14222   -110.36552   0.68869748   -109.67682    3555.8726    4.4051401    4.4051401    4.4051401    3555.8726    10344.557   -14309.023    14632.084    2858.4001   -1161.7802    5810.3857    85.482885 
   72400    860.89863   -110.45789   0.77895917   -109.67894   -4399.8121    4.4076861    4.4076861    4.4076861   -4399.8121    -1496.556   -13194.818    1491.9379    6266.5344   -3467.5548   -8415.2206    85.631191 
   72500    1113.3254   -110.68454    1.0073602   -109.67718      3795.87    4.4028996    4.4028996    4.4028996      3795.87   -4789.9201     13405.79    2771.7405   -633.40038    4293.4327   -735.54153    85.352519 
   72600    1159.8652   -110.72674    1.0494704   -109.67727   -3871.2833     4.407888     4.407888     4.407888   -3871.2833   -19647.422    11861.034   -3827.4621     2470.204   -3093.7825    8216.2423    85.642958 
   72700    960.57571    -110.5479   0.86914908   -109.67875   -2703.9651    4.4065516    4.4065516    4.4065516   -2703.9651   -14444.139    6830.9729   -498.72932    5067.7045   -404.07831   -7921.7528    85.565081 
   72800    791.89891   -110.39352   0.71652678   -109.67699    9602.2208    4.4028366    4.4028366    4.4028366    9602.2208     18844.01    11829.576   -1866.9236    450.91153    4962.5163   -1269.8522    85.348854 
   72900    580.94768   -110.20278   0.52565367   -109.67713   -2592.0376    4.4084121    4.4084121    4.4084121   -2592.0376    3228.1511   -22016.412    11012.148   -1403.3031   -5922.2819    9566.5617    85.673511 
   73000    342.21745     -109.988   0.30964554   -109.67836   -6278.1738    4.4041981    4.4041981    4.4041981   -6278.1738     8953.698   -32266.315    4478.0953    8475.3918   -2042.5758   -7526.7973    85.428059 
   73100    464.11027   -110.09856   0.41993672   -109.67862    -5752.821    4.4050449    4.4050449    4.4050449    -5752.821    13452.498   -16691.093   -14019.868   -508.65582     2041.789    3585.0814    85.477343 
   73200    694.54413   -110.30653   0.62843812   -109.67809   -2162.6888    4.4080063    4.4080063    4.4080063   -2162.6888    5891.9216   -1806.3417   -10573.646   -6532.1035   -1605.8078    7542.3197    85.649854 
   73300    908.40505   -110.50023   0.82194398   -109.67829    5649.6296    4.4028215    4.4028215    4.4028215    5649.6296    6324.6517    12257.563   -1633.3255    11962.573   -3821.6556   -12386.472    85.347976 
   73400    1171.0465   -110.73788    1.0595875   -109.67829   -674.89427    4.4076748    4.4076748    4.4076748   -674.89427   -2792.7917    11431.639    -10663.53   -203.17515   -147.54716    3301.1698     85.63053 
   73500     1174.703   -110.74024     1.062896   -109.67735    2213.8677    4.4061791    4.4061791    4.4061791    2213.8677   -950.23349    8539.7312   -947.89451   -3290.2455   -210.04994    7506.2899    85.543385 
   73600    1027.0879   -110.60726   0.92933067   -109.67793   -1995.4854    4.4029183    4.4029183    4.4029183   -1995.4854   -1669.3237   -7580.5953    3263.4628    8409.4009   -5984.6864   -7340.1932    85.353609 
   73700    796.22169   -110.39852   0.72043812   -109.67808   -5628.8242    4.4081531    4.4081531    4.4081531   -5628.8242    10987.898   -26332.962   -1541.4087   -4280.8591    2922.0953    1718.9659    85.658412 
   73800    631.38074   -110.24912   0.57128656   -109.67783    737.37713     4.403885     4.403885     4.403885    737.37713    8451.4506   -12025.114    5785.7948    2435.0092   -1496.3596    1729.0381    85.409839 
   73900     355.7934   -110.00131   0.32192934   -109.67938    3701.7886    4.4064121    4.4064121    4.4064121    3701.7886    24121.222    -6225.965   -6789.8911    6964.4327   -8336.9924   -4120.0223    85.556956 
   74000    611.08242   -110.22882   0.55292021    -109.6759   -6967.2604    4.4073675    4.4073675    4.4073675   -6967.2604    13661.201   -17317.224   -17245.757     -3605.81    4973.7119    5686.2005    85.612624 
   74100    650.18482    -110.2653   0.58830089     -109.677    327.47862    4.4022771    4.4022771    4.4022771    327.47862    9078.8599   -1090.6102   -7005.8139   -1150.4374   -808.89647    175.95906    85.316321 
   74200    796.22641   -110.40075   0.72044239   -109.68031   -7363.9562    4.4086874    4.4086874    4.4086874   -7363.9562   -2894.5892    908.69266   -20105.972    5465.1961   -3527.4098   -10755.186    85.689564 
   74300    1129.3253   -110.69933    1.0218373    -109.6775    4254.2901    4.4039705    4.4039705    4.4039705    4254.2901    7140.2612    13328.322    -7705.713    2841.3704     1796.735    3557.3866    85.414815 
   74400     1091.295   -110.66573   0.98742666   -109.67831    5149.5245    4.4039861    4.4039861    4.4039861    5149.5245    10322.413     909.3379     4216.823   -6376.5306   -3497.6896    4708.3891    85.415722 
   74500    879.72309    -110.4758   0.79599194   -109.67981   -5752.9096    4.4108504    4.4108504    4.4108504   -5752.9096   -5475.5945   -12112.147    329.01222    7000.4437   -3275.6266   -8455.7209    85.815747 
   74600    905.14682   -110.49428   0.81899587   -109.67528    9439.6583    4.4008347    4.4008347    4.4008347    9439.6583    17116.911   -1055.5409    12257.605    3668.2063   -61.330569    420.17992    85.232486 
   74700    759.97748   -110.36526    0.6876436   -109.67762   -6833.4153    4.4050616    4.4050616    4.4050616   -6833.4153    8548.4752   -28418.205   -630.51617   -8022.6054   -781.44929    498.92163    85.478318 
   74800    382.04652    -110.0268   0.34568372   -109.68112   -10077.699    4.4108053    4.4108053    4.4108053   -10077.699    11888.319   -28493.591   -13627.826    12634.544   -6929.0025   -3533.1498    85.813112 
   74900    762.17291   -110.36547   0.68963006   -109.67584     7392.548    4.4005694    4.4005694    4.4005694     7392.548    15662.601      11485.8   -4970.7576    2478.4744   -2084.4575    3518.3388    85.217074 
   75000    738.48218   -110.34512    0.6681942   -109.67692    3438.1534     4.406389     4.406389     4.406389    3438.1534    19565.226    10964.922   -20215.688   -7096.3364    2973.6994   -3832.6285    85.555611 
   75100    701.93109   -110.31539     0.635122   -109.68027   -11036.651    4.4093725    4.4093725    4.4093725   -11036.651   -3208.2717   -514.67679   -29387.005    11782.893   -4369.7782    -5730.033    85.729517 
   75200    1084.1858   -110.65737   0.98099406   -109.67637    3834.7527    4.4013816    4.4013816    4.4013816    3834.7527    382.21463     16035.03   -4912.9863    329.00648    293.15829     2045.215    85.264266 
   75300    1069.9455   -110.64512   0.96810916   -109.67701   -586.02752    4.4072208    4.4072208    4.4072208   -586.02752   -6211.6162    -8812.125    13265.659   -1507.7343   -1983.5891   -1395.3206    85.604073 
   75400    732.31172   -110.34371   0.66261104    -109.6811   -6003.4707    4.4075931    4.4075931    4.4075931   -6003.4707    149.58312   -28102.093    9942.0974    12394.572   -4344.7335   -4624.9204    85.625771 
   75500    899.81494   -110.49015   0.81417147   -109.67598    5379.4008    4.4029741    4.4029741    4.4029741    5379.4008    17963.176   -16163.035    14338.061   -1957.5878    6227.6811   -1671.9314     85.35685 
   75600    795.28924   -110.39645   0.71959442   -109.67685   -721.39016     4.406735     4.406735     4.406735   -721.39016    6561.4836   -19624.913    10899.259   -311.44099   -3538.7094    1320.9909    85.575767 
   75700     420.9827   -110.06278     0.380914   -109.68187    -5113.767    4.4053769    4.4053769    4.4053769    -5113.767    9897.0395   -5165.5574   -20072.783    16167.976   -5365.4328   -1510.9599    85.496669 
   75800    776.92114   -110.38096   0.70297458   -109.67799    -7778.004    4.4058349    4.4058349    4.4058349    -7778.004    9789.7536    7932.3336   -41056.099    1556.1721    1478.8929    967.20896     85.52334 
   75900    897.80098   -110.48836   0.81234919   -109.67601    -3913.091    4.4075024    4.4075024    4.4075024    -3913.091    6619.0957   -495.46458   -17862.904   -773.32638   -533.12434   -1028.1318    85.620482 
   76000    706.32702   -110.31929   0.63909953   -109.68019    4685.2708    4.4043407    4.4043407    4.4043407    4685.2708   -334.53759    3261.9531    11128.397    12565.687    876.78369   -6409.8835    85.436358 
   76100    1059.1363   -110.63513   0.95832876    -109.6768    763.44145    4.4062162    4.4062162    4.4062162    763.44145    5794.6616    1734.7023   -5239.0395   -826.62422   -3250.1512    4088.9382    85.545545 
   76200    1017.2731   -110.59696   0.92045008   -109.67651   -2131.5719    4.4057929    4.4057929    4.4057929   -2131.5719   -2273.4536   -21807.666    17686.404    6477.0916    1002.1524   -323.28714    85.520893 
   76300    688.49904   -110.30407    0.6229684    -109.6811   -5504.4845    4.4049049    4.4049049    4.4049049   -5504.4845   -10187.196   -23316.019    16989.761    12265.527   -7.1969083    -5696.087    85.469193 
   76400    748.49071   -110.35483   0.67725013   -109.67758   -4901.9052    4.4073599    4.4073599    4.4073599   -4901.9052   -3145.8021   -2929.8606    -8630.053   -8223.6135   -1793.4429    118.28873    85.612181 
   76500    701.25365   -110.31005   0.63450904   -109.67554   -3695.0538    4.4054781    4.4054781    4.4054781   -3695.0538    11114.993   -12180.039   -10020.115    9495.6737    3806.4445   -957.95513    85.502563 
   76600    554.95627   -110.18067    0.5021361   -109.67854   -1468.4814    4.4053401    4.4053401    4.4053401   -1468.4814    8320.0182   -10276.772   -2448.6901    13210.953   -6245.2401    1058.5865    85.494532 
   76700    712.67927   -110.32263   0.64484718   -109.67779    4213.6929    4.4068009    4.4068009    4.4068009    4213.6929    7270.1549    9464.8571   -4093.9333   -6086.1151    1775.8725   -901.35429    85.579607 
   76800    1009.1963   -110.58876   0.91314201   -109.67561   -3567.6713    4.4045994    4.4045994    4.4045994   -3567.6713    5320.2356   -1671.2539   -14351.995    9008.9453    6255.0641    -1559.882    85.451413 
   76900     864.2504   -110.46065   0.78199192   -109.67866   -5567.2946    4.4062365    4.4062365    4.4062365   -5567.2946   -5113.4919    139.27084   -11727.663    5028.9351    -6280.216   -2245.5909    85.546731 
   77000     1023.574   -110.60367   0.92615123   -109.67752   -7688.9967    4.4072964    4.4072964    4.4072964   -7688.9967   -16359.849    446.84694   -7153.9885   -2675.8936    3364.9869    544.31371     85.60848 
   77100    948.78988   -110.53425   0.85848502   -109.67576    6729.2045    4.4040402    4.4040402    4.4040402    6729.2045   -2474.5382   -5867.2051    28529.357    11660.295    2307.3848    4762.6106    85.418869 
   77200    776.81852   -110.38086   0.70288172   -109.67797   -2063.5778    4.4057946    4.4057946    4.4057946   -2063.5778   -3866.3124   -5352.2589    3027.8379   -628.73677    -5149.724   -6410.1738    85.520995 
   77300    520.09627   -110.15008   0.47059404   -109.67948   -1156.2775     4.406538     4.406538     4.406538   -1156.2775   -5362.9169   -7561.7296    9455.8141   -4646.9952    1945.8341   -1419.6407    85.564292 
   77400    631.39622   -110.24727   0.57130057   -109.67597   -1597.0055    4.4058245    4.4058245    4.4058245   -1597.0055    6476.0941   -20199.736    8932.6257    5768.9495   -89.864116     5325.555    85.522736 
   77500    614.35459   -110.23295   0.55588095   -109.67707   -9496.0518    4.4054668    4.4054668    4.4054668   -9496.0518    7665.8768   -252.08142   -35901.951    1360.7968   -5561.9508    250.28814    85.501906 
   77600    587.94162   -110.21168   0.53198194    -109.6797   -4509.1745      4.40574      4.40574      4.40574   -4509.1745    6354.1566    20222.012   -40103.692   -1291.0645   -375.35638    2.3206359    85.517816 
   77700    1066.1555   -110.64122   0.96467987   -109.67654   -1456.0506    4.4071721    4.4071721    4.4071721   -1456.0506    3535.2418   -171.88127   -7731.5123   -1418.6439    996.11289    -1629.516    85.601236 
   77800    1035.7076   -110.61497   0.93713002   -109.67784    10111.614     4.403312     4.403312     4.403312    10111.614    2608.7016    14985.394    12740.748    1203.7538   -7494.1371    2966.7322    85.376503 
   77900    1058.8513   -110.63771   0.95807095   -109.67964    -3415.195    4.4068532    4.4068532    4.4068532    -3415.195    -13325.28    8819.5778   -5739.8829   -1210.7452    532.05223    5200.7482    85.582654 
   78000    1061.8922   -110.63714   0.96082242   -109.67631    -2293.981    4.4081152    4.4081152    4.4081152    -2293.981   -10653.926   -10472.442    14244.426   -1061.4827    4015.7025    2801.1822    85.656203 
   78100    845.36598   -110.44187    0.7649049   -109.67697   -379.20668    4.4015928    4.4015928    4.4015928   -379.20668   -1668.2932   -2687.1017    3217.7749    4084.2222   -9194.3656   -3168.4047    85.276544 
   78200    483.46112     -110.117   0.43744578   -109.67955   -10357.142    4.4086627    4.4086627    4.4086627   -10357.142     2676.239   -2288.8513   -31458.815   -7411.0947    3441.1753    211.78808     85.68812 
   78300    489.88058   -110.11981   0.44325425   -109.67656   -1764.3968    4.4061361    4.4061361    4.4061361   -1764.3968    14748.884    12773.877   -32815.952   -1402.5633    4526.8493    10345.858     85.54088 
   78400    525.22303   -110.15192   0.47523284   -109.67669    5660.2671    4.4024451    4.4024451    4.4024451    5660.2671    14242.399    8966.4505   -6228.0478    6077.6375   -9988.1184   -1502.3637    85.326091 
   78500    528.15609   -110.15727   0.47788673   -109.67938   -5687.6336    4.4102208    4.4102208    4.4102208   -5687.6336    2222.8456   -5018.6315   -14267.115   -6280.8875    5820.5422   -653.52424    85.779001 
   78600    991.36035    -110.5738   0.89700368    -109.6768    -1976.603    4.4026894    4.4026894    4.4026894    -1976.603     5848.088   -482.74302   -11295.154    2267.1321    2343.2376    8249.2304    85.340295 
   78700    1147.4897   -110.71657    1.0382728    -109.6783    3672.9657    4.4052281    4.4052281    4.4052281    3672.9657   -6188.3577    14427.573    2779.6817   -781.03068   -8908.2018   -1647.2485    85.488007 
   78800    1141.8986   -110.71273    1.0332139   -109.67952   -4368.4547    4.4090901    4.4090901    4.4090901   -4368.4547   -14831.673    7087.7024   -5361.3936   -4226.3418     8638.106    5119.1243    85.713043 
   78900    1097.3323    -110.6703   0.99288937   -109.67741    8512.1814    4.4006913    4.4006913    4.4006913    8512.1814    7238.9422    13639.431    4658.1713    4766.4244    1765.4355    3208.8375    85.224157 
   79000    928.25745   -110.51802   0.83990685   -109.67811   -717.11441     4.409903     4.409903     4.409903   -717.11441   -6041.3448    17799.237   -13909.236   -2552.6946   -7766.1528   -3631.1614    85.760464 
   79100    488.81913   -110.12145   0.44229382   -109.67915    -2005.938     4.405627     4.405627     4.405627    -2005.938    4065.1006    5662.3449   -15745.259     -647.411    9081.0321    8723.6742    85.511232 
   79200    366.70366   -110.00927   0.33180118   -109.67747     3344.774    4.4005205    4.4005205    4.4005205     3344.774    18355.634   -3444.7087   -4876.6029   -3860.3202    1442.3629    5071.1644    85.214236 
   79300    564.66755   -110.18717   0.51092307   -109.67625   -13773.315     4.412333     4.412333     4.412333   -13773.315    4277.7332    -13209.29   -32388.388   -778.02099    -5778.436    -1499.595    85.902313 
   79400    466.21382   -110.10075   0.42184006   -109.67891    7299.1688    4.4025517    4.4025517    4.4025517    7299.1688    14238.868    23601.208    -15942.57    5926.0574    7662.2856     5695.089    85.332289 
   79500    919.95763   -110.51149     0.832397   -109.67909    3777.0692    4.4028437    4.4028437    4.4028437    3777.0692    5283.2799    538.30097    5509.6267   -8546.1527   -295.55798    2670.5805     85.34927 
   79600     1208.123   -110.76922    1.0931351   -109.67609   -4490.4309    4.4114775    4.4114775    4.4114775   -4490.4309   -9263.6502   -9485.3676    5277.7253    2721.6339   -2428.7299   -2535.3431    85.852352 
   79700    1076.8586   -110.65312   0.97436426   -109.67875     1827.856    4.4015643    4.4015643    4.4015643     1827.856   -3697.4804     9426.273   -245.22465     1618.045    8884.2275    6738.3575    85.274885 
   79800    1057.9326   -110.63604   0.95723962    -109.6788    3988.1609    4.4049132    4.4049132    4.4049132    3988.1609    3412.1942    8227.8307    324.45773   -8946.9728   -1302.5166    1786.1129    85.469677 
   79900    971.64524   -110.55566   0.87916503    -109.6765   -2240.3869    4.4088222    4.4088222    4.4088222   -2240.3869   -2583.6646     2545.694     -6683.19     12249.18   -1060.8485   -4985.4967    85.697419 
   80000    486.35894   -110.11965   0.44006779   -109.67958    -507.3045    4.4032465    4.4032465    4.4032465    -507.3045    12421.549    11068.986   -25012.448   -407.02324    7439.7615    9151.2521    85.372696 
   80100    458.16157   -110.09313   0.41455421   -109.67858     -2843.75    4.4058279    4.4058279    4.4058279     -2843.75     12604.62    7917.3317   -29053.202   -8471.4742   -648.33706    1017.2254    85.522931 
   80200    661.98991   -110.27467   0.59898238   -109.67568   -7874.3707    4.4058492    4.4058492    4.4058492   -7874.3707    5418.8749   -19576.256   -9465.7308    10892.714     623.8298   -2069.3169    85.524176 
   80300    533.51984   -110.16254   0.48273996    -109.6798   -7438.7344    4.4057382    4.4057382    4.4057382   -7438.7344   -625.52897    -25617.68    3927.0058    236.02059    2382.6832    6052.9386    85.517707 
   80400    877.53662    -110.4727   0.79401357   -109.67868    619.74173    4.4056149    4.4056149    4.4056149    619.74173    3018.6255   -9302.6424    8143.2421   -2257.5586    1246.1714   -4409.5582    85.510529 
   80500    1092.7038   -110.66481   0.98870137    -109.6761    8227.7812    4.4043299    4.4043299    4.4043299    8227.7812   -2339.0514    11808.944    15213.451    5338.6091    2653.8035    4095.8159    85.435731 
   80600    949.97008    -110.5384   0.85955289   -109.67885   -4170.3393    4.4072759    4.4072759    4.4072759   -4170.3393   -19703.949    4714.0324    2478.8986   -3044.6288    445.01641    5889.6083    85.607284 
   80700    882.37347    -110.4766   0.79839006   -109.67821   -2894.7877    4.4048666    4.4048666    4.4048666   -2894.7877   -11256.476    14055.542   -11483.428   -2631.2977    1491.8071   -6731.4539    85.466966 
   80800    871.73665   -110.46511   0.78876564   -109.67634   -4074.4345    4.4051745    4.4051745    4.4051745   -4074.4345   -521.09232    6112.0396   -17814.251    9117.6476   -276.53785    403.83499    85.484889 
   80900    701.70584    -110.3126   0.63491819   -109.67768   -6210.2688    4.4069436    4.4069436    4.4069436   -6210.2688     13916.97   -8307.1659   -24240.611   -1416.3238    4380.8124    4089.6877     85.58792 
   81000    648.14257   -110.26499   0.58645302   -109.67854    2980.2512    4.4040681    4.4040681    4.4040681    2980.2512    14291.659   -5306.6566   -44.248343   -8146.3861   -18.044841   -72.285645    85.420493 
   81100    753.57143   -110.35945   0.68184726    -109.6776    7390.3654    4.4067493    4.4067493    4.4067493    7390.3654    14766.807    139.54728    7264.7421    12197.571   -5189.4503   -2632.0491    85.576599 
   81200    874.46537    -110.4676   0.79123465   -109.67637   -26.881381    4.4045573    4.4045573    4.4045573   -26.881381    689.21311   -1855.1069    1085.2497    1791.2675    5422.2023    1177.8163     85.44896 
   81300    601.01909   -110.22394   0.54381471   -109.68012   -5086.8907    4.4061614    4.4061614    4.4061614   -5086.8907   -23593.899    2139.1806    6194.0462   -5297.4892   -2035.3795    566.59885    85.542355 
   81400    817.93612   -110.41693   0.74008579   -109.67684   -8973.0324    4.4084426    4.4084426    4.4084426   -8973.0324   -33680.578    -1190.152    7951.6326     15166.71   -2761.8958   -2945.1689    85.675291 
   81500    821.91108   -110.41862   0.74368242   -109.67494    12459.899    4.4008144    4.4008144    4.4008144    12459.899    11730.072    20351.739    5297.8872   -3647.6274    920.92906    3465.9004    85.231307 
   81600    696.03114   -110.31034    0.6297836   -109.68056   -5759.1998    4.4088546    4.4088546    4.4088546   -5759.1998   -8450.3443    5484.1258   -14311.381    -3256.592   -4396.8445   -3695.2819    85.699312 
   81700     863.2496   -110.45992   0.78108638   -109.67883    3577.3003    4.4061476    4.4061476    4.4061476    3577.3003    5673.0192    791.45121    4267.4305    12696.395    1660.0041    -4579.157    85.541553 
   81800    1145.2801   -110.71177    1.0362735   -109.67549    6968.2884    4.4009082    4.4009082    4.4009082    6968.2884    24264.622    7134.9986   -10494.756   -7634.3835   -2058.5551    6258.9009     85.23676 
   81900    772.50474   -110.37935   0.69897852   -109.68037   -13998.058    4.4115849    4.4115849    4.4115849   -13998.058   -4927.2811   -11612.464   -25454.428    2794.5949   -4675.1768   -2985.0001    85.858625 
   82000     783.6463   -110.38668   0.70905964   -109.67762   -4965.8431    4.4028819    4.4028819    4.4028819   -4965.8431   -5640.3872   -7351.1925   -1905.9496    8465.5256    1274.1814   -2630.0369    85.351488 
   82100    874.45129   -110.46698   0.79122191   -109.67576    7726.6113    4.4032032    4.4032032    4.4032032    7726.6113   -3237.9312    13138.988    13278.777   -7899.4639   -2036.4065    2083.6915    85.370177 
   82200    447.81317   -110.08485   0.40519076   -109.67965   -2493.9916    4.4105728    4.4105728    4.4105728   -2493.9916   -20885.671    5176.5161    8227.1803    7151.8593   -1203.5266    -5246.479    85.799546 
   82300     551.4432   -110.17766    0.4989574    -109.6787   -2421.7045    4.4006825    4.4006825    4.4006825   -2421.7045   -22235.698    4968.5663    10002.018     8070.035   -607.20587    1412.1599    85.223644 
   82400    844.98833   -110.44191    0.7645632   -109.67735   -3026.2012    4.4076793    4.4076793    4.4076793   -3026.2012   -23604.386    6137.8818    8387.9007   -3435.5271   -881.39161    1586.9573    85.630795 
   82500    897.65238   -110.49053   0.81221474   -109.67832   -5244.3698     4.407392     4.407392     4.407392   -5244.3698   -1927.9916    1951.0198   -15756.138    5474.1996   -1067.3727   -7194.2326     85.61405 
   82600    845.72801   -110.44496   0.76523248   -109.67972    6018.1915    4.3994434    4.3994434    4.3994434    6018.1915     32489.46    8470.3997   -22905.286    5325.1279    -792.7381   -540.37819    85.151678 
   82700    1263.2643   -110.81863    1.1430281    -109.6756   -9409.9989    4.4118942    4.4118942    4.4118942   -9409.9989    4483.5932   -2842.4489   -29871.141    1124.7675    1548.7399     2342.799    85.876684 
   82800    880.46887   -110.47427   0.79666674    -109.6776    8522.1948    4.4046168    4.4046168    4.4046168    8522.1948    9275.8255    11609.387    4681.3718    7452.7612   -2765.1583    -2840.225    85.452427 
   82900    585.50985    -110.2089   0.52978162   -109.67912    6964.0251    4.3996425    4.3996425    4.3996425    6964.0251     2312.507    9928.7433     8650.825    3664.4312    762.71265   -1061.6946    85.163237 
   83000    744.19242   -110.34947   0.67336094   -109.67611   -15209.347    4.4123226    4.4123226    4.4123226   -15209.347   -45094.602    2375.0216   -2908.4611   -3113.3054    1720.2618    1204.7137    85.901702 
   83100    542.99209   -110.16816   0.49131066   -109.67685   -432.34702    4.4032517    4.4032517    4.4032517   -432.34702   -37174.085    15694.082    20182.962     5652.648   -2811.5522   -2072.6293    85.372997 
   83200     483.5349   -110.11796   0.43751254   -109.68045    3212.4466    4.4028188    4.4028188    4.4028188    3212.4466    3747.8958    11921.402   -6031.9584    9957.7558    2002.9095    311.41844    85.347819 
   83300    924.19028   -110.51319   0.83622679   -109.67696   -4311.2751    4.4099532    4.4099532    4.4099532   -4311.2751    8488.7626   -3390.4397   -18032.148   -3616.4082   -760.37105    3702.7833    85.763392 
   83400    1056.8274   -110.63209   0.95623963   -109.67585   -131.25632    4.4030257    4.4030257    4.4030257   -131.25632    13493.537   -768.09415   -13119.212    522.33043    348.81902   -3810.4425    85.359853 
   83500     867.1861   -110.46585    0.7846482    -109.6812    3131.6411    4.4058345    4.4058345    4.4058345    3131.6411    28275.376   -7091.0206   -11789.432    3818.2044     932.7837   -1178.9807    85.523315 
   83600     1069.228   -110.64458   0.96745997   -109.67712    2878.5841    4.4058734    4.4058734    4.4058734    2878.5841    5154.3213    7610.1031    -4128.672   -2574.6554   -3675.5251    6069.0238    85.525582 
   83700    894.57917   -110.48555   0.80943404   -109.67612   -3802.0739    4.4050061    4.4050061    4.4050061   -3802.0739   -20739.485    8813.5195    519.74378    6666.1043    1513.3448   -2468.9788    85.475084 
   83800    460.97278    -110.0973   0.41709786    -109.6802   -6691.6788    4.4079769    4.4079769    4.4079769   -6691.6788   -21024.814    7575.4205   -6625.6432   -2207.7898   -693.57728   -933.50392    85.648137 
   83900    609.98619   -110.22919   0.55192832   -109.67726    5393.8924    4.4020709    4.4020709    4.4020709    5393.8924   -10346.407    16492.563    10035.522   -10494.223   -1073.4021    3997.3062    85.304336 
   84000    672.92634   -110.28496   0.60887789   -109.67608   -1416.9406    4.4068717    4.4068717    4.4068717   -1416.9406   -15548.967    2352.1761    8945.9687    7149.0819    289.66654   -3891.9677    85.583733 
   84100    646.92101   -110.26463   0.58534772   -109.67928   -11321.284    4.4078991    4.4078991    4.4078991   -11321.284   -4365.4255   -11390.605   -18207.821    2443.7243    -1566.264    3.7068399    85.643602 
   84200    858.22135   -110.45599   0.77653672   -109.67945     11653.95    4.4018552    4.4018552    4.4018552     11653.95     14196.74    10026.083    10739.026   -8685.6611    1819.1117    3975.8886    85.291798 
   84300    1216.7566   -110.77594     1.100947     -109.675    2562.4253    4.4073052    4.4073052    4.4073052    2562.4253    14531.695    536.64096   -7381.0598    557.62448   -3261.2404   -5574.2418    85.608992 
   84400    866.85065   -110.46418   0.78434468   -109.67984    -4321.663    4.4056668    4.4056668    4.4056668    -4321.663    12119.293   -2743.3492   -22340.933   -577.73233   -1716.0888    204.87435    85.513552 
   84500    798.19874   -110.40266     0.722227   -109.68043   -1311.6734    4.4046238    4.4046238    4.4046238   -1311.6734   -4686.1091    5607.4993   -4856.4102    -5986.047    1856.4414    4803.8932    85.452832 
   84600    907.09823   -110.49499   0.82076154   -109.67422    5136.9075    4.4065663    4.4065663    4.4065663    5136.9075   -10547.954    19302.107    6656.5699   -3.8881916   -2645.3959   -4773.6078    85.565939 
   84700    492.71417   -110.12524   0.44581813   -109.67942   -931.41766    4.4042722    4.4042722    4.4042722   -931.41766   -21762.123    13850.738    5117.1321   -5586.8395    2231.2122    3108.2659    85.432372 
   84800    521.27237   -110.15294   0.47165819   -109.68128   -9077.9459    4.4061515    4.4061515    4.4061515   -9077.9459   -36422.256    4750.8185    4437.5998   -12685.708   -1031.0381    3429.2714     85.54178 
   84900    884.85128   -110.47628   0.80063203   -109.67564    6441.9292    4.4054285    4.4054285    4.4054285    6441.9292   -12245.684     17783.04    13788.432    2023.0906   -647.49111   -2400.5757    85.499677 
   85000    839.36549   -110.43832   0.75947553   -109.67884    -2836.317    4.4054704    4.4054704    4.4054704    -2836.317    16646.242   -15811.466   -9343.7273    1083.1812    2385.0794     4568.806    85.502115 
   85100    809.19332   -110.41246   0.73217512   -109.68029   -5481.6231    4.4058742    4.4058742    4.4058742   -5481.6231    15562.015    -23241.93   -8764.9542    -11516.61   -2414.8169    1326.9619    85.525629 
   85200    1181.2679   -110.74355     1.068836   -109.67471    2857.4072    4.4056474    4.4056474    4.4056474    2857.4072    10264.069    6853.0962   -8544.9438    1814.7912   -185.02204    902.95394     85.51242 
   85300    797.12316   -110.40021   0.72125379   -109.67896     8523.249    4.4057491    4.4057491    4.4057491     8523.249    9873.2212    17360.864   -1664.3385   -1920.3129   -207.47017    3584.2348    85.518343 
   85400    615.45606     -110.237   0.55687757   -109.68012    85.260299    4.4035138    4.4035138    4.4035138    85.260299   -20270.783    13209.952    7316.6112   -6394.7474   -599.06386    1071.1667    85.388246 
   85500     732.3326   -110.33914   0.66262993   -109.67651    -5338.942    4.4082055    4.4082055    4.4082055    -5338.942   -45029.552    26711.717    2301.0092    7621.0245   -863.49285    2619.1391    85.661462 
   85600     670.1958    -110.2827   0.60640724    -109.6763   -5978.3981    4.4066899    4.4066899    4.4066899   -5978.3981   -27477.972    9323.6985    219.07931   -9088.0723   -287.25879    268.81445    85.573143 
   85700     592.2349   -110.21423   0.53586658   -109.67836    2538.3613     4.402109     4.402109     4.402109    2538.3613    4428.8041   -1681.5662    4867.8459   -7256.6354     310.8858    3608.0956    85.306551 
   85800    943.49105   -110.53087   0.85369053   -109.67718    -1528.717    4.4076776    4.4076776    4.4076776    -1528.717    982.81839   -9662.2806    4093.3112    12410.937   -3166.5454    961.29654    85.630692 
   85900    996.02149   -110.57754   0.90122118   -109.67632    8380.9293    4.4059468    4.4059468    4.4059468    8380.9293    16813.713    9415.7097   -1086.6346   -4582.8687    2801.2119   -90.301173    85.529857 
   86000    824.11804   -110.42465   0.74567932   -109.67897    3296.5857    4.4042223    4.4042223    4.4042223    3296.5857    15359.638   -6459.6934    989.81205   -2886.8828   -2229.5333    6396.1858    85.429465 
   86100    888.38359   -110.48085   0.80382814   -109.67702   -5353.2032    4.4070489    4.4070489    4.4070489   -5353.2032   -12820.167   -6288.7699    3049.3277    12390.567   -5761.8937   -2375.9593    85.594057 
   86200    907.12495   -110.49512   0.82078571   -109.67433   -6359.4604    4.4058072    4.4058072    4.4058072   -6359.4604   -23046.867     8899.805   -4931.3191   -4520.1557    3187.2651    3011.6592     85.52173 
   86300    566.90616   -110.19225   0.51294861    -109.6793   -6018.6815    4.4052038    4.4052038    4.4052038   -6018.6815    -27492.44     14798.41   -5362.0144    3061.3316   -3805.5166    6505.2557    85.486596 
   86400    680.53008   -110.29459   0.61575791   -109.67883    3800.9935    4.4049519    4.4049519    4.4049519    3800.9935   -5845.4231    12919.238    4329.1654    12803.743   -2093.7548   -3541.4124    85.471928 
   86500    899.38472   -110.48877    0.8137822   -109.67499    6214.9741    4.4069803    4.4069803    4.4069803    6214.9741   -456.54529    16702.566    2398.9016   -8388.5748    3054.2321    2967.9843    85.590058 
   86600    634.80299   -110.25347   0.57438309   -109.67909   -953.61637    4.4059917    4.4059917    4.4059917   -953.61637   -5657.8372    2227.0361    569.95203    4903.3571   -5516.2721    4939.0004    85.532473 
   86700    819.51053   -110.42035   0.74151035   -109.67884   -3075.8738    4.4033717    4.4033717    4.4033717   -3075.8738    7341.3116   -23053.226    6484.2931     10716.22    586.44137   -3243.3126    85.379979 
   86800    1062.8742   -110.63725   0.96171093   -109.67554   -2570.5565    4.4067083    4.4067083    4.4067083   -2570.5565    10869.086   -18654.955     74.19942   -7730.9779    1847.8178    1202.9906    85.574213 
   86900    768.79107   -110.37528   0.69561832   -109.67967   -1732.2711    4.4071357    4.4071357    4.4071357   -1732.2711    -9598.817    5030.4512   -628.44741    9333.8374   -3990.1385    4049.4585    85.599115 
   87000    836.55134   -110.43524   0.75692923   -109.67831    3738.8102    4.4046956    4.4046956    4.4046956    3738.8102   -7855.6307    20390.762   -1318.7002    4567.8839    181.84961   -6153.6876     85.45701 
   87100    967.37112   -110.54968   0.87529772   -109.67438    10815.861    4.4055798    4.4055798    4.4055798    10815.861    12274.617    25415.069   -5242.1036   -3888.2869   -830.39058   -86.338732    85.508489 
   87200    662.03388   -110.27745   0.59902217   -109.67843   -1709.5499    4.4067312    4.4067312    4.4067312   -1709.5499   -21816.847    22120.655   -5432.4578    10310.458   -1021.6894    6340.6003    85.575548 
   87300    538.80256   -110.16739   0.48751988   -109.67987   -6911.3905    4.4036731    4.4036731    4.4036731   -6911.3905   -16938.649   -264.91151   -3530.6109    1844.6827    249.04399   -10005.839    85.397514 
   87400    804.14749    -110.4036   0.72760955   -109.67599    -7646.929    4.4063391    4.4063391    4.4063391    -7646.929   -3184.2239   -14829.962   -4926.6013    1492.6367    578.42709   -1594.9127    85.552704 
   87500    664.97315   -110.27961   0.60168168   -109.67793    -4276.033    4.4089222    4.4089222    4.4089222    -4276.033    6404.1708   -20802.804    1570.5339    4958.5091    -2086.856    5055.1266    85.703253 
   87600    679.30296    -110.2934   0.61464759   -109.67875    8669.9938    4.4016358    4.4016358    4.4016358    8669.9938     19614.51   -2981.8159    9377.2875   -314.68296   -1196.4249   -10541.359    85.279041 
   87700    1169.2312   -110.73303    1.0579449   -109.67509   -1182.0842    4.4070382    4.4070382    4.4070382   -1182.0842    5991.7567   -7499.4131   -2038.5962    4279.5442    2891.0363   -1086.5734     85.59343 
   87800    977.91891   -110.56302   0.88484158   -109.67817   -268.81178     4.407832     4.407832     4.407832   -268.81178    4429.6965   -368.15704   -4867.9747    3002.8581   -4101.0685   -57.991251    85.639693 
   87900    862.03924    -110.4598   0.77999122   -109.67981    972.26212    4.4004906    4.4004906    4.4004906    972.26212   -3526.6865    14948.055   -8504.5825     1117.455   -686.65942   -12898.711    85.212497 
   88000    955.78942   -110.54096   0.86481835   -109.67615   -5787.2234    4.4096754    4.4096754    4.4096754   -5787.2234   -16739.743    15310.645   -15932.572   -2150.2951    1492.4863    878.65361    85.747183 
   88100    711.93928   -110.32206   0.64417762   -109.67788   -6324.1558     4.405464     4.405464     4.405464   -6324.1558   -14126.288    4131.9015   -8978.0813    1092.0249   -3698.0008   -1496.2442    85.501742 
   88200    251.83972   -109.91002   0.22786987   -109.68215    13211.574    4.4015879    4.4015879    4.4015879    13211.574    27083.369    13613.792   -1062.4388    5359.4934    1640.0198   -17171.979    85.276257 
   88300     754.9203   -110.35887   0.68306775   -109.67581   -6731.6081    4.4106697    4.4106697    4.4106697   -6731.6081    317.88808   -17119.421   -3393.2912   -5555.2486    -1837.634   -598.03071    85.805201 
   88400    699.08204   -110.30908   0.63254412   -109.67654   -3211.3052    4.4025196    4.4025196    4.4025196   -3211.3052    634.15652   -20168.616    9900.5443    1231.9856   -559.82888   -4207.5093    85.330421 
   88500    710.46917   -110.32555   0.64284744   -109.68271   -4501.7733    4.4060796    4.4060796    4.4060796   -4501.7733    2285.5884   -14636.723   -1154.1854    1177.0789   -251.96883   -13838.211    85.537594 
   88600    1251.6867   -110.80922    1.1325524   -109.67667    2255.4428    4.4076138    4.4076138    4.4076138    2255.4428   -6510.8055    16984.159   -3707.0251    -6331.225   -2427.2894    3530.8171    85.626973 
   88700    1112.7325   -110.68434    1.0068238   -109.67751     9734.309    4.4007697    4.4007697    4.4007697     9734.309     5606.095    23202.549     394.2829    5621.4881    2413.1419   -11534.041     85.22871 
   88800    879.34831   -110.47715   0.79565283    -109.6815    -4716.855    4.4108266    4.4108266    4.4108266    -4716.855   -7559.5777    11514.831   -18105.818   -2182.6874   -2502.6219   -11736.007    85.814356 
   88900    898.64335   -110.48778   0.81311139   -109.67467    6998.9883    4.4042454    4.4042454    4.4042454    6998.9883    9484.7003    14397.677   -2885.4127   -6299.6953    1236.7439    9463.7872    85.430808 
   89000    522.46647   -110.14975   0.47273864   -109.67701   -3738.0254    4.4023149    4.4023149    4.4023149   -3738.0254    6493.0601   -14732.515   -2974.6216     5668.974    3041.9751   -11911.464    85.318521 
   89100    373.66312   -110.01716   0.33809824   -109.67906   -18011.319    4.4113499    4.4113499    4.4113499   -18011.319    -12451.14    -36205.93   -5376.8869   -1729.4853   -3372.2131   -9664.9314    85.844904 
   89200    571.78095   -110.19298   0.51735942   -109.67562    10953.883    4.4011156    4.4011156    4.4011156    10953.883   -6068.3375    10868.073    28061.914   -614.97857    4001.0289    6740.5955    85.248811 
   89300    689.83592   -110.30283   0.62417804   -109.67866    393.15681    4.4058418    4.4058418    4.4058418    393.15681    429.14341   -5251.9198    6002.2468    1088.3667     1015.595   -11949.477    85.523745 
   89400    889.01661   -110.48351   0.80440091   -109.67911   -3653.4309    4.4092537    4.4092537    4.4092537   -3653.4309   -889.11535   -10047.711   -23.466718   -2650.4015   -3654.9106   -6394.9893    85.722586 
   89500    1272.1966   -110.82588    1.1511102   -109.67477    5249.0033    4.4011431    4.4011431    4.4011431    5249.0033   -7644.2151    14775.189    8616.0357    164.49417     6183.901    5673.6267    85.250406 
   89600    1062.0136   -110.64001   0.96093221   -109.67907   -4408.8208    4.4076563    4.4076563    4.4076563   -4408.8208   -4434.0186     10094.59   -18887.033   -508.61357    3298.2628   -8419.8695    85.629455 
   89700    971.81939   -110.55761    0.8793226   -109.67828    -3848.591    4.4056089    4.4056089    4.4056089    -3848.591   -2913.9658    2722.9909   -11354.798    1495.2428   -3961.2325   -7069.9993    85.510182 
   89800    860.40464   -110.45512    0.7785122   -109.67661    3116.3066    4.4043099    4.4043099    4.4043099    3116.3066   -2752.2276    7320.6129    4780.5346   -1874.7288    3657.1407    4034.1033    85.434565 
   89900    386.64033   -110.02921   0.34984029   -109.67937    1737.0814    4.4073495    4.4073495    4.4073495    1737.0814   -2910.7515     8786.246   -664.25031   -838.37332    4245.5915   -4993.8157    85.611574 
   90000    481.19642   -110.11236   0.43539664   -109.67696   -4901.6463    4.4033788    4.4033788    4.4033788   -4901.6463   -5337.7504   -19328.835    9961.6463    3363.2713   -3747.1692   -5476.6679    85.380389 
   90100    574.72925   -110.19696   0.52002711   -109.67694   -5228.9039    4.4073104    4.4073104    4.4073104   -5228.9039    299.33097   -27526.061    11540.018    -1545.735    2236.9114    3121.4355    85.609292 
   90200    713.39525   -110.32414   0.64549501   -109.67864   -4134.5481    4.4045405    4.4045405    4.4045405   -4134.5481   -10250.794   -3132.9446    980.09388    638.61087    2273.8144   -7174.7603    85.447982 
   90300    886.37425   -110.48179   0.80201005   -109.67978    3292.6752    4.4045744    4.4045744    4.4045744    3292.6752   -22995.442    26772.197    6101.2699   -2474.6333   -6867.5367   -2045.8109    85.449957 
   90400    1273.0565   -110.82739    1.1518883    -109.6755   -6275.8071    4.4091401    4.4091401    4.4091401   -6275.8071   -18709.861    7581.0529   -7698.6136   -2566.4817    2493.5357    6767.1477    85.715959 
   90500    998.91834   -110.58211   0.90384231   -109.67827    7535.6636    4.4019763    4.4019763    4.4019763    7535.6636    3649.1913    21917.035   -2959.2351    4673.4215    2613.9185   -8244.0699    85.298835 
   90600    842.93182   -110.44254   0.76270242   -109.67984    686.17574    4.4060694    4.4060694    4.4060694    686.17574   -3538.3431    7341.8599   -1744.9896   -612.97238    -11635.79   -2189.1984    85.536999 
   90700    916.96761   -110.50519   0.82969156    -109.6755   -9001.9536     4.407252     4.407252     4.407252   -9001.9536   -1198.0897    -23926.16   -1881.6113   -3352.1915    798.22175    4293.6378    85.605889 
   90800    440.33484   -110.07805   0.39842421   -109.67962   -338.78484    4.4036828    4.4036828    4.4036828   -338.78484    16292.797   -24247.481    6938.3292    693.17925    1938.0812   -5470.5134    85.398073 
   90900    461.52023   -110.09696    0.4175932   -109.67937   -6435.8058    4.4081216    4.4081216    4.4081216   -6435.8058   -18439.656   -11845.475    10977.714    1108.5853   -14749.863     1006.455    85.656574 
   91000    784.08945   -110.38422   0.70946062   -109.67476     4260.428    4.4032131    4.4032131    4.4032131     4260.428   -22012.799    11953.009    22841.073    -1333.093    1469.5249    1270.0417    85.370752 
   91100    744.07857   -110.35241   0.67325793   -109.67915   -8266.6235    4.4058995    4.4058995    4.4058995   -8266.6235   -29393.431    647.80026    3945.7599   -1315.4244   -2065.8557    -6003.632    85.527102 
   91200    758.62585   -110.36797   0.68642061   -109.68155   -2501.1295     4.408357     4.408357     4.408357   -2501.1295   -15071.816     6685.146    883.28185    -554.1661   -16194.667     231.3747    85.670295 
   91300    1226.2796   -110.78344    1.1095635   -109.67388    11080.144    4.4012764    4.4012764    4.4012764    11080.144    16317.677    13912.352    3010.4018    644.85617    4642.8873   -724.35885    85.258156 
   91400    917.83982   -110.50937   0.83048076   -109.67889   -9613.2151    4.4086877    4.4086877    4.4086877   -9613.2151   -4883.1865   -1652.3328   -22304.126    2058.5817    -5636.299   -3348.9988     85.68958 
   91500    640.22258   -110.25996   0.57928684   -109.68067   -4800.5123    4.4072362    4.4072362    4.4072362   -4800.5123    5303.8058   -9378.6453   -10326.697   -3073.9534   -13726.974   -846.46599    85.604973 
   91600    1063.4353    -110.6356   0.96221861   -109.67338    6230.4527    4.4010271    4.4010271    4.4010271    6230.4527    7317.3201   -5139.4494    16513.488   -2512.3948    6786.0821   -2275.3637    85.243666 
   91700    607.88857   -110.22938   0.55003036   -109.67935   -5033.7433    4.4093845    4.4093845    4.4093845   -5033.7433   -23210.447    477.13311    7632.0844    4088.3421   -11347.657    -1803.371    85.730217 
   91800    551.35426    -110.1794   0.49887692   -109.68052   -8430.0566    4.4056606    4.4056606    4.4056606   -8430.0566   -33561.197   -7283.8088    15554.836   -1225.1072   -9423.4897    -90.54641    85.513192 
   91900    909.18271   -110.49773   0.82264763   -109.67508    9102.0663    4.4032538    4.4032538    4.4032538    9102.0663    8966.5213   -3337.9606    21677.638   -2948.9007     7514.565    572.71864    85.373119 
   92000    706.59431   -110.31759   0.63934138   -109.67825   -2619.3093    4.4082952    4.4082952    4.4082952   -2619.3093   -3854.1491    4382.9504   -8386.7292    1157.3628    -14292.18   -799.56765    85.666697 
   92100    588.33554   -110.21271   0.53233836   -109.68037   -6781.2855    4.4048686    4.4048686    4.4048686   -6781.2855   -13760.798    10892.278   -17475.337   -1535.2853    -5942.224   -3967.8329    85.467079 
   92200    930.91088   -110.51727   0.84230772   -109.67497   -749.37626    4.4064432    4.4064432    4.4064432   -749.37626    7514.2324    6155.7654   -15918.127    1060.2191     3921.971    1471.2018    85.558772 
   92300    879.83044   -110.47268   0.79608908   -109.67659   -2675.6988    4.4062582    4.4062582    4.4062582   -2675.6988    2112.4234    2909.2825   -13048.802    160.31031    -13775.95     805.7536    85.547996 
   92400    719.11979   -110.33056   0.65067469   -109.67989    2401.0586    4.4036922    4.4036922    4.4036922    2401.0586    52.837833    7443.9886   -293.65072   -4493.7385    741.02491   -3289.5436    85.398621 
   92500    1166.2564    -110.7313    1.0552533   -109.67605   -5468.8368    4.4077158    4.4077158    4.4077158   -5468.8368   -12365.631   -9706.0306    5665.1509   -65.578587    3638.7492    3077.8928    85.632918 
   92600    940.39562   -110.52842   0.85088972   -109.67753     6201.782     4.404748     4.404748     4.404748     6201.782    3829.4737    -1667.272    16443.144    2604.6396   -13263.396   -2210.8873    85.460062 
   92700    733.65315   -110.34282   0.66382479     -109.679   -3763.7055     4.404684     4.404684     4.404684   -3763.7055   -16506.769   -2833.4936    8049.1457   -2341.2943    2577.5304   -1878.8241    85.456336 
   92800    717.37856   -110.32542    0.6490992   -109.67632   -9577.7213    4.4083263    4.4083263    4.4083263   -9577.7213   -24069.138    6188.9963   -10853.023   -3913.4053    8869.4057    7142.3016     85.66851 
   92900    557.59658   -110.18024    0.5045251   -109.67571   -451.62494    4.4035887    4.4035887    4.4035887   -451.62494   -5744.3341    19105.339    -14715.88    2100.8414   -10247.286   -5373.4304      85.3926 
   93000    407.22182   -110.04732   0.36846286   -109.67886   -3848.6489    4.4055806    4.4055806    4.4055806   -3848.6489    7751.5236     7231.054   -26528.524    -193.5841   -326.65426   -2261.3285    85.508531 
   93100    678.85536   -110.29226   0.61424259   -109.67802    -3867.109    4.4074453    4.4074453    4.4074453    -3867.109    9057.7468    8559.1409   -29218.215   -4206.9266     9255.146    3395.8943    85.617153 
   93200    1104.2213   -110.67443   0.99912262   -109.67531   -1537.1744    4.4038136    4.4038136    4.4038136   -1537.1744    3991.5944    374.95005   -8978.0677    3219.3641   -6434.4164   -4323.5903    85.405685 
   93300    954.02019   -110.54325   0.86321752   -109.68004    4554.3676    4.4058585    4.4058585    4.4058585    4554.3676    -1900.979    1769.2718     13794.81    -2099.068    2222.4634     2002.257    85.524713 
   93400    1213.7424   -110.77577    1.0982196   -109.67755   -1832.6245    4.4060063    4.4060063    4.4060063   -1832.6245   -15258.727   -5053.7287    14814.582    -4995.798    7916.4835    -1404.409    85.533324 
   93500    1084.8102   -110.65703   0.98155909   -109.67547    916.31466    4.4053003    4.4053003    4.4053003    916.31466   -11690.412    231.05779    14208.298    4956.0265   -7098.8636   -4953.7796    85.492214 
   93600    574.18656   -110.19966   0.51953607   -109.68012   -5726.2904    4.4064087    4.4064087    4.4064087   -5726.2904   -19938.708    5537.2594   -2777.4226   -2131.8639    10110.755     2763.363    85.556761 
   93700    459.39528   -110.09416   0.41567051   -109.67849    -259.0809    4.4047411    4.4047411    4.4047411    -259.0809    10205.614    14389.029   -25371.886    -5641.033    9948.4971    38.937543    85.459661 
   93800    630.18307   -110.24505   0.57020289   -109.67484   -320.89984    4.4049303    4.4049303    4.4049303   -320.89984    12633.404    16866.672   -30462.775    2526.1712   -7205.1744    941.34611    85.470671 
   93900    483.54987   -110.11766   0.43752608   -109.68014   -4120.1699    4.4068682    4.4068682    4.4068682   -4120.1699   -10128.973    10482.059   -12713.596    -728.1457    10800.003   -2544.1856    85.583526 
   94000    782.89861   -110.38824   0.70838312   -109.67986     6726.971    4.4059649    4.4059649    4.4059649     6726.971   -432.63321     13474.97    7138.5763   -6384.1852    5354.8767    157.52073    85.530909 
   94100    1295.7974   -110.84594    1.1724647   -109.67348    703.27846    4.4042696    4.4042696    4.4042696    703.27846    681.66705   -10485.775    11913.943     1428.323   -5004.4837    4361.4788    85.432216 
   94200    804.28529   -110.40851   0.72773423   -109.68078    -4308.465    4.4067295    4.4067295    4.4067295    -4308.465   -10685.631   -19453.759    17213.995   -2162.3551    10832.209   -882.57897    85.575446 
   94300     951.7758   -110.53987   0.86118675   -109.67868   -6428.0729    4.4063272    4.4063272    4.4063272   -6428.0729   -10442.524   -17591.535    8749.8397   -9454.0007    2304.4635    4503.1715    85.552013 
   94400    922.02513    -110.5087   0.83426772   -109.67443    10210.942    4.4035301    4.4035301    4.4035301    10210.942    16328.569    15242.773   -938.51667    4240.1406   -2142.9942   -2936.5518    85.389193 
   94500    553.85241   -110.18167    0.5011373   -109.68053   -4921.4905    4.4077046    4.4077046    4.4077046   -4921.4905   -11956.025    12779.354     -15587.8   -3009.1369    11732.213   -2263.5563    85.632265 
   94600    623.08161   -110.24296   0.56377734   -109.67918    12.512421    4.4059397    4.4059397    4.4059397    12.512421   -14363.088    17973.706   -3573.0808   -9909.8444    984.07319      6549.62    85.529447 
   94700    978.53785   -110.55928   0.88540161   -109.67388    2845.8099    4.4035977    4.4035977    4.4035977    2845.8099   -4754.2601    20132.342   -6840.6527    4238.0205   -1006.7689   -5423.5582    85.393126 
   94800    644.28257   -110.26292   0.58296041   -109.67996   -8996.8905     4.408235     4.408235     4.408235   -8996.8905      -8763.2   -5645.9449   -12581.526   -5713.7392    11872.216    233.83799    85.663183 
   94900    728.56116   -110.33771   0.65921745    -109.6785   -2039.8422    4.4050681    4.4050681    4.4050681   -2039.8422    7412.4584   -20628.559    7096.5734   -5921.8238   -2352.7327   -527.80369    85.478694 
   95000    981.43473   -110.56195   0.88802277   -109.67393    2817.8283    4.4050606    4.4050606    4.4050606    2817.8283    7423.4203   -13915.774    14945.838    1840.6029   -1860.9516   -3963.5086    85.478257 
   95100     542.9669   -110.17095   0.49128786   -109.67966     4188.447    4.4070065    4.4070065    4.4070065     4188.447    6730.6864   -5088.3072    10922.962   -8547.4216    13322.649    5229.8985    85.591587 
   95200     781.3657   -110.38563   0.70699611   -109.67863   -1531.5853     4.403778     4.403778     4.403778   -1531.5853   -2916.2425   -10607.891    8929.3781   -4701.5988   -2874.1908   -2295.8778    85.403615 
   95300     998.8595   -110.57923   0.90378906   -109.67545   -1909.7717    4.4073514    4.4073514    4.4073514   -1909.7717    -8452.919    1672.0424    1051.5616    3144.3768   -2447.6308   -508.83604    85.611681 
   95400    908.24656   -110.50043   0.82180057   -109.67863   -7069.6724    4.4067428    4.4067428    4.4067428   -7069.6724   -26922.079    15033.987   -9320.9254   -5813.9667    11453.704    2199.9189    85.576223 
   95500    890.63853    -110.4838   0.80586846   -109.67794    5604.7427    4.4033633    4.4033633    4.4033633    5604.7427    -1693.544    23531.952     -5024.18   -7248.6711   -3214.5105    211.17895    85.379491 
   95600    1015.6431   -110.59386   0.91897524   -109.67489    1947.4171    4.4075399    4.4075399    4.4075399    1947.4171    5680.7824    4569.2483   -4407.7795    2688.1791   -3726.4124    4849.2032    85.622667 
   95700    580.69471   -110.20402   0.52542477   -109.67859    2656.7648    4.4058881    4.4058881    4.4058881    2656.7648   -6409.7256    2422.0066    11958.013   -6357.8147    9268.1901   -1817.6237    85.526437 
   95800    489.61582   -110.12113   0.44301468   -109.67811    643.85809    4.4045575    4.4045575    4.4045575    643.85809    7531.2798   -14028.803     8429.097   -6639.0345   -6135.0315    170.82138    85.448972 
   95900     697.8206   -110.30617   0.63140274   -109.67476   -10380.892    4.4077552    4.4077552    4.4077552   -10380.892    8042.6188   -41724.291    2538.9973    1233.5453    -5770.384    519.53833    85.635219 
   96000    608.26702   -110.22779   0.55037279   -109.67742   -6100.3271    4.4050578    4.4050578    4.4050578   -6100.3271   -166.01286   -24274.863    6139.8948   -11871.056    12202.336    183.61017    85.478097 
   96100    845.71299   -110.44413   0.76521889   -109.67891    908.37668    4.4049194    4.4049194    4.4049194    908.37668   -12467.498    15057.513    135.11542   -1772.5697   -8092.3523    4653.8485    85.470037 
   96200    1121.2778   -110.69041    1.0145557   -109.67585    8134.7702    4.4066325    4.4066325    4.4066325    8134.7702    6536.7432    21386.688   -3519.1206     4468.357   -8313.7756    -5629.192    85.569796 
   96300    1028.2536   -110.60772   0.93038547   -109.67733    1203.3026    4.4056115    4.4056115    4.4056115    1203.3026   -13360.768    18172.378   -1201.7018   -12944.842    11699.837   -2411.0275    85.510332 
   96400    860.46967   -110.45647   0.77857104    -109.6779   -2084.9436    4.4061329    4.4061329    4.4061329   -2084.9436   -21175.315    20853.451   -5932.9668   -672.23179    -8947.067    3169.1468    85.540698 
   96500     878.8924   -110.47028   0.79524031   -109.67504   -5592.6337     4.405182     4.405182     4.405182   -5592.6337   -4972.9206   -16380.465    4575.4848     2312.719   -5214.2089   -1388.0315    85.485327 
   96600    595.21132   -110.21614   0.53855971   -109.67758   -7673.2581    4.4055432    4.4055432    4.4055432   -7673.2581    6047.4021   -39246.401    10179.225    -7842.663    8310.8201    2029.8166    85.506353 
   96700    546.27314   -110.17217   0.49427942   -109.67789    -3308.841    4.4066206    4.4066206    4.4066206    -3308.841    8898.4915    -21385.33    2560.3153    519.08921   -10618.251   -4293.6396    85.569104 
   96800    751.76827   -110.35576   0.68021573   -109.67554    4830.7047    4.4047834    4.4047834    4.4047834    4830.7047    8198.6567   -7264.8329     13558.29   -1024.4272   -772.11701    185.46011    85.462123 
   96900    729.12194   -110.33699   0.65972486   -109.67727    1388.7955    4.4056953    4.4056953    4.4056953    1388.7955    10299.194    -3858.275   -2274.5327   -7829.4236    7234.4082    7163.4995    85.515211 
   97000    861.02639   -110.45626   0.77907477   -109.67719   -7351.7216    4.4060252    4.4060252    4.4060252   -7351.7216   -16952.603    15156.933   -20259.495    2375.0941   -7317.8532   -1742.1005    85.534426 
   97100    947.74671   -110.53388   0.85754114   -109.67634    -4569.937    4.4053513    4.4053513    4.4053513    -4569.937   -21629.586      12329.2   -4409.4248    2718.8116   -3651.1391    -815.9177    85.495181 
   97200    846.42972   -110.44317    0.7658674   -109.67731   -2039.4394    4.4061988    4.4061988    4.4061988   -2039.4394   -15295.917     2351.308    6826.2911   -9573.1637    5864.4657   -108.13063    85.544533 
   97300    809.31151   -110.40878   0.73228206   -109.67649    2052.2192    4.4052524    4.4052524    4.4052524    2052.2192    7226.5292   -1559.2526    489.38107   -69.898652   -920.65691    3265.6323    85.489421 
   97400    809.27787    -110.4086   0.73225162   -109.67635    1437.6709    4.4057344    4.4057344    4.4057344    1437.6709     7317.401   -17965.065    14960.676     6893.019   -6160.7827    1618.4822    85.517489 
   97500    772.18695   -110.37625   0.69869098   -109.67756    797.93906     4.405977     4.405977     4.405977    797.93906    8099.2503   -19074.628    13369.195   -7648.5824    8070.7159   -5566.9793    85.531617 
   97600    824.49332   -110.42262   0.74601889    -109.6766    360.33213    4.4044283    4.4044283    4.4044283    360.33213    6493.0672    -12265.04    6852.9689    471.56247      759.604    495.50343    85.441455 
   97700    851.39358   -110.44705   0.77035881   -109.67669   -6190.9569    4.4063627    4.4063627    4.4063627   -6190.9569    -400.6953   -19893.874    1721.6982     5407.015    -5198.979   -351.04336     85.55408 
   97800    737.57565   -110.34484   0.66737395   -109.67746    184.81401    4.4069014    4.4069014    4.4069014    184.81401   -8925.2722    4781.5803    4698.1339   -7615.8682    11227.779   -229.96546    85.585462 
   97900    773.55554   -110.37572   0.69992931   -109.67579    9708.8087    4.4033842    4.4033842    4.4033842    9708.8087   -4095.3088    25940.521    7281.2141    3279.9914   -2963.6488    508.65343    85.380704 
   98000     691.3301   -110.30208   0.62553001   -109.67655    845.30502    4.4060511    4.4060511    4.4060511    845.30502    12744.819    3736.7695   -13945.674    5417.1685   -4540.9825   -3975.3272    85.535933 
   98100    619.94544   -110.23875   0.56093966   -109.67781   -7745.5934     4.407825     4.407825     4.407825   -7745.5934   -9503.2091     2775.843   -16509.414   -8078.7573     8565.837    2249.8148    85.639287 
   98200    826.88223   -110.42437   0.74818042   -109.67619     1254.264    4.4026136    4.4026136    4.4026136     1254.264   -3148.1719   -743.47794     7654.442    3811.2301   -4581.9176    506.96149    85.335887 
   98300     866.7641   -110.46096   0.78426637   -109.67669    1418.8646    4.4063126    4.4063126    4.4063126    1418.8646    2403.6142   -30256.246    32109.226    5945.3133    1623.2057   -1612.4775    85.551164 
   98400    960.27513   -110.54699   0.86887712   -109.67811   -6067.5201     4.407531     4.407531     4.407531   -6067.5201   -5844.6231   -22063.992    9706.0549   -6034.7159      9605.38    219.51934    85.622149 
   98500    994.70805   -110.57699   0.90003274   -109.67696    12438.953    4.4021765    4.4021765    4.4021765    12438.953    5407.8571    2329.7472    29579.254    3987.9596   -2023.4654    -1611.174    85.310473 
   98600      973.121   -110.55717   0.88050033   -109.67667   -2273.2152    4.4079183    4.4079183    4.4079183   -2273.2152   -1716.2354   -8841.6784    3738.2682    3140.5677   -2369.9746    5059.4907    85.644724 
   98700    586.44798   -110.20993   0.53063046    -109.6793    -7100.333    4.4059801    4.4059801    4.4059801    -7100.333   -1306.6422    10066.721   -30061.078   -6839.3218    12750.348    373.15948    85.531798 
   98800    700.41661   -110.30937   0.63375167   -109.67562   -5400.0826    4.4031121    4.4031121    4.4031121   -5400.0826   -2385.1213    15842.031   -29657.157    4230.6861    4459.7485   -246.37344    85.364878 
   98900    548.87869   -110.17321   0.49663698   -109.67657    348.83577    4.4087504    4.4087504    4.4087504    348.83577   -10941.616   -2543.4835    14531.607    2861.5526   -6451.7413    2687.1674    85.693234 
   99000    539.05166   -110.16723   0.48774527   -109.67949    3969.2611    4.4023868    4.4023868    4.4023868    3969.2611   -4676.7925    1025.5682    15559.008   -8140.3238     13592.46   -496.79912    85.322699 
   99100    898.10713   -110.49087    0.8126262   -109.67824    -796.0639    4.4060606    4.4060606    4.4060606    -796.0639    5467.5451   -11835.319     3979.582    2607.9247    3537.1131    2786.8381    85.536485 
   99200    1033.7133   -110.61167   0.93532549   -109.67634   -4122.6982    4.4099024    4.4099024    4.4099024   -4122.6982   -5897.8132   -23627.577    17157.296    2872.9312   -1373.4195   -2723.7027    85.760426 
   99300    985.13062   -110.56933   0.89136689   -109.67796    4825.8384    4.3993696    4.3993696    4.3993696    4825.8384    3571.2961   -4498.1116    15404.331   -6857.3805    15572.825   -2660.2688    85.147391 
   99400    1102.3233   -110.67343   0.99740529   -109.67602   -4215.8766     4.408925     4.408925     4.408925   -4215.8766    3951.0373   -10695.186   -5903.4808    2373.9177   -5216.2747    1019.7776    85.703419 
   99500    898.47655   -110.48993   0.81296047   -109.67697   -3308.5461    4.4075016    4.4075016    4.4075016   -3308.5461   -1578.3601   -3002.1355   -5345.1427    501.54938    3593.9305   -835.75073    85.620438 
   99600    418.18024   -110.05862   0.37837827   -109.68024    16152.071     4.398952     4.398952     4.398952    16152.071    8897.0273     19914.12    19645.065   -6863.8504    16262.435    1043.3242    85.123144 
   99700     714.0604   -110.32183   0.64609685   -109.67574   -12900.613    4.4116037    4.4116037    4.4116037   -12900.613   -2115.9359   -2884.7865   -33701.116     2200.603   -5358.6083   -2166.9535    85.859724 
   99800    517.36294   -110.14434   0.46812086   -109.67622    -3576.369    4.4053597    4.4053597    4.4053597    -3576.369    10669.522    2305.4751   -23704.104   -1862.6623    5864.8932    1126.4327    85.495671 
   99900    607.50616   -110.23015   0.54968434   -109.68046    535.25786    4.4012278    4.4012278    4.4012278    535.25786    253.42626   -1538.4506     2890.798   -7680.6863    8958.8333    1004.8202    85.255328 
  100000    1019.3131   -110.59855    0.9222959   -109.67625    1909.7302    4.4094928    4.4094928    4.4094928    1909.7302   -4122.7848   -21463.528    31315.504    1481.9593   -3839.1073    144.63775    85.736531 
Loop time of 21.73 on 1 procs for 100000 steps with 8 atoms

Pair  time (%) = 6.75067 (31.0661)
Kspce time (%) = 5.29127 (24.35)
Neigh time (%) = 0 (0)
Comm  time (%) = 1.06954 (4.92194)
Outpt time (%) = 0.0240915 (0.110867)
Other time (%) = 8.59445 (39.551)

Nlocal:    8 ave 8 max 8 min
Histogram: 1 0 0 0 0 0 0 0 0 0
Nghost:    2189 ave 2189 max 2189 min
Histogram: 1 0 0 0 0 0 0 0 0 0
Neighs:    2056 ave 2056 max 2056 min
Histogram: 1 0 0 0 0 0 0 0 0 0

Total # of neighbors = 2056
Ave neighs/atom = 257
Neighbor list builds = 0
Dangerous builds = 0
unfix 20
unfix 21
print "seeds:3522684"
seeds:3522684
