LAMMPS (10 Feb 2015)
# ---- initialize simulations
clear
units metal
dimension 3
boundary p p p
atom_style charge
atom_modify map array
# ---- create atoms
read_data /Users/eugeneragasa/pyflamestk_git/pypospack/tests/tests_integration/workflow/WorkflowLammpsThermalExpansion/param_2632/MgO_NaCl_unit.npt.T600/lammps.structure
  triclinic box = (0 0 0) to (4.2565 4.2565 4.2565) with tilt (0 0 0)
  1 by 1 by 1 MPI processor grid
  reading atoms ...
  8 atoms
# ---- define interatomic potential
include potential.mod
mass 1 24.305
mass 2 15.999

group Mg type 1
4 atoms in group Mg
group O type 2
4 atoms in group O

set group Mg charge 1.63285961235
  4 settings made for charge
set group O charge -1.63285961235
  4 settings made for charge

variable R_cut equal 10.0

pair_style buck/coul/long ${R_cut}
pair_style buck/coul/long 10
pair_coeff 1 1 0.0 0.5 0.0 ${R_cut}
pair_coeff 1 1 0.0 0.5 0.0 10
pair_coeff 1 2 1437.07173936 0.281984725072 0.0 ${R_cut}
pair_coeff 1 2 1437.07173936 0.281984725072 0.0 10
pair_coeff 2 2 17907.6681412 0.158842179647 12.0518239093 ${R_cut}
pair_coeff 2 2 17907.6681412 0.158842179647 12.0518239093 10

kspace_style pppm 1.0e-5

neighbor 1.0 bin
neigh_modify every 1 delay 0 check yes
# ---- define settings
compute eng all pe/atom
compute eatoms all reduce sum c_eng
# ---- run minimization
reset_timestep 0
fix 1 all box/relax iso 0.0 vmax 0.001
thermo 10
thermo_style custom step pe lx ly lz xy xz yz press pxx pyy pzz pxy pxz pyz c_eatoms
min_style cg
minimize 1e-25 1e-25 5000 10000
PPPM initialization ...
  G vector (1/distance) = 0.352629
  grid = 8 8 8
  stencil order = 5
  estimated absolute RMS force accuracy = 3.86465e-05
  estimated relative force accuracy = 2.68385e-06
  using double precision FFTs
  3d grid and FFT values/proc = 3375 512
Neighbor list info ...
  1 neighbor list requests
  update every 1 steps, delay 0 steps, check yes
  master list distance cutoff = 11
Memory usage per processor = 4.06549 Mbytes
Step PotEng Lx Ly Lz Xy Xz Yz Press Pxx Pyy Pzz Pxy Pxz Pyz eatoms 
       0   -108.26668       4.2565       4.2565       4.2565            0            0            0     68174.25     68174.25     68174.25     68174.25 -1.8708973e-11 1.9918278e-11 -1.4539535e-10   -108.26668 
      10   -108.32672     4.299065     4.299065     4.299065            0            0            0    15974.818    15974.818    15974.818    15974.818 2.7247293e-10 7.4247233e-11 1.7340321e-10   -108.32672 
      14   -108.33064    4.3118345    4.3118345    4.3118345            0            0            0    1605.1095    1605.1095    1605.1095    1605.1095 -5.9694499e-11 -6.7982128e-11 4.9253128e-12   -108.33064 
Loop time of 0.0148001 on 1 procs for 14 steps with 8 atoms

Minimization stats:
  Stopping criterion = linesearch alpha is zero
  Energy initial, next-to-last, final = 
        -108.266678614      -108.33063925      -108.33063925
  Force two-norm initial, final = 9.8444 0.23785
  Force max component initial, final = 9.8444 0.237844
  Final line search alpha, max atom move = 1.28309e-07 3.05176e-08
  Iterations, force evaluations = 14 44

Pair  time (%) = 0.00397229 (26.8397)
Kspce time (%) = 0.00231838 (15.6647)
Neigh time (%) = 0 (0)
Comm  time (%) = 0.000449657 (3.03821)
Outpt time (%) = 1.50204e-05 (0.101488)
Other time (%) = 0.00804472 (54.356)

Nlocal:    8 ave 8 max 8 min
Histogram: 1 0 0 0 0 0 0 0 0 0
Nghost:    2189 ave 2189 max 2189 min
Histogram: 1 0 0 0 0 0 0 0 0 0
Neighs:    2344 ave 2344 max 2344 min
Histogram: 1 0 0 0 0 0 0 0 0 0

Total # of neighbors = 2344
Ave neighs/atom = 293
Neighbor list builds = 0
Dangerous builds = 0
unfix 1
# ---- define output variables ----
variable natoms equal "count(all)"
variable tot_energy equal "c_eatoms"
variable length_x equal "lx"
variable length_y equal "ly"
variable length_z equal "lz"
variable tilt_xy equal "xy"
variable tilt_xz equal "xz"
variable tilt_yz equal "yz"
variable tot_press equal "press"
variable press_xx equal "pxx"
variable press_yy equal "pyy"
variable press_zz equal "pzz"
variable press_xy equal "pxy"
variable press_xz equal "pxz"
variable press_yz equal "pyz"

# ---- output ----
print "pypospack:output_section:begin"
pypospack:output_section:begin
print "tot_energy = ${tot_energy}"
tot_energy = -108.330639250266
print "num_atoms = ${natoms}"
num_atoms = 8
print "xx = ${length_x}"
xx = 4.3118345
print "yy = ${length_y}"
yy = 4.3118345
print "zz = ${length_z}"
zz = 4.3118345
print "xy = ${tilt_xy}"
xy = 0
print "xz = ${tilt_xz}"
xz = 0
print "yz = ${tilt_yz}"
yz = 0
print "tot_press = ${tot_press}"
tot_press = 1605.10951764203
print "pxx = ${press_xx}"
pxx = 1605.10951764176
print "pyy = ${press_yy}"
pyy = 1605.10951764198
print "pzz = ${press_zz}"
pzz = 1605.10951764233
print "pxy = ${press_xy}"
pxy = -5.96944985898881e-11
print "pxz = ${press_xz}"
pxz = -6.79821282837662e-11
print "pyz = ${press_yz}"
pyz = 4.92531279854496e-12
print "pypospack:output_section:done"
pypospack:output_section:done
print "pypospack:lammps_sim:done"
pypospack:lammps_sim:done
#------------------------------------------------------------------------------
# RUN THERMOSTAT
# running using an NPT Nose-Hoover style thermostat
#------------------------------------------------------------------------------
variable tempdamp equal 0.1
variable pressdamp equal 1.0
# set initial velocities
velocity all create 600 6716648 mom yes dist gaussian loop all
# fix for Nose-Hoover style thermostat
fix 20 all npt temp 600 600 0.1 aniso 0.0 0.0 1.0 drag 1.0 couple xyz
variable boxx equal lx
variable boxy equal ly
variable boxz equal lz
variable boxp equal press
variable boxt equal temp
# calculate averages every 10000 steps
reset_timestep 0
fix 21 all ave/time 10 10 100 v_boxx v_boxy v_boxz v_boxp v_boxt file lattice.out
thermo_style custom step temp pe ke etotal press lx ly lz press pxx pyy pzz pxy pxz pyz vol
thermo_modify flush yes
thermo 100
run 100000
PPPM initialization ...
  G vector (1/distance) = 0.352078
  grid = 8 8 8
  stencil order = 5
  estimated absolute RMS force accuracy = 3.96373e-05
  estimated relative force accuracy = 2.75266e-06
  using double precision FFTs
  3d grid and FFT values/proc = 3375 512
Memory usage per processor = 3.06549 Mbytes
Step Temp PotEng KinEng TotEng Press Lx Ly Lz Press Pxx Pyy Pzz Pxy Pxz Pyz Volume 
       0          600   -108.33065   0.54289261   -107.78776     8837.027    4.3118345    4.3118345    4.3118345     8837.027    5120.2052     9594.449    11796.427   -784.94797    344.14074    4201.1866    80.165268 
     100    202.80164   -107.89367   0.18349918   -107.71017   -4694.2898    4.3472597    4.3472597    4.3472597   -4694.2898   -11511.147   -12486.195    9914.4729   -1613.4381    1392.8638   -6898.3067    82.157414 
     200    395.38582   -107.93051    0.3577534   -107.57276   -4079.8787    4.3421865    4.3421865    4.3421865   -4079.8787   -13964.917    6191.9356    -4466.655    967.06879     66.42805   -1044.3183     81.87012 
     300    401.18172   -107.79993   0.36299765   -107.43693    19383.802     4.333023     4.333023     4.333023    19383.802   -1339.9948     33741.88    25749.521    3508.0471    553.45632   -4079.9877    81.352891 
     400    242.82083   -107.56073   0.21970939   -107.34102    1233.9842    4.3659754    4.3659754    4.3659754    1233.9842   -10380.279   -5348.5771    19430.809    5265.4908    6331.6084   -14041.721    83.223091 
     500    848.33261   -108.03153   0.76758917   -107.26394    1431.4223    4.3415098    4.3415098    4.3415098    1431.4223   -7454.8259    16388.483   -4639.3906    4903.8152    -2137.582    3433.5085    81.831848 
     600     485.6608   -107.67521    0.4394361   -107.23577    2426.2939    4.3521015    4.3521015    4.3521015    2426.2939    -8794.043   -17528.915    33601.839   -1518.4632    3852.7046   -9024.3223     82.43223 
     700    491.07466   -107.66612   0.44433467   -107.22178   -15805.344    4.3668263    4.3668263    4.3668263   -15805.344   -6479.2338   -14248.174   -26688.624   -85.497947    3192.1569   -3643.2182     83.27176 
     800    918.64576   -108.04538   0.83120999   -107.21417    6509.0942    4.3360057    4.3360057    4.3360057    6509.0942    2232.9209    4888.2263    12406.135   -5656.0254   -5917.4339    12531.469    81.521008 
     900    436.61297   -107.63082   0.39505659   -107.23576    3198.9415    4.3630375    4.3630375    4.3630375    3198.9415   -21728.103    32295.681    -970.7533   -3433.2511   -2237.5598   -17362.599    83.055202 
    1000    631.04249   -107.80309   0.57098051   -107.23211   -4519.1945    4.3572259    4.3572259    4.3572259   -4519.1945   -15489.438   -221.38866    2153.2436   -1232.4933   -5543.8979   -8847.9708    82.723751 
    1100    582.91997    -107.7554   0.52743824   -107.22796     13674.02    4.3385799    4.3385799    4.3385799     13674.02    -11317.89    14802.483    37537.467    2364.9479    838.00887      -5034.6    81.666285 
    1200    302.02481   -107.50753    0.2732784   -107.23425   -5684.8382    4.3709794    4.3709794    4.3709794   -5684.8382   -21067.671    5815.8417   -1802.6857    1561.5074    4766.5693   -8013.5461    83.509577 
    1300    831.44633   -107.97529   0.75231012   -107.22298    1491.0034    4.3431545    4.3431545    4.3431545    1491.0034   -3068.1184   -4562.5207    12103.649   -2293.9118    4774.8683    5694.8945    81.924885 
    1400    736.54643   -107.89342   0.66644268   -107.22698   -1607.2601    4.3485957    4.3485957    4.3485957   -1607.2601   -6029.0181     8816.892   -7609.6541    2270.2438    10558.492   -3721.7305    82.233184 
    1500    453.54309   -107.63716   0.41037532   -107.22679   -14580.497    4.3705495    4.3705495    4.3705495   -14580.497   -6567.8918   -9607.7293   -27565.869   -2044.1458    1581.6982   -4141.4058    83.484939 
    1600    655.04014   -107.81462   0.59269408   -107.22193    19295.044    4.3302693    4.3302693    4.3302693    19295.044    19106.177   -2443.4358     41222.39   -4824.3237   -9095.7796    165.56179    81.197884 
    1700    421.28002   -107.62404   0.38118301   -107.24286    1873.3526    4.3617841    4.3617841    4.3617841    1873.3526    -19729.27    6299.7449    19049.583    1704.2497    1673.7408    -7156.129    82.983641 
    1800    482.59239   -107.67093   0.43665974   -107.23427   -2012.3477    4.3609835    4.3609835    4.3609835   -2012.3477   -15263.236    6581.7093     2644.484   -2313.2585    -5345.275    551.58995    82.937956 
    1900      781.253   -107.92633   0.70689413   -107.21943    17861.976    4.3227316    4.3227316    4.3227316    17861.976    15526.304     10431.85    27627.773   -1152.2235    1266.1452    2100.0899    80.774599 
    2000    467.76195   -107.65928   0.42324084   -107.23603   -27416.266    4.3785103    4.3785103    4.3785103   -27416.266   -35394.112    841.27992   -47695.967    772.17405    6691.7129    6624.2204    83.941962 
    2100    777.07663   -107.93701   0.70311527    -107.2339    675.43736    4.3390189    4.3390189    4.3390189    675.43736   -7112.2784     4012.417    5126.1735   -1595.1455    2853.4517    -215.6719    81.691079 
    2200    673.48748   -107.84513   0.60938562   -107.23575    12334.733    4.3369813    4.3369813    4.3369813    12334.733   -2478.3419    33744.258    5738.2826   -2446.8154    3421.0542   -6742.8701    81.576044 
    2300    485.36649   -107.66138    0.4391698   -107.22221    -27515.27    4.3806104    4.3806104    4.3806104    -27515.27   -44728.105   -17665.315    -20152.39   -2166.4868     1314.001    9585.1194    84.062808 
    2400    663.38089   -107.81009   0.60024097   -107.20985    28118.747    4.3127587    4.3127587    4.3127587    28118.747    23825.052    12050.075    48481.115    2374.0336   -3211.6494     601.5108    80.216828 
    2500    336.88838   -107.55228   0.30482369   -107.24746    -6930.921    4.3630031    4.3630031    4.3630031    -6930.921   -13026.981    13056.235   -20822.017    3663.0222   -349.64091    8627.4217     83.05324 
    2600     564.7062   -107.74909   0.51095804   -107.23813    -10229.23    4.3597745    4.3597745    4.3597745    -10229.23   -12494.596   -5158.8656   -13034.228    6604.2284   -5961.3402    13477.847    82.868994 
    2700    646.50439   -107.79615   0.58497076   -107.21118    40193.992    4.3098179    4.3098179    4.3098179    40193.992    51062.453     53541.81    15977.713    9859.9744    3582.6956   -1273.9172    80.052845 
    2800    453.82889   -107.63367   0.41063392   -107.22304   -37282.379    4.3841474    4.3841474    4.3841474   -37282.379   -33794.977   -36503.322   -41548.837   -1374.0425    9312.6744   -618.76325    84.266595 
    2900    734.86361   -107.89126   0.66492004   -107.22634    6919.6069    4.3265369    4.3265369    4.3265369    6919.6069     23570.04    -7269.045    4457.8261    3138.6992    4029.0243      246.621    80.988107 
    3000    559.15111   -107.74519   0.50593168   -107.23926    16164.777    4.3300546    4.3300546    4.3300546    16164.777    847.39925    27310.241    20336.692    -5702.749    3921.9121    3023.9018    81.185807 
    3100    790.38323   -107.93278   0.71515536   -107.21762   -48470.234    4.3820361    4.3820361    4.3820361   -48470.234    -60476.44   -40857.919   -44076.344    80.043512    4063.7024   -4766.4336     84.14491 
    3200    650.69091    -107.7962   0.58875881   -107.20745    37982.404    4.3092833    4.3092833    4.3092833    37982.404    26867.956    36437.651    50641.606   -2191.7818   -4657.4603    6841.3501    80.023058 
    3300     493.5596   -107.68193    0.4465831   -107.23535    -13978.51    4.3564069    4.3564069    4.3564069    -13978.51    1685.4894   -13037.788    -30583.23    5309.7223   -1610.2275    1838.4348    82.677115 
    3400    535.41522   -107.71301   0.48445494   -107.22856   -9702.8339    4.3579501    4.3579501    4.3579501   -9702.8339     9079.007   -21303.454   -16884.055    8103.2404   -1261.3394   -1716.9884    82.765009 
    3500     504.6833    -107.6717   0.45664805   -107.21505    42182.282    4.3154804    4.3154804    4.3154804    42182.282    52258.315    29614.797    44673.732    2420.9261    7227.8057     3994.138    80.368795 
    3600     584.6508   -107.75973   0.52900433   -107.23073   -26103.852    4.3648255    4.3648255    4.3648255   -26103.852   -28697.959   -27363.379   -22250.219    5395.1452    8640.1738   -4152.8634    83.157354 
    3700    598.45567   -107.77181   0.54149527   -107.23032    10977.632    4.3350305    4.3350305    4.3350305    10977.632   -204.10337    729.17161    32407.828     916.3387    -114.2969     4061.083    81.466018 
    3800    693.33885   -107.86201   0.62734756   -107.23466   -3525.6502    4.3360663    4.3360663    4.3360663   -3525.6502    -2227.636    3342.2052    -11691.52   -4644.6823     3510.857   -913.35193    81.524423 
    3900    654.27324   -107.82281   0.59200017   -107.23081   -25050.545    4.3607747    4.3607747    4.3607747   -25050.545   -36723.508   -32418.022   -6010.1055   -2269.1498    -1555.942     3384.045    82.926042 
    4000    844.33609   -107.98713   0.76397303   -107.22315    7417.2307     4.331949     4.331949     4.331949    7417.2307    10564.718   -4415.0951     16102.07   -5813.3753   -1756.5723    6423.3791    81.292414 
    4100    500.31716   -107.68619   0.45269748    -107.2335    3729.4555    4.3450797    4.3450797    4.3450797    3729.4555    2581.0135    -16429.32    25036.673    1919.0824    9342.6406   -894.57064    82.033876 
    4200    529.63078   -107.71207   0.47922106   -107.23285     -7712.75    4.3559586    4.3559586    4.3559586     -7712.75   -8691.0711   -15810.965    1363.7863    7708.9586    4549.5551    -9620.707    82.651595 
    4300    542.54809   -107.71958   0.49090892   -107.22868     18924.27    4.3326291    4.3326291    4.3326291     18924.27    15227.533     42777.65   -1232.3732    5113.4239    442.41582   -2055.1405    81.330708 
    4400    287.38532   -107.49822   0.26003228   -107.23819    10052.133    4.3512675    4.3512675    4.3512675    10052.133   -10373.664     37891.93    2638.1322    12190.635    4695.7034   -9251.4637    82.384847 
    4500    561.15544   -107.73656   0.50774524   -107.22882    4742.8372    4.3515157    4.3515157    4.3515157    4742.8372   -9766.0863    28555.126   -4560.5283    9270.1969    2213.0253   -2717.4867    82.398946 
    4600    726.00656    -107.8812     0.656906   -107.22429    3253.0999    4.3342302    4.3342302    4.3342302    3253.0999    18472.536    6340.0571   -15053.293   -5300.5851   -2857.6907    4885.7668    81.420906 
    4700    632.45116   -107.80214    0.5722551   -107.22988   -19743.603    4.3566998    4.3566998    4.3566998   -19743.603   -15752.802   -29611.761   -13866.245   -1470.0342   -1230.8167   -2051.7607    82.693792 
    4800    778.00845   -107.93075    0.7039584   -107.22679   -8016.1385    4.3456855    4.3456855    4.3456855   -8016.1385   -8415.0289   -16814.581     1181.194   -10726.545   -365.78213    3070.6733    82.068193 
    4900    749.80236   -107.90633   0.67843694   -107.22789   -2093.7738    4.3321057    4.3321057    4.3321057   -2093.7738   -14335.391    18506.827   -10452.758   -6269.5292   -3148.2825   -958.46151    81.301233 
    5000    463.25471   -107.65533    0.4191626   -107.23617   -3422.4079    4.3613924    4.3613924    4.3613924   -3422.4079    -6372.171   -4763.3683    868.31578    7790.0506   -885.43459   -3635.8141    82.961289 
    5100     499.9475   -107.68592   0.45236301   -107.23356    10670.115    4.3387054    4.3387054    4.3387054    10670.115    25622.856    8774.8695    -2387.382    4641.7215    7266.3152   -2927.8036    81.673373 
    5200    339.26459   -107.54185   0.30697373   -107.23487    18328.378    4.3327844    4.3327844    4.3327844    18328.378    38352.092    27032.471   -10399.429    10681.087    10949.412   -5765.2391     81.33945 
    5300    501.27309   -107.68195   0.45356242   -107.22838   -6904.1858    4.3658771    4.3658771    4.3658771   -6904.1858   -6514.0083   -11537.301   -2661.2485    10943.534      3777.48    955.58972    83.217472 
    5400     600.4154   -107.76709   0.54326847   -107.22382    19152.991    4.3253828    4.3253828    4.3253828    19152.991    22683.741    29422.644    5352.5881    276.85965    4161.5443      -7905.7     80.92331 
    5500    635.89207   -107.81124   0.57536851   -107.23587   -18201.691    4.3497417    4.3497417    4.3497417   -18201.691   -29110.035    -17310.25   -8184.7873   -2452.5686    2800.2582    2315.8294    82.298212 
    5600     828.5553   -107.97687   0.74969424   -107.22718   -17320.509    4.3533276    4.3533276    4.3533276   -17320.509   -14071.416   -25251.291   -12638.819   -2725.8977   -1755.0973    257.05139     82.50192 
    5700    719.25188   -107.87499   0.65079421    -107.2242    2741.1283    4.3227824    4.3227824    4.3227824    2741.1283    2028.8934    9882.5096   -3688.0182   -9636.1428     1573.644   -7576.4355    80.777447 
    5800    580.76557   -107.76002   0.52548889   -107.23453   -18233.728    4.3589681    4.3589681    4.3589681   -18233.728   -23929.555    -11587.22   -19184.407    5094.8502   -2097.7825    2865.3369    82.823022 
    5900    532.09403    -107.7126   0.48144986   -107.23115    1133.7951    4.3459129    4.3459129    4.3459129    1133.7951    3404.8462    13635.746   -13639.207    1849.3895    1636.6992   -3158.0572    82.081079 
    6000    404.10173   -107.59298   0.36563974   -107.22734    20280.236    4.3233374    4.3233374    4.3233374    20280.236    28975.027    39219.053   -7353.3726    7640.7425   -1771.3896   -2921.0553    80.808565 
    6100    603.59414   -107.78001   0.54614466   -107.23387     -13018.8    4.3640446    4.3640446    4.3640446     -13018.8   -609.90953   -1115.5653   -37330.925    6192.2581   -4668.0434    1115.1229    83.112727 
    6200    554.91195   -107.73865   0.50209599   -107.23655    1506.7004    4.3361364    4.3361364    4.3361364    1506.7004    19701.905    -7666.492    -7515.312    2002.8079    5093.5608   -3610.1086    81.528377 
    6300    625.89491   -107.80092   0.56632286    -107.2346    8602.1333    4.3214599    4.3214599    4.3214599    8602.1333   -3131.7848    19766.507    9171.6775   -6671.2379    274.10073    -3167.018    80.703331 
    6400    737.66413   -107.89311   0.66745401   -107.22565   -40667.739    4.3728311    4.3728311    4.3728311   -40667.739   -42462.797   -25214.364   -54326.055    447.70559   -2493.6615    7121.2024    83.615753 
    6500    585.69156   -107.76463   0.52994603   -107.23469    17977.017    4.3139488    4.3139488    4.3139488    17977.017    20990.313    25844.073    7096.6634    688.91691    588.03633   -3392.7556    80.283254 
    6600    554.85526   -107.75448    0.5020447   -107.25244    11867.503     4.334039     4.334039     4.334039    11867.503    35281.164    14468.326   -14146.982    6784.7666    2136.2697    2200.2832    81.410127 
    6700    542.25046   -107.71588   0.49063961   -107.22524   -32328.375    4.3727926    4.3727926    4.3727926   -32328.375   -1824.4193   -42475.729   -52684.978    3107.8895    1292.7599    6149.0918    83.613545 
    6800    440.11491    -107.6044   0.39822522   -107.20617    44313.723    4.2942391    4.2942391    4.2942391    44313.723     59592.02    44737.648      28611.5   -747.35344   -969.16136   -6429.1136    79.187869 
    6900    654.47205   -107.83539   0.59218007   -107.24321    -24495.64    4.3546117    4.3546117    4.3546117    -24495.64   -10551.852   -31619.855   -31315.211   -5534.8511    306.29416    14008.238     82.57495 
    7000    861.07471   -108.01303   0.77911849   -107.23391   -28914.479    4.3540994    4.3540994    4.3540994   -28914.479   -21802.302   -27725.594   -37215.542   -6121.3076    4961.8281   -3680.1252    82.545807 
    7100    585.33639   -107.73731   0.52962467   -107.20768    41222.848    4.2939155    4.2939155    4.2939155    41222.848    54566.683    41046.607    28055.254    2522.7248   -149.81637    3135.5481     79.16997 
    7200    389.03706   -107.57813   0.35200891   -107.22612   -25566.217     4.369692     4.369692     4.369692   -25566.217    18113.444   -42714.217   -52097.879    7636.6194   -2598.6549    16574.735    83.435809 
    7300    524.78297   -107.70937   0.47483466   -107.23454      19015.2    4.3257011    4.3257011    4.3257011      19015.2    49599.378    18607.853    -11161.63     5555.305    483.67346   -8217.6682     80.94118 
    7400    457.33479   -107.65123   0.41380613   -107.23743    7183.4876    4.3162468    4.3162468    4.3162468    7183.4876    29436.501    4419.2433   -12305.281    2380.6313   -3903.0587    22889.585    80.411617 
    7500     870.6662   -108.00689   0.78779708    -107.2191    -34687.47    4.3650129    4.3650129    4.3650129    -34687.47   -29192.206   -30576.164    -44294.04    -3335.773   -991.26573    6748.9259    83.168067 
    7600    849.31339   -107.99014    0.7684766   -107.22166    17711.015    4.3105653    4.3105653    4.3105653    17711.015    25531.259    16840.089    10761.697   -8889.2646    1902.4579    4606.6685    80.094499 
    7700    264.19418   -107.48391   0.23904844   -107.24487   -9409.5992    4.3399974    4.3399974    4.3399974   -9409.5992    38280.704   -32733.817   -33775.684   -498.44303    679.67172    18984.053    81.746357 
    7800    716.62853   -107.87818   0.64842056   -107.22976   -2975.3081    4.3470443    4.3470443    4.3470443   -2975.3081    13998.691   -1723.6064   -21201.009    3337.0248    3883.8117   -7212.3286    82.145204 
    7900    354.55894   -107.55027   0.32081238   -107.22945    16209.931    4.3192872    4.3192872    4.3192872    16209.931    39737.209    24117.158   -15224.575    10919.306    877.73516    17104.272    80.581665 
    8000    586.92015   -107.76786   0.53105768   -107.23681   -10100.225    4.3431248    4.3431248    4.3431248   -10100.225   -4429.8459    5713.0757   -31583.906      3318.37   -1485.2765    6356.5917    81.923201 
    8100     862.2898   -108.01138   0.78021794   -107.23116   -5666.1221    4.3387783    4.3387783    4.3387783   -5666.1221   -7544.5611    14067.624    -23521.43    3070.4329     766.4484   -598.80254    81.677487 
    8200    476.34394   -107.66749     0.431006   -107.23648   -12237.804    4.3279435    4.3279435    4.3279435   -12237.804    4799.2382   -11132.185   -30380.464   -6231.5773   -3255.8993     25905.89    81.067121 
    8300    709.31651   -107.88066   0.64180449   -107.23885   -5402.6166    4.3379075    4.3379075    4.3379075   -5402.6166   -14886.646    19338.014   -20659.218   -4484.9541   -2954.0699   -4609.3079    81.628322 
    8400     663.3438   -107.84229   0.60020741   -107.24208    283.51572    4.3353443    4.3353443    4.3353443    283.51572   -821.49918    20575.576    -18903.53   -748.79567    1491.3096    4022.8493    81.483706 
    8500    492.15759   -107.68818   0.44531453   -107.24286    16134.829    4.3244155    4.3244155    4.3244155    16134.829    24883.403    38065.027   -14543.943    5192.6634   -3683.0443    11801.315    80.869033 
    8600    650.64737   -107.82719   0.58871941   -107.23847   -11364.216    4.3486927    4.3486927    4.3486927   -11364.216    4370.4074   -16873.484   -21589.571    598.23274     1480.771   -12151.277    82.238685 
    8700    576.66069   -107.75811   0.52177471   -107.23633    11576.108    4.3220075    4.3220075    4.3220075    11576.108    32102.502    9451.4014   -6825.5812   -2723.0418    2278.2815    11949.429    80.734013 
    8800    468.28774   -107.66689   0.42371659   -107.24318    858.92444    4.3361601    4.3361601    4.3361601    858.92444   -6914.6466    27807.956   -18316.536   -7438.9347   -4778.0286    4538.8723    81.529718 
    8900    578.26734   -107.76168   0.52322845   -107.23845   -3288.6281    4.3398602    4.3398602    4.3398602   -3288.6281   -8706.7309    8494.0637   -9653.2173   -8593.3824    254.67475   -8194.1751    81.738605 
    9000    704.63222   -107.87038   0.63756604   -107.23281    13232.279    4.3211351    4.3211351    4.3211351    13232.279    10286.647    32477.696   -3067.5066     3333.491    674.89551    15625.662    80.685135 
    9100    652.83038   -107.82299   0.59069465    -107.2323   -33422.008    4.3503671    4.3503671    4.3503671   -33422.008   -27696.799   -36313.312   -36255.913    534.24463   -1765.5344   -9151.9028    82.333714 
    9200    643.27263   -107.81361    0.5820466   -107.23156    7643.1358    4.3199802    4.3199802    4.3199802    7643.1358    8597.7248    7668.2822    6663.4002   -1545.8397   -823.65319    -7220.295    80.620457 
    9300    675.01687   -107.84792   0.61076945   -107.23715   -799.23917    4.3390872    4.3390872    4.3390872   -799.23917   -10250.338    26213.047   -18360.427   -962.28094    1982.8336    10668.331    81.694937 
    9400    421.20315   -107.62094   0.38111346   -107.23983    898.40962    4.3374045    4.3374045    4.3374045    898.40962     5873.063    17353.227   -20531.061    -14794.54   -673.17282   -14337.649    81.599927 
    9500    536.26661   -107.72244    0.4852253   -107.23721    18586.393    4.3232143    4.3232143    4.3232143    18586.393    30431.031     15332.08    9996.0671   -6266.4258    3230.6674    4414.0719     80.80166 
    9600    679.77059   -107.84838   0.61507072   -107.23331   -16497.401    4.3473574    4.3473574    4.3473574   -16497.401    5114.2013     -20700.5   -33905.904   -13.037831    463.86629    5041.6418    82.162952 
    9700    477.20085   -107.66664   0.43178135   -107.23486    5236.2428    4.3237021    4.3237021    4.3237021    5236.2428    16432.003     552.1393   -1275.4137   -938.97497    1399.4981   -18600.927    80.829017 
    9800    806.64841    -107.9665   0.72987243   -107.23663   -5415.0414    4.3377151    4.3377151    4.3377151   -5415.0414   -18736.778     16248.63   -13756.976    6941.3985    845.66638    7186.8702    81.617459 
    9900    541.21205   -107.72765   0.48970004   -107.23795   -8275.0543    4.3385326    4.3385326    4.3385326   -8275.0543   -10941.926    12584.694    -26467.93   -1821.7731   -2931.0643   -14406.562    81.663616 
   10000    487.51389   -107.67796   0.44111282   -107.23685    3918.2559    4.3228504    4.3228504    4.3228504    3918.2559    7232.6569    6621.6463   -2099.5355    -15798.75    656.56681    -9543.895    80.781258 
   10100    736.60983   -107.90007   0.66650005   -107.23357   -9672.2146    4.3434372    4.3434372    4.3434372   -9672.2146   -926.32488   -10849.995   -17240.324    1520.6894   -11.675716    5197.6395    81.940885 
   10200    516.69747   -107.70619   0.46751873   -107.23867    1715.3847     4.330532     4.330532     4.330532    1715.3847    25512.308    -1695.297   -18670.856   -397.84334   -2063.1079    -21846.76    81.212667 
   10300    552.55024   -107.73942   0.49995907   -107.23946    10754.584    4.3298134    4.3298134    4.3298134    10754.584    6862.3362    24967.596    433.82066    4181.4557    3131.2858    4910.8855    81.172239 
   10400    542.58489   -107.72854   0.49094221    -107.2376   -4093.1313    4.3430899    4.3430899    4.3430899   -4093.1313   -2171.0668    19271.156   -29379.484    8947.9606    1606.5996   -7406.2554    81.921228 
   10500    480.47056   -107.67256   0.43473986   -107.23782   -1822.3017    4.3261402    4.3261402    4.3261402   -1822.3017    11587.423    3938.6354   -20992.964   -7582.4303     1699.579   -22391.664     80.96583 
   10600    828.29256    -107.9866   0.74945651   -107.23715   -9446.4664    4.3340006    4.3340006    4.3340006   -9446.4664   -18199.608   -4165.2531   -5974.5377   -5583.9231    5308.1868    6874.0009    81.407963 
   10700    675.74686   -107.84958   0.61142996   -107.23815   -15978.303     4.342617     4.342617     4.342617   -15978.303   -13719.981   -186.01028   -34028.916   -2597.7759   -1111.4301   -19191.288    81.894472 
   10800    552.36352   -107.73523   0.49979012   -107.23544    17018.324    4.3184562    4.3184562    4.3184562    17018.324    15426.959    33386.606    2241.4085   -497.96116    674.34177   -5752.8633    80.535164 
   10900    512.38844   -107.70356   0.46361983   -107.23994   -9863.3705    4.3433705    4.3433705    4.3433705   -9863.3705   -3649.4504   -3548.9902   -22391.671    8124.8602   -1654.2564    634.45991    81.937109 
   11000    471.22822   -107.66544    0.4263772   -107.23906    4839.1509    4.3307577    4.3307577    4.3307577    4839.1509    37673.273   -7633.5605    -15522.26     7367.431   -2746.2122   -20516.548     81.22536 
   11100    788.92358   -107.94876   0.71383464   -107.23493    7114.4077    4.3264292    4.3264292    4.3264292    7114.4077    17348.722    2876.6681    1117.8327    -13373.31    -1464.499    5121.2098    80.982058 
   11200    574.42976   -107.75674   0.51975612   -107.23699   -13139.235    4.3452893    4.3452893    4.3452893   -13139.235   -5172.9367   -9407.2799   -24837.489   -5477.3474    1501.5071   -14167.455    82.045751 
   11300     637.8012   -107.81036   0.57709593   -107.23327    10933.303    4.3235158    4.3235158    4.3235158    10933.303    8495.1939    34677.996   -10373.279   -2941.4765     2076.861    -12604.65    80.818568 
   11400    609.27544   -107.78689   0.55128522    -107.2356   -8515.7655    4.3381352    4.3381352    4.3381352   -8515.7655   -12435.103     6848.116    -19960.31   -2809.8853   -515.53243    5850.4555    81.641178 
   11500     504.3283   -107.69469   0.45632685   -107.23836   -10958.044    4.3348381    4.3348381    4.3348381   -10958.044    9204.5547   -14717.908   -27360.779    10207.274    3836.3489   -16687.786    81.455167 
   11600    841.04824   -107.99596   0.76099812   -107.23496    9221.5635     4.325927     4.325927     4.325927    9221.5635    22827.421    8693.1365   -3855.8673   -4468.5104   -253.20082    2322.0117    80.953861 
   11700    560.63403   -107.74585   0.50727346   -107.23857   -2624.5897    4.3399914    4.3399914    4.3399914   -2624.5897    213.47994    12570.397   -20657.646   -12572.907   -657.03914   -2392.0292     81.74602 
   11800    359.30884   -107.56605   0.32511019   -107.24094    10168.305     4.325895     4.325895     4.325895    10168.305    17913.102    31613.512   -19021.699    551.68413    2165.6713   -17770.089    80.952065 
   11900    654.25974   -107.83048   0.59198797   -107.23849    1156.2741    4.3345543    4.3345543    4.3345543    1156.2741    1064.3467    6988.5776   -4584.1019   -2444.8857    -1468.046    6456.5373     81.43917 
   12000    675.41452   -107.85048   0.61112925   -107.23935   -12549.105    4.3363087    4.3363087    4.3363087   -12549.105   -5638.3751   -14569.554   -17439.386    237.69687     182.7682    -12589.35    81.538099 
   12100    689.54136   -107.86282   0.62391151   -107.23891   -148.52271    4.3281594    4.3281594    4.3281594   -148.52271   -4400.5849     6470.014   -2514.9973    12563.363    2046.5117   -4655.0666    81.079252 
   12200    707.45477   -107.87703   0.64011994   -107.23691    1739.0972    4.3375604    4.3375604    4.3375604    1739.0972   -12806.714     35505.88   -17481.874    -4534.086    1068.4143    12968.836    81.608728 
   12300    426.72733   -107.62523   0.38611186   -107.23912   -6523.4211    4.3355527    4.3355527    4.3355527   -6523.4211   -8857.6847    15965.936   -26678.514   -7032.5836    4474.9688    -15724.62    81.495457 
   12400    628.53003   -107.80518   0.56870718   -107.23648   -2512.5701    4.3287699    4.3287699    4.3287699   -2512.5701    11792.456   -6670.8187   -12659.348   -1837.9367    2161.0113    974.26454    81.113569 
   12500    775.99267   -107.93769   0.70213447   -107.23555   -11226.153    4.3410454    4.3410454    4.3410454   -11226.153    2788.1311   -16290.289   -20176.301   -5812.4132    1813.4221    86.301785    81.805588 
   12600    573.16459   -107.75686   0.51861136   -107.23825     3647.931    4.3281862    4.3281862    4.3281862     3647.931    10319.632    14025.928   -13401.767    4133.7388    1867.2974   -18413.234     81.08076 
   12700    474.37688   -107.66948   0.42922617   -107.24025    11233.762    4.3345951    4.3345951    4.3345951    11233.762    7976.9392    38137.493   -12413.147    11586.233    -4222.871    14359.858    81.441471 
   12800    522.11892   -107.70899   0.47242417   -107.23657    4785.2534    4.3358917    4.3358917    4.3358917    4785.2534    6523.1007    23182.105   -15349.445    4657.2045   -2642.5286    2671.7205    81.514575 
   12900    475.35828   -107.66791   0.43011417    -107.2378    1044.0908    4.3268741    4.3268741    4.3268741    1044.0908    12818.358   -12585.734    2899.6477    4795.1414   -4769.8711   -8565.5508    81.007042 
   13000    682.61217   -107.85507   0.61764184   -107.23743   -8269.0021    4.3395258    4.3395258    4.3395258   -8269.0021    1487.2639   -18702.036   -7592.2346   -1892.5052   -5824.8562    14718.887    81.719713 
   13100    676.07679   -107.84774   0.61172849   -107.23601    7139.9311    4.3301325    4.3301325    4.3301325    7139.9311    3543.0385    22791.631   -4914.8759   -7314.4509   -1738.6359   -16852.195    81.190188 
   13200    444.20698   -107.64146   0.40192781   -107.23953   -2161.1252    4.3357059    4.3357059    4.3357059   -2161.1252   -8375.0621    22038.648   -20146.962    870.05023   -107.29047   -1046.9866    81.504099 
   13300    590.60625    -107.7699   0.53439294    -107.2355   -2076.7096    4.3350057    4.3350057    4.3350057   -2076.7096   -7237.3313    11978.145   -10970.942    1739.4362    1642.0431    15684.337    81.464615 
   13400    755.93131   -107.91858   0.68398254    -107.2346   -5792.3568     4.327766     4.327766     4.327766   -5792.3568   -4772.8971   -4983.8739   -7620.2994    2844.8545    4085.0917   -12588.817    81.057149 
   13500    632.05852   -107.81118   0.57189983   -107.23928   -14577.835    4.3373614    4.3373614    4.3373614   -14577.835   -19350.777   -18615.157   -5767.5709    11560.652   -172.71252    9613.7295    81.597497 
   13600    692.84138   -107.86533   0.62689744   -107.23843    4150.3276    4.3308358    4.3308358    4.3308358    4150.3276   -13725.096    32564.696    -6388.618    3810.6333    3161.9858    389.83393    81.229758 
   13700    554.60881    -107.7401    0.5018217   -107.23828    4373.3106    4.3334257    4.3334257    4.3334257    4373.3106   -14076.217    37893.559    -10697.41   -4195.1343   -2830.5154   -15620.334    81.375575 
   13800    490.42236   -107.68185   0.44374446   -107.23811   -7405.7897    4.3364926    4.3364926    4.3364926   -7405.7897   -12014.259    1503.3345   -11706.444    925.56755   -2828.3481    11457.309    81.548472 
   13900    688.84026   -107.85923   0.62327715   -107.23596   -2070.5263    4.3287569    4.3287569    4.3287569   -2070.5263    3212.7778   -11181.627    1757.2705   -6850.4701    890.54045   -593.03912    81.112838 
   14000    702.62154   -107.87365   0.63574673    -107.2379    -472.8314    4.3339187    4.3339187    4.3339187    -472.8314   -2236.4536    13582.637   -12764.678    3837.9924    -3367.153     2268.392     81.40335 
   14100    439.32631   -107.63918   0.39751168   -107.24167    1411.8787    4.3358577    4.3358577    4.3358577    1411.8787    -3249.376    17611.146   -10126.134    11031.416   -72.019519    12107.861    81.512657 
   14200    566.49944   -107.74993    0.5125806   -107.23735    16069.667    4.3244424    4.3244424    4.3244424    16069.667    538.38997    50606.739   -2936.1292   -937.54659    2618.9984   -4272.1968    80.870542 
   14300    638.86815    -107.8175   0.57806133   -107.23944   -8623.4803    4.3379754    4.3379754    4.3379754   -8623.4803   -10401.947   -4352.8809   -11115.613    7358.0065   -2372.8137   -419.12282    81.632154 
   14400    594.33643   -107.77788   0.53776809   -107.24011   -9817.8731    4.3318672    4.3318672    4.3318672   -9817.8731   -7406.2746    -18702.18    -3345.165   -3782.3587    3330.3156    10142.806    81.287805 
   14500    693.08463     -107.865   0.62711754   -107.23788    559.96848    4.3286252    4.3286252    4.3286252    559.96848   -19571.154    25730.057   -4478.9973   -9486.6001   -1778.6563    1081.0715    81.105432 
   14600    558.51556     -107.744   0.50535662   -107.23864   -4723.4501    4.3392371    4.3392371    4.3392371   -4723.4501   -20583.229    29518.242   -23105.364    5242.3534   -4739.7519    11278.872    81.703405 
   14700    521.24249   -107.70996   0.47163116   -107.23833    2481.1352    4.3291838    4.3291838    4.3291838    2481.1352   -13664.463    24126.325   -3018.4558    2881.7442    382.93841    11587.755    81.136837 
   14800    707.68641    -107.8773   0.64032953   -107.23697   -4814.9971    4.3329143    4.3329143    4.3329143   -4814.9971   -13637.719    6603.6041    -7410.877    185.19851   -7570.9671    -4737.446    81.346769 
   14900    717.03324   -107.88611   0.64878675   -107.23733   -9286.9997    4.3352816    4.3352816    4.3352816   -9286.9997    4531.3932   -19505.325   -12887.067    5637.4424   -3384.1026     7263.136    81.480173 
   15000    456.65997     -107.653   0.41319554   -107.23981    734.60625    4.3295348    4.3295348    4.3295348    734.60625   -10854.674    20686.993   -7628.5008   -13750.979    748.66799   -2230.6528    81.156574 
   15100    502.48938    -107.6936   0.45466295   -107.23893    2321.2734     4.336675     4.336675     4.336675    2321.2734   -11094.613     43563.08   -25504.647   -10878.368   -5899.8532    -1081.585    81.558763 
   15200    577.57402   -107.76015   0.52260111   -107.23755    4787.6195    4.3322313    4.3322313    4.3322313    4787.6195    3233.6988    21493.113   -10363.953   -4250.9685     4641.203    11559.621    81.308306 
   15300    556.95036   -107.74453   0.50394039   -107.24058   -840.27746    4.3277217    4.3277217    4.3277217   -840.27746   -16235.813    12407.878    1307.1027    -10822.16    1178.5207    1546.3755     81.05466 
   15400    757.77803    -107.9228   0.68565349   -107.23715   -12154.748    4.3413944    4.3413944    4.3413944   -12154.748   -12984.063   -11962.511   -11517.671    3309.2284   -1635.1926    3025.8405    81.825322 
   15500     693.4518   -107.86329   0.62744976   -107.23584   -2822.6723    4.3287816    4.3287816    4.3287816   -2822.6723   -5720.8481    5884.5823   -8631.7513    3046.2957    3409.4116    9681.1056    81.114223 
   15600    372.59723   -107.57888    0.3371338   -107.24175    4500.8591    4.3281667    4.3281667    4.3281667    4500.8591   -27596.875    35294.751    5804.7022   -8734.6603    -6459.406   -4790.2963    81.079666 
   15700    753.40647   -107.92147   0.68169801   -107.23977   -5323.8917    4.3410145    4.3410145    4.3410145   -5323.8917   -13931.734    16885.549    -18925.49   -1733.3936    472.87363    10087.167    81.803842 
   15800    673.89058   -107.84964   0.60975036   -107.23989    14025.911    4.3229205    4.3229205    4.3229205    14025.911    11657.673    22654.051    7766.0083   -12781.789   -246.29336    4684.2599     80.78519 
   15900    393.55413   -107.60159   0.35609604   -107.24549   -8768.5118    4.3354289    4.3354289    4.3354289   -8768.5118    -4072.857    -8475.568    -13757.11   -9147.1011   -3827.9776    890.59889    81.488476 
   16000    614.82891   -107.79473   0.55631012   -107.23842   -8111.7439    4.3368672    4.3368672    4.3368672   -8111.7439    11481.379   -15925.065   -19891.546    8371.0218    4646.8455    6036.3203    81.569609 
   16100     653.5111   -107.82779   0.59131058   -107.23648    1944.4514    4.3265805    4.3265805    4.3265805    1944.4514   -3288.7508    14341.408   -5219.3036    1536.3842   -1812.2932   -2495.9429    80.990555 
   16200    580.46266   -107.76384   0.52521481   -107.23862   -10135.871    4.3394353    4.3394353    4.3394353   -10135.871   -32133.098    7553.7605    -5828.275    56.070093   -6171.9101   -4109.5519    81.714598 
   16300     757.6138   -107.91915   0.68550489   -107.23365   -2422.5992     4.333821     4.333821     4.333821   -2422.5992   -9632.6503    10961.759   -8596.9066    5699.7817   -1795.3095    2904.1283    81.397846 
   16400    503.74144   -107.69107   0.45579584   -107.23527    4663.7766    4.3307737    4.3307737    4.3307737    4663.7766   -223.56573    24484.412   -10269.516   -15723.779   -7983.7505    -2539.736    81.226262 
   16500    398.51487   -107.59794   0.36058463   -107.23736   -3983.7271    4.3363798    4.3363798    4.3363798   -3983.7271    17278.038   -10021.874   -19207.345    -6583.491   -5661.0534    6897.3489    81.542108 
   16600     616.5849   -107.79389   0.55789897   -107.23599    2699.5025      4.33139      4.33139      4.33139    2699.5025    31696.577   -10327.017   -13271.052    6426.0942    2291.2429    6615.1977    81.260945 
   16700    782.75217   -107.94518   0.70825061   -107.23693   -6840.4758    4.3329799    4.3329799    4.3329799   -6840.4758   -6824.0211   -1711.0894   -11986.317   -5391.6162    -4661.822    1101.0293    81.350461 
   16800    659.08633   -107.83575   0.59635517    -107.2394   -12791.102    4.3320589    4.3320589    4.3320589   -12791.102   -10111.128   -16916.541   -11345.639    9977.1334    392.48606    11202.842      81.2986 
   16900    629.12522   -107.80849   0.56924572   -107.23925   -7727.4804    4.3341608    4.3341608    4.3341608   -7727.4804   -802.70207   -570.67919    -21809.06    6297.7254    -4382.391    1739.0433    81.416993 
   17000    511.29922   -107.70221   0.46263428   -107.23957    5576.7808    4.3330452    4.3330452    4.3330452    5576.7808    24735.628    566.34545   -8571.6309   -9654.7337    -10787.11    1541.3638     81.35414 
   17100    393.73967   -107.59773   0.35626393   -107.24147    10042.151    4.3294453    4.3294453    4.3294453    10042.151    42294.591   -12468.143     300.0069    2639.1026   -485.52299    8517.3989     81.15154 
   17200     677.9779   -107.85297   0.61344865   -107.23953    -4789.679     4.336718     4.336718     4.336718    -4789.679   -2512.1474    1313.7797   -13170.669    3484.1282   -8076.7133   -1933.0355    81.561188 
   17300    761.05889   -107.92606   0.68862208   -107.23744   -1965.6798    4.3282674    4.3282674    4.3282674   -1965.6798   -4753.5155    6205.6091   -7349.1329   -4475.9436   -1666.2368    1742.3251    81.085321 
   17400    512.25899   -107.70449    0.4635027   -107.24099   -12257.295    4.3340199    4.3340199    4.3340199   -12257.295    -1008.017   -17278.371   -18485.498    16526.962    3987.2962    6947.6476    81.409054 
   17500    588.33968   -107.77105   0.53234211    -107.2387   -1810.7997    4.3355439    4.3355439    4.3355439   -1810.7997    19708.359   -1711.1496   -23429.609    2684.5113   -4691.3088   -3837.2625     81.49496 
   17600     627.0544   -107.80584     0.567372   -107.23847    7499.6506    4.3262255    4.3262255    4.3262255    7499.6506    39662.264   -7859.1345   -9304.1777    -4348.762    24.256301    5457.9583     80.97062 
   17700    499.21134   -107.69407   0.45169692   -107.24238   -8271.3609    4.3367086    4.3367086    4.3367086   -8271.3609   -4134.1528    -11125.15   -9554.7802    8918.5424   -2591.4977    2276.4967    81.560657 
   17800    748.08438   -107.91458   0.67688247    -107.2377   -7647.4103    4.3335919    4.3335919    4.3335919   -7647.4103   -14568.001    14912.975   -23287.204   -1055.7695   -4832.9347   -5674.0861    81.384937 
   17900    600.70008   -107.78203   0.54352605   -107.23851    3919.1474    4.3277407    4.3277407    4.3277407    3919.1474     10467.91    1913.0039   -623.47221    6225.3285     1324.443    9951.4211    81.055728 
   18000    455.87561   -107.65362   0.41248583   -107.24113   -1102.5466      4.33822      4.33822      4.33822   -1102.5466    21748.744   -12544.811   -12511.573    19128.093    230.70917   -4911.5681    81.645961 
   18100    571.04471   -107.75401   0.51669325   -107.23732    8056.4173    4.3331071    4.3331071    4.3331071    8056.4173    36693.438    825.62226   -13349.808   -2327.5389   -2468.2893    1777.3933    81.357629 
   18200    655.38909   -107.83034   0.59300982   -107.23733   -1735.0327    4.3269159    4.3269159    4.3269159   -1735.0327    16287.192   -17255.918   -4236.3721      6036.58    2405.7508    11317.264    81.009389 
   18300    616.62547   -107.79689   0.55793569   -107.23895    -19806.92     4.340005     4.340005     4.340005    -19806.92   -21507.867   -14315.606   -23597.287    4296.2062   -5218.9521   -5864.0484    81.746787 
   18400    761.64211   -107.92554   0.68914978   -107.23639   -11245.006    4.3343132    4.3343132    4.3343132   -11245.006    1081.0716   -7400.0375   -27416.051     -4243.94    -9203.038    10331.408    81.425581 
   18500    525.60571    -107.7136   0.47557909   -107.23802    12259.229    4.3258077    4.3258077    4.3258077    12259.229    42976.914   -17984.164    11784.937    15719.126    1491.7789     2386.139    80.947164 
   18600    516.67065   -107.70752   0.46749447   -107.24002   -5040.1161     4.340635     4.340635     4.340635   -5040.1161    16334.656   -8929.2416   -22525.763    9463.9268   -5731.8503    76.289046    81.782389 
   18700    575.34215   -107.75782   0.52058167   -107.23724    2261.3497    4.3310344    4.3310344    4.3310344    2261.3497    4832.4489    13085.546   -11133.945     6176.004    548.87342    5792.3587    81.240935 
   18800    632.12974   -107.80957   0.57196428   -107.23761   -779.63785    4.3271346    4.3271346    4.3271346   -779.63785    -14292.13    6095.0612    5858.1551    15803.953    426.23085   -6504.2582    81.021674 
   18900    614.00032   -107.79454   0.55556039   -107.23898   -15093.371    4.3437904    4.3437904    4.3437904   -15093.371   -17378.601    914.62911   -28816.142   -10009.885   -9255.5172    4206.7552    81.960872 
   19000    623.23004   -107.80067   0.56391164   -107.23676    9390.6348    4.3261595    4.3261595    4.3261595    9390.6348      31144.6    -463.6665   -2509.0296     -3095.82    1595.7905     306.3368    80.966916 
   19100    510.10277   -107.70092   0.46155171   -107.23937    1426.2119    4.3313281    4.3313281    4.3313281    1426.2119     25683.07   -14835.209   -6569.2247    12698.199   -4088.6775   -1350.8635    81.257463 
   19200    530.04093   -107.71721   0.47959217   -107.23762   -19810.499    4.3435417    4.3435417    4.3435417   -19810.499   -7030.9405   -10219.077   -42181.478   -1698.4913   -4419.4616    3794.5213    81.946796 
   19300     813.8033   -107.97085   0.73634633    -107.2345    3171.2384    4.3190658    4.3190658    4.3190658    3171.2384   -1669.6745         5812    5371.3898     13228.45    7011.2137    599.23521    80.569274 
   19400    657.97237   -107.83596   0.59534723   -107.24061   -5346.2607    4.3380661    4.3380661    4.3380661   -5346.2607   -7324.5866   -5847.4481   -2866.7475    5955.4979   -4279.0126    114.69169    81.637277 
   19500    481.83362   -107.67677   0.43597319    -107.2408   -2668.6237    4.3398475    4.3398475    4.3398475   -2668.6237    19774.746    2312.3749   -30092.992   -11073.617   -168.95393    1024.6405    81.737888 
   19600    478.92273    -107.6676   0.43333935   -107.23426    25751.227    4.3171321    4.3171321    4.3171321    25751.227    45326.077    14274.095    17653.509    5225.9811    2751.9024    1508.1515    80.461108 
   19700    556.66446   -107.74324    0.5036817   -107.23956    -18891.73    4.3435335    4.3435335    4.3435335    -18891.73   -19905.136   -7662.4419   -29107.613    1591.1909   -7901.8416   -2064.7657    81.946331 
   19800    693.90957   -107.86602   0.62786396   -107.23816   -9174.8064     4.332978     4.332978     4.332978   -9174.8064   -16116.315    6729.5433   -18137.647    690.51368     929.1346    2939.4191    81.350355 
   19900    843.01883   -107.99821   0.76278116   -107.23542    9703.4595    4.3211397    4.3211397    4.3211397    9703.4595    19801.892   -2952.0889    12260.576    14817.257    5307.8457   -727.92867    80.685395 
   20000    386.47698   -107.59015    0.3496925   -107.24046   -12992.214    4.3458867    4.3458867    4.3458867   -12992.214    13226.489   -18915.845   -33287.286    116.70738   -5191.1015    2943.0049    82.079596 
   20100    440.37406   -107.63645   0.39845971   -107.23799    5188.8523    4.3271228    4.3271228    4.3271228    5188.8523    24813.922    10552.379   -19799.744   -6000.3594    9791.1317    4121.4299    81.021011 
   20200    795.72829   -107.95616   0.71999168   -107.23617    5103.3658     4.324879     4.324879     4.324879    5103.3658   -1775.4618    6202.2571    10883.302    4057.5662   -962.79249   -179.96607     80.89504 
   20300    563.91336    -107.7509   0.51024066   -107.24066     -16085.9    4.3445402    4.3445402    4.3445402     -16085.9   -34626.102    5068.8566   -18700.454   -4633.6694    -8246.091    8851.9139    82.003325 
   20400    694.22426   -107.86563    0.6281487   -107.23748    7543.9454    4.3275873    4.3275873    4.3275873    7543.9454    10718.145    12855.941   -942.24973    6525.0508    7872.8935   -1179.9105    81.047103 
   20500    484.70895   -107.67733   0.43857485   -107.23876    20221.824    4.3245595    4.3245595    4.3245595    20221.824    47993.539    7461.7946    5210.1377     12058.12   -6797.2552    1729.8008    80.877113 
   20600    304.09958    -107.5196   0.27515569   -107.24444   -12970.804    4.3441468    4.3441468    4.3441468   -12970.804   -1338.5439   -5493.1242   -32080.745   -2881.0142    582.87356    3979.4679    81.981052 
   20700    873.41596   -108.02539   0.79028511   -107.23511    1689.7753    4.3279866    4.3279866    4.3279866    1689.7753   -4294.0845    4513.1219    4850.2886    824.27233    10612.504   -1786.1838    81.069543 
   20800    820.82413   -107.98063   0.74269892   -107.23793   -553.55673    4.3257351    4.3257351    4.3257351   -553.55673   -472.16233   -1496.8775    308.36964   -2818.1259   -9806.8216    2552.5459    80.943088 
   20900     351.4734   -107.56102   0.31802052     -107.243   -13757.573    4.3432808    4.3432808    4.3432808   -13757.573    -2276.545   -11997.296   -26998.878   -9077.4226    3880.3196    1726.4803    81.932029 
   21000    678.02195   -107.84879    0.6134885    -107.2353    14505.256    4.3260253    4.3260253    4.3260253    14505.256    50026.473   -2508.8418   -4001.8624    1002.7377    1483.3935   -793.56071    80.959381 
   21100    554.61774   -107.74278   0.50182979   -107.24095    5685.3625    4.3287187    4.3287187    4.3287187    5685.3625    11676.631    496.27235     4883.184    6173.9424   -8543.1947    2477.7735    81.110691 
   21200    650.80068   -107.83014   0.58885813   -107.24128    -17921.65    4.3423458    4.3423458    4.3423458    -17921.65   -34061.017   -5053.1037    -14650.83   -895.78298    11310.813    1235.0072    81.879129 
   21300    887.33208   -108.03689   0.80287671   -107.23401    7020.2299    4.3269824    4.3269824    4.3269824    7020.2299    7497.5073    2190.0915    11373.091    1438.2716   -489.35706   -17.451217    81.013126 
   21400     400.4545    -107.6028   0.36233964   -107.24046    6080.3275    4.3284464    4.3284464    4.3284464    6080.3275    26621.702     5927.532   -14308.252   -3998.5597   -3716.6456    4101.8797    81.095385 
   21500    326.75967   -107.53931   0.29565901   -107.24365   -111.00219    4.3411121    4.3411121    4.3411121   -111.00219    21687.046    501.13715    -22521.19   -12565.374     8840.944   -3019.6795    81.809363 
   21600    849.86976   -108.00496   0.76898002   -107.23598    12959.795    4.3237338    4.3237338    4.3237338    12959.795    23180.577      10251.2    5447.6086   -3215.4057   -3645.0817   -1032.9635    80.830793 
   21700    552.39243   -107.74249   0.49981628   -107.24267   -5031.9698    4.3310786    4.3310786    4.3310786   -5031.9698   -23685.749    11906.829   -3316.9884   -3252.6044    56.330133    2931.4984    81.243421 
   21800    542.01795    -107.7315   0.49042923   -107.24107   -15867.503    4.3405947    4.3405947    4.3405947   -15867.503   -15074.323   -9302.3634   -23225.822   -1031.5998    11111.688   -6813.4768    81.780111 
   21900     691.9709   -107.86264   0.62610982   -107.23653    23222.613    4.3190402    4.3190402    4.3190402    23222.613    45157.169    11263.145    13247.524    7014.8167   -4346.4223    2188.9238    80.567844 
   22000    447.07754   -107.64922   0.40452516   -107.24469   -2047.9584     4.337451     4.337451     4.337451   -2047.9584    14993.023     -5518.37   -15618.528   -2832.7066    3551.1267    952.39927    81.602552 
   22100    652.91648   -107.83057   0.59077255    -107.2398     -6912.66    4.3351051    4.3351051    4.3351051     -6912.66    1432.9318   -16436.612   -5734.3002   -6107.7286    4319.1906   -6204.7928    81.470222 
   22200    849.01298   -108.00321   0.76820478   -107.23501    7313.2395    4.3211092    4.3211092    4.3211092    7313.2395    1549.4066    6365.0535    14025.259   -650.45243   -5129.4677    2659.7311    80.683687 
   22300    457.30326   -107.65574    0.4137776   -107.24196   -18706.015    4.3409464    4.3409464    4.3409464   -18706.015   -12494.159   -11283.579   -32340.306   -7287.2625    7791.0799   -3999.0128    81.799993 
   22400    559.50781   -107.74712   0.50625442   -107.24087    8043.3761     4.328222     4.328222     4.328222    8043.3761    33917.898   -5135.7925   -4651.9772    158.28237    4921.6608   -5400.7325    81.082771 
   22500    731.98439    -107.9013   0.66231486   -107.23898    12125.986    4.3254892    4.3254892    4.3254892    12125.986    31227.043    6947.9056   -1796.9923     6364.956   -3164.9746    1680.0914    80.929282 
   22600    363.78458   -107.57348   0.32915993   -107.24432   -10603.346      4.33903      4.33903      4.33903   -10603.346   -13543.985     3111.554   -21377.607    585.40805    8714.8104   -6957.2209    81.691706 
   22700    718.47809   -107.88698   0.65009408   -107.23688   -2137.7441    4.3294278    4.3294278    4.3294278   -2137.7441   -8680.1151    3481.1526   -1214.2699   -1721.9357     -3722.43   -3491.6672    81.150557 
   22800    676.03517   -107.84945   0.61169083   -107.23776    6645.4598    4.3274205    4.3274205    4.3274205    6645.4598    25.009866    18201.042    1710.3274    -2413.652   -863.12955    3235.4445    81.037734 
   22900    493.63611   -107.69044   0.44665233   -107.24379   -4862.3249    4.3354895    4.3354895    4.3354895   -4862.3249    14103.232   -7065.8752   -21624.332   -8592.6253    5734.5504   -5260.1864    81.491894 
   23000    694.20093   -107.86678   0.62812759   -107.23866    9709.7366    4.3309922    4.3309922    4.3309922    9709.7366    31790.998   -13923.754    11261.966    1834.2979    1394.6135   -37.655238    81.238559 
   23100    577.42257   -107.76207   0.52246407   -107.23961   -4206.1123    4.3306713    4.3306713    4.3306713   -4206.1123    11999.143   -7559.4672   -17058.013    4835.5071     7289.692     3902.298      81.2205 
   23200     502.4157   -107.69489   0.45459628   -107.24029   -16532.329    4.3354616    4.3354616    4.3354616   -16532.329   -16028.064   -16186.864   -17382.061    282.83908    6798.9136   -11367.615    81.490322 
   23300    927.65746   -108.07556   0.83936397    -107.2362    56.662074    4.3288879    4.3288879    4.3288879    56.662074   -2979.4001   -4580.3658    7729.7522    4734.1812   -2510.2647    2417.7094    81.120199 
   23400    524.39416   -107.71599   0.47448285   -107.24151    4604.8308    4.3315299    4.3315299    4.3315299    4604.8308     17958.87    2481.9592   -6626.3368   -3397.9839     3443.282   -4655.5818     81.26882 
   23500    392.66851   -107.59777   0.35529472   -107.24247    2497.2907    4.3363057    4.3363057    4.3363057    2497.2907    33768.265    -13896.08   -12380.312   -10446.292    1077.7141   -10074.954    81.537927 
   23600    612.64798   -107.78986   0.55433677   -107.23553    16410.607    4.3280457    4.3280457    4.3280457    16410.607    28178.763    4288.3523    16764.706    -2067.294   -3179.1913    3551.5036    81.072863 
   23700    501.33641   -107.69504   0.45361972   -107.24142   -6807.4415    4.3314073    4.3314073    4.3314073   -6807.4415   -8342.9827     6234.188    -18313.53   -5147.3586    6564.9598   -13182.228    81.261919 
   23800    710.62267    -107.8839   0.64298633   -107.24092   -9063.3653    4.3356613    4.3356613    4.3356613   -9063.3653   -20868.156   -4703.2169   -1618.7227   -6.4642318    3078.9647   -674.28285    81.501582 
   23900    805.22707   -107.96653   0.72858637   -107.23794    8172.2705    4.3260416    4.3260416    4.3260416    8172.2705    15762.818    862.05154    7891.9416    12551.557   -2.6693144   -1574.8479    80.960291 
   24000    299.88701   -107.51617   0.27134406   -107.24482    -4871.765    4.3341666    4.3341666    4.3341666    -4871.765    30533.912   -20199.953   -24949.254   -937.33408    5408.9646   -10798.764    81.417319 
   24100    567.86744   -107.75436   0.51381839   -107.24054   -2895.9961     4.333737     4.333737     4.333737   -2895.9961    20609.009   -21008.075   -8288.9224   -3512.0898   -1915.7821    5629.4464    81.393114 
   24200    820.68794   -107.98011    0.7425757   -107.23753    5272.8409    4.3249974    4.3249974    4.3249974    5272.8409    9281.7887   -1672.0726    8208.8067   -768.60903   -176.95218   -9178.3096    80.901683 
   24300    614.61342   -107.79814   0.55611514   -107.24202   -15862.698    4.3377598    4.3377598    4.3377598   -15862.698   -20069.872   -9534.0851   -17984.136   -6128.0935    6835.7093   -5829.0286    81.619984 
   24400    647.12282   -107.82521   0.58553033   -107.23968    1683.1222     4.330001     4.330001     4.330001    1683.1222    3465.1363   -3618.9575    5203.1878    1523.9968   -3475.1213    2837.2288    81.182794 
   24500    475.42933   -107.66946   0.43017845   -107.23928     15482.52    4.3270266    4.3270266    4.3270266     15482.52    50724.207   -4746.0499    469.40184    8317.5846    2837.8749   -9298.1893    81.015608 
   24600    428.59353   -107.62948   0.38780043   -107.24168   -3589.6274    4.3382464    4.3382464    4.3382464   -3589.6274    19513.589   -9054.2019   -21228.269     354.3334    667.40481    2437.0221    81.647454 
   24700    676.19195   -107.84959   0.61183268   -107.23776    3906.4091    4.3274911    4.3274911    4.3274911    3906.4091    2133.9558    1875.7503    7709.5211    6664.0147   -4460.1533   -27.825803    81.041702 
   24800    730.56789   -107.89916   0.66103318   -107.23813   -3835.8372    4.3286037    4.3286037    4.3286037   -3835.8372   -2784.4393   -242.01082   -8481.0614    -1.397571    3106.0499   -8331.9986    81.104226 
   24900    500.47909   -107.69283     0.452844   -107.23999   -13040.051    4.3380342    4.3380342    4.3380342   -13040.051   -12835.202   -10579.465   -15705.487   -8198.1276    4614.5624    4098.8483    81.635474 
   25000    561.10325   -107.74674   0.50769801   -107.23904    1922.2993    4.3276404    4.3276404    4.3276404    1922.2993    25060.495   -16251.018   -3042.5793    1801.3719   -2018.9922   -4027.2539     81.05009 
   25100     662.2061   -107.83781     0.599178   -107.23863     10197.63    4.3280459    4.3280459    4.3280459     10197.63    38252.035   -5526.6747   -2132.4704    4030.0053    6156.0339   -9254.2679    81.072873 
   25200    667.88646   -107.84502   0.60431771    -107.2407     -11421.6    4.3371814    4.3371814    4.3371814     -11421.6   -9849.4188   -6626.1274   -17789.253     1844.952   -2253.9824    1361.0813    81.587336 
   25300    526.62777   -107.71649   0.47650387   -107.23998   -2982.1821    4.3285636    4.3285636    4.3285636   -2982.1821    -5119.155   -9201.4882    5374.0968    10079.422   -3418.1805   -9449.0738    81.101972 
   25400    710.72739   -107.88149   0.64308108   -107.23841   -1682.8257    4.3296517    4.3296517    4.3296517   -1682.8257    3978.0078    6331.9273   -15358.412   -3159.2043    3696.7647   -6799.6839     81.16315 
   25500    472.42027   -107.66919   0.42745579   -107.24173    2975.7293    4.3350201    4.3350201    4.3350201    2975.7293    19581.098    1655.4175   -12309.328   -6648.4942   -3446.4409    2408.6062     81.46543 
   25600    517.85673   -107.71021   0.46856765   -107.24164    8789.1264    4.3280929    4.3280929    4.3280929    8789.1264    39396.316   -6209.4272   -6819.5098    1414.7513     980.7924   -9787.5219    81.075514 
   25700    699.02889   -107.87057   0.63249603   -107.23808    3300.2623    4.3304647    4.3304647    4.3304647    3300.2623    8365.1878    9612.1764   -8076.5773   -1742.5858    6537.5478     1741.538    81.208878 
   25800    564.52995   -107.75201   0.51079856   -107.24121   -17831.775    4.3347771    4.3347771    4.3347771   -17831.775   -21399.445   -13264.633   -18831.246    3172.7674   -6910.1863   -2263.3126    81.451728 
   25900    594.84662   -107.78045   0.53822972   -107.24222   -949.06724    4.3268698    4.3268698    4.3268698   -949.06724    4885.4326   -13794.897    6062.2625    11605.291     594.5935   -10030.353    81.006801 
   26000    786.62396   -107.95048   0.71175389   -107.23872    3899.8952    4.3335572    4.3335572    4.3335572    3899.8952    22814.624    458.16427   -11573.103   -1929.0328    122.97589    5924.9444    81.382984 
   26100    445.36203    -107.6444   0.40297293   -107.24142   -1639.4398    4.3348554    4.3348554    4.3348554   -1639.4398    23364.245    -17565.39   -10717.174   -580.76805   -4816.6784   -9082.7526    81.456143 
   26200    557.60876   -107.74275   0.50453612   -107.23821    7875.9606    4.3229412    4.3229412    4.3229412    7875.9606    9987.7317     3166.708    10473.442    1984.1237    5182.2176   -2795.8155    80.786347 
   26300    660.27722   -107.83623   0.59743271    -107.2388    -10136.81    4.3368139    4.3368139    4.3368139    -10136.81   -22018.487    14559.562   -22951.506   -4749.8251   -3236.8054    4615.1413    81.566602 
   26400    538.84767   -107.72836    0.4875607    -107.2408   -8848.4858    4.3332432    4.3332432    4.3332432   -8848.4858   -11093.129   -5935.6323   -9516.6956     10930.43    -4462.832   -11947.975    81.365292 
   26500    678.84291   -107.85308   0.61423133   -107.23885    13441.131    4.3226226    4.3226226    4.3226226    13441.131    30470.978    4630.3866    5222.0287    12375.701    294.08939    5337.8148    80.768486 
   26600    494.79979   -107.68932   0.44770525   -107.24161   -2188.9039    4.3387278    4.3387278    4.3387278   -2188.9039    29063.807   -8770.0788    -26860.44    9.7990075   -6913.4106   -5729.0465    81.674636 
   26700    489.25795   -107.68202   0.44269087   -107.23933   -5140.0954    4.3311519    4.3311519    4.3311519   -5140.0954    14390.217   -23219.335    -6591.168    6397.2604   -3682.9904   -9700.9295    81.247544 
   26800    791.27787   -107.95131   0.71596485   -107.23534    358.07393    4.3263404    4.3263404    4.3263404    358.07393   -8528.9951   -2637.6919    12240.909   -3749.0204    1939.1679    3521.3834    80.977071 
   26900    691.63197   -107.86517   0.62580314   -107.23937   -18704.943    4.3387572    4.3387572    4.3387572   -18704.943    -11987.41   -15874.723   -28252.696   -2711.0071   -2741.6824   -14084.708    81.676295 
   27000     598.0818   -107.78083   0.54115698   -107.23968    8403.2817    4.3273426    4.3273426    4.3273426    8403.2817    27762.885   -14430.452    11877.411    10291.356    902.37911   -2927.8772     81.03336 
   27100    590.42381   -107.77221   0.53422787   -107.23799     7402.578    4.3300431    4.3300431    4.3300431     7402.578    37736.789   -3114.0375   -12415.018    3690.4802    75.314932    -3169.589    81.185159 
   27200    354.75558   -107.56264   0.32099031   -107.24165    -7034.946     4.336008     4.336008     4.336008    -7034.946    6987.6218   -4204.1614   -23888.298    11690.785   -8068.8295   -10190.728    81.521136 
   27300    740.77684   -107.90683   0.67027045   -107.23656    1664.9883    4.3277088    4.3277088    4.3277088    1664.9883   -11957.174    9739.3936    7212.7452    10361.414    995.88927    1465.8014    81.053931 
   27400    747.08124   -107.91388    0.6759748    -107.2379   -1568.1265    4.3315232    4.3315232    4.3315232   -1568.1265   -9440.3528    11862.869   -7126.8957   -8509.5034   -1357.4223   -3507.4305    81.268444 
   27500     467.7726   -107.66592   0.42325048   -107.24267   -5171.1496    4.3319088    4.3319088    4.3319088   -5171.1496    11443.355   -8971.0666   -17985.738    1506.4842    -3922.196   -3323.3189    81.290148 
   27600    573.66392   -107.75859   0.51906317   -107.23953    7741.0982    4.3303606    4.3303606    4.3303606    7741.0982    25737.661    -17256.04    14741.673    2086.6505     4594.255    398.46511    81.203019 
   27700    577.99669    -107.7627   0.52298355   -107.23972    -539.4618    4.3312149    4.3312149    4.3312149    -539.4618    22870.253   -12443.842   -12044.797   -1373.4607   -7316.8884   -4522.6697    81.251089 
   27800    599.04169   -107.78288   0.54202551   -107.24086   -6338.4176    4.3305206    4.3305206    4.3305206   -6338.4176   -12306.226   -6087.1604   -621.86606     16496.54   -4245.7008   -2391.4663    81.212023 
   27900    835.45971   -107.99355    0.7559415   -107.23761    -3773.661    4.3323912    4.3323912    4.3323912    -3773.661   -17131.321    67.986828    5742.3508    4322.0091   -221.10988    1736.5869    81.317309 
   28000    510.74695   -107.70266   0.46213458   -107.24052   -1535.7811     4.329474     4.329474     4.329474   -1535.7811    9583.4898    7954.6729   -22145.506   -7615.9579   -7010.5604   -6189.0114    81.153157 
   28100    340.46864   -107.55098   0.30806318   -107.24292    3890.9052    4.3314006    4.3314006    4.3314006    3890.9052     22957.85   -3099.6144   -8185.5197    4982.4113    1390.1032    1551.0368    81.261541 
   28200    634.24583    -107.8126   0.57387895   -107.23872    8250.2587    4.3323462    4.3323462    4.3323462    8250.2587    32257.943   -7838.7874     331.6205   -7488.6968    2504.7067    79.646662    81.314773 
   28300    651.55447   -107.82875   0.58954018   -107.23921    1293.2667    4.3289786    4.3289786    4.3289786    1293.2667    7435.1363   -915.29001   -2640.0463   -252.98804   -1730.7951   -8985.2134      81.1253 
   28400    666.02718    -107.8411   0.60263539   -107.23846   -14435.788     4.334663     4.334663     4.334663   -14435.788   -25156.189    -17221.71    -929.4663    16464.528   -820.79952    2677.2717    81.445297 
   28500    664.80209   -107.83871   0.60152691   -107.23719    1244.8507    4.3282857    4.3282857    4.3282857    1244.8507    9781.7691   -12096.613    6049.3957   -148.52552   -3011.7726   -10254.815    81.086351 
   28600    589.36022   -107.77234   0.53326551   -107.23908   -762.82175    4.3320141    4.3320141    4.3320141   -762.82175    23473.584   -10186.575   -15575.474    4907.4322   -7104.3802   -7740.7416    81.296075 
   28700    536.48749   -107.72513   0.48542516   -107.23971     1248.173    4.3340687    4.3340687    4.3340687     1248.173    15587.711   -11636.972   -206.21967    3800.5267    2276.8327    825.63186    81.411803 
   28800    690.57047    -107.8616   0.62484267   -107.23676    6255.6512    4.3267378    4.3267378    4.3267378    6255.6512    19038.652      8047.38   -8319.0783   -13917.309    2534.3044   -12516.819    80.999385 
   28900    579.93041   -107.76255   0.52473322   -107.23782   -7537.7063    4.3345017    4.3345017    4.3345017   -7537.7063   -16749.089    12477.096   -18341.126     5637.156   -2290.6415    2086.3704    81.436208 
   29000    523.10595   -107.71177   0.47331726   -107.23845    -8390.704     4.333113     4.333113     4.333113    -8390.704   -6564.0607    -4809.317   -13798.734    8440.6283    6015.8952   -2798.0872    81.357958 
   29100    648.21599   -107.82459   0.58651945   -107.23807    8445.2319    4.3267641    4.3267641    4.3267641    8445.2319    27872.965   -952.05147    -1585.218   -3070.1321   -3933.4709   -8979.2147    81.000862 
   29200    638.53045   -107.81696   0.57775577    -107.2392    1602.4767    4.3339157    4.3339157    4.3339157    1602.4767    23853.976   -6126.0635   -12920.483    12973.822   -3789.7728    6790.5405    81.403181 
   29300    525.48416   -107.71603   0.47546911   -107.24056   -3954.7436    4.3310676    4.3310676    4.3310676   -3954.7436    11164.658   -19840.383   -3188.5065   -2556.8706    2220.7877   -8840.9895    81.242801 
   29400    652.12777   -107.82899   0.59005891   -107.23893    -916.7673      4.32652      4.32652      4.32652    -916.7673    601.67496    406.92728   -3758.9041    -10277.68   -5346.2589   -2104.8994    80.987153 
   29500     689.6911   -107.86453     0.624047   -107.24048   -9072.2326    4.3343066    4.3343066    4.3343066   -9072.2326    -7273.788   -4435.5034   -15507.406    12630.343    2348.6353    1360.1673     81.42521 
   29600    474.30125   -107.67216   0.42915774     -107.243    6220.2017    4.3296548    4.3296548    4.3296548    6220.2017    38294.257   -13221.941    -6411.711   -1717.8186    1906.6147   -12124.702    81.163323 
   29700    609.57829    -107.7919   0.55155924   -107.24034    5568.2346    4.3294027    4.3294027    4.3294027    5568.2346    29969.925    1309.5306   -14574.752   -1829.9997   -5314.3028    5695.2326    81.149143 
   29800    564.06238    -107.7494   0.51037549   -107.23902   -6983.4969    4.3335732    4.3335732    4.3335732   -6983.4969    10278.067   -7598.6254   -23629.933    12148.181   -541.93976   -6407.7548    81.383883 
   29900    549.46229    -107.7374   0.49716502   -107.24024   -9920.1386    4.3283147    4.3283147    4.3283147   -9920.1386    -3792.066   -15616.227   -10352.123   -15119.357   -4485.2015   -7067.8657    81.087984 
   30000    723.19673   -107.89342    0.6543636   -107.23906   -113.68046    4.3308261    4.3308261    4.3308261   -113.68046     4342.003   -1604.1166   -3078.9277   -4594.3712   -3049.1004    6263.1578    81.229211 
   30100    698.00872   -107.87212   0.63157296   -107.24054   -2482.4862    4.3325091    4.3325091    4.3325091   -2482.4862    28169.031   -20415.431   -15201.058    5540.3459    2180.9335   -13749.374     81.32395 
   30200    434.92964   -107.63651   0.39353348   -107.24297    10528.394    4.3249365    4.3249365    4.3249365    10528.394    35150.696   -9421.3766    5855.8607   -7035.1371    2029.8465    -653.8565    80.898265 
   30300     639.9313    -107.8194   0.57902328   -107.24038   -9073.5556    4.3359833    4.3359833    4.3359833   -9073.5556   -2680.6357   -1185.8961   -23354.135    3211.4637   -5141.9341   -1744.4908    81.519741 
   30400    603.87642   -107.78574   0.54640007   -107.23934   -5040.2477    4.3304771    4.3304771    4.3304771   -5040.2477    3795.8539   -3735.1468    -15181.45    2254.3237    186.25332   -14813.418    81.209574 
   30500    604.88711   -107.78762   0.54731457    -107.2403    4032.6951    4.3262505    4.3262505    4.3262505    4032.6951    13320.265    2729.5399   -3951.7199   -19368.074   -5715.4671    4444.6665    80.972023 
   30600    582.73921    -107.7674   0.52727468   -107.24013    1607.9555     4.336834     4.336834     4.336834    1607.9555    34792.412   -7362.3807   -22606.165   -3943.9693   -8268.5017   -4867.6527    81.567733 
   30700    538.91352   -107.72616   0.48762028   -107.23854    5685.8037    4.3269632    4.3269632    4.3269632    5685.8037    40636.096   -11923.371   -11655.314   -3502.3427    2095.6537   -6331.4924    81.012046 
   30800    556.43844   -107.74279   0.50347719   -107.23932   -8619.0686    4.3302925    4.3302925    4.3302925   -8619.0686   -4150.6949   -11668.256   -10038.255   -10721.637   -6281.1825    6488.6939    81.199188 
   30900    725.89757   -107.89548   0.65680738   -107.23867   -10854.232    4.3326754    4.3326754    4.3326754   -10854.232   -3154.8891   -15585.176   -13822.633    8209.3775    958.96741   -8830.4914     81.33331 
   31000    732.53669   -107.90123   0.66281459   -107.23842   -1111.9607    4.3301956    4.3301956    4.3301956   -1111.9607    17380.058   -19869.015   -846.92466     -4852.57    4413.5032    605.90394    81.193737 
   31100    491.40804   -107.68566   0.44463632   -107.24102    3621.6155    4.3296501    4.3296501    4.3296501    3621.6155     28577.07   -11695.557   -6016.6667   -10666.556   -7912.3422    3641.3483     81.16306 
   31200    555.60818   -107.74217   0.50272596   -107.23945   -100.76991    4.3303448    4.3303448    4.3303448   -100.76991    30368.363   -9087.7164   -21582.957   -1883.4975    135.41007   -9611.1782    81.202134 
   31300     582.8803   -107.76633   0.52740234   -107.23893   -5775.4368    4.3319365    4.3319365    4.3319365   -5775.4368   -5388.6415   -5300.5084   -6637.1605   -13929.574   -425.46999    2256.7146    81.291707 
   31400    631.13507   -107.81095   0.57106428   -107.23989    -5108.894    4.3289561    4.3289561    4.3289561    -5108.894   -6538.2761    2339.2746    -11127.68   -5430.4025   -6241.9762   -1708.9102    81.124032 
   31500    689.21616   -107.86322   0.62361727    -107.2396    3606.0647    4.3304617    4.3304617    4.3304617    3606.0647    13386.356   -171.76603   -2396.3962     8387.076    5648.4488    -9638.771    81.208707 
   31600     558.8291   -107.74685   0.50564031    -107.2412     8789.964    4.3278923    4.3278923    4.3278923     8789.964    31936.786   -6319.9707    753.07699   -6384.8513    292.68959    6634.5787    81.064243 
   31700    414.06659   -107.61808   0.37465615   -107.24342    1388.8405    4.3312978    4.3312978    4.3312978    1388.8405    22432.449    -13022.33    -5243.597    -2106.963   -7546.6592   -7548.7488    81.255758 
   31800    725.61666   -107.89524    0.6565532   -107.23869    -6058.684    4.3300509    4.3300509    4.3300509    -6058.684    1176.7073   -10287.394   -9065.3656   -1475.9177     3322.769   -2857.9082    81.185602 
   31900    736.35685   -107.90612   0.66627116   -107.23985   -4243.6356    4.3297493    4.3297493    4.3297493   -4243.6356   -8863.2204   -8988.4355     5120.749   -13533.205    -2271.952    3139.0788    81.168639 
   32000    660.13107   -107.83811   0.59730047   -107.24081   -2194.3466    4.3318569    4.3318569    4.3318569   -2194.3466    16233.713   -8290.5565   -14526.196    1996.9089   -5433.5611     -12433.1    81.287227 
   32100    477.23676   -107.67175   0.43181385   -107.23994    8988.7401    4.3290969    4.3290969    4.3290969    8988.7401    33849.164    1245.4339   -8128.3775    2457.4458    9904.3276    2287.5624    81.131954 
   32200    466.63453   -107.66296   0.42222073   -107.24074   -824.53717    4.3306759    4.3306759    4.3306759   -824.53717    11967.629   -6399.3557   -8041.8843   -6034.1995   -2794.8067   -7374.9696    81.220757 
   32300    611.37448   -107.79267   0.55318448   -107.23948    2894.6255    4.3284943    4.3284943    4.3284943    2894.6255   -6366.7643    8284.0603    6766.5806    5365.9579    909.15022   -8103.4817    81.098074 
   32400    763.06643   -107.92945   0.69043854   -107.23901   -6856.2275    4.3330315    4.3330315    4.3330315   -6856.2275   -18443.827   -1089.9908   -1034.8649   -9802.6425    7813.7999    1370.8938    81.353368 
   32500    536.99273   -107.72662   0.48588231   -107.24074    7231.2551    4.3275402    4.3275402    4.3275402    7231.2551    20176.934   -8401.2532    9918.0847   -15203.163   -9222.6498   -8003.1333    81.044459 
   32600    484.03626   -107.67874   0.43796618   -107.24078    4019.8044    4.3300673    4.3300673    4.3300673    4019.8044    32969.022      64.4413    -20974.05    485.29558    4919.7815    2493.7887    81.186525 
   32700    531.69819   -107.72044   0.48109169   -107.23935   -7355.1417    4.3350425    4.3350425    4.3350425   -7355.1417    5288.5665   -14299.497   -13054.495   -7057.6302    4936.3391   -1327.9854     81.46669 
   32800    783.68773   -107.94562   0.70909713   -107.23653   -5265.2631    4.3277027    4.3277027    4.3277027   -5265.2631   -3773.0181   -9994.3338   -2028.4376    -1203.148   -2036.0185   -2077.1921     81.05359 
   32900    792.40102   -107.95406    0.7169811   -107.23708   -7595.7728    4.3320132    4.3320132    4.3320132   -7595.7728    -10121.71    1140.3873   -13805.996    4965.9036    12787.854    3670.0799    81.296027 
   33000    486.19286   -107.67967   0.43991751   -107.23975    1985.7762    4.3303327    4.3303327    4.3303327    1985.7762    29496.121   -14145.923   -9392.8695   -12207.292    457.11681   -2188.0915    81.201451 
   33100    497.01639   -107.68889   0.44971087   -107.23918    6898.3842      4.32919      4.32919      4.32919    6898.3842    30434.275   -3706.6753   -6032.4474   -4615.1325   -2646.8702   -1817.6292    81.137188 
   33200    614.84809   -107.79464   0.55632747   -107.23832   -357.18104    4.3320948    4.3320948    4.3320948   -357.18104    599.86573    5561.2826   -7232.6914   -7722.3758    5579.5899    252.77344     81.30062 
   33300    684.80294   -107.85855   0.61962409   -107.23892   -3729.8896     4.329724     4.329724     4.329724   -3729.8896   -15358.311   -493.29958    4661.9417   -11554.411   -2656.6743   -6426.6699    81.167212 
   33400     654.0114   -107.83107   0.59176326   -107.23931    4756.0353    4.3291484    4.3291484    4.3291484    4756.0353    3120.2125    15684.569   -4536.6757     7876.133    2101.2089   -4016.0778     81.13485 
   33500    488.70987   -107.68176   0.44219496   -107.23957    1649.2621    4.3328029    4.3328029    4.3328029    1649.2621    23765.608    1278.9565   -20096.778     534.3876    7752.2184   -2327.6913    81.340493 
   33600    437.27752   -107.63608   0.39565789   -107.24042    3727.4601    4.3270106    4.3270106    4.3270106    3727.4601    30636.264   -12104.486   -7349.3976   -5380.2363   -2898.2305   -9145.0412    81.014708 
   33700    740.24488    -107.9092   0.66978913   -107.23941   -6166.5232    4.3304998    4.3304998    4.3304998   -6166.5232   -5610.3492   -832.33661   -12056.884    2123.7293    9419.4981    1578.4738    81.210851 
   33800     744.6472   -107.91414   0.67377243   -107.24036   -9902.9211    4.3316956    4.3316956    4.3316956   -9902.9211   -12023.461   -12909.539   -4775.7636   -9545.9048    3742.4615   -6588.7311    81.278145 
   33900     607.6893   -107.79132   0.54985005   -107.24147    414.61706    4.3247863    4.3247863    4.3247863    414.61706     13698.99   -8876.3007    -3578.838   -5987.7737   -3928.5431    -5884.355    80.889836 
   34000    425.63467   -107.62807    0.3851232   -107.24294    2353.5194    4.3348845    4.3348845    4.3348845    2353.5194    23572.148   -412.18899   -16099.401     5996.023    8939.6605      5112.68    81.457784 
   34100    563.11857   -107.75023   0.50952152   -107.24071    6444.4945    4.3261534    4.3261534    4.3261534    6444.4945    27763.189   -3550.7189    -4878.987   -1509.1087    1097.1161   -10729.467    80.966573 
   34200    641.55073   -107.82182   0.58048858   -107.24133   -604.67129    4.3292274    4.3292274    4.3292274   -604.67129   -4986.7348    1845.9539    1326.7671   -1319.5757    1312.3029    118.78114    81.139288 
   34300    694.38562   -107.86783    0.6282947   -107.23953   -12228.202    4.3344708    4.3344708    4.3344708   -12228.202   -23989.951    3662.8501   -16357.505    2843.7598    9144.9559    2102.5277    81.434465 
   34400    593.26229   -107.77584   0.53679619   -107.23904    8364.5248     4.322927     4.322927     4.322927    8364.5248    28034.717   -1899.9995    -1041.143   -11059.406   -6010.7647   -11838.974    80.785552 
   34500      541.817   -107.73127   0.49024741   -107.24102   -2412.3687      4.33339      4.33339      4.33339   -2412.3687    20131.477   -14111.936   -13256.647   -3545.8862    4838.3967    5423.4433    81.373563 
   34600    432.55921   -107.63305   0.39138866   -107.24166    3781.4792    4.3309364    4.3309364    4.3309364    3781.4792    31924.353   -18333.359    -2246.556    4723.0672    6017.5266   -4498.6731    81.235418 
   34700    846.85779   -108.00304   0.76625473   -107.23678   -2618.3579    4.3282094    4.3282094    4.3282094   -2618.3579    7116.7315   -17322.069    2350.2642   -2197.3099    937.58641   -9437.5197    81.082062 
   34800    760.20433   -107.92597   0.68784885   -107.23812   -4753.0339     4.331635     4.331635     4.331635   -4753.0339   -15712.461   -4134.0461    5587.4053    3851.3411    8422.1402    4569.8751    81.274736 
   34900    483.50103   -107.67949   0.43748189   -107.24201   -6420.5616    4.3313632    4.3313632    4.3313632   -6420.5616    10074.589   -13748.415   -15587.858    2472.0893    2378.5199   -14862.524    81.259434 
   35000    637.45679   -107.81557    0.5767843   -107.23878    11934.552    4.3285308    4.3285308    4.3285308    11934.552    43039.599   -8947.1768    1711.2342   -7301.2392   -3855.9516   -2088.6924    81.100127 
   35100    498.87373   -107.69262   0.45139143   -107.24123    4362.5224    4.3314114    4.3314114    4.3314114    4362.5224    29008.334   -11787.877   -4132.8898   -3437.3124    1281.2244   -5616.3536    81.262151 
   35200    410.65389   -107.61623   0.37156827   -107.24466   -4581.3003    4.3305159    4.3305159    4.3305159   -4581.3003    10260.972   -8393.1653   -15611.708   -3969.6722    1238.5894   -17487.485    81.211757 
   35300    909.70768   -108.06051   0.82312263   -107.23739    2554.8854    4.3267868    4.3267868    4.3267868    2554.8854   -5261.1794    8662.4901    4263.3454   -6984.3086   -3926.1404    4332.6962    81.002138 
   35400    506.90981   -107.70078   0.45866264   -107.24212   -12657.373    4.3360678    4.3360678    4.3360678   -12657.373   -13021.852   -11228.162   -13722.106      6573.92     9215.464   -13114.973    81.524511 
   35500    451.20211   -107.65154   0.40825715   -107.24329    359.27499    4.3245824    4.3245824    4.3245824    359.27499    21097.354   -9340.3319   -10679.197    3480.0422    468.05642   -5773.5465    80.878396 
   35600    750.60956   -107.91918    0.6791673   -107.24002    7777.4082    4.3289992    4.3289992    4.3289992    7777.4082    33024.815   -15691.037    5998.4462   -1161.3884   -1630.5582    6575.5985    81.126459 
   35700    463.19368   -107.66289   0.41910737   -107.24379   -6231.5887    4.3352065    4.3352065    4.3352065   -6231.5887    25971.072   -23541.551   -21124.287    2177.0993    6383.1223   -13995.413    81.475939 
   35800     657.4492   -107.83545   0.59487385   -107.24058   -4943.4494    4.3239423    4.3239423    4.3239423   -4943.4494     1027.139   -848.86321   -15008.624   -3041.2046   -4930.6916    4233.4648    80.842486 
   35900    806.70702   -107.96937   0.72992546   -107.23945   -8136.3684    4.3309856    4.3309856    4.3309856   -8136.3684   -3579.4203   -14449.757   -6379.9284   -5551.3726   -1032.9095   -456.19059    81.238189 
   36000    495.31343    -107.6916      0.44817   -107.24343    -3710.285    4.3301958    4.3301958    4.3301958    -3710.285    20652.291   -18251.735   -13531.411    5294.3286    7789.4332   -13975.598    81.193753 
   36100     465.5675    -107.6643   0.42125526   -107.24305    4966.2014    4.3283243    4.3283243    4.3283243    4966.2014    37259.481   -6384.0178   -15976.859   -90.458276   -6419.1731    9454.8069    81.088521 
   36200    665.91909   -107.84201   0.60253758   -107.23947    4427.1767     4.329772     4.329772     4.329772    4427.1767    28500.434    -7350.665    -7868.239    1879.9092    816.12826   -7714.8479    81.169911 
   36300    544.57174   -107.73532   0.49273995   -107.24258   -4328.2036    4.3292538    4.3292538    4.3292538   -4328.2036   -818.47723    2637.1515   -14803.285    3976.1309   -189.51576   -5483.5389    81.140771 
   36400    648.28952   -107.82873   0.58658598   -107.24214   -11682.677    4.3301815    4.3301815    4.3301815   -11682.677   -15020.299   -6503.0773   -13524.654   -5787.6469   -4386.3008    10684.134    81.192945 
   36500    704.49359   -107.87632   0.63744061   -107.23888    1808.0154      4.33045      4.33045      4.33045    1808.0154    22191.847    -19220.29    2452.4892   -5169.9074    3129.6967   -10204.881    81.208052 
   36600    470.26737   -107.66704    0.4255078   -107.24154   -7325.5709      4.33107      4.33107      4.33107   -7325.5709    19578.898   -13816.767   -27738.843    4355.9652    2653.4328    2588.8977    81.242934 
   36700    523.20004    -107.7151   0.47340239   -107.24169    3677.9811    4.3250553    4.3250553    4.3250553    3677.9811     32065.65   -4830.5324   -16201.174   -1232.6402   -5895.2129    7038.6039     80.90493 
   36800    873.49008   -108.02907   0.79035218   -107.23872   -10049.683    4.3343196    4.3343196    4.3343196   -10049.683   -6863.7472   -15190.768   -8094.5325     6508.983    727.44435   -6695.4043    81.425945 
   36900    494.30806   -107.68994   0.44726032   -107.24268   -12811.891    4.3317477    4.3317477    4.3317477   -12811.891   -13692.044   -7499.6233   -17244.004    4429.3323    62.306005      10189.9    81.281077 
   37000    645.69352   -107.82434   0.58423706    -107.2401    3696.8107    4.3262044    4.3262044    4.3262044    3696.8107    16610.033   -634.84308   -4884.7579   -7966.6338   -8847.2585    1276.2773    80.969432 
   37100    556.96014   -107.74285   0.50394924    -107.2389    7817.4613    4.3338722    4.3338722    4.3338722    7817.4613     36283.52   -8023.2652   -4807.8711   -2233.3616    5488.9673    193.87751    81.400731 
   37200    353.22342   -107.56365   0.31960397   -107.24405    341.14508    4.3305856    4.3305856    4.3305856    341.14508    16676.215    6827.3694   -22480.149   -3975.0802    -3258.668    12423.624    81.215681 
   37300    793.46083   -107.95551   0.71794003   -107.23757    3183.8628    4.3285966    4.3285966    4.3285966    3183.8628   -535.90793    6392.3611    3695.1352   -5239.4563    -3406.301    654.70897    81.103824 
   37400    681.95854   -107.85732   0.61705042   -107.24027    -4688.353     4.329459     4.329459     4.329459    -4688.353   -11213.295    -3873.911    1022.1476    8701.5014    4674.7248    6614.3609    81.152312 
   37500    325.99568   -107.53979   0.29496774   -107.24483   -8794.0118     4.334487     4.334487     4.334487   -8794.0118    6679.3345   -7621.0097    -25440.36    3729.5069   -11777.841    8954.7187    81.435376 
   37600    749.06162   -107.91478    0.6777667   -107.23701    10227.083    4.3265013    4.3265013    4.3265013    10227.083    38112.719   -5983.6317   -1447.8373    2748.9759   -3079.2822    -3556.869    80.986108 
   37700       515.23   -107.71004   0.46619093   -107.24385   -1782.4056    4.3306076    4.3306076    4.3306076   -1782.4056    17302.842   -14470.236   -8179.8227     4790.322   -1297.5171    7903.8771    81.216915 
   37800    675.73202   -107.85338   0.61141653   -107.24196   -14144.826    4.3320439    4.3320439    4.3320439   -14144.826   -17246.754   -9612.2494   -15575.474   -4491.2717   -6815.3791    1152.0941    81.297753 
   37900    797.61013   -107.95938   0.72169441   -107.23769     -775.098    4.3282057    4.3282057    4.3282057     -775.098    8423.2008     -16932.4    6183.9049    867.53877    6249.9956   -3879.2667    81.081856 
   38000    381.27124   -107.58708   0.34498223   -107.24209   -7575.4335    4.3324745    4.3324745    4.3324745   -7575.4335    11358.115    -16709.97   -17374.445    6990.4322   -3218.8472     8760.339    81.321997 
   38100    558.35518   -107.74674    0.5052115   -107.24153     7218.053    4.3267478    4.3267478    4.3267478     7218.053    37035.823    3896.0045   -19277.668    540.18983   -4863.1191   -4866.3435    80.999949 
   38200    768.82517   -107.93621   0.69564917   -107.24056    462.12155    4.3310749    4.3310749    4.3310749    462.12155    11914.037   -11073.484    545.81133    8300.2432   -1030.3345   -291.11856    81.243209 
   38300    532.69148   -107.72494   0.48199044   -107.24295   -9395.1347    4.3311994    4.3311994    4.3311994   -9395.1347   -12587.463   -834.30827   -14763.633    3876.5923   -5353.0514    10604.522    81.250221 
   38400    602.97111     -107.785   0.54558093   -107.23942   -3446.9178    4.3292849    4.3292849    4.3292849   -3446.9178    1471.1396    2450.6754   -14262.568   -3800.5502   -1287.7663   -7327.5953    81.142521 
   38500    539.39126   -107.72855   0.48805255    -107.2405    6599.6945    4.3276346    4.3276346    4.3276346    6599.6945    32157.213   -10659.911   -1698.2184     1054.181    1273.9507     3142.818    81.049764 
   38600    474.37801    -107.6733   0.42922719   -107.24407    3078.1997    4.3304981    4.3304981    4.3304981    3078.1997    20450.897    836.27579   -12052.574    2863.2844   -4837.3119    6853.3781    81.210759 
   38700    756.08603   -107.92343   0.68412253   -107.23931   -2055.2104    4.3306392    4.3306392    4.3306392   -2055.2104    18260.782   -12312.309   -12114.105    999.92562   -4126.4478    -10339.31    81.218693 
   38800    715.08889   -107.88586   0.64702745   -107.23883   -4411.3085    4.3272383    4.3272383    4.3272383   -4411.3085   -4240.0437   -18618.773    9624.8908    11622.394    -455.0123    4677.5311    81.027498 
   38900    491.04932   -107.68597   0.44431174   -107.24166   -15731.079    4.3329987    4.3329987    4.3329987   -15731.079   -9878.5975   -9918.3837   -27396.257    2518.3853   -7579.3624    235.23596    81.351522 
   39000    622.36573   -107.80448   0.56312959   -107.24135    3190.2066    4.3290435    4.3290435    4.3290435    3190.2066    28833.638   -8531.8408   -10731.177   -2336.8374    2460.6306    -10440.08    81.128947 
   39100    678.33981   -107.85355   0.61377612   -107.23977    9047.5858    4.3280446    4.3280446    4.3280446    9047.5858    27717.273   -2022.6219     1448.106    860.18426   -1832.8576    6019.3256      81.0728 
   39200    346.48644   -107.55772   0.31350821   -107.24421    -1149.093     4.333127     4.333127     4.333127    -1149.093    14418.518    4985.1783   -22850.975   -7631.9909   -3179.9885   -9303.2018    81.358749 
   39300    690.57054   -107.86166   0.62484274   -107.23681   -3389.5593    4.3304357    4.3304357    4.3304357   -3389.5593   -81.877301   -2591.8874   -7494.9131   -1212.4232    3225.6156   -7732.7184    81.207247 
   39400    617.39192   -107.79634   0.55862919   -107.23771    2221.1806     4.326878     4.326878     4.326878    2221.1806   -10861.789    8253.9275     9271.403    9007.3849   -6479.6032    3876.8269    81.007262 
   39500    536.41263   -107.72829   0.48535742   -107.24293   -12407.007    4.3332188    4.3332188    4.3332188   -12407.007   -2457.3532   -6442.3323   -28321.337    4850.3386    -1515.182   -18737.931    81.363916 
   39600    774.78144   -107.94046   0.70103853   -107.23942    10266.301    4.3278828    4.3278828    4.3278828    10266.301    27840.707   -7188.6836    10146.878     6869.702    5032.7982    338.10676    81.063712 
   39700    520.16821   -107.71244   0.47065912   -107.24178    3488.3624    4.3288835    4.3288835    4.3288835    3488.3624     27173.56   -12254.118   -4454.3552    2924.0537   -1044.5761   -4583.2165    81.119954 
   39800    368.82744    -107.5759   0.33372281   -107.24218   -12710.559    4.3363317    4.3363317    4.3363317   -12710.559    8489.3264   -20275.561   -26345.442   -6416.1008    2263.4085   -13427.596    81.539395 
   39900    908.46101   -108.05659   0.82199462   -107.23459    4532.5649    4.3235763    4.3235763    4.3235763    4532.5649   -2863.3082    3905.2132     12555.79    908.97544    2694.7955     7518.167    80.821961 
   40000    613.26837   -107.79583   0.55489811   -107.24093   -4327.5665    4.3331544    4.3331544    4.3331544   -4327.5665   -4051.8196   -3259.8324   -5671.0476    3657.4504   -7233.6469   -11733.435    81.360291 
   40100    526.35477   -107.71898   0.47625686   -107.24272   -3237.2932    4.3327451    4.3327451    4.3327451   -3237.2932    14270.501   -4149.8933   -19832.488    3717.8508   -1871.7607    -4140.219    81.337239 
   40200    530.42492   -107.71774   0.47993961    -107.2378    22454.254     4.322384     4.322384     4.322384    22454.254      50263.6    1622.8722    15476.288    12523.939    776.81667    4090.1271    80.755114 
   40300    422.19488   -107.62432    0.3820108    -107.2423   -5984.7405    4.3364731    4.3364731    4.3364731   -5984.7405    16405.071   -17452.308   -16906.984    3715.5957   -4214.0643    -14469.45     81.54737 
   40400    686.82014   -107.85978    0.6214493   -107.23833    2391.5328    4.3269646    4.3269646    4.3269646    2391.5328    958.88024    4978.1477    1237.5705   -178.26374    2777.9703     2460.739    81.012125 
   40500    880.23412   -108.03383   0.79645433   -107.23737   -2923.1855    4.3275956    4.3275956    4.3275956   -2923.1855   -4719.8429   -6957.7579    2908.0444    2998.5122    1848.8712   -645.45999    81.047572 
   40600    480.39606   -107.67622   0.43467245   -107.24154   -6207.7282    4.3334471    4.3334471    4.3334471   -6207.7282    10803.298   -15911.931   -13514.552   -4415.2233   -7699.3947   -12288.115    81.376777 
   40700    502.76831    -107.6949   0.45491533   -107.23998    1725.3951    4.3289819    4.3289819    4.3289819    1725.3951    30289.821   -10952.132   -14161.504    1622.4799    2609.6075    6774.1072    81.125486 
   40800    617.03435   -107.79744   0.55830565   -107.23914    4779.2481    4.3290104    4.3290104    4.3290104    4779.2481    28746.985   -16931.168     2521.927    11635.112   -2809.5358   -1985.2654    81.127086 
   40900     668.4302   -107.84534   0.60480969   -107.24053   -2578.8234    4.3307947    4.3307947    4.3307947   -2578.8234   -4766.6108    3521.6584   -6491.5179     2934.488   -545.31714   -7666.0917    81.227444 
   41000    663.69695   -107.84002   0.60052694   -107.23949   -5966.9719    4.3328626    4.3328626    4.3328626   -5966.9719   -15125.345    7216.3393     -9991.91    3561.2675    5991.8203    7368.6921    81.343853 
   41100    624.90178   -107.80275   0.56542426   -107.23733    6715.8964    4.3246714    4.3246714    4.3246714    6715.8964    10216.178    2899.3436    7032.1674    1292.0454   -1162.3724   -5713.1326    80.883391 
   41200    335.30261    -107.5458   0.30338885   -107.24241   -1694.2013    4.3343812    4.3343812    4.3343812   -1694.2013    20454.747   -2685.2187   -22852.133   -11832.823   -3826.1165   -1813.8588    81.429415 
   41300     561.3581   -107.74853   0.50792861    -107.2406     6009.361    4.3281519    4.3281519    4.3281519     6009.361    33600.583   -8513.3568    -7059.143   -2312.5707    3012.9119    8610.6533    81.078832 
   41400    802.41582   -107.96453    0.7260427   -107.23849     3992.544    4.3276013    4.3276013    4.3276013     3992.544    13749.492   -3151.1588    1379.2989    4801.3042   -6494.4471    -7760.088    81.047891 
   41500    548.12232   -107.73563    0.4959526   -107.23967   -20324.744    4.3384619    4.3384619    4.3384619   -20324.744   -23567.699   -10844.865   -26561.668   -806.75055   -1366.4895    8521.1791     81.65962 
   41600    697.17379   -107.86676    0.6308175   -107.23594    2429.7182    4.3240635    4.3240635    4.3240635    2429.7182    14635.457   -10025.284     2678.981    9221.6002    7451.2972    5938.6033    80.849287 
   41700    646.24342   -107.82242   0.58473463   -107.23769    2505.3624    4.3312276    4.3312276    4.3312276    2505.3624    19160.058   -11691.021    47.050117    4105.5527   -6795.3864   -1768.3538    81.251805 
   41800    428.91492   -107.63095   0.38809124   -107.24286   -1394.4653    4.3337721    4.3337721    4.3337721   -1394.4653    26329.736   -8938.7205   -21574.412   -9056.8506    1481.0075    12506.499    81.395088 
   41900    823.52552   -107.98151    0.7451432   -107.23637    5899.9577    4.3282857    4.3282857    4.3282857    5899.9577    9596.7644    3583.0363    4520.0724   -2268.4817   -254.23387    63.118567    81.086354 
   42000    581.97144   -107.76597   0.52657999   -107.23939   -4912.2691     4.329225     4.329225     4.329225   -4912.2691   -11685.322    11408.052   -14459.538   -3817.7876   -11387.474      1563.67    81.139155 
   42100    384.41991   -107.59113   0.34783122   -107.24329   -9010.1782    4.3336027    4.3336027    4.3336027   -9010.1782   -6093.6492    -1902.928   -19033.957   -295.55878    7566.5348     8647.301    81.385544 
   42200    787.88822   -107.95034   0.71289782   -107.23744    8498.5294    4.3293712    4.3293712    4.3293712    8498.5294    21996.741    108.57731    3390.2701    10838.125    1687.9159   -3910.9915    81.147375 
   42300    400.85271   -107.60571   0.36269995   -107.24301    9151.4907    4.3273352    4.3273352    4.3273352    9151.4907    31553.543    7736.2797   -11835.351    5441.9442   -1874.3864     6061.059    81.032941 
   42400    506.59459   -107.70059   0.45837743   -107.24221   -9073.3672    4.3359298    4.3359298    4.3359298   -9073.3672    8958.7204   -12244.745   -23934.077   -1521.4712    9400.0892    7144.8229    81.516725 
   42500     837.4881   -107.99347   0.75777683   -107.23569    7804.9352    4.3238103    4.3238103    4.3238103    7804.9352    5192.7484    4003.7777     14218.28    1899.7026   -6557.5266   -4220.9614    80.835083 
   42600    509.71484   -107.70364    0.4612007   -107.24244   -14775.016    4.3338713    4.3338713    4.3338713   -14775.016   -10608.476   -14150.239   -19566.333   -6124.8805   -281.88102    12072.092    81.400677 
   42700    668.75447   -107.84571    0.6051031    -107.2406    -1487.337    4.3307252    4.3307252    4.3307252    -1487.337    9794.4603   -14840.015    583.54399   -5941.0818    5935.7767    412.43795    81.223536 
   42800    691.96585   -107.86384   0.62610524   -107.23774    11401.313     4.324674     4.324674     4.324674    11401.313    42337.024   -3655.9196   -4477.1659    5135.0149   -795.23982   -3958.1088    80.883537 
   42900    368.57273   -107.57664   0.33349235   -107.24315    -8478.946    4.3359404    4.3359404    4.3359404    -8478.946    10270.386   -9482.2822   -26224.942    3429.6411    1900.0656    10530.755    81.517324 
   43000     672.2772   -107.84609   0.60829054    -107.2378    4128.9778    4.3275022    4.3275022    4.3275022    4128.9778    10711.585    293.20934    1382.1393    1738.3931    6828.5001    -10095.75    81.042327 
   43100    727.78124   -107.89526   0.65851176   -107.23674    926.17811    4.3293466    4.3293466    4.3293466    926.17811   -7924.1329    8424.8647    2277.8025    3263.2675   -5277.4707   -1590.2919    81.145991 
   43200    484.82126   -107.67889   0.43867647   -107.24022   -4901.5544    4.3328369    4.3328369    4.3328369   -4901.5544   -4335.3275    2271.5332   -12640.869    -9707.777   -1537.9109    5692.8811     81.34241 
   43300    564.75015   -107.74838    0.5109978   -107.23738    8911.7779    4.3310257    4.3310257    4.3310257    8911.7779    31022.091   -5193.6734    906.91647   -8381.7437    917.81524   -13016.609    81.240445 
   43400    631.27672   -107.80768   0.57119244   -107.23649    4505.5001     4.329018     4.329018     4.329018    4505.5001     36908.41    -8219.897   -15172.013   -1208.9753   -5849.8297    8949.7467    81.127516 
   43500    488.12194   -107.68362   0.44166299   -107.24196   -3405.1099    4.3283322    4.3283322    4.3283322   -3405.1099    13542.255   -17360.101   -6397.4834    -5769.554    6112.0137   -829.95596    81.088963 
   43600    774.30526   -107.94006   0.70060767   -107.23946   -11868.347     4.333504     4.333504     4.333504   -11868.347   -8782.5685   -21536.371   -5286.1009    2641.7943    1922.2827    -13216.59    81.379988 
   43700    735.63738   -107.90312   0.66562016    -107.2375   -3776.5707    4.3270953    4.3270953    4.3270953   -3776.5707   -3488.1118   -4019.2505     -3822.35    5382.2437   -4574.1474    10617.209    81.019466 
   43800    349.95361   -107.56014   0.31664538    -107.2435   -8559.1135    4.3332494    4.3332494    4.3332494   -8559.1135    17840.048    -20872.19   -22645.198   -7041.4992     1622.335   -14918.791     81.36564 
   43900     671.8279   -107.84806   0.60788401   -107.24017    12159.762    4.3282487    4.3282487    4.3282487    12159.762    43041.402   -7887.0194    1324.9033   -3437.9485   -266.65261   -4562.3334    81.084271 
   44000    668.40443   -107.84603   0.60478638   -107.24124     8086.946    4.3283018    4.3283018    4.3283018     8086.946    27762.359    1132.0377   -4633.5585   -6434.6963   -2588.0575    2067.4729    81.087255 
   44100    378.26275   -107.58658   0.34226009   -107.24432   -10718.343    4.3361419    4.3361419    4.3361419   -10718.343    -9043.983   -5615.9218   -17495.124   -9203.8633     5463.492   -16676.119    81.528688 
   44200    812.21311   -107.97075   0.73490749   -107.23584    8044.6853    4.3252157    4.3252157    4.3252157    8044.6853    2419.2238    17909.793    3805.0388    4207.8577    2003.8553    4018.9157    80.913932 
   44300    525.79512   -107.71817   0.47575047   -107.24242   -3714.3473    4.3308446    4.3308446    4.3308446   -3714.3473    12096.074   -6415.2577   -16823.859    4769.9866   -3189.1488   -6753.1824    81.230251 
   44400    455.39944   -107.65775   0.41205498    -107.2457     633.8258    4.3320807    4.3320807    4.3320807     633.8258    27011.894   -16060.971   -9049.4449    -1405.914     3131.021   -9993.4516    81.299825 
   44500    899.31678    -108.0494   0.81372072   -107.23568    8008.2949    4.3304445    4.3304445    4.3304445    8008.2949    27619.679    -8740.536    5145.7417    2387.4545    1716.3838    3975.0539     81.20774 
   44600    420.98879   -107.62422    0.3809195    -107.2433   -6184.0092    4.3273714    4.3273714    4.3273714   -6184.0092    13315.345   -11939.827   -19927.545   -7578.7568   -4096.4111   -15834.913    81.034976 
   44700    558.65234   -107.74939   0.50548038    -107.2439   -9561.2935    4.3321397    4.3321397    4.3321397   -9561.2935   -15587.833   -5541.1649   -7554.8821   -6816.4547     10167.24   -4787.4294    81.303146 
   44800    915.21337   -108.06557   0.82810429   -107.23746    637.92071    4.3325814    4.3325814    4.3325814    637.92071    5427.3405    -4886.203    1372.6246    1480.0158   -1994.2395   -1419.0172    81.328019 
   44900    372.28154    -107.5809   0.33684817   -107.24406    5826.2571    4.3276802    4.3276802    4.3276802    5826.2571    37974.574   -4712.0265   -15783.776    1034.6288    997.81911   -14512.117    81.052328 
   45000    539.84829   -107.73012   0.48846607   -107.24166    4229.6633    4.3337782    4.3337782    4.3337782    4229.6633    16715.466    4009.1501   -8035.6264     2898.044    6045.8029    4748.3494    81.395431 
   45100    645.85166   -107.82161   0.58438015   -107.23723    6109.6106    4.3279057    4.3279057    4.3279057    6109.6106    21773.521    5285.8273   -8730.5162    6090.5675   -8421.0864   -5107.5606    81.064997 
   45200    410.32845   -107.61471    0.3712738   -107.24344   -13059.089    4.3314356    4.3314356    4.3314356   -13059.089   -24135.066    3305.7538   -18347.956   -8180.6875    6558.0143   -7292.8023    81.263512 
   45300    737.34907   -107.90832   0.66716893   -107.24115   -235.14737    4.3295415    4.3295415    4.3295415   -235.14737   -2323.1685    591.33563    1026.3907   -8425.0634    9879.4851    6675.0744    81.156952 
   45400    695.72014   -107.86986    0.6295022   -107.24036    7282.3115    4.3293907    4.3293907    4.3293907    7282.3115    42305.744   -10986.937   -9471.8727   -3123.0648    212.14209   -9384.3451    81.148469 
   45500    362.91111   -107.57202    0.3283696   -107.24365   -5735.7822    4.3346887    4.3346887    4.3346887   -5735.7822    17438.867   -11382.551   -23263.662   -4833.7772    8484.2163    -1319.546    81.446748 
   45600    737.93213   -107.90428    0.6676965   -107.23658    1678.2387    4.3276556    4.3276556    4.3276556    1678.2387    10825.962   -8265.1204    2473.8741    2893.9374   -427.70521    1733.1225    81.050942 
   45700    793.00846    -107.9553   0.71753072   -107.23777   -11902.962    4.3329504    4.3329504    4.3329504   -11902.962   -9453.9165   -13088.409    -13166.56    4572.6083    806.41943   -10716.789    81.348799 
   45800    487.16968   -107.68345   0.44080136   -107.24265   -1211.0579    4.3292548    4.3292548    4.3292548   -1211.0579    8137.2044    -1456.452   -10313.926   -5550.8686    7799.4772    4388.0049    81.140831 
   45900    639.94552   -107.81847   0.57903615   -107.23943    6604.5511    4.3322109    4.3322109    4.3322109    6604.5511    41715.362   -10451.887   -11449.822   -3311.7926    1566.9575   -4205.4364    81.307156 
   46000    539.89095   -107.72845   0.48850468   -107.23994   -1175.1879    4.3307753    4.3307753    4.3307753   -1175.1879    16321.207    4577.5358   -24424.307   -5667.0565    7870.2864   -4698.2148    81.226353 
   46100    504.50202   -107.69934   0.45648403   -107.24286   -1488.9363    4.3248176    4.3248176    4.3248176   -1488.9363   -9390.6288    12096.118   -7172.2983   -8670.0713    9078.2993    7659.2998    80.891592 
   46200    804.64762   -107.96659   0.72806207   -107.23853   -4426.3955    4.3369122    4.3369122    4.3369122   -4426.3955   -7201.4415   -7408.8211    1331.0761    4898.1871   -5208.1769   -1783.5767    81.572146 
   46300    464.27968   -107.66201   0.42009001   -107.24192    176.22901    4.3295406    4.3295406    4.3295406    176.22901     10847.38    8024.0086   -18342.701     6441.603    5136.1285    1945.8614    81.156901 
   46400    405.84325   -107.61037    0.3672155   -107.24315    9046.8726    4.3240929    4.3240929    4.3240929    9046.8726    31870.365    6294.8723    -11024.62    1519.9689    3239.2373    7038.4332    80.850935 
   46500    765.96383    -107.9301   0.69306017   -107.23704    -5027.973    4.3382191    4.3382191    4.3382191    -5027.973     14382.99   -14973.372   -14493.537     5387.221   -3147.1673   -1219.7678    81.645912 
   46600    601.62391   -107.78553   0.54436196   -107.24117   -6682.7823     4.325241     4.325241     4.325241   -6682.7823   -13911.394    7644.4284   -13781.382   -2515.9562    14456.573    1876.6339    80.915351 
   46700     688.9981   -107.86539   0.62341996   -107.24197   -1712.0396    4.3274072    4.3274072    4.3274072   -1712.0396    9690.9934   -9514.2274   -5312.8848   -6905.2423    18.980351    7898.0106     81.03699 
   46800    632.36161   -107.81143   0.57217407   -107.23925   -7255.4498    4.3383738    4.3383738    4.3383738   -7255.4498    10350.971   -16266.081   -15851.239    5151.4511    1597.3664   -3199.6136    81.654645 
   46900    327.27382   -107.53839   0.29612423   -107.24226    5430.6559    4.3221216    4.3221216    4.3221216    5430.6559    30363.519    7316.4833   -21388.035    1778.7794    6967.4172    6933.1493    80.740409 
   47000    820.47964    -107.9817   0.74238722   -107.23932   -5502.8165    4.3333964    4.3333964    4.3333964   -5502.8165    -3427.675   -7816.1514   -5264.6231    4957.3945   -6993.6697    5776.2546    81.373925 
   47100    718.23312   -107.89062   0.64987242   -107.24075   -4271.9246    4.3310435    4.3310435    4.3310435   -4271.9246   -13297.858    3376.7205   -2894.6366    7093.6973    10477.523   -2468.8566    81.241444 
   47200    380.89727    -107.5886   0.34464386   -107.24396    3930.2407    4.3255141    4.3255141    4.3255141    3930.2407    15976.952    14274.308   -18460.537   -8551.4526    7901.3784    11225.246    80.930682 
   47300    581.82171    -107.7652   0.52644451   -107.23876    6668.8353    4.3343422    4.3343422    4.3343422    6668.8353    32752.609   -1084.4129   -11661.691   -3514.9091   -2745.2765   -3133.5185    81.427216 
   47400    449.39573   -107.64902    0.4066227    -107.2424    3612.7189    4.3275481    4.3275481    4.3275481    3612.7189    14459.961    13459.766   -17081.571    381.20744    10727.313    2840.7546    81.044903 
   47500     692.2284   -107.86847   0.62634281   -107.24213   -10714.857    4.3311883    4.3311883    4.3311883   -10714.857   -7496.5507   -3859.2292   -20788.792   -1119.3392   -4073.9252    6004.9677    81.249595 
   47600    929.30112   -108.07753   0.84085118   -107.23668   -1826.6535    4.3296767    4.3296767    4.3296767   -1826.6535   -1032.7986   -4853.4949    406.33292    9245.5172   -145.27446   -5637.1203    81.164555 
   47700    375.00552   -107.58161   0.33931288   -107.24229   -11849.734    4.3352912    4.3352912    4.3352912   -11849.734    9783.1812   -13510.554   -31821.829    9149.9004    8775.7947    6664.0379    81.480713 
   47800    537.96998   -107.72627   0.48676654    -107.2395    3754.1139    4.3258279    4.3258279    4.3258279    3754.1139    32466.605   -2745.7726   -18458.491    -3872.961   -2900.8387    1633.8494    80.948295 
   47900    709.50397   -107.88017   0.64197411   -107.23819    2546.1139    4.3315551    4.3315551    4.3315551    2546.1139    17110.719   -4760.8184   -4711.5588   -2244.0957    7282.4151   -1771.4978    81.270236 
   48000    578.49463   -107.76471    0.5234341   -107.24128   -12132.159    4.3363917    4.3363917    4.3363917   -12132.159   -19642.924     1925.548     -18679.1   -1882.8705    8436.5586    11718.828    81.542779 
   48100    746.96784   -107.91158    0.6758722   -107.23571    8926.0586    4.3228239    4.3228239    4.3228239    8926.0586    13651.344     14327.13   -1200.2976   -1597.5265   -5516.8896   -1311.3798    80.779775 
   48200    470.81976   -107.66468   0.42600761   -107.23867   -2624.1109    4.3361456    4.3361456    4.3361456   -2624.1109    11117.939   -1990.2537   -17000.018     11183.32    3790.1398    973.29944    81.528896 
   48300    329.80043   -107.53957   0.29841036   -107.24116    4734.3799    4.3292703    4.3292703    4.3292703    4734.3799    34297.542   -1088.0355   -19006.367    6155.2104    553.92696    11152.169    81.141703 
   48400    753.03745   -107.91904   0.68136411   -107.23767     5735.167    4.3273171    4.3273171    4.3273171     5735.167    28656.533   -5674.5086   -5776.5237    3795.3441    -9016.553    -13158.58    81.031924 
   48500    702.18259   -107.87475   0.63534956   -107.23941   -8425.5296    4.3344535    4.3344535    4.3344535   -8425.5296    4510.9079   -15598.551   -14188.946    741.89037    11114.014    5211.3678     81.43349 
   48600     606.1749   -107.78793   0.54847979   -107.23945   -9207.8496    4.3272072    4.3272072    4.3272072   -9207.8496    1979.7671   -8112.2773   -21491.039    -1278.987    2692.7637    1918.5781    81.025753 
   48700    638.43025   -107.81739    0.5776651   -107.23972    -156.6804    4.3305304    4.3305304    4.3305304    -156.6804    33421.852   -15910.872   -17981.021   -3217.1956   -3231.4445   -14745.246    81.212572 
   48800    553.04062   -107.74119   0.50040278   -107.24079    1441.0495    4.3310854    4.3310854    4.3310854    1441.0495    24996.226   -12294.324   -8378.7534    6322.0151    10246.889    13037.763    81.243802 
   48900    485.97556    -107.6829    0.4397209   -107.24318   -1597.3838    4.3307739    4.3307739    4.3307739   -1597.3838    24340.088   -7610.8164   -21521.423    5297.9313   -4575.6123    -10068.77    81.226276 
   49000    730.26598   -107.89962   0.66076001   -107.23886    6342.6118    4.3264196    4.3264196    4.3264196    6342.6118     12651.84    11223.744   -4847.7484    5144.7476    -5044.979    -5058.804    80.981519 
   49100    581.05606   -107.76697   0.52575174   -107.24122   -10341.501    4.3358494    4.3358494    4.3358494   -10341.501   -6159.3692    -983.5688   -23881.565    904.08395    4877.5757    11842.646    81.512191 
   49200    454.95412   -107.65303   0.41165205   -107.24138   -3247.9983    4.3299403    4.3299403    4.3299403   -3247.9983    12907.397     3770.364   -26421.756   -5105.3972   -6547.2983   -16265.045    81.179381 
   49300    771.49385   -107.93538   0.69806385   -107.23732    12144.184    4.3229881    4.3229881    4.3229881    12144.184     34480.83   -1451.1391    3402.8611   -3915.4877   -2699.5965    5442.4627     80.78898 
   49400    512.08622   -107.70704   0.46334637    -107.2437    -9291.477     4.339168     4.339168     4.339168    -9291.477    18951.729   -22993.824   -23832.336    5813.7076      6937.13   -1760.9578      81.6995 
   49500    526.77689   -107.71796    0.4766388   -107.24132    124.51699    4.3254285    4.3254285    4.3254285    124.51699    23227.184   -2106.2996   -20747.334    2989.5229   -9200.7923   -12411.111    80.925875 
   49600    856.61087   -108.01265   0.77507951   -107.23757   -1824.1087    4.3301501    4.3301501    4.3301501   -1824.1087   -3137.3361    1968.7055   -4303.6955    4482.9085    1197.4239     5560.243    81.191181 
   49700    526.97387   -107.71949   0.47681703   -107.24267   -8519.4199    4.3349228    4.3349228    4.3349228   -8519.4199    4134.7641   -7928.9718   -21764.052   -1499.8447    4633.2053   -11100.045    81.459945 
   49800    486.62049   -107.68293   0.44030444   -107.24262    14628.709    4.3250844    4.3250844    4.3250844    14628.709    34481.355    17059.481   -7654.7096   -7433.3004   -8664.5516   -4312.7966    80.906565 
   49900    650.62641   -107.82641   0.58870045   -107.23771    4419.4531    4.3354181    4.3354181    4.3354181    4419.4531    30232.297   -6258.6083    -10715.33   -5413.8451   -19.935431   -1050.9176    81.487867 
   50000    355.74388   -107.56535   0.32188454   -107.24346    237.68146    4.3267233    4.3267233    4.3267233    237.68146     20135.66    5148.9086   -24571.524   -358.07365    -1670.477     -13618.7    80.998571 
   50100    760.93587   -107.92951   0.68851076     -107.241   -11230.272    4.3318374    4.3318374    4.3318374   -11230.272   -15960.851    -1760.707   -15969.259    206.11057   -17965.859   -610.82322    81.286129 
   50200    832.38534   -107.99128   0.75315975   -107.23812   -2468.4397    4.3314474    4.3314474    4.3314474   -2468.4397    11729.883   -17908.698    -1226.504    7858.2403     6624.787   -6799.0693    81.264178 
   50300    363.87034   -107.57251   0.32923753   -107.24328   -5089.0914    4.3297568    4.3297568    4.3297568   -5089.0914    14825.868   -9102.8903   -20990.252    3457.1181   -6028.4428   -9738.9405    81.169059 
   50400    610.68622   -107.79239   0.55256172   -107.23982    1574.3751     4.331148     4.331148     4.331148    1574.3751    15196.531   -900.85994   -9572.5462   -2144.0462   -5365.5004    4589.2349    81.247324 
   50500    646.67723   -107.82417   0.58512715   -107.23904    1794.6836    4.3304412    4.3304412    4.3304412    1794.6836    21384.759   -13087.878   -2912.8306   -994.79621    6512.0749   -6665.3492    81.207554 
   50600    548.96508   -107.73846   0.49671514   -107.24174   -13372.633    4.3330845    4.3330845    4.3330845   -13372.633   -22968.256    4237.6363   -21387.278   -482.91387   -15964.939   -2248.6188    81.356353 
   50700    783.77504   -107.94747   0.70917613   -107.23829    9141.8849    4.3261129    4.3261129    4.3261129    9141.8849    22975.333    4626.1828   -175.86111    1979.1415   -5979.4747    5510.8654    80.964296 
   50800    482.71616   -107.67888   0.43677172   -107.24211    2664.7265    4.3316554    4.3316554    4.3316554    2664.7265    26355.432   -1965.7727    -16395.48    8368.5346    149.52506   -9690.1748    81.275884 
   50900    338.27145    -107.5502   0.30607512   -107.24412   -1765.3342      4.33281      4.33281      4.33281   -1765.3342    8293.3934    14573.749   -28163.145    4105.0518   -12554.698    2067.2018     81.34089 
   51000    807.64649   -107.96701   0.73077552   -107.23623    6123.0329    4.3275454    4.3275454    4.3275454    6123.0329    12451.788    5143.4539    773.85647    3852.1269    5022.5747    -2348.707    81.044753 
   51100    620.28196   -107.80243   0.56124416   -107.24119   -5708.1154    4.3319119    4.3319119    4.3319119   -5708.1154   -8116.1945    1778.4883    -10786.64   -3521.3041    -5733.967    -9654.694    81.290323 
   51200    465.20008   -107.66302   0.42092281    -107.2421   -883.65961    4.3338343    4.3338343    4.3338343   -883.65961    13245.317    5138.1442    -21034.44   -5129.3454   -10186.041    4305.6455    81.398595 
   51300    686.19587   -107.85686   0.62088444   -107.23597    13458.056     4.326451     4.326451     4.326451    13458.056    43641.491    -5769.822    2502.4998   -3197.3752    1639.2436   -5771.4426    80.983283 
   51400    469.55133   -107.66856   0.42485991    -107.2437   -8945.6997    4.3325727    4.3325727    4.3325727   -8945.6997   -6619.5317     10.99922   -20228.567    6293.1068   -16270.433   -1219.0031    81.327527 
   51500    701.44573   -107.87545   0.63468284   -107.24076   -8678.6086    4.3315848    4.3315848    4.3315848   -8678.6086   -6690.7848   -11095.691   -8249.3498    1972.3019   -3896.3328    4461.3033    81.271911 
   51600    885.98152   -108.03843    0.8016547   -107.23678    -2040.881    4.3288643    4.3288643    4.3288643    -2040.881    7472.8761   -13997.138    401.61865    5851.9749    1319.2871    -907.4919    81.118873 
   51700    313.56694   -107.52748   0.28372196   -107.24376   -8163.3935    4.3342444    4.3342444    4.3342444   -8163.3935    11568.985   -6786.6989   -29272.466    711.76322   -13740.522    4042.1494    81.421702 
   51800    595.41658   -107.77935   0.53874543   -107.24061    8823.2194    4.3284011    4.3284011    4.3284011    8823.2194    34233.235    2964.1692   -10727.746   -6414.5756    2249.2557    7296.8034    81.092835 
   51900    746.06182   -107.91352   0.67505241   -107.23847   -294.06072    4.3321428    4.3321428    4.3321428   -294.06072   -6182.7809    6647.6451   -1347.0464   -4138.8366   -8106.7393    58.988596    81.303322 
   52000    417.17444   -107.62051    0.3774682   -107.24304   -5698.0839     4.331056     4.331056     4.331056   -5698.0839   -15676.598    15285.925   -16703.579    609.29847    -14124.24    6923.5654    81.242147 
   52100    721.48425   -107.89239   0.65281411   -107.23958     3663.143    4.3307776    4.3307776    4.3307776     3663.143    13516.065   -997.83472   -1528.8016    4167.6013    9363.7256    6901.3428    81.226484 
   52200    506.00975   -107.69911   0.45784826   -107.24126    11636.124    4.3273939    4.3273939    4.3273939    11636.124    31358.957    8020.4096   -4470.9953    8384.4904   -12833.781    -4123.232    81.036242 
   52300    387.38046   -107.59505   0.35050998   -107.24454   -2269.0261    4.3357699    4.3357699    4.3357699   -2269.0261    22820.001   -7722.4966   -21904.583    6561.0584   -2676.4089    12373.395    81.507706 
   52400    895.74221   -108.04564   0.81048638   -107.23515    2413.2898    4.3281682    4.3281682    4.3281682    2413.2898     6045.197   -1042.2678    2236.9401    425.86134    2119.1396   -514.91585    81.079747 
   52500     561.7561   -107.74955   0.50828872   -107.24126   -4836.5492     4.327607     4.327607     4.327607   -4836.5492    -2012.862   -5799.5998   -6697.1857   -1203.7123   -16619.626    2756.4672    81.048213 
   52600    524.30298   -107.71708   0.47440035   -107.24268   -11316.997    4.3372179    4.3372179    4.3372179   -11316.997    8253.3996    -17837.38   -24367.012    -1407.472    4184.1716    11597.797    81.589397 
   52700    728.02946   -107.89523   0.65873635   -107.23649    17388.839    4.3243138    4.3243138    4.3243138    17388.839    45063.793   -2142.4453      9245.17   -2591.4198    3429.7905   -8220.7038    80.863325 
   52800    470.95047   -107.66811   0.42612588   -107.24198   -4664.7296    4.3339696    4.3339696    4.3339696   -4664.7296    9847.5119   -10686.134   -13155.567    7417.3526   -10345.023    8159.7415    81.406221 
   52900    632.92825   -107.81117   0.57268679   -107.23848   -2073.9161    4.3295634    4.3295634    4.3295634   -2073.9161     4362.489   -7416.0578   -3168.1796    1597.7413     8449.722   -2139.1655    81.158183 
   53000     670.4185   -107.84482   0.60660875   -107.23821     2306.802    4.3274355    4.3274355    4.3274355     2306.802    4048.4731    2919.7883   -47.855483     960.1023   -7391.0486   -7161.8086    81.038577 
   53100    455.24773   -107.65432   0.41191772    -107.2424   -10455.178    4.3357168    4.3357168    4.3357168   -10455.178    2646.9533   -8433.9744   -25578.512   -3536.9715   -12805.588    11771.692    81.504713 
   53200    607.81066   -107.79003   0.54995986   -107.24007    12607.215    4.3273885    4.3273885    4.3273885    12607.215    50505.128   -855.90441   -11827.578   -5739.6365    3068.9588   -7386.4258    81.035936 
   53300     630.5897    -107.8093   0.57057081   -107.23873    4856.4536    4.3323394    4.3323394    4.3323394    4856.4536    30847.344   -7983.8488   -8294.1345   -4782.1729   -6581.5864     2893.223    81.314393 
   53400    484.12081   -107.67851   0.43804268   -107.24047   -8869.1811    4.3318481    4.3318481    4.3318481   -8869.1811    11025.715   -15522.291   -22110.968    3970.9554   -3246.0453     11104.94    81.286732 
   53500    690.39686   -107.86254   0.62468558   -107.23785    -5654.775    4.3299262    4.3299262    4.3299262    -5654.775    3587.2559   -13287.545   -7264.0364    3145.1329    7559.9602   -11788.093    81.178588 
   53600    762.77191    -107.9282   0.69017206   -107.23803   -4232.0814    4.3305738    4.3305738    4.3305738   -4232.0814    9279.4626   -15046.684   -6929.0229    4550.6843   -5811.1827    9416.3378    81.215015 
   53700    519.75245   -107.71223   0.47028294   -107.24195   -1976.1455    4.3335186    4.3335186    4.3335186   -1976.1455    38650.732   -22727.203   -21851.965    1922.8099   -3908.7002   -754.04759    81.380809 
   53800    643.16049   -107.82021   0.58194513   -107.23827    7673.6088    4.3292372    4.3292372    4.3292372    7673.6088    39292.475   -7003.5853   -9268.0627    -5977.466    8091.9311    -11137.27    81.139842 
   53900    578.05754   -107.76189   0.52303861   -107.23885    876.77048    4.3287577    4.3287577    4.3287577    876.77048    15846.231    1939.1823   -15155.102   -6797.5985   -9731.6388    8204.8071    81.112883 
   54000    362.89312   -107.57056   0.32835333   -107.24221   -9535.5214    4.3352764    4.3352764    4.3352764   -9535.5214   -1319.0869    2221.0926    -29508.57    412.82982    2738.4011   -11971.602    81.479879 
   54100    828.92307   -107.98665   0.75002702   -107.23662    2884.3095     4.327303     4.327303     4.327303    2884.3095   -1007.9389    15602.005   -5941.1377    3397.1691    4435.1391   -3784.4255    81.031133 
   54200    649.46599   -107.82717   0.58765048   -107.23952   -455.51509    4.3328558    4.3328558    4.3328558   -455.51509    23707.497   -7737.6398   -17336.402    7175.0765   -7324.8998    3777.4887    81.343471 
   54300    427.91873   -107.62919   0.38718986     -107.242   -374.06635    4.3291355    4.3291355    4.3291355   -374.06635    39012.719   -19131.753   -21003.165    4626.2555    4787.9109   -14963.751    81.134122 
   54400    684.66036   -107.85775   0.61949508   -107.23826    475.48738    4.3306495    4.3306495    4.3306495    475.48738    19687.489   -12610.083   -5650.9441   -3357.8905    9627.3081    5559.7601    81.219272 
   54500    612.37332    -107.7939   0.55408825   -107.23982   -10300.042    4.3335553    4.3335553    4.3335553   -10300.042    7720.8588   -19374.669   -19246.316   -4280.2283    -9070.045    -6640.839    81.382877 
   54600     660.3458   -107.83776   0.59749475   -107.24026   -4135.7912     4.327717     4.327717     4.327717   -4135.7912    2371.0047   -5884.4098   -8893.9685    494.44508    13708.284   -9698.4543    81.054396 
   54700    781.56808   -107.94571   0.70717923   -107.23853    2224.7577    4.3326106    4.3326106    4.3326106    2224.7577    22864.437   -4369.3436   -11820.821    1079.7796    203.89285    5278.0493    81.329662 
   54800    342.58021   -107.55233   0.30997378   -107.24235    8716.3081    4.3282404    4.3282404    4.3282404    8716.3081    51101.481   -7154.5011   -17798.055    8587.9869   -6048.0595   -12620.796    81.083808 
   54900     503.4526   -107.69695   0.45553449   -107.24142    -4842.952    4.3346044    4.3346044    4.3346044    -4842.952   -505.25997    4111.1274   -18134.724    5871.6261    11267.953    520.94759    81.441993 
   55000    734.79938   -107.90077   0.66486192   -107.23591    6576.9002    4.3289108    4.3289108    4.3289108    6576.9002    8182.6486    11196.448    351.60388     196.5944   -3522.5004   -2193.7806    81.121488 
   55100    547.05825   -107.73607    0.4949898   -107.24108   -3532.7248    4.3273847    4.3273847    4.3273847   -3532.7248   -1762.6445    7245.6846   -16081.215   -3145.1896    1662.7437   -11910.123    81.035721 
   55200    583.66736   -107.76949   0.52811449   -107.24137   -776.89433    4.3353239    4.3353239    4.3353239   -776.89433    12001.844    -1394.924   -12937.603   -4581.9001    17750.856     2649.913    81.482556 
   55300    637.89551   -107.81489   0.57718126   -107.23771    10108.539    4.3283155    4.3283155    4.3283155    10108.539    48399.249   -11188.534   -6885.0978   -2645.0461   -5893.3009   -7768.3681    81.088026 
   55400    478.74453   -107.67486   0.43317811   -107.24168    -13808.33    4.3327353    4.3327353    4.3327353    -13808.33   -4799.5997   -12998.612   -23626.777    5556.5705    11683.764   -5179.3701    81.336683 
   55500    828.34897   -107.98657   0.74950755   -107.23706   -3881.7172    4.3305494    4.3305494    4.3305494   -3881.7172    -3992.876    -5401.444   -2250.8317    4856.0952    9979.0327    1114.9072    81.213645 
   55600    735.88702    -107.9037   0.66584604   -107.23785   -7890.3553    4.3341117    4.3341117    4.3341117   -7890.3553    7213.9371   -15157.171   -15727.832    735.80089   -7022.1142   -7559.5789    81.414226 
   55700    364.74477   -107.57202   0.33002873   -107.24199    850.10421    4.3281837    4.3281837    4.3281837    850.10421    21822.668    5464.6581   -24737.013   -2900.8604    13797.824   -360.04213    81.080616 
   55800    707.40273   -107.87827   0.64007286    -107.2382    7542.0069    4.3328255    4.3328255    4.3328255    7542.0069    30438.663   -218.50745    -7594.135   -8273.0418    1661.5367    376.23009    81.341766 
   55900     580.3182   -107.76456    0.5250841   -107.23948   -3887.5889    4.3342158    4.3342158    4.3342158   -3887.5889   -7723.3288    11935.025   -15874.462   -7385.9178   -569.74533   -6974.0899    81.420091 
   56000    476.25147   -107.67186   0.43092234   -107.24094    3047.9398     4.326995     4.326995     4.326995    3047.9398   -10825.173    31883.214   -11914.221    3759.8941    14721.789    4678.2031    81.013835 
   56100    748.28372   -107.91277   0.67706283   -107.23571    1303.3305     4.336508     4.336508     4.336508    1303.3305    7114.6534    4729.4456   -7934.1075    7022.4935   -3030.6978    1.8663949    81.549341 
   56200    343.76891   -107.55206   0.31104934   -107.24101    8631.6377    4.3283327    4.3283327    4.3283327    8631.6377    29678.637    17052.404   -20836.128    10180.494    7782.3947   -2718.8558    81.088995 
   56300    552.73652   -107.74071   0.50012762   -107.24058   -226.13301    4.3318171    4.3318171    4.3318171   -226.13301    20669.844   -5738.7085   -15609.534    4507.9006    11048.595    7606.7598    81.284985 
   56400    906.95098   -108.05615   0.82062831   -107.23552   -5903.9573    4.3319848    4.3319848    4.3319848   -5903.9573   -2028.2075   -9952.7407   -5730.9237   -1013.5848   -6729.6378   -3301.5991    81.294425 
   56500    415.47758   -107.61863   0.37593285   -107.24269   -5828.2746    4.3278615    4.3278615    4.3278615   -5828.2746   -6353.5603    13060.393   -24191.656   -4110.2264    14878.887     510.5147    81.062514 
   56600     634.7932   -107.81647   0.57437423   -107.24209   -8889.1175    4.3336779    4.3336779    4.3336779   -8889.1175    10659.823   -17701.838   -19625.338   -148.81439    431.55806    7056.6059    81.389783 
   56700    709.87413   -107.88066   0.64230903   -107.23835    4199.0134      4.33035      4.33035      4.33035    4199.0134     23431.09   -4173.6429   -6660.4072     1138.627    2158.5454   -2071.2566    81.202425 
   56800    464.11399   -107.66381   0.41994009   -107.24387    -9253.872    4.3294209    4.3294209    4.3294209    -9253.872   -2680.6759     2285.557   -27366.497    5322.2311    14474.697    4372.8493    81.150167 
   56900    804.79608   -107.96714   0.72819641   -107.23894   -5299.2898    4.3314647    4.3314647    4.3314647   -5299.2898   -2068.8676   -8025.8125   -5803.1895    5087.6548   -2951.9254    8574.5735    81.265152 
   57000    557.41076    -107.7441   0.50435697   -107.23974   -1700.7501    4.3326367    4.3326367    4.3326367   -1700.7501   -2603.5942    13998.422   -16497.078    -4913.044    10827.831   -3744.7215    81.331135 
   57100    287.39321   -107.50387   0.26003942   -107.24383   -1034.6176    4.3275535    4.3275535    4.3275535   -1034.6176    16190.037    8234.0926   -27527.983   -5633.1838    4885.7375    9909.9477    81.045205 
   57200    753.93497   -107.92161   0.68217621   -107.23943    8070.1302    4.3308349    4.3308349    4.3308349    8070.1302    29476.413   -2238.6133   -3027.4091   -4607.5413    -5193.465    4519.6228    81.229705 
   57300    569.18465   -107.75763   0.51501024   -107.24261   -5125.9135     4.334577     4.334577     4.334577   -5125.9135   -2634.6503    11961.047   -24704.138   -4317.7283    9654.1912   -862.88328    81.440452 
   57400     543.5236   -107.73263   0.49179158   -107.24084   -10786.159    4.3284619    4.3284619    4.3284619   -10786.159   -3241.0556   -3022.2605   -26095.161    3957.5927   -245.98098     15676.15    81.096253 
   57500    767.12807   -107.93183    0.6941136   -107.23772    5960.1195     4.330054     4.330054     4.330054    5960.1195    19562.006    -1278.134   -403.51369    5787.8457    1903.0625    -3723.905    81.185775 
   57600    470.46326    -107.6686   0.42568505   -107.24292   -7302.8788    4.3343917    4.3343917    4.3343917   -7302.8788    9925.5307   -9979.7621   -21854.405    906.32472    13104.619    7705.6851    81.430005 
   57700    593.13125   -107.77827   0.53667762   -107.24159    2158.8501    4.3269115    4.3269115    4.3269115    2158.8501    29499.024    -14868.47   -8154.0043   -4477.0075    -3627.185    7669.1049    81.009145 
   57800     795.5474   -107.95686     0.719828   -107.23704    359.23975    4.3342299    4.3342299    4.3342299    359.23975      6902.88    1605.0756   -7430.2363   -6991.8093    5059.8101   -7629.5496     81.42089 
   57900     509.3125   -107.70185   0.46083666   -107.24101   -9839.8774    4.3320429    4.3320429    4.3320429   -9839.8774   -10115.246    8210.3177   -27614.704   -2476.0707    6258.3107    13923.793    81.297698 
   58000    570.83763   -107.75714   0.51650589   -107.24064    6802.4311    4.3282489    4.3282489    4.3282489    6802.4311    19954.877    8087.0391   -7634.6224    6252.4031   -3433.8073   -3363.2712    81.084282 
   58100    656.13831    -107.8303   0.59368773   -107.23661    1336.0507    4.3371614    4.3371614    4.3371614    1336.0507    18583.732   -776.34375   -13799.236    7991.3055    2008.0642     538.3113    81.586207 
   58200    315.66299   -107.52639    0.2856185   -107.24077     5813.021    4.3258432    4.3258432    4.3258432     5813.021    43514.979   -5463.6724   -20612.244    7521.9897    3157.1658    14783.024    80.949153 
   58300     659.9079    -107.8371   0.59709854      -107.24   -950.65998    4.3304397    4.3304397    4.3304397   -950.65998    24787.472       -15320   -12319.452    2419.2053   -9900.6473   -11174.663    81.207473 
   58400    788.26194   -107.95069   0.71323597   -107.23745   -10758.514    4.3366013    4.3366013    4.3366013   -10758.514   -3242.4114   -18124.706   -10908.424   -3903.4445    7390.1271    10266.855    81.554606 
   58500    576.11969   -107.76068    0.5212852    -107.2394    -460.6934    4.3235836    4.3235836    4.3235836    -460.6934    17401.822   -14529.412    -4254.491   -2481.1298    2620.2744    2359.7375    80.822368 
   58600    690.60429   -107.86402   0.62487327   -107.23915   -5381.9899    4.3356158    4.3356158    4.3356158   -5381.9899    14236.247   -20498.784   -9883.4326   -1113.2793    689.61607   -12960.182    81.499017 
   58700    507.34102   -107.69814   0.45905282   -107.23909    6010.1701    4.3299835    4.3299835    4.3299835    6010.1701    40672.854    -11964.41   -10677.934    2285.0837    7121.8923    12656.032    81.181809 
   58800    370.72082   -107.57817   0.33543599   -107.24274    440.19146    4.3291038    4.3291038    4.3291038    440.19146    36241.297   -6537.3608   -28383.362    5508.9978    18.828803   -11948.763    81.132342 
   58900    800.98466   -107.96185   0.72474775    -107.2371   -3505.0217     4.334151     4.334151     4.334151   -3505.0217    3116.5902   -905.84135   -12725.814    6132.6243   -8586.3868   -4962.1576    81.416443 
   59000    725.17861    -107.8944   0.65615685   -107.23824    3052.2816    4.3270412    4.3270412    4.3270412    3052.2816    10629.543    6393.8685   -7866.5667    -2575.088    5092.5568    10935.629    81.016429 
   59100    454.87419    -107.6533   0.41157973   -107.24172    -9992.311    4.3333062    4.3333062    4.3333062    -9992.311    8152.1632   -9340.9765    -28788.12    -3019.058   -5501.6197    -14743.15    81.368844 
   59200     609.2344   -107.78898   0.55124809   -107.23773    5337.0681    4.3304238    4.3304238    4.3304238    5337.0681    27248.506   -4358.8851    -6878.417    -2795.171   -3228.4963    5830.2034    81.206576 
   59300    562.69413   -107.74943   0.50913748   -107.24029    37.828178    4.3313985    4.3313985    4.3313985    37.828178    37996.603   -20902.676   -16980.442    3462.3996    7185.4941     1052.443    81.261425 
   59400    641.59731   -107.82156   0.58053073   -107.24103   -4268.5217    4.3296082    4.3296082    4.3296082   -4268.5217    9909.7337   -8324.1579   -14391.141    6346.4805   -4583.5627   -12528.382    81.160701 
   59500    899.26437   -108.05137    0.8136733    -107.2377   -1607.1315    4.3320545    4.3320545    4.3320545   -1607.1315    82.131096   -5219.7342    316.20845    6717.3971   -2398.4915     7297.942    81.298352 
   59600    484.86142   -107.67901   0.43871281   -107.24029   -10361.116    4.3347414    4.3347414    4.3347414   -10361.116    8392.3611   -8973.3975   -30502.311    -3033.149    3895.2709   -12233.008    81.449716 
   59700    343.81968   -107.55188   0.31109527   -107.24078    9634.7416    4.3260528    4.3260528    4.3260528    9634.7416     35063.38    10299.614   -16458.769   -4894.7471   -10838.679   -1165.4895    80.960922 
   59800    644.62952   -107.82085   0.58327434   -107.23758    6766.9843    4.3358335    4.3358335    4.3358335    6766.9843     32789.51   -2943.7777   -9544.7791   -7421.3267   -990.68037   -756.23489    81.511297 
   59900    552.41546   -107.73989   0.49983712   -107.24005    456.99623    4.3306529    4.3306529    4.3306529    456.99623    13073.113    8110.6681   -19812.793   -6865.1042    977.48363   -12512.631    81.219467 
   60000    708.32523   -107.87826   0.64090756   -107.23735   -1923.3236    4.3275986    4.3275986    4.3275986   -1923.3236    -11674.54    16147.851   -10243.281    6117.1584   -15284.204    4417.0265    81.047743 
   60100    633.33662   -107.80982   0.57305628   -107.23676   -3421.3119    4.3354247    4.3354247    4.3354247   -3421.3119    12382.713   -7739.3309   -14907.317    7387.9009    6191.0965    -12206.12    81.488242 
   60200    378.55334   -107.58263   0.34252302   -107.24011    178.72675    4.3304023    4.3304023    4.3304023    178.72675    20069.424   -623.99834   -18909.245    3293.1644   -6235.6018   -4741.7173    81.205366 
   60300    691.99608   -107.86374   0.62613259    -107.2376    4539.4016    4.3276611    4.3276611    4.3276611    4539.4016    23586.342   -7599.7717   -2368.3653    4008.9521   -5176.2593   -729.76046    81.051255 
   60400    734.49395   -107.90241   0.66458556   -107.23783   -6113.3567    4.3352423    4.3352423    4.3352423   -6113.3567    8689.0149    -11426.03   -15603.054   -3960.1664    7303.0716   -11946.832    81.477956 
   60500    613.97407   -107.79463   0.55553664    -107.2391   -9551.0332    4.3312475    4.3312475    4.3312475   -9551.0332   -8862.1012    3275.6363   -23066.635   -903.69502   -8922.2159    1135.2048    81.252927 
   60600    637.08579    -107.8143   0.57644861   -107.23786    7623.0745    4.3254452    4.3254452    4.3254452    7623.0745    30947.226    629.40502   -8707.4072    2567.5264   -5550.3949   -5466.6919    80.926812 
   60700    446.51493   -107.64475    0.4040161   -107.24073    921.98305    4.3366696    4.3366696    4.3366696    921.98305    26642.164   -7203.3406   -16672.875    4389.0787     234.1094     -5972.06    81.558457 
   60800    532.60001   -107.72227   0.48190768   -107.24036     3487.217    4.3280395    4.3280395    4.3280395     3487.217    7578.0346    11976.797   -9093.1806    4338.4968   -13202.463    1768.4374    81.072516 
   60900    752.33882   -107.91792   0.68073197   -107.23718    592.47294    4.3270303    4.3270303    4.3270303    592.47294    7277.7352    863.70202   -6364.0183    4231.6068    2628.2907   -6896.0534    81.015818 
   61000    523.77155   -107.71428   0.47391951   -107.24036   -3176.7667    4.3359543    4.3359543    4.3359543   -3176.7667    917.99942     8762.544   -19210.844   -7065.9225   -3274.4972   -755.16835    81.518109 
   61100    556.04392   -107.74342   0.50312022    -107.2403     6294.469    4.3268736    4.3268736    4.3268736     6294.469    26716.599    2665.0741   -10498.266   -2514.5217   -5383.3605    749.98431    81.007015 
   61200     653.4444   -107.83063   0.59125022   -107.23938    7943.9303    4.3292915    4.3292915    4.3292915    7943.9303    29494.588   -3728.6209   -1934.1759    873.16464    5627.8851   -9010.1978    81.142893 
   61300    556.04147   -107.74303   0.50311801   -107.23992   -12310.364    4.3360326    4.3360326    4.3360326   -12310.364    -15217.06   -1733.3457   -19980.687    277.77371   -5737.7919    2570.3137    81.522524 
   61400    681.93313   -107.85465   0.61702742   -107.23763    -5695.473    4.3260746    4.3260746    4.3260746    -5695.473    666.89889   -2365.7009   -15387.617    4027.2512   -6268.1374    -6977.002    80.962144 
   61500    724.14027    -107.8932   0.65521734   -107.23799    3218.4402    4.3308801    4.3308801    4.3308801    3218.4402     26460.85   -7528.5131   -9277.0157    2424.5533    3170.9749   -7200.7241    81.232253 
   61600    440.83693   -107.64066   0.39887851   -107.24178   -2558.8765    4.3360508    4.3360508    4.3360508   -2558.8765    12320.605   -4614.6052   -15382.629   -6206.2546   -8294.0183    3621.6415     81.52355 
   61700    684.04592   -107.85431   0.61893912   -107.23537    8349.3354    4.3255018    4.3255018    4.3255018    8349.3354    26659.533   -1010.1123    -601.4148   -6675.2541   -464.42908   -14066.385    80.929989 
   61800    581.42135    -107.7633   0.52608226   -107.23722   -1755.1941    4.3325963    4.3325963    4.3325963   -1755.1941   -12703.457    16526.621   -9088.7465   -5318.2799   -2594.7419    1212.0433    81.328856 
   61900     459.3508   -107.65601   0.41563026   -107.24038   -10802.752    4.3337435    4.3337435    4.3337435   -10802.752    -21644.54    12347.485   -23111.202   -1230.7163   -6133.2173   -6038.1436    81.393476 
   62000     789.1963   -107.94967    0.7140814   -107.23559    11369.533    4.3277672    4.3277672    4.3277672    11369.533    26649.519    7029.2822    429.79714    6119.5503    2972.6732   -8242.5117    81.057216 
   62100    499.85241   -107.69293   0.45227697   -107.24065    4935.8067    4.3315818    4.3315818    4.3315818    4935.8067     22703.21    8674.4118   -16570.202    8839.0388   -2308.4878    3646.5882    81.271742 
   62200    370.46244   -107.57653    0.3352022   -107.24133   -2003.0189    4.3334556    4.3334556    4.3334556   -2003.0189    15539.799   -1712.2658    -19836.59    1336.2316   -2372.6871   -10328.704    81.377258 
   62300     788.9508   -107.94821   0.71385926   -107.23435   -1323.6806    4.3284076    4.3284076    4.3284076   -1323.6806    2119.8047     542.4224   -6633.2691    1204.4158    1551.8936    4138.0145    81.093203 
   62400    514.20963   -107.70575   0.46526768   -107.24049   -7169.1931    4.3306148    4.3306148    4.3306148   -7169.1931   -16721.957    7915.5391   -12701.162   -5105.4069   -8301.2465   -2266.8191    81.217321 
   62500    735.34484   -107.90535   0.66535547   -107.23999   -5797.3283    4.3346035    4.3346035    4.3346035   -5797.3283    7781.8812   -18426.977   -6746.8891   -5738.5908   -1252.8144   -4942.3673    81.441946 
   62600    722.75274   -107.89074   0.65396187   -107.23678    8826.1599    4.3264049    4.3264049    4.3264049    8826.1599    30417.834   -4557.0588    617.70483   -2200.8045   -1431.7708    7139.5655    80.980695 
   62700    379.50748   -107.58591   0.34338634   -107.24252   -5986.2454    4.3297761    4.3297761    4.3297761   -5986.2454     7727.466    1099.8931   -26786.095    4038.8591   -5648.6744   -6335.8608    81.170146 
   62800    667.14512   -107.84223   0.60364693   -107.23858   -8228.2971    4.3350364    4.3350364    4.3350364   -8228.2971   -3477.0971   -10724.694     -10483.1    1545.7895    1997.4858   -1458.0711    81.466347 
   62900    687.35223   -107.86009   0.62193075   -107.23816   -2073.7437    4.3263914    4.3263914    4.3263914   -2073.7437   -3427.7544    6225.1698   -9018.6465    1453.6758    -2528.984    4197.0471    80.979932 
   63000    472.50047   -107.66978   0.42752836   -107.24225    1521.4586    4.3306575    4.3306575    4.3306575    1521.4586    10110.137    7798.1161   -13343.877   -6393.7401    -4910.472   -8383.7051    81.219723 
   63100    642.80811   -107.81964   0.58162628   -107.23802    3201.0773    4.3339272    4.3339272    4.3339272    3201.0773      32071.6   -11285.096   -11183.272   -7145.5826    1675.8802    2400.1701    81.403829 
   63200    427.85629   -107.62667   0.38713336   -107.23953    6234.2161    4.3259962    4.3259962    4.3259962    6234.2161    18496.514     13885.38   -13679.246   -4497.8573   -8553.1391    1288.3061    80.957744 
   63300    645.30327   -107.82249   0.58388396    -107.2386   -7513.6417    4.3323486    4.3323486    4.3323486   -7513.6417   -7354.6166   -3393.3352   -11792.973     893.7127    91.545596    -5853.886    81.314911 
   63400    757.34286   -107.92153   0.68525974   -107.23627   -9663.7183    4.3342502    4.3342502    4.3342502   -9663.7183   -6364.7628   -18308.539   -4317.8533    1189.0354   -1012.0716    11190.032    81.422029 
   63500    589.48913   -107.77122   0.53338216   -107.23784    742.58825    4.3244762    4.3244762    4.3244762    742.58825    13185.557    2178.3203   -13136.112    4971.6033   -8995.5707   -5238.6575    80.872439 
   63600    543.71363   -107.73147   0.49196352   -107.23951   -2478.5434    4.3338588    4.3338588    4.3338588   -2478.5434    29364.361   -14120.635   -22679.355   -5107.5609    2116.8922    3913.8328    81.399975 
   63700    599.38738   -107.77962    0.5423383   -107.23728   -3197.9998    4.3338782    4.3338782    4.3338782   -3197.9998    19069.483   -7695.8658   -20967.617   -5801.2952   -3581.5633     11826.08    81.401066 
   63800    572.49785   -107.75511   0.51800809   -107.23711      9217.41    4.3239079    4.3239079    4.3239079      9217.41    3034.3884     30059.71    -5441.868   -7697.1201   -4802.2383   -8879.2904    80.840559 
   63900    563.89286   -107.74814   0.51022211   -107.23792   -9401.1381    4.3365272    4.3365272    4.3365272   -9401.1381   -10208.178   -2069.5625   -15925.674   -911.16888    3424.4605    16458.531    81.550425 
   64000     653.9616   -107.82685    0.5917182   -107.23513   -1085.4218    4.3301207    4.3301207    4.3301207   -1085.4218   -10738.168    15702.675   -8220.7729      4016.09   -3418.7285    2678.2173    81.189525 
   64100    607.39727   -107.78619   0.54958582   -107.23661   -806.78507    4.3276643    4.3276643    4.3276643   -806.78507    11433.158    1035.6397   -14889.153    6307.5222   -3732.6448   -3217.8627    81.051434 
   64200    665.79227   -107.84054   0.60242284   -107.23812   -8618.9523    4.3347288    4.3347288    4.3347288   -8618.9523    14872.308   -24437.371   -16291.794    108.60988    2539.1159    17341.089     81.44901 
   64300    696.85008   -107.86596    0.6305246   -107.23544    5657.3533    4.3304571    4.3304571    4.3304571    5657.3533    6561.6326    13087.951   -2677.5237   -4382.7124   -8209.3548   -5951.0159    81.208451 
   64400    339.86464   -107.54718   0.30751667   -107.23967    7442.2906    4.3272542    4.3272542    4.3272542    7442.2906    19185.157    20872.711   -17730.996   -7789.7106   -1789.5944    2068.2245    81.028391 
   64500     434.1861   -107.63238    0.3928607   -107.23952    565.57032    4.3348258    4.3348258    4.3348258    565.57032    3988.5283     16636.19   -18928.007   -7486.7931   -3432.6893    14448.842    81.454472 
   64600    774.35813   -107.93603   0.70065551   -107.23537    5567.5116    4.3283996    4.3283996    4.3283996    5567.5116     4327.594     15564.17   -3189.2296    -683.9171   -5978.2527   -10805.314    81.092754 
   64700    611.94173   -107.79421   0.55369774   -107.24051   -8322.1605    4.3292133    4.3292133    4.3292133   -8322.1605    5903.0425   -21600.087   -9269.4366    2445.8481    1759.8275     16087.79    81.138496 
   64800    791.90031   -107.95345   0.71652804   -107.23693   -10512.655     4.336975     4.336975     4.336975   -10512.655   -13253.784   -11769.683   -6514.4977    4051.0738   -2719.9774    10250.231    81.575691 
   64900    603.27575   -107.78168   0.54585658   -107.23582    3762.7955    4.3268875    4.3268875    4.3268875    3762.7955   -6893.3173    19155.449   -973.74527    2982.0563    3746.9618   -2866.8438    81.007792 
   65000    275.75705   -107.49226   0.24951078   -107.24274   -2995.4084    4.3311382    4.3311382    4.3311382   -2995.4084    8680.1448    9266.7364   -26933.107   -4026.2126    2082.4942    19633.042    81.246775 
   65100    876.52843   -108.02902   0.79310134   -107.23592    4824.4367    4.3340417    4.3340417    4.3340417    4824.4367     6778.185    9485.8934   -1790.7683   -8748.5059    2730.8655   -4259.4346    81.410281 
   65200    625.19137   -107.80652   0.56568629   -107.24083    3775.4925    4.3262181    4.3262181    4.3262181    3775.4925    27673.916   -9943.1008   -6404.3378    -4366.824      2557.36    6425.6083    80.970203 
   65300    425.98768   -107.62853    0.3854426   -107.24309   -8497.9908    4.3347791    4.3347791    4.3347791   -8497.9908    21471.387   -25412.367   -21552.992    892.87577    5514.0681    11141.795    81.451842 
   65400    754.32139   -107.91697   0.68252585   -107.23445    5321.2294    4.3308096    4.3308096    4.3308096    5321.2294    6582.5181    9087.3868    293.78342    4399.3157   -243.05837   -3446.1271     81.22828 
   65500    307.14026   -107.52085   0.27790696   -107.24295    6448.8569     4.325941     4.325941     4.325941    6448.8569    15670.275    12498.993   -8822.6973    7282.1888    1827.5669    17191.412    80.954648 
   65600    650.62316   -107.83001    0.5886975   -107.24131   -1877.9236     4.336609     4.336609     4.336609   -1877.9236    -1822.024    10603.672   -14415.419    419.03604    2878.6064     2803.124    81.555037 
   65700    898.03486   -108.04894   0.81256081   -107.23638    4131.9325    4.3276255    4.3276255    4.3276255    4131.9325   -3239.9822      8865.82    6769.9597    -3148.784   -6270.3214    3136.0452    81.049251 
   65800    422.86805   -107.62557   0.38261989   -107.24295   -11662.037    4.3300011    4.3300011    4.3300011   -11662.037    11112.567   -22787.473   -23311.206   -3956.3001    4564.8072    16370.276    81.182797 
   65900    717.98536    -107.8892   0.64964824   -107.23955   -9457.5256    4.3346729    4.3346729    4.3346729   -9457.5256   -20496.468    3029.1307   -10905.239   -1490.0773   -2102.8383   -5873.3312    81.445855 
   66000    634.85721    -107.8124   0.57443214   -107.23796      6679.02    4.3273988    4.3273988    4.3273988      6679.02    799.13671    20539.477   -1301.5538    1964.3921    -158.9756    9164.4525    81.036514 
   66100     369.4066   -107.57756   0.33424685   -107.24331    1073.6741    4.3326432    4.3326432    4.3326432    1073.6741    15486.431    13898.233   -26163.642    10065.223     4138.214    10469.787    81.331501 
   66200    695.36572   -107.86562   0.62918152   -107.23644    4785.3778    4.3314068    4.3314068    4.3314068    4785.3778     7225.086    17626.465   -10495.417    5284.9819    2882.1804   -5331.7347    81.261888 
   66300    541.59915   -107.72829   0.49005029   -107.23824    3511.0721    4.3301128    4.3301128    4.3301128    3511.0721    32202.527   -15692.216   -5977.0947    2313.2873    55.294201    15904.376    81.189083 
   66400     542.1337   -107.72832   0.49053397   -107.23778   -8642.1611    4.3340741    4.3340741    4.3340741   -8642.1611     7743.479   -16270.308   -17399.654   -4580.7453    5882.0495   -323.55178    81.412107 
   66500    772.02421   -107.93328   0.69854372   -107.23473     1104.862    4.3280523    4.3280523    4.3280523     1104.862   -7103.2766    3535.4429    6882.4198   -8888.5313   -2160.9667   -921.88399    81.073232 
   66600    639.89624   -107.81573   0.57899156   -107.23674   -5303.3515    4.3339042    4.3339042    4.3339042   -5303.3515   -2242.4025    1192.0285    -14859.68   -2587.2062    1274.0741    10666.978    81.402535 
   66700     520.4553   -107.70972    0.4709189    -107.2388   -935.80056    4.3302432    4.3302432    4.3302432   -935.80056    -3434.791    22223.766   -21596.376    2670.9591    3575.8204   -8005.0807    81.196416 
   66800    589.40742    -107.7706   0.53330822   -107.23729    5755.8496    4.3299692    4.3299692    4.3299692    5755.8496    14403.671    10357.871   -7493.9927    6941.1332   -9201.3166    6030.4683    81.181006 
   66900    482.42237   -107.67437    0.4365059   -107.23786    9103.3299    4.3329658    4.3329658    4.3329658    9103.3299    40335.636   -4912.2128   -8113.4335    7206.0894     1837.369    5272.1958    81.349666 
   67000    501.12119   -107.69156   0.45342498   -107.23813   -286.80361    4.3295088    4.3295088    4.3295088   -286.80361     9061.459    1170.0634   -11091.933    3016.0313    -7339.485   -5727.5439    81.155114 
   67100    726.24052   -107.89378   0.65711769   -107.23666   -4859.3926    4.3314737    4.3314737    4.3314737   -4859.3926    271.28052    -10698.43    -4151.028   -3121.6644   -4150.2793     9862.827    81.265656 
   67200    735.00867   -107.90203   0.66505129   -107.23698   -5881.6494    4.3318613    4.3318613    4.3318613   -5881.6494   -1851.6235   -11741.743   -4051.5814   -3657.5527    5123.0364   -3061.3236    81.287475 
   67300    622.39489   -107.80249   0.56315597   -107.23934   -3711.4458    4.3289194    4.3289194    4.3289194   -3711.4458   -702.45957   -1940.3653   -8491.5127   -2834.1268   -1080.8675   -2776.3146    81.121973 
   67400    602.77935   -107.78328   0.54540742   -107.23787    9281.1766     4.332077     4.332077     4.332077    9281.1766      35518.7   -9219.1896    1544.0196     1673.204   -522.59226    6328.6963    81.299617 
   67500    477.53044   -107.67111   0.43207958   -107.23903    6.9379644    4.3303408    4.3303408    4.3303408    6.9379644    11218.012    3363.9669   -14561.165     4832.827    4060.0128   -11293.532     81.20191 
   67600    524.82242   -107.71471   0.47487035   -107.23984   -4608.1469    4.3303101    4.3303101    4.3303101   -4608.1469   -9499.6453     12182.83   -16507.626    2052.7486   -12868.603    5758.0027    81.200182 
   67700    806.32943   -107.96631   0.72958381   -107.23672    991.22383     4.330952     4.330952     4.330952    991.22383   -1840.2282    5073.8288   -259.92915     -2162.47    795.72285   -1314.0761    81.236294 
   67800    577.11259   -107.76266    0.5221836   -107.24047    2912.2377    4.3289453    4.3289453    4.3289453    2912.2377    1700.0983     11136.57   -4099.9558   -4600.3901   -2323.0259   -5591.5177    81.123426 
   67900    440.81914   -107.63923   0.39886242   -107.24037    8783.4651    4.3312252    4.3312252    4.3312252    8783.4651    29210.619    5093.3517   -7953.5752   -7153.5336   -5487.8059    6947.7753    81.251668 
   68000    559.66459   -107.74425   0.50639628   -107.23785    6395.0419    4.3298255    4.3298255    4.3298255    6395.0419     22507.62   -6875.1771    3552.6833   -536.51877    4685.3153   -6758.8418     81.17292 
   68100    589.83839   -107.77336   0.53369817   -107.23966   -11344.566    4.3319426    4.3319426    4.3319426   -11344.566   -17201.324    1274.5518   -18106.927    3867.1943   -6036.5481    194.80031    81.292048 
   68200    853.50208   -108.00932   0.77226662   -107.23705   -3323.1077    4.3297571    4.3297571    4.3297571   -3323.1077   -3977.0219   -6105.2877    112.98649    3542.3555   -5307.2965   -372.79345    81.169078 
   68300    743.54698    -107.9101   0.67277693   -107.23732   -5525.3905    4.3329727    4.3329727    4.3329727   -5525.3905    7848.7461   -17078.642   -7346.2754    3263.4522    3049.2219   -6339.0534    81.350057 
   68400    370.79537   -107.57489   0.33550344   -107.23938    2706.6237    4.3309387    4.3309387    4.3309387    2706.6237    22204.237    6361.0098   -20445.376   -3138.6002   -9538.8264    1965.0994    81.235547 
   68500     581.6824   -107.76273   0.52631846   -107.23641     4266.918    4.3300605    4.3300605    4.3300605     4266.918    18346.433    29.706516   -5575.3853   -9754.6432    2916.3114   -2970.8687    81.186141 
   68600    541.51747   -107.72764   0.48997639   -107.23766   -2086.1118    4.3343404    4.3343404    4.3343404   -2086.1118   -14791.577    10545.905   -2012.6639   -3648.4591   -2722.2947   -1118.5945    81.427113 
   68700    721.80101   -107.88895   0.65310072   -107.23585    1672.0311    4.3296208    4.3296208    4.3296208    1672.0311   -18391.974    29998.183   -6590.1158   -2384.8113    -10542.12    2902.7702     81.16141 
   68800    677.24631   -107.84764   0.61278669   -107.23485    2510.3706    4.3320374    4.3320374    4.3320374    2510.3706     5076.099    2649.8224   -194.80956    7840.3393     1453.807   -8450.9169     81.29739 
   68900     337.8171   -107.54487   0.30566401    -107.2392    4149.2302    4.3299891    4.3299891    4.3299891    4149.2302    13997.164    11994.657    -13544.13    9301.3376   -11919.459   -1725.9399    81.182123 
   69000    572.62749   -107.75544   0.51812539   -107.23732     2362.089    4.3310815    4.3310815    4.3310815     2362.089    23185.942   -3612.3526   -12487.322    3414.9219   -1498.4084    -2191.489    81.243584 
   69100    731.08627   -107.89866   0.66150222   -107.23716   -5630.6921    4.3328155    4.3328155    4.3328155   -5630.6921    7157.3017   -21555.332   -2494.0466   -1596.1069    1811.5924   -12655.275      81.3412 
   69200    702.01031   -107.87333   0.63519368   -107.23814   -6870.3255    4.3270734    4.3270734    4.3270734   -6870.3255   -17440.975     1718.418   -4888.4195    55.339974   -7768.0663    3243.7671    81.018238 
   69300    725.78848   -107.89385   0.65670867   -107.23714   -10131.852    4.3349535    4.3349535    4.3349535   -10131.852    2914.1449   -15271.742   -18037.957   -4673.1871   -229.06138   -6590.8613    81.461675 
   69400    483.05708   -107.67526   0.43708019   -107.23818    6513.6025    4.3283263    4.3283263    4.3283263    6513.6025    28964.765   -7864.2641   -1559.6934    4389.7959   -5125.1015   -7871.4889    81.088632 
   69500    443.99429   -107.64269   0.40173537   -107.24096    6677.1049    4.3275443    4.3275443    4.3275443    6677.1049    11905.642    11504.545   -3378.8722    6312.9245   -12847.572     4753.927    81.044689 
   69600    681.47277   -107.85441   0.61661089    -107.2378   -4315.9447    4.3361262    4.3361262    4.3361262   -4315.9447    6042.1758   -9145.4701   -9844.5398    4111.2305    2750.0563   -12399.608    81.527805 
   69700    647.14635    -107.8239   0.58555161   -107.23835    6280.1406    4.3236711    4.3236711    4.3236711    6280.1406   -3861.5971    20508.271    2193.7478     2058.596   -12756.653    954.99322    80.827277 
   69800    529.03374   -107.71938   0.47868084   -107.24069   -8236.9255    4.3340273    4.3340273    4.3340273   -8236.9255   -7541.7996    6750.6037   -23919.581   -3207.4631   -864.41796   -2744.0876    81.409472 
   69900    610.13284   -107.78933   0.55206102   -107.23727    4013.3305     4.331377     4.331377     4.331377    4013.3305    34346.753   -10782.462     -11524.3   -6498.0869    1483.5743   -10343.019    81.260214 
   70000    579.20872   -107.76204   0.52408022   -107.23796    7844.5478     4.324658     4.324658     4.324658    7844.5478    17492.728    1947.6019    4093.3131    3919.1223   -9529.6264    2744.3198     80.88264 
   70100    557.78048    -107.7439    0.5046915   -107.23921   -12420.877    4.3365573    4.3365573    4.3365573   -12420.877    1131.6618   -20527.365   -17866.928    3972.7989      2688.67   -9921.3755    81.552125 
   70200    810.08137   -107.96746   0.73297865   -107.23448   -5018.2989    4.3286162    4.3286162    4.3286162   -5018.2989    3620.3668   -10236.358   -8438.9058    6539.7604   -251.60226   -4633.9024    81.104928 
   70300    645.59764   -107.82111   0.58415031   -107.23696   -865.38087    4.3281004    4.3281004    4.3281004   -865.38087   -4351.8694    987.50571    768.22108    4226.1182    -7526.251    1766.4157    81.075936 
   70400    520.88687   -107.71207   0.47130938   -107.24077   -3482.7489    4.3352123    4.3352123    4.3352123   -3482.7489    25344.062   -16075.419   -19716.889   -2194.7546     7522.908   -11544.334    81.476263 
   70500    653.90182   -107.82768   0.59166411   -107.23601     15809.46    4.3260623    4.3260623    4.3260623     15809.46    33339.375    7728.5966     6360.408   -8115.4615   -10289.342    3619.9154    80.961456 
   70600    391.71799   -107.59492   0.35443467   -107.24049    1651.9822    4.3302325    4.3302325    4.3302325    1651.9822    12125.387    5955.1947   -13124.635   -2995.6264   -6002.0712   -7128.7981    81.195817 
   70700    499.85557   -107.69201   0.45227983   -107.23973    -8835.254    4.3347414    4.3347414    4.3347414    -8835.254    646.79002   -2366.7012   -24785.851   -3406.3935     2987.629   -12078.073    81.449718 
   70800    868.21529   -108.02004   0.78557944   -107.23446    8217.5363      4.32507      4.32507      4.32507    8217.5363    3315.8852    11939.498     9397.226    3432.3245   -6445.4956    2944.4794    80.905758 
   70900    536.30108   -107.72619   0.48525649   -107.24094   -10048.305    4.3335526    4.3335526    4.3335526   -10048.305   -5336.9791   -18795.171   -6012.7659    7134.5135    6411.2249   -16283.456    81.382726 
   71000    523.08377   -107.71395   0.47329719   -107.24065    2201.0827    4.3303023    4.3303023    4.3303023    2201.0827     31006.57   -16135.393   -8267.9286    2834.3052    8166.2456    1460.9172    81.199741 
   71100    675.11249   -107.84653   0.61085597   -107.23568    5701.6392     4.328159     4.328159     4.328159    5701.6392    19502.679   -6152.8359    3755.0747   -352.30185    2082.3893    1738.6696    81.079232 
   71200    344.44914   -107.55344   0.31166482   -107.24178   -13278.004    4.3360248    4.3360248    4.3360248   -13278.004    13220.658    -23659.15   -29395.522   -2249.9914    3564.4061    -13474.87    81.522086 
   71300    814.75392   -107.97503   0.73720647   -107.23782    4746.0405    4.3254007    4.3254007    4.3254007    4746.0405    6775.5574    10603.615   -3141.0512   -3707.2816    3513.6972    11176.034    80.924319 
   71400    819.97503   -107.98108   0.74193064   -107.23915   -1093.1062    4.3295505    4.3295505    4.3295505   -1093.1062   -3239.8328     2272.214   -2311.6999    1607.5559   -8594.4039   -11011.633    81.157454 
   71500    276.60162    -107.4948   0.25027496   -107.24452   -7973.3307    4.3343884    4.3343884    4.3343884   -7973.3307    9653.7771   -5553.8685   -28019.901    8447.5745     7636.512   -9705.3751    81.429818 
   71600    677.70365   -107.85048   0.61320051   -107.23728    6199.2544    4.3259079    4.3259079    4.3259079    6199.2544    23383.437    2106.4861   -6892.1603    1759.3988   -818.10049    8541.7419    80.952785 
   71700    543.35447   -107.73193   0.49163854   -107.24029    1678.9412    4.3304956    4.3304956    4.3304956    1678.9412    29457.781   -21093.083   -3327.8746    1294.0255    3525.4368   -17581.063    81.210618 
   71800    581.12719   -107.76803    0.5258161   -107.24221   -5802.3669    4.3319895    4.3319895    4.3319895   -5802.3669    13171.098   -18121.944   -12456.255   -4161.2555    8180.3376    2577.3378    81.294693 
   71900    872.84549     -108.025   0.78976894   -107.23523   -1767.0122    4.3314155    4.3314155    4.3314155   -1767.0122     273.0155   -5159.7393   -414.31284   -3834.5637    1451.4978    2758.3062    81.262382 
   72000    551.82239   -107.73778   0.49930049   -107.23848   -2435.6504    4.3274241    4.3274241    4.3274241   -2435.6504    11256.533    -7822.031   -10741.453   -1612.0967   -1266.5306   -10989.868    81.037937 
   72100    401.25824   -107.60479   0.36306688   -107.24172   -3977.4133    4.3328943    4.3328943    4.3328943   -3977.4133    15405.095   -1230.6966   -26106.638    6624.1863    7606.2948     10148.87    81.345642 
   72200    667.67761   -107.84184   0.60412874   -107.23771    6327.8585    4.3304091    4.3304091    4.3304091    6327.8585    26210.291   -709.02458   -6517.6905    5144.9567   -2845.9828   -6463.6199    81.205748 
   72300    532.58909   -107.72222    0.4818978   -107.24032    7964.7242    4.3266965    4.3266965    4.3266965    7964.7242    27818.829    -5115.583    1190.9264    8721.8845    8405.2674   -2260.7993    80.997066 
   72400    548.32357   -107.73577   0.49613469   -107.23963   -9679.7595    4.3382108    4.3382108    4.3382108   -9679.7595   -10423.967    404.04954   -19019.361    3024.1649    6541.4117    6504.1764    81.645442 
   72500    706.38892   -107.87359   0.63915554   -107.23443    4947.6496      4.32645      4.32645      4.32645    4947.6496    1176.7253    4157.4228    9508.8007   -2585.3219   -8753.2068    -11375.62    80.983224 
   72600    527.33332   -107.71597   0.47714227   -107.23883   -630.87401    4.3277217    4.3277217    4.3277217   -630.87401    8806.1185   -5073.8578   -5624.8828   -4719.2372    5462.7531    9022.5836    81.054656 
   72700     560.0043   -107.74553   0.50670366   -107.23883   -12158.187    4.3396693    4.3396693    4.3396693   -12158.187   -2801.3306    -11836.25   -21836.981   -3277.8242   -4835.3578    3704.7951    81.727817 
   72800    774.95167   -107.93541   0.70119256   -107.23422    6636.9205    4.3227708    4.3227708    4.3227708    6636.9205    28284.692   -10103.786    1729.8555   -3360.2278   -1702.6691   -1488.2647    80.776795 
   72900    473.82296    -107.6691   0.42872497   -107.24038   -7686.9761    4.3312738    4.3312738    4.3312738   -7686.9761    8335.3168   -14728.454   -16667.791    5603.0782    14671.904    12825.924    81.254407 
   73000    691.24713   -107.86239   0.62545493   -107.23694   -14704.558    4.3370299    4.3370299    4.3370299   -14704.558   -24015.683   -8520.8521   -11577.139    868.40885   -955.82347   -5146.9901    81.578788 
   73100    674.14789   -107.84584   0.60998318   -107.23586    13540.091     4.320603     4.320603     4.320603    13540.091    23788.346   -2640.9602    19472.886    2685.5257   -5623.6578    2252.8802    80.655332 
   73200    430.23364    -107.6315   0.38928444   -107.24221   -8222.4893    4.3337296    4.3337296    4.3337296   -8222.4893   -2508.5859   -9342.9582   -12815.924   -1346.3485    7584.2826    4839.9684    81.392697 
   73300    619.62561   -107.79883   0.56065028   -107.23818   -1345.1079    4.3347259    4.3347259    4.3347259   -1345.1079    9609.5475    193.54532   -13838.417   -3855.7779   -11105.196   -5783.5799    81.448844 
   73400    626.57432     -107.804   0.56693761   -107.23706    8850.9347    4.3201278    4.3201278    4.3201278    8850.9347    26944.839    5174.8185   -5566.8531   -1696.1648    6984.9616    11697.846    80.628725 
   73500    564.55726    -107.7531   0.51082327   -107.24228   -16095.918    4.3366295    4.3366295    4.3366295   -16095.918   -27703.132    1398.1792     -21982.8    3554.2937     147.8392    4226.2651    81.556193 
   73600    650.99964   -107.82741   0.58903815   -107.23837    5420.1109    4.3314365    4.3314365    4.3314365    5420.1109    11867.702    1472.5588    2920.0721     3321.306    -10932.45    1756.0122    81.263561 
   73700    474.78854   -107.66736   0.42959865   -107.23777    9004.2486    4.3219081    4.3219081    4.3219081    9004.2486    26037.924   -7785.9912    8760.8125    6549.0633    57.031708     14505.98    80.728447 
   73800    428.23881     -107.629   0.38747947   -107.24152   -7209.9685    4.3390589    4.3390589    4.3390589   -7209.9685    5513.2379   -8814.1954   -18328.948    3215.6072   -7750.1925   -2095.5067    81.693335 
   73900    753.33296   -107.91658   0.68163149   -107.23495    3489.4599    4.3291317    4.3291317    4.3291317    3489.4599    19898.143   -9320.1626   -109.60049    -26.83925   -4667.1529    8368.2183    81.133905 
   74000    757.20592   -107.92109   0.68513583   -107.23595    -8447.187    4.3275492    4.3275492    4.3275492    -8447.187    -8562.245   -9055.0722   -7724.2438   -1450.9075    9670.1252    7403.3511    81.044967 
   74100    592.74775   -107.77313   0.53633062    -107.2368   -10562.234    4.3371473    4.3371473    4.3371473   -10562.234   -12305.172   -2540.3214   -16841.208   -4217.7382   -4944.1516   -4637.4062    81.585415 
   74200    633.84169   -107.80811   0.57351328    -107.2346    331.17616    4.3292988    4.3292988    4.3292988    331.17616    25065.664   -21159.307   -2912.8285   -1457.3113    865.22099    12327.449    81.143302 
   74300    505.66864   -107.69372   0.45753961   -107.23618   -2083.9932    4.3305144    4.3305144    4.3305144   -2083.9932    11533.044    -5895.636   -11889.388    3910.6437   -5152.7887   -3199.0355    81.211673 
   74400    593.44445    -107.7748   0.53696101   -107.23784    2392.6042    4.3309517    4.3309517    4.3309517    2392.6042    6996.3113   -1793.0466     1974.548    3011.9026   -14231.754    5379.6249    81.236278 
   74500    750.43153   -107.91437   0.67900622   -107.23537   -2859.6211    4.3339874    4.3339874    4.3339874   -2859.6211   -5163.3097   -16260.883    12845.329    5257.3065    187.82466    12211.009    81.407224 
   74600     533.7244   -107.71993   0.48292505     -107.237   -130.28035    4.3267581    4.3267581    4.3267581   -130.28035   -21919.837    13796.263    7732.7326    5468.9164   -3401.4802    -843.9996    81.000526 
   74700    474.06779   -107.66798    0.4289465   -107.23903   -1898.2593    4.3330101    4.3330101    4.3330101   -1898.2593    1170.1785    2979.6576   -9844.6139   -5274.4617    1046.4946    12025.025    81.352163 
   74800    737.74836   -107.90401   0.66753022   -107.23648   -2764.2419    4.3337524    4.3337524    4.3337524   -2764.2419    9120.0357   -5411.7818    -12000.98   -1913.0158    488.20662    2523.9764     81.39398 
   74900    531.02873   -107.71969   0.48048595   -107.23921    11108.317    4.3229003    4.3229003    4.3229003    11108.317    10336.067    17615.922    5372.9636   -3546.2869   -10807.276   -6058.4764    80.784055 
   75000     495.7529   -107.68701   0.44856765   -107.23844   -6019.3456    4.3401427    4.3401427    4.3401427   -6019.3456    83.081774   -20638.796    2497.6776   -2981.2911    -5870.657    10239.896    81.754568 
   75100    606.17454   -107.78336   0.54847946   -107.23488    6583.9753    4.3233533    4.3233533    4.3233533    6583.9753   -5735.1248    768.89195    24718.159   -2083.7052   -2970.5802   -5557.4681    80.809458 
   75200     445.6478   -107.64501   0.40323149   -107.24177    -2306.588    4.3285721    4.3285721    4.3285721    -2306.588   -7605.6049    516.10963    169.73123    3457.0147   -5461.6388     3244.551    81.102452 
   75300    860.58299   -108.01582   0.77867358   -107.23715   -18700.696    4.3382336    4.3382336    4.3382336   -18700.696   -13976.233   -25364.586   -16761.269   -1551.4952    6754.3238    14339.878    81.646729 
   75400    776.74057   -107.93851   0.70281119    -107.2357    10806.654    4.3192899    4.3192899    4.3192899    10806.654    12135.918    4289.9067    15994.136     2715.384   -6008.2445   -3225.3749     80.58182 
   75500    424.62645   -107.62509   0.38421093   -107.24087   -8959.7702    4.3365354    4.3365354    4.3365354   -8959.7702   -21178.119   -9727.0455    4025.8536   -1792.7017   -9401.3242     4359.465    81.550889 
   75600    478.83225   -107.67132   0.43325748   -107.23806    6008.5695    4.3298459    4.3298459    4.3298459    6008.5695    2700.2616   -12368.478    27693.925   -2597.8401   -2202.6174    2255.4431    81.174068 
   75700     549.9777   -107.73556   0.49763138   -107.23792    6555.3487     4.325481     4.325481     4.325481    6555.3487    4708.8298     5474.426    9482.7904   -1372.6447   -15696.383   -12430.001    80.928823 
   75800    610.18139   -107.79171   0.55210495   -107.23961    -2736.928    4.3343869    4.3343869    4.3343869    -2736.928    712.67888    823.73888   -9747.2017   -5858.2099    3913.0812    7899.3769    81.429736 
   75900    771.85572   -107.93439   0.69839128     -107.236    1661.5643    4.3305607    4.3305607    4.3305607    1661.5643    2574.4898   -3251.2432    5661.4464   -851.02253    3709.0322   -2212.1027    81.214276 
   76000    523.13116   -107.71105   0.47334006   -107.23771     2536.092    4.3271877    4.3271877    4.3271877     2536.092   -5335.9515    6460.3783    6483.8493    2606.3177   -3917.3278    -1995.687    81.024658 
   76100    479.06139   -107.67278   0.43346481   -107.23932   -6498.9029    4.3307975    4.3307975    4.3307975   -6498.9029   -22387.969   -5499.2535    8390.5135    866.52254    7111.0029    10801.301    81.227603 
   76200    696.08938   -107.86812    0.6298363   -107.23828   -4487.0361    4.3306863    4.3306863    4.3306863   -4487.0361   -3005.9919   -16096.356      5641.24    653.22218   -6027.3432   -13268.381    81.221343 
   76300    717.32407   -107.88713   0.64904989   -107.23808     118.9434    4.3286378    4.3286378    4.3286378     118.9434    4999.6884    604.07875   -5246.9369    1808.4131   -3261.8548   -4471.9431    81.106141 
   76400     604.9632   -107.78579   0.54738341   -107.23841   -7345.5323    4.3332852    4.3332852    4.3332852   -7345.5323    1279.3016   -9325.7984     -13990.1   -10004.722    6162.3378    1732.1671    81.367661 
   76500     536.5806   -107.72262   0.48550941   -107.23711    3051.3766    4.3293186    4.3293186    4.3293186    3051.3766    12792.272     -4471.58    833.43777   -4812.7354    2117.2621   -11703.377    81.144417 
   76600    476.84883   -107.66937   0.43146284   -107.23791    8281.5566     4.329255     4.329255     4.329255    8281.5566   -14608.795    17906.362    21547.103   -5195.5416    4336.0684    10335.747    81.140838 
   76700    510.47878   -107.69961   0.46189192   -107.23772   -3019.9698    4.3364951    4.3364951    4.3364951   -3019.9698   -21517.734   -1565.7473    14023.572   -6036.2557    5714.7329    2145.1991    81.548611 
   76800    727.17051   -107.89178   0.65795916   -107.23382    6806.3347    4.3245441    4.3245441    4.3245441    6806.3347    1206.0852    8162.8151    11050.104    2497.4451     -6438.58   -7244.7871     80.87625 
   76900    611.49094   -107.79073   0.55328985   -107.23744   -12455.528     4.332476     4.332476     4.332476   -12455.528   -23298.378   -2216.5767    -11851.63    382.80769     2920.228    4568.2446    81.322082 
   77000     568.6836   -107.75312   0.51455687   -107.23856    -15405.29    4.3308187    4.3308187    4.3308187    -15405.29   -10421.216   -23957.661   -11836.992    64.422593    1221.8146   -14168.895    81.228794 
   77100    741.12437   -107.90692    0.6705849   -107.23634    1225.7258    4.3272096    4.3272096    4.3272096    1225.7258   -2981.0268   -7007.4821    13665.686    576.57224   -642.14097   -11236.687    81.025888 
   77200    529.45125   -107.71841   0.47905861   -107.23935   -3736.7088     4.333309     4.333309     4.333309   -3736.7088   -16442.683   -7026.0485    12258.605   -3338.8783     13968.56    7337.3538    81.368999 
   77300    504.04783   -107.69594   0.45607307   -107.23987    8363.1013    4.3251815    4.3251815    4.3251815    8363.1013    7099.6366   -487.59217     18477.26   -1527.5194   -192.67009   -11211.827    80.912012 
   77400    599.95999   -107.78135    0.5428564    -107.2385    2214.7153    4.3337519    4.3337519    4.3337519    2214.7153   -2392.8769    12145.468   -3108.4454   -2876.1878    7228.4894    1618.3466    81.393951 
   77500    515.93763   -107.70762   0.46683121   -107.24079   -1843.8765    4.3267304    4.3267304    4.3267304   -1843.8765   -18589.194    5446.9609     7610.604   -3245.0497     8644.909   -2321.5106    80.998969 
   77600    653.39543   -107.83135   0.59120592   -107.24015   -7241.5535    4.3313312    4.3313312    4.3313312   -7241.5535   -6569.1613   -14228.074   -927.42527    7.2339211    -6248.464   -18440.692    81.257636 
   77700     829.2245   -107.98775   0.75029976   -107.23745   -354.98525    4.3286225    4.3286225    4.3286225   -354.98525   -12059.661   -8147.4601    19142.166    2034.4997    8022.3325    1580.0693    81.105282 
   77800    446.21467   -107.64548   0.40374441   -107.24174    2330.0274    4.3269342    4.3269342    4.3269342    2330.0274   -1392.9282   -3877.2641    12260.275   -2938.1085    1968.3881    -1440.331    81.010418 
   77900    575.35098   -107.76076   0.52058966   -107.24017   -4892.8327    4.3345979    4.3345979    4.3345979   -4892.8327   -5837.1589    2827.7226   -11669.062     1491.076    811.71138   -8900.5642    81.441626 
   78000    628.33514   -107.80459   0.56853084   -107.23606    13651.017    4.3264482    4.3264482    4.3264482    13651.017   -3071.2502    24700.308    19323.992   -6439.4879    6722.4095    6800.0936    80.983123 
   78100    523.68716   -107.71317   0.47384315   -107.23933   -11461.156    4.3334902    4.3334902    4.3334902   -11461.156   -8283.3949   -5581.1808   -20518.893   -6498.6268    184.04998   -16350.595    81.379205 
   78200    667.74078   -107.84073   0.60418589   -107.23654    848.62488    4.3290654    4.3290654    4.3290654    848.62488    8736.5522   -4633.5479   -1557.1297   -1195.5503   -4955.4657   -13034.051    81.130182 
   78300    660.19017   -107.83355   0.59735394    -107.2362   -194.81307    4.3312038    4.3312038    4.3312038   -194.81307   -5799.0362   -16620.088    21834.685   -4952.1379   -4585.1194    1233.2556    81.250468 
   78400    396.68121   -107.59898   0.35892549   -107.24006   -2762.3329    4.3304326    4.3304326    4.3304326   -2762.3329    4666.0211   -15900.024    2947.0037    2345.5823   -6510.1084   -14077.447    81.207072 
   78500    661.34897   -107.83555   0.59840244   -107.23715    5477.0696    4.3286547    4.3286547    4.3286547    5477.0696   -12091.794    13148.453     15374.55    1542.4711   -8359.3723    6203.5188    81.107094 
   78600    605.06451   -107.78545   0.54747508   -107.23797    3113.4633    4.3313027    4.3313027    4.3313027    3113.4633   -1650.2051    9941.7232    1048.8717   -617.62789    3463.2834    1203.3106    81.256032 
   78700    506.87407   -107.69834   0.45863031   -107.23971   -6202.6015     4.329913     4.329913     4.329913   -6202.6015   -972.20607     8740.778   -26376.376    472.81658   -4295.5921    -17498.52    81.177841 
   78800    752.44506   -107.91705    0.6808281   -107.23622    1106.3573    4.3300328    4.3300328    4.3300328    1106.3573   -4111.1198   -4729.7577    12159.949   -4035.5391   -1460.7732   -75.805225    81.184581 
   78900     677.0314   -107.85171   0.61259223   -107.23912   -1739.6642    4.3270992    4.3270992    4.3270992   -1739.6642   -7124.9736   -12361.717    14267.698   -3140.0565    4652.5642   -6781.2908    81.019687 
   79000    468.47664   -107.66646   0.42388751   -107.24258   -2621.9585    4.3322415    4.3322415    4.3322415   -2621.9585   -11099.775   -222.78253     3456.682    1448.2161   -13123.224   -9277.0831    81.308878 
   79100    707.15132   -107.87723   0.63984538   -107.23739    4564.6858    4.3300361    4.3300361    4.3300361    4564.6858   -14287.758     13642.98    14338.836    1868.5836    2706.0185    8048.1472    81.184767 
   79200    458.30328   -107.65454   0.41468244   -107.23986      9870.39    4.3258256    4.3258256    4.3258256      9870.39    17784.152      20585.1   -8758.0823    3323.1227   -2752.2079   -12055.935     80.94817 
   79300    625.41915   -107.80438   0.56589239   -107.23849    -7100.851    4.3357211    4.3357211    4.3357211    -7100.851   -6083.8705     932.2693   -16150.952     3192.544   -4706.0063   -10593.317    81.504957 
   79400    694.16708   -107.86379   0.62809696    -107.2357    9606.3406    4.3262308    4.3262308    4.3262308    9606.3406    5093.4268   -1726.9024    25452.497   -3938.3322    7236.7552   -995.23626    80.970917 
   79500    561.17129   -107.74651   0.50775958   -107.23875   -3382.3833    4.3294344    4.3294344    4.3294344   -3382.3833   -8338.6666   -15777.054    13968.571   -2733.5942   -1851.0204   -16585.141    81.150929 
   79600    632.47089   -107.80948   0.57227296   -107.23721   -3143.8963    4.3349206    4.3349206    4.3349206   -3143.8963   -19765.806   -1172.4277    11506.545   -3916.0987   -4570.9088    3108.0594    81.459821 
   79700    651.62841    -107.8253   0.58960708    -107.2357    2647.1386    4.3260005    4.3260005    4.3260005    2647.1386   -9254.7087    6206.4121    10989.712   -5189.5181   -2205.0971    484.98827    80.957985 
   79800     532.8102   -107.72087   0.48209786   -107.23877   -6145.7328    4.3322186    4.3322186    4.3322186   -6145.7328   -1115.9457    4166.5404   -21487.793    4445.8804   -5015.9039   -16555.447     81.30759 
   79900    747.00304   -107.91146   0.67590405   -107.23556   -1860.4531    4.3302298    4.3302298    4.3302298   -1860.4531   -17188.854    6184.0132     5423.481   -2503.0441    -5816.806    622.64975    81.195665 
   80000    469.08507   -107.66344   0.42443803     -107.239    894.21123    4.3292092    4.3292092    4.3292092    894.21123    7725.2845   -16385.357    11342.706    1209.8588    5287.6702   -13795.275    81.138267 
   80100    604.94631   -107.78598   0.54736813   -107.23861    428.89051    4.3301312    4.3301312    4.3301312    428.89051    2763.2602   -10195.471    8718.8827   -1883.6747   -2746.0306   -12727.985    81.190117 
   80200     641.0776   -107.81826   0.58006049    -107.2382    3921.8379    4.3289193    4.3289193    4.3289193    3921.8379   -3693.5736   -321.56963    15780.657    -5921.835    3052.7107    9315.1877    81.121965 
   80300    499.36254   -107.69427   0.45183372   -107.24243   -7999.3383    4.3293774    4.3293774    4.3293774   -7999.3383   -4556.4378   -5581.1114   -13860.466   -1386.5952      1043.11   -15816.556    81.147723 
   80400    690.49255   -107.86303   0.62477217   -107.23826   -2702.8235    4.3311391    4.3311391    4.3311391   -2702.8235   -14693.961    17133.479   -10547.988   -1110.2642   -7936.7838   -5796.6352    81.246823 
   80500    621.98243   -107.80076   0.56278277   -107.23798   -12440.327    4.3329331    4.3329331    4.3329331   -12440.327   -32855.587   -2693.7399   -1771.6546    1743.3038    4426.4614   -3955.1494    81.347827 
   80600    489.99921   -107.68327   0.44336158   -107.23991   -1304.0465    4.3277831    4.3277831    4.3277831   -1304.0465    6723.6748    -10723.34    87.525541    3161.9167   -457.45682   -27765.244    81.058107 
   80700    786.76138   -107.94666   0.71187823   -107.23478    1003.8951    4.3338428    4.3338428    4.3338428    1003.8951   -7308.4766   -9620.1351    19940.297    3036.5867    4687.2532    2910.9453    81.399075 
   80800    469.15652   -107.66329   0.42450268   -107.23878   -2144.0649    4.3314746    4.3314746    4.3314746   -2144.0649    -4461.944   -19111.509    17141.259   -95.639047    10871.704   -5696.4631    81.265706 
   80900    516.13152   -107.70533   0.46700664   -107.23833    4030.0639    4.3283252    4.3283252    4.3283252    4030.0639    12794.693    2058.4642   -2762.9659   -1381.7041    4962.4629   -13200.919    81.088571 
   81000    758.87434   -107.92092   0.68664545   -107.23427   -4916.0265    4.3338039    4.3338039    4.3338039   -4916.0265   -15308.741    6177.5969   -5616.9353    -3899.642    1769.7206     10669.08    81.396884 
   81100    392.84571   -107.59699   0.35545505   -107.24153   -2692.6412    4.3265878    4.3265878    4.3265878   -2692.6412    1847.8875   -84.944002   -9840.8672   -3845.4309   -282.98292   -21316.404    80.990961 
   81200    692.58871   -107.86699   0.62666882   -107.24032    4987.5136    4.3310997    4.3310997    4.3310997    4987.5136    7351.3374   -5565.1601    13176.364    2537.5928   -2985.1493   -10908.671    81.244609 
   81300     694.8423   -107.86853   0.62870792   -107.23982    2543.6081    4.3296384    4.3296384    4.3296384    2543.6081   -13124.771   -6976.1341    27731.729    -4699.797   -4293.3462    3948.8988    81.162401 
   81400    368.61879   -107.57924   0.33353402    -107.2457   -2212.1739    4.3282876    4.3282876    4.3282876   -2212.1739    5283.4969   -15932.289    4012.2701    3471.9463    8085.1462   -21173.085     81.08646 
   81500    842.71266   -108.00086   0.76250412   -107.23835   -6633.4223     4.333574     4.333574     4.333574   -6633.4223   -8295.2477   -8983.6532    -2621.366   -1592.5223   -24.304927    3689.1668    81.383929 
   81600    618.93906   -107.80005   0.56002907   -107.24002    858.37224    4.3257557    4.3257557    4.3257557    858.37224   -1160.9055   -1163.8593    4899.8815   -4239.9936    1514.6294   -3413.8797    80.944245 
   81700    392.99356   -107.60011   0.35558883   -107.24452   -1932.2603    4.3348598    4.3348598    4.3348598   -1932.2603     1913.472   -21486.176    13775.923    1408.1633   -1172.5243    -24345.83    81.456391 
   81800    711.49267   -107.88085   0.64377352   -107.23708    14816.266    4.3266344    4.3266344    4.3266344    14816.266    2111.0829    4004.4841     38333.23   -5510.5845   -9173.0801     3935.632    80.993578 
   81900    379.62262   -107.58672   0.34349052   -107.24323   -3543.5844     4.332618     4.332618     4.332618   -3543.5844   -3630.8392   -13811.787    6811.8726   -194.65623   -1763.5276   -15756.164    81.330079 
   82000    561.97286   -107.74581   0.50848485   -107.23733   -9171.5942    4.3350049    4.3350049    4.3350049   -9171.5942     1664.166   -11220.555   -17958.394   -2504.0171    2223.4005   -9956.2534    81.464571 
   82100    811.49367   -107.96686   0.73425652   -107.23261    15164.493    4.3214615    4.3214615    4.3214615    15164.493    16873.219    6704.2394    21916.021   -537.53268    5532.4661    10406.274    80.703419 
   82200    443.80512    -107.6424    0.4015642   -107.24084   -15322.934    4.3413211    4.3413211    4.3413211   -15322.934   -5822.6431   -36963.337   -3182.8218    3967.7675    6843.1083   -19165.821    81.821178 
   82300    700.00227   -107.86798   0.63337676    -107.2346    12658.491    4.3216655    4.3216655    4.3216655    12658.491     2698.858   -1833.2996    37109.913     1145.029    7756.0065   -1636.6642    80.714852 
   82400    701.17903   -107.87213   0.63444152   -107.23769   -8964.1794    4.3318944    4.3318944    4.3318944   -8964.1794   -21280.117   -11782.357    6169.9357    3125.0986   -3802.2336   -6479.5167     81.28934 
   82500     467.8573   -107.66444   0.42332711   -107.24111   -19066.824    4.3349516    4.3349516    4.3349516   -19066.824   -20707.944   -19058.512   -17434.017    2814.3318    611.13062   -26904.599    81.461566 
   82600     804.7745   -107.96403   0.72817688   -107.23586    15298.839     4.322174     4.322174     4.322174    15298.839      829.266    19092.859    25974.392   -2463.1824     4224.305    10500.685    80.743343 
   82700    532.13958   -107.72046   0.48149107   -107.23897   -7931.2004    4.3402417    4.3402417    4.3402417   -7931.2004   -6044.3247   -22510.225    4760.9481   -2092.2867   -1780.8386   -11341.953     81.76016 
   82800    442.56259   -107.63884   0.40043993    -107.2384    12844.958    4.3215179    4.3215179    4.3215179    12844.958    15535.002   -986.43104    23986.303    41.896727    13846.536   -11622.576    80.706581 
   82900    692.71616   -107.86348   0.62678414    -107.2367    341.04794    4.3325375    4.3325375    4.3325375    341.04794    898.38235    -1606.221    1730.9824   -6807.1152    2232.0311    5658.8476    81.325544 
   83000     431.2637   -107.63034   0.39021646   -107.24013   -11161.694    4.3337869    4.3337869    4.3337869   -11161.694    7593.7007   -28309.888   -12768.894    1813.7187   -2116.0006   -26994.463    81.395926 
   83100    695.70326    -107.8661   0.62948693   -107.23662    4289.0802    4.3252816    4.3252816    4.3252816    4289.0802    6969.2529   -3796.2866    9694.2743    2005.9644    -2544.668   -3253.1461    80.917634 
   83200    680.09039    -107.8519   0.61536008   -107.23654     324.7316    4.3345626    4.3345626    4.3345626     324.7316   -1337.6475   -17169.628     19481.47    456.81363   -7042.3778   -2826.1503    81.439641 
   83300    446.98765   -107.64415   0.40444382    -107.2397   -6014.0011    4.3294535    4.3294535    4.3294535   -6014.0011   -4202.6604   -23489.914    9650.5708    4950.9745    679.38381   -23141.658       81.152 
   83400     747.3623    -107.9115   0.67622911   -107.23527    571.83643    4.3278235    4.3278235    4.3278235    571.83643   -12872.741    7630.4341    6957.8164   -2702.3273    6597.3297    8907.5744    81.060376 
   83500    547.50987   -107.73493   0.49539844   -107.23953    -9814.638    4.3324719    4.3324719    4.3324719    -9814.638   -963.59107   -17804.005   -10676.318    2772.3961    3720.2541   -19299.465    81.321851 
   83600    524.51715   -107.71768   0.47459414   -107.24309    539.90766    4.3280545    4.3280545    4.3280545    539.90766    4002.9384   -16132.802    13749.587   -2046.0462   -2476.1082   -20206.056    81.073361 
   83700    790.67461   -107.95417   0.71541901   -107.23875    13288.902    4.3269134    4.3269134    4.3269134    13288.902    11233.945   -4839.5134    33472.274   -420.08416    2119.7426    5549.5555    81.009251 
   83800    342.95479   -107.55501    0.3103127    -107.2447   -9042.1711    4.3365475    4.3365475    4.3365475   -9042.1711     11985.71    -35679.19   -3433.0335    712.05036   -7499.7925   -26795.833    81.551572 
   83900     739.9971   -107.90539   0.66956493   -107.23583    2702.8533    4.3254003    4.3254003    4.3254003    2702.8533     8087.819   -3862.4465    3883.1874    2783.3988    5974.3333    1045.1248    80.924293 
   84000    591.91528   -107.77362   0.53557739   -107.23804   -1982.6404    4.3334934    4.3334934    4.3334934   -1982.6404    7047.9417   -17103.626    4107.7635   -542.07191    10661.312     -5317.79    81.379388 
   84100    485.82385   -107.67989   0.43958363   -107.24031   -7946.5493    4.3341465    4.3341465    4.3341465   -7946.5493   -1028.7423   -31300.991    8490.0854    5590.7633    3152.9146   -22120.741     81.41619 
   84200    911.79985   -108.05716   0.82501567   -107.23215    14653.758    4.3258491    4.3258491    4.3258491    14653.758    599.49152   -1907.2222    45269.005    2912.7307    3252.1268    4698.9296    80.949486 
   84300    534.84114   -107.72344    0.4839355   -107.23951    -18015.15    4.3377818    4.3377818    4.3377818    -18015.15   -10381.146   -32491.028   -11173.277    323.65327   -3986.8676    -25609.37    81.621225 
   84400    586.51448   -107.76827   0.53069063   -107.23758   -4782.7559    4.3252923    4.3252923    4.3252923   -4782.7559   -10945.138   -5230.4057    1827.2761    4688.2486   -7190.9747   -13276.737    80.918234 
   84500    752.12798   -107.91621    0.6805412   -107.23567   -1958.3499    4.3339342    4.3339342    4.3339342   -1958.3499   -10814.225   -4005.7341    8944.9094   -5337.4132    198.41049    4873.7588    81.404224 
   84600    335.37884   -107.54661   0.30345782   -107.24316    1789.2506    4.3307747    4.3307747    4.3307747    1789.2506     14795.46   -21583.018    12155.309   -560.32513    3694.2043   -21814.325    81.226318 
   84700     697.6284   -107.87053   0.63122884    -107.2393    15335.341    4.3252477    4.3252477    4.3252477    15335.341    16875.104    209.33488    28921.584   -3138.9728    2510.1326    5948.4744    80.915727 
   84800    611.34505   -107.79226   0.55315785    -107.2391    2446.6163    4.3356974    4.3356974    4.3356974    2446.6163    21623.726    -13873.14    -410.7365   -5222.2926    4916.2436   -4678.1134    81.503616 
   84900    418.84736    -107.6193   0.37898189   -107.24032   -7183.3475    4.3278091    4.3278091    4.3278091   -7183.3475    5650.9258    -14158.89   -13042.078    940.19381   -1669.8991   -23615.805    81.059568 
   85000     778.0914   -107.93961   0.70403345   -107.23558    369.30409    4.3307269    4.3307269    4.3307269    369.30409   -5639.6621   -2764.1348    9511.7092     1394.031   -10305.205    6523.6556     81.22363 
   85100    640.03919   -107.81725   0.57912091   -107.23813   -6574.0583    4.3340815    4.3340815    4.3340815   -6574.0583    489.11999   -27822.183    7610.8882    748.28583    387.53757   -21541.512    81.412525 
   85200    627.64602   -107.80598   0.56790731   -107.23807    3838.1834    4.3275733    4.3275733    4.3275733    3838.1834    5201.8532   -14498.178    20810.875    5838.6557    618.90675   -8006.4003     81.04632 
   85300    699.20796   -107.86782   0.63265805   -107.23516    1029.2873     4.333648     4.333648     4.333648    1029.2873    6315.2045   -12143.376    8916.0332    1241.7609    4790.2806     5913.801    81.388098 
   85400     396.2289   -107.59787   0.35851624   -107.23936   -3348.7738    4.3305523    4.3305523    4.3305523   -3348.7738    25618.828   -21319.028   -14346.121   -182.75114    5380.1917   -21452.673    81.213807 
   85500    635.32136   -107.81129   0.57485212   -107.23644     3165.093    4.3292445    4.3292445    4.3292445     3165.093    13071.071   -5263.6686    1687.8763    4397.1475    -4731.169    5120.6527    81.140251 
   85600     618.5552    -107.7975   0.55968174   -107.23782   -3190.5499    4.3351366    4.3351366    4.3351366   -3190.5499    5102.4973   -20352.405    5678.2584    -5199.569   -12792.801    -10406.21    81.471998 
   85700    506.49432   -107.69769   0.45828671   -107.23941    6418.9483    4.3274554    4.3274554    4.3274554    6418.9483    8187.0756   -16576.048    27645.818    4463.3986    468.46396   -19292.283    81.039693 
   85800    737.00696    -107.9027   0.66685938   -107.23584   -979.90549    4.3306586    4.3306586    4.3306586   -979.90549   -18030.936   -2355.5939    17446.813   -951.76515   -4183.5011    6488.9349    81.219789 
   85900    471.86966   -107.66581   0.42695759   -107.23886   -10835.271    4.3333224    4.3333224    4.3333224   -10835.271   -1069.0349    -13951.61   -17485.169   -712.33473   -109.42007   -21657.801    81.369753 
   86000    642.12394   -107.81891   0.58100723    -107.2379    1897.5864    4.3244675    4.3244675    4.3244675    1897.5864    5756.0397   -3816.3555    3753.0749     4195.881    3372.2108   -3495.7586    80.871951 
   86100    686.26581   -107.86009   0.62094773   -107.23915   -781.10544    4.3337144    4.3337144    4.3337144   -781.10544   -3090.4907   -12404.821    13151.995      1543.13   -10004.946    2941.6743    81.391841 
   86200    448.56263   -107.64861   0.40586889   -107.24274    6671.2263    4.3291619    4.3291619    4.3291619    6671.2263    7592.0073   -19162.857    31584.529    1046.2302    -5259.408   -20272.123    81.135605 
   86300    634.59067   -107.81224   0.57419098   -107.23804    5623.1806    4.3281346    4.3281346    4.3281346    5623.1806   -7233.2516    -2877.443    26980.236    5142.8212   -2001.4674    87.601424    81.077859 
   86400    596.02283   -107.77763   0.53929398   -107.23834   -12299.186    4.3350608    4.3350608    4.3350608   -12299.186   -14441.816   -8773.5997   -13682.142   -1890.5579   -4888.6329   -10078.939    81.467722 
   86500    528.11477   -107.71546   0.47784935   -107.23761   -2674.0176    4.3286597    4.3286597    4.3286597   -2674.0176   -40.738686   -7836.5835   -144.73061    3404.7926    5202.4937   -14441.268    81.107372 
   86600    790.26254   -107.94996   0.71504615   -107.23492    5487.9356    4.3298489    4.3298489    4.3298489    5487.9356   -8607.1855   -262.07945    25333.072     4842.045    3489.9207    10135.207    81.174237 
   86700    542.05789   -107.73027   0.49046537    -107.2398    2396.5436    4.3311506    4.3311506    4.3311506    2396.5436   -3296.9145   -7016.5531    17503.098   -1510.1617   -8684.9595   -9530.0455    81.247474 
   86800    532.59521   -107.72211   0.48190334   -107.24021    4537.9778     4.327305     4.327305     4.327305    4537.9778   -7497.6534   -2083.2979    23194.885    12253.653   -2759.5603   -3557.6569    81.031247 
   86900    693.80772   -107.86364    0.6277718   -107.23587   -6021.4857    4.3336969    4.3336969    4.3336969   -6021.4857   -11307.204   -5764.4826   -992.77049    2156.2698   -5894.4014    1124.4574    81.390855 
   87000    462.43311   -107.65785    0.4184192   -107.23943   -6648.8598    4.3295879    4.3295879    4.3295879   -6648.8598    10662.925   -15751.692   -14857.813    2680.6011     -6482.41   -20698.172     81.15956 
   87100    729.34518   -107.89712   0.65992685    -107.2372    4605.4058    4.3298084    4.3298084    4.3298084    4605.4058    10762.338    -11132.01    14185.889    3988.7065    8785.1891   -1270.5885    81.171961 
   87200     734.6717   -107.90142   0.66474639   -107.23667   -2192.8141    4.3354001    4.3354001    4.3354001   -2192.8141   -1988.2167    -14221.87    9631.6443   -6088.6128    947.96752    -5288.714    81.486855 
   87300    354.39052    -107.5616   0.32065999   -107.24094    3338.6793    4.3243271    4.3243271    4.3243271    3338.6793   -8575.9824   -4258.0514    22850.072    5277.4135   -5562.4887   -13465.132    80.864073 
   87400    731.55424   -107.89926   0.66192565   -107.23734   -5480.1722    4.3326743    4.3326743    4.3326743   -5480.1722   -19320.092   -7197.2745     10076.85    2725.3613   -1159.7279    7909.0124    81.333252 
   87500    577.61128   -107.76222   0.52263482   -107.23959   -10586.913    4.3327964    4.3327964    4.3327964   -10586.913   -5791.5754   -10203.931   -15765.234    1353.7704    -12302.55   -9932.3583    81.340129 
   87600    522.61144   -107.71493   0.47286982   -107.24207    202.11205    4.3227569    4.3227569    4.3227569    202.11205    8117.5678   -8108.8273     597.5957    13052.413   -4194.9445   -11755.701    80.776015 
   87700    821.53755   -107.98077   0.74334444   -107.23743    3269.9885    4.3369275    4.3369275    4.3369275    3269.9885    8106.3598   -13061.632    14765.237    797.16053    7905.6957    4897.3142    81.573011 
   87800    374.65429   -107.58156   0.33899508   -107.24257    8211.0384    4.3263415    4.3263415    4.3263415    8211.0384    6771.3971   -5574.9033    23436.621    1827.8483    1690.0572   -17802.761    80.977132 
   87900    393.46122   -107.59833   0.35601198   -107.24232    2294.3931    4.3303917    4.3303917    4.3303917    2294.3931   -4864.8473   -15130.932    26878.958    7542.9075   -757.85538    2087.2989    81.204773 
   88000    866.83529   -108.01827   0.78433079   -107.23394   -5097.8601    4.3328151    4.3328151    4.3328151   -5097.8601   -6909.5962   -13875.522    5491.5379   -5011.6736     2538.378    316.04472    81.341179 
   88100    530.68261   -107.72194   0.48017278   -107.24177   -5956.0097     4.323746     4.323746     4.323746   -5956.0097   -1916.3459   -9761.2915   -6190.3917    8206.0282   -8534.9465   -16277.069    80.831479 
   88200    768.82679   -107.93614   0.69565064   -107.24049   -7896.2796    4.3373926    4.3373926    4.3373926   -7896.2796   -12987.174   -15700.376    4998.7111    4937.2576   -3139.8702    2629.9499    81.599259 
   88300    677.74625   -107.85164   0.61323905   -107.23841    10850.013    4.3235056    4.3235056    4.3235056    10850.013    3086.7626    -115.7256    29579.001   -709.74407    2225.3683   -9176.1994    80.817994 
   88400    143.31472   -107.37644   0.12967417   -107.24677    5120.9362    4.3296389    4.3296389    4.3296389    5120.9362    17180.486   -25788.632    23970.955    11706.928    1070.7295   -12623.271    81.162426 
   88500    685.11968   -107.85693   0.61991069   -107.23702   -2079.9013    4.3372612    4.3372612    4.3372612   -2079.9013    1581.1741   -15765.153    7944.2755   -4024.8641    158.93794    5259.1951    81.591844 
   88600    718.67265   -107.88675   0.65027012   -107.23648    9814.8859    4.3173704    4.3173704    4.3173704    9814.8859     23798.24   -1703.7899    7350.2073    5376.8232    1428.0754   -12093.858    80.474436 
   88700    648.28865   -107.82733   0.58658519   -107.24075   -21843.383    4.3400618    4.3400618    4.3400618   -21843.383   -17223.403   -28552.951   -19753.795    4233.1742   -12963.824   -4175.7661    81.749998 
   88800    849.91588   -108.00357   0.76902175   -107.23455    -4406.406    4.3279589    4.3279589    4.3279589    -4406.406   -14137.809    78.895805    839.69548   -4589.4035   -3658.1853    4120.1974    81.067987 
   88900    339.97586   -107.54686    0.3076173   -107.23925    3561.4677    4.3240463    4.3240463    4.3240463    3561.4677    15518.854   -27613.082    22778.631    6985.8815    5198.6078   -11844.808    80.848324 
   89000    535.68818    -107.7229   0.48470192    -107.2382   -6634.4549    4.3405071    4.3405071    4.3405071   -6634.4549   -2771.7616   -28412.348    11280.745    2960.6296   -944.85884    1768.2066    81.775161 
   89100    661.52981   -107.83294   0.59856607   -107.23437    22947.892    4.3198253    4.3198253    4.3198253    22947.892    38281.035    5268.8427    25293.798    2278.5023    12969.177   -6254.9937    80.611786 
   89200    540.81172   -107.73069   0.48933781   -107.24135   -9624.4181    4.3362386    4.3362386    4.3362386   -9624.4181   -985.94442   -25774.283   -2113.0267    16168.924    2189.9566   -11188.399    81.534145 
   89300    726.38241   -107.89156   0.65724607   -107.23431   -2042.8701    4.3303486    4.3303486    4.3303486   -2042.8701   -8023.3625    2942.5068   -1047.7546    3142.2299   -7411.7199   -95.891749    81.202347 
   89400    521.93064   -107.70929   0.47225381   -107.23704   -4377.8502    4.3233455    4.3233455    4.3233455   -4377.8502   -3631.0122   -5489.1633   -4013.3751    2796.4403    931.83615   -8273.2827    80.809018 
   89500    535.87697   -107.72467   0.48487274   -107.23979   -16020.346    4.3389391    4.3389391    4.3389391   -16020.346   -9691.1444   -25970.065   -12399.827    9097.5595   -1899.6805   -2658.7182    81.686572 
   89600    865.37603   -108.01673   0.78301042   -107.23372    15432.301    4.3221818    4.3221818    4.3221818    15432.301    20858.002    12428.769    13010.131   -8381.5861   -3814.3891    4387.0199    80.743782 
   89700    379.80689   -107.58611   0.34365726   -107.24245   -9260.7039    4.3339981    4.3339981    4.3339981   -9260.7039    7593.2884   -31071.257   -4304.1434    8082.2407    12206.138   -9096.6089    81.407826 
   89800    570.22855   -107.75579   0.51595477   -107.23984    1515.3252     4.326444     4.326444     4.326444    1515.3252    215.63234    -17977.22    22307.563    10093.806   -910.62162   -1247.7894    80.982886 
   89900     702.6445   -107.87441   0.63576751   -107.23864    -967.0923    4.3281252    4.3281252    4.3281252    -967.0923   -12594.624   -2168.4913    11861.838   -597.29067    915.36206   -4898.1168    81.077334 
   90000    389.22302   -107.59617   0.35217717   -107.24399     -16888.8    4.3350052    4.3350052    4.3350052     -16888.8   -15813.842   -25097.407   -9755.1509    13933.102     2961.041   -13344.518    81.464588 
   90100    921.87528   -108.06947   0.83413212   -107.23534    12208.814    4.3227798    4.3227798    4.3227798    12208.814    9563.0755    14179.631    12883.734   -1736.5292   -2390.6092    3657.8407    80.777299 
   90200    578.72952   -107.76367   0.52364663   -107.24002   -7626.5126    4.3351968    4.3351968    4.3351968   -7626.5126    3570.5782   -13990.372   -12459.744   -1669.7534    3704.6785   -3414.7621    81.475392 
   90300    240.69591   -107.46222   0.21778672   -107.24443    7074.9986    4.3243465    4.3243465    4.3243465    7074.9986    10902.416   -19607.024    29929.604    11696.517    10160.839   -2911.8936    80.865162 
   90400    843.35495   -107.99884   0.76308528   -107.23575    4038.9529    4.3334396    4.3334396    4.3334396    4038.9529   -7766.7176   -9980.6296    29864.206     -4482.59     3484.702    5522.9196    81.376359 
   90500    433.18512   -107.63584     0.391955   -107.24388   -1101.7949    4.3278207    4.3278207    4.3278207   -1101.7949   -10813.115   -20338.778    27846.508    11230.984    4308.4244   -8779.9213    81.060223 
   90600    609.52293   -107.79374   0.55150916   -107.24223   -4977.1476    4.3266179    4.3266179    4.3266179   -4977.1476   -7035.4996   -9118.5557    1222.6126    10539.594    4803.9106   -7524.1311    80.992652 
   90700    915.19883   -108.06255   0.82809113   -107.23446   -10134.446    4.3369712    4.3369712    4.3369712   -10134.446    -14248.07   -7817.1915   -8338.0775   -3680.4914   -7192.4038   -322.76557    81.575475 
   90800     391.6403   -107.59384   0.35436438   -107.23948    -3110.713    4.3246648    4.3246648    4.3246648    -3110.713   -11409.655   -16132.005     18209.52    15107.134    1961.6228   -8546.1072    80.883021 
   90900    692.79881   -107.86487   0.62685892   -107.23802    1565.7903    4.3318878    4.3318878    4.3318878    1565.7903   -7847.5231   -1931.2557     14476.15   -1942.3789    3642.5119    172.64877    81.288968 
   91000    648.88735   -107.82418   0.58712691   -107.23705    6331.0932    4.3291575    4.3291575    4.3291575    6331.0932   -6635.5368   -8459.7696    34088.586   -1109.0026    204.09917    3212.6587    81.135357 
   91100    340.40444   -107.55122   0.30800509   -107.24322   -2302.2021    4.3260005    4.3260005    4.3260005   -2302.2021    4022.7898   -19152.053    8222.6564    9888.1932    9970.3799   -8964.7685    80.957987 
   91200    720.50193   -107.88868   0.65192529   -107.23676   -3439.1469     4.333064     4.333064     4.333064   -3439.1469    4537.0458   -8088.4488   -6766.0379   -3421.6091   -1774.2596   -1113.3096    81.355198 
   91300    634.55922   -107.81303   0.57416252   -107.23887   -6157.5422    4.3267277    4.3267277    4.3267277   -6157.5422   -9841.2634   -19756.511    11125.148    14107.352   -1481.5923   -4332.8702    80.998822 
   91400    653.65493   -107.83236   0.59144072   -107.24092   -5853.4258    4.3276367    4.3276367    4.3276367   -5853.4258   -4100.1551   -11103.564   -2356.5581    7055.1663   -701.46153   -9477.1153    81.049883 
   91500    750.87161   -107.91621   0.67940441    -107.2368    829.63424     4.332211     4.332211     4.332211    829.63424   -4464.8504    1384.2821     5569.471    -747.5302   -3024.1214     2674.057    81.307164 
   91600    342.65785   -107.55145   0.31004402   -107.24141   -3113.5237    4.3290416    4.3290416    4.3290416   -3113.5237   -6318.4147   -18507.715    15485.558    12382.172    4236.0876   -1737.0164    81.128844 
   91700    509.59116   -107.69978   0.46108879   -107.23869    8806.4472     4.326286     4.326286     4.326286    8806.4472    17513.393   -2385.6714     11291.62   -1919.1867    9674.3815   -5120.1738    80.974016 
   91800    600.23516    -107.7813   0.54310539   -107.23819   -961.32809    4.3338958    4.3338958    4.3338958   -961.32809   -3781.1012   -11354.222    12251.339    917.08953     -1887.88    5805.3394    81.402061 
   91900     577.0323   -107.76096   0.52211095   -107.23885   -8577.3549    4.3282437    4.3282437    4.3282437   -8577.3549    -11673.52   -17285.576    3227.0313    12433.387    2910.8442   -13223.193    81.083992 
   92000    868.09438   -108.01933   0.78547004   -107.23386    2540.3182    4.3259215    4.3259215    4.3259215    2540.3182    12545.979    2747.3552   -7672.3791   -1878.8832   -2978.6738   -5658.2316    80.953553 
   92100    574.84932   -107.75978   0.52013574   -107.23965   -18853.975    4.3346396    4.3346396    4.3346396   -18853.975   -24592.561   -13781.977   -18187.386    6843.8524    -11657.31    787.29552    81.443981 
   92200    423.86112   -107.62568   0.38351845   -107.24217    3336.9391    4.3238552    4.3238552    4.3238552    3336.9391    16214.307   -6078.0128   -125.47711    5849.4814    3157.3931   -14590.286    80.837604 
   92300    759.31128    -107.9238    0.6870408   -107.23676     706.9771    4.3331262    4.3331262    4.3331262     706.9771    154.86119   -3100.4739     5066.544   -7335.5131   -1231.6747    7402.4019    81.358702 
   92400    415.38121   -107.61762   0.37584565   -107.24177    2702.3888    4.3277961    4.3277961    4.3277961    2702.3888   -4289.4734   -7349.5942    19746.234     9731.946    123.63858   -150.49756    81.058836 
   92500     579.4732   -107.76356   0.52431953   -107.23924    6944.6155    4.3278537    4.3278537    4.3278537    6944.6155    15069.754    -5545.223    11309.316     1326.642    5843.5415     -10279.5    81.062074 
   92600    730.21876   -107.89693   0.66071728   -107.23621   -7388.0627     4.332745     4.332745     4.332745   -7388.0627   -8374.2408   -9841.7546   -3948.1928    4938.1569   -523.97642    6135.4067    81.337233 
   92700    364.34507   -107.57045   0.32966707   -107.24079   -3343.3677    4.3254154    4.3254154    4.3254154   -3343.3677    2307.2914    -4601.929   -7735.4655    11975.627    -6969.373   -13831.488     80.92514 
   92800    872.11131   -108.02519   0.78910464   -107.23609   -8891.9171    4.3326533    4.3326533    4.3326533   -8891.9171   -5328.9797   -7199.7695   -14147.002   -1183.9735    1843.8805   -6416.4571    81.332069 
   92900    704.37396   -107.87542   0.63733236   -107.23809    2037.1884     4.327238     4.327238     4.327238    2037.1884   -5167.1079    5510.8111     5767.862    5497.6661   -1079.2062    6401.8177    81.027483 
   93000    430.27945   -107.63165   0.38932589   -107.24232    2469.6049    4.3284304    4.3284304    4.3284304    2469.6049    1653.9289   -7588.6111    13343.497    2974.5222    432.36657   -9892.1206    81.094484 
   93100     604.5182   -107.78416   0.54698077   -107.23718    3977.2196    4.3313003    4.3313003    4.3313003    3977.2196    10983.398   -8337.5699    9285.8302   -5544.5503    6516.6491    7687.2369    81.255898 
   93200    398.80308    -107.5999   0.36084541   -107.23905    8041.8844    4.3248605    4.3248605    4.3248605    8041.8844    11052.129   -4104.1521    17177.676    7368.7993    2582.1129    147.11131    80.894003 
   93300    591.88462   -107.77426   0.53554964   -107.23871    -9923.725    4.3349274    4.3349274    4.3349274    -9923.725   -1707.2977   -16091.796   -11972.081    3418.1862   -3798.2727   -12662.076    81.460202 
   93400    916.63949   -108.06362   0.82939468   -107.23422    1331.3818    4.3249802    4.3249802    4.3249802    1331.3818    3281.5507    2957.8563   -2245.2615   -2159.6395   -3021.5326    9116.7426    80.900719 
   93500    614.27211   -107.79374   0.55580632   -107.23793   -6908.4872    4.3308157    4.3308157    4.3308157   -6908.4872    -10499.79   -4544.1648   -5681.5067    10210.886   -6111.7902   -7089.2884    81.228629 
   93600    547.09832   -107.73338   0.49502606   -107.23836   -5819.2762    4.3301619    4.3301619    4.3301619   -5819.2762   -4634.3379   -9527.6851   -3295.8054   -2040.1372   -3441.6844   -3103.0293    81.191844 
   93700    485.74441   -107.67742   0.43951175   -107.23791    10354.779    4.3253652    4.3253652    4.3253652    10354.779    18106.289    1917.8464    11040.201    2958.0685     7527.081    13844.447    80.922326 
   93800    545.01561   -107.73276   0.49314158   -107.23962   -5136.3135    4.3343553    4.3343553    4.3343553   -5136.3135   -2563.6406   -19066.801     6221.501    8119.5391    833.80819   -11082.177    81.427955 
   93900    629.72671   -107.80838   0.56978996   -107.23859    9019.4727    4.3234468    4.3234468    4.3234468    9019.4727    26806.662    534.85696   -283.10124   -2369.4024    8586.0857    2264.8688    80.814699 
   94000    780.46696   -107.94318   0.70618291     -107.237   -2144.0398     4.329909     4.329909     4.329909   -2144.0398    6313.8692    -6188.654   -6557.3345    8807.1131   -1966.7318    6847.2277     81.17762 
   94100    499.77214   -107.69008   0.45220433   -107.23788   -11516.266    4.3341369    4.3341369    4.3341369   -11516.266   -2910.1218    -9845.652   -21793.024     3664.437   -6020.9226   -13576.614    81.415646 
   94200    522.95741   -107.70994   0.47318286   -107.23676    6273.9487    4.3215045    4.3215045    4.3215045    6273.9487    18388.612    8187.4732   -7754.2391   -463.36232    2436.7555    14601.693    80.705829 
   94300    743.49487    -107.9087   0.67272979   -107.23597   -3385.4306    4.3337186    4.3337186    4.3337186   -3385.4306   -8077.4232   -9361.8817    7283.0131   -630.73559   -1057.9439   -2198.5977    81.392074 
   94400    457.81117   -107.65485   0.41423717   -107.24061     7454.019    4.3281835    4.3281835    4.3281835     7454.019     23045.18   -4880.5457    4197.4223   -162.63173    3514.3433   -4417.4385    81.080605 
   94500    669.41613   -107.84219   0.60570178   -107.23648    7349.4053    4.3260598    4.3260598    4.3260598    7349.4053    22692.716   -1118.9751     474.4753   -5180.3705     8475.251    14909.386    80.961317 
   94600    511.15629    -107.6993   0.46250495    -107.2368   -3312.8522    4.3340409    4.3340409    4.3340409   -3312.8522    22271.328   -15468.756   -16741.128    2242.4924   -645.21482   -14982.366    81.410236 
   94700    472.40704   -107.66605   0.42744382    -107.2386   -4965.2905    4.3255021    4.3255021    4.3255021   -4965.2905    7939.4905    899.34519   -23734.707      125.842   -5716.7792      3453.12    80.930006 
   94800    890.82319    -108.0413   0.80603554   -107.23527   -4725.6589    4.3300585    4.3300585    4.3300585   -4725.6589   -1416.4147   -9916.0044   -2844.5576    416.15164   -576.21523    1287.7544    81.186029 
   94900    704.73507   -107.87485    0.6376591   -107.23719   -8616.0328    4.3328976    4.3328976    4.3328976   -8616.0328   -5507.8546   -15122.502   -5217.7418    5892.4692   -6044.3822   -15026.271    81.345828 
   95000    514.32719   -107.70252   0.46537405   -107.23715     3520.474    4.3254541    4.3254541    4.3254541     3520.474      18289.6   -4084.4896   -3643.6881    -235.9447    1783.0247    12608.097    80.927311 
   95100     506.6982   -107.69391   0.45847118   -107.23544     3609.578     4.331052     4.331052     4.331052     3609.578    27206.022   -16195.754   -181.53415    -3992.054     6984.015   -6578.2676     81.24192 
   95200    408.53136   -107.60856   0.36964776   -107.23891    -1378.598    4.3301837    4.3301837    4.3301837    -1378.598    23329.695   -10898.987   -16566.502    416.46403    586.83129   -2516.9882    81.193072 
   95300    693.90514    -107.8642   0.62785995   -107.23634    7623.1183    4.3255093    4.3255093    4.3255093    7623.1183    15536.944    3759.5591    3572.8515   -3999.1679   -462.62782     11995.96    80.930414 
   95400    828.14982    -107.9852   0.74932736   -107.23587   -8760.3792    4.3322274    4.3322274    4.3322274   -8760.3792   -7307.3671   -12571.526   -6402.2448   -6939.5029    1259.1246   -15275.339    81.308083 
   95500    531.28587   -107.71898   0.48071862   -107.23826    1638.7917    4.3264181    4.3264181    4.3264181    1638.7917    17684.185    4868.8491   -17636.659    7970.9761    -5878.776    5510.4737    80.981431 
   95600    554.60457   -107.73924   0.50181787   -107.23743   -1758.4013    4.3276819    4.3276819    4.3276819   -1758.4013    9486.8986   -11016.884   -3745.2186    -11359.45    47.631977    1451.6826    81.052421 
   95700    459.26179   -107.65514   0.41554972   -107.23959    1585.4507    4.3311947    4.3311947    4.3311947    1585.4507    29765.357   -15589.958   -9419.0472   -1951.7025    3261.3294   -13544.819    81.249951 
   95800    679.29797   -107.85308   0.61464308   -107.23844    9369.2701    4.3239488    4.3239488    4.3239488    9369.2701    18846.275    2371.6096    6889.9255   -2795.7286   -1570.8213    14630.257    80.842854 
   95900    655.62009   -107.83299   0.59321884   -107.23977    -1414.543    4.3313706    4.3313706    4.3313706    -1414.543    250.31514   -11558.088    7064.1435   -10074.719    38.114719   -6777.6384    81.259851 
   96000    619.20778   -107.79737   0.56027221    -107.2371   -1926.7969    4.3296841    4.3296841    4.3296841   -1926.7969    7233.3881   -668.64802   -12345.131     360.0232   -3498.3852   -4071.5886    81.164972 
   96100    592.57051   -107.77212   0.53617025   -107.23595   -532.48309    4.3262147    4.3262147    4.3262147   -532.48309    2107.0667    2046.9238   -5751.4398    4643.6971   -3701.1539    10159.856    80.970014 
   96200    560.30123   -107.74445   0.50697233   -107.23748   -8980.0512    4.3345227    4.3345227    4.3345227   -8980.0512    6568.4406   -19820.407   -13688.187   -6638.7616   -1466.1602   -17257.145    81.437388 
   96300    789.58215   -107.94961   0.71443052   -107.23518    5295.2653    4.3261049    4.3261049    4.3261049    5295.2653    22362.777   -6390.7239   -86.257652    6120.7345     6012.452    4331.4465    80.963846 
   96400    603.58661   -107.78323   0.54613785    -107.2371    7177.9755    4.3285637    4.3285637    4.3285637    7177.9755    14952.213   -9274.3831    15856.096   -7406.2318    2714.8739     1675.154    81.101974 
   96500    427.68812    -107.6251    0.3869812   -107.23812   -1511.4623    4.3331563    4.3331563    4.3331563   -1511.4623    7988.2062    -11446.99   -1075.6032   -14270.647    4667.0119   -8010.1147    81.360395 
   96600    509.83434   -107.69666   0.46130882   -107.23535    11970.464    4.3233155    4.3233155    4.3233155    11970.464    14998.699    13645.259    7267.4343    4065.0928    1354.2948    16174.616    80.807337 
   96700    591.23763    -107.7732   0.53496423   -107.23824   -5912.4241    4.3320483    4.3320483    4.3320483   -5912.4241    -13031.06    2156.7792   -6862.9916   -13199.953    -3431.637   -4988.4444    81.297999 
   96800    704.58748   -107.87585   0.63752556   -107.23832   -5405.6139    4.3293544    4.3293544    4.3293544   -5405.6139   -3228.4431   -3733.6225   -9254.7762   -7.4340374   -3059.5933   -5166.9365     81.14643 
   96900    866.85664   -108.01938    0.7843501   -107.23503   -1164.5718    4.3268079    4.3268079    4.3268079   -1164.5718   -1097.3172   -741.48497   -1654.9133    2579.4101   -3670.9243    9073.8415    81.003325 
   97000    520.10665    -107.7087   0.47060343   -107.23809   -11139.951      4.33311      4.33311      4.33311   -11139.951   -4073.8883   -12309.898   -17036.068   -11191.685   -1149.5141    -14717.63    81.357792 
   97100    468.60442   -107.66154   0.42400312   -107.23753    6397.9051     4.324232     4.324232     4.324232    6397.9051    13410.219    8357.0878   -2573.5911     50.56781    376.88756    4450.0217    80.858738 
   97200     594.0056   -107.77453   0.53746875   -107.23706    5800.9596    4.3316382    4.3316382    4.3316382    5800.9596    4287.4806    12925.373    190.02536   -7097.8698      2311.43    9899.4918    81.274916 
   97300    501.41892   -107.69366   0.45369438   -107.23997    4765.2715    4.3284166    4.3284166    4.3284166    4765.2715   -5756.4545    15711.382     4340.887   -12263.678    175.45987   -9090.0644    81.093709 
   97400    678.00501   -107.85192   0.61347318   -107.23845    5660.4246    4.3247112    4.3247112    4.3247112    5660.4246    14640.734   -478.67647    2819.2167    913.48038    5422.7402    10967.834    80.885625 
   97500    630.06636   -107.80793   0.57009728   -107.23783   -8853.2856    4.3337715    4.3337715    4.3337715   -8853.2856   -8307.8496   -204.39351   -18047.614   -3616.2219   -4357.6613    203.29369    81.395058 
   97600    447.06459   -107.64344   0.40451344   -107.23892   -6388.9258    4.3266946    4.3266946    4.3266946   -6388.9258    5952.4625   -6655.4757   -18463.764   -4190.2342   -520.24003   -13433.973    80.996959 
   97700     714.0327   -107.88318   0.64607179   -107.23711    4427.1898    4.3256037    4.3256037    4.3256037    4427.1898     4431.649    14981.509    -6131.589    6941.1888    -424.8273    14070.662     80.93571 
   97800    655.96871   -107.83219   0.59353428   -107.23865   -5846.8028    4.3340766    4.3340766    4.3340766   -5846.8028   -21788.096     7694.307   -3446.6194   -11536.711   -6888.6059   -2579.2843     81.41225 
   97900    574.60398   -107.75916   0.51991376   -107.23925     1621.946    4.3230595    4.3230595    4.3230595     1621.946    128.43209   -5951.6398    10689.046   -6184.8049    2229.5893   -5397.9092    80.792985 
   98000     668.5043   -107.84256   0.60487674   -107.23768   -2337.9746    4.3302131    4.3302131    4.3302131   -2337.9746    1054.3381   -1508.9727   -6559.2892    540.69976    966.07662    9557.5067    81.194725 
   98100     485.4492   -107.67874   0.43924464   -107.23949   -13164.223    4.3320474    4.3320474    4.3320474   -13164.223   -7392.6424   -15325.737    -16774.29   -12301.128   -389.16077    -13246.64    81.297948 
   98200     546.5658   -107.73298   0.49454423   -107.23844    6179.0434    4.3210123    4.3210123    4.3210123    6179.0434    21347.762    4436.1214    -7246.753     3976.395     536.0929    -4732.047    80.678255 
   98300    726.60814    -107.8942   0.65745031   -107.23675   -7029.6441    4.3359109    4.3359109    4.3359109   -7029.6441   -12177.315    3608.2373   -12519.855    1941.5719   -2387.7749    10533.843     81.51566 
   98400    514.82948   -107.70586   0.46582853   -107.24003    3409.8181    4.3228173    4.3228173    4.3228173    3409.8181    5609.0154     4401.238    219.20109   -5721.0479   -8093.3332   -9789.7312    80.779401 
   98500    574.30558   -107.76037   0.51964375   -107.24072    1959.4492    4.3264144    4.3264144    4.3264144    1959.4492     10975.01    -9180.438     4083.775    1078.4416    -1897.357    2498.6232    80.981226 
   98600    608.80131   -107.78898   0.55085622   -107.23812   -9785.3032    4.3353398    4.3353398    4.3353398   -9785.3032   -15450.333   -13354.219   -551.35772   -3123.0039   -3890.9092    4251.0026    81.483455 
   98700    542.21494    -107.7279   0.49060747   -107.23729    3901.7774    4.3207405    4.3207405    4.3207405    3901.7774     2304.495    530.44205     8870.395   -7429.4277   -835.99927   -19868.964    80.663033 
   98800    734.89753   -107.90135   0.66495073    -107.2364   -8991.2123    4.3346765    4.3346765    4.3346765   -8991.2123   -15720.347   -742.10274   -10511.187    5394.4274    4668.1088    3326.6529    81.446057 
   98900    657.86584   -107.83292   0.59525084   -107.23767    1107.9119    4.3251965    4.3251965    4.3251965    1107.9119   -12958.388    14221.604    2060.5199    2513.5163    1627.9909    -349.7357    80.912856 
   99000    537.45209   -107.72653   0.48629794   -107.24023    2750.8648    4.3276183    4.3276183    4.3276183    2750.8648    17270.866   -7535.3604    -1482.911   -705.23225   -2258.2552   -10585.735    81.048851 
   99100    690.75983   -107.86162   0.62501401    -107.2366   -5800.0932    4.3343561    4.3343561    4.3343561   -5800.0932   -4307.1916   -9887.3726   -3205.7155    8561.3732    -2320.528    9812.9425    81.427998 
   99200    517.62114    -107.7049   0.46835449   -107.23654    12324.811    4.3201823    4.3201823    4.3201823    12324.811    11800.641    4219.3868    20954.403   -2293.3159   -5395.7369   -11153.364    80.631777 
   99300    557.27945   -107.74275   0.50423815   -107.23851    -2198.582      4.33481      4.33481      4.33481    -2198.582   -899.62333    5357.5694   -11053.692   -4968.7233   -3079.1107    -17732.07    81.453584 
   99400    578.76081   -107.76101   0.52367494   -107.23733    11419.703    4.3248716    4.3248716    4.3248716    11419.703   -5404.2006    24277.833    15385.476    4283.2744   -2166.2561    4934.9724    80.894624 
   99500    534.03247    -107.7249    0.4832038    -107.2417    72.257226    4.3248261    4.3248261    4.3248261    72.257226    10601.137    6216.7518   -16601.117   -5394.0672    -1977.894   -15713.012    80.892072 
   99600    716.82848   -107.88649   0.64860147   -107.23789   -9199.9024     4.335466     4.335466     4.335466   -9199.9024   -194.28611   -12468.799   -14936.622    3870.4517    3025.6166   -7180.5378    81.490571 
   99700    742.19342   -107.90831   0.67155221   -107.23676    145.70052    4.3220118    4.3220118    4.3220118    145.70052   -10674.269    3068.7174    8042.6535    10023.145   -1899.3899    9255.2647    80.734256 
   99800    419.11264   -107.62183   0.37922192   -107.24261   -3280.8723    4.3316266    4.3316266    4.3316266   -3280.8723   -350.31145    7651.8977   -17144.203   -1434.2553    112.52612   -24177.656    81.274265 
   99900    709.77542   -107.87905   0.64221972   -107.23683   -386.87316    4.3311015    4.3311015    4.3311015   -386.87316   -13387.561    10682.544    1544.3968    3614.6841    969.94582   -2715.5899    81.244711 
  100000    516.62811   -107.70571   0.46745597   -107.23825    3920.3439    4.3225277    4.3225277    4.3225277    3920.3439     1767.241    3902.6099    6091.1808     3563.163   -4573.5966   -7108.6312    80.763167 
Loop time of 21.819 on 1 procs for 100000 steps with 8 atoms

Pair  time (%) = 6.94382 (31.8247)
Kspce time (%) = 5.23581 (23.9966)
Neigh time (%) = 0 (0)
Comm  time (%) = 1.03694 (4.75246)
Outpt time (%) = 0.0239391 (0.109717)
Other time (%) = 8.57846 (39.3165)

Nlocal:    8 ave 8 max 8 min
Histogram: 1 0 0 0 0 0 0 0 0 0
Nghost:    2189 ave 2189 max 2189 min
Histogram: 1 0 0 0 0 0 0 0 0 0
Neighs:    2344 ave 2344 max 2344 min
Histogram: 1 0 0 0 0 0 0 0 0 0

Total # of neighbors = 2344
Ave neighs/atom = 293
Neighbor list builds = 0
Dangerous builds = 0
unfix 20
unfix 21
print "seeds:6716648"
seeds:6716648
