LAMMPS (10 Feb 2015)
# ---- initialize simulations
clear
units metal
dimension 3
boundary p p p
atom_style charge
atom_modify map array
# ---- create atoms
read_data /Users/eugeneragasa/pyflamestk_git/pypospack/tests/tests_integration/workflow/WorkflowLammpsThermalExpansion/param_785/MgO_NaCl_unit.npt.T200/lammps.structure
  triclinic box = (0 0 0) to (4.2565 4.2565 4.2565) with tilt (0 0 0)
  1 by 1 by 1 MPI processor grid
  reading atoms ...
  8 atoms
# ---- define interatomic potential
include potential.mod
mass 1 24.305
mass 2 15.999

group Mg type 1
4 atoms in group Mg
group O type 2
4 atoms in group O

set group Mg charge 1.62294375895
  4 settings made for charge
set group O charge -1.62294375895
  4 settings made for charge

variable R_cut equal 10.0

pair_style buck/coul/long ${R_cut}
pair_style buck/coul/long 10
pair_coeff 1 1 0.0 0.5 0.0 ${R_cut}
pair_coeff 1 1 0.0 0.5 0.0 10
pair_coeff 1 2 1315.47688947 0.28024601768 0.0 ${R_cut}
pair_coeff 1 2 1315.47688947 0.28024601768 0.0 10
pair_coeff 2 2 7992.27283476 0.124296175577 7.5002562575 ${R_cut}
pair_coeff 2 2 7992.27283476 0.124296175577 7.5002562575 10

kspace_style pppm 1.0e-5

neighbor 1.0 bin
neigh_modify every 1 delay 0 check yes
# ---- define settings
compute eng all pe/atom
compute eatoms all reduce sum c_eng
# ---- run minimization
reset_timestep 0
fix 1 all box/relax iso 0.0 vmax 0.001
thermo 10
thermo_style custom step pe lx ly lz xy xz yz press pxx pyy pzz pxy pxz pyz c_eatoms
min_style cg
minimize 1e-25 1e-25 5000 10000
PPPM initialization ...
  G vector (1/distance) = 0.352546
  grid = 8 8 8
  stencil order = 5
  estimated absolute RMS force accuracy = 3.83063e-05
  estimated relative force accuracy = 2.66022e-06
  using double precision FFTs
  3d grid and FFT values/proc = 3375 512
Neighbor list info ...
  1 neighbor list requests
  update every 1 steps, delay 0 steps, check yes
  master list distance cutoff = 11
Memory usage per processor = 4.06549 Mbytes
Step PotEng Lx Ly Lz Xy Xz Yz Press Pxx Pyy Pzz Pxy Pxz Pyz eatoms 
       0   -108.88461       4.2565       4.2565       4.2565            0            0            0   -30879.056   -30879.056   -30879.056   -30879.056 -2.5133272e-10 -7.2643252e-11 5.7873381e-11   -108.88461 
      10   -108.89911    4.2290577    4.2290577    4.2290577            0            0            0   0.26053131   0.26053131   0.26053131   0.26053131 3.8284322e-11 -1.3873734e-12 -2.9889769e-10   -108.89911 
      12   -108.89911    4.2290577    4.2290577    4.2290577            0            0            0   0.25210742   0.25210742   0.25210742   0.25210742 1.3658055e-10 -3.2077679e-12 -1.3269119e-10   -108.89911 
Loop time of 0.00872993 on 1 procs for 12 steps with 8 atoms

Minimization stats:
  Stopping criterion = linesearch alpha is zero
  Energy initial, next-to-last, final = 
        -108.884606122     -108.899110632     -108.899110632
  Force two-norm initial, final = 4.45895 5.1421e-05
  Force max component initial, final = 4.45895 3.59365e-05
  Final line search alpha, max atom move = 0.5 1.79683e-05
  Iterations, force evaluations = 12 23

Pair  time (%) = 0.00251102 (28.7634)
Kspce time (%) = 0.0014348 (16.4354)
Neigh time (%) = 0 (0)
Comm  time (%) = 0.0002563 (2.93588)
Outpt time (%) = 1.78814e-05 (0.204828)
Other time (%) = 0.00450993 (51.6605)

Nlocal:    8 ave 8 max 8 min
Histogram: 1 0 0 0 0 0 0 0 0 0
Nghost:    2189 ave 2189 max 2189 min
Histogram: 1 0 0 0 0 0 0 0 0 0
Neighs:    2344 ave 2344 max 2344 min
Histogram: 1 0 0 0 0 0 0 0 0 0

Total # of neighbors = 2344
Ave neighs/atom = 293
Neighbor list builds = 0
Dangerous builds = 0
unfix 1
# ---- define output variables ----
variable natoms equal "count(all)"
variable tot_energy equal "c_eatoms"
variable length_x equal "lx"
variable length_y equal "ly"
variable length_z equal "lz"
variable tilt_xy equal "xy"
variable tilt_xz equal "xz"
variable tilt_yz equal "yz"
variable tot_press equal "press"
variable press_xx equal "pxx"
variable press_yy equal "pyy"
variable press_zz equal "pzz"
variable press_xy equal "pxy"
variable press_xz equal "pxz"
variable press_yz equal "pyz"

# ---- output ----
print "pypospack:output_section:begin"
pypospack:output_section:begin
print "tot_energy = ${tot_energy}"
tot_energy = -108.899110631848
print "num_atoms = ${natoms}"
num_atoms = 8
print "xx = ${length_x}"
xx = 4.22905766787052
print "yy = ${length_y}"
yy = 4.22905766787052
print "zz = ${length_z}"
zz = 4.22905766787052
print "xy = ${tilt_xy}"
xy = 0
print "xz = ${tilt_xz}"
xz = 0
print "yz = ${tilt_yz}"
yz = 0
print "tot_press = ${tot_press}"
tot_press = 0.252107417895481
print "pxx = ${press_xx}"
pxx = 0.252107418292273
print "pyy = ${press_yy}"
pyy = 0.252107418323333
print "pzz = ${press_zz}"
pzz = 0.252107417070837
print "pxy = ${press_xy}"
pxy = 1.36580554666579e-10
print "pxz = ${press_xz}"
pxz = -3.20776791999541e-12
print "pyz = ${press_yz}"
pyz = -1.32691186845421e-10
print "pypospack:output_section:done"
pypospack:output_section:done
print "pypospack:lammps_sim:done"
pypospack:lammps_sim:done
#------------------------------------------------------------------------------
# RUN THERMOSTAT
# running using an NPT Nose-Hoover style thermostat
#------------------------------------------------------------------------------
variable tempdamp equal 0.1
variable pressdamp equal 1.0
# set initial velocities
velocity all create 200 2730628 mom yes dist gaussian loop all
# fix for Nose-Hoover style thermostat
fix 20 all npt temp 200 200 0.1 aniso 0.0 0.0 1.0 drag 1.0 couple xyz
variable boxx equal lx
variable boxy equal ly
variable boxz equal lz
variable boxp equal press
variable boxt equal temp
# calculate averages every 10000 steps
reset_timestep 0
fix 21 all ave/time 10 10 100 v_boxx v_boxy v_boxz v_boxp v_boxt file lattice.out
thermo_style custom step temp pe ke etotal press lx ly lz press pxx pyy pzz pxy pxz pyz vol
thermo_modify flush yes
thermo 100
run 100000
PPPM initialization ...
  G vector (1/distance) = 0.352817
  grid = 8 8 8
  stencil order = 5
  estimated absolute RMS force accuracy = 3.78369e-05
  estimated relative force accuracy = 2.62763e-06
  using double precision FFTs
  3d grid and FFT values/proc = 3375 512
Memory usage per processor = 3.06549 Mbytes
Step Temp PotEng KinEng TotEng Press Lx Ly Lz Press Pxx Pyy Pzz Pxy Pxz Pyz Volume 
       0          200   -108.89911    0.1809642   -108.71814    2556.0817    4.2290577    4.2290577    4.2290577    2556.0817    2655.3489    3227.2426    1785.6536    148.48104   -351.92351    519.61151    75.636395 
     100    86.818694   -108.77063  0.078555379   -108.69207   -697.56054    4.2367575    4.2367575    4.2367575   -697.56054    2082.3814   -918.61921   -3256.4438    115.75561    283.40623   -1178.4843    76.050281 
     200    144.07372   -108.77397   0.13036093   -108.64361   -4634.1819    4.2387664    4.2387664    4.2387664   -4634.1819    874.63786   -8876.6895   -5900.4939   -932.84294    1198.1531   -453.84196    76.158512 
     300    151.43456   -108.73779   0.13702117   -108.60077    9341.9619    4.2332041    4.2332041    4.2332041    9341.9619    15882.458    8522.4306    3620.9973    446.64121    1594.4681    30.328631    75.859089 
     400    146.67336   -108.70192   0.13271313   -108.56921    320.00423     4.237931     4.237931     4.237931    320.00423    3808.7228   -2842.2105   -6.4996605   -328.40925    2016.1677   -1576.4874    76.113489 
     500    174.72514   -108.70471   0.15809498   -108.54662    -11565.36    4.2430483    4.2430483    4.2430483    -11565.36   -8963.3136   -12911.658   -12821.108    -1492.084   -141.31625   -2545.2794    76.389548 
     600    181.79519   -108.70105   0.16449211   -108.53656     5352.686    4.2368117    4.2368117    4.2368117     5352.686    5923.5533    11097.353   -962.84793    691.50723   -478.73482   -890.33104    76.053198 
     700     272.2517   -108.78006   0.24633906   -108.53372   -1199.2701     4.236742     4.236742     4.236742   -1199.2701    5322.6141    -3925.726   -4994.6985   -1303.1808   -531.24456    549.78174    76.049446 
     800    74.604128   -108.60323  0.067503383   -108.53572   -3995.0701    4.2441035    4.2441035    4.2441035   -3995.0701    4227.6042   -2443.5695   -13769.245    93.155122    3221.6838   -3555.1644    76.446552 
     900    265.98697   -108.77657    0.2406706   -108.53589   -222.28783    4.2383696    4.2383696    4.2383696   -222.28783    1503.5653   -2109.0674   -61.361421    147.27937    2176.9556     1198.247    76.137124 
    1000    232.58667   -108.74603   0.21044931   -108.53558    8407.2806    4.2340531    4.2340531    4.2340531    8407.2806     9773.213    8229.5174    7219.1116    758.87523    1385.7803   -552.89521    75.904739 
    1100    188.25215   -108.70689    0.1703345   -108.53656   -9074.7573    4.2459299    4.2459299    4.2459299   -9074.7573   -15391.335   -5912.4128   -5920.5237   -1121.6425    1562.1283   -3981.4333     76.54529 
    1200     246.1465   -108.75966   0.22271853   -108.53694   -223.43678    4.2391723    4.2391723    4.2391723   -223.43678    2480.5163   -938.58606   -2212.2406   -859.16286   -2591.8197   -463.82833     76.18039 
    1300    220.86961   -108.73545   0.19984746    -108.5356    10008.945    4.2320847    4.2320847    4.2320847    10008.945    15353.062    11336.025    3337.7468    758.68177   -1646.9003   -1249.9318    75.798924 
    1400    169.38996   -108.68956   0.15326759   -108.53629   -11298.092    4.2468936    4.2468936    4.2468936   -11298.092    -1259.151   -15084.099   -17551.025   -1646.0228    697.50933   -1059.8038    76.597423 
    1500    147.02724   -108.67024   0.13303334    -108.5372     1386.422    4.2396529    4.2396529    4.2396529     1386.422    3145.2561    1506.8664   -492.85658   -429.86455    3690.2414   -968.09691    76.206304 
    1600    253.22321   -108.76423   0.22912168   -108.53511    8716.1211    4.2309502    4.2309502    4.2309502    8716.1211    6734.3976    7233.1737    12180.792    402.91002    274.85604    1900.5916    75.737986 
    1700    145.51506   -108.66877   0.13166508   -108.53711   -10214.992    4.2477511    4.2477511    4.2477511   -10214.992   -8186.9447   -11624.056   -10833.974    297.73767   -286.42945   -2686.4177    76.643825 
    1800    164.11844   -108.68618   0.14849782   -108.53768   -1883.7695    4.2400395    4.2400395    4.2400395   -1883.7695   -815.75776   -6237.3637     1401.813   -3342.2376   -779.20442   -1449.3635    76.227153 
    1900    220.99193   -108.73431   0.19995814   -108.53435    14300.004    4.2303295    4.2303295    4.2303295    14300.004    23706.221    11902.006    7291.7857   -950.28251   -2758.0557     430.9873    75.704658 
    2000     215.7377   -108.73085     0.195204   -108.53564   -9639.1562    4.2476661    4.2476661    4.2476661   -9639.1562   -5479.9097   -9802.7915   -13634.768   -184.66039     317.4707   -2547.4427    76.639224 
    2100    197.52187   -108.71607   0.17872194   -108.53735   -4311.1584    4.2404276    4.2404276    4.2404276   -4311.1584   -2285.4606   -8373.2114    -2274.803   -3100.1316    891.11721    299.41051     76.24809 
    2200    284.37175   -108.79217   0.25730553   -108.53486    8972.5822    4.2311619    4.2311619    4.2311619    8972.5822    8562.7161    11716.216    6638.8151     585.8946    2059.1447   -1212.3547    75.749353 
    2300    215.54007   -108.73182   0.19502519    -108.5368    -7324.564    4.2460377    4.2460377    4.2460377    -7324.564   -5058.5787   -11502.885   -5412.2284    -1168.396   -1828.6526    -1199.983     76.55112 
    2400     127.2346   -108.65296   0.11512454   -108.53784   -1587.1028     4.241204     4.241204     4.241204   -1587.1028    7625.7887   -6459.2173   -5927.8798     -1222.71   -1283.8906    -2195.061    76.289976 
    2500    175.21228   -108.69357   0.15853575   -108.53503    12422.804    4.2318871    4.2318871    4.2318871    12422.804    21537.486    10921.235     4809.691   -655.19946   -502.48941    265.12402    75.788311 
    2600    243.37192   -108.75604   0.22020802   -108.53583   -9266.2128    4.2442745    4.2442745    4.2442745   -9266.2128   -3481.3966   -12759.607   -11557.635   -1152.0833    -252.8622    -266.0726    76.455793 
    2700    155.55266   -108.67833   0.14074732   -108.53758   -7786.6537    4.2433066    4.2433066    4.2433066   -7786.6537    504.45141   -9069.9471   -14794.465   -509.91645    1959.4659   -3953.0866    76.403498 
    2800    219.81487   -108.73431   0.19889311   -108.53541    7552.3874    4.2326002    4.2326002    4.2326002    7552.3874    6929.7871    9281.5895    6445.7855     -984.938    131.29967    1704.4926     75.82663 
    2900    213.98408   -108.72984   0.19361729   -108.53622   -1778.0169    4.2418888    4.2418888    4.2418888   -1778.0169    11473.437   -8069.4429   -8738.0451    1476.2895   -284.76943   -2072.1521    76.326938 
    3000     119.4846   -108.64539   0.10811218   -108.53728   -3567.9322     4.244297     4.244297     4.244297   -3567.9322    5552.9467   -9245.7298   -7011.0133   -2130.9703   -3561.4245    -3637.314    76.457011 
    3100    237.26407   -108.75063   0.21468152   -108.53595    4655.4455    4.2334743    4.2334743    4.2334743    4655.4455    5660.8454    3028.4709    5277.0203   -979.50859    405.09778   -616.51464    75.873614 
    3200    236.35292    -108.7502   0.21385709   -108.53635    22.180586    4.2404223    4.2404223    4.2404223    22.180586    1177.4937    2125.9353   -3236.8872   -762.51198     645.2154   -1583.0864      76.2478 
    3300    254.32837   -108.76642   0.23012165    -108.5363   -11576.262    4.2457972    4.2457972    4.2457972   -11576.262   -12033.225    -11513.56   -11182.001   -389.22177    3100.0187   -504.70546    76.538113 
    3400    156.51657   -108.67813   0.14161948   -108.53652    7252.4561    4.2341661    4.2341661    4.2341661    7252.4561    14570.292     6305.331    881.74528   -1221.2128    2120.3092   -335.47671     75.91082 
    3500    221.51608   -108.73652   0.20043241   -108.53609    850.97938    4.2386875    4.2386875    4.2386875    850.97938    6368.2223   -4464.1222    648.83795   -701.37162   -3261.6304    230.16017    76.154258 
    3600    173.02067   -108.69247   0.15655274   -108.53592   -7310.2445    4.2462449    4.2462449    4.2462449   -7310.2445    471.61319   -12162.711   -10239.636   -1891.7534    -1442.555   -2528.4932    76.562325 
    3700    140.84603   -108.66399   0.12744045   -108.53655    6647.4537    4.2352664    4.2352664    4.2352664    6647.4537   -1069.0569     8069.164    12942.254   -3796.7217   -288.19766   -2042.4642    75.970014 
    3800    239.77213   -108.75269   0.21695087   -108.53574    1370.0443    4.2376262    4.2376262    4.2376262    1370.0443    2096.5415    102.33045     1911.261    2083.5311    1713.1966   -822.76462    76.097072 
    3900    178.09544   -108.69681   0.16114449   -108.53567   -6146.7757    4.2461892    4.2461892    4.2461892   -6146.7757   -4908.1886   -4448.3136   -9083.8249    37.328311    791.47168   -2596.1073    76.559313 
    4000    180.35566   -108.69938   0.16318959   -108.53619    3440.6356    4.2365296    4.2365296    4.2365296    3440.6356    8673.7927   -4844.6408    6492.7551     807.0937    2654.3023    1444.4103    76.038008 
    4100    206.20262   -108.72214   0.18657646   -108.53556    7270.5723     4.236058     4.236058     4.236058    7270.5723    15041.293    5391.4792    1378.9451     300.5758   -525.62621    1218.9476    76.012619 
    4200    252.44245   -108.76359   0.22841524   -108.53518   -6561.5166    4.2462226    4.2462226    4.2462226   -6561.5166   -7193.9524   -9833.3856   -2657.2118   -1362.7783   -1737.1851   -1528.2881     76.56112 
    4300    206.12442   -108.72291   0.18650571    -108.5364    1045.6416    4.2382785    4.2382785    4.2382785    1045.6416    2522.6395   -2390.6701    3004.9554    -1881.038    329.53773   -595.41493    76.132218 
    4400    233.09163   -108.74667   0.21090621   -108.53576    4318.0381    4.2351787    4.2351787    4.2351787    4318.0381   -588.11539    7428.6091    6113.6205   -1561.7945    2516.1207   -977.92457    75.965293 
    4500     191.2942   -108.70867   0.17308702   -108.53558   -2976.4284    4.2449084    4.2449084    4.2449084   -2976.4284    5940.6211   -7672.3038   -7197.6026     3523.984    2065.4603   -2649.5523    76.490053 
    4600    163.07335   -108.68437    0.1475522   -108.53682    553.01802    4.2396645    4.2396645    4.2396645    553.01802    7492.8138   -2560.2364   -3273.5234    409.34484   -699.25183   -2027.5254     76.20693 
    4700     161.5172   -108.68252   0.14614416   -108.53638    6226.7906    4.2341722    4.2341722    4.2341722    6226.7906    10792.255    2694.1965    5193.9197   -146.88812    1491.5268   -249.36138    75.911148 
    4800    237.00479   -108.75042   0.21444691   -108.53598   -10122.084    4.2449924    4.2449924    4.2449924   -10122.084     -4641.95   -12804.097   -12920.205   -653.11138    -1565.396    -572.4578    76.494597 
    4900    209.17474   -108.72549    0.1892657   -108.53623   -7184.5515    4.2416722    4.2416722    4.2416722   -7184.5515   -5993.4337   -11993.084   -3567.1365   -1951.0054    1364.1953   -2733.7674    76.315247 
    5000    143.13993   -108.66571   0.12951601   -108.53619    8383.1667    4.2337632    4.2337632    4.2337632    8383.1667    13554.381    5526.5815    6068.5377   -576.19793    3597.1178    557.68699    75.889151 
    5100    216.51286   -108.73325   0.19590538   -108.53735   -4075.9866    4.2429137    4.2429137    4.2429137   -4075.9866    4750.1978   -7793.5987   -9184.5589    957.85569     1300.329   -929.60151    76.382277 
    5200    175.20758   -108.69662    0.1585315   -108.53809   -2507.5719    4.2425515    4.2425515    4.2425515   -2507.5719    5712.2248   -7122.9997   -6111.9408    1593.2901   -1539.3918   -3112.1764    76.362716 
    5300    238.60427   -108.75257   0.21589416   -108.53667    3284.4143    4.2347951    4.2347951    4.2347951    3284.4143    5346.8415    1465.1332    3041.2682   -1829.0408    408.85977    1087.3695    75.944652 
    5400    219.40456    -108.7355   0.19852186   -108.53698   -2163.7697    4.2409214    4.2409214    4.2409214   -2163.7697   -1380.5404   -5515.9718    405.20317     32.11222    713.68724   -3555.6514    76.274729 
    5500    264.45551   -108.77517    0.2392849   -108.53588   -7577.7805    4.2450206    4.2450206    4.2450206   -7577.7805   -1568.1831   -11839.718   -9325.4406    -976.1087    104.45696   -805.18377    76.496122 
    5600    140.79215   -108.66313   0.12739169   -108.53574    9875.9719    4.2343468    4.2343468    4.2343468    9875.9719    16273.602    3711.8072    9642.5066    762.79896    2866.7189   -847.15063     75.92054 
    5700    160.30685    -108.6815     0.145049   -108.53645    730.40458    4.2388756    4.2388756    4.2388756    730.40458    8368.1231   -2906.6384   -3270.2709    2604.1065    953.63474   -2022.6824      76.1644 
    5800    238.93765    -108.7516   0.21619581   -108.53541   -8877.6331    4.2471447    4.2471447    4.2471447   -8877.6331   -4313.5846   -9353.2133   -12966.101    697.72619    1588.6347    558.01672    76.611009 
    5900    152.80547   -108.67363    0.1382616   -108.53537    8305.0409    4.2342277    4.2342277    4.2342277    8305.0409    3903.5084     7690.044     13321.57   -1033.5922   -949.95565   -1435.4959    75.914133 
    6000    238.15753   -108.75198   0.21548994   -108.53649   -4898.2742    4.2383001    4.2383001    4.2383001   -4898.2742   -2125.2279    -4947.922   -7621.6726   -4258.4977    1748.4171     2183.642    76.133381 
    6100    182.67194   -108.70149   0.16528541    -108.5362   -6270.0818    4.2482294    4.2482294    4.2482294   -6270.0818   -231.01366   -12101.544   -6477.6874     32.66797    366.18435   -2300.6531    76.669719 
    6200    200.24878   -108.71664    0.1811893   -108.53545    6264.0865    4.2340713    4.2340713    4.2340713    6264.0865    15805.406   -789.79161    3776.6451   -407.70074    1810.4451    514.98689    75.905722 
    6300    180.83032   -108.70014   0.16361908   -108.53652    1376.1165    4.2380699    4.2380699    4.2380699    1376.1165    1532.0727    1285.2193    1311.0576    1869.6896    3057.4096   -686.50475    76.120978 
    6400    224.56267   -108.73879   0.20318902    -108.5356   -7572.5356    4.2483551    4.2483551    4.2483551   -7572.5356   -10740.667   -3796.0085   -8180.9318    1816.1003   -1675.7539   -4254.3301    76.676528 
    6500    257.22247   -108.76784    0.2327403    -108.5351    2613.4891    4.2348576    4.2348576    4.2348576    2613.4891    101.37197    6312.5123    1426.5831   -2981.8497    1608.4158    1890.4239    75.948014 
    6600    136.86207   -108.66022   0.12383568   -108.53638    4805.6122    4.2374266    4.2374266    4.2374266    4805.6122    5754.3697    3453.3822    5209.0847   -3402.6983    1913.9841   -777.10694    76.086317 
    6700    227.82541   -108.74193   0.20614122   -108.53579   -8306.0576    4.2469817    4.2469817    4.2469817   -8306.0576    3258.4004   -13958.112   -14218.461   -1354.9338    988.49437    1142.8838    76.602188 
    6800    186.51101    -108.7055   0.16875908   -108.53674    6617.2451    4.2359226    4.2359226    4.2359226    6617.2451     9899.075    86.207665    9866.4526    791.87941   -2885.7021   -1407.7554    76.005327 
    6900     193.2672   -108.71165   0.17487222   -108.53678    1890.8899    4.2375571    4.2375571    4.2375571    1890.8899    6545.3728    1795.0879    -2667.791    271.07792    3022.3334    272.90564    76.093347 
    7000    203.82518   -108.72084   0.18442531   -108.53641    -8402.743    4.2454973    4.2454973    4.2454973    -8402.743   -10672.993   -9220.5805   -5314.6556     1116.307    335.59704   -1949.7704    76.521893 
    7100    204.18347   -108.72125    0.1847495    -108.5365    3941.9818    4.2378732    4.2378732    4.2378732    3941.9818    9905.0958    1305.7067    615.14286   -1526.9662   -1806.5635   -3954.9079    76.110377 
    7200    171.85131   -108.69151   0.15549468   -108.53601    6255.9635    4.2367971    4.2367971    4.2367971    6255.9635    11445.058    3111.0339    4211.7989   -3370.5748     1612.671     1255.298    76.052413 
    7300     146.6088   -108.66889   0.13265472   -108.53624   -3377.5182     4.243828     4.243828     4.243828   -3377.5182    4148.3288   -10694.126   -3586.7579   -628.51823   -810.16662   -4089.2672    76.431667 
    7400    280.12931   -108.78997   0.25346689    -108.5365   -3528.8718    4.2409191    4.2409191    4.2409191   -3528.8718    4122.4458     -6688.61   -8020.4513    1597.9354     1722.876     2021.524    76.274605 
    7500    223.19493    -108.7375   0.20195146   -108.53555    3437.5669    4.2356853    4.2356853    4.2356853    3437.5669   -1026.3705    895.51672    10443.555    200.54938   -1021.6116    384.15124    75.992556 
    7600    199.88557   -108.71727   0.18086066   -108.53641   -7909.9522     4.243504     4.243504     4.243504   -7909.9522   -4404.7026   -7309.9023   -12015.252   -1799.0491    2580.5923   -2692.5858    76.414159 
    7700    213.30898   -108.72987   0.19300645   -108.53686   -466.52871    4.2420274    4.2420274    4.2420274   -466.52871    4136.9626   -3859.1637    -1677.385   -2083.4658   -1546.5909    318.84772    76.334418 
    7800    137.18149   -108.66055    0.1241247   -108.53643    10607.477    4.2347807    4.2347807    4.2347807    10607.477    22009.298    6957.5645    2855.5681   -2838.5708   -245.93572   -929.99163    75.943879 
    7900    166.50053   -108.68744   0.15065318   -108.53679   -7025.5514    4.2431519    4.2431519    4.2431519   -7025.5514   -489.17966     -10584.3   -10003.174    -1258.814    786.07905   -328.27459    76.395142 
    8000    243.08054   -108.75609   0.21994438   -108.53614   -6748.2127    4.2438177    4.2438177    4.2438177   -6748.2127   -6547.7014   -7702.9098   -5994.0271    1379.7457   -1595.4061   -3335.9751    76.431107 
    8100    227.82825   -108.74118   0.20614379   -108.53504    5361.2225    4.2349425    4.2349425    4.2349425    5361.2225    5531.3008    4305.0614    6247.3054    278.39087    1732.1281    1175.2976    75.952586 
    8200    181.22216   -108.70077   0.16397362   -108.53679   -5256.5207    4.2420282    4.2420282    4.2420282   -5256.5207    1137.6532   -10506.403   -6400.8119   -426.56473    1347.3956    381.81405    76.334462 
    8300    163.05245   -108.68465   0.14753328   -108.53712   -1806.1153    4.2441098    4.2441098    4.2441098   -1806.1153     6882.737   -797.17896   -11503.904   -2355.2659    2031.0931   -977.43844    76.446895 
    8400    223.43174    -108.7382   0.20216573   -108.53604    8045.9226    4.2347232    4.2347232    4.2347232    8045.9226     14050.61    3003.7184    7083.4395   -3638.0547   -3608.8226    1255.2266    75.940783 
    8500    183.73125   -108.70361   0.16624389   -108.53737   -977.25496    4.2406853    4.2406853    4.2406853   -977.25496    -2070.567    3243.2338   -4104.4316    -743.1435     1683.199   -1340.9642    76.261993 
    8600    228.24656     -108.743   0.20652228   -108.53648   -6569.3516    4.2456318    4.2456318    4.2456318   -6569.3516   -10859.361   -3399.1747   -5449.5186    1412.8874    511.74122    553.59803    76.529169 
    8700    267.01275   -108.77662   0.24159875   -108.53502    5571.0101    4.2349881    4.2349881    4.2349881    5571.0101    8936.9549      219.238    7556.8376    1469.8531   -549.68073   -1947.2592    75.955039 
    8800    154.44243   -108.67625   0.13974276   -108.53651    2050.7896    4.2398919    4.2398919    4.2398919    2050.7896       6754.8    2421.2317   -3023.6628   -1630.0229     3800.626    233.67888    76.219195 
    8900    189.00164   -108.70733   0.17101265   -108.53632   -6770.3519     4.245733     4.245733     4.245733   -6770.3519   -354.01045   -12950.442   -7006.6028   -937.42281   -546.67872   -2319.7219     76.53464 
    9000     174.7238   -108.69401   0.15809377   -108.53592    9701.3313    4.2353081    4.2353081    4.2353081    9701.3313    11993.827    8954.4151    8155.7522   -1144.2798   -484.98353   -65.972616    75.972258 
    9100    234.14427   -108.74775   0.21185866   -108.53589   -2217.7621    4.2392781    4.2392781    4.2392781   -2217.7621   -5993.5768    1566.1966    -2225.906   -2487.5327    -1096.726    1457.9015    76.186095 
    9200    143.49465   -108.66618   0.12983697   -108.53634   -7210.9098    4.2457346    4.2457346    4.2457346   -7210.9098   -9722.2088   -10555.512   -1355.0083     1065.446    2607.1885   -4167.5053    76.534724 
    9300    240.76361   -108.75372   0.21784798   -108.53588    2435.9266     4.236189     4.236189     4.236189    2435.9266     7022.895    1327.8276   -1042.9428    1330.1971   -485.81495    3258.2796    76.019669 
    9400    201.17328   -108.71844   0.18202581   -108.53641    3247.4018    4.2386641    4.2386641    4.2386641    3247.4018    8012.7425   -2815.0544    4544.5173   -1004.4631    1008.2304   -339.72079    76.152996 
    9500    140.22676   -108.66412   0.12688012   -108.53724   -5194.0363    4.2449979    4.2449979    4.2449979   -5194.0363       2147.2   -6785.1243   -10944.185   -2142.0455    1448.0893   -1740.9723    76.494893 
    9600     262.7956   -108.77425   0.23778298   -108.53646   -1172.3037    4.2380596    4.2380596    4.2380596   -1172.3037   -452.18244    148.02008   -3212.7486   -89.004916   -2506.1552   -1599.8998    76.120422 
    9700     192.9617   -108.71083    0.1745958   -108.53624    5962.6738    4.2378466    4.2378466    4.2378466    5962.6738    1346.7928    9857.0644    6684.1641   -146.95477    462.83309   -1164.3331    76.108944 
    9800    228.71748   -108.74341   0.20694838   -108.53646   -9539.9577    4.2445078    4.2445078    4.2445078   -9539.9577   -7239.7433   -9900.2608   -11479.869      706.441    1334.0169   -1350.6966      76.4684 
    9900    157.88417   -108.68024   0.14285691   -108.53738    4085.8335    4.2394433    4.2394433    4.2394433    4085.8335    5706.5787     5434.987    1115.9348    926.25031    2829.8429   -1424.8265    76.195004 
   10000     241.0375   -108.75389   0.21809579   -108.53579    4089.3682    4.2372451    4.2372451    4.2372451    4089.3682    13563.337    2794.6839   -4089.9167   -2055.8243   -570.49743    3730.7412    76.076539 
   10100    159.16493   -108.68059   0.14401577   -108.53658   -4428.7366    4.2431151    4.2431151    4.2431151   -4428.7366   -1499.9643   -6001.4106   -5784.8349   -1962.1559    1403.9254   -1803.9097    76.393152 
   10200    181.69485   -108.70116   0.16440132   -108.53676   -768.67549     4.241571     4.241571     4.241571   -768.67549   -3565.6377    11628.308   -10368.697   -1123.1243    684.15965   -100.49522    76.309784 
   10300     261.1225   -108.77124   0.23626912   -108.53497    4577.7759    4.2362193    4.2362193    4.2362193    4577.7759    1997.8592    3066.7621    8668.7063    1626.0327   -1610.1741   -1090.8807    76.021302 
   10400     155.7973   -108.67755   0.14096867   -108.53658   -2058.9751    4.2428152    4.2428152    4.2428152   -2058.9751   -2574.4784    5606.9363   -9209.3834     1369.599    5271.0836   -1342.2998    76.376959 
   10500    198.72653   -108.71688   0.17981194   -108.53707   -4161.0761    4.2425928    4.2425928    4.2425928   -4161.0761    2956.4246   -6835.4626   -8604.1903    173.32756    2213.6736    133.52698    76.364947 
   10600    200.11473   -108.71687   0.18106801    -108.5358    7532.4799    4.2361153    4.2361153    4.2361153    7532.4799     14040.64    4273.0325    4283.7669   -1004.1612    292.01867   -400.41891    76.015703 
   10700    213.86089   -108.72945   0.19350583   -108.53594   -3305.5548    4.2421109    4.2421109    4.2421109   -3305.5548   -2845.9783    3673.9066   -10744.593    -3255.703    2243.4051    1913.2422    76.338929 
   10800    195.85629   -108.71352   0.17721488   -108.53631   -5450.5194    4.2434383    4.2434383    4.2434383   -5450.5194    -8072.296   -1954.9686   -6324.2937      146.316   -70.336497   -3021.4245    76.410614 
   10900    232.18008   -108.74578   0.21008141    -108.5357    3182.6388    4.2364558    4.2364558    4.2364558    3182.6388    4042.4429    6830.3949   -1324.9212    1447.3622   -460.30429    1786.1791    76.034034 
   11000    210.73658   -108.72741   0.19067889   -108.53673   -2574.0225    4.2410014    4.2410014    4.2410014   -2574.0225     1987.959   -6071.1036    -3638.923    1017.7756    1652.2762   -947.05468    76.279047 
   11100    135.15319   -108.65953   0.12228945   -108.53724   -3075.9459    4.2437019    4.2437019    4.2437019   -3075.9459    9319.3865   -9366.2758   -9180.9484   -275.25637    3778.3001   -2341.8604     76.42485 
   11200     210.6075   -108.72675   0.19056209   -108.53619    4852.7742    4.2364492    4.2364492    4.2364492    4852.7742    8327.5226    1441.2718    4789.5282   -627.91886    49.294769    2381.2603    76.033678 
   11300    201.82119   -108.71936   0.18261205   -108.53675     1501.842    4.2395975    4.2395975    4.2395975     1501.842    4182.1226    6471.9975    -6148.594   -2047.8544    187.74206   -883.52992    76.203317 
   11400    196.39778    -108.7148   0.17770483   -108.53709   -6321.3132    4.2444284    4.2444284    4.2444284   -6321.3132   -7136.2081   -5626.1131   -6201.6186    391.27675    2473.6816   -1052.7491     76.46411 
   11500    212.09054   -108.72848   0.19190398   -108.53657    4910.7035     4.237238     4.237238     4.237238    4910.7035    5921.2305    13261.079   -4450.1994    2819.5099   -2166.1623   -1723.2501    76.076157 
   11600    202.24592   -108.71912   0.18299636   -108.53612    5179.0921    4.2389684    4.2389684    4.2389684    5179.0921    12682.049    381.21975    2474.0079   -685.59504    2151.0928    977.01522    76.169398 
   11700    202.84489   -108.71971   0.18353832   -108.53617   -4159.8781    4.2441084    4.2441084    4.2441084   -4159.8781   -565.27734   -3437.6398   -8476.7172   -1939.5235    2455.8157   -754.50598    76.446817 
   11800    166.60694   -108.68703   0.15074946   -108.53628    5958.3022    4.2375935    4.2375935    4.2375935    5958.3022    6544.4693    13012.952   -1682.5145    -2307.356    1725.4796    1496.2165    76.095307 
   11900    275.19576   -108.78446    0.2490029   -108.53546     -784.783    4.2389802    4.2389802    4.2389802     -784.783   -4329.0523    1248.1236    726.57966    1474.5778   -92.726879    3222.9105    76.170037 
   12000    165.71372   -108.68657   0.14994125   -108.53663   -2262.2412    4.2438575    4.2438575    4.2438575   -2262.2412   -6688.9663     8144.494   -8242.2514    746.67618    1574.9161    -2404.034    76.433261 
   12100    213.40813   -108.72932   0.19309616   -108.53622   -1025.1996    4.2385951    4.2385951    4.2385951   -1025.1996    1546.3717   -98.044313   -4523.9263    1381.8158    2711.3151   -857.24399    76.149277 
   12200    195.01361   -108.71218   0.17645241   -108.53573    1146.8953    4.2393171    4.2393171    4.2393171    1146.8953    7148.6414    -2524.746   -1183.2096    1618.9575   -2091.1511    -750.0495    76.188197 
   12300    186.83451   -108.70495   0.16905179    -108.5359   -5489.8246    4.2430665    4.2430665    4.2430665   -5489.8246   -3526.0062   -6085.0668   -6858.4009    -2579.213    7079.5655   -67.881217    76.390529 
   12400    159.12127    -108.6806   0.14397627   -108.53663    -781.4279     4.239536     4.239536     4.239536    -781.4279   -3926.4771    5047.4368   -3465.2434   -2159.2305    383.66795    714.33389    76.200003 
   12500    219.37901   -108.73467   0.19849874   -108.53617   -479.18717    4.2400212    4.2400212    4.2400212   -479.18717   -6024.0425      1920.46     2666.021   -450.96312    -1502.469    3768.5565     76.22617 
   12600    201.93537   -108.71907   0.18271537   -108.53635   -4093.7924    4.2419456    4.2419456    4.2419456   -4093.7924     -8376.92    3222.2252   -7126.6825    2192.2015    2503.6307    797.38995    76.330006 
   12700    188.18396   -108.70653    0.1702728   -108.53625   -2499.6898    4.2401105    4.2401105    4.2401105   -2499.6898    2501.9962    -3511.206   -6489.8597    972.82792   -1278.6193   -3147.0939    76.230985 
   12800    231.68359   -108.74541   0.20963218   -108.53578    492.68161     4.239936     4.239936     4.239936    492.68161    2564.5577   -1686.6022    600.08932    656.04688       1802.6    -210.2461    76.221575 
   12900    177.12429   -108.69687   0.16026578    -108.5366    3497.8096    4.2395844    4.2395844    4.2395844    3497.8096    1941.9343    7000.9566     1550.538    -1674.123    1954.0092    8.0926976    76.202614 
   13000    217.00316   -108.73327   0.19634902   -108.53692   -820.18543    4.2412911    4.2412911    4.2412911   -820.18543   -4198.3289   -878.67311    2616.4457   -1804.0992     4684.308    939.64837    76.294678 
   13100    165.55958   -108.68639   0.14980179   -108.53659    6393.2077    4.2392047    4.2392047    4.2392047    6393.2077   -4096.7332    13633.373    9642.9833    1276.9077   -2279.7651    261.96342    76.182139 
   13200    269.66492   -108.77953   0.24399848   -108.53553   -1777.0585    4.2391655    4.2391655    4.2391655   -1777.0585    -2076.104   -530.70573   -2724.3657    160.07759   -11.100691    372.23575    76.180025 
   13300    168.79639   -108.68894   0.15273052   -108.53621    1761.0495    4.2423734    4.2423734    4.2423734    1761.0495   -3377.0254    4306.6473    4353.5265    1373.0177    1992.8858   -1417.1665    76.353097 
   13400    235.17928    -108.7487   0.21279515    -108.5359    1214.8311    4.2385445    4.2385445    4.2385445    1214.8311    488.11589    1233.3565    1923.0208   -652.22591   -1859.0137    54.148185    76.146551 
   13500    148.71589   -108.67155   0.13456126   -108.53699    4907.5919    4.2389157    4.2389157    4.2389157    4907.5919    4541.2695    2381.2184    7800.2877   -513.57056    3545.4692     2423.065     76.16656 
   13600    185.50385   -108.70497   0.16784778   -108.53712   -2911.8397     4.243814     4.243814     4.243814   -2911.8397    -10553.49    2298.5823    -480.6116   -2161.3513    2100.6769    1248.1632    76.430907 
   13700    191.02192   -108.70919   0.17284065   -108.53635    1460.3117    4.2372654    4.2372654    4.2372654    1460.3117    -1671.117    7261.0953   -1209.0433   -396.07613     1017.948    1156.5507    76.077635 
   13800    211.36629   -108.72708   0.19124867   -108.53583   -1452.2009    4.2406687    4.2406687    4.2406687   -1452.2009   -9332.6294    193.67154    4782.3551    3087.9478   -1394.9612   -596.47979    76.261096 
   13900    284.07858   -108.79289   0.25704027   -108.53585   -9797.1821     4.243478     4.243478     4.243478   -9797.1821    -11594.36   -6822.9605   -10974.226     679.8853    2396.7215    -3278.208    76.412756 
   14000    151.56847   -108.67443   0.13714233   -108.53728    2570.6766    4.2370281    4.2370281    4.2370281    2570.6766   -2497.4246    4412.0472    5797.4072    -75.73736    1545.2588    378.37881    76.064856 
   14100     228.5116   -108.74328    0.2067621   -108.53652   -4502.5189    4.2425045    4.2425045    4.2425045   -4502.5189   -5673.5344   -5745.1394   -2088.8831   -1063.2438   -480.76963    4093.4049    76.360179 
   14200    114.81888   -108.64037   0.10389054   -108.53648    3773.4148    4.2410218    4.2410218    4.2410218    3773.4148   -4608.4503    15207.353    721.34205   -1806.1113    5836.0491    1914.7199    76.280144 
   14300    225.23689    -108.7397   0.20379907    -108.5359   -262.35444    4.2382721    4.2382721    4.2382721   -262.35444    -2594.534    1483.3382    324.13248   -2568.0286   -90.156791   -319.61374     76.13187 
   14400    181.66573   -108.70017   0.16437497   -108.53579   -1194.9443     4.242296     4.242296     4.242296   -1194.9443   -6707.2038    5598.3276   -2475.9566    852.39135   -1050.1063   -348.58471    76.348922 
   14500    243.12297   -108.75546   0.21998277   -108.53548   -4433.4413    4.2397142    4.2397142    4.2397142   -4433.4413   -10228.048   -1122.9346   -1949.3413    1654.1767    3489.6543   -538.90369    76.209612 
   14600    231.72068   -108.74579   0.20966575   -108.53613   -949.50224    4.2410761    4.2410761    4.2410761   -949.50224   -6998.1285    5227.3829   -1077.7611    1430.3812   -614.02055   -2367.9217    76.283078 
   14700    153.76771   -108.67577   0.13913225   -108.53664    3343.1641    4.2403545    4.2403545    4.2403545    3343.1641    -8106.809    7026.9385    11109.363    670.73537    1620.0105     1264.725    76.244147 
   14800    202.65154   -108.71937   0.18336337   -108.53601   -443.15033    4.2390048    4.2390048    4.2390048   -443.15033   -1531.5875    4701.5114   -4499.3749   -659.68112    2994.0961    2930.3108    76.171362 
   14900    176.03118   -108.69551   0.15927671   -108.53623    2805.2671    4.2416577    4.2416577    4.2416577    2805.2671   -3033.3409    7675.3352     3773.807   -2202.2687    1910.4384    -284.9711    76.314461 
   15000    226.51209   -108.74165    0.2049529    -108.5367   -1239.9841    4.2384172    4.2384172    4.2384172   -1239.9841     1824.559   -6233.9604    689.44919    -232.5619   -1781.3041   -1622.5607    76.139691 
   15100    202.44382   -108.72057   0.18317542   -108.53739   -2080.8965    4.2404477    4.2404477    4.2404477   -2080.8965   -8796.1953    1406.2484    1147.2572    3203.5309   -602.39715    736.52003     76.24917 
   15200      226.306   -108.74149   0.20476642   -108.53672   -2139.7678    4.2427412    4.2427412    4.2427412   -2139.7678   -6518.1066   -4365.4435    4464.2467   -236.60465    1705.0847    1608.9884    76.372958 
   15300     196.5165   -108.71414   0.17781226   -108.53632    132.82993    4.2369367    4.2369367    4.2369367    132.82993   -4099.0615    5778.9398   -1281.3885    508.86456   -2281.1212   -326.85121    76.059929 
   15400    161.73935   -108.68301   0.14634516   -108.53667    -1263.897    4.2417389    4.2417389    4.2417389    -1263.897   -3072.0016   -2229.7324    1510.0431   -339.20606    2591.9559    770.29485    76.318846 
   15500    209.60514    -108.7258   0.18965513   -108.53614   -614.15931    4.2411729    4.2411729    4.2411729   -614.15931    3423.4691     4176.295    -9442.242   -160.30402    1539.3908   -2443.7191      76.2883 
   15600    207.44284   -108.72405   0.18769864   -108.53635    1262.3706     4.237329     4.237329     4.237329    1262.3706    1505.9484   -1695.9141    3977.0776   -25.383558   -2084.3351   -805.26932    76.081058 
   15700    182.40193    -108.7019    0.1650411   -108.53686   -3022.5955    4.2434238    4.2434238    4.2434238   -3022.5955   -740.78419   -1314.3249   -7012.6773    2831.8344   -194.37356    775.97884     76.40983 
   15800    211.98722   -108.72772    0.1918105   -108.53591   -178.04884      4.23933      4.23933      4.23933   -178.04884   -7186.6546    11153.696   -4501.1883    1324.1069    1387.1723    976.16388    76.188893 
   15900    213.59672   -108.72883    0.1932668   -108.53557    2458.4598    4.2386371    4.2386371    4.2386371    2458.4598    177.68263    6158.7894    1038.9074   -2596.5447    968.70171     1857.726     76.15154 
   16000    185.17974   -108.70359   0.16755452   -108.53604   -1525.3028    4.2431872    4.2431872    4.2431872   -1525.3028   -2975.2074    6080.4702   -7681.1711   -1006.9054   -356.08768    941.00471    76.397049 
   16100    201.75617   -108.71897   0.18255322   -108.53641    405.51164    4.2376612    4.2376612    4.2376612    405.51164    3998.9161   -1880.8434   -901.53784   -1277.8356    4489.2087    408.43717    76.098957 
   16200    227.87095   -108.74245   0.20618243   -108.53626   -1596.6867    4.2420707    4.2420707    4.2420707   -1596.6867    903.98416    1129.4897   -6823.5339    2538.1059   -799.04467   -2680.0799    76.336755 
   16300    194.35648    -108.7122   0.17585783   -108.53634   -2361.7731    4.2412647    4.2412647    4.2412647   -2361.7731   -3599.2054   -1160.1338     -2325.98    2560.3422   -1087.8773    1353.8844    76.293251 
   16400     172.0458   -108.69195   0.15567066   -108.53628    93.217295    4.2375335    4.2375335    4.2375335    93.217295   -6477.5556    10078.489   -3321.2811    2778.3488    4897.8056    1692.4964    76.092076 
   16500      227.639   -108.74151   0.20597255   -108.53553   -3535.1059     4.243833     4.243833     4.243833   -3535.1059   -8453.6781    38.858321   -2190.4979   -1396.2802    -255.4645   -382.37711    76.431937 
   16600    181.03907   -108.69979   0.16380796   -108.53598   -338.49279    4.2383448    4.2383448    4.2383448   -338.49279    376.52892    87.259085   -1479.2664   -1681.9114    1375.8348    814.98539    76.135791 
   16700    177.16113   -108.69688   0.16029911   -108.53658   -2143.2467    4.2393595    4.2393595    4.2393595   -2143.2467    744.47055   -1753.0795   -5421.1312    953.37976    2351.8592       202.05    76.190484 
   16800    221.70213     -108.737   0.20060075    -108.5364   -2098.0219     4.243928     4.243928     4.243928   -2098.0219    1433.5008   -3779.4694   -3948.0972   -568.73306   -299.56999    1131.8108     76.43707 
   16900    187.48076   -108.70602   0.16963653   -108.53638    4145.1705    4.2365828    4.2365828    4.2365828    4145.1705   -1182.1351    8013.2099    5604.4367    3502.7129   -1511.1541   -830.21132    76.040876 
   17000    201.47449   -108.71916   0.18229835   -108.53686   -1895.8108    4.2405955    4.2405955    4.2405955   -1895.8108   -3952.6201    2520.4752   -4255.2874     1358.558     1639.855    1464.4456    76.257146 
   17100    206.96355   -108.72393   0.18726497   -108.53667    511.51382     4.242455     4.242455     4.242455    511.51382   -5109.8847    4971.9713    1672.4549   -211.71337    2689.6254   -750.34514    76.357508 
   17200    258.34573   -108.77016   0.23375664   -108.53641    2731.4085    4.2367002    4.2367002    4.2367002    2731.4085    6807.2601     2853.449   -1466.4835   -1968.3631   -1753.9568   -1226.7875    76.047193 
   17300    157.31038    -108.6796   0.14233773   -108.53726    1614.9468    4.2416293    4.2416293    4.2416293    1614.9468     3852.281    3004.1682   -2011.6089    1890.0766    2204.6995    1164.1511    76.312933 
   17400    185.43148   -108.70395    0.1677823   -108.53617    577.37231    4.2412909    4.2412909    4.2412909    577.37231    2542.0133   -765.66249   -44.233896    2340.6531    970.24631    290.83524    76.294665 
   17500    234.76385   -108.74792   0.21241926    -108.5355    3205.1859    4.2378079    4.2378079    4.2378079    3205.1859    1502.1972        11971   -3857.6392   -791.56325   -1731.4991    1674.9872     76.10686 
   17600    148.03474   -108.67067   0.13394495   -108.53672    1298.4595    4.2408571    4.2408571    4.2408571    1298.4595   -3571.6217    6113.3128    1353.6873    1026.8756    1342.7731    799.98734    76.271259 
   17700    215.21406   -108.73162    0.1947302   -108.53689   -6031.4825     4.241157     4.241157     4.241157   -6031.4825    -2497.124   -3245.1333    -12352.19   -2084.3039    2136.0578    1963.8215    76.287443 
   17800    223.80978   -108.73894   0.20250779   -108.53643    1412.2778    4.2397858    4.2397858    4.2397858    1412.2778    1517.5453   -218.28979     2937.578    492.91504    -168.5988   -1747.7632    76.213471 
   17900    202.87676   -108.72005   0.18356716   -108.53648   -1316.7651     4.240025     4.240025     4.240025   -1316.7651    6997.0473   -4090.6308   -6856.7118    1449.1069   -124.07654    588.21653     76.22637 
   18000     155.9561   -108.67789   0.14111236   -108.53678   -3837.3135    4.2413528    4.2413528    4.2413528   -3837.3135   -6863.4839    2983.9761   -7632.4329    4231.3989    3606.9064    2551.4595     76.29801 
   18100       220.08   -108.73504   0.19913301   -108.53591    517.11176    4.2409206    4.2409206    4.2409206    517.11176   -2840.7853    9286.8838   -4894.7632    1395.9446   -293.22574   -809.82121    76.274684 
   18200    229.08789   -108.74336   0.20728354   -108.53608   -1515.5552    4.2385796    4.2385796    4.2385796   -1515.5552    -6984.937    8183.5428   -5745.2715   -1432.9544    458.19977     844.9012    76.148443 
   18300    156.62523   -108.67847    0.1417178   -108.53675   -5417.1922    4.2426731    4.2426731    4.2426731   -5417.1922   -7093.6478   -3751.7772   -5406.1515   -616.76784    4949.8834    361.14409    76.369282 
   18400    259.26711   -108.77034   0.23459033   -108.53575   -2795.6832    4.2415601    4.2415601    4.2415601   -2795.6832    728.20476    -950.3307   -8164.9235   -2415.9562   -1169.7442    1115.9847    76.309196 
   18500    187.58583   -108.70573    0.1697316   -108.53599    4324.2839    4.2369883    4.2369883    4.2369883    4324.2839    5161.4619    6090.2263    1721.1636    3589.9208    177.92695   -95.362807    76.062707 
   18600    115.74712   -108.64186   0.10473043   -108.53713   -2019.9066    4.2426802    4.2426802    4.2426802   -2019.9066   -4445.1951    9882.0233   -11496.548    2978.8126    2877.8043    1360.8213    76.369664 
   18700    239.44722   -108.75325   0.21665688   -108.53659   -782.16654    4.2405573    4.2405573    4.2405573   -782.16654   -4175.5344    4492.2849   -2663.2501     2195.746    61.284429    1171.8355    76.255082 
   18800    199.73126   -108.71718   0.18072104   -108.53646    7626.6373    4.2367668    4.2367668    4.2367668    7626.6373    2182.5456    15637.873    5059.4929    -1314.065    307.84814   -1122.6535    76.050783 
   18900      232.751    -108.7472   0.21059799   -108.53661   -8006.9742    4.2434732    4.2434732    4.2434732   -8006.9742   -8753.0285   -4211.4883   -11056.406    107.27632     2361.011    726.19427    76.412495 
   19000    186.37288   -108.70528    0.1686341   -108.53665    401.18808    4.2408231    4.2408231    4.2408231    401.18808    2891.5906   -1856.4618    168.43551    563.33458    1279.8728    26.045975    76.269426 
   19100    233.08059   -108.74609   0.21089621    -108.5352    5986.4135    4.2368408    4.2368408    4.2368408    5986.4135    1234.1282    12732.667     3992.445   -525.33079   -604.71471    1146.4559    76.054769 
   19200    159.70436   -108.68134   0.14450386   -108.53683   -1728.5322    4.2420436    4.2420436    4.2420436   -1728.5322    75.441409    3797.6233   -9058.6613    3771.8515    1950.6418    1946.6484    76.335294 
   19300    153.58714   -108.67661   0.13896887   -108.53765   -183.78158    4.2413782    4.2413782    4.2413782   -183.78158    -9074.153    3671.3277    4851.4806   -28.981825    1014.0936    1711.9839    76.299376 
   19400    306.92819   -108.81326   0.27771508   -108.53554   -461.10276    4.2377683    4.2377683    4.2377683   -461.10276    1381.8333      1564.48   -4329.6216    -954.4605   -1655.7699   -1061.1903    76.104727 
   19500    171.61583   -108.69234   0.15528161   -108.53705   -2924.6332    4.2413102    4.2413102    4.2413102   -2924.6332   -6903.8149   -2322.5636     452.4788    30.969688    1447.5091    315.99082    76.295708 
   19600    186.00233   -108.70517   0.16829882   -108.53687   -4924.1968    4.2425059    4.2425059    4.2425059   -4924.1968   -4896.6629   -4613.7144   -5262.2129    2832.4622    1131.2573    2016.2157    76.360254 
   19700    173.30282   -108.69328   0.15680803   -108.53647    9956.6071    4.2364124    4.2364124    4.2364124    9956.6071    6812.1906     22209.19    848.44073    2765.2844   -883.42837   -427.87499    76.031698 
   19800    173.89059   -108.69458   0.15733986   -108.53724    1259.0343    4.2410123    4.2410123    4.2410123    1259.0343   -4461.2469     6977.206    1261.1438    980.18809     591.8359    836.37378    76.279631 
   19900    190.27546    -108.7094   0.17216523   -108.53724   -6655.0354    4.2439098    4.2439098    4.2439098   -6655.0354   -9173.7636    2615.6952   -13407.038    738.85555    2509.4713    1920.4703    76.436086 
   20000    251.79674   -108.76326   0.22783098   -108.53543    2712.4498    4.2366875    4.2366875    4.2366875    2712.4498   -4446.0087    5770.7431    6812.6151   -2393.8265   -589.15506    129.10319    76.046513 
   20100    266.29087   -108.77645   0.24094558   -108.53551   -3795.6887    4.2421014    4.2421014    4.2421014   -3795.6887   -6495.0605    3210.8448   -8102.8504   -1523.6242    134.56593   -1014.8138    76.338416 
   20200    144.41048   -108.66742   0.13066564   -108.53675   -2941.3588    4.2433058    4.2433058    4.2433058   -2941.3588   -11878.913    8987.3589   -5932.5225    3058.4709    3713.9496    1519.0103    76.403453 
   20300    169.92735   -108.69025   0.15375384    -108.5365    6245.8542    4.2357485    4.2357485    4.2357485    6245.8542    6054.0831    12994.942   -311.46283    2979.7842   -2035.4314    1649.8106    75.995958 
   20400    225.66182   -108.74002   0.20418356   -108.53584   -2644.3606     4.243026     4.243026     4.243026   -2644.3606   -4017.7791    4004.5071   -7919.8099    2972.7849     71.15925     287.3936     76.38834 
   20500    164.34967   -108.68495   0.14870704   -108.53624   -4676.8169    4.2422672    4.2422672    4.2422672   -4676.8169   -1782.9116   -5422.3796   -6825.1595    388.84277    2438.0857     1094.816    76.347368 
   20600     227.8744   -108.74162   0.20618555   -108.53544   -233.23168    4.2373424    4.2373424    4.2373424   -233.23168   -1425.6172    1372.8226   -646.90044    -904.6827   -790.49897    1075.0395    76.081781 
   20700    225.86349   -108.74027   0.20436603    -108.5359   -1996.5745    4.2424891    4.2424891    4.2424891   -1996.5745   -5692.9258    3856.8701   -4153.6676   -1906.6573     1236.043   -1084.0809    76.359345 
   20800    168.06112   -108.68904   0.15206523   -108.53698   -2696.4842    4.2406417    4.2406417    4.2406417   -2696.4842   -9064.0557    7973.3538   -6998.7507    915.81259    2485.7076     1338.133    76.259637 
   20900    167.99871   -108.68932   0.15200876   -108.53731    2514.5737    4.2392711    4.2392711    4.2392711    2514.5737   -1736.4541    9643.0022   -362.82708    3172.7028    1007.1253    2041.6268    76.185721 
   21000    233.51949   -108.74745   0.21129334   -108.53615    947.24438    4.2409767    4.2409767    4.2409767    947.24438   -455.36052    2196.3875    1100.7061    35.690505   -1095.7526   -668.81092    76.277712 
   21100    209.96403   -108.72628   0.18997987    -108.5363   -1425.7288    4.2405881    4.2405881    4.2405881   -1425.7288    1365.9946   -957.08735   -4686.0936    695.78823    1904.4185    1915.9463    76.256744 
   21200    172.49319    -108.6929   0.15607547   -108.53682    2649.6431     4.239996     4.239996     4.239996    2649.6431     -4390.65    9203.8831    3135.6962    -671.3606   -18.256552    599.05021    76.224807 
   21300    239.57293   -108.75318   0.21677062   -108.53641    1502.2271    4.2389401    4.2389401    4.2389401    1502.2271   -3878.9887    9261.7854   -876.11541    -351.9352   -1413.5384    303.89919    76.167877 
   21400    190.78631   -108.70969   0.17262747   -108.53706    1036.6125    4.2413423    4.2413423    4.2413423    1036.6125   -6570.1356     13599.31   -3919.3364    1590.3675     2752.403   -1314.3137    76.297443 
   21500    193.92578   -108.71221   0.17546812   -108.53674    835.14843    4.2403425    4.2403425    4.2403425    835.14843   -5695.5614    1902.8294    6298.1773    1814.8995   -41.073268    2568.8426    76.243496 
   21600    235.12193   -108.74885   0.21274326   -108.53611   -923.11274    4.2389271    4.2389271    4.2389271   -923.11274    3617.9199   -1084.0639   -5303.1942    607.13651   -800.79658     151.8844    76.167175 
   21700    183.74566   -108.70248   0.16625694   -108.53622   -790.09935    4.2424607    4.2424607    4.2424607   -790.09935   -7568.4364    3100.2712    2097.8672   -3704.6136     703.1564   -1610.7707    76.357814 
   21800     153.3289   -108.67514   0.13873521   -108.53641    1636.4211    4.2394542    4.2394542    4.2394542    1636.4211   -2478.7422    12330.322   -4942.3161    192.72134    1475.5303    1196.6608    76.195589 
   21900    182.36295   -108.70119   0.16500583   -108.53618    192.49226    4.2395691    4.2395691    4.2395691    192.49226    -8260.413    7794.1661    1043.7237   -1068.4087   -1483.2332   -189.45062    76.201786 
   22000    225.20775   -108.73981    0.2037727   -108.53603   -3701.8978    4.2430696    4.2430696    4.2430696   -3701.8978   -6834.6724    775.95833   -5046.9794     1234.726    502.95532    1496.2968    76.390698 
   22100    235.47347   -108.74885   0.21306134   -108.53579   -3757.8878    4.2388644    4.2388644    4.2388644   -3757.8878   -8640.6904    219.60063   -2852.5736    3848.8849    2955.1448   -218.03484    76.163795 
   22200    195.62991   -108.71301   0.17701006     -108.536   -1353.1279    4.2404716    4.2404716    4.2404716   -1353.1279   -703.57692   -1920.3762   -1435.4306    -565.1142   -3371.4777    1226.2857    76.250461 
   22300     196.9127   -108.71453   0.17817075   -108.53636    15.531298    4.2420086    4.2420086    4.2420086    15.531298    -6637.309    15491.331   -8807.4277   -1256.2761    1056.8686   -1295.9818    76.333403 
   22400    157.41292   -108.67946   0.14243052   -108.53702    5487.6517    4.2374336    4.2374336    4.2374336    5487.6517    4299.0712    10328.048    1835.8353   -3044.8385    1810.4963    272.55614    76.086692 
   22500    187.31047   -108.70628   0.16948245    -108.5368    -258.9694    4.2420406    4.2420406    4.2420406    -258.9694   -3700.1473     10865.05    -7941.811    1894.3691   -1187.4331    722.59166    76.335133 
   22600     254.4655   -108.76604   0.23024574    -108.5358    -4021.733    4.2414442    4.2414442    4.2414442    -4021.733   -5302.0404   -3313.1188   -3450.0399   -669.30376    1793.1171   -1534.1557    76.302942 
   22700    214.15041   -108.72987   0.19376779    -108.5361    682.90878    4.2382114    4.2382114    4.2382114    682.90878   -1964.3695    8619.9363   -4606.8404    1838.6074    2057.6588    2629.8349    76.128598 
   22800    193.35844   -108.71125   0.17495478   -108.53629   -2105.1955    4.2424384    4.2424384    4.2424384   -2105.1955   -8048.1117    4613.9978   -2881.4726    1111.1746    108.21827    42.746731    76.356611 
   22900    152.84454    -108.6748   0.13829695   -108.53651    2269.5016    4.2400988    4.2400988    4.2400988    2269.5016    2847.4323    7040.3875   -3079.3152   -2375.8987   -798.73269   -58.206477    76.230352 
   23000    188.55349   -108.70732   0.17060716   -108.53672     2504.868    4.2386456    4.2386456    4.2386456     2504.868   -2686.9677    12132.208    -1930.636   -899.52319    2227.4329   -990.32794    76.152002 
   23100    220.47342   -108.73606   0.19948898   -108.53657   -4330.3199    4.2420351    4.2420351    4.2420351   -4330.3199   -2962.4341   -7101.7354   -2926.7903    1830.9693   -1202.7376    2123.7543    76.334835 
   23200    208.73191   -108.72513   0.18886502   -108.53627   -2908.5228    4.2403853    4.2403853    4.2403853   -2908.5228   -7307.8127   -1819.1311    401.37522    3237.0589    190.37074    100.33569    76.245805 
   23300    251.61444   -108.76379   0.22766603   -108.53612    -1814.875    4.2395555    4.2395555    4.2395555    -1814.875   -4057.5259    2486.8143   -3873.9135   -1117.7929     3503.825   -2786.8836    76.201056 
   23400    148.95989   -108.67188   0.13478204    -108.5371    3580.0687    4.2404288    4.2404288    4.2404288    3580.0687   -6854.8402    12541.713    5053.3331    1838.0246   -1306.6838    1625.1817    76.248151 
   23500    198.32393   -108.71623   0.17944766   -108.53679   -918.56106    4.2413131    4.2413131    4.2413131   -918.56106   -393.36665    4779.7103   -7142.0268   -2060.1955    -60.68282    -657.3726    76.295865 
   23600    186.53483     -108.705   0.16878064   -108.53622      1954.79    4.2395382    4.2395382    4.2395382      1954.79   -3783.1542    8626.9291    1020.5953   -1168.1309    865.47915    238.43655    76.200122 
   23700    212.62892   -108.72798   0.19239111   -108.53559   -1194.0019    4.2404804    4.2404804    4.2404804   -1194.0019   -2941.7334   -4160.5092    3520.2369    2650.0653    335.63627    901.24583    76.250938 
   23800    236.45802   -108.74966   0.21395218   -108.53571   -3382.8513    4.2420858    4.2420858    4.2420858   -3382.8513   -5834.8343    2487.6983   -6801.4179    1820.7391   -1390.7877     1911.576    76.337574 
   23900    142.53503   -108.66542   0.12896869   -108.53646    6602.1901    4.2381592    4.2381592    4.2381592    6602.1901   -3484.1233    16417.607    6873.0864    373.01312    803.10455   -639.62174    76.125788 
   24000    232.86577   -108.74704   0.21070185   -108.53634   -1607.5589    4.2404683    4.2404683    4.2404683   -1607.5589    -6866.137    10460.323   -8416.8629   -1492.9922    2129.1536   -980.39107    76.250282 
   24100    155.57119   -108.67783   0.14076408   -108.53707    1659.4159    4.2418276    4.2418276    4.2418276    1659.4159   -3676.5941    6185.1872    2469.6546    506.44784   -2621.3394    416.97423    76.323635 
   24200     259.3654   -108.77094   0.23467926   -108.53626   -2102.3683    4.2386885    4.2386885    4.2386885   -2102.3683    897.29742   -3384.3643    -3820.038     -1427.24    1481.3711   -1259.6452    76.154314 
   24300    194.94344   -108.71261   0.17638892   -108.53622    864.04627    4.2406431    4.2406431    4.2406431    864.04627   -3481.7438    5798.8976    274.98507    1837.3275    985.05404    1107.5868    76.259716 
   24400    192.33991   -108.71025   0.17403319   -108.53622   -1532.1332    4.2420293    4.2420293    4.2420293   -1532.1332    -3170.924    6048.2096   -7473.6852    2454.9278   -826.73544    1481.8958    76.334524 
   24500    184.31185   -108.70319   0.16676924   -108.53642    360.81622    4.2389077    4.2389077    4.2389077    360.81622   -7851.9478    14101.174   -5166.7775   -473.51319    1956.8637    23.079609    76.166129 
   24600     173.2275   -108.69317   0.15673988   -108.53643    79.386063    4.2408893    4.2408893    4.2408893    79.386063    -2449.299    6816.3547   -4128.8975   -1925.1236    1313.2969   -341.55936    76.272998 
   24700    264.82342   -108.77548   0.23961779   -108.53586   -6385.4071    4.2417294    4.2417294    4.2417294   -6385.4071   -9687.6254   -4181.4316   -5287.1643    635.36489   -626.45979    1157.8978    76.318334 
   24800    168.09053   -108.68855   0.15209185   -108.53646    1789.8856    4.2391628    4.2391628    4.2391628    1789.8856     4986.964    600.36106   -217.66811    1165.0239   -14.662985    349.63731    76.179881 
   24900    197.34771   -108.71512   0.17856435   -108.53656   -842.47963    4.2401896    4.2401896    4.2401896   -842.47963   -6385.5131    11439.174   -7581.0999    235.25874    2020.8791   -1142.8324    76.235249 
   25000    178.47608   -108.69838    0.1614889   -108.53689    1495.6037    4.2408892    4.2408892    4.2408892    1495.6037    -4228.914    9086.2569   -370.53163    4454.4444   -1752.6894   -147.17063    76.272993 
   25100    182.10018   -108.70148   0.16476807   -108.53671    2697.8816    4.2399131    4.2399131    4.2399131    2697.8816   -4963.9415    15062.013   -2004.4265    -895.7328    1341.2474    22.965617     76.22034 
   25200    237.12443   -108.75027   0.21455517   -108.53572   -1726.1561    4.2398359    4.2398359    4.2398359   -1726.1561   -4596.9986    1271.8836   -1853.3533   -1282.5559    3319.1395   -1477.7601    76.216172 
   25300    242.67627   -108.75529   0.21957859   -108.53571   -2881.4296     4.241999     4.241999     4.241999   -2881.4296   -6645.7869    -1994.153   -4.3488907   -1543.8579   -1178.6939    1506.3257    76.332889 
   25400    182.95963   -108.70158   0.16554572   -108.53603    1924.6716    4.2396903    4.2396903    4.2396903    1924.6716   -2007.4807    10001.062   -2219.5668    1322.1366    402.60854    1921.9008    76.208322 
   25500     173.8338   -108.69399   0.15728848    -108.5367    1287.5244     4.239206     4.239206     4.239206    1287.5244   -3394.9764    10981.074   -3723.5248   -649.47334    1384.2918    26.970934    76.182211 
   25600     155.4695   -108.67744   0.14067207   -108.53677    2606.3319    4.2424231    4.2424231    4.2424231    2606.3319   -7944.4882    10340.961    5422.5231    740.47282   -282.48678    519.68224    76.355782 
   25700    263.91468   -108.77513   0.23879554   -108.53633   -2917.3499    4.2387867    4.2387867    4.2387867   -2917.3499   -469.82315   -1102.8151   -7179.4114    1461.0838    -1133.301   -972.95961    76.159605 
   25800     165.7147   -108.68689   0.14994214   -108.53695   -583.33867    4.2396566    4.2396566    4.2396566   -583.33867   -6694.2491   -1460.0017    6404.2347   -4548.4367    1773.0861   -1217.8947    76.206508 
   25900      260.735   -108.77215   0.23591851   -108.53623   -5887.8225    4.2430165    4.2430165    4.2430165   -5887.8225   -7288.4197   -3632.0034   -6743.0444    1857.5863    643.88451   -1127.3499    76.387827 
   26000    162.87007   -108.68397   0.14736827    -108.5366    5958.7174    4.2374817    4.2374817    4.2374817    5958.7174   -306.02128    15656.639    2525.5348   -136.78123   -1618.4342    2710.2614    76.089285 
   26100    132.92657   -108.65732   0.12027475   -108.53705    3154.6947    4.2410195    4.2410195    4.2410195    3154.6947   -559.84912      9346.99    676.94319    1279.5867    2014.8921   -316.30238    76.280019 
   26200    248.64989   -108.76081   0.22498364   -108.53583   -4089.6015    4.2421778    4.2421778    4.2421778   -4089.6015   -6813.5706    3126.2329   -8581.4669   -1874.8931   -433.77464     319.7496    76.342541 
   26300    196.59406   -108.71371   0.17788244   -108.53583    4244.1501    4.2375901    4.2375901    4.2375901    4244.1501    4502.7036    2255.3465       5974.4   -104.59633   -1106.2715    1689.4517    76.095124 
   26400    279.77224   -108.78918    0.2531438   -108.53604   -7515.5944    4.2424237    4.2424237    4.2424237   -7515.5944   -10709.074    -412.9076   -11424.801    -1469.892    2362.2425   -1226.0509    76.355817 
   26500    120.89238   -108.64655   0.10938596   -108.53716    4273.8156    4.2404823    4.2404823    4.2404823    4273.8156    1376.9547    10566.626    877.86624   -2163.6798   -213.60381   -935.92382     76.25104 
   26600    238.81049   -108.75208   0.21608075     -108.536    2151.8707     4.238533     4.238533     4.238533    2151.8707   -2757.9254    14469.082   -5255.5445    5149.3833   -1247.0717   -506.64774    76.145932 
   26700    132.81745   -108.65701   0.12017602   -108.53683    2003.6686    4.2418533    4.2418533    4.2418533    2003.6686     1412.119    10070.532   -5471.6453    298.14303    921.79149     1764.089    76.325021 
   26800    219.72102   -108.73529   0.19880819   -108.53648   -4862.6353    4.2398606    4.2398606    4.2398606   -4862.6353   -4847.7675   -4256.8932   -5483.2452    245.39202    1701.6783   -3116.7243    76.217507 
   26900    256.44427   -108.76779   0.23203617   -108.53576   -2225.7542    4.2405331    4.2405331    4.2405331   -2225.7542   -5929.7462     686.2018   -1433.7183   -2980.2636   -1371.0491    172.44053    76.253778 
   27000    185.33147   -108.70455   0.16769181   -108.53686   -868.81455    4.2405819    4.2405819    4.2405819   -868.81455   -3472.8641    3751.0489   -2884.6284   -190.81158    2447.4142    1639.1055    76.256409 
   27100    179.70688   -108.69963   0.16260256   -108.53703   -2461.8452    4.2406282    4.2406282    4.2406282   -2461.8452   -9495.5641     8132.497   -6022.4685   -2467.5694    2872.2343   -922.12833    76.258908 
   27200    170.25965   -108.69063   0.15405451   -108.53657    3375.1229    4.2406702    4.2406702    4.2406702    3375.1229   -2407.4545    13187.155   -654.33215    1153.1916    -1465.692    826.69898    76.261176 
   27300    235.57964   -108.74963   0.21315741   -108.53647   -3226.9326    4.2397533    4.2397533    4.2397533   -3226.9326   -7288.3687    -314.4312    -2077.998     3653.877     1766.461   -45.576573    76.211719 
   27400    189.16787   -108.70805   0.17116307   -108.53689   -3485.6604     4.241408     4.241408     4.241408   -3485.6604   -3120.5055   -4102.0295   -3234.4461   -3187.9649    1443.0524   -128.75098    76.300987 
   27500    220.30527    -108.7358   0.19933684   -108.53646    1077.3706    4.2397863    4.2397863    4.2397863    1077.3706   -8082.3638    5844.1543    5470.3213    630.41141   -1002.9771    -2396.497      76.2135 
   27600     207.1208   -108.72373   0.18740726   -108.53632    2024.7579    4.2391215    4.2391215    4.2391215    2024.7579   -352.57341    9887.3951   -3460.5479   -1241.4215    1060.8077    1288.0124    76.177655 
   27700    155.22893   -108.67724    0.1404544   -108.53679   -22.339093    4.2422872    4.2422872    4.2422872   -22.339093   -12135.615    13919.612   -1851.0137    255.47624     1008.009   -308.58656    76.348446 
   27800    183.40922   -108.70189   0.16595252   -108.53593    3262.3902    4.2383166    4.2383166    4.2383166    3262.3902   -2593.0237    4026.5622    8353.6322   -376.36815    191.40375   -323.82915    76.134271 
   27900    279.48626   -108.78809   0.25288505   -108.53521   -3170.2914    4.2403659    4.2403659    4.2403659   -3170.2914   -4247.1447    1541.9736   -6805.7031    239.79722   -621.02528    1071.1395    76.244762 
   28000    156.00727    -108.6779   0.14115866   -108.53674    1047.9791    4.2422091    4.2422091    4.2422091    1047.9791    -2278.356   -947.91898    6370.2123   -1461.2566    1204.4735   -861.23689    76.344227 
   28100    214.63198   -108.73096   0.19420352   -108.53676      494.969    4.2376152    4.2376152    4.2376152      494.969   -2933.4302     9840.343   -5422.0057   -4115.3261    212.12885   -2357.7414    76.096478 
   28200    169.53774   -108.68981   0.15340131   -108.53641    2220.9889    4.2418994    4.2418994    4.2418994    2220.9889   -4237.1967    10656.018    244.14552    712.90219   -1738.7734   -959.00493    76.327511 
   28300    223.39637   -108.73843   0.20213373    -108.5363   -3946.2352    4.2421417    4.2421417    4.2421417   -3946.2352    -9194.615    673.21376   -3317.3044    98.973652    2311.2331    868.73619    76.340592 
   28400    186.42511   -108.70485   0.16868136   -108.53616    1180.5774    4.2369016    4.2369016    4.2369016    1180.5774    672.30073    3658.0972   -788.66574    353.06297   -760.97047   -2749.1261    76.058043 
   28500    242.62588   -108.75536     0.219533   -108.53582    -3832.648    4.2430538    4.2430538    4.2430538    -3832.648   -3289.0685   -6214.7212   -1994.1543    398.19586   -1146.4952    308.07243    76.389843 
   28600    207.59908   -108.72456   0.18784001   -108.53672   -1186.8871    4.2405625    4.2405625    4.2405625   -1186.8871   -1513.2346    7357.7074    -9405.134   -2191.8965    1564.2125    481.39779    76.255366 
   28700     104.9441   -108.63266  0.094955626   -108.53771    6502.9506    4.2373368    4.2373368    4.2373368    6502.9506    752.38182    15818.033    2938.4369   -4614.2808    424.17783   -798.93758     76.08148 
   28800    230.26622   -108.74459   0.20834972   -108.53624   -3146.9035     4.243316     4.243316     4.243316   -3146.9035   -10238.618    10251.439   -9453.5311   -1420.3849    291.87489   -331.89943    76.404005 
   28900    207.40937    -108.7237   0.18766836   -108.53603    405.36301    4.2406107    4.2406107    4.2406107    405.36301   -163.21145    2289.2391   -909.93865    983.33244    758.98186    564.56282    76.257966 
   29000     239.3382   -108.75245   0.21655823   -108.53589   -1205.3351    4.2378372    4.2378372    4.2378372   -1205.3351    -6241.949    5223.5857   -2597.6419   -485.63826    1985.0859   -1534.7282    76.108437 
   29100    199.44786   -108.71708   0.18046462   -108.53662   -1762.3548    4.2426088    4.2426088    4.2426088   -1762.3548   -3721.9466    1694.3892    -3259.507   -642.82158   -1323.3467   -1115.9315     76.36581 
   29200    214.40713   -108.73011   0.19400008   -108.53611   -101.52297    4.2412365    4.2412365    4.2412365   -101.52297   -9009.0631    12609.212   -3904.7179    248.43051    1811.3614    748.07918     76.29173 
   29300    124.95183   -108.64985   0.11305904    -108.5368    7269.4485    4.2369338    4.2369338    4.2369338    7269.4485    3584.5293    18287.746    -63.92975   -4319.7605    1954.1696   -543.85059    76.059775 
   29400    227.17807   -108.74193    0.2055555   -108.53637   -5511.7831    4.2424968    4.2424968    4.2424968   -5511.7831   -9179.9513   -5407.7526   -1947.6453   -2078.0815   -2037.7349   -708.40397    76.359762 
   29500    230.16872   -108.74424   0.20826149   -108.53598   -3174.2594    4.2418325    4.2418325    4.2418325   -3174.2594   -1963.5057   -1995.5107   -5563.7618    1252.0831    3312.0675    124.77462    76.323896 
   29600     207.1815   -108.72441   0.18746218   -108.53695    1929.0882    4.2365973    4.2365973    4.2365973    1929.0882   -5163.1939    7409.9142    3540.5442   -1422.2664    229.24905     83.63587    76.041656 
   29700    163.70339   -108.68577   0.14812227   -108.53765   -1921.1755    4.2423211    4.2423211    4.2423211   -1921.1755    -9166.216    2487.9275    914.76183   -922.76002   -160.38869   -3160.5577    76.350275 
   29800    193.28056   -108.71123   0.17488431   -108.53635   -1266.3542    4.2426474    4.2426474    4.2426474   -1266.3542   -7453.0293    12810.095   -9156.1279   -2120.5478     804.8489    1590.7457    76.367895 
   29900    204.50193   -108.72095   0.18503764   -108.53591    3883.1358    4.2365923    4.2365923    4.2365923    3883.1358    1757.9028    4042.4316    5849.0729    -1872.265    830.54624   -49.349581    76.041386 
   30000     186.2711   -108.70465   0.16854201   -108.53611   -1575.1085    4.2416483    4.2416483    4.2416483   -1575.1085   -3367.0023   -1968.3641    610.04094   -3509.7533     155.0892   -1836.2004    76.313957 
   30100    251.23989   -108.76292   0.22732713   -108.53559   -4091.5873    4.2429053    4.2429053    4.2429053   -4091.5873    -6388.009    2841.0476   -8727.8005    2519.7871   -995.99881    86.472842    76.381821 
   30200    178.87842   -108.69833   0.16185295   -108.53648    7814.3256    4.2367041    4.2367041    4.2367041    7814.3256   -455.11261    11538.926    12359.164    1283.9901    3107.1318     148.7286    76.047408 
   30300    183.87125   -108.70342   0.16637057   -108.53705   -83.684496    4.2404896    4.2404896    4.2404896   -83.684496   -7241.4188    15199.475   -8209.1093   -2989.5035   -1899.7566   -897.66935    76.251435 
   30400    205.86983   -108.72241   0.18627535   -108.53613   -2226.3995    4.2433027    4.2433027    4.2433027   -2226.3995   -3784.2999   -2101.0183   -793.88041   -626.16302    228.65844   -1836.6892    76.403284 
   30500    224.91544   -108.73905   0.20350822   -108.53554    4214.6014     4.237893     4.237893     4.237893    4214.6014    731.10736    10638.045    1274.6517   -1901.1167    1902.1565    2175.5387    76.111446 
   30600    200.06123   -108.71751   0.18101961   -108.53649   -1035.1055    4.2389521    4.2389521    4.2389521   -1035.1055    2904.2753    -3139.379   -2870.2128   -243.97368   -1312.4775   -2449.2383    76.168521 
   30700    164.33432    -108.6855   0.14869315    -108.5368   -3286.7526    4.2442739    4.2442739    4.2442739   -3286.7526   -7971.0587    2721.9259   -4611.1249    217.75921    789.26546   -849.79745    76.455762 
   30800     208.1834   -108.72448   0.18836871   -108.53611    2819.2814    4.2390587    4.2390587    4.2390587    2819.2814    2307.0256    13654.456   -7503.6377    2173.8982    832.19667   -762.35506    76.174269 
   30900    172.39711   -108.69252   0.15598853   -108.53654    1919.8465    4.2372251    4.2372251    4.2372251    1919.8465   -5183.6839     7182.365    3760.8583   -2638.9648    588.40941   -396.20238    76.075466 
   31000    214.94807   -108.73056   0.19448953   -108.53607   -8205.1056     4.245716     4.245716     4.245716   -8205.1056   -4736.5046    -7255.178   -12623.634    -2922.392   -1059.3792   -908.53045    76.533719 
   31100    262.54766   -108.77317   0.23755864   -108.53561   -1399.1338    4.2389852    4.2389852    4.2389852   -1399.1338   -3876.0597    1290.8454   -1612.1871    1326.5013    2944.9001    128.59728    76.170305 
   31200    163.50139   -108.68491   0.14793949   -108.53697    4705.0127    4.2364377    4.2364377    4.2364377    4705.0127    6608.5311    9052.1044   -1545.5973   -357.13445    850.55223    640.28623     76.03306 
   31300    185.63936   -108.70516    0.1679704   -108.53719    -5635.694    4.2460434    4.2460434    4.2460434    -5635.694    -9852.966    3779.7706   -10833.887    1394.1806   -758.27037   -3810.8518    76.551427 
   31400    158.98684   -108.68037   0.14385464   -108.53651    5928.0539    4.2382686    4.2382686    4.2382686    5928.0539   -652.15253    19545.218   -1108.9037    1046.4566     3979.129    1276.5136    76.131681 
   31500    260.00589   -108.77051   0.23525879   -108.53525    -525.9152    4.2378265    4.2378265    4.2378265    -525.9152   -2587.3902    2339.4736    -1329.829   -1588.1867   -333.70943   -1038.1759    76.107863 
   31600    201.98584   -108.71848   0.18276103   -108.53571   -7183.7706    4.2452398    4.2452398    4.2452398   -7183.7706    -11971.42    -2386.608   -7193.2835   -3316.9696    95.308942   -496.31824    76.507972 
   31700    208.40618   -108.72431   0.18857029   -108.53574    218.78868    4.2386178    4.2386178    4.2386178    218.78868   -1597.3539    6918.9099     -4665.19    -592.0894    2067.3702   -27.385676    76.150502 
   31800    221.03959   -108.73597   0.20000126   -108.53597    2230.5291    4.2395764    4.2395764    4.2395764    2230.5291   -4840.1514    13042.829   -1511.0902    1809.3339    670.71357   -225.76953    76.202179 
   31900    100.54843    -108.6284  0.090978328   -108.53743     2245.185     4.241763     4.241763     4.241763     2245.185   -3872.1828    9867.2474    740.49031   -1111.3788    554.33848   -2100.9629    76.320148 
   32000    241.62985   -108.75504   0.21863177   -108.53641   -4374.3942    4.2400138    4.2400138    4.2400138   -4374.3942   -6990.0271    933.90159   -7067.0572    1263.6447    1481.3951   -2479.8558    76.225769 
   32100    228.68881   -108.74257   0.20692244   -108.53565    1280.8781    4.2402977    4.2402977    4.2402977    1280.8781   -231.19322    469.72724    3604.1002    712.00104    1613.1492    1402.5241    76.241081 
   32200    205.64845   -108.72297   0.18607504   -108.53689   -2162.8862    4.2392481    4.2392481    4.2392481   -2162.8862   -7570.7347    1042.7747    39.301275   -4353.3651   -852.22599   -1483.2383    76.184481 
   32300    199.93308   -108.71831   0.18090365    -108.5374    -3027.168    4.2423344    4.2423344    4.2423344    -3027.168    -4339.818    2213.6082   -6955.2942    357.78105    1772.6775    666.67349    76.350997 
   32400    164.94122   -108.68571   0.14924228   -108.53647    6426.5145    4.2396548    4.2396548    4.2396548    6426.5145   -5779.9618    16936.515    8122.9898    333.32035    477.26852   -97.262596    76.206408 
   32500    220.97634   -108.73598   0.19994404   -108.53603   -322.51499    4.2380073    4.2380073    4.2380073   -322.51499    4727.9547    560.91888   -6256.4186   -790.58988   -1098.8208   -1507.7811    76.117605 
   32600    170.22569   -108.69047   0.15402378   -108.53644   -1907.3825    4.2434651    4.2434651    4.2434651   -1907.3825   -7122.8605    1611.4227   -210.70972   -1821.6095    827.01029   -1873.0406    76.412059 
   32700    241.68181   -108.75423   0.21867878   -108.53555    1251.1863    4.2393065    4.2393065    4.2393065    1251.1863    2323.9978    4455.1596   -3025.5985   -453.63881    1558.0922    302.93353     76.18763 
   32800    214.47454    -108.7303   0.19406108   -108.53624     2944.176    4.2381191    4.2381191    4.2381191     2944.176   -2293.7834    9740.5035    1385.8079   -502.26453   -692.45678     22.15544    76.123629 
   32900    127.12051   -108.65251   0.11502131   -108.53749    1076.8719    4.2432934    4.2432934    4.2432934    1076.8719   -4569.9057    13261.093   -5460.5714   -944.61081   -96.701226   -1920.0285    76.402782 
   33000    239.97052   -108.75325   0.21713037   -108.53612    -814.8693    4.2389263    4.2389263    4.2389263    -814.8693   -1197.7708    5303.8255   -6550.6626    4082.9763    3163.7082    488.51801    76.167134 
   33100    198.16655   -108.71534   0.17930526   -108.53604     3829.012    4.2390757    4.2390757    4.2390757     3829.012    2805.4123    6634.3962    2047.2275   -805.08663   -112.27763   -396.58148    76.175184 
   33200    236.90249   -108.75082   0.21435435   -108.53647   -6564.4501    4.2424513    4.2424513    4.2424513   -6564.4501   -2930.4244   -9225.3286   -7537.5974   -2939.8819    781.05832   -1807.7217    76.357305 
   33300    166.86047   -108.68818   0.15097886    -108.5372   -60.720463     4.240116     4.240116     4.240116   -60.720463   -5699.2248    8985.3947   -3468.3313   -2478.0343    2909.6212    786.38007    76.231279 
   33400    208.31061   -108.72474   0.18848382   -108.53625    1727.9488    4.2404248    4.2404248    4.2404248    1727.9488   -1056.5771    10515.607   -4275.1841   -865.47209    59.887983    1389.4087    76.247938 
   33500     185.1243   -108.70404   0.16750435   -108.53654    -3010.954    4.2401965    4.2401965    4.2401965    -3010.954   -8145.0463     6748.559   -7636.3747   -1452.6194    243.66268   -2725.2675    76.235624 
   33600    165.11879   -108.68578   0.14940295   -108.53638   -3549.0904    4.2415834    4.2415834    4.2415834   -3549.0904   -2581.3943   -1388.2953   -6677.5814   -77.312645    2946.1641   -1776.1176    76.310456 
   33700    288.44604   -108.79595   0.26099204   -108.53495   -4038.1619    4.2410497    4.2410497    4.2410497   -4038.1619   -7461.1069   -818.75267   -3834.6262     2830.877    1045.6645   -639.88812    76.281651 
   33800    157.82373   -108.67917   0.14280222   -108.53637     2288.214    4.2378982    4.2378982    4.2378982     2288.214    3627.0787    3010.1817    227.38162   -4124.4923    524.96775   -144.18211    76.111726 
   33900    171.65012   -108.69215   0.15531264   -108.53684   -4518.5302    4.2432883    4.2432883    4.2432883   -4518.5302   -13441.351    8815.3329   -8929.5721    -103.8114    4175.1069   -468.25697    76.402507 
   34000    182.21819    -108.7011   0.16487484   -108.53623    4979.1153    4.2394734    4.2394734    4.2394734    4979.1153    2270.4084    15094.124   -2427.1868   -174.34976    70.694663    1462.0083    76.196629 
   34100    239.32298   -108.75251   0.21654446   -108.53597    1206.7939    4.2377649    4.2377649    4.2377649    1206.7939   -6426.3825    4667.4255    5379.3387   -1563.1842   -234.78483    196.21935     76.10454 
   34200    197.24254   -108.71515   0.17846919   -108.53668   -5022.3729    4.2434145    4.2434145    4.2434145   -5022.3729   -3478.4942   -171.75193   -11416.873   -134.37256    3259.1389   -2528.3063    76.409325 
   34300    230.63617   -108.74549   0.20868445   -108.53681    472.13333    4.2399959    4.2399959    4.2399959    472.13333   -3448.9345    1036.0448    3829.2897   -291.02451   -471.27911   -181.64401    76.224804 
   34400    215.12298   -108.73106    0.1946478   -108.53641    3909.5229    4.2381926    4.2381926    4.2381926    3909.5229    295.43394    11320.555    112.58009   -137.07354    302.87872   -1217.4604    76.127586 
   34500    135.71651   -108.65999   0.12279915   -108.53719   -786.58269     4.242459     4.242459     4.242459   -786.58269    -3384.536    8204.4373   -7179.6494   -1758.9641    1248.2657    92.013075    76.357723 
   34600    188.84895   -108.70733    0.1708745   -108.53645    1171.6573    4.2404705    4.2404705    4.2404705    1171.6573   -5117.3701    3214.0234    5418.3185    3862.6035    1771.1629   -507.14043      76.2504 
   34700    280.20503   -108.78891    0.2535354   -108.53538    824.70868    4.2380143    4.2380143    4.2380143    824.70868    4088.2422    1627.3114   -3241.4275    440.76547   -1168.3843      1123.82    76.117981 
   34800    156.56627   -108.67927   0.14166445   -108.53761   -1689.1108    4.2410462    4.2410462    4.2410462   -1689.1108   -3437.3679   -2146.2618     516.2974   -1387.7736    1157.2656   -2190.0446    76.281462 
   34900    208.84634   -108.72628   0.18896856   -108.53731   -3686.6355    4.2426422    4.2426422    4.2426422   -3686.6355   -1853.4746   -1392.6842   -7813.7477   -898.04809    2970.2787   -375.12435    76.367615 
   35000    186.00795   -108.70435    0.1683039   -108.53604    8730.3965    4.2371224    4.2371224    4.2371224    8730.3965    1408.2875    21130.336    3652.5662   -1236.4364   -1923.4049    1949.3635     76.06993 
   35100    163.89356   -108.68473   0.14829433   -108.53643    938.57953    4.2407308    4.2407308    4.2407308    938.57953   -981.60989     3908.561   -111.21255   -2006.5855    2077.3416   -1745.6611    76.264447 
   35200    221.20419   -108.73601    0.2001502   -108.53586   -6090.8066    4.2436833    4.2436833    4.2436833   -6090.8066   -9857.3074    1618.9573    -10034.07    825.71609    695.83053   -345.90657    76.423848 
   35300    237.99792   -108.75048   0.21534552   -108.53513    4554.3181    4.2367934    4.2367934    4.2367934    4554.3181    5634.8201     3684.732    4343.4023    2673.0681   -669.54885   -2069.9199    76.052211 
   35400    244.70424   -108.75737   0.22141353   -108.53595   -3752.2757    4.2414123    4.2414123    4.2414123   -3752.2757    -8596.381    3877.7104   -6538.1565   -498.64838    1012.5173   -56.683543     76.30122 
   35500    117.17674   -108.64342   0.10602398    -108.5374    93.941089    4.2433011    4.2433011    4.2433011    93.941089   -1195.7999    9900.6502    -8423.027   -734.41534    1995.8911   -1073.5198      76.4032 
   35600    234.79054   -108.74831   0.21244342   -108.53586    3075.2931    4.2368577    4.2368577    4.2368577    3075.2931   -4271.2421    10419.976    3077.1451    132.70042     767.1126    2582.1744    76.055675 
   35700    170.51776   -108.69046   0.15428805   -108.53618    561.00706    4.2408747    4.2408747    4.2408747    561.00706    469.54096    6827.3477   -5613.8675    -861.5518    285.21228    1412.7648    76.272206 
   35800    221.60512    -108.7373   0.20051297   -108.53679   -10003.052    4.2427699    4.2427699    4.2427699   -10003.052   -12974.243   -10369.452   -6665.4594   -1116.2833    4877.6286    -2492.584    76.374511 
   35900    193.13664   -108.71181   0.17475409   -108.53706    1917.4842    4.2383924    4.2383924    4.2383924    1917.4842    1399.0214     4277.361    76.070171    2904.2669   -1523.7103   -334.46225    76.138354 
   36000    245.50774   -108.75876   0.22214057   -108.53662    -3406.818    4.2409799    4.2409799    4.2409799    -3406.818   -7667.6899    2158.7082   -4711.4722   -1646.5898    502.38706   -2106.8538    76.277885 
   36100    109.27171   -108.63592  0.098871338   -108.53705   -1397.3294    4.2415895    4.2415895    4.2415895   -1397.3294   -5064.8921    8615.9823   -7743.0783   -487.95792    4044.5851   -787.62896    76.310784 
   36200    229.58958   -108.74387   0.20773748   -108.53613   -912.23662    4.2399405    4.2399405    4.2399405   -912.23662   -2002.0633    2351.8906   -3086.5371    1250.0319   -1251.4975     517.1277    76.221813 
   36300    214.77671   -108.73024   0.19433448   -108.53591    2078.9219    4.2391833    4.2391833    4.2391833    2078.9219   -4719.7717    5752.9878    5203.5497    396.29437    1666.3543    2347.3916    76.180986 
   36400    208.77068   -108.72551   0.18890009   -108.53661   -4778.7011    4.2416074    4.2416074    4.2416074   -4778.7011    -1625.813    -3396.872   -9313.4181    966.54303    1475.3788   -2504.3011     76.31175 
   36500    215.50687   -108.73165   0.19499515   -108.53665    111.12655    4.2411318    4.2411318    4.2411318    111.12655    -8387.664    5327.0208    3394.0228   -762.78855    1502.7333   -1427.9351    76.286081 
   36600    158.43265   -108.67978   0.14335319   -108.53642    8635.6703    4.2371989    4.2371989    4.2371989    8635.6703    6084.5345    20003.233   -180.75675     1592.597    47.809954    1619.4247    76.074055 
   36700    235.92788   -108.74954    0.2134725   -108.53607   -4619.8167    4.2421696    4.2421696    4.2421696   -4619.8167   -9208.4578    2849.5239   -7500.5161   -3728.2248    1288.0556   -947.34333    76.342095 
   36800    143.04008   -108.66629   0.12942567   -108.53686    3702.6352    4.2410472    4.2410472    4.2410472    3702.6352     902.8152    4312.3705      5892.72    1088.0093    2117.3391   -409.92724    76.281514 
   36900    293.60172    -108.8019   0.26565701   -108.53624   -1903.3598    4.2368889    4.2368889    4.2368889   -1903.3598   -1734.4131   -745.86911   -3229.7971     1035.318   -2290.5342   -678.62857    76.057359 
   37000    148.73452   -108.67172   0.13457812   -108.53714   -401.15946    4.2437102    4.2437102    4.2437102   -401.15946    -2448.261    1312.6055   -67.822885    563.73189    1686.9247   -418.19297    76.425298 
   37100    212.56927    -108.7286   0.19233715   -108.53626   -1782.4538    4.2404269    4.2404269    4.2404269   -1782.4538   -7174.7134    8650.0004   -6822.6483      155.838   -323.74605   -2587.9453    76.248052 
   37200    173.55269   -108.69304   0.15703412   -108.53601    4977.1465    4.2370603    4.2370603    4.2370603    4977.1465    4633.9594    8142.5362    2154.9439   -1494.5847    -1381.074    2403.0043    76.066585 
   37300    220.15637   -108.73508   0.19920211   -108.53588    -5871.328    4.2442968    4.2442968    4.2442968    -5871.328   -10662.992   -197.41541   -6753.5765    450.71936    1689.9213    1667.3026    76.456998 
   37400    199.90167   -108.71703   0.18087523   -108.53615    -1154.146    4.2391565    4.2391565    4.2391565    -1154.146    1994.8663   -2643.0434   -2814.2611   -3375.1647    2009.3627   -938.02563    76.179541 
   37500    211.06901   -108.72735   0.19097967   -108.53637    1493.1043     4.238751     4.238751     4.238751    1493.1043   -2264.0436    2985.8531    3757.5034    4236.6418    1049.5633   -780.63902    76.157684 
   37600    182.18375   -108.70124   0.16484369    -108.5364   -1642.3949    4.2432374    4.2432374    4.2432374   -1642.3949   -3843.4899     7360.162   -8443.8567   -912.56827    227.23788   -1918.1441     76.39976 
   37700    182.50357   -108.70107   0.16513306   -108.53593    676.28239    4.2387922    4.2387922    4.2387922    676.28239   -5168.2726    8783.3321   -1586.2124   -457.96271    3015.8508   -2163.1372    76.159903 
   37800    202.88457   -108.71915   0.18357422   -108.53558    1099.0241    4.2399291    4.2399291    4.2399291    1099.0241   -2851.7646    10415.239   -4266.4024    991.74416   -1616.6073   -108.37795    76.221201 
   37900    240.11867   -108.75327   0.21726442     -108.536   -5097.7821     4.241837     4.241837     4.241837   -5097.7821   -2845.6265   -4584.2352   -7863.4846   -1232.0357    605.42437    2734.4997     76.32414 
   38000    191.56257   -108.71009   0.17332984   -108.53676   -497.37234    4.2400265    4.2400265    4.2400265   -497.37234   -5464.0296     8632.254   -4660.3414    984.21017    4112.6911   -663.68225    76.226453 
   38100    207.98708   -108.72465   0.18819108   -108.53646    1031.0208    4.2399268    4.2399268    4.2399268    1031.0208    2565.6806    2721.9343   -2194.5525   -409.72942   -989.94255   -1709.6156    76.221077 
   38200    176.25778   -108.69588   0.15948174    -108.5364   -1081.6438    4.2405061    4.2405061    4.2405061   -1081.6438   -10180.384    9253.3526   -2317.9001     4151.459    2292.9223   -161.93369    76.252322 
   38300     165.1744   -108.68585   0.14945327    -108.5364    227.13167    4.2405875    4.2405875    4.2405875    227.13167    -333.3164    8652.1846   -7637.4732   -2580.0501    3193.0533   -518.90939    76.256713 
   38400    288.38118   -108.79657   0.26093335   -108.53564   -5306.2087    4.2398619    4.2398619    4.2398619   -5306.2087   -7529.7501   -5032.2858   -3356.5901    1022.6727   -54.665456   -1348.2463    76.217578 
   38500    131.72025    -108.6566   0.11918325   -108.53742    1177.6587    4.2398914    4.2398914    4.2398914    1177.6587    2825.1299    1747.4033    -1039.557    1337.7887    2110.3501    1232.7091    76.219168 
   38600    272.65884   -108.78348   0.24670744   -108.53677   -7888.4778    4.2421229    4.2421229    4.2421229   -7888.4778   -10113.028   -1640.0148    -11912.39    68.378687     2146.715   -665.34418    76.339576 
   38700    101.10893   -108.62854  0.091485484   -108.53705    8005.1348    4.2383018    4.2383018    4.2383018    8005.1348    3187.3265    14023.878    6804.2001    744.16911    635.69251   -2844.3964    76.133474 
   38800    247.35574    -108.7599   0.22381267   -108.53609   -5599.5111    4.2408772    4.2408772    4.2408772   -5599.5111   -7766.7647   -1636.5488   -7395.2198   -188.52394   -491.35979    672.68303    76.272341 
   38900    162.21324    -108.6831   0.14677395   -108.53633    938.34536    4.2413119    4.2413119    4.2413119    938.34536   -1547.0801    7614.6143   -3252.4982    219.13923    1843.6395    148.99831    76.295798 
   39000     254.3963   -108.76601   0.23018312   -108.53583    -80.06237    4.2390665    4.2390665    4.2390665    -80.06237    510.87262   -3166.0349    2414.9751   -2066.6875   -344.56372    489.78419    76.174688 
   39100    226.22256   -108.74102   0.20469092   -108.53633   -2076.7368    4.2411858    4.2411858    4.2411858   -2076.7368   -3919.2181    5977.9813   -8288.9734    2800.8175   -423.20346    621.67331    76.288998 
   39200    125.72107   -108.65112   0.11375506   -108.53737    4701.9406    4.2406308    4.2406308    4.2406308    4701.9406    356.12481    11994.577    1755.1204     1164.462    3473.0376    638.63712    76.259049 
   39300    254.82928   -108.76649   0.23057489   -108.53591    1301.6717    4.2388448    4.2388448    4.2388448    1301.6717   -1330.8989    8640.9218   -3405.0078    1175.5517    976.14174    -4208.327     76.16274 
   39400    148.08327   -108.67058   0.13398886    -108.5366    3419.2343    4.2410065    4.2410065    4.2410065    3419.2343   -271.89408    6194.2968    4335.3002    564.33008    215.09541   -1165.8249     76.27932 
   39500    237.44429    -108.7516   0.21484459   -108.53676   -4052.4633    4.2406777    4.2406777    4.2406777   -4052.4633   -3514.8135   -5257.5757   -3385.0008    574.49418    1805.1713    1924.6083    76.261579 
   39600    206.74563   -108.72355   0.18706779   -108.53648     1604.621    4.2400051    4.2400051    4.2400051     1604.621   -1808.7354     7766.999   -1144.4006   -1790.3909    589.08063    923.64412    76.225298 
   39700    226.32984   -108.74084   0.20478799   -108.53605   -3377.7279    4.2407655    4.2407655    4.2407655   -3377.7279   -5998.9939    411.10176   -4545.2915    778.82822    -1449.235     324.1589    76.266316 
   39800    135.56649   -108.65925   0.12266341   -108.53659   -155.00812    4.2410049    4.2410049    4.2410049   -155.00812    404.12239    6858.7812    -7727.928    2323.7483    1613.1899    484.09763    76.279231 
   39900    224.76728   -108.73897   0.20337416   -108.53559   -142.16353    4.2394912    4.2394912    4.2394912   -142.16353   -6985.3985    5599.2241    959.68381    229.99039    2944.3757   -387.08374    76.197588 
   40000    205.02557   -108.72129   0.18551145   -108.53578    -879.2217    4.2403884    4.2403884    4.2403884    -879.2217    3456.7223   -3000.8215   -3093.5658    2268.0319    138.41921   -4028.3741    76.245974 
   40100    186.24684   -108.70535   0.16852005   -108.53683   -4990.2126     4.241808     4.241808     4.241808   -4990.2126   -11637.269   -1360.8786     -1972.49    402.01525    3233.2885    2768.4647    76.322577 
   40200    202.35168   -108.71966   0.18309205   -108.53657    732.60862    4.2384281    4.2384281    4.2384281    732.60862    878.81102    7305.3906   -5986.3757    1126.7829    3646.5731    558.86957    76.140279 
   40300    216.80735   -108.73216   0.19617185   -108.53599   -251.23672    4.2406845    4.2406845    4.2406845   -251.23672   -5861.4574    7124.6969   -2016.9496   -1375.0531   -1021.0796   -950.09943    76.261948 
   40400    169.73038   -108.69022   0.15357562   -108.53665   -2677.0225    4.2418131    4.2418131    4.2418131   -2677.0225   -5249.2422    5256.3308   -8038.1561     1615.033    2993.7551     369.0412    76.322853 
   40500    217.16628    -108.7328   0.19649661    -108.5363   -813.96684     4.238034     4.238034     4.238034   -813.96684   -3722.5336    4343.2061    -3062.573   -764.73543    2805.3672    331.71271    76.119042 
   40600     233.2332   -108.74733    0.2110343   -108.53629   -1277.0859      4.24166      4.24166      4.24166   -1277.0859   -3293.9168    819.32934   -1356.6702   -595.78378    -1201.534    1437.6697    76.314587 
   40700    183.79608   -108.70337   0.16630256   -108.53707   -3088.0226    4.2413955    4.2413955    4.2413955   -3088.0226   -5666.6507    2487.5403   -6084.9575    1381.4638    2287.7358    180.18445    76.300311 
   40800    160.22917   -108.68187   0.14497872   -108.53689    2669.5581    4.2377828    4.2377828    4.2377828    2669.5581   -1562.3527    11956.437   -2385.4106     37.56525    2046.2959     5232.546    76.105504 
   40900    223.88133   -108.73833   0.20257253   -108.53576    213.49928    4.2421798    4.2421798    4.2421798    213.49928   -419.91433     6015.558   -4955.1458    2827.0816    -239.5805   -2002.9178    76.342646 
   41000    226.25171   -108.74076    0.2047173   -108.53604   -5255.0151    4.2407358    4.2407358    4.2407358   -5255.0151   -6462.1413   -1664.0912   -7638.8129   -75.519433     977.6105    111.54621    76.264716 
   41100    157.45991   -108.67979   0.14247303   -108.53732     570.7454    4.2390089    4.2390089    4.2390089     570.7454    7277.0463   -1303.0699   -4261.7403    2256.6172    3517.7705    1620.3887    76.171582 
   41200    264.22949   -108.77518   0.23908039    -108.5361   -1622.7103    4.2418923    4.2418923    4.2418923   -1622.7103   -3759.4636   -585.30474   -523.36248   -3487.1973    1189.5517    449.39639    76.327126 
   41300    155.37308   -108.67698   0.14058483    -108.5364    3110.4649    4.2397678    4.2397678    4.2397678    3110.4649    4367.3722    6581.2646   -1617.2422    28.037702   -289.56058    3343.6145    76.212501 
   41400    160.78629   -108.68211   0.14548282   -108.53663    225.38083    4.2405117    4.2405117    4.2405117    225.38083   -2146.4829    5074.2105   -2251.5851    831.54465    2700.4339    2280.4345    76.252626 
   41500    214.27805   -108.72919   0.19388328    -108.5353    2069.4151    4.2404836    4.2404836    4.2404836    2069.4151    1582.8729    8675.9842   -4050.6117   -611.52288   -1018.4541    2282.7819    76.251107 
   41600    260.86579   -108.77135   0.23603684   -108.53531   -2139.5852    4.2403089    4.2403089    4.2403089   -2139.5852   -177.01186   -4183.5455   -2058.1982    3679.8992   -476.67314   -2388.0093    76.241687 
   41700    175.08902    -108.6951   0.15842423   -108.53667   -643.12118    4.2414595    4.2414595    4.2414595   -643.12118    3864.7727    3153.8621   -8947.9983    129.47375     2509.847    1641.0312    76.303768 
   41800    220.01366   -108.73598   0.19907299   -108.53691    2357.8279    4.2386536    4.2386536    4.2386536    2357.8279    209.15993    4804.9605    2059.3633    2284.3144    1103.4514     483.1332    76.152429 
   41900    213.64136   -108.72965   0.19330719   -108.53635    1530.6661    4.2409586    4.2409586    4.2409586    1530.6661    2562.4501    7697.1915   -5667.6434   -2970.4081    1703.5882    175.19294    76.276736 
   42000    112.68307   -108.63943   0.10195801   -108.53747    2073.4678    4.2408267    4.2408267    4.2408267    2073.4678   -2867.0551    11136.826   -2049.3675    1090.3239    2645.6905    3493.5106     76.26962 
   42100     224.0446   -108.73943   0.20272026   -108.53671   -687.23008    4.2383317    4.2383317    4.2383317   -687.23008   -1170.0111   -313.25789   -578.42128   -1313.0284    2919.7168    1047.0772    76.135084 
   42200    233.88484   -108.74781   0.21162392   -108.53618    -346.1002    4.2421682    4.2421682    4.2421682    -346.1002    1962.8473    719.54384   -3720.6917    -467.8515   -1189.6281    571.38462    76.342021 
   42300    225.54669   -108.74053   0.20407938   -108.53645    -6331.691    4.2407539    4.2407539    4.2407539    -6331.691   -8788.2759   -4603.6372     -5603.16    1855.9717    2456.4883   -1221.1152     76.26569 
   42400    147.01713   -108.66996   0.13302419   -108.53693     238.2447    4.2385619    4.2385619    4.2385619     238.2447    2763.9082    5989.9268   -8039.1009   -573.94296    2689.2355    3867.8598    76.147491 
   42500    246.28416   -108.75895   0.22284309    -108.5361   -1883.0953    4.2424952    4.2424952    4.2424952   -1883.0953   -6754.1801    1621.8056   -516.91141    2756.4666   -1474.1551    1077.6179    76.359678 
   42600    156.22764   -108.67869   0.14135805   -108.53733    621.56686    4.2393217    4.2393217    4.2393217    621.56686    587.11814    6136.5566   -4858.9742   -832.84865    3706.1574    1501.0205    76.188445 
   42700    167.71307   -108.68929   0.15175031   -108.53754   -2321.6392    4.2399506    4.2399506    4.2399506   -2321.6392   -3379.7978   -4211.4325    626.31276    2790.6014    843.49747     4194.411    76.222359 
   42800    265.84691   -108.77659   0.24054387   -108.53605   -3546.3236    4.2420573    4.2420573    4.2420573   -3546.3236    2574.6324   -5959.1166   -7254.4865   -2366.3067    434.21144    -969.8754    76.336035 
   42900    209.80673   -108.72629   0.18983754   -108.53645   -931.90562     4.239258     4.239258     4.239258   -931.90562   -1651.5911    2096.3844   -3240.5102   -510.00161    1518.2063   -152.85052    76.185013 
   43000    170.15374   -108.69097   0.15395868   -108.53701   -1607.7531    4.2409618    4.2409618    4.2409618   -1607.7531    2070.9812   -2191.2231   -4703.0174    807.04021    2682.2441    2977.3289    76.276906 
   43100    177.58825   -108.69706   0.16068558   -108.53637    4383.5765     4.240337     4.240337     4.240337    4383.5765    4741.0382    8423.8677   -14.176384   -934.69684   -168.49115    3444.6856    76.243198 
   43200    230.75356   -108.74466   0.20879067   -108.53587    1120.3047    4.2393836    4.2393836    4.2393836    1120.3047   -2037.1385   -95.879275    5493.9318    3645.2052   -781.27404   -104.25455    76.191786 
   43300    129.25567   -108.65382   0.11695325   -108.53687    2047.1353    4.2415552    4.2415552    4.2415552    2047.1353    8575.5517    1826.0492   -4260.1951    131.78915    3250.5245    2854.0986    76.308931 
   43400    269.39542   -108.77962   0.24375464   -108.53586   -2092.4615    4.2395763    4.2395763    4.2395763   -2092.4615     -3201.67   -5936.5576    2860.8432    2274.2082   -1844.2553   -304.62948    76.202176 
   43500    230.00607   -108.74385   0.20811433   -108.53574    2015.4953    4.2403505    4.2403505    4.2403505    2015.4953     8446.045    412.39004    -2811.949    -1555.301     1291.879   -1676.2072    76.243931 
   43600    179.65281   -108.69947   0.16255364   -108.53691   -589.77692    4.2413631    4.2413631    4.2413631   -589.77692   -4442.6876    2538.8489    134.50796    100.33122    2444.8649    1867.2448    76.298562 
   43700    167.21168    -108.6882   0.15129664    -108.5369    2380.2623    4.2387747    4.2387747    4.2387747    2380.2623    1666.6701     3317.899    2156.2179   -714.42563    1053.1471    1979.7629    76.158962 
   43800     200.0512   -108.71704   0.18101053   -108.53603     2724.692    4.2410411    4.2410411    4.2410411     2724.692   -611.72402    5746.0897    3039.7104   -2292.1262    1257.7433     2026.985    76.281185 
   43900    217.49873   -108.73328   0.19679742   -108.53649   -3262.0943    4.2412158    4.2412158    4.2412158   -3262.0943   -5853.2773   -3679.0167   -253.98877    2626.5213    939.09788    107.06783    76.290616 
   44000    169.18883   -108.68981    0.1530856   -108.53673     172.4327    4.2387878    4.2387878    4.2387878     172.4327    1673.3696    412.39769   -1568.4692   -558.72559    1474.3604    2246.6809    76.159667 
   44100    286.61803    -108.7953   0.25933802   -108.53596   -5193.0915    4.2421947    4.2421947    4.2421947   -5193.0915   -6631.6924   -5220.9085   -3726.6735    1849.8392   -1393.1387    -1414.785     76.34345 
   44200    151.37531   -108.67414   0.13696756   -108.53717    1551.6447    4.2398194    4.2398194    4.2398194    1551.6447    -2107.884    8747.0508   -1984.2327   -193.70155    3529.2094     1687.003    76.215283 
   44300    162.64757   -108.68454   0.14716694   -108.53737   -302.91595    4.2391989    4.2391989    4.2391989   -302.91595   -6414.9489    2547.3206    2958.8804    1644.7337    334.35293    4583.4478    76.181827 
   44400    216.47371   -108.73235   0.19586996   -108.53648   -1226.4867     4.242154     4.242154     4.242154   -1226.4867   -1489.4127   -586.58329    -1603.464     -279.369   -323.90739     1301.244    76.341255 
   44500    213.46906   -108.72973   0.19315129   -108.53658   -1553.4041    4.2393549    4.2393549    4.2393549   -1553.4041   -5258.1714    1393.9339   -795.97475   -1102.5363     3104.611   -1269.9875    76.190238 
   44600    214.60306   -108.73081   0.19417736   -108.53663   -5129.0511    4.2405947    4.2405947    4.2405947   -5129.0511    -3969.021    -5319.453   -6098.6792    1086.9933    632.47236    2077.2686    76.257101 
   44700    208.14846   -108.72465    0.1883371   -108.53631   -1898.3658    4.2419762    4.2419762    4.2419762   -1898.3658   -276.77085   -1048.7666   -4369.5598   -2348.2943    718.51482    2208.6471    76.331654 
   44800    201.57499   -108.71798   0.18238929    -108.5356    1530.7753    4.2389433    4.2389433    4.2389433    1530.7753   -2760.4091    3424.0954    3928.6398    2480.9931    137.63068    -1289.315    76.168048 
   44900    145.86153   -108.66823   0.13197858   -108.53625    1174.3772    4.2407838    4.2407838    4.2407838    1174.3772   -2191.8681    3965.8247     1749.175    891.00104    2202.1352    5665.9977    76.267304 
   45000    200.71797   -108.71766   0.18161383   -108.53605    -1206.984    4.2409403    4.2409403    4.2409403    -1206.984    3331.5994   -3973.2551   -2979.2962    1352.5766   -779.57315     77.83783    76.275747 
   45100      249.365   -108.76129   0.22563069   -108.53566   -1268.2574    4.2397618    4.2397618    4.2397618   -1268.2574   -4807.2851    2006.9442   -1004.4312    522.55505    64.544961   -1563.1637    76.212178 
   45200    204.68555   -108.72174   0.18520379   -108.53654   -938.42425    4.2408999    4.2408999    4.2408999   -938.42425    3602.7289   -3841.7119   -2576.2898   -256.44073     2182.415    220.91361    76.273571 
   45300     178.7298   -108.69811   0.16171848   -108.53639    1154.8561    4.2403664    4.2403664    4.2403664    1154.8561  -0.80048859    1311.7915    2153.5774   -283.44332   -386.74609    804.91517    76.244787 
   45400    202.52444   -108.71932   0.18324837   -108.53607    3078.6736    4.2399232    4.2399232    4.2399232    3078.6736   -2811.7338    7907.6285    4140.1262   -3048.5429    1404.6987     1936.996    76.220884 
   45500     178.7334   -108.69884   0.16172173   -108.53712    2805.5042     4.240081     4.240081     4.240081    2805.5042    2866.2277    3456.9689     2093.316    705.55506    1123.8419    1215.0316    76.229392 
   45600    201.40178   -108.71904   0.18223256   -108.53681    222.31519    4.2402659    4.2402659    4.2402659    222.31519   -6344.8007    6204.5661    807.18019    249.55463    336.60409    2753.2634    76.239363 
   45700    251.43536    -108.7636     0.227504    -108.5361   -826.38207    4.2408475    4.2408475    4.2408475   -826.38207    3771.7155   -1242.3904   -5008.4713    487.33697   -1066.7361   -2621.8727    76.270742 
   45800    202.99249   -108.72007   0.18367187   -108.53639    801.03699    4.2399157    4.2399157    4.2399157    801.03699   -6206.0307    5059.5931    3549.5486    1090.3351    2064.5554    1516.8808     76.22048 
   45900    178.14949   -108.69786    0.1611934   -108.53667   -440.83061     4.240033     4.240033     4.240033   -440.83061     -2378.02    5759.9956   -4704.4674    1405.3455      168.449    2745.5402    76.226803 
   46000    177.13122   -108.69669   0.16027205   -108.53642    882.17536     4.240988     4.240988     4.240988    882.17536   -3017.2695    4449.6925    1214.1031   -9.4742029   -1496.2923    2198.5951    76.278322 
   46100    205.89954   -108.72257   0.18630223   -108.53627   -1137.3983    4.2397587    4.2397587    4.2397587   -1137.3983   -6656.1948    3976.7766   -732.77659    231.40682    3505.6614   -290.42417    76.212011 
   46200    199.42818   -108.71669   0.18044681   -108.53624   -3965.0359    4.2405592    4.2405592    4.2405592   -3965.0359   -3818.5558   -2703.7165   -5372.8353    364.28621   -545.14108    1701.6163    76.255186 
   46300    224.30297   -108.73885   0.20295404   -108.53589   -4955.7261    4.2417152    4.2417152    4.2417152   -4955.7261   -4011.8235    -3646.647   -7208.7077   -1302.3351   -71.041179    468.63612    76.317567 
   46400    221.20958   -108.73569   0.20015508   -108.53553    -3231.937    4.2400134    4.2400134    4.2400134    -3231.937   -6193.9215    2168.8247   -5670.7142    640.20106    2048.8675   -1931.7634    76.225744 
   46500     120.1956   -108.64534    0.1087555   -108.53659    2306.1526    4.2395435    4.2395435    4.2395435    2306.1526   -3619.4373    8687.1254    1850.7698    754.58538    603.73728    6608.2922    76.200406 
   46600    248.63252   -108.76132   0.22496793   -108.53635   -4884.5147    4.2418802    4.2418802    4.2418802   -4884.5147   -3745.8104   -4919.9403   -5987.7933    -348.7628    171.57746    1292.0218    76.326473 
   46700    151.61549   -108.67404   0.13718488   -108.53685    3086.3407    4.2399669    4.2399669    4.2399669    3086.3407   -2944.9355    7669.8124    4534.1453     796.5659    1660.8822   -141.03643    76.223241 
   46800    266.73141   -108.77767   0.24134419   -108.53632   -5389.3852    4.2394999    4.2394999    4.2394999   -5389.3852   -4123.9784   -3536.4644   -8507.7127    1816.1714    1488.5276    1098.0744    76.198056 
   46900    183.38854   -108.70244    0.1659338    -108.5365   -88.608875    4.2420974    4.2420974    4.2420974   -88.608875   -27.362322    3721.3486   -3959.8129    -1240.973   -1462.2844   -9.7285116    76.338197 
   47000    197.05672   -108.71434   0.17830106   -108.53604    1712.5309    4.2395916    4.2395916    4.2395916    1712.5309    -3113.973    11427.207   -3175.6414   -1077.1435    2141.6173    218.63156    76.202998 
   47100    209.53154   -108.72604   0.18958854   -108.53645    1391.1679    4.2389891    4.2389891    4.2389891    1391.1679   -2108.9463    781.81001    5500.6401   -790.78938     1180.438    2404.2947    76.170515 
   47200     131.6222   -108.65596   0.11909454   -108.53687    4951.2971    4.2419787    4.2419787    4.2419787    4951.2971    2600.5662    10601.335      1651.99   -72.300674   -166.91708    2797.6233    76.331789 
   47300    282.72202   -108.79163   0.25581282   -108.53582   -3914.3717     4.239382     4.239382     4.239382   -3914.3717   -7137.0919   -2303.2427   -2302.7803   -1196.3222    858.57453    -2664.223      76.1917 
   47400    136.32838   -108.66011   0.12335278   -108.53676    5432.4053    4.2396166    4.2396166    4.2396166    5432.4053     4579.293    7160.0624    4557.8604    366.77909    446.81107    326.92988    76.204348 
   47500    284.93758   -108.79344   0.25781751   -108.53563   -5646.1645    4.2418287    4.2418287    4.2418287   -5646.1645   -7342.0025    1072.7818   -10669.273    2316.4495    658.02011     1981.635    76.323691 
   47600    135.50536    -108.6592    0.1226081   -108.53659    4785.7382    4.2388313    4.2388313    4.2388313    4785.7382    1771.6775    8156.4392     4429.098   -2423.9988   -750.56196    539.91808    76.162008 
   47700    234.23386   -108.74831   0.21193972   -108.53637   -2859.1332    4.2415134    4.2415134    4.2415134   -2859.1332   -5367.5358   -1589.3633   -1620.5006    2265.2929    1349.0569    1127.9886    76.306676 
   47800    162.80799   -108.68396   0.14731209   -108.53665    2001.9885    4.2395547    4.2395547    4.2395547    2001.9885   -3433.2699    2794.0213    6645.2142   -1228.3941   -431.49568    2725.2955    76.201011 
   47900    205.38403   -108.72227   0.18583579   -108.53643   -2019.2588    4.2402037    4.2402037    4.2402037   -2019.2588   -794.84451   -3248.7376   -2014.1943   -1228.7744   -48.445925   -1402.7676    76.236008 
   48000    230.96935   -108.74518   0.20898592   -108.53619    -4390.025    4.2422922    4.2422922    4.2422922    -4390.025   -8321.4191   -759.80321   -4088.8526     472.1014    1726.2944   -2004.2304    76.348715 
   48100    160.02754   -108.68162   0.14479628   -108.53682    1954.7356     4.237792     4.237792     4.237792    1954.7356    879.51394    9752.7946   -4768.1017    148.61935   -732.07964    4263.0638    76.106001 
   48200    269.55786   -108.78037   0.24390161   -108.53647   -6575.7117    4.2421484    4.2421484    4.2421484   -6575.7117   -7988.7147   -6159.4004   -5579.0199    357.59026    -237.8909    1626.2857    76.340952 
   48300    106.95881   -108.63457  0.096778583   -108.53779    4860.2238    4.2410847    4.2410847    4.2410847    4860.2238   -2548.9701    9654.1093    7475.5321   -1304.6425    1888.2851   -579.46202    76.283543 
   48400    255.22015   -108.76777   0.23092855   -108.53684     -1810.87    4.2368259    4.2368259    4.2368259     -1810.87   -5089.9262   -3498.5988     3155.915    4486.6886    1945.0734    1517.3725    76.053964 
   48500    144.31652   -108.66749   0.13058062   -108.53691    2281.2221     4.243663     4.243663     4.243663    2281.2221   -1549.0299    7412.0089    980.68737   -2745.7884   -716.04586   -5.0503591     76.42275 
   48600    258.69718   -108.76976   0.23407464   -108.53568   -4391.6117    4.2400671    4.2400671    4.2400671   -4391.6117   -6522.2979    1723.7066   -8376.2437    1836.2947    1726.5581   -902.16832    76.228644 
   48700    181.73762   -108.70045   0.16444002   -108.53601    2632.6136    4.2371737    4.2371737    4.2371737    2632.6136   -2049.3578    5638.2353    4308.9633    1035.7758    805.47029    2380.8418    76.072696 
   48800    221.33993    -108.7362   0.20027302   -108.53593   -2941.0087    4.2446628    4.2446628    4.2446628   -2941.0087   -4476.5521   -1121.0944   -3225.3795   -2281.5705   -937.00914    1255.3597    76.476779 
   48900    190.68619   -108.70851   0.17253687   -108.53597    1397.5953    4.2380004    4.2380004    4.2380004    1397.5953    -4216.209   -306.22888    8715.2239    1513.6026    2035.8775   -1956.5956     76.11723 
   49000    153.69858   -108.67565   0.13906971   -108.53658    3920.9429    4.2387456    4.2387456    4.2387456    3920.9429   -613.03642    5199.0609    7176.8042   -1444.8021    760.68721    256.38732    76.157391 
   49100    242.17452   -108.75494    0.2191246   -108.53582   -4325.4818    4.2440353    4.2440353    4.2440353   -4325.4818   -2558.5796    -3671.037   -6746.8287    2480.8744    25.479433    906.05001    76.442868 
   49200    174.88481    -108.6943   0.15823945   -108.53606    2795.7952    4.2372005    4.2372005    4.2372005    2795.7952   -3459.9548    8925.5655    2921.7749   -2809.4326    1190.5878    -1391.523    76.074138 
   49300    248.39089   -108.76091    0.2247493   -108.53616   -3619.2671    4.2412419    4.2412419    4.2412419   -3619.2671   -1516.6416   -6557.5916   -2783.5681    2540.9008    861.39845    1331.4004     76.29202 
   49400    149.87461   -108.67279    0.1356097   -108.53718    3033.3737     4.241108     4.241108     4.241108    3033.3737   -3628.4684    6967.2922    5761.2973   -90.988924    19.284512    3119.8926    76.284797 
   49500    239.97565   -108.75363   0.21713501   -108.53649   -1489.1303    4.2386176    4.2386176    4.2386176   -1489.1303   -4043.0554    -4382.898    3958.5624   -3057.3687    1254.0329   -2997.5875    76.150489 
   49600    129.69792   -108.65427   0.11735341   -108.53692    4073.0142    4.2416218    4.2416218    4.2416218    4073.0142   -1277.3852    7823.2301    5673.1977    3823.8315    1519.9079   -1852.9352    76.312523 
   49700    253.84218    -108.7656   0.22968174   -108.53592   -3281.5166    4.2394661    4.2394661    4.2394661   -3281.5166   -6409.0849    2016.1182    -5451.583   -1913.7731   -360.57367    2675.5207    76.196234 
   49800    213.06612   -108.72905    0.1927867   -108.53626   -291.10695    4.2406547    4.2406547    4.2406547   -291.10695    681.87387   -323.73804   -1231.4567    1672.9084   -392.92656    890.67706    76.260338 
   49900     180.7346   -108.70039   0.16353247   -108.53686    798.07965    4.2409891    4.2409891    4.2409891    798.07965   -9809.2222    12062.269    141.19187   -519.79107    1005.9708   -745.36469    76.278382 
   50000    227.79447   -108.74273   0.20611322   -108.53662   -606.10316    4.2379393    4.2379393    4.2379393   -606.10316   -2694.1797   -4986.9063    5862.7766    2917.1941   -509.69854    1148.4991    76.113938 
   50100    133.42308   -108.65766   0.12072401   -108.53694    4063.7853    4.2428402    4.2428402    4.2428402    4063.7853   -9510.5921    13434.317    8267.6313    387.70955    525.91663    318.21041    76.378308 
   50200    250.48796   -108.76267   0.22664677   -108.53602   -4418.3821    4.2393656    4.2393656    4.2393656   -4418.3821   -7718.3682   -3906.0162    -1630.762    220.60151    2452.7153   -2450.8377    76.190815 
   50300    140.68153    -108.6639    0.1272916   -108.53661    2415.0572    4.2384192    4.2384192    4.2384192    2415.0572   -4750.4671    9942.7832    2052.8557    6653.3284    951.72146    2143.9253    76.139797 
   50400    287.28547   -108.79587   0.25994193   -108.53593   -8289.7413    4.2444758    4.2444758    4.2444758   -8289.7413   -9003.8554   -6636.1919   -9229.1766    -3295.716   -355.41299    676.43939     76.46667 
   50500    149.35728   -108.67187    0.1351416   -108.53673    1636.0126    4.2374196    4.2374196    4.2374196    1636.0126   -4407.6159    915.49875     8400.155     4072.917   -102.47558   -1245.9817    76.085941 
   50600    170.51359   -108.69067   0.15428428   -108.53638   -701.77375    4.2402019    4.2402019    4.2402019   -701.77375   -8324.0959    1587.3538    4631.4208    2476.2808    367.11085   -980.18811    76.235915 
   50700    245.95977   -108.75783   0.22254957   -108.53528   -5023.0629    4.2438807    4.2438807    4.2438807   -5023.0629   -10460.756   -6556.4599    1948.0274   -920.97755   -1152.7184   -367.55133    76.434513 
   50800    137.46284   -108.66046   0.12437926   -108.53608    3869.4937    4.2367542    4.2367542    4.2367542    3869.4937   -2200.1623    9267.8952    4540.7483    4066.6681     2108.902   -1229.9993    76.050101 
   50900    278.12032   -108.78731   0.25164911   -108.53566   -7654.3141    4.2415479    4.2415479    4.2415479   -7654.3141   -9975.0453   -7390.9494   -5596.9475    942.18623    1437.2824    859.14103    76.308536 
   51000    177.96289   -108.69795   0.16102456   -108.53692    1510.1393    4.2418025    4.2418025    4.2418025    1510.1393   -2256.7748    7246.1563   -458.96369    1517.6269   -621.90174    2836.1092    76.322282 
   51100    221.04328   -108.73684    0.2000046   -108.53683    733.24045    4.2377764    4.2377764    4.2377764    733.24045   -1478.5294    1295.2745    2382.9762   -1135.6164    1603.6471   -2906.4687    76.105162 
   51200    132.37093   -108.65701     0.119772   -108.53724    4083.7713    4.2408465    4.2408465    4.2408465    4083.7713   -7394.2949    12101.626    7543.9833    2728.7173   -362.33804   -140.69888    76.270687 
   51300    219.48602   -108.73446   0.19859556   -108.53586    780.93374    4.2411262    4.2411262    4.2411262    780.93374    1939.4158    1295.1304   -891.74501    581.18557    334.27181   -12.797099     76.28578 
   51400    225.89417   -108.74044   0.20439379   -108.53605    2032.9361    4.2388156    4.2388156    4.2388156    2032.9361    -6328.303     7824.701    4602.4104   -795.76186    390.27871   -671.88895    76.161166 
   51500    168.92878   -108.68957   0.15285031   -108.53672    2141.2619    4.2401332    4.2401332    4.2401332    2141.2619     1248.441    9904.8568   -4729.5121    3587.1348    1594.8443   -1225.2895     76.23221 
   51600    268.23849   -108.77851   0.24270782   -108.53581   -2715.5618    4.2408726    4.2408726    4.2408726   -2715.5618   -3513.4292   -2279.0188   -2354.2373   -959.81281   -1414.1671    1051.3682    76.272097 
   51700    159.78249   -108.68107   0.14457455    -108.5365    6026.6188     4.239981     4.239981     4.239981    6026.6188   -326.49211     13764.39    4641.9581    153.09539   -1149.3128    974.52123       76.224 
   51800    184.20736   -108.70337   0.16667469    -108.5367   -31.556892    4.2391945    4.2391945    4.2391945   -31.556892   -971.13876   -4664.5369     5541.005    651.25417    1238.7048   -4247.1708    76.181591 
   51900    176.10793   -108.69563   0.15934616   -108.53629    37.248577    4.2411461    4.2411461    4.2411461    37.248577   -5997.3237    3754.1498    2354.9196    1101.6987   -184.01763    1517.0532    76.286855 
   52000    262.97258   -108.77386   0.23794312   -108.53592   -3608.6818    4.2410989    4.2410989    4.2410989   -3608.6818   -3188.1402   -2963.3065   -4674.5986   -838.62237    2317.0351    727.93854    76.284304 
   52100    168.94366   -108.68983   0.15286377   -108.53696   -1419.1939    4.2384452    4.2384452    4.2384452   -1419.1939   -3766.9383   -104.72267   -385.92067    425.44141    1077.0144   -1460.5382    76.141198 
   52200    219.83183   -108.73545   0.19890846   -108.53654   -6217.7306    4.2425839    4.2425839    4.2425839   -6217.7306    -7132.961   -3448.7701   -8071.4608    2986.1341    881.97024   -193.76332    76.364466 
   52300     197.5903   -108.71484   0.17878386   -108.53606    490.87351    4.2409634    4.2409634    4.2409634    490.87351   -1593.4681    -4459.372    7525.4607   -2917.4476   -1572.6344   -1216.0644    76.276993 
   52400    146.74976    -108.6695   0.13278227   -108.53671    2117.2491    4.2375197    4.2375197    4.2375197    2117.2491   -3928.2462    3589.5792    6690.4144    1643.7783   -823.98022   -873.39421    76.091332 
   52500    190.93467     -108.709    0.1727617   -108.53624   -4247.7731    4.2431868    4.2431868    4.2431868   -4247.7731   -9147.3544   -6124.2118    2528.2471    2809.7036    10.448041   -483.05178    76.397025 
   52600    232.18321   -108.74572   0.21008425   -108.53564    -300.5721    4.2404871    4.2404871    4.2404871    -300.5721   -2933.8247    3444.4059   -1412.2974   -1921.2489    -581.2545    3232.0719    76.251298 
   52700    236.21372   -108.74981   0.21373114   -108.53608   -1380.4087    4.2381416    4.2381416    4.2381416   -1380.4087   -5776.6457    3288.8493   -1653.4298    1296.4582    3761.5786   -1402.6517    76.124838 
   52800    158.28685   -108.68019   0.14322126   -108.53697   -532.81095    4.2425588    4.2425588    4.2425588   -532.81095   -4870.8616    4493.8493   -1221.4205    1355.0526    130.52832    134.11046    76.363108 
   52900     266.9428   -108.77741   0.24153546   -108.53588   -218.64472    4.2401356    4.2401356    4.2401356   -218.64472   -3480.1281    2063.3224    760.87152    195.55343   -229.56928     148.1722    76.232336 
   53000    127.46409   -108.65219   0.11533219   -108.53686    8830.4017    4.2378057    4.2378057    4.2378057    8830.4017    2421.1812    11098.951    12971.072   -386.29415   -877.99986    -2686.669    76.106743 
   53100    194.18951   -108.71272   0.17570675   -108.53701   -2853.7979    4.2420534    4.2420534    4.2420534   -2853.7979   -7737.9714   -2453.0378    1629.6155    3459.8143    121.45498   -1067.8036    76.335826 
   53200    224.46709   -108.73924   0.20310254   -108.53614     1386.759    4.2403055    4.2403055    4.2403055     1386.759    1557.9907    1680.4698    921.81645       378.18    -140.6164   -464.77848    76.241501 
   53300    238.06522   -108.75134   0.21540641   -108.53594    1504.8279     4.239016     4.239016     4.239016    1504.8279   -1700.9342    8312.9641   -2097.5463   -1147.8311   -498.37902    1818.1969    76.171968 
   53400    174.69461   -108.69492   0.15806736   -108.53685   -2464.2432    4.2407251    4.2407251    4.2407251   -2464.2432   -2310.4768   -4946.2185   -136.03434     3130.602    1214.1453   -2547.4936    76.264138 
   53500    188.13349   -108.70671   0.17022713   -108.53648    355.88363    4.2414968    4.2414968    4.2414968    355.88363   -550.47062    229.67789    1388.4436   -972.27875   -1773.4826    338.04448    76.305779 
   53600    219.26003   -108.73435   0.19839108   -108.53595    2415.6488    4.2386171    4.2386171    4.2386171    2415.6488    936.62639   -2388.0798    8698.3998   -829.10487    984.53693    984.69468    76.150466 
   53700    124.58801    -108.6499   0.11272985   -108.53717    242.18931     4.240066     4.240066     4.240066    242.18931    595.42249   -2059.5744    2190.7198    1482.5859    322.65733   -2646.2985    76.228584 
   53800    271.62373   -108.78174   0.24577086   -108.53597   -7636.3877    4.2430121    4.2430121    4.2430121   -7636.3877   -7716.6897   -7768.9399   -7423.5335    2122.3517    935.91056    920.03185    76.387589 
   53900     201.2196   -108.71824   0.18206772   -108.53617    4132.6547     4.237977     4.237977     4.237977    4132.6547    4815.2227    4977.5829    2605.1585   -1472.1704    681.29977   -870.85782    76.115973 
   54000    224.56784   -108.74007    0.2031937   -108.53688   -5076.0297    4.2400735    4.2400735    4.2400735   -5076.0297   -7979.8899   -6684.5965   -563.60257    668.75866   -63.426483   -1147.8534    76.228991 
   54100    133.64982   -108.65825   0.12092917   -108.53732    993.33226    4.2432465    4.2432465    4.2432465    993.33226   -2323.3329    -1737.473    7040.8027    2694.5638   -843.18702   -1137.8553    76.400251 
   54200    228.55212   -108.74239   0.20679876   -108.53559    4280.6943    4.2378103    4.2378103    4.2378103    4280.6943   -314.32001    3785.4834    9370.9195   -2059.8078    -3315.549    1900.1746    76.106989 
   54300    184.11771   -108.70296   0.16659357   -108.53637   -168.16472    4.2402908    4.2402908    4.2402908   -168.16472   -2606.4486   -1472.6969    3574.6513     1906.783    957.07427    81.212278     76.24071 
   54400     168.1626   -108.68872   0.15215705   -108.53657   -1871.6458    4.2430236    4.2430236    4.2430236   -1871.6458   -7122.8034    2912.9164   -1405.0502    2239.0201    25.090366   -717.09149     76.38821 
   54500     316.9557   -108.82191   0.28678818   -108.53513   -1739.5966    4.2382831    4.2382831    4.2382831   -1739.5966   -3307.6494   -2911.3725    1000.2321   -353.01337    1771.9953    1522.0191    76.132463 
   54600    134.42118   -108.65836    0.1216271   -108.53674    4607.8176    4.2402255    4.2402255    4.2402255    4607.8176    -2305.671     11745.64    4383.4842    588.97279    341.29199   -2138.2862    76.237189 
   54700    198.98945   -108.71682   0.18004984   -108.53677   -4489.0469    4.2421693    4.2421693    4.2421693   -4489.0469   -11045.593   -11665.354    9243.8059    3820.7512   -642.56101   -1598.9754    76.342083 
   54800    174.38231   -108.69417   0.15778478   -108.53638    5795.1505    4.2389576    4.2389576    4.2389576    5795.1505    2548.7194    6036.0161    8800.7161    43.142897   -1831.9787   -741.33281    76.168817 
   54900    232.59852   -108.74658   0.21046003   -108.53612   -1959.8711    4.2405637    4.2405637    4.2405637   -1959.8711   -6467.4946   -1922.3392    2510.2205    603.28903    -2547.325    89.813227    76.255431 
   55000    160.19793    -108.6817   0.14495046   -108.53674   -3469.2729    4.2408296    4.2408296    4.2408296   -3469.2729   -3652.0643   -7576.7926     821.0383    5550.8136    1539.8236   -1296.9342    76.269775 
   55100    245.05516   -108.75765   0.22173106   -108.53592   -2184.2704    4.2410944    4.2410944    4.2410944   -2184.2704   -3493.2929    2926.9489   -5986.4672   -807.52199   -1595.0046    265.11123    76.284066 
   55200    224.07277   -108.73855   0.20274575    -108.5358   -353.46747    4.2396188    4.2396188    4.2396188   -353.46747   -4162.4447   -6187.9545    9289.9967    403.20742    1537.4044    839.04516    76.204467 
   55300    108.37855   -108.63518  0.098063194   -108.53711   -274.09332    4.2403177    4.2403177    4.2403177   -274.09332    -4023.484   -2917.8227    6119.0267    3620.5091   -586.94465   -2426.4153    76.242159 
   55400    249.24281   -108.76166   0.22552013   -108.53614   -3721.0805    4.2422969    4.2422969    4.2422969   -3721.0805   -3282.2645   -8454.7842    573.80732    467.15168    -1066.112    -1433.018    76.348968 
   55500    180.51721   -108.70007   0.16333576   -108.53673    5851.8007    4.2377972    4.2377972    4.2377972    5851.8007     3236.985    7751.9595    6566.4575   -253.16013   -205.79373   -910.10283    76.106284 
   55600    227.75246   -108.74343   0.20607521   -108.53735   -5782.7864    4.2409581    4.2409581    4.2409581   -5782.7864   -2401.8171   -7948.1841    -6998.358    2143.4791   -141.14496   -1210.5681    76.276711 
   55700    166.65853   -108.68826   0.15079614   -108.53746     2013.805    4.2421465    4.2421465    4.2421465     2013.805   -4509.0175    4384.1515    6166.2811     3076.453     1511.569   -751.10368     76.34085 
   55800    259.67311   -108.77072   0.23495769   -108.53576    3364.9214    4.2374561    4.2374561    4.2374561    3364.9214    464.66881    1613.3815    8016.7137   -1850.6936   -2322.1821    587.24839    76.087906 
   55900    146.20811   -108.66911   0.13229217   -108.53682    2532.7752    4.2412729    4.2412729    4.2412729    2532.7752   -3717.9416    3047.8651     8268.402    2603.6328    412.04153   -691.17508    76.293693 
   56000    192.29469   -108.71064   0.17399228   -108.53665    421.98234    4.2417811    4.2417811    4.2417811    421.98234   -3010.2312    1948.6246    2327.5537    1156.3693   -2848.6765   -385.81534    76.321123 
   56100    249.47742   -108.76127   0.22573241   -108.53553    3883.8727    4.2378244    4.2378244    4.2378244    3883.8727    6378.3669    2625.1969    2648.0544   -763.42789    168.41381    815.06324    76.107747 
   56200    179.92808   -108.69932   0.16280271   -108.53652   -181.19865    4.2417207    4.2417207    4.2417207   -181.19865   -5655.4388     6051.143   -939.30016    2929.9983    1919.8745    -215.7154    76.317863 
   56300    204.11045   -108.72119   0.18468343    -108.5365   -3079.7384     4.241085     4.241085     4.241085   -3079.7384   -4657.7093   -8455.3279    3873.8221    2101.2153    1022.4068   -2342.9782    76.283556 
   56400    194.92404   -108.71263   0.17637137   -108.53626    4976.3142    4.2390484    4.2390484    4.2390484    4976.3142   -4441.7347    10080.045     9290.632    998.02482    667.63279   -539.60483    76.173712 
   56500     229.4534   -108.74414   0.20761426   -108.53652   -4715.4035    4.2419893    4.2419893    4.2419893   -4715.4035    -7789.921   -7524.6558    1168.3664    249.94651    -3122.299   -249.64632     76.33236 
   56600    105.87568   -108.63321   0.09579854   -108.53742   -35.624406     4.239873     4.239873     4.239873   -35.624406   -4702.1704   -1432.5239     6027.821    4789.7433    112.20946   -2649.4708    76.218174 
   56700     288.6823   -108.79706   0.26120581   -108.53586   -5414.7838     4.241466     4.241466     4.241466   -5414.7838   -1344.8229   -4651.6082    -10247.92   -1544.6891   -2960.4772    1042.8368    76.304116 
   56800    167.92819   -108.68845   0.15194496    -108.5365    465.68583    4.2400689    4.2400689    4.2400689    465.68583   -1431.3018    280.84195    2547.5173    1714.3893    1810.4641    919.03293     76.22874 
   56900    188.31499   -108.70689   0.17039136    -108.5365   -6526.9278    4.2409391    4.2409391    4.2409391   -6526.9278    -9590.056   -9343.8853   -646.84195    6318.2389    1474.1271   -1346.3715    76.275685 
   57000    212.20236   -108.72784   0.19200516   -108.53583   -1015.3489    4.2419077    4.2419077    4.2419077   -1015.3489   -4038.3834    -885.6168    1877.9536   -1690.6098   -549.89234   -2547.2965    76.327956 
   57100    193.88247    -108.7116   0.17542893   -108.53617    1854.6241    4.2385117    4.2385117    4.2385117    1854.6241   -6185.5614    4509.5094    7239.9243    2400.1627    728.01958   -1348.3067    76.144784 
   57200    190.81815   -108.70957   0.17265628   -108.53691   -4457.3409    4.2416358    4.2416358    4.2416358   -4457.3409   -2141.9411   -8210.5865    -3019.495    1486.0598   -2154.6379   -1267.4523     76.31328 
   57300     174.3804   -108.69457   0.15778305   -108.53679    3477.5264    4.2412469    4.2412469    4.2412469    3477.5264   -1100.5349    12383.873   -850.75928    1274.8883    1424.9319   -1764.5396    76.292294 
   57400    283.00348   -108.79178    0.2560675   -108.53571    383.69682    4.2376932    4.2376932    4.2376932    383.69682    2944.3576   -4139.7782    2346.5111    447.46071   -1134.6753    1778.8371    76.100678 
   57500    119.16648   -108.64511   0.10782434   -108.53728    2585.9591    4.2423687    4.2423687    4.2423687    2585.9591   -5667.0288     9000.348     4424.558     2695.022     1905.256   -976.53701    76.352847 
   57600    240.70179    -108.7543   0.21779204   -108.53651   -986.90611    4.2404849    4.2404849    4.2404849   -986.90611   -5227.7263   -917.68416    3184.6921    2345.8185   -873.90671   -984.45679    76.251182 
   57700    184.92646   -108.70344   0.16732535   -108.53611    8053.1687    4.2378304    4.2378304    4.2378304    8053.1687    4076.1827    10871.868    9211.4554   -2687.9982   -2074.1941   -548.79486    76.108073 
   57800    219.63124   -108.73531   0.19872696   -108.53658     -3157.82    4.2428323    4.2428323    4.2428323     -3157.82   -5763.3618    536.27282   -4246.3711    3269.7534    749.94788    170.57488    76.377879 
   57900    173.94515   -108.69417   0.15738923   -108.53678    721.03708     4.239695     4.239695     4.239695    721.03708    3692.8089    -3650.022    2120.3243   -209.97588   -444.97656   -1233.5785    76.208576 
   58000    231.54449   -108.74586   0.20950632   -108.53635    2382.3472    4.2393303    4.2393303    4.2393303    2382.3472   -903.46017    7367.6026    682.89923    1579.0877    3054.1361   -1672.2315    76.188913 
   58100    203.86681   -108.72145   0.18446298   -108.53698   -2960.6582    4.2428738    4.2428738    4.2428738   -2960.6582   -6907.5844    -5613.974    3639.5838    1824.0975    -60.69456   -662.91115    76.380119 
   58200    124.30394   -108.64982   0.11247282   -108.53735    1672.8192    4.2389548    4.2389548    4.2389548    1672.8192   -6068.1573    4650.7436    6435.8711    1063.2329    1431.2753   -5093.0421    76.168668 
   58300    275.22297   -108.78499   0.24902753   -108.53596   -4176.9106    4.2416008    4.2416008    4.2416008   -4176.9106   -5102.3367    -4652.718   -2775.6771   -174.86613   -2719.0867     809.9478    76.311391 
   58400    178.27165   -108.69787   0.16130393   -108.53656   -1271.5442    4.2408237    4.2408237    4.2408237   -1271.5442    -4536.369    -491.3655    1213.1019   -850.05562   -868.75915    845.71139    76.269458 
   58500    211.35525   -108.72764   0.19123867    -108.5364   -6183.2074     4.240359     4.240359     4.240359   -6183.2074   -5925.5189   -9079.7814   -3544.3219    5198.4906    1807.3249   -464.03304    76.244389 
   58600    185.59912   -108.70391   0.16793398   -108.53597    1249.6975    4.2420862    4.2420862    4.2420862    1249.6975     -1501.72    4382.4393    868.37317   -1759.4611   -698.16043   -1332.1379    76.337596 
   58700    212.03437    -108.7274   0.19185316   -108.53554   -693.51169    4.2392478    4.2392478    4.2392478   -693.51169   -7917.5371   -1425.0586    7262.0606     3074.991    3066.6736   -1475.7657    76.184465 
   58800     136.2445    -108.6597   0.12327688   -108.53642   -291.94237    4.2410931    4.2410931    4.2410931   -291.94237   -8068.5261   -912.77374    8105.4727     3393.565    115.50996   -2216.8026    76.283996 
   58900    234.71362   -108.74788   0.21237381   -108.53551   -1604.8525    4.2418149    4.2418149    4.2418149   -1604.8525   -7499.6957    3341.5209   -656.38273   -2088.0459    61.793692   -3935.1995    76.322951 
   59000    252.20687   -108.76346   0.22820208   -108.53526   -862.87244    4.2385679    4.2385679    4.2385679   -862.87244   -5359.3435   -802.53897    3573.2652    2651.1481   -629.72374    2852.2831    76.147814 
   59100    166.57867   -108.68776   0.15072388   -108.53704   -745.25757    4.2421994    4.2421994    4.2421994   -745.25757   -7252.3689    2087.7053    2928.8909    397.04434    181.52542   -1077.9888    76.343704 
   59200    227.55545    -108.7428   0.20589696    -108.5369   -1330.0428    4.2407984    4.2407984    4.2407984   -1330.0428   -3819.0043   -1483.2398    1312.1156    1656.9689     1146.959    -1039.163    76.268091 
   59300    152.68494   -108.67506   0.13815254   -108.53691    6793.7058    4.2378075    4.2378075    4.2378075    6793.7058   -1012.5518    7441.0649    13952.604    474.46969   -825.51371   -2402.3601     76.10684 
   59400    222.06651   -108.73806   0.20093044   -108.53713   -4645.6112    4.2431544    4.2431544    4.2431544   -4645.6112   -9019.7127   -5375.9975    458.87661    3380.3498    1702.5383    -349.4935    76.395278 
   59500    181.04966   -108.70052   0.16381754    -108.5367    146.47974    4.2394616    4.2394616    4.2394616    146.47974    -1526.037    2354.6661   -389.18984   -681.65623   -1424.9068   -2799.5435    76.195993 
   59600    263.44192   -108.77433   0.23836778   -108.53596   -1914.8737    4.2396702    4.2396702    4.2396702   -1914.8737   -3364.2238     -3286.21    905.81271   -1554.7547   -432.13837   -1138.1043     76.20724 
   59700    184.06002   -108.70334   0.16654137   -108.53679   -2303.6535    4.2429445    4.2429445    4.2429445   -2303.6535    -4967.553    -2293.937    350.52941    3478.9989    1168.6491    767.24615     76.38394 
   59800    154.00929   -108.67631   0.13935084   -108.53696    1213.4548    4.2384919    4.2384919    4.2384919    1213.4548   -91.258722   -4259.8859    7991.5089   -1306.8276    824.38151   -6438.4222    76.143716 
   59900    210.18366   -108.72639   0.19017859   -108.53622    1368.6568    4.2410955    4.2410955    4.2410955    1368.6568    82.851716    3694.7229    328.39562    1312.1625    1292.3672   -217.36731    76.284124 
   60000    176.30807   -108.69563   0.15952725    -108.5361    70.168486    4.2414107    4.2414107    4.2414107    70.168486   -811.00969   -3622.7752    4644.2904    290.34172   -1310.7695   -1731.0558     76.30113 
   60100    246.53854   -108.75903   0.22307325   -108.53596   -5559.8474    4.2395392    4.2395392    4.2395392   -5559.8474   -4611.4348   -6660.1395   -5407.9678    833.28261    136.32854   -405.99367    76.200176 
   60200    198.70664    -108.7162   0.17979394    -108.5364    1411.2694    4.2423331    4.2423331    4.2423331    1411.2694    1893.4194    363.06378     1977.325    -729.3694   -1647.5576   -559.37997    76.350921 
   60300    244.80796   -108.75751   0.22150738     -108.536   -1836.3473    4.2395447    4.2395447    4.2395447   -1836.3473    -4280.187   -5720.0649    4491.2101    92.222735    439.46129   -506.60145    76.200473 
   60400    122.83657   -108.64789   0.11114511   -108.53675     3432.235    4.2405584    4.2405584    4.2405584     3432.235    374.81552    2390.6937    7531.1957    2670.0823    1600.8303   -2994.8572    76.255143 
   60500    203.65448    -108.7202   0.18427085   -108.53593    1882.3543    4.2417268    4.2417268    4.2417268    1882.3543    1222.3594   -113.79742    4538.5009   -957.36148    412.69024    -5099.469    76.318195 
   60600    217.40666   -108.73231   0.19671411   -108.53559    750.30612    4.2388122    4.2388122    4.2388122    750.30612   -3523.1379    6160.8216   -386.76533     2769.293    48.344221    1946.2458    76.160982 
   60700    188.27638   -108.70668   0.17035643   -108.53633   -2280.1408    4.2423448    4.2423448    4.2423448   -2280.1408   -3721.6905   -4714.1935    1595.4617    558.71509   -1841.6113   -1732.9292    76.351556 
   60800     261.0758   -108.77191   0.23622687   -108.53569   -3221.3204    4.2410638    4.2410638    4.2410638   -3221.3204   -6033.6548    1157.3975   -4787.7039   -896.47514   -277.90546    1024.9091    76.282414 
   60900    173.81664    -108.6938   0.15727295   -108.53653     3807.287    4.2383308    4.2383308    4.2383308     3807.287    1026.9733    699.66003    9695.2278    993.86063    -2377.963   -631.63139    76.135033 
   61000     188.6117   -108.70748   0.17065983   -108.53682   -3214.3301    4.2436783    4.2436783    4.2436783   -3214.3301     -9886.09   -799.15606    1042.2558    2325.0537    1030.9685   -2361.5448    76.423577 
   61100    165.68471   -108.68629     0.149915   -108.53638    1819.8226    4.2390521    4.2390521    4.2390521    1819.8226    286.52533    2439.2571    2733.6855    952.25878   -516.29249   -4083.5432    76.173913 
   61200    225.94848   -108.74029   0.20444293   -108.53585   -1212.2937    4.2396719    4.2396719    4.2396719   -1212.2937   -2650.8223    2563.1126   -3549.1713    63.510847   -2344.4128   -1707.4018    76.207329 
   61300     221.3456   -108.73653   0.20027815   -108.53625   -5725.4921    4.2435851    4.2435851    4.2435851   -5725.4921    -11603.77   -3907.2762   -1665.4307    3498.5828    377.00062    2011.5176    76.418543 
   61400     186.1359   -108.70503   0.16841967   -108.53661   -400.46566    4.2384569    4.2384569    4.2384569   -400.46566    4210.0766   -5308.2611   -103.21251   -2369.8302   -1319.5568   -5129.0366    76.141831 
   61500    215.50587   -108.73139   0.19499424   -108.53639   -789.38184    4.2407479    4.2407479    4.2407479   -789.38184   -7918.4632    1890.7467     3659.571    1162.5773    578.04412     195.6539    76.265367 
   61600    163.50214   -108.68476   0.14794017   -108.53682   -596.14166    4.2421595    4.2421595    4.2421595   -596.14166   -604.31937   -5044.5507    3860.4451    2383.1419    169.28102   -2800.4627     76.34155 
   61700    182.55408     -108.702   0.16517877   -108.53682    67.037556    4.2389935    4.2389935    4.2389935    67.037556    48.415355     5225.424   -5072.7267    475.81885    269.70903   -2915.7964    76.170751 
   61800    237.98174   -108.75178   0.21533088   -108.53644   -918.89756    4.2413809    4.2413809    4.2413809   -918.89756   -3606.2007   -1684.9493    2534.4573    337.85363   -2016.9041    783.24438    76.299525 
   61900     211.7191   -108.72796   0.19156789   -108.53639   -1256.7351    4.2410466    4.2410466    4.2410466   -1256.7351    2041.8743   -1022.1636    -4789.916    381.65457   -978.15762    914.80039    76.281484 
   62000    208.50043   -108.72503   0.18865557   -108.53637   -1159.5129     4.240338     4.240338     4.240338   -1159.5129   -7659.6497   -4198.1785    8379.2896    1404.8464    1091.6338   -1545.7414    76.243253 
   62100    185.30516    -108.7042     0.167668   -108.53653    3549.1209    4.2408266    4.2408266    4.2408266    3549.1209    4648.1401    4578.7069    1420.5157   -1170.6091    -451.2805   -4402.5572    76.269615 
   62200    166.73843   -108.68725   0.15086843   -108.53638    4453.4429    4.2398161    4.2398161    4.2398161    4453.4429   -248.60549     9993.554    3615.3803    3656.4526    2066.9333     455.7732    76.215106 
   62300    213.80348   -108.72956   0.19345388    -108.5361    -538.5689    4.2411926    4.2411926    4.2411926    -538.5689   -5714.5226    4097.2248    1.5911014    947.37936   -760.80224   -3344.0795    76.289364 
   62400    194.98456   -108.71221   0.17642612   -108.53578    1814.6393    4.2407996    4.2407996    4.2407996    1814.6393    4477.7768    4215.7963   -3249.6552   -357.23038    103.12824    1169.2818    76.268157 
   62500    267.78266     -108.778   0.24229538    -108.5357   -3796.1351    4.2399021    4.2399021    4.2399021   -3796.1351   -9713.8357   -2642.3296    967.75999    692.83406   -1312.6345    2087.8512    76.219742 
   62600    173.20098   -108.69339   0.15671588   -108.53667   -139.11369    4.2421423    4.2421423    4.2421423   -139.11369    -4231.633     3627.084    187.20788    485.29893   -1123.1117   -2107.1626    76.340624 
   62700    184.10232   -108.70286   0.16657964   -108.53628    985.10065    4.2400713    4.2400713    4.2400713    985.10065   -2686.8958    1156.8249    4485.3728    409.49313    1688.4938    -2248.963    76.228867 
   62800    192.59488   -108.71029   0.17426389   -108.53602    141.48265    4.2399259    4.2399259    4.2399259    141.48265    -5544.552    8358.3681   -2389.3681    1677.1029   -1908.2363   -2209.5432    76.221028 
   62900    160.15141   -108.68124   0.14490836   -108.53634   -885.01234    4.2421105    4.2421105    4.2421105   -885.01234   -4086.3098   -746.75314     2178.026    3821.0468    2631.2078   -15.942632    76.338905 
   63000     262.5617   -108.77315   0.23757134   -108.53558    -6109.738    4.2402351    4.2402351    4.2402351    -6109.738   -5268.7953   -5408.7042   -7651.7144   -3078.2759   -1141.1489   -3172.1984    76.237703 
   63100    170.87684   -108.69124   0.15461295   -108.53663    848.75217    4.2402963    4.2402963    4.2402963    848.75217   -2823.1327    977.37793    4392.0113    869.55207   -1023.6669     1980.136    76.241006 
   63200    239.89148   -108.75363   0.21705885   -108.53657   -4987.0624    4.2414315    4.2414315    4.2414315   -4987.0624   -11121.946   -4002.7316    163.49068    1218.6323    1697.6045   -2052.5341    76.302255 
   63300    138.54446   -108.66244   0.12535794   -108.53708    2623.6334     4.240363     4.240363     4.240363    2623.6334   -858.75305    7706.3897    1023.2635   -580.55589   -898.35385   -4502.1072    76.244606 
   63400    208.27714   -108.72503   0.18845353   -108.53658   -309.00598    4.2403077    4.2403077    4.2403077   -309.00598   -6116.5343    3784.4133     1405.103    2226.5974     2155.287    1098.0808    76.241621 
   63500    217.45127   -108.73316   0.19675448    -108.5364   -1556.0344    4.2409072    4.2409072    4.2409072   -1556.0344   -1255.1363    880.34278   -4293.3097    1994.2021   -1391.5547    523.75021    76.273963 
   63600    203.60375   -108.72077   0.18422495   -108.53654   -586.68231    4.2414185    4.2414185    4.2414185   -586.68231   -672.36456   -2769.8153     1682.133    318.93378    1022.8186   -621.74564    76.301554 
   63700    233.45951   -108.74729   0.21123907   -108.53605    -658.3493    4.2399319    4.2399319    4.2399319    -658.3493   -3917.7185    1956.3787   -13.708012   -3026.5774   -908.67368   -1649.8414    76.221351 
   63800    157.58225   -108.67909   0.14258373   -108.53651    4161.3957    4.2402477    4.2402477    4.2402477    4161.3957    108.32553      8875.07    3500.7917    1657.2039   -731.34595    1131.1201    76.238386 
   63900    217.56581   -108.73289   0.19685811   -108.53603   -504.44257    4.2415218    4.2415218    4.2415218   -504.44257   -8701.2427    7667.6041   -479.68912    118.40178     2950.269   -4324.0875    76.307127 
   64000    171.59012   -108.69122   0.15525835   -108.53596    3791.0947    4.2399857    4.2399857    4.2399857    3791.0947    3863.7278    4726.2914    2783.2649    1270.5555   -1025.6101   -381.98971    76.224251 
   64100    253.26524   -108.76469   0.22915971   -108.53553   -1981.1327    4.2404182    4.2404182    4.2404182   -1981.1327   -1453.5204   -1151.5381   -3338.3395    2840.1656    1806.9729    2777.3337     76.24758 
   64200    174.01816   -108.69378   0.15745528   -108.53632    1204.4071    4.2413047    4.2413047    4.2413047    1204.4071   -464.02852    460.72445    3616.5255   -515.94326   -1290.9598   -1267.4687    76.295412 
   64300    218.19957   -108.73374   0.19743156   -108.53631   -1176.3413    4.2402886    4.2402886    4.2402886   -1176.3413    783.31215   -1009.4753   -3302.8608    -793.9865   -560.16128   -79.865133    76.240593 
   64400    172.39641   -108.69274   0.15598789   -108.53675    1924.1947    4.2401776    4.2401776    4.2401776    1924.1947    -6538.678    8903.0038    3408.2581    -6.326052   -629.60142   -1002.9445    76.234602 
   64500    199.64777   -108.71748    0.1806455   -108.53684   -2120.2435    4.2411899    4.2411899    4.2411899   -2120.2435   -5790.9071    -1180.527    610.70344    4187.7607    182.03015   -1249.4387    76.289216 
   64600    225.90659   -108.74093   0.20440503   -108.53653   -3566.9584    4.2409875    4.2409875    4.2409875   -3566.9584   -3667.1866   -3089.3398   -3944.3486    -568.4327    2221.9743   -2806.0701    76.278292 
   64700    185.31605   -108.70456   0.16767786   -108.53688    -333.2315    4.2402339    4.2402339    4.2402339    -333.2315   -497.61422   -2103.5759    1601.4956    2176.9945    -1833.794    2124.8813    76.237638 
   64800    226.29221   -108.74117   0.20475395   -108.53641    -3556.699    4.2405879    4.2405879    4.2405879    -3556.699   -3903.1518   -4265.5225   -2501.4228    1091.3054    2167.6984   -1152.9849    76.256734 
   64900    145.15917   -108.66805   0.13134307   -108.53671    1830.5234    4.2416697    4.2416697    4.2416697    1830.5234    -1107.957    5351.5275    1247.9998   -3618.4974   -1715.2373   -3435.7713    76.315109 
   65000    216.55169   -108.73212   0.19594052   -108.53618   -1918.7802    4.2395767    4.2395767    4.2395767   -1918.7802   -6234.3735    2097.7811   -1619.7481    2349.0351    724.36504    2092.8247    76.202197 
   65100    187.43285   -108.70588   0.16959318   -108.53629   -645.94663    4.2408345    4.2408345    4.2408345   -645.94663   -7755.9155    3037.9435    2780.1321    2249.5742    1507.1454    -329.0184    76.270038 
   65200    261.25871   -108.77255   0.23639237   -108.53616   -5121.1811    4.2422878    4.2422878    4.2422878   -5121.1811    -1739.689   -6869.9308   -6753.9237    1865.1463   -1076.4687   -1008.0899    76.348475 
   65300    158.96131   -108.68034   0.14383153   -108.53651    3462.4933    4.2387035    4.2387035    4.2387035    3462.4933     494.5083    2316.0106     7576.961   -217.37629    1773.5119    745.41322    76.155122 
   65400     222.1135   -108.73731   0.20097296   -108.53634   -1128.6622    4.2413178    4.2413178    4.2413178   -1128.6622    2482.9545   -1568.3068   -4300.6343    68.555388   -2272.4866    1066.0759    76.296116 
   65500    156.12442   -108.67816   0.14126466   -108.53689    3819.6092    4.2412346    4.2412346    4.2412346    3819.6092    633.17119    6972.4509    3853.2054   -2392.7428    1551.2491   -4018.1308    76.291629 
   65600    209.09467   -108.72542   0.18919326   -108.53623    1355.5687    4.2393209    4.2393209    4.2393209    1355.5687    -2349.473    5430.2335    985.94571   -1736.0493   -933.89115    -515.0846    76.188404 
   65700    230.50779   -108.74424   0.20856829   -108.53567   -1638.2806    4.2417922    4.2417922    4.2417922   -1638.2806   -1168.1512   -793.27169   -2953.4189    3977.9338    1093.9434    2090.8457    76.321724 
   65800    196.18505    -108.7133   0.17751236   -108.53578    741.10593     4.240564     4.240564     4.240564    741.10593   -3426.3627   -1480.4486     7130.129    540.38523    991.77718   -2203.6876    76.255448 
   65900    246.84664    -108.7593   0.22335203   -108.53595   -2449.5611    4.2400508    4.2400508    4.2400508   -2449.5611    6632.8329   -6899.7632   -7081.7529    463.90481   -1716.7323    770.80006    76.227766 
   66000    108.64606   -108.63547  0.098305237   -108.53716    5494.6812    4.2409705    4.2409705    4.2409705    5494.6812     1125.027    6565.8596    8793.1571   -765.80599   -623.62054    123.83082    76.277377 
   66100    250.78865   -108.76374   0.22691884   -108.53682   -3648.3541    4.2399651    4.2399651    4.2399651   -3648.3541   -2180.9931   -2120.3101   -6643.7591    613.71893     -1367.14   -1539.2639    76.223144 
   66200    131.38477   -108.65641    0.1188797   -108.53753    3847.5332    4.2408289    4.2408289    4.2408289    3847.5332    2003.3687    4911.3547    4627.8761   -816.07285      1751.79   -1692.5578    76.269738 
   66300    278.77671   -108.78853   0.25224303   -108.53629   -6878.9121    4.2410717    4.2410717    4.2410717   -6878.9121   -10259.892   -6060.6243   -4316.2194    2235.7965   -1667.1471    1598.3202    76.282841 
   66400    191.31816    -108.7093   0.17310869   -108.53619   -611.45563    4.2397367    4.2397367    4.2397367   -611.45563   -738.16751   -4185.6757    3089.4764    3350.0873    1987.3686   -1386.6707    76.210823 
   66500    200.37413   -108.71718   0.18130272   -108.53588   -1358.0891    4.2421017    4.2421017    4.2421017   -1358.0891   -2603.5838   -1459.7508   -10.932644   -2629.5532   -105.47861   -2196.0163    76.338429 
   66600     185.6494   -108.70392   0.16797947   -108.53594    372.16533    4.2395429    4.2395429    4.2395429    372.16533    1327.7882    2650.4725   -2861.7646    754.54023    -1006.845     2280.261    76.200375 
   66700    132.46051    -108.6562   0.11985306   -108.53635    3458.9871    4.2404517    4.2404517    4.2404517    3458.9871   -2508.6102    4388.8486    8496.7228   -481.29629    943.02749   -1512.1273    76.249387 
   66800    273.56949   -108.78349   0.24753143   -108.53596   -5983.7822    4.2422965    4.2422965    4.2422965   -5983.7822   -5558.9286   -3334.9844   -9057.4337   -217.17153   -1075.6775   -725.28431    76.348946 
   66900     143.0464   -108.66597   0.12943139   -108.53654    3614.8846    4.2385659    4.2385659    4.2385659    3614.8846   -4090.2067    2701.0771    12233.783    2130.1279    2069.7004    2129.1142    76.147706 
   67000    306.00525   -108.81276   0.27687998   -108.53588   -7744.1567    4.2423948    4.2423948    4.2423948   -7744.1567   -11133.069   -7957.3938   -4142.0068     2413.575   -857.38929    347.16821    76.354256 
   67100     144.5609   -108.66817   0.13080174   -108.53737    5101.3681    4.2403691    4.2403691    4.2403691    5101.3681    3066.2447    4587.4394    7650.4202   -986.85977    1016.3136   -3940.3133    76.244931 
   67200    201.65822   -108.71963    0.1824646   -108.53716    2166.0468    4.2387971    4.2387971    4.2387971    2166.0468   -447.75738     3970.374    2975.5237   -3552.9774   -1929.0482   -435.53469    76.160168 
   67300    160.89228    -108.6826   0.14557872   -108.53702    2366.3016    4.2426905    4.2426905    4.2426905    2366.3016      2416.27    5930.7275   -1248.0926   -73.850975    840.15038    1340.3508    76.370223 
   67400    184.73359   -108.70341   0.16715083   -108.53626    2173.7502    4.2394204    4.2394204    4.2394204    2173.7502    794.84369   -804.79084    6531.1977   -2261.7169    1077.5361   -2459.0117    76.193768 
   67500    265.67564   -108.77615    0.2403889   -108.53576   -4088.2004    4.2403999    4.2403999    4.2403999   -4088.2004   -3884.2167   -4227.0054    -4153.379    1211.2934   -803.83618    1609.3337    76.246596 
   67600    177.75224    -108.6972   0.16083397   -108.53636    -281.1067    4.2422929    4.2422929    4.2422929    -281.1067   -4399.6551   -4259.2663    7815.6013    2773.7429    673.66176    484.17104    76.348752 
   67700    255.58914   -108.76738   0.23126243   -108.53612   -4410.1173    4.2396007    4.2396007    4.2396007   -4410.1173   -5643.1261   -3430.8954   -4156.3304    757.36293   -1979.4978    -3421.937     76.20349 
   67800    151.49839   -108.67392   0.13707892   -108.53684    2299.9554    4.2411216    4.2411216    4.2411216    2299.9554   -910.01692    5694.8372    2115.0459    -1197.114    1534.6408   -561.96907    76.285528 
   67900     188.0116   -108.70666   0.17011685   -108.53654   -799.80477    4.2410783    4.2410783    4.2410783   -799.80477    758.66634    -784.8095   -2373.2712   -1426.4925   -1035.6643    2027.0099    76.283193 
   68000    184.16688   -108.70262   0.16663807   -108.53599    146.64595    4.2396172    4.2396172    4.2396172    146.64595   -747.77808   -39.817837    1227.5338   -473.58571    1469.4159   -2607.2461    76.204381 
   68100    209.75869    -108.7256   0.18979407    -108.5358   -1409.2925    4.2418324    4.2418324    4.2418324   -1409.2925    1800.4713   -7947.6966    1919.3477   -1630.4795      206.956   -822.02985    76.323893 
   68200    212.54441   -108.72829   0.19231465   -108.53597    -1854.765    4.2393752    4.2393752    4.2393752    -1854.765   -6176.5244    944.47211   -332.24266    2435.5931   -300.19023    2518.7517     76.19133 
   68300    202.01233   -108.71868     0.182785   -108.53589   -1884.8164    4.2411422    4.2411422    4.2411422   -1884.8164   -8145.1329   -2421.5677    4912.2515    2149.8342    1936.6943   -2248.2812    76.286644 
   68400    219.69907   -108.73482   0.19878834   -108.53604   -1293.3736    4.2416911    4.2416911    4.2416911   -1293.3736   -5514.5019    3540.8981    -1906.517   -1261.0853   -2154.4436   -563.26736    76.316264 
   68500    172.20472   -108.69233   0.15581445   -108.53652    2931.4871    4.2377298    4.2377298    4.2377298    2931.4871   -2050.4239    4256.8282    6588.0571   -65.878788    1225.4971    2203.8974    76.102649 
   68600    204.02088   -108.72135   0.18460238   -108.53675   -1674.8071    4.2429427    4.2429427    4.2429427   -1674.8071    -2564.304   -5436.2238    2976.1064    13.514135   -448.22361    590.08415    76.383843 
   68700    213.59828   -108.73009   0.19326821   -108.53682    849.76047    4.2403543    4.2403543    4.2403543    849.76047     282.4465   -946.61562    3213.4505    31.194289    3334.9816   -2620.2035    76.244135 
   68800    179.85641   -108.69973   0.16273786   -108.53699    2744.8123    4.2377802    4.2377802    4.2377802    2744.8123    890.17682   -1504.0385    8848.2985    1069.8976     120.9706    239.01639    76.105368 
   68900    204.38244   -108.72152   0.18492953   -108.53659   -3171.2065    4.2440484    4.2440484    4.2440484   -3171.2065   -11933.813    3020.4013   -600.20801    1880.8714   -569.26417    -191.0052    76.443575 
   69000    216.22361   -108.73158   0.19564367   -108.53593    166.55445      4.23959      4.23959      4.23959    166.55445   -753.55195   -916.63931    2169.8546   -1096.2542    648.05274   -2431.1307    76.202913 
   69100    185.36748    -108.7038   0.16772439   -108.53608    1812.6238     4.238445     4.238445     4.238445    1812.6238    -4182.945    4784.0718    4836.7445   -2437.7071   -2447.7581    2517.3913    76.141189 
   69200    225.01745   -108.73987   0.20360051   -108.53627   -5814.7783    4.2441363    4.2441363    4.2441363   -5814.7783   -3503.6122   -9820.7468   -4119.9757    352.11222    1332.7371    979.80041    76.448326 
   69300    175.60048   -108.69567     0.158887   -108.53678    2550.3821    4.2386702    4.2386702    4.2386702    2550.3821     7424.936   -3934.5667     4160.777    249.01718   -1826.1515   -3890.6669    76.153328 
   69400    225.95311   -108.74086   0.20444712   -108.53641   -1333.5538    4.2401042    4.2401042    4.2401042   -1333.5538    1641.6708   -3496.8864   -2145.4458    1959.5796    1388.0869   -165.54767    76.230645 
   69500    152.13671   -108.67473   0.13765649   -108.53708   -1217.1285    4.2426722    4.2426722    4.2426722   -1217.1285    833.79929   -1744.6615   -2740.5233    3647.2367    -841.6597     1990.337    76.369235 
   69600    226.12898   -108.74087   0.20460625   -108.53627    -1824.701    4.2395537    4.2395537    4.2395537    -1824.701   -5523.6548     2240.172     -2190.62    439.85606    713.78313   -3735.6706    76.200955 
   69700    212.85332    -108.7288   0.19259416   -108.53621   -449.95142    4.2410239    4.2410239    4.2410239   -449.95142   -419.12987   -2067.1854     1136.461   -2159.8169   -480.88505     1569.334     76.28026 
   69800    194.47597   -108.71236   0.17596595   -108.53639   -3560.6193    4.2414673    4.2414673    4.2414673   -3560.6193   -3303.5485   -4836.4902    -2541.819   -1288.2205   -45.138478     2934.335    76.304189 
   69900    231.61715   -108.74516   0.20957206   -108.53559   -2948.4504    4.2409351    4.2409351    4.2409351   -2948.4504    1540.8327   -8639.8974   -1746.2865    212.38716    741.21147   -3125.4134     76.27547 
   70000    162.77315   -108.68312   0.14728056   -108.53584    4026.8022    4.2406587    4.2406587    4.2406587    4026.8022     6305.701    1416.8558    4357.8499    556.19632   -2178.6898    555.49195    76.260557 
   70100    211.17582   -108.72714   0.19107632   -108.53606   -2195.4027    4.2394408    4.2394408    4.2394408   -2195.4027   -2660.6665   -1541.2392   -2384.3025    3398.7509     -141.038    3300.7711    76.194868 
   70200    144.06267   -108.66715   0.13035093    -108.5368    2587.3166    4.2421061    4.2421061    4.2421061    2587.3166     -5055.31    5363.4148     7453.845    2139.2119   -1845.4261   -145.00945    76.338666 
   70300    264.56347   -108.77564   0.23938259   -108.53625   -1578.8954    4.2399393    4.2399393    4.2399393   -1578.8954   -4442.2952   -769.16744    474.77639   -690.86295    1674.4395   -870.30788    76.221749 
   70400      187.726   -108.70683   0.16985843   -108.53697   -492.74014    4.2391265    4.2391265    4.2391265   -492.74014   -5151.9135   -595.57545    4269.2686   -202.43755   -2036.7414    1111.3766    76.177922 
   70500    220.62432   -108.73626   0.19962552   -108.53663   -4301.3745    4.2440094    4.2440094    4.2440094   -4301.3745   -7478.5863   -6568.3765    1142.8394    484.35768    936.95996   -862.79811    76.441469 
   70600    215.57392   -108.73079   0.19505581   -108.53573    2334.3922    4.2381853    4.2381853    4.2381853    2334.3922    4083.2332    410.40076    2509.5426    156.69826   -155.34307   -1448.0807    76.127194 
   70700    145.65912   -108.66816   0.13179543   -108.53636    2791.7028    4.2394107    4.2394107    4.2394107    2791.7028    913.07985     2498.627    4963.4015    1255.2462   -3384.5478    1915.4593    76.193246 
   70800    197.60835   -108.71515   0.17880019   -108.53635   -3507.9231    4.2443638    4.2443638    4.2443638   -3507.9231   -6102.2924   -1413.8002   -3007.6767    1726.6097    518.19238    494.83228    76.460618 
   70900    202.73293   -108.71896   0.18343701   -108.53552    3747.7808    4.2373239    4.2373239    4.2373239    3747.7808    2322.9077    3972.1828    4948.2519   -534.29852   -2404.1755   -2636.0476    76.080788 
   71000    246.93681   -108.75905   0.22343361   -108.53562   -4132.9405    4.2409785    4.2409785    4.2409785   -4132.9405   -5902.0936   -6963.0155     466.2875   -775.44578    649.12374    643.70022    76.277807 
   71100    171.01603   -108.69172    0.1547389   -108.53698    -2518.394    4.2432556    4.2432556    4.2432556    -2518.394    -2394.053   -3947.7388   -1213.3903     1075.661   -1164.4105    550.86992     76.40074 
   71200    245.92177   -108.75892   0.22251519   -108.53641     1080.724    4.2373052    4.2373052    4.2373052     1080.724    6006.6636   -1404.3526   -1360.1389    2034.6356     1789.262   -3689.1257    76.079778 
   71300    140.77336    -108.6648    0.1273747   -108.53742    4849.9386    4.2410717    4.2410717    4.2410717    4849.9386    1062.5659    7173.5771    6313.6727    1888.0294   -1375.3194    2645.0754     76.28284 
   71400    169.83482   -108.69081   0.15367011   -108.53714   -962.97132    4.2421436    4.2421436    4.2421436   -962.97132    4614.6425   -1725.9589   -5777.5976    1845.2187   -2057.0273    3537.7725    76.340695 
   71500     228.6021   -108.74282   0.20684399   -108.53597    1242.8046    4.2390212    4.2390212    4.2390212    1242.8046   -4035.2048     2032.907    5730.7115   -457.86863     1323.833   -1974.8715    76.172246 
   71600    222.68295   -108.73714   0.20148821   -108.53565   -223.23421    4.2411741    4.2411741    4.2411741   -223.23421    2446.8889   -2896.8497   -219.74186   -2306.5922   -2302.6384    493.34261    76.288364 
   71700    240.86291    -108.7539   0.21793782   -108.53596   -6110.2158    4.2414995    4.2414995    4.2414995   -6110.2158   -4582.9643   -8154.5362    -5593.147    322.09087    979.08484    1979.6161    76.305924 
   71800    158.96337   -108.68096    0.1438334   -108.53713    3811.6752     4.240454     4.240454     4.240454    3811.6752   -1524.1496    4002.4928    8956.6823     1644.999   -2195.4383   -1007.1543    76.249511 
   71900    225.67029   -108.74079   0.20419122    -108.5366     689.6517    4.2400534    4.2400534    4.2400534     689.6517    4818.4923     2695.166   -5444.7032    1956.0035   -275.94518    451.19697    76.227904 
   72000    109.53331   -108.63629  0.099108038   -108.53719    2285.2777    4.2410445    4.2410445    4.2410445    2285.2777   -2415.6381    4961.1045    4310.3667    3827.8797   -2179.3681    2456.6339    76.281373 
   72100    229.16043   -108.74374   0.20734917   -108.53639   -2972.9274    4.2417283    4.2417283    4.2417283   -2972.9274   -405.67516   -3649.5652   -4863.5418    2708.7326    901.31227   -1376.5386    76.318276 
   72200    225.23816   -108.73964   0.20380022   -108.53584   -217.56118    4.2392216    4.2392216    4.2392216   -217.56118   -3401.8737     630.0123    2119.1778   -1764.7128     998.2223   -1111.2401    76.183052 
   72300     212.6844   -108.72863   0.19244132   -108.53619   -5552.4905    4.2413689    4.2413689    4.2413689   -5552.4905   -4132.0479    -9380.993   -3144.4307   -641.89804   -4069.9905    2264.1407    76.298879 
   72400    223.41903    -108.7384   0.20215423   -108.53625     -4541.23    4.2426279    4.2426279    4.2426279     -4541.23   -8211.2737   -2673.5175   -2738.8987    523.92167    2893.4332    -194.8062    76.366841 
   72500    157.35406   -108.67866   0.14237726   -108.53628    5152.2118    4.2382267    4.2382267    4.2382267    5152.2118    9958.1747     4880.876    617.58475    733.38861   -3341.7419   -1157.6235    76.129423 
   72600    198.63296   -108.71584   0.17972728   -108.53611   -2500.8667    4.2416794    4.2416794    4.2416794   -2500.8667   -2783.7128    1605.8904   -6324.7775    2845.7785   -1543.7661    1944.6636    76.315633 
   72700    145.16469   -108.66772   0.13134807   -108.53638    1486.6148    4.2420398    4.2420398    4.2420398    1486.6148    3105.2643    1506.0128   -151.43289    1224.3051   -233.49608   -502.16142    76.335088 
   72800    268.20609    -108.7783   0.24267851   -108.53562   -1088.2976    4.2380544    4.2380544    4.2380544   -1088.2976    5023.4305   -4083.2519   -4205.0714    790.17826    471.52925   -2618.1938    76.120142 
   72900    208.01194   -108.72506   0.18821357   -108.53685   -1569.8909    4.2418927    4.2418927    4.2418927   -1569.8909   -4703.9038   -1857.2985    1851.5296   -1160.6811    317.33376    1574.3627    76.327149 
   73000     197.9073   -108.71565   0.17907068   -108.53658   -606.14237     4.241745     4.241745     4.241745   -606.14237    8353.6145   -4807.2043   -5364.8373    865.01681   -1789.4946    1448.1714    76.319177 
   73100    197.80629     -108.715   0.17897929   -108.53602    5194.5382    4.2381613    4.2381613    4.2381613    5194.5382    1986.2724    9317.1351    4280.2073    883.55171    2403.7844   -1148.6041    76.125899 
   73200     153.2048   -108.67509   0.13862292   -108.53646    3882.7033    4.2412638    4.2412638    4.2412638    3882.7033    11049.086    1923.1705   -1324.1466    935.75761   -3990.9511    3182.5644    76.293202 
   73300     207.6986   -108.72507   0.18793006   -108.53714    -2116.425    4.2408661    4.2408661    4.2408661    -2116.425   -3178.3311    972.41781   -4143.3618    885.75638    632.31798     909.0829    76.271743 
   73400    214.21402   -108.73095   0.19382535   -108.53713    1411.1898     4.239293     4.239293     4.239293    1411.1898   -294.45053    354.34694     4173.673   -876.97884    22.402188   -2435.5497    76.186899 
   73500    251.34194   -108.76365   0.22741947   -108.53623   -2579.4687    4.2417945    4.2417945    4.2417945   -2579.4687   -2108.3868   -3989.1886   -1640.8308   -193.76164    -847.1509    730.31743    76.321848 
   73600    189.88098   -108.70857    0.1718083   -108.53676   -1287.7666    4.2407443    4.2407443    4.2407443   -1287.7666   -1847.9191    -164.9926    -1850.388     928.6908   -1132.0683    1026.7484    76.265175 
   73700    170.82173   -108.69139    0.1545631   -108.53683    2379.5475    4.2403035    4.2403035    4.2403035    2379.5475    2548.8382    2450.3644      2139.44    4952.7075   -78.303448    -868.9328    76.241394 
   73800    183.25711   -108.70225   0.16581489   -108.53644     1016.731    4.2407745    4.2407745    4.2407745     1016.731    725.04904    7768.5055   -5443.3616    718.17615    218.84278    157.56398      76.2668 
   73900    173.79917   -108.69376   0.15725714    -108.5365   -1237.0837    4.2406036    4.2406036    4.2406036   -1237.0837    939.65571     -1740.58   -2910.3269    1988.1733   -4449.2556    2973.9705     76.25758 
   74000    234.04694   -108.74762   0.21177059   -108.53585   -4301.9017    4.2417322    4.2417322    4.2417322   -4301.9017   -9237.5252   -1869.1938   -1798.9861    13.615766     3509.597   -1388.1829    76.318483 
   74100    241.44321   -108.75378   0.21846289   -108.53532   -3899.0096    4.2403769    4.2403769    4.2403769   -3899.0096    2942.3057   -6947.1642   -7692.1705   -3017.3061   -1915.4317   -924.63006    76.245353 
   74200    187.22709   -108.70496     0.169407   -108.53556   -2177.2327    4.2410925    4.2410925    4.2410925   -2177.2327   -6634.5445     919.3824    -816.5359    1454.9432   -2395.7543    2292.5688    76.283959 
   74300    187.42177    -108.7058   0.16958315   -108.53621   -1095.8547    4.2418606    4.2418606    4.2418606   -1095.8547    4057.6972    1812.4589   -9157.7203    1898.5741    836.25147   -902.40354    76.325415 
   74400    145.26727   -108.66829   0.13144088   -108.53684    4883.5538     4.238441     4.238441     4.238441    4883.5538     3503.144    10274.476    873.04112    4013.0118   -1567.5892    59.649329    76.140974 
   74500    209.62011   -108.72629   0.18966868   -108.53662   -2785.0076    4.2421534    4.2421534    4.2421534   -2785.0076   -933.63066    1723.3858   -9144.7779    605.49607   -299.23441    731.25648    76.341222 
   74600    219.45206   -108.73508   0.19856484   -108.53652   -2646.3927    4.2413438    4.2413438    4.2413438   -2646.3927    411.28842   -5585.0853   -2765.3812    927.21909    738.36589    19.639741    76.297522 
   74700    230.17381    -108.7448    0.2082661   -108.53653   -712.00918     4.239241     4.239241     4.239241   -712.00918   -7134.9548     7238.251   -2239.3237   -2128.4636    3440.4115   -1363.4295    76.184099 
   74800    215.83481   -108.73191   0.19529187   -108.53662   -1629.6932      4.24193      4.24193      4.24193   -1629.6932    808.17773   -3242.9259   -2454.3314   -643.76822   -3451.2356    3612.5624    76.329164 
   74900    171.94414   -108.69247   0.15557867    -108.5369    2047.0243    4.2404236    4.2404236    4.2404236    2047.0243   -5255.4525    12340.182   -943.65673    1776.3853    1492.1235    750.29936    76.247872 
   75000     180.5479   -108.69995   0.16336353   -108.53659    3792.9596     4.238868     4.238868     4.238868    3792.9596    4164.9915    6028.4456    1185.4418    1056.1986    1462.5907   -1977.2024    76.163988 
   75100     193.8387   -108.71137   0.17538933   -108.53598    419.50415    4.2419009    4.2419009    4.2419009    419.50415   -1343.3565    920.61361    1681.2553    1998.4204    -3252.364    1987.4659    76.327593 
   75200     227.5414   -108.74139   0.20588424    -108.5355   -2186.7089    4.2406126    4.2406126    4.2406126   -2186.7089   -4216.9008    1256.6371   -3599.8629   -1555.7959       1501.8   -508.24062    76.258067 
   75300    199.15419   -108.71585    0.1801989   -108.53565    1380.5744    4.2395003    4.2395003    4.2395003    1380.5744   -6029.5122    1263.8383    8907.3969    1868.7942    918.43173   -950.63678    76.198076 
   75400    221.60127   -108.73638   0.20050949   -108.53587   -2146.5651    4.2413888    4.2413888    4.2413888   -2146.5651   -6915.5436    6638.1133    -6162.265   -382.66375     653.1009    186.10153    76.299952 
   75500    170.75159   -108.69079   0.15449962   -108.53629    113.99575    4.2409157    4.2409157    4.2409157    113.99575   -3822.0434   -1061.1336    5225.1642    2594.5598   -2231.8516    1607.6494    76.274418 
   75600    186.22284   -108.70486   0.16849834   -108.53636    766.08827    4.2394998    4.2394998    4.2394998    766.08827   -2141.8185    7574.6025   -3134.5192    3201.1275    2962.8539   -797.28223    76.198049 
   75700     200.5441   -108.71766   0.18145651    -108.5362   -1379.7945    4.2412146    4.2412146    4.2412146   -1379.7945    4775.8157   -7694.5523    -1220.647   -1263.0838   -1665.4103   -480.61774    76.290548 
   75800    201.60161    -108.7188   0.18241338   -108.53639   -2101.6783    4.2412533    4.2412533    4.2412533   -2101.6783   -4567.2967    209.08438   -1946.8225    -695.2228   -2026.1873    1207.3142    76.292638 
   75900    212.21024   -108.72812   0.19201228   -108.53611   -1826.0224    4.2404029    4.2404029    4.2404029   -1826.0224   -2144.9226    760.98929   -4094.1338   -1532.0854    3532.8477   -1533.3168    76.246758 
   76000    192.51282   -108.71005   0.17418965   -108.53586   -376.94285    4.2406157    4.2406157    4.2406157   -376.94285   -7443.2138    6457.1622   -144.77687     1400.637   -2590.3331   -75.777572    76.258236 
   76100    213.93905   -108.72937   0.19357655    -108.5358   -2483.3197    4.2419942    4.2419942    4.2419942   -2483.3197   -3823.0392    6121.9197   -9748.8396    2106.6035   -664.87662    348.32598    76.332627 
   76200    181.35267   -108.70065    0.1640917   -108.53655    1407.5739    4.2397931    4.2397931    4.2397931    1407.5739    5345.7352   -3431.8612    2308.8476    3904.8866    1677.9969   -35.374545    76.213863 
   76300    210.66217   -108.72727   0.19061156   -108.53666   -807.50382    4.2407188    4.2407188    4.2407188   -807.50382    1238.9832    5029.0941   -8690.5888   -775.41138    1607.2421   -1142.5412    76.263797 
   76400    194.91165   -108.71293   0.17636015   -108.53657    228.78136    4.2413616    4.2413616    4.2413616    228.78136    4399.7645   -6109.4612    2396.0408   -2209.6691   -2469.6044    2505.2553    76.298482 
   76500    192.51444   -108.71057   0.17419111   -108.53638    1955.4433    4.2395451    4.2395451    4.2395451    1955.4433   -2596.1456    14175.386   -5712.9105   -486.26824     2252.489     606.4686    76.200494 
   76600    205.42785   -108.72201   0.18587543   -108.53614    78.488212    4.2408452    4.2408452    4.2408452    78.488212   -7048.2062    4310.4318    2973.2391    -1271.143    1428.5344   -1130.3886    76.270619 
   76700     216.0883   -108.73123   0.19552123   -108.53571   -749.99068    4.2409868    4.2409868    4.2409868   -749.99068   -2160.3493    2712.3933    -2802.016    2408.3881   -4008.2871    2275.3622    76.278257 
   76800    204.18487   -108.72058   0.18475076   -108.53583    431.07231    4.2403214    4.2403214    4.2403214    431.07231   -345.01608     3712.375    -2074.142    349.70986    2206.8024   -835.11448    76.242357 
   76900    191.74931   -108.70969    0.1734988    -108.5362    207.38145    4.2406253    4.2406253    4.2406253    207.38145    662.40386      -3677.9    3637.6405    1708.7411    798.80843    215.74699    76.258751 
   77000    170.19518   -108.69015   0.15399617   -108.53615    1785.6813    4.2406162    4.2406162    4.2406162    1785.6813    2450.4209    8752.7094   -5846.0864   -2057.6523   -1247.2258    840.30062    76.258262 
   77100    212.28497   -108.72806    0.1920799   -108.53598   -1233.1225    4.2408008    4.2408008    4.2408008   -1233.1225   -6601.6667   -1300.7419    4203.0411    42.205858    800.68839    1162.4631    76.268223 
   77200     186.6962   -108.70522   0.16892665   -108.53629   -544.41918    4.2401853    4.2401853    4.2401853   -544.41918   -7129.2988    8868.5193    -3372.478    2148.8184    2882.3334   -791.68967     76.23502 
   77300    243.44315   -108.75678   0.22027248   -108.53651   -4022.4289    4.2406924    4.2406924    4.2406924   -4022.4289   -6135.6861   -4579.2209   -1352.3796   -189.41784   -2733.5469    384.19219    76.262371 
   77400    207.70904   -108.72524   0.18793951    -108.5373   -1350.6037    4.2408909    4.2408909    4.2408909   -1350.6037   -3751.3591    2290.0905   -2590.5426    1847.2009   -619.96986    938.07735    76.273081 
   77500    165.09492   -108.68664   0.14938136   -108.53726    1304.2509    4.2397761    4.2397761    4.2397761    1304.2509    2929.0195    2052.3528   -1068.6197   -2614.4352    3393.0011   -1340.4781     76.21295 
   77600    186.32742    -108.7049   0.16859296   -108.53631   -223.18921    4.2413755    4.2413755    4.2413755   -223.18921    1723.2237    3845.9441   -6238.7354   -507.37107   -3689.4923    206.64042    76.299231 
   77700    170.22931   -108.68982   0.15402706   -108.53579    2210.5867    4.2406033    4.2406033    4.2406033    2210.5867   -3434.2585    10132.906   -66.887884   -1867.1801    29.555785   -332.86311    76.257569 
   77800    251.52066   -108.76338   0.22758118    -108.5358   -3621.2875    4.2404039    4.2404039    4.2404039   -3621.2875   -2506.9737    -2849.597   -5507.2918    3250.1281    2102.8914    820.56488    76.246809 
   77900    191.35472   -108.70944   0.17314177    -108.5363   -103.78072    4.2415303    4.2415303    4.2415303   -103.78072   -5755.8413    5522.4368   -77.937587    1260.2734   -677.63576   -800.09496    76.307586 
   78000    269.28627   -108.77935   0.24365588   -108.53569   -3419.0143    4.2409163    4.2409163    4.2409163   -3419.0143   -1032.9018   -6599.8274   -2624.3137   -740.26999   -860.77451    1684.6547    76.274452 
   78100    128.95608   -108.65301   0.11668217   -108.53633      5846.41    4.2397667    4.2397667    4.2397667      5846.41    7284.4592    12462.864   -2208.0929    437.09749     2069.794    635.46354    76.212444 
   78200    190.11192   -108.70792   0.17201726   -108.53591    637.64539    4.2414529    4.2414529    4.2414529    637.64539   -2523.1577    3509.4797    926.61419   -4552.9519    826.46997   -692.09832     76.30341 
   78300     191.1451   -108.70872    0.1729521   -108.53577    2618.6268    4.2398281    4.2398281    4.2398281    2618.6268    5969.1795     5547.612   -3660.9111    61.469741   -3084.0906    2274.5302    76.215754 
   78400    213.72085   -108.72987   0.19337912   -108.53649     -1016.98    4.2405145    4.2405145    4.2405145     -1016.98   -7287.5801    1835.5024    2401.1378   -998.60551    2562.7664   -724.53842    76.252778 
   78500    244.27515   -108.75772   0.22102529   -108.53669   -5634.2431    4.2415339    4.2415339    4.2415339   -5634.2431   -6953.5206    -7178.388   -2770.8207    4417.4904    -646.6146    241.69721     76.30778 
   78600    182.22576   -108.70147    0.1648817   -108.53658    906.60003     4.240492     4.240492     4.240492    906.60003   -2626.3147    4801.9154    544.19934   -606.54641   -2552.1652      606.936    76.251564 
   78700    221.89754    -108.7369   0.20077755   -108.53612   -1560.9119    4.2405019    4.2405019    4.2405019   -1560.9119    -602.8225   -9.8280763   -4070.0852   -685.98876    2570.3316     1553.469    76.252097 
   78800    106.29213   -108.63323  0.096175356   -108.53706    4132.8445     4.240768     4.240768     4.240768    4132.8445    1019.4227    8267.8727    3111.2382    67.728552    1670.5886    629.22771    76.266455 
   78900    246.23998   -108.75915   0.22280311   -108.53634   -3096.8481    4.2403565    4.2403565    4.2403565   -3096.8481    117.90993   -1807.7615   -7600.6928   -2609.8991   -3073.2577    555.90377    76.244251 
   79000    188.35422   -108.70728   0.17042686   -108.53685    528.71685     4.240657     4.240657     4.240657    528.71685   -3408.6338    2304.7644      2690.02    3500.0751    142.68961    843.54789    76.260463 
   79100    250.10498   -108.76283   0.22630024   -108.53653   -5589.3156    4.2408443    4.2408443    4.2408443   -5589.3156    -6272.454   -5937.9817   -4557.5111   -841.71566    2539.1753   -1254.7113    76.270569 
   79200    179.52851   -108.69878   0.16244117   -108.53634    990.74342    4.2406481    4.2406481    4.2406481    990.74342    4619.2985    3189.6623   -4836.7306    1623.5287   -4866.8303    871.64728    76.259984 
   79300    193.50221   -108.71103   0.17508487   -108.53594    1874.0689    4.2402828    4.2402828    4.2402828    1874.0689    22.799265    4071.5271    1527.8804   -2618.2379    685.70242   -152.45022    76.240277 
   79400    176.63803   -108.69662   0.15982581    -108.5368    560.46027    4.2400208    4.2400208    4.2400208    560.46027    7721.3257    2012.5974   -8052.5423    197.94075    2186.0577   -233.60924    76.226143 
   79500    165.02999   -108.68634   0.14932261   -108.53702    2011.9162    4.2405966    4.2405966    4.2405966    2011.9162   -1593.2508     6028.146    1600.8535   -93.956346   -2023.8862    354.87513    76.257205 
   79600    292.12026   -108.80011   0.26431655    -108.5358   -5375.0461    4.2416658    4.2416658    4.2416658   -5375.0461    -2482.634   -8064.0472    -5578.457    11.405751    1167.4713    742.84402    76.314902 
   79700    166.61103   -108.68699   0.15075316   -108.53624     1175.095    4.2397307    4.2397307    4.2397307     1175.095    395.62013    1200.2696    1929.3952    3581.7039     2649.212    779.24205      76.2105 
   79800    245.41389   -108.75785   0.22205564    -108.5358   -4667.9514     4.241923     4.241923     4.241923   -4667.9514    -2773.743   -6681.8776   -4548.2335   -2570.3919   -868.55325   -982.93293    76.328784 
   79900     148.1794   -108.67044   0.13407584   -108.53636    4828.3345    4.2406131    4.2406131    4.2406131    4828.3345    7471.2005    3654.3766    3359.4263   -1635.5226   -641.44275    1501.3181    76.258094 
   80000    199.93815    -108.7177   0.18090824   -108.53679   -672.55832    4.2394317    4.2394317    4.2394317   -672.55832   -1238.7873    3282.0437   -4060.9314   -2748.2466    3686.1397    108.12557     76.19438 
   80100    148.57006   -108.67163   0.13442931    -108.5372    288.55346     4.241837     4.241837     4.241837    288.55346     -3789.55    127.56443    4527.6459    713.00019   -1228.1204    116.58248     76.32414 
   80200     254.4932   -108.76582   0.23027079   -108.53555   -2830.0704     4.240903     4.240903     4.240903   -2830.0704   -6292.1884   -2223.8109    25.788219    526.13085   -1856.7797    351.04836    76.273737 
   80300    234.65043   -108.74798   0.21231664   -108.53567   -2384.0922    4.2396295    4.2396295    4.2396295   -2384.0922   -1773.0426   -5910.0769    530.84296    2529.7909    2785.5268   -471.13484    76.205043 
   80400     153.8648   -108.67599    0.1392201   -108.53677   -722.17764    4.2422496    4.2422496    4.2422496   -722.17764   -3517.0908   -5851.9923    7202.5501    2310.3247    1028.8798     1132.994    76.346415 
   80500    251.99148   -108.76404   0.22800719   -108.53604   -1251.6414    4.2394476    4.2394476    4.2394476   -1251.6414    6615.8495   -2871.2626   -7499.5112   -3029.5053   -1886.4421    538.09243    76.195235 
   80600    120.86442    -108.6463   0.10936066   -108.53694    6545.9529    4.2407276    4.2407276    4.2407276    6545.9529    2079.9743    6310.7547     11247.13   -714.41818      1675.58    805.85753    76.264274 
   80700    235.12744   -108.74946   0.21274824   -108.53671   -4802.8009    4.2414048    4.2414048    4.2414048   -4802.8009   -4680.8514   -617.67583   -9109.8756   -1298.2938    1305.9847   -226.57088    76.300812 
   80800    167.61282   -108.68809    0.1516596   -108.53643    3154.0451    4.2398431    4.2398431    4.2398431    3154.0451    846.14766    4848.5991    3767.3886    1203.0183   -3975.1274    864.65755    76.216562 
   80900    264.43261   -108.77507   0.23926419   -108.53581    -2706.454    4.2416145    4.2416145    4.2416145    -2706.454   -475.55351   -3927.3646   -3716.4438    1125.3547     1101.221   -296.34434     76.31213 
   81000    182.54848   -108.70214    0.1651737   -108.53696   -831.17683    4.2396244    4.2396244    4.2396244   -831.17683    4063.1248   -3890.3343    -2666.321    1571.0192    1411.9308   -342.71353    76.204771 
   81100    184.19267   -108.70375    0.1666614   -108.53709    803.86783     4.240544     4.240544     4.240544    803.86783    3038.3495    776.66694   -1403.4129   -954.02398   -1455.1468   -351.73445    76.254369 
   81200    243.26781   -108.75613   0.22011383   -108.53602   -1678.6885    4.2415926    4.2415926    4.2415926   -1678.6885    639.13071    1009.5941   -6684.7904   -1752.9078    1884.4937    375.90142     76.31095 
   81300    129.51762   -108.65408   0.11719026   -108.53689    2278.9694     4.238635     4.238635     4.238635    2278.9694   -4270.1687    8227.7718    2879.3052    2268.9837    4944.9384    1850.1845    76.151429 
   81400    239.49903   -108.75315   0.21670375   -108.53645   -5179.5147    4.2424414    4.2424414    4.2424414   -5179.5147   -4018.9228   -959.15218   -10560.469    754.77432   -1524.6607   -366.48197    76.356771 
   81500    183.06504    -108.7022    0.1656411   -108.53656    1836.8996    4.2404212    4.2404212    4.2404212    1836.8996    1300.6252    -1910.177    6120.2506    1344.5721    1089.8232    1010.8177     76.24774 
   81600    221.35053   -108.73681   0.20028261   -108.53653   -4806.6379    4.2391495    4.2391495    4.2391495   -4806.6379   -1929.3011    -2793.499   -9697.1136   -83.187114    5028.4222   -611.31786    76.179164 
   81700    176.02698   -108.69566   0.15927291   -108.53639   -2464.0782     4.243325     4.243325     4.243325   -2464.0782   -4619.1013   -6500.1507    3727.0175   -616.86367   -2203.9425   -313.45081    76.404489 
   81800    241.71224   -108.75398   0.21870631   -108.53527   -1169.0414    4.2395156    4.2395156    4.2395156   -1169.0414   -4248.9119    3125.7553   -2383.9676    -1479.557    1409.8206   -394.74444    76.198902 
   81900    169.18037   -108.68903   0.15307796   -108.53596   0.92834817    4.2398473    4.2398473    4.2398473   0.92834817   -5302.2615    5416.5158   -111.46926    1281.0003    3824.6044    268.04436    76.216789 
   82000    167.15543   -108.68793   0.15124574   -108.53668   -883.47736    4.2429528    4.2429528    4.2429528   -883.47736   -5449.2105   -641.87342    3440.6518    3465.2915   -496.20367    1061.9584    76.384389 
   82100     232.0103   -108.74596    0.2099278   -108.53603    1666.7015    4.2380279    4.2380279    4.2380279    1666.7015    5766.1351     1431.306   -2197.3367     780.4478    92.086673   -746.25241    76.118711 
   82200     186.2486   -108.70521   0.16852165   -108.53668    595.83605    4.2416221    4.2416221    4.2416221    595.83605     3648.801   -6123.8827    4262.5898    1413.4341    3215.8624    610.61339    76.312542 
   82300    222.81044   -108.73803   0.20160357   -108.53643   -2951.0773    4.2420214    4.2420214    4.2420214   -2951.0773     295.0089   -5309.3612   -3838.8796   -1729.9532    1054.1919   -1235.7008    76.334093 
   82400    224.77787   -108.73947   0.20338374   -108.53609    2267.4116    4.2383986    4.2383986    4.2383986    2267.4116    1689.6259    413.02975    4699.5791   -1661.3381   -1133.7588    303.17402    76.138686 
   82500     193.2724   -108.71178   0.17487693    -108.5369     513.6926     4.242681     4.242681     4.242681     513.6926    1875.7061    3992.0722   -4326.7005    642.55134    2289.7461     949.7164    76.369711 
   82600      167.412   -108.68885    0.1514779   -108.53738    2016.1274    4.2391548    4.2391548    4.2391548    2016.1274     1101.095    3887.6988    1059.5883    3090.7791   -811.95717    277.40033    76.179449 
   82700    198.24574   -108.71622   0.17937691   -108.53684       2878.8    4.2398113    4.2398113    4.2398113       2878.8    10142.977    2146.8611   -3653.4383    967.50639    -1052.764   -161.17589    76.214848 
   82800    205.71951   -108.72248   0.18613934   -108.53634   -509.14666    4.2426657    4.2426657    4.2426657   -509.14666    2941.9903   -3642.4698   -826.96051    328.42092    3370.3146   -1630.3454    76.368883 
   82900    230.71754   -108.74474   0.20875808   -108.53598   -3860.6066    4.2389919    4.2389919    4.2389919   -3860.6066    -3215.738   -4000.7636   -4365.3181    847.27035    3542.7784    710.59392    76.170669 
   83000    199.14924   -108.71607   0.18019441   -108.53588    341.77121    4.2414184    4.2414184    4.2414184    341.77121    1103.5999    853.67895   -931.96524   -1789.0842   -82.859236   -462.60333    76.301548 
   83100    216.52618   -108.73197   0.19591743   -108.53605   -1556.5761    4.2412409    4.2412409    4.2412409   -1556.5761   -1142.9842   -311.66611   -3215.0779    1158.3064    2105.7261    1081.4408     76.29197 
   83200    135.10414   -108.65913   0.12224506   -108.53688    1864.2217     4.238539     4.238539     4.238539    1864.2217     390.0593    9727.5417    -4524.936     1919.889    4223.2911    1225.1817    76.146253 
   83300     215.6867   -108.73115   0.19515786   -108.53599   -3031.4521    4.2429598    4.2429598    4.2429598   -3031.4521   -886.53765   -4581.1525   -3626.6661    1299.1309   -1803.2545   -1385.4239    76.384767 
   83400    220.93798   -108.73538   0.19990933   -108.53547   -2929.6212    4.2398497    4.2398497    4.2398497   -2929.6212   -2707.7576   -742.89645   -5338.2096   -1141.3618    2962.8316    399.02401     76.21692 
   83500     203.4675   -108.71972   0.18410167   -108.53562   -3910.3608    4.2400706    4.2400706    4.2400706   -3910.3608   -5897.8322   -2495.8146   -3337.4354    216.69716    5198.0855   -1265.8581    76.228831 
   83600    227.82092   -108.74254   0.20613715   -108.53641   -3623.6965    4.2428229    4.2428229    4.2428229   -3623.6965    2382.3792   -9053.6516   -4199.8169    931.55314   -2604.6778    676.54931    76.377371 
   83700    163.48437   -108.68507   0.14792409   -108.53715    4094.8809    4.2376278    4.2376278    4.2376278    4094.8809    1182.9823    7293.8242    3807.8361    1064.7332    2564.4004    427.40814    76.097158 
   83800    185.45282   -108.70493   0.16780161   -108.53713   -1448.2847    4.2423088    4.2423088    4.2423088   -1448.2847    5628.4049    -235.9441   -9737.3147    3007.5812    2415.3818    1206.1906    76.349615 
   83900    163.65553   -108.68442   0.14807896   -108.53634    2565.1036    4.2412921    4.2412921    4.2412921    2565.1036    342.35338    4690.9942     2661.963    762.73489    245.78418    997.08648    76.294733 
   84000    258.16246   -108.76904   0.23359082   -108.53544   -1544.4764    4.2383657    4.2383657    4.2383657   -1544.4764    1613.8887   -1633.6495   -4613.6683   -1903.6839     2202.697   -2262.8416    76.136915 
   84100    190.01556   -108.70812   0.17193007   -108.53619   -1642.7027    4.2433791    4.2433791    4.2433791   -1642.7027    3024.5885   -5310.2544   -2642.4422   -1140.1422     2747.336    136.02806    76.407414 
   84200    220.80402   -108.73587   0.19978811   -108.53608   -98.035737    4.2394698    4.2394698    4.2394698   -98.035737    1452.5451   -4343.8029    2597.1505    823.86811   -1062.1742   -850.20485    76.196431 
   84300    196.73116   -108.71419   0.17800649   -108.53618    2914.1338    4.2393142    4.2393142    4.2393142    2914.1338    10286.283    403.71544   -1947.5976    49.555484   -1806.5217    1199.3575    76.188041 
   84400    165.43098   -108.68624   0.14968543   -108.53656     1137.696    4.2429044    4.2429044    4.2429044     1137.696    148.91914    5519.9207   -2255.7518    2771.3043    4105.9026    660.61602    76.381774 
   84500    207.27575    -108.7234   0.18754746   -108.53585    1197.2989    4.2385006    4.2385006    4.2385006    1197.2989    757.94989    2946.8301   -112.88324     1153.159   -23.871086   -166.71098    76.144183 
   84600    225.96125   -108.74028   0.20445448   -108.53582   -123.34148    4.2410561    4.2410561    4.2410561   -123.34148    256.78645    1276.5754   -1903.3863   -2276.8493    116.68154   -269.82779    76.281999 
   84700    190.88405   -108.70946    0.1727159   -108.53675   -466.17569    4.2412083    4.2412083    4.2412083   -466.17569    5059.9279   -5015.8453   -1442.6097   -1272.1672    3190.0634   -1356.3629    76.290208 
   84800    214.28919   -108.73081   0.19389336   -108.53691   -938.95812    4.2394751    4.2394751    4.2394751   -938.95812     929.0305   -1688.9991   -2056.9058     1191.788    548.20784    1470.9547    76.196717 
   84900    200.87679   -108.71827   0.18175754   -108.53651    624.36212    4.2415866    4.2415866    4.2415866    624.36212       6579.9   -1652.5953   -3054.2183    1030.5182   -1502.7462   -397.22994    76.310623 
   85000    178.48417     -108.698   0.16149623    -108.5365    464.24426    4.2399958    4.2399958    4.2399958    464.24426   -4279.0435    6409.7125    -737.9362    77.110217     2898.434    674.10576      76.2248 
   85100    206.00969   -108.72251   0.18640189   -108.53611   -1611.2441    4.2405992    4.2405992    4.2405992   -1611.2441   -686.05727    4480.4793   -8628.1545    543.09743    3171.3911    983.07183    76.257347 
   85200    165.74082   -108.68613   0.14996577   -108.53616    2367.2803    4.2408404    4.2408404    4.2408404    2367.2803    8045.8134   -2081.4539    1137.4815   -1566.9925   -3156.8007   -1420.9597    76.270356 
   85300     254.2016   -108.76622   0.23000695   -108.53621   -4261.5431    4.2396098    4.2396098    4.2396098   -4261.5431   -966.95686   -3062.5591   -8755.1133    -419.7546    2722.4919   -618.87869    76.203983 
   85400    153.17167   -108.67565   0.13859295   -108.53705    757.27008    4.2417332    4.2417332    4.2417332    757.27008    11945.472    -7388.675    -2284.987    1502.7439    560.38987   -508.43247    76.318537 
   85500     266.7305    -108.7774   0.24134336   -108.53606   -4599.3292    4.2402483    4.2402483    4.2402483   -4599.3292   -5808.9474   -4315.7426   -3673.2976    2283.0847   -1533.1863    1420.8584    76.238414 
   85600    154.05817   -108.67586   0.13939507   -108.53647    1854.2905    4.2402028    4.2402028    4.2402028    1854.2905    6164.5386    988.78068   -1590.4478   -1184.2213    2657.4975    373.02706    76.235963 
   85700    193.04604   -108.71074   0.17467211   -108.53607   -1811.1319    4.2415911    4.2415911    4.2415911   -1811.1319   -1650.1262    3983.7546   -7767.0241    -773.5574    2926.0323    941.49154    76.310867 
   85800    178.07152   -108.69711   0.16112285   -108.53599      798.864     4.239836     4.239836     4.239836      798.864     5016.455   -987.36712   -1632.4959   -390.06817   -643.00619   -328.20801     76.21618 
   85900    191.67003   -108.70955   0.17342707   -108.53612   -907.25898    4.2412015    4.2412015    4.2412015   -907.25898    1009.1462    -3631.738   -99.185236   -2611.7563    220.63376   -1759.4494    76.289845 
   86000    252.05231   -108.76397   0.22806222   -108.53591   -5149.1648    4.2408258    4.2408258    4.2408258   -5149.1648   -2856.9338   -4678.4869   -7912.0735    2983.8265    2783.4784    152.80935     76.26957 
   86100    175.64128   -108.69525   0.15892392   -108.53633     1229.833    4.2404414    4.2404414    4.2404414     1229.833   -1008.5997   -5186.0957    9884.1944     1462.716   -1454.8307   -609.70014    76.248834 
   86200    262.44983   -108.77311   0.23747012   -108.53564   -3607.5213    4.2410726    4.2410726    4.2410726   -3607.5213   -2783.8607   -271.31949   -7767.3835   -162.47051    486.43599    1257.5846    76.282887 
   86300    111.81909   -108.63847   0.10117626    -108.5373    6923.8772    4.2393629    4.2393629    4.2393629    6923.8772    8344.3813    7197.1632    5230.0872    -2576.638    3449.0109    621.12393    76.190667 
   86400    219.07203   -108.73504   0.19822098   -108.53682   -52.779098    4.2409873    4.2409873    4.2409873   -52.779098   -3147.3559    3495.1807   -506.16204   -582.78788   -57.264889   -124.87478    76.278282 
   86500    187.14761   -108.70608   0.16933509   -108.53674    2701.6293    4.2402838    4.2402838    4.2402838    2701.6293    8680.1122   -1273.3776    698.15337   -425.08098   -839.06258   -997.02632    76.240331 
   86600    234.48406   -108.74858   0.21216611   -108.53642   -845.36121    4.2399826    4.2399826    4.2399826   -845.36121   -7427.6151    562.80639     4328.725    447.10096    3392.1035   -839.03244    76.224085 
   86700    213.14955   -108.72884   0.19286219   -108.53597    -246.2701     4.241405     4.241405     4.241405    -246.2701    5621.0949   -5077.6605   -1282.2447    2466.3858     1392.236    1208.2615    76.300823 
   86800    198.95716   -108.71605   0.18002062   -108.53603    1238.9128    4.2399237    4.2399237    4.2399237    1238.9128    620.46232   -552.58562    3648.8616   -920.67606   -1491.5883   -324.72667    76.220907 
   86900    185.64831   -108.70439    0.1679785   -108.53641    1641.4684    4.2404443    4.2404443    4.2404443    1641.4684   -358.22793    7247.7627   -1965.1294     -369.729    2717.4543    807.99076    76.248991 
   87000    165.62866   -108.68666   0.14986429    -108.5368    1763.0183    4.2405971    4.2405971    4.2405971    1763.0183    6094.6755     2116.745   -2922.3656   -94.081312     143.8966   -1125.8573    76.257232 
   87100    233.21121   -108.74724    0.2110144   -108.53622   -3363.0069    4.2404276    4.2404276    4.2404276   -3363.0069   -9036.3603   -1753.5935    700.93313    2481.2088   -2682.5013   -739.60583    76.248086 
   87200    192.13355   -108.71005   0.17384647    -108.5362   -892.13351    4.2409174    4.2409174    4.2409174   -892.13351    4211.0561   -5925.0178   -962.43881     8.364779    2979.8539   -1137.9715    76.274514 
   87300    239.57988   -108.75273   0.21677691   -108.53595    -5231.303    4.2404571    4.2404571    4.2404571    -5231.303   -7493.8067   -3663.5952    -4536.507    1538.6829     3303.508    581.85482     76.24968 
   87400    156.13054   -108.67762   0.14127019   -108.53635    68.182249    4.2408666    4.2408666    4.2408666    68.182249      3447.77   -4594.4749    1351.2517     2082.353   -586.71551    871.34248    76.271773 
   87500    223.26712    -108.7382   0.20201679   -108.53618    -3507.368    4.2414016    4.2414016    4.2414016    -3507.368   -6521.3096    3867.6056      -7868.4   -3757.7243    3042.8163   -824.18304    76.300643 
   87600    136.60429   -108.66061   0.12360243   -108.53701    2420.9639     4.238966     4.238966     4.238966    2420.9639    264.41856    7787.6355   -789.16247    2011.1753    2773.0342   -266.21941     76.16927 
   87700    250.88355   -108.76318   0.22700471   -108.53617   -6051.9471     4.242343     4.242343     4.242343   -6051.9471   -9465.4771   -5721.0543   -2969.3099    1182.7575    -1504.032   -1714.7472    76.351457 
   87800    185.98662    -108.7043    0.1682846   -108.53601    6.3664481    4.2407926    4.2407926    4.2407926    6.3664481   -1823.7265    202.33517    1640.4907    1619.6337     2124.961    88.469717    76.267779 
   87900    222.78661   -108.73768   0.20158201   -108.53609   -1244.3907    4.2389105    4.2389105    4.2389105   -1244.3907    1866.2553   -2941.0482   -2658.3791   -98.593271    3485.2835    319.06061    76.166278 
   88000    195.18204    -108.7133   0.17660481   -108.53669   -85.711198    4.2422416    4.2422416    4.2422416   -85.711198   -3582.7113    2020.9493    1304.6285    456.06419   -32.105259    1253.7073    76.345982 
   88100    169.77228   -108.69049   0.15361352   -108.53688    3720.2427    4.2398378    4.2398378    4.2398378    3720.2427     7753.285    4004.0106   -596.56759   -679.84667    705.54106     557.6032    76.216276 
   88200    234.56238   -108.74851   0.21223697   -108.53627    197.18897    4.2390726    4.2390726    4.2390726    197.18897   -8041.8753    9185.3458   -551.90356   -1670.4794    3589.0025   -1465.5482    76.175015 
   88300     152.2726   -108.67427   0.13777945   -108.53649    3627.5146    4.2422036    4.2422036    4.2422036    3627.5146    6171.5227   -1408.3764    6119.3975    3930.8842   -103.68775   -843.50503     76.34393 
   88400    279.88336   -108.78887   0.25324435   -108.53563   -3176.4004    4.2393836    4.2393836    4.2393836   -3176.4004    -2611.654   -5595.7758   -1321.7714    395.27534    1179.7904   -1460.4749    76.191787 
   88500    139.77208    -108.6632   0.12646871   -108.53673    5581.3615    4.2402548    4.2402548    4.2402548    5581.3615    6112.7833     3975.653    6655.6482    1014.9745     4329.663    1809.3319    76.238765 
   88600    250.73008   -108.76334   0.22686584   -108.53647   -3424.9658    4.2413515    4.2413515    4.2413515   -3424.9658    957.30572   -5129.9099   -6102.2933    189.30495    -875.0722   -93.194412    76.297935 
   88700    154.56306    -108.6768   0.13985191   -108.53695    2848.9489    4.2394886    4.2394886    4.2394886    2848.9489   -2489.0094    5340.6489    5695.2072     1595.661    -1276.016    158.97817    76.197447 
   88800    221.78687   -108.73695   0.20067742   -108.53628   -2264.5645    4.2412685    4.2412685    4.2412685   -2264.5645   -740.24874   -918.81441   -5134.6305    411.67832    2180.7182   -1192.2412    76.293456 
   88900    196.03459   -108.71349   0.17737622   -108.53612   -1501.1208    4.2402069    4.2402069    4.2402069   -1501.1208   -2227.5012   -3310.3824    1034.5212    2786.7614     1783.841   -905.79702    76.236181 
   89000    174.49274    -108.6941   0.15788469   -108.53622    -440.5522    4.2403169    4.2403169    4.2403169    -440.5522     4218.395   -8386.3923    2846.3407    5146.5207    23.151372    194.57381    76.242119 
   89100    249.95308   -108.76227    0.2261628   -108.53611   -5831.6124    4.2419722    4.2419722    4.2419722   -5831.6124   -4392.8122    -7186.116   -5915.9092   -3574.8292    4862.0479   -1092.2393    76.331439 
   89200    127.20384   -108.65228   0.11509671   -108.53718     2510.565     4.238487     4.238487     4.238487     2510.565    3323.7588     2305.836    1902.1002    3994.8392    3048.7994    1365.2059    76.143451 
   89300    278.99807   -108.78837   0.25244332   -108.53592   -8695.6278    4.2424817    4.2424817    4.2424817   -8695.6278   -10851.605   -8564.7651   -6670.5129    1565.0392   -2092.4793   -865.94297    76.358948 
   89400    137.17637   -108.66026   0.12412006   -108.53614    2445.1418    4.2410286    4.2410286    4.2410286    2445.1418     3034.478    3960.2976    340.64972     1004.592    3773.6913   -554.50764    76.280514 
   89500    230.20994   -108.74373    0.2082988   -108.53543   -2353.5319    4.2381816    4.2381816    4.2381816   -2353.5319    1246.3118   -3936.9044   -4370.0032    4038.4014    2135.6192   -673.25822    76.126995 
   89600    168.97791    -108.6893   0.15289477    -108.5364   -127.60863    4.2427734    4.2427734    4.2427734   -127.60863    3666.1843   -9944.3739    5895.3637    1846.8415    1092.8488   -1020.2631    76.374698 
   89700    194.17677   -108.71216   0.17569523   -108.53647    1162.6772    4.2400012    4.2400012    4.2400012    1162.6772     8468.648   -1164.9571   -3815.6591    874.38956     1642.056    1915.2345    76.225089 
   89800    250.30334   -108.76229   0.22647972   -108.53581   -1350.1476    4.2385739    4.2385739    4.2385739   -1350.1476   -1947.9602   -4809.9573    2707.4748   -2102.1673    2562.1734   -575.57003    76.148138 
   89900    180.75643   -108.69998   0.16355221   -108.53643    468.14811    4.2435169    4.2435169    4.2435169    468.14811    7838.3979    -2949.934   -3484.0196     4160.491   -1038.4011    785.24461    76.414858 
   90000    232.30993   -108.74574    0.2101989   -108.53554    866.46401    4.2384851    4.2384851    4.2384851    866.46401    2533.3977   -191.39653    257.39083    231.25183    1777.1396   -1626.1318     76.14335 
   90100     128.9913   -108.65351   0.11671404   -108.53679    6677.5364    4.2396223    4.2396223    4.2396223    6677.5364    17798.511   -2106.0697    4340.1683    1383.4628     6046.665   -1085.9906    76.204655 
   90200    213.71929   -108.73035   0.19337771   -108.53697   -579.64069    4.2421137    4.2421137    4.2421137   -579.64069    -509.6598    -1224.396   -4.8663054    3860.9402   -327.69583   -858.63331    76.339079 
   90300    190.66436   -108.70929   0.17251712   -108.53677    2560.8264    4.2387808    4.2387808    4.2387808    2560.8264    3641.3036   -5607.8168    9648.9924   -1984.1225    1506.7714   -1159.0027    76.159289 
   90400    248.20732   -108.76061    0.2245832   -108.53603   -2524.7023    4.2411717    4.2411717    4.2411717   -2524.7023   -1242.1958   -1619.8944   -4712.0168    647.61476    758.07747    1799.3579    76.288237 
   90500    185.09266   -108.70341   0.16747573   -108.53593    160.09223    4.2415714    4.2415714    4.2415714    160.09223   -593.37294   -2916.4544     3990.104    141.85807   -303.25972   -325.41301    76.309806 
   90600     211.2566   -108.72686   0.19114941   -108.53571    727.31459      4.23914      4.23914      4.23914    727.31459    11476.156   -7316.0082   -1978.2044    2997.8584    238.72985    1134.3121    76.178654 
   90700    171.75804   -108.69195   0.15541028   -108.53654    1621.6844    4.2409435    4.2409435    4.2409435    1621.6844    -2994.698    3421.3763     4438.375   -1211.4962    4813.3415   -972.53972    76.275919 
   90800    178.01795   -108.69758   0.16107438    -108.5365   -656.40196      4.24073      4.24073      4.24073   -656.40196    414.91358   -5389.0348    3004.9153     2720.407      3086.71    -1393.836      76.2644 
   90900    246.66764   -108.75893   0.22319007   -108.53574   -3048.4454    4.2403719    4.2403719    4.2403719   -3048.4454   -7688.4184   -6163.9062    4706.9884    2704.3209   -2439.8228   -660.19071    76.245082 
   91000    152.09087   -108.67385   0.13761501   -108.53624    2357.7686    4.2404246    4.2404246    4.2404246    2357.7686    6006.3369    998.61883    68.350259   -3826.7493    4029.3124   -847.92442    76.247929 
   91100    261.82909   -108.77266   0.23690846   -108.53576   -6565.8479    4.2407152    4.2407152    4.2407152   -6565.8479   -2061.9047   -10129.194   -7506.4444    4148.9558    181.31907    958.01214    76.263603 
   91200    139.30825   -108.66321   0.12604903   -108.53716    3949.2167    4.2400947    4.2400947    4.2400947    3949.2167    7453.5714   -4465.3718    8859.4506    1350.2838    1620.7971   -661.01508    76.230133 
   91300    234.92185   -108.74959   0.21256222   -108.53703   -2070.7745    4.2402097    4.2402097    4.2402097   -2070.7745    789.58732   -4633.9736   -2367.9372    36.581023     2326.655    426.64742    76.236333 
   91400    189.71852   -108.70841    0.1716613   -108.53675   -1287.2619    4.2409992    4.2409992    4.2409992   -1287.2619   -3758.2718   -8364.3025    8260.7884     395.1716    1886.4321   -490.55768    76.278927 
   91500     177.2606   -108.69674   0.16038911   -108.53635    1325.1406    4.2406025    4.2406025    4.2406025    1325.1406     6577.448    -5042.259    2440.2329    1645.1824   -1833.1607   -251.44614    76.257522 
   91600    261.86244   -108.77268   0.23693864   -108.53574   -4081.1077    4.2399174    4.2399174    4.2399174   -4081.1077    843.23413   -9338.7157   -3747.8416   -1052.7033      854.375    964.52127    76.220569 
   91700    123.70155   -108.64882   0.11192776   -108.53689    2043.0704    4.2408935    4.2408935    4.2408935    2043.0704    8518.7774   -4235.8862      1846.32   -568.21203    5297.6986   -84.064872    76.273225 
   91800    250.97199   -108.76366   0.22708473   -108.53658   -3956.1412    4.2402485    4.2402485    4.2402485   -3956.1412   -4658.7234    -10079.28    2869.5803    5510.6199   -977.02518   -118.31492    76.238425 
   91900    177.37549   -108.69708   0.16049307   -108.53658    1027.6522    4.2404527    4.2404527    4.2404527    1027.6522    1117.3693    -7121.956    9087.5434   -3065.5497    2384.9494    157.40723     76.24944 
   92000    197.77725   -108.71505   0.17895301   -108.53609   -2752.2892    4.2411636    4.2411636    4.2411636   -2752.2892   -6416.2506   -2651.0846     810.4677    1243.9702     116.6629   -327.59573    76.287796 
   92100    206.20925    -108.7222   0.18658246   -108.53562     -929.572    4.2401719    4.2401719    4.2401719     -929.572    2925.1332   -11006.069    5292.2198    1970.5918   -912.21661    90.216272    76.234297 
   92200    196.36584   -108.71319   0.17767594   -108.53552    740.32507    4.2405896    4.2405896    4.2405896    740.32507    5027.3555   -329.70048   -2476.6798   -2966.4909     241.6771    767.88419    76.256827 
   92300     202.8489   -108.71957   0.18354194   -108.53602    -1675.574    4.2403473    4.2403473    4.2403473    -1675.574   -2669.5087   -6188.0719    3830.8586     645.7959     4347.867    905.41616    76.243759 
   92400    201.60471   -108.71862   0.18241618    -108.5362   -665.88433    4.2411109    4.2411109    4.2411109   -665.88433   -187.63074   -6250.9048    4440.8825    1550.1856    2377.9228     223.8857    76.284951 
   92500    211.14985   -108.72675   0.19105282    -108.5357    663.15807    4.2401882    4.2401882    4.2401882    663.15807   -5402.0116    678.17437    6713.3114    453.69177   -2818.7604   -786.68326    76.235172 
   92600    172.56615   -108.69238   0.15614148   -108.53624    838.42093     4.239823     4.239823     4.239823    838.42093    7321.8744   -6706.3075    1899.6959   -1638.7582    3565.0044   -269.53104    76.215477 
   92700    221.13962   -108.73636   0.20009178   -108.53627   -1794.6152    4.2412964    4.2412964    4.2412964   -1794.6152   -544.73508    1342.6347   -6181.7452    2171.5994   -615.37559   -554.41461    76.294963 
   92800    178.37987    -108.6981   0.16140186    -108.5367    4042.6909    4.2393309    4.2393309    4.2393309    4042.6909    9281.0593   -3683.9232    6530.9365     -232.471    1692.4623    202.30608    76.188945 
   92900    253.09266   -108.76613   0.22900356   -108.53713   -3508.7655    4.2402404    4.2402404    4.2402404   -3508.7655   -2244.6729   -5472.5733   -2809.0504    -961.6057     2512.296    1070.1746    76.237992 
   93000    144.62507   -108.66848   0.13085981   -108.53762    2597.2632    4.2419364    4.2419364    4.2419364    2597.2632   -1835.6384    2732.5056    6894.9223    2258.0262    1311.9284    81.705826    76.329509 
   93100    224.97664   -108.73991   0.20356359   -108.53634    1422.3617    4.2386681    4.2386681    4.2386681    1422.3617    7579.6281   -8108.4612    4795.9181   -473.15734   -2601.7392   -22.186305    76.153212 
   93200    198.24984    -108.7158   0.17938062   -108.53642    204.97471    4.2403605    4.2403605    4.2403605    204.97471    3199.8299    616.74591   -3201.6517   -526.77789    439.48357     246.1525    76.244466 
   93300    158.51255   -108.67991   0.14342549   -108.53649    347.12517    4.2419852    4.2419852    4.2419852    347.12517    5070.6318   -814.51476   -3214.7415    121.92932    4599.6285    546.25508     76.33214 
   93400    286.69058   -108.79499   0.25940366   -108.53559     -3669.58    4.2385788    4.2385788    4.2385788     -3669.58   -3120.3094   -9086.9647    1198.5342    3134.7945   -1313.8178   -522.39318    76.148402 
   93500    137.30364   -108.66083   0.12423522   -108.53659    4056.5458     4.241004     4.241004     4.241004    4056.5458    2894.4133    3082.4567    6192.7674   -314.09894    2134.9163    1035.7557    76.279185 
   93600    231.42027   -108.74535   0.20939392   -108.53596   -4524.9075    4.2417245    4.2417245    4.2417245   -4524.9075   -3687.1194     -8364.31   -1523.2929     717.8608    172.95006   -591.94428     76.31807 
   93700    151.61346   -108.67331   0.13718305   -108.53613    4907.3305    4.2382184    4.2382184    4.2382184    4907.3305    9528.4334    -3741.051    8934.6092    3714.7397   -1669.0883   -110.75572     76.12898 
   93800    211.19265   -108.72679   0.19109155    -108.5357    -639.7219    4.2416656    4.2416656    4.2416656    -639.7219    4074.5716   -1669.3113    -4324.426   -2637.8379    142.39456    735.70893    76.314892 
   93900    243.28506    -108.7559   0.22012943   -108.53577   -4807.3148    4.2409214    4.2409214    4.2409214   -4807.3148   -3704.5676   -8370.1859   -2347.1909    842.73944    3614.5951    245.03689    76.274727 
   94000    164.56348   -108.68568    0.1489005   -108.53678    2951.5148    4.2395454    4.2395454    4.2395454    2951.5148    5232.6517   -1733.1849    5355.0776    2033.0917    1836.0793    1057.9844    76.200507 
   94100    257.67648   -108.76933   0.23315109   -108.53618   -2350.3742    4.2407777    4.2407777    4.2407777   -2350.3742   -763.77788   -7286.5047    999.15998   -665.28299   -3138.4728   -251.63973    76.266978 
   94200    128.25499   -108.65311   0.11604781   -108.53706    3130.4201    4.2405165    4.2405165    4.2405165    3130.4201    9992.9465   -5376.4743    4774.7879   -409.22041    2389.9563    1089.1735    76.252882 
   94300    196.89961   -108.71478    0.1781589   -108.53662    3.7509746     4.239604     4.239604     4.239604    3.7509746    3168.1516   -3024.4558   -132.44295    1728.8079   -1212.1272   -1301.9627    76.203667 
   94400    244.85054   -108.75751   0.22154591   -108.53597   -2487.3831    4.2409375    4.2409375    4.2409375   -2487.3831    1696.7054   -8104.4014   -1054.4532   -369.84128    736.13374   -294.07461    76.275597 
   94500    205.15416   -108.72198   0.18562779   -108.53635   -2427.2061     4.240939     4.240939     4.240939   -2427.2061   -1052.8856   -2224.3364   -4004.3964   -2842.3982    2827.6303    996.64655    76.275677 
   94600    220.49772   -108.73619   0.19951097   -108.53668   -2932.5512    4.2399834    4.2399834    4.2399834   -2932.5512    115.73666   -6926.3865   -1987.0038     3553.803    1567.2265   -28.967409    76.224128 
   94700    157.88436    -108.6798   0.14285709   -108.53694    2051.3935    4.2406375    4.2406375    4.2406375    2051.3935     7132.457   -5609.5613    4631.2847   -1944.0564   -2540.4971    1868.9126    76.259412 
   94800    192.54055   -108.71057   0.17421474   -108.53635   -1732.1581    4.2410877    4.2410877    4.2410877   -1732.1581   -439.71873   -4544.5134   -212.24217   -3513.6454   -1018.8424   -744.05651    76.283703 
   94900    180.13215   -108.69901   0.16298735   -108.53602   -413.68923    4.2397645    4.2397645    4.2397645   -413.68923    5065.3514   -6239.7732   -66.645881    1991.2073    3850.1279     1325.362    76.212323 
   95000    239.64703   -108.75222   0.21683767   -108.53538    -3433.754    4.2412641    4.2412641    4.2412641    -3433.754   -8469.6817   -984.91957   -846.66066   -1747.1447   -1391.3084   -1106.8905    76.293223 
   95100     210.0017   -108.72601   0.19001395   -108.53599   -1339.7563    4.2403205    4.2403205    4.2403205   -1339.7563    6295.9415   -6759.5449   -3555.6654   -473.52057    3108.6666    738.96552    76.242312 
   95200    193.12024   -108.71123   0.17473925   -108.53649    114.53489    4.2400394    4.2400394    4.2400394    114.53489    1969.4686   -632.21253   -993.65146    793.13864     1553.723    1536.9112    76.227148 
   95300    170.94876   -108.69098   0.15467803    -108.5363    2767.9357    4.2410378    4.2410378    4.2410378    2767.9357    5958.1666   -2194.8458    4540.4864    807.35353   -2322.5304   -1614.5904     76.28101 
   95400    196.52282    -108.7136   0.17781798   -108.53578    1934.4562    4.2394678    4.2394678    4.2394678    1934.4562    6126.1871   -6710.1605     6387.342   -1880.7952   -1061.2083    2801.4231    76.196327 
   95500    222.35771   -108.73726   0.20119393   -108.53607    -1144.803     4.240834     4.240834     4.240834    -1144.803   -6849.2264    4041.4912   -626.67379   -269.95273    2296.9545   -1406.1506    76.270015 
   95600    189.99124   -108.70849   0.17190807   -108.53658    959.98454    4.2407415    4.2407415    4.2407415    959.98454    7571.6201   -5686.2829    994.61643    2241.5455    2599.8519    1512.8749     76.26502 
   95700    248.55065   -108.76143   0.22489385   -108.53654   -702.75909    4.2389279    4.2389279    4.2389279   -702.75909     388.1304   -2412.9953   -83.412402   -1846.8038   -2103.0835    488.15171    76.167215 
   95800    150.52079   -108.67321   0.13619437   -108.53702    3708.5437    4.2418994    4.2418994    4.2418994    3708.5437    10760.093   -225.32758    590.86607    1405.8659    2784.9665   -254.22626    76.327513 
   95900     198.9003   -108.71623   0.17996917   -108.53626    23.985845    4.2397613    4.2397613    4.2397613    23.985845    248.65167   -6542.7902    6366.0961    1500.0377   -1777.9499    753.03385    76.212149 
   96000    198.67407   -108.71585   0.17976448   -108.53609    835.24026    4.2392583    4.2392583    4.2392583    835.24026    38.372744   -2507.2187    4974.5667     589.2552   -94.653803   -2622.6961    76.185027 
   96100    224.38186   -108.73901   0.20302542   -108.53598   -3259.4256    4.2426388    4.2426388    4.2426388   -3259.4256   -3442.5755   -4676.2305   -1659.4709    17.996178    3405.7648     2209.309    76.367433 
   96200    201.40004   -108.71877   0.18223099   -108.53654   -1652.3179    4.2385769    4.2385769    4.2385769   -1652.3179     2685.602   -3457.2557   -4185.2999    1702.7781    2332.7102    -2361.907    76.148296 
   96300    182.84662   -108.70197   0.16544346   -108.53653   -300.23569    4.2408806    4.2408806    4.2408806   -300.23569    3300.0013   -7156.0693    2955.3609     1682.559   -1834.5419    558.06577    76.272526 
   96400    212.91966   -108.72854   0.19265418   -108.53589   -2933.3431    4.2426031    4.2426031    4.2426031   -2933.3431   -1944.3697   -5220.9247   -1634.7349   -2288.0341   -932.34097    261.24097    76.365504 
   96500    147.67057   -108.66956   0.13361544   -108.53595    2048.2745      4.23782      4.23782      4.23782    2048.2745     2996.876   -4305.1322    7453.0798      4075.11    3693.4531   -1412.2968    76.107509 
   96600    245.79136   -108.75774   0.22239719   -108.53534    -4164.514    4.2422451    4.2422451    4.2422451    -4164.514   -10054.621   -6756.2446    4317.3232    143.17985   -1312.9588    1606.5812    76.346172 
   96700    188.31188   -108.70631   0.17038854   -108.53592    777.80326    4.2408992    4.2408992    4.2408992    777.80326    8822.5584   -3862.5525   -2626.5961   -1640.3376    3697.7761   -2108.4164    76.273529 
   96800     216.7103   -108.73216   0.19608403   -108.53608   -1203.6087    4.2384869    4.2384869    4.2384869   -1203.6087   -397.85913   -5046.1339     1833.167    3674.8425    2821.0462    244.64059    76.143447 
   96900    181.49806   -108.70035   0.16422326   -108.53612    1160.1198    4.2427515    4.2427515    4.2427515    1160.1198    7751.0597   -5623.1866    1352.4863   -643.50901   -2189.5355   -1403.8431    76.373516 
   97000    195.28107   -108.71234   0.17669442   -108.53564    2416.8815    4.2394515    4.2394515    4.2394515    2416.8815    1681.5982   -4606.1829    10175.229    93.996208   -843.70246    -199.3302    76.195448 
   97100    210.15271   -108.72608   0.19015059   -108.53593   -198.59663    4.2392343    4.2392343    4.2392343   -198.59663   -2428.9587    -3803.478    5636.6468    285.64292    2156.0827    832.35431    76.183737 
   97200    185.62713   -108.70457   0.16795933   -108.53661    377.74969    4.2423564    4.2423564    4.2423564    377.74969    5468.0744   -5579.3777    1244.5524    349.61506    2429.4408   -426.15798    76.352184 
   97300    244.94732   -108.75825   0.22163348   -108.53662   -245.93187    4.2384973    4.2384973    4.2384973   -245.93187    521.55611   -4301.4712    3042.1195   -3219.7089   -1548.5032    266.47761    76.144006 
   97400    178.58429   -108.69872   0.16158682   -108.53713    1339.3987    4.2410349    4.2410349    4.2410349    1339.3987    10789.971   -5484.3037    -1287.471     -747.652    3324.5675   -1304.2412    76.280851 
   97500    185.36831   -108.70434   0.16772514   -108.53662   -588.25043    4.2413889    4.2413889    4.2413889   -588.25043   -4149.0681   -3116.4741    5500.7909     2349.505   -1466.8999    392.71257    76.299955 
   97600    203.77858   -108.72045   0.18438314   -108.53607    980.45157    4.2382327    4.2382327    4.2382327    980.45157    1201.0712   -6832.0061    8572.2896   -4364.3092    -1.103025   -1014.0755    76.129746 
   97700    222.11223   -108.73716   0.20097182   -108.53619   -3610.0746    4.2421895    4.2421895    4.2421895   -3610.0746   -5139.8778   -3378.7452   -2311.6007    975.42172     3893.767   -399.08762    76.343171 
   97800    173.41834    -108.6938   0.15691255   -108.53689   -1498.2602    4.2399786    4.2399786    4.2399786   -1498.2602    1151.9333   -2667.2529   -2979.4611   -190.59042    2453.6043   -339.42374    76.223868 
   97900     217.7871   -108.73315   0.19705834   -108.53609   -2221.1188    4.2401411    4.2401411    4.2401411   -2221.1188    2239.2812   -8804.0885   -98.549298   -2820.9194   -1889.4065   -841.86417    76.232632 
   98000    195.85857   -108.71297   0.17721695   -108.53575   -1531.9925    4.2422079    4.2422079    4.2422079   -1531.9925   -1039.5873   -1737.7902   -1818.6001    467.33142   -153.41951    1291.2472    76.344164 
   98100    165.50937   -108.68572   0.14975636   -108.53596   -415.49855    4.2390422    4.2390422    4.2390422   -415.49855   -2292.2786   -4707.4581     5753.241   -981.74354    2937.6576    -583.1094    76.173377 
   98200    222.33901   -108.73672   0.20117701   -108.53554   -1926.2677      4.24093      4.24093      4.24093   -1926.2677   -6688.6075   -6305.7916    7215.5959   -1022.4211   -737.25428   -345.22152    76.275192 
   98300     205.6983   -108.72218   0.18612015   -108.53606    1165.2891    4.2408175    4.2408175    4.2408175    1165.2891    7659.7993   -3370.6713   -793.26085   -1778.9499    4611.5391    301.82993    76.269125 
   98400    199.90433   -108.71758   0.18087764    -108.5367   -381.08288    4.2396482    4.2396482    4.2396482   -381.08288    375.23591   -2913.0833    1394.5988    1736.7098    2880.2224    -397.7347    76.206052 
   98500    186.26495     -108.705   0.16853644   -108.53646    1912.9061     4.241077     4.241077     4.241077    1912.9061    9945.6441   -6321.8552    2114.9295   -692.46868   -1758.1769   -768.02819    76.283123 
   98600    224.85763   -108.73917   0.20345591   -108.53571    1987.6634    4.2398572    4.2398572    4.2398572    1987.6634   -68.141409   -2193.3291    8224.4608   -2112.2699   -843.97549   -55.100876    76.217323 
   98700    177.09319   -108.69647   0.16023764   -108.53623    2087.9898    4.2397211    4.2397211    4.2397211    2087.9898    1392.5023   -1546.0841    6417.5511    2283.1567    2345.2745   -345.80592    76.209982 
   98800    207.87232   -108.72454   0.18808725   -108.53645   -43.605523    4.2407946    4.2407946    4.2407946   -43.605523    5159.4263   -6423.1841    1132.9413   -1636.6093    1419.4616   -129.52903    76.267887 
   98900    217.08811    -108.7331   0.19642588   -108.53668    2351.9796     4.239629     4.239629     4.239629    2351.9796    4926.9896    -1205.379    3334.3282   -571.56428   -807.49055    1261.5124    76.205018 
   99000    202.22719   -108.71965   0.18297942   -108.53667   -312.41117    4.2408535    4.2408535    4.2408535   -312.41117    9047.5183   -5189.2299   -4795.5219    172.65238    3322.0808    960.95246    76.271063 
   99100    184.28564   -108.70316   0.16674552   -108.53641   -719.60791    4.2401755    4.2401755    4.2401755   -719.60791    -2733.925   -4198.6279    4773.7291   -756.45957   -1043.6243   -460.18961    76.234492 
   99200    211.11492   -108.72693   0.19102122    -108.5359    563.00674    4.2398368    4.2398368    4.2398368    563.00674    881.47776   -3043.8432    3851.3856   -918.50637    330.72594    60.167779    76.216222 
   99300    212.58343   -108.72849   0.19234996   -108.53614   -2753.5448    4.2412979    4.2412979    4.2412979   -2753.5448   -4021.3632    -4987.614    748.34276    16.066424    4769.6368   -1047.3974    76.295044 
   99400    160.53364   -108.68226   0.14525421   -108.53701   -1481.9372    4.2397966    4.2397966    4.2397966   -1481.9372    3059.2705   -4274.1612   -3230.9208    2932.9263     3040.536    92.456042    76.214054 
   99500    216.07388   -108.73178   0.19550819   -108.53627   -2382.6208    4.2414179    4.2414179    4.2414179   -2382.6208    1045.5707   -6400.1201   -1793.3131   -3119.0515    -1489.902    773.93824     76.30152 
   99600    220.42977   -108.73522   0.19944949   -108.53577    -2662.434    4.2405414    4.2405414    4.2405414    -2662.434    221.26749   -5341.7408   -2866.8288    1024.8398    111.45691   -85.005553    76.254225 
   99700    163.39334   -108.68427   0.14784173   -108.53643   -1437.8512    4.2398287    4.2398287    4.2398287   -1437.8512   -4593.6222   -2449.6593     2729.728    793.71936    2166.0379    585.50991    76.215784 
   99800    213.96531   -108.72951   0.19360031   -108.53591   -1510.0205    4.2415206    4.2415206    4.2415206   -1510.0205   -5123.2245   -7008.6936    7601.8565   -3246.6208   -639.69991   -807.09194    76.307063 
   99900    208.50076   -108.72502   0.18865587   -108.53636    1607.6016    4.2389792    4.2389792    4.2389792    1607.6016    9597.0734   -4430.4792   -343.78954    2214.7593    5090.7461    382.79513     76.16998 
  100000    160.78038   -108.68285   0.14547747   -108.53738    1109.6385    4.2411692    4.2411692    4.2411692    1109.6385     965.0709   -420.18318    2784.0279   -271.17991    3271.1633   -1086.8046    76.288098 
Loop time of 22.471 on 1 procs for 100000 steps with 8 atoms

Pair  time (%) = 7.42362 (33.0365)
Kspce time (%) = 5.30948 (23.6282)
Neigh time (%) = 0 (0)
Comm  time (%) = 1.05736 (4.70546)
Outpt time (%) = 0.0243206 (0.108231)
Other time (%) = 8.65618 (38.5216)

Nlocal:    8 ave 8 max 8 min
Histogram: 1 0 0 0 0 0 0 0 0 0
Nghost:    2189 ave 2189 max 2189 min
Histogram: 1 0 0 0 0 0 0 0 0 0
Neighs:    2472 ave 2472 max 2472 min
Histogram: 1 0 0 0 0 0 0 0 0 0

Total # of neighbors = 2472
Ave neighs/atom = 309
Neighbor list builds = 0
Dangerous builds = 0
unfix 20
unfix 21
print "seeds:2730628"
seeds:2730628
