LAMMPS (10 Feb 2015)
# ---- initialize simulations
clear
units metal
dimension 3
boundary p p p
atom_style charge
atom_modify map array
# ---- create atoms
read_data /Users/eugeneragasa/pyflamestk_git/pypospack/tests/tests_integration/workflow/WorkflowLammpsThermalExpansion/param_1902/MgO_NaCl_unit.npt.T1600/lammps.structure
  triclinic box = (0 0 0) to (4.2565 4.2565 4.2565) with tilt (0 0 0)
  1 by 1 by 1 MPI processor grid
  reading atoms ...
  8 atoms
# ---- define interatomic potential
include potential.mod
mass 1 24.305
mass 2 15.999

group Mg type 1
4 atoms in group Mg
group O type 2
4 atoms in group O

set group Mg charge 1.69754800024
  4 settings made for charge
set group O charge -1.69754800024
  4 settings made for charge

variable R_cut equal 10.0

pair_style buck/coul/long ${R_cut}
pair_style buck/coul/long 10
pair_coeff 1 1 0.0 0.5 0.0 ${R_cut}
pair_coeff 1 1 0.0 0.5 0.0 10
pair_coeff 1 2 1340.93810979 0.285979914483 0.0 ${R_cut}
pair_coeff 1 2 1340.93810979 0.285979914483 0.0 10
pair_coeff 2 2 11096.6994948 0.145827000496 3.24328494634 ${R_cut}
pair_coeff 2 2 11096.6994948 0.145827000496 3.24328494634 10

kspace_style pppm 1.0e-5

neighbor 1.0 bin
neigh_modify every 1 delay 0 check yes
# ---- define settings
compute eng all pe/atom
compute eatoms all reduce sum c_eng
# ---- run minimization
reset_timestep 0
fix 1 all box/relax iso 0.0 vmax 0.001
thermo 10
thermo_style custom step pe lx ly lz xy xz yz press pxx pyy pzz pxy pxz pyz c_eatoms
min_style cg
minimize 1e-25 1e-25 5000 10000
PPPM initialization ...
  G vector (1/distance) = 0.353134
  grid = 8 8 8
  stencil order = 5
  estimated absolute RMS force accuracy = 4.09436e-05
  estimated relative force accuracy = 2.84338e-06
  using double precision FFTs
  3d grid and FFT values/proc = 3375 512
Neighbor list info ...
  1 neighbor list requests
  update every 1 steps, delay 0 steps, check yes
  master list distance cutoff = 11
Memory usage per processor = 4.06549 Mbytes
Step PotEng Lx Ly Lz Xy Xz Yz Press Pxx Pyy Pzz Pxy Pxz Pyz eatoms 
       0   -117.43599       4.2565       4.2565       4.2565            0            0            0    33717.192    33717.192    33717.192    33717.192 -3.1023281e-11 -2.4163961e-10 -2.0934262e-10   -117.43599 
       8   -117.45138    4.2835821    4.2835821    4.2835821            0            0            0   -5.0124394   -5.0124394   -5.0124394   -5.0124394 6.8970478e-11 -1.4442567e-10 -9.765937e-11   -117.45138 
Loop time of 0.00975609 on 1 procs for 8 steps with 8 atoms

Minimization stats:
  Stopping criterion = linesearch alpha is zero
  Energy initial, next-to-last, final = 
        -117.435990229     -117.451383044     -117.451383044
  Force two-norm initial, final = 4.86878 0.0018005
  Force max component initial, final = 4.86878 0.000733039
  Final line search alpha, max atom move = 0.00390625 2.86343e-06
  Iterations, force evaluations = 8 25

Pair  time (%) = 0.00268316 (27.5024)
Kspce time (%) = 0.00172138 (17.6442)
Neigh time (%) = 0 (0)
Comm  time (%) = 0.000435591 (4.46481)
Outpt time (%) = 0 (0)
Other time (%) = 0.00491595 (50.3886)

Nlocal:    8 ave 8 max 8 min
Histogram: 1 0 0 0 0 0 0 0 0 0
Nghost:    2189 ave 2189 max 2189 min
Histogram: 1 0 0 0 0 0 0 0 0 0
Neighs:    2344 ave 2344 max 2344 min
Histogram: 1 0 0 0 0 0 0 0 0 0

Total # of neighbors = 2344
Ave neighs/atom = 293
Neighbor list builds = 0
Dangerous builds = 0
unfix 1
# ---- define output variables ----
variable natoms equal "count(all)"
variable tot_energy equal "c_eatoms"
variable length_x equal "lx"
variable length_y equal "ly"
variable length_z equal "lz"
variable tilt_xy equal "xy"
variable tilt_xz equal "xz"
variable tilt_yz equal "yz"
variable tot_press equal "press"
variable press_xx equal "pxx"
variable press_yy equal "pyy"
variable press_zz equal "pzz"
variable press_xy equal "pxy"
variable press_xz equal "pxz"
variable press_yz equal "pyz"

# ---- output ----
print "pypospack:output_section:begin"
pypospack:output_section:begin
print "tot_energy = ${tot_energy}"
tot_energy = -117.45138304358
print "num_atoms = ${natoms}"
num_atoms = 8
print "xx = ${length_x}"
xx = 4.28358206284588
print "yy = ${length_y}"
yy = 4.28358206284588
print "zz = ${length_z}"
zz = 4.28358206284588
print "xy = ${tilt_xy}"
xy = 0
print "xz = ${tilt_xz}"
xz = 0
print "yz = ${tilt_yz}"
yz = 0
print "tot_press = ${tot_press}"
tot_press = -5.01243937142067
print "pxx = ${press_xx}"
pxx = -5.01243937108414
print "pyy = ${press_yy}"
pyy = -5.01243937158826
print "pzz = ${press_zz}"
pzz = -5.01243937158962
print "pxy = ${press_xy}"
pxy = 6.8970477610601e-11
print "pxz = ${press_xz}"
pxz = -1.44425666326158e-10
print "pyz = ${press_yz}"
pyz = -9.76593698696591e-11
print "pypospack:output_section:done"
pypospack:output_section:done
print "pypospack:lammps_sim:done"
pypospack:lammps_sim:done
#------------------------------------------------------------------------------
# RUN THERMOSTAT
# running using an NPT Nose-Hoover style thermostat
#------------------------------------------------------------------------------
variable tempdamp equal 0.1
variable pressdamp equal 1.0
# set initial velocities
velocity all create 1600 3785876 mom yes dist gaussian loop all
# fix for Nose-Hoover style thermostat
fix 20 all npt temp 1600 1600 0.1 aniso 0.0 0.0 1.0 drag 1.0 couple xyz
variable boxx equal lx
variable boxy equal ly
variable boxz equal lz
variable boxp equal press
variable boxt equal temp
# calculate averages every 10000 steps
reset_timestep 0
fix 21 all ave/time 10 10 100 v_boxx v_boxy v_boxz v_boxp v_boxt file lattice.out
thermo_style custom step temp pe ke etotal press lx ly lz press pxx pyy pzz pxy pxz pyz vol
thermo_modify flush yes
thermo 100
run 100000
PPPM initialization ...
  G vector (1/distance) = 0.352856
  grid = 8 8 8
  stencil order = 5
  estimated absolute RMS force accuracy = 4.14735e-05
  estimated relative force accuracy = 2.88018e-06
  using double precision FFTs
  3d grid and FFT values/proc = 3375 512
Memory usage per processor = 3.06549 Mbytes
Step Temp PotEng KinEng TotEng Press Lx Ly Lz Press Pxx Pyy Pzz Pxy Pxz Pyz Volume 
       0         1600   -117.45139    1.4477136   -116.00367    19667.467    4.2835821    4.2835821    4.2835821    19667.467    19727.117    13562.857    25712.427    9299.6523    7955.9652    4303.6722     78.59977 
     100    627.94217   -116.41055   0.56817527   -115.84238    32961.729    4.3252129    4.3252129    4.3252129    32961.729      15557.5    1308.3146    82019.374    2102.4484   -3406.4229    1679.4908    80.913775 
     200    1031.2732   -116.37672   0.93311764    -115.4436   -41489.966    4.3828375    4.3828375    4.3828375   -41489.966   -76140.613   -75700.271    27370.985   -2423.3717    2834.4996   -6602.3198    84.191087 
     300    1536.9365   -116.47101    1.3906524   -115.08035   -17986.426    4.3746018    4.3746018    4.3746018   -17986.426   -5276.4817   -70950.438    22267.643    14095.459   -12264.211    2597.6344    83.717371 
     400     1406.118   -116.06637    1.2722851   -114.79408    19190.133    4.3457734    4.3457734    4.3457734    19190.133    16213.716   -660.63112    42017.313    11240.761   -16660.975    -10515.09    82.073175 
     500    1618.8105   -116.09713    1.4647338    -114.6324   -11318.367    4.3526347    4.3526347    4.3526347   -11318.367   -31153.414   -33044.149    30242.462   -8343.8602    15024.478   -3286.7825    82.462534 
     600    1446.1799   -115.86467     1.308534   -114.55614    20413.829    4.3800967    4.3800967    4.3800967    20413.829    27676.164    1479.5414     32085.78    23377.018   -2517.6134   -14479.805    84.033236 
     700    1598.5944    -115.9397    1.4464418   -114.49326   -32244.491    4.4048874    4.4048874    4.4048874   -32244.491   -25640.445   -59254.249   -11838.779   -6412.4332    4471.8536   -5827.8553    85.468177 
     800    1258.2093   -115.58688    1.1384542   -114.44843   -8322.6641    4.3880505    4.3880505    4.3880505   -8322.6641   -45288.755   -29241.904    49562.667    1287.2377    6073.6457    157.58776    84.491855 
     900    1573.9577   -115.85239      1.42415   -114.42824    37050.458    4.3548482    4.3548482    4.3548482    37050.458   -5282.7687    42529.922     73904.22    15772.127    13143.993   -845.98701    82.588404 
    1000    2073.6887   -116.37688    1.8763171   -114.50056   -14301.078    4.3719688    4.3719688    4.3719688   -14301.078   -7918.9547    -25590.25   -9394.0279    1697.3247    7957.6092   -12422.864    83.566296 
    1100     1353.353   -115.73387    1.2245423   -114.50932   -34460.687    4.3980127    4.3980127    4.3980127   -34460.687     -86574.5    3775.5778   -20583.138   -8101.6109    -15442.79   -6468.6433    85.068631 
    1200    1782.9144   -116.10743    1.6132184   -114.49421    -12150.62    4.3672062    4.3672062    4.3672062    -12150.62   -17519.117   -42069.788    23137.044    12017.604    20427.681   -6464.3829    83.293494 
    1300     1891.149    -116.1998    1.7111513   -114.48865    23854.543    4.3425118    4.3425118    4.3425118    23854.543    79648.391    15167.562   -23252.324   -14385.373   -6333.7331    13571.505    81.888518 
    1400    1373.7135   -115.79813    1.2429648   -114.55517    20816.559    4.3691771    4.3691771    4.3691771    20816.559    40812.766   -49807.407    71444.317    678.60106   -13590.197   -5965.6672    83.406318 
    1500    1587.3717   -115.97138    1.4362873    -114.5351   -27471.534    4.3989749    4.3989749    4.3989749   -27471.534    -31541.52   -77561.947    26688.866    9372.7383   -9505.9218   -11289.275    85.124474 
    1600     1298.595   -115.67186    1.1749961   -114.49687   -1925.4475    4.3763654    4.3763654    4.3763654   -1925.4475     32191.79   -67788.596    29820.464   -12710.283   -20520.282     8070.379    83.818665 
    1700    1544.4069   -115.88112    1.3974118   -114.48371    3180.8096    4.3437247    4.3437247    4.3437247    3180.8096    9567.9988   -35900.884    35875.314    26197.825   -3866.4734    14552.197    81.957158 
    1800     1150.598   -115.56467    1.0410852   -114.52359    10135.067    4.3528457    4.3528457    4.3528457    10135.067   -12871.295   -10852.256    54128.751    11729.107   -19677.586   -14537.341    82.474521 
    1900    1443.3537   -115.84027    1.3059768    -114.5343     7321.928    4.3666089    4.3666089    4.3666089     7321.928    61991.897   -17288.719   -22737.394    774.94549   -1597.9868    2637.9088    83.259323 
    2000    1537.8784   -115.92041    1.3915047   -114.52891   -17182.158    4.3839581    4.3839581    4.3839581   -17182.158   -20645.661   -20363.953    -10536.86     6179.094     13382.33    16646.473     84.25568 
    2100    1347.7371   -115.70791    1.2194609   -114.48845    4383.6037    4.3754485    4.3754485    4.3754485    4383.6037    29139.439   -984.01152   -15004.617    9484.0759    23027.876   -6433.9329    83.765992 
    2200    2119.5625   -116.38317    1.9178247   -114.46534   -6754.4259    4.3525383    4.3525383    4.3525383   -6754.4259    14991.782   -40280.719      5025.66   -18252.586   -23227.306   -20546.117    82.457054 
    2300    1217.6454    -115.6053    1.1017512   -114.50354    40778.711     4.363756     4.363756     4.363756    40778.711    29040.437    49886.252    43409.443    1153.7663    9773.2421    4101.9197    83.096238 
    2400    1827.5095   -116.16668     1.653569   -114.51311   -8838.5412    4.3787445    4.3787445    4.3787445   -8838.5412     -7296.82   -9485.6216   -9733.1821   -13662.565   -4303.9959    15503.952    83.955437 
    2500     1474.187   -115.84353    1.3338754   -114.50965   -7573.2368    4.3718455    4.3718455    4.3718455   -7573.2368    -50048.35   -4904.0898    32232.729    7692.2085   -8986.6513   -10808.591    83.559227 
    2600     1557.185   -115.91657    1.4089737   -114.50759    11979.296     4.355493     4.355493     4.355493    11979.296    16048.219    23904.844   -4015.1749   -9133.4351    3513.1819   -567.73699    82.625092 
    2700    2070.7654   -116.38707     1.873672    -114.5134    1761.0235    4.3476895    4.3476895    4.3476895    1761.0235    36361.667   -29899.192   -1179.4041    10416.718   -13546.086    -519.8047    82.181785 
    2800    719.00125   -115.20601   0.65056744   -114.55544    26497.384    4.3656884    4.3656884    4.3656884    26497.384    49611.399   -12719.919    42600.674   -30396.226    -8706.724    -7125.067    83.206681 
    2900    1820.5404   -116.18065    1.6472632   -114.53339   -19921.462    4.3836228    4.3836228    4.3836228   -19921.462   -1194.1169   -65419.309    6849.0399     4418.725     8545.061    2050.9228    84.236348 
    3000    1610.4636   -115.95341    1.4571814   -114.49623     -28847.3    4.3906775    4.3906775    4.3906775     -28847.3   -44562.527   -52278.504    10299.131   -3856.3703    5841.8645    6838.5173    84.643695 
    3100    1429.6472   -115.75729    1.2935749   -114.46371    1661.7792    4.3613691    4.3613691    4.3613691    1661.7792    5801.5882   -35257.606    34441.356    6008.9993    6377.8843   -20818.739     82.95996 
    3200    1873.5885   -116.14414    1.6952622   -114.44888    36307.173    4.3317655    4.3317655    4.3317655    36307.173    33917.445     19602.86    55401.215   -19800.649   -10995.989    9209.9364     81.28208 
    3300     1234.617   -115.65441    1.1171074   -114.53731    46443.647    4.3643419    4.3643419    4.3643419    46443.647    22770.031    49243.905    67317.005    149.06569    12661.634    7654.9311    83.129714 
    3400    1755.6775   -116.09649    1.5885739   -114.50792   -36589.701    4.4022683    4.4022683    4.4022683   -36589.701   -54159.719   -51107.127    -4502.255   -5881.6511   -8403.4123   -33790.109    85.315811 
    3500    1732.7327    -116.0534    1.5678129   -114.48558    -44934.78    4.3707066    4.3707066    4.3707066    -44934.78   -3489.3144    -64021.01   -67294.015   -8762.4043   -36404.447   -27128.902    83.493938 
    3600    1660.3101   -115.93532    1.5022835   -114.43304    68528.317    4.3170048    4.3170048    4.3170048    68528.317    53725.351    61175.765    90683.835    14503.269    22201.619    24077.943    80.453991 
    3700    1796.7674   -116.17612    1.6257529   -114.55037    2962.6016    4.3626195    4.3626195    4.3626195    2962.6016    70304.931   -58656.671   -2760.4555   -2261.2429      10286.6   -11209.394    83.031336 
    3800    1482.2368   -115.81564     1.341159   -114.47448   -70893.136    4.4101737    4.4101737    4.4101737   -70893.136   -15634.017   -117982.73   -79062.658   -5945.7319   -22411.293   -22659.911    85.776256 
    3900    1294.7775   -115.63119    1.1715419   -114.45965    3956.5924    4.3522746    4.3522746    4.3522746    3956.5924   -21166.826   -9394.3788    42430.982   -10120.911    -9385.316    4636.3469    82.442065 
    4000    1574.3044   -115.85139    1.4244637   -114.42693      73512.3    4.3091366    4.3091366    4.3091366      73512.3    117290.08    27812.328    75434.487   -10433.226    18293.782   -3319.6982    80.014884 
    4100    2002.5121   -116.35729    1.8119151   -114.54538   -21606.143    4.3601558    4.3601558    4.3601558   -21606.143   -2296.9403   -34609.763   -27911.726    -7131.643    15847.243    4531.6438     82.89074 
    4200    1128.7148   -115.51841    1.0212849   -114.49713   -19630.318    4.4022486    4.4022486    4.4022486   -19630.318    25943.406   -72040.918   -12793.441   -20470.458    12479.873   -1570.6022    85.314666 
    4300    1873.7657   -116.13212    1.6954226    -114.4367   -9844.5465    4.3860014    4.3860014    4.3860014   -9844.5465    29919.553   -46953.037   -12500.155    3155.4505    13084.012    4371.1356    84.373545 
    4400     1644.458   -115.91942    1.4879401   -114.43148    19598.775    4.3541937    4.3541937    4.3541937    19598.775   -14372.393   -4096.5305    77265.248   -5791.5746    18824.341    8253.5908    82.551173 
    4500     1959.049   -116.24734    1.7725887   -114.47475   -24328.188    4.3456911    4.3456911    4.3456911   -24328.188   -20218.011    -55294.57    2528.0162   -44621.109     4567.349   -4890.1573    82.068514 
    4600    1290.3354   -115.69128    1.1675226   -114.52376    13391.886    4.3678996    4.3678996    4.3678996    13391.886    26182.993    8535.4289    5457.2356   -4937.1381   -14224.595    24902.126    83.333175 
    4700    2052.8225   -116.35451     1.857437   -114.49707    -62756.73    4.3821101    4.3821101    4.3821101    -62756.73   -73092.841   -67749.641   -47427.709   -25212.454   -998.15145    12343.784    84.149176 
    4800    1516.2154   -115.85636    1.3719036   -114.48446   -21787.031    4.3481868    4.3481868    4.3481868   -21787.031    -42931.64   -67823.044    45393.591   -49238.949    14915.849    2314.5724    82.209985 
    4900    1252.6145   -115.61269    1.1333919   -114.47929    56007.329    4.3293737    4.3293737    4.3293737    56007.329     37780.63    74642.579    55598.776    10097.029   -4518.3028   -6181.3873    81.147517 
    5000    1920.8497   -116.25376    1.7380252   -114.51573   -35406.267    4.3649058    4.3649058    4.3649058   -35406.267   -27951.486   -38802.312   -39465.003   -3466.3134   -11478.132   -9888.1807    83.161942 
    5100    1136.6669   -115.51842    1.0284801   -114.48994   -8279.0091    4.3855728    4.3855728    4.3855728   -8279.0091   -70621.347    6686.3715    39097.949   -21595.585    2638.0839   -10847.053    84.348813 
    5200    1608.0585   -115.91112    1.4550052   -114.45611    5687.9366     4.368454     4.368454     4.368454    5687.9366    10442.529   -15168.844    21790.125    8793.7728   -2283.3848     -11057.8    83.364913 
    5300     1850.644   -116.13291    1.6745016   -114.45841   -15976.273    4.3559588    4.3559588    4.3559588   -15976.273   -34498.014   -49075.008    35644.201   -17678.454     8578.278    1221.4656    82.651606 
    5400    1489.6028   -115.82999    1.3478239   -114.48217    6213.5962    4.3638143    4.3638143    4.3638143    6213.5962   -10716.989   -25377.551    54735.329   -7241.4082    5724.5555   -4969.1239    83.099574 
    5500    1927.6123   -116.22125    1.7441441   -114.47711   -7189.2248    4.3643261    4.3643261    4.3643261   -7189.2248    36576.433    -42400.51   -15743.597     6143.442   -2990.0029    6011.2579    83.128813 
    5600    1618.0357   -115.95047    1.4640327   -114.48643   -26577.827    4.3654467    4.3654467    4.3654467   -26577.827   -2803.3156   -65631.368   -11298.798   -9418.8527     1567.808   -10271.582    83.192866 
    5700    1725.7559   -116.04561    1.5615002   -114.48411   -6613.2611    4.3615929    4.3615929    4.3615929   -6613.2611   -16329.074    2729.0447   -6239.7544   -11059.581   -2697.0792    2983.7443    82.972729 
    5800    2116.1773   -116.40649    1.9147617   -114.49173   -22355.209    4.3662282    4.3662282    4.3662282   -22355.209   -48000.607   -19014.188   -50.833751    -1758.559    6597.9155   -1450.3072    83.237552 
    5900    1764.2252   -116.09073     1.596308   -114.49442   -12819.609    4.3795618    4.3795618    4.3795618   -12819.609    25803.706   -5607.5273   -58655.004   -8444.8793    8225.0834   -15755.854    84.002457 
    6000    1792.9957   -116.09881    1.6223402   -114.47647   -15794.116    4.3763352    4.3763352    4.3763352   -15794.116   -39039.942    20233.107   -28575.513   -24079.304   -9744.0406   -4714.5695    83.816929 
    6100    1869.6229   -116.15327    1.6916741    -114.4616   -16323.547    4.3559829    4.3559829    4.3559829   -16323.547   -14513.731   -8204.8735   -26252.037    14232.227   -5664.8546   -6673.3432    82.652975 
    6200    1515.9681   -115.85735    1.3716798   -114.48567    4292.1505    4.3544472    4.3544472    4.3544472    4292.1505    28131.984   -10591.199   -4664.3336    24082.901    4526.7382    2281.8238    82.565592 
    6300    2098.9988   -116.39529    1.8992182   -114.49607   -13036.842    4.3632999    4.3632999    4.3632999   -13036.842    26314.783   -33716.505   -31708.802   -7773.9595    1793.3917   -3300.3908     83.07019 
    6400    1504.4692   -115.86449    1.3612753   -114.50321     23780.35    4.3558659    4.3558659    4.3558659     23780.35    97548.573   -9340.9603   -16866.562    13804.862    18131.991    10952.274     82.64632 
    6500    1397.6053   -115.78458    1.2645826      -114.52   -41702.665    4.3713097    4.3713097    4.3713097   -41702.665   -12573.168   -42803.767   -69731.062     21365.11    26072.492    -6928.317    83.528512 
    6600    1664.6847   -116.00863    1.5062417   -114.50239    5692.9334    4.3493558    4.3493558    4.3493558    5692.9334    67720.032   -49327.301   -1313.9311   -951.06314    15374.269   -5792.2596    82.276309 
    6700    1664.3884   -116.01147    1.5059736    -114.5055     41402.62     4.330721     4.330721     4.330721     41402.62    106295.67   -22363.719    40275.911   -1336.7438    -17127.43    4495.9399    81.223299 
    6800    1520.2632   -115.91787    1.3755661    -114.5423   -22935.012    4.3514854    4.3514854    4.3514854   -22935.012   -11265.752   -12826.074    -44713.21    12924.433    31224.631   -22518.281    82.397224 
    6900    987.76004   -115.43843   0.89374604   -114.54468    34302.349    4.3554946    4.3554946    4.3554946    34302.349    126159.46   -28683.603    5431.1929   -34.020503    12142.921   -8416.0033    82.625185 
    7000    1844.5084   -116.20369    1.6689499   -114.53474   -25050.698    4.3622984    4.3622984    4.3622984   -25050.698    -17157.16    -20812.11   -37182.823   -10466.801   -6865.1691    3786.5955    83.013001 
    7100    1293.7423    -115.6875    1.1706052    -114.5169    18311.936    4.3554835    4.3554835    4.3554835    18311.936    82092.909   -11403.549   -15753.552    -14520.97   -19206.703   -9822.1675    82.624553 
    7200     1671.757   -116.02117    1.5126409   -114.50852     1575.497    4.3517545    4.3517545    4.3517545     1575.497    4111.9818    15747.385   -15132.876   -4223.7505    22861.559    -16249.84    82.412516 
    7300    1162.5041   -115.58418    1.0518581   -114.53233   -8176.3449    4.3605771    4.3605771    4.3605771   -8176.3449    -9319.985   -35653.754    20444.704   -17926.059     -1560.35    18036.843    82.914774 
    7400    1521.8233   -115.90094    1.3769777   -114.52396     14959.79    4.3531905    4.3531905    4.3531905     14959.79    82515.183   -29531.075    -8104.739   -11741.026   -12321.558   -15010.107    82.494124 
    7500     1729.744   -116.08671    1.5651087    -114.5216    10428.459    4.3506031    4.3506031    4.3506031    10428.459    48667.339   -14120.029   -3261.9337    3137.4077    2296.5859   -4730.2365    82.347118 
    7600    1217.5067   -115.61513    1.1016256    -114.5135    7856.6695    4.3550534    4.3550534    4.3550534    7856.6695    59377.704   -30489.203   -5318.4928   -16165.783    14098.409    3227.3077    82.600075 
    7700    1654.0357   -116.00712    1.4966063   -114.51051   -10538.554    4.3530009    4.3530009    4.3530009   -10538.554   -4964.6892   -38726.452     12075.48   -20880.564    5270.4305   -21578.154    82.483344 
    7800     1975.641   -116.29715    1.7876015   -114.50955   -12259.528    4.3622078    4.3622078    4.3622078   -12259.528    13128.435   -57731.361    7824.3423    13316.176    4488.0284    -2910.537    83.007827 
    7900     2041.025   -116.34681    1.8467623   -114.50005   -41783.789    4.3645438    4.3645438    4.3645438   -41783.789    -40391.18   -55675.668   -29284.521    15137.093     11716.42   -2942.5044    83.141254 
    8000     1770.726   -116.10581    1.6021901   -114.50362   -9752.8001    4.3631521    4.3631521    4.3631521   -9752.8001    2896.9846   -67797.133    35641.748   -7564.4216    29230.236   -12793.314    83.061748 
    8100    1937.5956   -116.24877    1.7531772   -114.49559    -31720.35    4.3730432    4.3730432    4.3730432    -31720.35    -10998.87   -46125.112   -38037.069    21071.625    4875.9701    460.31209    83.627923 
    8200    1488.1932   -115.83877    1.3465485   -114.49222    12080.562    4.3516115    4.3516115    4.3516115    12080.562    65558.538   -35178.846    5861.9935    -3648.499   -22787.501    121.84905     82.40439 
    8300    2150.9543   -116.44619    1.9462286   -114.49996   -13225.924    4.3482967    4.3482967    4.3482967   -13225.924   -21175.801   -28042.133    9540.1613    4206.6988    9716.8735    -22191.96    82.216222 
    8400    1924.3424   -116.25455    1.7411854   -114.51337   -24440.511    4.3745005    4.3745005    4.3745005   -24440.511   -24589.381   -23026.856   -25705.295   -998.64833    2508.1379     -8322.23    83.711554 
    8500    2104.7112   -116.39651    1.9043869   -114.49213   -16861.116    4.3631376    4.3631376    4.3631376   -16861.116   -26918.365   -38297.989    14633.004    7473.8912    -15179.89   -8582.6531     83.06092 
    8600    1383.6006   -115.74358    1.2519109   -114.49167    6976.0567    4.3413838    4.3413838    4.3413838    6976.0567   -22596.127    30451.819    13072.478    11087.001     18044.77    -1507.984    81.824724 
    8700    1816.8362   -116.16348    1.6439116   -114.51956    -18279.39    4.3559605    4.3559605    4.3559605    -18279.39   -36401.691    40497.154   -58933.633   -6328.6229    6848.8223   -15972.519    82.651701 
    8800    1780.0825     -116.118    1.6106561   -114.50734    4639.9945    4.3696889    4.3696889    4.3696889    4639.9945   -39430.816    42827.588    10523.212   -10186.641   -12792.526    -5177.362    83.435631 
    8900    1285.7939   -115.66495    1.1634134   -114.50153   -36491.043    4.3691012    4.3691012    4.3691012   -36491.043   -74005.776    34861.168   -70328.522    9598.5855    23465.902    5595.8383    83.401974 
    9000    1488.7695   -115.83635      1.34707   -114.48928   -14176.411    4.3504621    4.3504621    4.3504621   -14176.411   -23626.569    35619.024   -54521.688     14317.79    19306.799   -6044.1317    82.339108 
    9100    1517.8841   -115.85944    1.3734134   -114.48602    37822.188    4.3448618    4.3448618    4.3448618    37822.188    12133.847    81037.076    20295.642    15370.788   -16756.007    19196.041    82.021539 
    9200    1222.3651   -115.61539    1.1060217   -114.50937   -36122.538    4.3655163    4.3655163    4.3655163   -36122.538   -80223.882    32683.068   -60826.799    -1314.018    47294.459    10187.704    83.196842 
    9300    1243.3381    -115.6096    1.1249984    -114.4846   -22209.635    4.3690702    4.3690702    4.3690702   -22209.635   -3245.9888   -2642.3262   -60740.591   -6320.1101    11743.376    4044.4658    83.400196 
    9400    2013.2986   -116.29043    1.8216749   -114.46876    -24713.07    4.3625763    4.3625763    4.3625763    -24713.07    -16520.28    -22350.27    -35268.66    -5654.011   -13187.254    19299.933    83.028868 
    9500     1154.183   -115.53135     1.044329   -114.48702    -6979.792    4.3589301    4.3589301    4.3589301    -6979.792   -16201.657    39834.878   -44572.597      3317.17    46869.153   -12722.521    82.820857 
    9600    1456.4181   -115.79933    1.3177977   -114.48153    12655.088    4.3527229    4.3527229    4.3527229    12655.088    28816.714    7389.5624    1758.9884   -19774.592      -1862.6    27947.332    82.467547 
    9700    1778.4939   -116.08337    1.6092187   -114.47415    6914.0139    4.3589605    4.3589605    4.3589605    6914.0139    25825.903    25248.106   -30331.967   -3027.3001   -9421.6014    43699.926    82.822591 
    9800    1546.6274   -115.88738     1.399421   -114.48796    -27730.68    4.3705357    4.3705357    4.3705357    -27730.68    6830.8662    2770.6871   -92793.594    21821.252    42444.356   -14517.578    83.484145 
    9900    1838.0265   -116.14887     1.663085   -114.48579    -17494.06    4.3674484    4.3674484    4.3674484    -17494.06   -4407.6589    12453.362   -60527.885    7548.8333   -2309.5921   -5701.1533    83.307358 
   10000    1400.0368   -115.74416    1.2667827   -114.47738    39335.883    4.3496802    4.3496802    4.3496802    39335.883    53120.057    61551.606     3335.987    19698.357    7653.3165    6772.0374    82.294719 
   10100    1575.2384   -115.91252    1.4253088   -114.48721    3615.9486    4.3494937    4.3494937    4.3494937    3615.9486   -11211.805    8310.9713    13748.679   -13641.202    49069.174   -12568.453    82.284138 
   10200    1480.7896   -115.83847    1.3398495   -114.49862   -2299.9839    4.3750598    4.3750598    4.3750598   -2299.9839    8726.9731   -33238.633    17611.708    8027.2368    687.34108    4504.0706    83.743669 
   10300    1194.1532    -115.5611    1.0804949    -114.4806    9059.3672    4.3681801    4.3681801    4.3681801    9059.3672   -28390.938    21381.128    34187.912     13568.49    14486.967   -12710.889    83.349231 
   10400    869.90771   -115.25905   0.78711078   -114.47194    22424.731    4.3481448    4.3481448    4.3481448    22424.731    22625.288     18645.88    26003.024    15857.019    42693.006    3125.9552    82.207606 
   10500    1913.4999    -116.2045    1.7313749   -114.47312   -556.09152    4.3555537    4.3555537    4.3555537   -556.09152    30046.505   -48348.575    16633.796   -7173.8464   -2474.8434    705.99901    82.628545 
   10600    1617.4925   -115.94856    1.4635412   -114.48502   -9787.6993    4.3596308    4.3596308    4.3596308   -9787.6993   -27979.152    55250.023   -56633.969   -6382.5768    28683.758    11441.805    82.860801 
   10700     1208.248   -115.59289    1.0932481   -114.49964    6092.4053    4.3463432    4.3463432    4.3463432    6092.4053    24964.016    40023.171   -46709.972    3739.5186    45436.159   -15043.661    82.105459 
   10800     2018.492    -116.3421     1.826374   -114.51573    11435.245    4.3519088    4.3519088    4.3519088    11435.245    -11214.01    41377.949    4141.7942   -3091.5468   -9279.9953    11163.169    82.421278 
   10900    1789.4435    -116.1303    1.6191261   -114.51118   -46279.002    4.3737627    4.3737627    4.3737627   -46279.002   -69776.585    13323.125   -82383.548     14755.04    32750.408    9574.0942    83.669208 
   11000    1678.8727   -115.99902    1.5190793   -114.47994   -740.68978    4.3593594    4.3593594    4.3593594   -740.68978    7544.4724    56175.235   -65941.776   -9661.4332    12191.127       -10177    82.845332 
   11100    1832.1067   -116.13596    1.6577286   -114.47823     16191.84    4.3468269    4.3468269    4.3468269     16191.84    46599.786    40743.394    -38767.66    1422.2184   -13861.106     -1830.07    82.132878 
   11200    1538.6762   -115.89556    1.3922266   -114.50334   -20854.757    4.3659683    4.3659683    4.3659683   -20854.757   -68803.317    36453.813   -30214.768   -3329.4481    33116.233    16601.714    83.222688 
   11300    1522.7594   -115.86346    1.3778247   -114.48564   -4605.4316    4.3700228    4.3700228    4.3700228   -4605.4316   -25300.794    50344.056   -38859.556    16464.322    8568.9016   -14589.416    83.454757 
   11400    1742.8756   -116.05019    1.5769905    -114.4732    23824.784    4.3438668    4.3438668    4.3438668    23824.784    23009.737    28048.823    20415.792   -7610.2077   -12065.762   -27547.848    81.965197 
   11500    1857.8944   -116.17606    1.6810619     -114.495   -31809.528    4.3480121    4.3480121    4.3480121   -31809.528   -55934.059   -2446.6562    -37047.87   -11864.503    40847.421    16746.492    82.200077 
   11600    1584.6717   -115.93008    1.4338443   -114.49624   -21454.353    4.3714561    4.3714561    4.3714561   -21454.353   -42784.195   -4520.8293   -17058.033   -12679.772    189.86423   -364.68089    83.536902 
   11700    1710.3345   -116.03018    1.5475466   -114.48263   -26433.369    4.3715949    4.3715949    4.3715949   -26433.369   -39467.226     7512.377    -47345.26   -4433.4488   -10921.498   -11232.649    83.544861 
   11800    1309.7232   -115.67024     1.185065   -114.48517    1756.1742    4.3463759    4.3463759    4.3463759    1756.1742   -26653.935   -1129.8375    33052.295   -7570.4084    44623.235   -4406.2374    82.107317 
   11900    1793.5732   -116.11265    1.6228628   -114.48979   -2298.7685    4.3371192    4.3371192    4.3371192   -2298.7685   -15729.219    4.0690591    8828.8447   -6612.8619   -6585.9112   -9344.4055    81.583825 
   12000    1534.8207   -115.89563     1.388738    -114.5069    3604.4652    4.3475875    4.3475875    4.3475875    3604.4652    14023.362   -2432.0518   -777.91472     10920.33   -8689.4662   -9409.5858    82.175998 
   12100    926.56508   -115.35438   0.83837556     -114.516   -3887.5853    4.3612241    4.3612241    4.3612241   -3887.5853   -62949.448    4304.9205    46981.772    668.60046    40555.419    8723.2204    82.951686 
   12200     1879.808   -116.20145    1.7008898   -114.50056   -35087.978    4.3545968    4.3545968    4.3545968   -35087.978   -53002.705   -20054.018   -32207.212   -7683.1884    22863.329   -18760.626    82.574102 
   12300    1733.1138   -116.04969    1.5681578   -114.48153    35112.737    4.3379463    4.3379463    4.3379463    35112.737    34539.536    10111.286    60687.388     4107.066   -606.47112    7237.3112    81.630511 
   12400    1231.3681   -115.63124    1.1141678   -114.51708   -2350.0339     4.364657     4.364657     4.364657   -2350.0339   -14087.198    34767.257    -27730.16    9044.5091    19913.587    1641.0142    83.147722 
   12500    1538.7704   -115.86583    1.3923118   -114.47352   -34110.021    4.3826591    4.3826591    4.3826591   -34110.021   -40747.333   -19870.199   -41712.531   -12922.551    4315.9155   -9557.1927    84.180805 
   12600     2549.917   -116.75127    2.3072185   -114.44405   -12714.407    4.3479026    4.3479026    4.3479026   -12714.407   -15144.173    -15201.57   -7797.4778   -6802.3151   -962.47357   -15645.626     82.19387 
   12700    1548.0319   -115.87377    1.4006918   -114.47308    26500.111    4.3370829    4.3370829    4.3370829    26500.111    -23619.03    65820.637    37298.725     2511.286    42286.238     14915.72    81.581777 
   12800    1779.0018   -116.11856    1.6096782   -114.50888   -27833.079    4.3703607    4.3703607    4.3703607   -27833.079   -55914.586   -33774.821    6190.1684   -14145.263    11863.953   -7701.1966    83.474121 
   12900    1981.0436   -116.26363    1.7924899   -114.47114   -33691.262    4.3759794    4.3759794    4.3759794   -33691.262   -38750.456   -44843.218   -17480.113    1019.2164    5878.8472   -33199.415    83.796485 
   13000     1466.505   -115.78041    1.3269246   -114.45349    50626.349    4.3444173    4.3444173    4.3444173    50626.349    19450.904    90078.448    42349.696    7628.4224    23143.092     18709.96    81.996367 
   13100     2143.918   -116.41615    1.9398621   -114.47629   -20171.411    4.3386872    4.3386872    4.3386872   -20171.411   -34213.097   -44988.807    18687.671   -9476.1391   -8672.3641   -1591.8082    81.672344 
   13200    1145.9006   -115.54041    1.0368349   -114.50358    12807.182    4.3462967    4.3462967    4.3462967    12807.182    35679.002   -11631.527     14374.07   -23042.869    3470.6958   -18319.408    82.102828 
   13300    1551.1984   -115.91078    1.4035569   -114.50722    23203.619    4.3559365    4.3559365    4.3559365    23203.619   -20177.533    55287.285    34501.103     2802.376    4784.5101    6952.9092    82.650334 
   13400     1762.281   -116.09486    1.5945489   -114.50031   -27543.981     4.373927     4.373927     4.373927   -27543.981   -54824.871   -50583.982    22776.909   -7295.4607    4839.6211     18504.48    83.678633 
   13500    1500.0151   -115.85348    1.3572452   -114.49624     5852.515    4.3465279    4.3465279    4.3465279     5852.515     3298.655   -35185.828    49444.717   -13457.133    10431.334    6621.7474    82.115932 
   13600    2037.7665   -116.31965     1.843814   -114.47583    41804.221    4.3186485    4.3186485    4.3186485    41804.221    82557.951    47020.263   -4165.5518   -3721.7313   -4580.7045   -15301.123    80.545928 
   13700    1547.9258   -115.93911    1.4005958   -114.53852   -51580.042    4.3597893    4.3597893    4.3597893   -51580.042   -64720.477   -62182.299   -27837.349   -20166.727     14772.98    7614.2416    82.869839 
   13800     959.2141   -115.36682   0.86791707   -114.49891    -31061.59    4.3726204    4.3726204    4.3726204    -31061.59     9835.411   -81474.594   -21545.587   -40464.437    21672.383    27744.022    83.603669 
   13900    2070.9334   -116.33212     1.873824    -114.4583    46796.494    4.3350334    4.3350334    4.3350334    46796.494    114278.16    16063.303    10048.017    13741.377   -856.88395   -12802.196     81.46618 
   14000    1182.0051   -115.57495     1.069503   -114.50544   -1155.8438    4.3476775    4.3476775    4.3476775   -1155.8438    59313.201   -23841.265   -38939.467   -18557.202    6894.7896    17117.407    82.181106 
   14100    1120.5794   -115.53548    1.0139238   -114.52156   -26039.388    4.3721213    4.3721213    4.3721213   -26039.388    8066.5091   -62855.342    -23329.33   -22310.435   -2214.8866    16624.395     83.57504 
   14200    1963.7465   -116.26605    1.7768391   -114.48921   -4983.5301    4.3605933    4.3605933    4.3605933   -4983.5301    19962.638   -18670.818    -16242.41    4334.8019   -1843.4448   -12940.002    82.915694 
   14300    1403.5373   -115.76233    1.2699501   -114.49238   -27318.497    4.3407279    4.3407279    4.3407279   -27318.497   -51646.898   -8598.2604   -21710.332   -13130.769    16911.691    8252.0091    81.787643 
   14400    1290.3695   -115.67254    1.1675535   -114.50499   -14709.253      4.33176      4.33176      4.33176   -14709.253    17845.116   -34929.828   -27043.047   -17237.104    13859.473    27598.651     81.28177 
   14500    1803.3308   -116.14233    1.6316916   -114.51064    18009.061    4.3425017    4.3425017    4.3425017    18009.061     63285.92   -2512.7104   -6746.0271    9152.2153   -8617.4729   -25907.611    81.887949 
   14600    1559.3803    -115.9311      1.41096   -114.52014   -41209.433    4.3725263    4.3725263    4.3725263   -41209.433   -55363.736    12871.386    -81135.95    10387.112    6143.4897   -9591.8217     83.59827 
   14700    1532.0939    -115.8821    1.3862708   -114.49583   -14760.737    4.3545822    4.3545822    4.3545822   -14760.737   -45358.403    44910.705   -43834.513   -3400.4493    22347.587    14593.017    82.573269 
   14800    1445.6297   -115.77131    1.3080362   -114.46327    41342.444    4.3129689    4.3129689    4.3129689    41342.444    43320.294    92215.501   -11508.463    1416.9712   -2732.5534   -46642.519    80.228559 
   14900    1501.8988   -115.88443    1.3589496   -114.52548    -8586.147    4.3372331    4.3372331    4.3372331    -8586.147    17100.454   -10091.055    -32767.84    19501.803    10220.539   -22010.382    81.590255 
   15000    1835.7307   -116.18328    1.6610077   -114.52228   -17215.078    4.3685026    4.3685026    4.3685026   -17215.078   -49289.268    40206.698   -42562.665   -10032.262    6583.9354    21226.618    83.367696 
   15100    1535.4654   -115.89937    1.3893213   -114.51005   -16700.437    4.3745179    4.3745179    4.3745179   -16700.437   -2878.2565    13456.433   -60679.486   -19923.815    2720.7197   -9507.6306    83.712557 
   15200    1042.3665   -115.43781   0.94315509   -114.49466    34390.544    4.3517429    4.3517429    4.3517429    34390.544    35346.343    74835.315   -7010.0276    9606.3567   -2593.4365    -1049.198    82.411853 
   15300    2020.4902   -116.31905     1.828182   -114.49086    -16139.92    4.3368435    4.3368435    4.3368435    -16139.92   -13241.778    4367.3202   -39545.301   -7262.3109     3297.062    29901.615    81.568268 
   15400    1313.2072   -115.71186    1.1882175   -114.52364    10728.633     4.344641     4.344641     4.344641    10728.633    56654.224   -32070.148    7601.8233     24119.43   -6994.7873    4610.2796    82.009031 
   15500    1356.8216   -115.74611    1.2276807   -114.51843    3232.5818    4.3563756    4.3563756    4.3563756    3232.5818   -4794.7444    6126.0735    8366.4162   -1348.5054   -5787.8889   -8124.2532    82.675331 
   15600    1386.0826   -115.75128    1.2541567   -114.49712   -41410.306    4.3596028    4.3596028    4.3596028   -41410.306   -73391.929    16364.984   -67203.974   -7091.8124   -10442.223    3363.4796    82.859208 
   15700    1610.4151   -115.94402    1.4571374   -114.48689    10546.581     4.339911     4.339911     4.339911    10546.581   -388.59863    55927.216   -23898.875     26747.44    7971.1167    1533.0743    81.741474 
   15800    2004.6719   -116.31551    1.8138693   -114.50164    22630.527    4.3409366    4.3409366    4.3409366    22630.527   -12917.847     58338.54    22470.889   -14442.847   -9710.2049   -2475.3347     81.79944 
   15900    1390.2356   -115.78644    1.2579144   -114.52853   -52606.248     4.364081     4.364081     4.364081   -52606.248   -76841.919    13741.749   -94718.573   -6548.0668   -17383.055    30990.525    83.114807 
   16000    1314.0133   -115.71314    1.1889469    -114.5242    -8682.115    4.3456354    4.3456354    4.3456354    -8682.115   -36732.599    77980.641   -67294.387    12791.319    6392.4288    17159.555    82.065357 
   16100    1769.0925   -116.11174    1.6007121   -114.51103    61790.484    4.3233199    4.3233199    4.3233199    61790.484    37398.112    144996.21    2977.1331    12216.047    5574.6816   -6736.9152    80.807582 
   16200    1810.3025   -116.19782    1.6379997   -114.55982   -23956.997      4.35528      4.35528      4.35528   -23956.997    -37666.29    9852.1705   -44056.872   -11129.595   -545.70946   -10050.406     82.61297 
   16300    1555.9145   -115.93612    1.4078242   -114.52829   -12121.474    4.3595407    4.3595407    4.3595407   -12121.474   -57129.024    64121.154   -43356.552   -19948.473   -2825.8275    3079.6517    82.855664 
   16400    1402.7036   -115.78986    1.2691957   -114.52067    37901.352    4.3287459    4.3287459    4.3287459    37901.352    14658.355    131237.53   -32191.829    26923.783   -3919.1332    3081.3499     81.11222 
   16500    785.20305   -115.27698   0.71046822   -114.56651    35215.014    4.3422568    4.3422568    4.3422568    35215.014    2503.5587    176852.36   -73710.878   -965.89654    11785.135    5838.5246    81.874092 
   16600    1573.0868   -115.97542     1.423362   -114.55206   -20228.242    4.3783074    4.3783074    4.3783074   -20228.242   -58165.015    68147.342   -70667.052    1180.4719   -8917.1202    -5961.651    83.930294 
   16700    1832.9655   -116.19461    1.6585057   -114.53611   -38259.894    4.3492611    4.3492611    4.3492611   -38259.894   -66066.629   -21662.717   -27050.336    10385.051    11359.798    9295.1486    82.270936 
   16800    1598.7772   -115.94957    1.4466072   -114.50297    31413.186    4.3172745    4.3172745    4.3172745    31413.186   -4826.5672    89161.006    9905.1194    1506.3298    24491.137     2715.327    80.469073 
   16900    2384.9181   -116.71213     2.157924   -114.55421    -13706.22    4.3573105    4.3573105    4.3573105    -13706.22   -18740.968    19698.112   -42075.802    7431.6013   -11758.611    11674.459    82.728569 
   17000    969.56109    -115.4058   0.87727925   -114.52852   -30997.097    4.3802989    4.3802989    4.3802989   -30997.097   -65582.245    572.64518    -27981.69    11680.626    26118.822    -10709.18    84.044876 
   17100    2030.1744   -116.31814    1.8369445   -114.48119   -5163.6535    4.3406482    4.3406482    4.3406482   -5163.6535   -10273.169    15831.813   -21049.604    19373.355     5234.358    5081.1273    81.783139 
   17200    2151.0153   -116.43194    1.9462838   -114.48566    23825.044    4.3259903    4.3259903    4.3259903    23825.044    593.12915     40526.82    30355.184   -22206.625   -6987.0011    5148.7437    80.957413 
   17300    1165.5668    -115.5966    1.0546293   -114.54197    19400.423    4.3403935    4.3403935    4.3403935    19400.423   -32816.155     105781.2   -14763.774    8254.2304    19416.644    3098.3797    81.768741 
   17400    1460.7492    -115.8629    1.3217166   -114.54118   -21400.694    4.3666808    4.3666808    4.3666808   -21400.694   -31983.295   -14132.016   -18086.772    12377.655    8628.7657   -4581.1669    83.263441 
   17500    2277.9806   -116.55454    2.0611647   -114.49338   -38832.539    4.3742088    4.3742088    4.3742088   -38832.539   -40651.687   -45636.192   -30209.738    4979.9364   -12946.752     21179.04    83.694809 
   17600    1326.6612   -115.69005    1.2003909   -114.48965   -16486.491    4.3595811    4.3595811    4.3595811   -16486.491   -38016.499    30989.589   -42432.562    9107.1184    8047.4362   -7829.8101    82.857966 
   17700    1760.3472   -116.07747    1.5927992   -114.48467    21431.111    4.3268075    4.3268075    4.3268075    21431.111   -22294.661    80893.491    5694.5048    33185.457    11133.465   -5521.2259      81.0033 
   17800    2117.9002   -116.43882    1.9163206    -114.5225   -4118.0531     4.328777     4.328777     4.328777   -4118.0531    6939.5616    6045.6337   -25339.355   -11778.341    853.97311    27553.482    81.113964 
   17900    1808.7114   -116.19757    1.6365601   -114.56101   -37444.292    4.3663913    4.3663913    4.3663913   -37444.292   -37528.291   -32284.393   -42520.192    3074.0603    3242.5134    5380.5063    83.246878 
   18000    1509.8504   -115.89423    1.3661444   -114.52808   -20088.867    4.3763198    4.3763198    4.3763198   -20088.867   -68598.064    18356.038   -10024.577    22356.899    6966.4886   -7600.1874    83.816041 
   18100    1688.2333   -116.02529     1.527549   -114.49774   -4688.5396    4.3420819    4.3420819    4.3420819   -4688.5396   -22465.304    52924.262   -44524.577   -12101.352   -6919.6245    13238.868    81.864204 
   18200    1598.7308    -115.9518    1.4465653   -114.50523   -336.34461    4.3288033    4.3288033    4.3288033   -336.34461   -15534.118     2185.892    12339.192     16190.77    2802.5129    21253.541    81.115447 
   18300    1952.5053    -116.3088    1.7666678   -114.54213   -22943.896      4.34713      4.34713      4.34713   -22943.896   -50687.144   -20058.051    1913.5074     10523.58    16853.978   -16039.208    82.150063 
   18400     1690.877   -116.07533    1.5299411   -114.54538   -17543.658    4.3569716    4.3569716    4.3569716   -17543.658   -41641.111    25270.677   -36260.541   -1077.8827    -24187.48    9677.7822    82.709271 
   18500    991.12337   -115.44198   0.89678925   -114.54519    28757.426    4.3487924    4.3487924    4.3487924    28757.426   -21985.285    102044.67    6212.8957    3745.4308    8070.5138    18692.356    82.244341 
   18600    1392.9199   -115.80816    1.2603432   -114.54782    18867.893    4.3426824    4.3426824    4.3426824    18867.893   -39774.737     90731.17    5647.2475    15926.962    8573.2625    7259.2415    81.898171 
   18700     1651.053   -116.04589    1.4939075   -114.55199    22691.317    4.3377164    4.3377164    4.3377164    22691.317   -28176.037    75292.094    20957.894   -21967.913   -18315.446    4527.4213    81.617533 
   18800    1748.4635   -116.12789    1.5820465   -114.54585    1702.7161    4.3404018    4.3404018    4.3404018    1702.7161   -34370.374    34494.525    4983.9976   -9063.7425    20746.104    1124.2358    81.769212 
   18900    1805.9968   -116.17038    1.6341039   -114.53628    -13548.58    4.3530118    4.3530118    4.3530118    -13548.58   -28197.038    11619.034   -24067.737    29868.059     9894.806    13309.618    82.483966 
   19000    1934.1319   -116.26441    1.7500432   -114.51437   -13379.015     4.361609     4.361609     4.361609   -13379.015   -41994.789    32015.272   -30157.528   -17367.337   -17501.433    525.38704    82.973651 
   19100    1245.2412    -115.6492    1.1267204   -114.52248   -23101.028    4.3533571    4.3533571    4.3533571   -23101.028   -63367.331    39225.392   -45161.145   -1256.3566    33887.673    10944.099    82.503594 
   19200    1553.5368   -115.92667    1.4056728     -114.521    15257.291    4.3129051    4.3129051    4.3129051    15257.291     4261.905    62026.649   -20516.682    22451.233    14833.286    2874.3449    80.224996 
   19300    2100.8661   -116.45225    1.9009078   -114.55134    -9279.418    4.3277775    4.3277775    4.3277775    -9279.418   -29784.733    18004.062   -16057.583      36252.8   -15642.969    4811.6974    81.057791 
   19400    1576.8974   -115.95946    1.4268099   -114.53265   -27256.639    4.3660557    4.3660557    4.3660557   -27256.639   -60460.047    57109.166   -78419.037   -9481.0321    36193.685   -13697.719    83.227686 
   19500    1422.5168   -115.78866    1.2871231   -114.50154   -21167.656    4.3597187    4.3597187    4.3597187   -21167.656   -38711.147    40927.889   -65719.709     12061.63    7881.3555    1683.5937    82.865817 
   19600    1457.6955   -115.81076    1.3189535   -114.49181   -22184.297    4.3359751    4.3359751    4.3359751   -22184.297   -6343.3592    -21008.44   -39201.093    17304.248   -15663.772    40965.436    81.519283 
   19700    1306.4151    -115.6909    1.1820719   -114.50883    5300.4991    4.3201309    4.3201309    4.3201309    5300.4991   -29941.087     68019.38   -22176.796     8671.896    57947.057   -7563.4242    80.628896 
   19800    1659.5237   -116.04059    1.5015719   -114.53902    7883.1596    4.3370173    4.3370173    4.3370173    7883.1596    28913.875    36274.944    -41539.34   -10450.796    12435.259   -5497.7406    81.578077 
   19900    1820.7924   -116.17491    1.6474912   -114.52741    -18000.58    4.3594401    4.3594401    4.3594401    -18000.58   -13259.248   -22123.824   -18618.669    23675.266   -3536.0064    9081.7139    82.849931 
   20000    1427.3268   -115.80114    1.2914753   -114.50967     3043.171      4.34542      4.34542      4.34542     3043.171    72297.278   -16897.865   -46269.901    18578.519    17423.773   -10080.322    82.053151 
   20100    1219.9571   -115.61526    1.1038428   -114.51142    14909.959    4.3301219    4.3301219    4.3301219    14909.959    70447.021    30020.734   -55737.878   -22126.778    24429.307   -19909.048    81.189592 
   20200    1772.8936   -116.13571    1.6041514   -114.53155    44516.274    4.3242447    4.3242447    4.3242447    44516.274    110775.26     437.1021    22336.457    18450.389    -20162.68    2839.5747    80.859452 
   20300    1966.0976   -116.33336    1.7789664   -114.55439   -7525.7478    4.3360288    4.3360288    4.3360288   -7525.7478    39877.629   -28444.768   -34010.105    26330.432    25625.368   -729.58328    81.522308 
   20400     1135.332   -115.58414    1.0272722   -114.55687   -22125.149    4.3432386    4.3432386    4.3432386   -22125.149    23703.036    -31369.02   -58709.464   -14376.485    37577.513   -23840.696    81.929642 
   20500    1281.1378   -115.70206    1.1592004   -114.54286   -15391.575    4.3336005    4.3336005    4.3336005   -15391.575    7075.9634    1937.1094   -55187.798    650.18027   -25597.895   -8907.0432    81.385421 
   20600    1877.5145   -116.22527    1.6988146   -114.52646    20552.205    4.3249797    4.3249797    4.3249797    20552.205    48316.417   -10641.145    23981.344   -4465.0031   -18406.883    11556.321    80.900689 
   20700    1792.9808   -116.16218    1.6223267   -114.53985   -26585.411    4.3401443    4.3401443    4.3401443   -26585.411    1724.8835   -35389.264   -46091.852    6944.3934    36296.457   -11221.528    81.754658 
   20800    506.81429   -115.00174   0.45857622   -114.54316    9069.8333    4.3471747    4.3471747    4.3471747    9069.8333    52404.838   -8252.7341   -16942.604   -5740.7521   -3418.7733   -17842.242    82.152596 
   20900    1863.2138   -116.21372     1.685875   -114.52784   -27385.566    4.3361508    4.3361508    4.3361508   -27385.566   -27832.631   -13743.617    -40580.45   -4545.1781   -7320.8531    11824.408    81.529191 
   21000    1508.5068   -115.87884    1.3649287   -114.51392    52464.865    4.3189998    4.3189998    4.3189998    52464.865     89829.36     30094.43    37470.806    2013.5215    5901.9907    11896.376    80.565584 
   21100    1348.2951   -115.75672    1.2199658   -114.53676   -1562.2342    4.3420824    4.3420824    4.3420824   -1562.2342    37236.218   -12786.584   -29136.337    6482.5802   -6162.1756   -24582.937    81.864233 
   21200     1497.232    -115.8843    1.3547269   -114.52957   -1113.8054    4.3454396    4.3454396    4.3454396   -1113.8054    3143.0875    32880.173   -39364.676   -11854.024   -17480.572    8574.1556    82.054266 
   21300    1054.3136   -115.49179   0.95396515   -114.53783     37045.74    4.3390879    4.3390879    4.3390879     37045.74    86723.325     10826.97    13586.925    16163.929    2028.4358    28537.148    81.694977 
   21400    1837.7113   -116.19198    1.6627998   -114.52918   -7393.8855    4.3516953    4.3516953    4.3516953   -7393.8855   -718.06094    9008.4225   -30472.018     10583.05   -3848.3061   -12809.634    82.409153 
   21500    2011.7142   -116.32704    1.8202413    -114.5068    10710.353    4.3409861    4.3409861    4.3409861    10710.353    31504.827    20380.766   -19754.535   -3111.4837   -11319.132   -13277.003    81.802237 
   21600    1535.7921   -115.89799     1.389617   -114.50837    17817.435    4.3337769    4.3337769    4.3337769    17817.435    59692.535     29041.03    -35281.26    20873.743   -3034.7198    27282.626    81.395359 
   21700    1362.9082   -115.74956     1.233188   -114.51637   -13675.446    4.3477468    4.3477468    4.3477468   -13675.446    274.63962   -6850.8666   -34450.112   -18823.269   -3589.3546    3680.9184    82.185033 
   21800    1661.6251   -116.01505    1.5034733   -114.51158    11297.167    4.3403626    4.3403626    4.3403626    11297.167    43682.382    5590.1064   -15380.988   -10614.104    2423.1658   -17990.707    81.766995 
   21900    1839.0645   -116.17915    1.6640242   -114.51512    146.09254    4.3401345    4.3401345    4.3401345    146.09254    6932.0168    41171.639   -47665.379   -3305.5794   -15139.994    6908.4685    81.754103 
   22000    1502.7651   -115.88332    1.3597335   -114.52359   -9858.0505    4.3440292    4.3440292    4.3440292   -9858.0505   -23532.846    27786.347   -33827.652   -9329.0426   -4754.8661    15059.654    81.974394 
   22100    1658.0676   -116.02579    1.5002544   -114.52554   -14265.806     4.332809     4.332809     4.332809   -14265.806    8395.2615   -44986.699   -6205.9791    12236.803   -2337.6947   -16418.414    81.340835 
   22200    1513.6338   -115.90562    1.3695677   -114.53606    24598.404    4.3288315    4.3288315    4.3288315    24598.404    84696.128    8383.0869   -19284.002   -9016.7569    -5435.443   -16905.654    81.117032 
   22300    2378.8459   -116.69565    2.1524298   -114.54322    2140.8481    4.3309392    4.3309392    4.3309392    2140.8481     33935.27    13603.706   -41116.433    5818.4352    12207.851    11047.902    81.235577 
   22400    1361.2471   -115.79437    1.2316849   -114.56268    38107.419    4.3433067    4.3433067    4.3433067    38107.419    49656.706    74710.864   -10045.312   -2441.8675    232.29627   -3757.1646    81.933498 
   22500     1511.638   -115.92269    1.3677619   -114.55493   -41123.786    4.3582506    4.3582506    4.3582506   -41123.786   -24768.918    -79447.77   -19154.671    8069.4962    3642.2639   -12331.843     82.78213 
   22600    1415.8719   -115.80547    1.2811106   -114.52436    3681.3074    4.3431953    4.3431953    4.3431953    3681.3074    39701.471    9974.4117   -38631.961    -10619.64    1904.3644   -9357.3029    81.927192 
   22700    2216.1386   -116.49791    2.0052088    -114.4927    19723.028    4.3273462    4.3273462    4.3273462    19723.028    4301.7089    73376.721   -18509.346    269.75427   -9591.0315    5772.2966     81.03356 
   22800    1204.2191    -115.6136    1.0896027   -114.52399   -9913.8702     4.340912     4.340912     4.340912   -9913.8702   -6170.8173   -32495.578    8924.7851   -4800.5474    1893.8314    4486.3589     81.79805 
   22900    1325.6418   -115.73367    1.1994685    -114.5342   -21193.954    4.3491163    4.3491163    4.3491163   -21193.954   -24971.417   -47683.686    9073.2415    6782.8499   -4358.2634   -13407.085     82.26272 
   23000     1670.881   -116.03861    1.5118482   -114.52676    22330.178     4.348285     4.348285     4.348285    22330.178    13779.872    37539.953    15670.709   -1865.7614    507.43183    4084.0908    82.215555 
   23100    1730.3777   -116.09227    1.5656821   -114.52659   -6042.1617    4.3460996    4.3460996    4.3460996   -6042.1617    4391.7789   -5947.4546   -16570.809   -10633.205    12251.674    2741.3296    82.091658 
   23200    1321.3661   -115.72275    1.1955998   -114.52715   -15357.546    4.3394262    4.3394262    4.3394262   -15357.546     14007.35   -54460.767   -5619.2215   -4640.8178    474.08524   -19153.102    81.714083 
   23300    1505.4983   -115.88757    1.3622065   -114.52536    36465.891    4.3299345    4.3299345    4.3299345    36465.891    33434.694    58519.058    17443.922    17297.722    8113.3317   -14495.459     81.17905 
   23400    1731.9313   -116.10723    1.5670878   -114.54015    23244.352    4.3467163    4.3467163    4.3467163    23244.352    15716.789    26844.078    27172.188   -9886.5916    2716.9915    16209.306    82.126609 
   23500    1702.4237   -116.06672    1.5403887   -114.52633   -10146.402    4.3628472    4.3628472    4.3628472   -10146.402    6858.2344   -23251.972   -14045.468    8500.0032   -9859.9566   -1083.1039    83.044334 
   23600    1609.4093   -115.96619    1.4562274   -114.50996    4178.8054    4.3450372    4.3450372    4.3450372    4178.8054   -8201.5518    18967.495    1770.4735    22824.386     3111.566    -7836.978    82.031471 
   23700    1828.4611   -116.15408      1.65443   -114.49965     22993.74    4.3176338    4.3176338    4.3176338     22993.74    53771.447   -24426.537    39636.312   -2733.7975   -8112.9334    41318.995    80.489164 
   23800    1915.7576   -116.26368    1.7334177   -114.53026    7538.5894    4.3311762    4.3311762    4.3311762    7538.5894   -11808.263    11726.215    22697.816   -2170.1539   -9815.1476    14526.972    81.248914 
   23900    1422.6944   -115.82623    1.2872838   -114.53895    18386.079    4.3447096    4.3447096    4.3447096    18386.079   -23803.512    41247.881    37713.867    10899.875   -508.78519   -9998.0634    82.012917 
   24000    1097.5524   -115.54226   0.99308851   -114.54917    -582.7876    4.3485756    4.3485756    4.3485756    -582.7876    28587.576   -23737.011   -6598.9275    3010.0652   -10553.213    45284.222    82.232041 
   24100    2079.8935   -116.41039    1.8819313   -114.52846    -16882.05    4.3464272    4.3464272    4.3464272    -16882.05   -3690.0186   -40156.114    -6800.018    10281.844   -11395.986    22763.814    82.110225 
   24200    2236.1314   -116.54646    2.0232987   -114.52316    7290.8103    4.3342429    4.3342429    4.3342429    7290.8103   -13476.546    31269.508    4079.4695   -3139.2778    6060.6375   -12277.876    81.421619 
   24300    921.11151   -115.39115   0.83344105   -114.55771    4363.2788    4.3469503    4.3469503    4.3469503    4363.2788    16228.392    47208.913   -50347.468   -11695.965   -5258.2488    35135.181    82.139875 
   24400    1493.4191   -115.89019     1.351277   -114.53892    -7121.354    4.3666716    4.3666716    4.3666716    -7121.354   -40851.835    52637.136   -33149.363    12447.291    6137.9794    10166.772    83.262912 
   24500    2039.9182   -116.36896    1.8457609    -114.5232   -12274.772    4.3549024    4.3549024    4.3549024   -12274.772   -24932.656    23918.568   -35810.229       7987.3    24269.824    1153.1359    82.591489 
   24600    1635.8696   -115.99909    1.4801692   -114.51892     362.6162    4.3332243    4.3332243    4.3332243     362.6162    27175.038   -1457.7178   -24629.472    4252.0892    8610.6031    29178.574     81.36423 
   24700    1780.0562   -116.15074    1.6106322    -114.5401    20242.236    4.3480978    4.3480978    4.3480978    20242.236    2936.9978    10262.105    47527.606   -10136.902      6213.69    15073.388    82.204938 
   24800    1734.4316   -116.09808    1.5693502   -114.52873    3658.1957    4.3685803    4.3685803    4.3685803    3658.1957   -29021.532    58124.601   -18128.482   -7535.1415    7513.2323   -31298.781    83.372143 
   24900    1216.6639   -115.64467    1.1008631   -114.54381    15074.694    4.3435852    4.3435852    4.3435852    15074.694    13736.202    12304.262    19183.619    3984.3561   -1301.2798    28928.436    81.949262 
   25000    1698.9189   -116.07791    1.5372175   -114.54069    22992.546    4.3253523    4.3253523    4.3253523    22992.546    22603.291    13112.999    33261.347      18898.1   -7735.1898    32485.835    80.921599 
   25100    2132.8629   -116.48025    1.9298592   -114.55039   -19164.729    4.3454067    4.3454067    4.3454067   -19164.729   -26156.744   -34052.854    2715.4111    -16522.12    15869.647   -47962.347    82.052402 
   25200    1164.9446   -115.59783    1.0540664   -114.54376    42986.445    4.3422911    4.3422911    4.3422911    42986.445    15582.038    103253.15    10124.148    1835.6774    9599.7971    10739.515    81.876035 
   25300    1341.3142   -115.76355    1.2136493    -114.5499   -9210.1667    4.3491334    4.3491334    4.3491334   -9210.1667     -13203.3    23929.251   -38356.451    19336.021    -11537.63    28538.696    82.263689 
   25400     2157.523   -116.48701    1.9521722   -114.53484   -33414.597    4.3521242    4.3521242    4.3521242   -33414.597   -30307.974   -10515.666    -59420.15    13283.278   -9878.6791   -5438.7986    82.433518 
   25500    2115.1421   -116.45537     1.913825   -114.54155    4407.4511    4.3295815    4.3295815    4.3295815    4407.4511    13360.306    8623.6391   -8761.5915    -6133.706    250.04998   -37196.823    81.159202 
   25600     1539.079   -115.95392     1.392591   -114.56133    21061.442    4.3240285    4.3240285    4.3240285    21061.442    35411.993    31366.937   -3594.6037    14827.044    6739.5267    18011.237     80.84732 
   25700    1663.2529   -116.07479    1.5049462   -114.56985    -27502.16     4.353137     4.353137     4.353137    -27502.16   -42176.427    7721.2405   -48051.295    36121.652   -17726.476    22360.963    82.491086 
   25800    1796.5118   -116.16932    1.6255216   -114.54379    5204.0535    4.3563339    4.3563339    4.3563339    5204.0535    -30913.67    72079.632   -25553.802   -20458.251    293.23613   -23095.499    82.672961 
   25900    1402.1989   -115.79848     1.268739   -114.52974    33402.114    4.3338335    4.3338335    4.3338335    33402.114    33879.444    104796.71   -38469.813   -29.008136    -2105.997    13780.972    81.398548 
   26000    1098.7325   -115.53996   0.99415628   -114.54581    -22336.01    4.3358805    4.3358805    4.3358805    -22336.01   -15230.763   -11417.575   -40359.691    21972.619   -18372.804    10615.156    81.513947 
   26100     1762.244   -116.12424    1.5945154   -114.52973    -1165.652    4.3425797    4.3425797    4.3425797    -1165.652    12350.579    28834.896   -44682.431    3523.0407    7207.4462   -18688.911    81.892362 
   26200    1690.8177   -116.05277    1.5298874   -114.52288    10689.634    4.3502761    4.3502761    4.3502761    10689.634    12177.958    69505.276   -49614.332   -9055.4098   -9224.2673     17777.26     82.32855 
   26300    1512.1261   -115.88597    1.3682034   -114.51777    -32246.35    4.3530443    4.3530443    4.3530443    -32246.35   -47789.019   -1364.8137   -47585.218    19844.698   -18192.111    29332.352    82.485813 
   26400    1736.5071   -116.08107    1.5712281   -114.50985   -10.055519    4.3463032    4.3463032    4.3463032   -10.055519   -16287.751    26686.892   -10429.307   -9839.0285    11656.548   -23816.454    82.103197 
   26500    1593.3827   -115.95287    1.4417262   -114.51115    13132.427    4.3393868    4.3393868    4.3393868    13132.427    8805.4733    84497.817   -53906.009    1180.7794   -14530.243    -16030.31    81.711857 
   26600    1384.7324   -115.78839    1.2529349   -114.53545   -708.17596    4.3357665    4.3357665    4.3357665   -708.17596    7946.6249    40543.909   -50615.061    2074.4858   -27146.307     28523.38    81.507517 
   26700    2035.5984   -116.37609    1.8418522   -114.53423       -31974    4.3406545    4.3406545    4.3406545       -31974   -42034.156   -17873.645   -36014.201    27911.713    7762.5761    17020.034    81.783493 
   26800    1584.2836   -115.96504    1.4334931   -114.53154   -8772.7509     4.342109     4.342109     4.342109   -8772.7509    4399.9899    5055.1739   -35773.416   -2288.6388    3909.4459   -40068.489    81.865738 
   26900    1457.5401   -115.84691     1.318813    -114.5281    8803.0581    4.3327535    4.3327535    4.3327535    8803.0581    19447.229    62537.844   -55575.898    82.606401   -27303.766   -554.91843     81.33771 
   27000    1807.3125   -116.17109    1.6352944   -114.53579   -31957.747    4.3446984    4.3446984    4.3446984   -31957.747   -14347.582   -38194.103   -43331.557    803.82515    -12288.22     37836.04    82.012281 
   27100    1955.7994   -116.28475    1.7696484    -114.5151   -48190.169    4.3611204    4.3611204    4.3611204   -48190.169   -49955.858   -46265.222   -48349.428    25556.279   -937.36091   -22932.118    82.945769 
   27200    1619.7411   -115.98143    1.4655758   -114.51586   -1310.0241    4.3443221    4.3443221    4.3443221   -1310.0241   -3480.1753     43308.62   -43758.517   -24184.762    -18761.76     1327.462    81.990976 
   27300    1356.0526   -115.74896    1.2269849   -114.52197    29752.877     4.324622     4.324622     4.324622    29752.877    39142.186    62168.149   -12051.704    6039.5406   -7057.9649    30950.668    80.880618 
   27400     1904.439   -116.27965    1.7231764   -114.55647    3513.3836    4.3392277    4.3392277    4.3392277    3513.3836   -15777.965    35234.188   -8916.0725    8530.6484    1459.7703    1219.9941    81.702872 
   27500    2011.9675   -116.37167    1.8204705    -114.5512   -43183.861    4.3660946    4.3660946    4.3660946   -43183.861   -41207.801   -32966.505   -55377.277   -4367.5891   -12994.008   -7317.5032    83.229913 
   27600    1060.8715   -115.49442   0.95989879   -114.53453   -18502.358    4.3690703    4.3690703    4.3690703   -18502.358   -26103.349    8994.4414   -38398.168   -22585.467     163.0244     15370.99    83.400203 
   27700    1677.6902   -116.02098    1.5180094   -114.50297    20356.593    4.3478622    4.3478622    4.3478622    20356.593   -23089.017    82896.571    1262.2248    1552.4924    4820.3479     1102.425    82.191577 
   27800    2144.5693   -116.44966    1.9404514   -114.50921   -4493.1475    4.3415956    4.3415956    4.3415956   -4493.1475   -37547.052    4018.9884    20048.621    6613.6863   -8816.3422   -16434.709    81.836701 
   27900    1401.7397   -115.79451    1.2683235   -114.52618   -15318.938    4.3535783    4.3535783    4.3535783   -15318.938   -36784.817    20963.634   -30135.632   -20299.988       1311.9     5108.141    82.516172 
   28000    1188.2978   -115.58806    1.0751969   -114.51287   -6365.1338    4.3587658    4.3587658    4.3587658   -6365.1338   -34509.651    22953.905   -7539.6546     151.7893    21159.703    10071.345    82.811493 
   28100    1790.4947   -116.10881    1.6200772   -114.48873    9620.6405    4.3541473    4.3541473    4.3541473    9620.6405   -49456.747    21947.245    56371.424   -8149.8415    9868.9934   -142.12548    82.548529 
   28200    1727.4705   -116.05298    1.5630516   -114.48993    4703.0478    4.3559907    4.3559907    4.3559907    4703.0478   -16322.732   -37222.847    67654.722   -27710.284   -4500.8954    14418.512    82.653421 
   28300    1381.1503   -115.73765    1.2496939   -114.48796   -5191.0623    4.3673523    4.3673523    4.3673523   -5191.0623   -23839.859    13528.651    -5261.979    10043.671    16869.009     3837.932    83.301854 
   28400    1652.2218   -115.96102     1.494965   -114.46605   -23807.259    4.3583914    4.3583914    4.3583914   -23807.259   -73122.395   -53285.812    54986.432   -31595.832    21699.837   -8937.8916    82.790156 
   28500    1809.5918   -116.11075    1.6373567   -114.47339   -11723.003    4.3379412    4.3379412    4.3379412   -11723.003   -36849.295   -28712.608    30392.893   -33956.979   -7465.2481    1777.3314    81.630222 
   28600    1754.7819   -116.08844    1.5877635   -114.50067    38942.356    4.3323818    4.3323818    4.3323818    38942.356   -720.28211     11253.51    106293.84    16194.591   -9970.2889    45748.836    81.316779 
   28700    1460.1021   -115.86108    1.3211311   -114.53995   -17420.195     4.353814     4.353814     4.353814   -17420.195   -30637.918   -28838.984    7216.3176   -36836.462    23654.945   -5948.2632    82.529576 
   28800    1424.8371   -115.81226    1.2892225   -114.52304    376.84936    4.3481508    4.3481508    4.3481508    376.84936   -35481.526   -23142.747    59754.821   -18410.595    4183.8928   -13647.764    82.207945 
   28900    1621.5524   -115.97677    1.4672147   -114.50955    23367.651     4.338963     4.338963     4.338963    23367.651    52378.652    18715.703   -991.40337    14808.472   -3665.5329     22821.53    81.687919 
   29000    1567.0155   -115.93738    1.4178685   -114.51951   -24705.801    4.3545505    4.3545505    4.3545505   -24705.801   -35616.854   -75150.485    36649.935   -14445.685   -1325.2731    1246.2018    82.571465 
   29100     1516.948   -115.87249    1.3725664   -114.49992     7849.692    4.3512697    4.3512697    4.3512697     7849.692    52147.838    -50453.07    21854.308   -10483.916    12584.713   -29064.061    82.384975 
   29200    1724.5195   -116.06416    1.5603815   -114.50378   -38452.981    4.3560082    4.3560082    4.3560082   -38452.981   -21340.087   -55508.106   -38510.749     676.4338     10584.09    34309.768    82.654416 
   29300    1212.9411   -115.60525    1.0974946   -114.50776   -7876.6984    4.3504757    4.3504757    4.3504757   -7876.6984    44559.454   -64045.028   -4144.5218   -21572.433   -11630.882    16301.854    82.339881 
   29400    1872.6582   -116.20417    1.6944205   -114.50975   -5605.7241    4.3292153    4.3292153    4.3292153   -5605.7241   -10312.794    -9817.574    3313.1954   -27704.414    19281.284   -30046.423    81.138609 
   29500     1538.483   -115.93253    1.3920518   -114.54048    18630.423    4.3370025    4.3370025    4.3370025    18630.423    5436.7467   -5876.2621    56330.784     10710.79    4120.4304    6297.3041    81.577241 
   29600    1675.6083   -116.05527    1.5161256   -114.53915   -18345.415    4.3680394    4.3680394    4.3680394   -18345.415   -49196.202   -17511.457    11671.414   -17422.928   -7791.8012    14228.143    83.341181 
   29700    1545.1517   -115.90098    1.3980858   -114.50289   -20652.803    4.3651252    4.3651252    4.3651252   -20652.803   -14622.209   -77796.317    30460.117   -2657.4856    8349.9864   -27026.332    83.174482 
   29800     1625.587   -115.95237    1.4708653    -114.4815   -318.68866    4.3352873    4.3352873    4.3352873   -318.68866    12700.909   -4674.8737   -8982.1013    1818.7002    2010.5444   -6564.2049    81.480492 
   29900    1695.8864   -116.02627    1.5344737    -114.4918    18400.807    4.3308865    4.3308865    4.3308865    18400.807      13397.4    8123.3292    33681.691   -17136.362   -12725.339    18884.397    81.232612 
   30000    1590.8141   -115.94974     1.439402   -114.51034   -24762.986    4.3596987    4.3596987    4.3596987   -24762.986   -16724.212   -57271.824   -292.92243   -7216.8526    5531.3796   -28073.917    82.864677 
   30100    1543.0952   -115.89141    1.3962249   -114.49519   -12441.274    4.3546253    4.3546253    4.3546253   -12441.274    24729.181   -8999.0062   -53053.996    11532.679    3737.6158   -17883.842    82.575724 
   30200      1530.91    -115.8759    1.3851995    -114.4907    16933.325    4.3308466    4.3308466    4.3308466    16933.325    17999.474    41605.779   -8805.2777   -7544.9951    25795.419     18420.22    81.230366 
   30300    1566.6936   -115.93413    1.4175773   -114.51655   -12003.766     4.335955     4.335955     4.335955   -12003.766    6412.0101    -26685.49   -15737.817   -47083.877   -6435.7161   -19970.357    81.518149 
   30400    1890.6626   -116.22874    1.7107113   -114.51803   -18080.135    4.3590037    4.3590037    4.3590037   -18080.135    8877.8931   -4591.8496   -58526.449     3174.619    12055.856   -26801.125    82.825051 
   30500    1575.2307   -115.92006    1.4253019   -114.49476   -38078.041    4.3745202    4.3745202    4.3745202   -38078.041   -16383.122   -14588.093   -83262.909   -3468.3414    26133.696    3724.4828    83.712685 
   30600    1639.0952   -115.95923    1.4830878   -114.47614   -10514.509    4.3466665    4.3466665    4.3466665   -10514.509   -41414.249    28543.988   -18673.267   -39441.163    7368.9892   -2411.1035    82.123783 
   30700    1679.0836   -115.98558    1.5192701   -114.46631     40050.17    4.3220492    4.3220492    4.3220492     40050.17    70228.924    11048.729    38872.856    6975.3052    1142.1399   -36681.359    80.736352 
   30800    1598.1179   -115.95811    1.4460107    -114.5121   -8689.4534    4.3522709    4.3522709    4.3522709   -8689.4534   -20154.956    12060.465   -17973.869    3883.5023    24085.524   -502.70474    82.441858 
   30900    1793.1737   -116.10745    1.6225012   -114.48494   -30478.478    4.3654347    4.3654347    4.3654347   -30478.478   -36247.556   -20302.137   -34885.741    -18547.34     17756.87   -7881.3807    83.192178 
   31000    1631.6376   -115.95438    1.4763399   -114.47804    33789.049    4.3252257    4.3252257    4.3252257    33789.049    38457.158    13184.875    49725.115   -18499.592   -10255.289   -37327.903    80.914494 
   31100    1664.4824   -116.00843    1.5060586   -114.50237    25566.067    4.3242157    4.3242157    4.3242157    25566.067    47448.133    14828.371    14421.696    30612.431    26454.153    1196.2493    80.857825 
   31200    2130.5831   -116.43613    1.9277964   -114.50833    -15233.17    4.3521559    4.3521559    4.3521559    -15233.17   -13459.627    9992.0438   -42231.926   -7448.6994    32514.416    10217.116    82.435318 
   31300    1257.8581    -115.6439    1.1381365   -114.50577   -1565.3493    4.3603354    4.3603354    4.3603354   -1565.3493    61208.503   -64109.052   -1795.4983   -21417.929   -23670.598   -20291.693    82.900986 
   31400    1600.8297   -115.94432    1.4484643   -114.49586    16942.559    4.3409102    4.3409102    4.3409102    16942.559    60439.663   -21982.034     12370.05    11631.089    15086.007   -14547.564    81.797945 
   31500    2373.2676   -116.63714    2.1473824   -114.48976    13774.081     4.319853     4.319853     4.319853    13774.081     31160.46    2491.8252    7669.9577   -11774.426    6366.8703    11722.233    80.613336 
   31600    1007.4289   -115.44586   0.91154288   -114.53432   -12266.013    4.3384587    4.3384587    4.3384587   -12266.013    18304.563   -44251.276   -10851.327   -27178.825    10830.954   -10788.145    81.659438 
   31700     1692.174    -116.0497    1.5311146   -114.51858   -13806.394    4.3538414    4.3538414    4.3538414   -13806.394     7431.124   -51764.732    2914.4259   -26753.571   -8722.6574   -24189.503    82.531132 
   31800    2079.4532   -116.38123     1.881533    -114.4997   -3118.7083    4.3517534    4.3517534    4.3517534   -3118.7083    33235.926   -19114.223   -23477.828    23516.014    -6472.916    15922.894    82.412451 
   31900    1337.2901   -115.70399    1.2100082   -114.49398   -7883.1891    4.3364587    4.3364587    4.3364587   -7883.1891    27598.533   -54588.262    3340.1616   -24112.926    15266.358   -2531.4379     81.54656 
   32000    1449.6798   -115.81037    1.3117008   -114.49867    17006.389    4.3399011    4.3399011    4.3399011    17006.389    14096.525    26247.085    10675.556   -10961.487   -17765.428   -30824.284    81.740917 
   32100    2346.6134   -116.61015    2.1232651   -114.48689   -40669.166    4.3694043    4.3694043    4.3694043   -40669.166   -43362.097   -11112.945   -67532.456    18570.183   -5283.1458     1542.078    83.419332 
   32200    1446.1124   -115.77755    1.3084729   -114.46907   -25804.034       4.3668       4.3668       4.3668   -25804.034    24952.648   -80614.644   -21750.107   -34970.611    8479.7286    -1540.505    83.270258 
   32300    1421.4572   -115.73745    1.2861644   -114.45129    11552.378    4.3283842    4.3283842    4.3283842    11552.378    19354.719   -11647.474    26949.889   -13743.441   -20714.687   -17500.748    81.091889 
   32400    2076.7942   -116.35065     1.879127   -114.47153    13746.749    4.3304767    4.3304767    4.3304767    13746.749    25466.582    15588.595    185.06964    28739.066   -8568.4909   -15624.009    81.209555 
   32500    1363.0331   -115.72683     1.233301   -114.49353   -17474.676     4.363981     4.363981     4.363981   -17474.676    -16185.29   -24666.953   -11571.785   -29429.704   -3643.0985    7429.3721    83.109095 
   32600    2020.3372   -116.29639    1.8280435   -114.46835   -35949.062     4.365972     4.365972     4.365972   -35949.062   -10485.575   -71996.863   -25364.749   -4022.1018   -4416.8107    2411.7983    83.222897 
   32700    1339.4753   -115.68473    1.2119854   -114.47275    15958.819    4.3413605    4.3413605    4.3413605    15958.819   -12303.023    24782.755    35396.725    35141.222   -17573.921   -13135.615    81.823405 
   32800    1601.7114   -115.92363    1.4492621   -114.47437    13121.095    4.3133533    4.3133533    4.3133533    13121.095    -29686.48    23118.254    45931.511    -6764.855   -3486.8505    -8616.206    80.250008 
   32900    1677.2092   -116.03892    1.5175741   -114.52135    40155.651     4.330802     4.330802     4.330802    40155.651    57502.464    16105.229     46859.26   -29731.579   -1397.8629    16233.267    81.227854 
   33000    1527.8416   -115.89461    1.3824232   -114.51219   -27494.776    4.3742186    4.3742186    4.3742186   -27494.776   -76815.314    17149.973   -22818.986    30852.424   -19369.481   -7805.8912    83.695371 
   33100    1622.0795   -115.95331    1.4676916   -114.48562   -39302.141    4.3578515    4.3578515    4.3578515   -39302.141   -68242.207   -31244.319   -18419.897   -7136.9447   -4707.3715   -12258.599     82.75939 
   33200    1690.4907   -115.98621    1.5295915   -114.45662    35074.438    4.3061361    4.3061361    4.3061361    35074.438    55352.167    11708.137    38163.009   -38341.788   -4395.6427    33635.048    79.847854 
   33300    1595.9862   -115.94466    1.4440819   -114.50058    13000.972    4.3106792    4.3106792    4.3106792    13000.972   -7393.7507    31393.619    15003.047    32442.641     10025.19     13394.69    80.100848 
   33400    1251.5137   -115.65548    1.1323959   -114.52309   -13357.827    4.3494503    4.3494503    4.3494503   -13357.827   -12819.164   -15611.261   -11643.057    38399.145   -7643.5109   -5943.4272    82.281672 
   33500    1865.6247   -116.18651    1.6880564   -114.49845   -9127.7863    4.3579119    4.3579119    4.3579119   -9127.7863    8130.3494   -12944.009   -22569.699   -9743.6775   -16167.273     27691.04    82.762829 
   33600    1780.8573   -116.10339    1.6113571   -114.49203   -21698.918    4.3432891    4.3432891    4.3432891   -21698.918    -42976.42    -37008.85    14888.517     20686.08    11666.955    4791.7656    81.932503 
   33700    1109.2856   -115.50061    1.0037049   -114.49691   -4513.4388    4.3188705    4.3188705    4.3188705   -4513.4388   -58866.028    182.13161     45143.58    49193.859   -27194.629   -4860.3106    80.558349 
   33800    1757.4633   -116.09794    1.5901897   -114.50775    39790.728    4.3198121    4.3198121    4.3198121    39790.728   -13843.221    11947.658    121267.75   -8777.7837   -10735.026    19612.088    80.611051 
   33900    1686.9585   -116.05193    1.5263955   -114.52554   -21871.158    4.3580458    4.3580458    4.3580458   -21871.158   -549.04614   -72501.517    7437.0885    29275.578      5250.35    38791.154    82.770458 
   34000    1439.8565   -115.79005    1.3028124   -114.48724   -28996.598    4.3640194    4.3640194    4.3640194   -28996.598   -61040.831   -30317.786    4368.8237    24407.292   -20525.957    1576.1177    83.111286 
   34100    2317.8114    -116.5527    2.0972045    -114.4555   -15158.172    4.3379597    4.3379597    4.3379597   -15158.172   -23536.708   -7413.8252   -14523.983   -4588.3512   -18565.691    3163.0703    81.631265 
   34200    1720.4921   -116.03004    1.5567374    -114.4733   -17099.511    4.3308062    4.3308062    4.3308062   -17099.511   -1703.8743   -64534.956    14940.298      48716.2    15171.223    17273.779    81.228094 
   34300    1935.3414   -116.24306    1.7511376   -114.49192    3909.7451    4.3371192    4.3371192    4.3371192    3909.7451   -22342.264    6419.3029    27652.196    6860.1645   -19910.087     19966.87    81.583828 
   34400    1107.3936   -115.51163     1.001993   -114.50963    3432.8619     4.352879     4.352879     4.352879    3432.8619    4255.3411   -13032.041    19075.286     2933.798   -6480.5643   -7387.5901    82.476419 
   34500    1360.9091   -115.72449    1.2313791   -114.49311   -37529.042    4.3611758    4.3611758    4.3611758   -37529.042   -49246.486   -64007.362     666.7219    54738.658    21947.494    9680.4504    82.948926 
   34600    2374.7227   -116.61978     2.148699   -114.47108    13527.228    4.3315971    4.3315971    4.3315971    13527.228    37771.142    8041.0588   -5230.5161   -4449.7244    4450.8848    9850.0038    81.272604 
   34700     2060.899   -116.35325    1.8647447    -114.4885    27527.106    4.3073197    4.3073197    4.3073197    27527.106    15659.628    41690.917    25230.775    2744.1607   -20025.968   -7709.6781    79.913715 
   34800    714.44211   -115.19421   0.64644224   -114.54777    5559.1778     4.323813     4.323813     4.323813    5559.1778   -975.15515   -20153.561     37806.25    61162.209    21515.279   -7158.5569    80.835235 
   34900    1593.0121   -115.98398    1.4413908   -114.54258   -16572.396    4.3519336    4.3519336    4.3519336   -16572.396   -51031.511    35300.635   -33986.312   -7129.1968    11352.705    4392.4841    82.422689 
   35000    1973.2463   -116.28557    1.7854347   -114.50014    11428.259    4.3539018    4.3539018    4.3539018    11428.259    59548.109   -17997.088   -7266.2442   -7703.7852   -14758.572    6167.2094    82.534571 
   35100    1421.9312   -115.78777    1.2865933   -114.50117   -25516.787    4.3320664    4.3320664    4.3320664   -25516.787   -42707.644   -27943.883   -5898.8344     48053.89    22829.208   -16918.338    81.299023 
   35200    942.03333   -115.36615   0.85237155   -114.51377    18201.932    4.3092543    4.3092543    4.3092543    18201.932    50472.736    20741.199    -16608.14    6172.9209    13108.907    10885.387    80.021443 
   35300    2012.1268   -116.35698    1.8206146   -114.53637    1346.7419    4.3254371    4.3254371    4.3254371    1346.7419    33419.399    -8909.588   -20469.586   -7468.4251    9291.0331    22270.963    80.926361 
   35400     1552.461   -115.93496    1.4046993   -114.53026   -35179.454    4.3606794    4.3606794    4.3606794   -35179.454   -35608.241   -63345.693   -6584.4289     44764.09   -15339.918   -14117.179     82.92061 
   35500    1535.0803   -115.89158    1.3889729   -114.50261   -32996.882    4.3475593    4.3475593    4.3475593   -32996.882   -11638.282   -58257.419   -29094.943    18130.225     15069.88    9925.8975    82.174402 
   35600    1638.4737   -115.95846    1.4825255   -114.47594    23090.948    4.3224417    4.3224417    4.3224417    23090.948    18899.056     37240.04    13133.749   -2518.5515   -8713.0136    29872.688    80.758347 
   35700    1162.2382   -115.56024    1.0516176   -114.50862   -1403.8194    4.3281632    4.3281632    4.3281632   -1403.8194    2444.7054   -26552.654     19896.49    36295.422   -18465.756   -15206.857    81.079467 
   35800    1545.6793   -115.92244    1.3985631   -114.52388   -20680.374    4.3330462    4.3330462    4.3330462   -20680.374   -30388.767   -42701.379    11049.022    22617.825     7952.144    16123.601    81.354197 
   35900    1941.0317   -116.27635    1.7562863   -114.52006   -1722.2356    4.3358808    4.3358808    4.3358808   -1722.2356    19188.711    12234.271    -36589.69   -10592.953   -6288.2107    44016.605    81.513962 
   36000    1616.2594   -115.98385    1.4624255   -114.52142   -7796.7356    4.3369632    4.3369632    4.3369632   -7796.7356   -37354.733    15933.414   -1968.8878     23721.64   -18650.402   -14954.306    81.575024 
   36100    1517.0917   -115.89405    1.3726965   -114.52135   -18756.198    4.3278933    4.3278933    4.3278933   -18756.198   -37729.088   -19059.502    519.99575    34303.324   -9578.8123    19079.693    81.064303 
   36200    1803.6573   -116.15778     1.631987   -114.52579    16692.532    4.3357854    4.3357854    4.3357854    16692.532     52315.31    18729.846   -20967.559   -17739.149    8655.2588    18224.685    81.508581 
   36300    1829.4336    -116.1671      1.65531   -114.51179   -43728.473    4.3523538    4.3523538    4.3523538   -43728.473   -78711.425     -57589.3    5115.3059    47871.617   -17656.521   -2185.2936    82.446564 
   36400    1042.0761   -115.45045   0.94289239   -114.50756   -9736.0508    4.3336707    4.3336707    4.3336707   -9736.0508    16308.644   -29163.909   -16352.888     40959.14    -6731.089   -812.48198    81.389378 
   36500    2232.7415    -116.5151    2.0202314   -114.49487    17428.246    4.3237825    4.3237825    4.3237825    17428.246    37163.467    34476.744   -19355.472   -23577.152   -5308.2238    21628.742    80.833527 
   36600    1554.9534   -115.92068    1.4069545   -114.51373   -9101.9434    4.3397649    4.3397649    4.3397649   -9101.9434   -48747.166   -892.67413     22334.01    33275.622    25951.089   -2910.3595    81.733219 
   36700    765.63441   -115.21707    0.6927621   -114.52431    4881.6556    4.3444355    4.3444355    4.3444355    4881.6556    1873.4428    36082.046   -23310.522    39746.436   -11770.488   -986.73201    81.997394 
   36800    2505.1278   -116.77075    2.2666923   -114.50406   -18935.772    4.3474429    4.3474429    4.3474429   -18935.772   -7621.8619    7620.7743   -56806.227    -16070.27    2231.5496   -20695.372      82.1678 
   36900    1813.4651    -116.1516    1.6408614   -114.51074    23670.833    4.3250605    4.3250605    4.3250605    23670.833    42522.331    19486.032    9004.1344    20583.137    1979.0256    15091.349    80.905222 
   37000     1191.133   -115.60574    1.0777622   -114.52797   -13469.372    4.3148857    4.3148857    4.3148857   -13469.372   -49813.143    -13573.24    22978.268    54326.925    3944.3302   -10456.573    80.335573 
   37100    1754.8988   -116.12265    1.5878693   -114.53478   -22058.858    4.3351512    4.3351512    4.3351512   -22058.858   -1187.8326   -20823.931    -44164.81    1322.2151   -8780.8468   -28489.659    81.472819 
   37200    1732.0068   -116.09534    1.5671561   -114.52818   -19341.726    4.3513366    4.3513366    4.3513366   -19341.726   -30073.827    -27699.65   -251.70206   -14531.138     2704.115   -6924.8815    82.388777 
   37300    754.36499   -115.20365   0.68256529   -114.52109   -20856.058    4.3542033    4.3542033    4.3542033   -20856.058   -55229.637   -1337.8799   -6000.6559    41275.731    8857.2251    16706.915    82.551716 
   37400    1779.9773   -116.11214    1.6105609   -114.50157     15642.47    4.3333378    4.3333378    4.3333378     15642.47   -20290.794    63430.214    3787.9911    10688.424   -3788.8378    10417.057    81.370622 
   37500    2041.4832     -116.349    1.8471769   -114.50183    27056.234    4.3306568    4.3306568    4.3306568    27056.234    9634.3035    37057.167    34477.232   -12892.606    4678.3064   -11809.848    81.219684 
   37600    907.35603   -115.34916   0.82099481   -114.52816   -45409.487    4.3552407    4.3552407    4.3552407   -45409.487   -97106.902   -50488.305    11366.747    43719.118    4301.5661    11681.459    82.610734 
   37700     1912.035    -116.2201    1.7300495   -114.49005   -6303.9888     4.352636     4.352636     4.352636   -6303.9888    -15398.44    4912.6227   -8426.1487    2605.3467    3237.0031    24768.785    82.462604 
   37800    2096.8366   -116.37468    1.8972618   -114.47742    2074.2866    4.3435313    4.3435313    4.3435313    2074.2866   -12968.407    20836.406   -1645.1393    6657.7697    10502.873   -8892.7658    81.946209 
   37900    954.89558   -115.36995   0.86400959   -114.50594    3101.6753     4.325654     4.325654     4.325654    3101.6753   -60326.213    46890.932    22740.307    52403.032   -6798.4108   -6789.1641    80.938535 
   38000    1603.1791   -115.97715    1.4505901   -114.52656    7163.3637    4.3229342    4.3229342    4.3229342    7163.3637    -9589.008    7752.3691     23326.73    17187.011   -8132.0605    24999.768    80.785957 
   38100    1565.0466   -115.93986    1.4160871   -114.52377   -16809.084     4.358538     4.358538     4.358538   -16809.084   -9600.8879   -18176.387   -22649.976   -31035.262    11442.279   -35335.764    82.798505 
   38200    992.90804   -115.39902   0.89840406   -114.50062   -34097.463    4.3530413    4.3530413    4.3530413   -34097.463   -59778.214   -27732.767   -14781.409    37348.876   -8570.9794   -44979.873    82.485642 
   38300      1836.89   -116.13215    1.6620567   -114.47009    5886.5214    4.3156467    4.3156467    4.3156467    5886.5214   -26219.162    12844.118    31034.607    27252.009   -15592.989    13867.119    80.378085 
   38400    2024.1233   -116.32618    1.8314693   -114.49471    21821.069    4.3221532    4.3221532    4.3221532    21821.069    44849.337   -4213.6401    24827.509     -17996.4   -1678.0567   -6215.4926    80.742179 
   38500    1004.1135   -115.44012   0.90854301   -114.53158   -13518.756    4.3488482    4.3488482    4.3488482   -13518.756    61176.996   -59082.175   -42651.089    35136.326   -11574.641   -20942.808    82.247507 
   38600    1416.2618   -115.80107    1.2814634    -114.5196   -23376.046    4.3621195    4.3621195    4.3621195   -23376.046    4826.0156   -28060.766   -46893.388    12777.305    -37911.65    6146.6248    83.002789 
   38700     2439.698   -116.68977      2.20749   -114.48228   -15204.018    4.3511579    4.3511579    4.3511579   -15204.018   -3355.0092    7071.1845   -49328.228   -19470.443   -9090.5534    638.03046    82.378624 
   38800    1266.4399   -115.64259    1.1459015   -114.49669    29028.663    4.3115431    4.3115431    4.3115431    29028.663    65046.001    11831.031    10208.957    35362.703   -9658.7852   -26048.836    80.149015 
   38900    915.41778   -115.36903   0.82828924   -114.54074    25624.759    4.3153394    4.3153394    4.3153394    25624.759    45608.965    58881.698   -27616.385    31029.856   -11406.337    5002.5238    80.360918 
   39000     1910.097   -116.26568    1.7282959   -114.53738   -26628.814    4.3577217    4.3577217    4.3577217   -26628.814    20228.038   -9396.0308   -90718.449   -352.43016    -6742.018    28091.751    82.751994 
   39100    2376.2706   -116.66931    2.1500996   -114.51921   -1000.2847    4.3396217    4.3396217    4.3396217   -1000.2847    17042.711   -804.98832   -19238.577    1606.2431    7616.4493   -7615.0545    81.725131 
   39200    1116.5507   -115.52428    1.0102785     -114.514    51619.971    4.3107336    4.3107336    4.3107336    51619.971    25515.993    88354.868    40989.051     33879.33    1373.4766    6034.1775    80.103881 
   39300    1346.7453   -115.76244    1.2185634   -114.54388   -17180.034    4.3287966    4.3287966    4.3287966   -17180.034   -9116.4699     20565.49   -62989.122   -5602.5411   -28882.947    33782.585    81.115066 
   39400     1639.966   -116.02183    1.4838757   -114.53795    794.67434    4.3444372    4.3444372    4.3444372    794.67434    34019.635    20374.541   -52010.153   -10925.203    5345.5729   -210.96856    81.997495 
   39500    2494.7435   -116.78168    2.2572964   -114.52439   -4132.2025    4.3324385    4.3324385    4.3324385   -4132.2025   -26088.696    25011.468    -11319.38    24810.373    1943.9711   -10212.117    81.319971 
   39600    1524.4394   -115.91502    1.3793448   -114.53567    32443.889    4.3214783    4.3214783    4.3214783    32443.889   -14509.019    129444.19   -17603.506    890.19245   -20462.495     30787.85    80.704362 
   39700    1167.3764   -115.60823    1.0562667   -114.55196   -27796.251    4.3341137    4.3341137    4.3341137   -27796.251    3217.9614   -19470.342   -67136.372   -16631.509   -7380.4996    24506.781     81.41434 
   39800    1558.4006   -115.95037    1.4100736   -114.54029    -21765.04    4.3392128    4.3392128    4.3392128    -21765.04   -5490.2319   -15387.893   -44416.995    17609.447    18201.491   -24118.424    81.702031 
   39900    2200.9421    -116.5143    1.9914587   -114.52284     5259.806    4.3462857    4.3462857    4.3462857     5259.806   -31087.108    100215.67   -53349.146    6291.4627     1780.726    4253.0054    82.102201 
   40000    1804.4825   -116.16201    1.6327337   -114.52928     1949.149    4.3319786    4.3319786    4.3319786     1949.149    30904.139    8290.4368   -33347.129   -6471.4899   -9145.3643    6990.6679    81.294076 
   40100    833.84725   -115.28431   0.75448251   -114.52983    5621.7479    4.3118704    4.3118704    4.3118704    5621.7479    40391.579    25409.999   -48936.335   -28023.693    27251.972   -30449.017    80.167268 
   40200    1632.3776   -116.02338    1.4770096   -114.54637   -26761.478    4.3305738    4.3305738    4.3305738   -26761.478   -15653.414   -3617.7484   -61013.272     -3117.41    24521.587   -24665.949    81.215017 
   40300    2368.0553   -116.67153    2.1426662   -114.52886   -18753.886    4.3455858    4.3455858    4.3455858   -18753.886    -39290.83    15272.329   -32243.158    1023.0347   -12455.003    7760.5058    82.062543 
   40400    1626.7451   -115.99165    1.4719132   -114.51974   -34341.461    4.3534086    4.3534086    4.3534086   -34341.461   -31244.651   -8181.1477   -63598.585   -11269.714    19529.411   -42028.949    82.506522 
   40500    1317.2218    -115.6953      1.19185   -114.50345   -4261.4415    4.3388331    4.3388331    4.3388331   -4261.4415   -13955.014    6170.1519   -4999.4626   -11072.229    14713.395    -24157.28    81.680583 
   40600    1885.6127    -116.1945     1.706142   -114.48836    9529.9137    4.3256555    4.3256555    4.3256555    9529.9137   -6181.1261    29375.917    5394.9503    33356.178   -15198.046   -4571.4749    80.938617 
   40700    2086.5264    -116.3897    1.8879329   -114.50177    7848.7097    4.3374321    4.3374321    4.3374321    7848.7097    38384.186    9466.7405   -24304.797    4817.6463    8751.5007   -17157.724    81.601486 
   40800    1280.6273   -115.66662    1.1587385   -114.50788   -14456.133    4.3573336    4.3573336    4.3573336   -14456.133   -17324.087   -17703.402   -8340.9094   -13194.671    19353.435   -26669.715    82.729889 
   40900    1383.3653   -115.73978     1.251698   -114.48809   -45308.924    4.3597953    4.3597953    4.3597953   -45308.924   -24268.766   -60040.322   -51617.683    23370.859   -9137.6614    523.62066    82.870181 
   41000     1958.034   -116.24773    1.7716703   -114.47606   -8276.3686    4.3404844    4.3404844    4.3404844   -8276.3686    43957.185   -32352.346   -36433.944   -408.51874   -3243.8943    34809.028    81.773878 
   41100    1740.3316   -116.05041    1.5746886   -114.47572    12689.229    4.3148488    4.3148488    4.3148488    12689.229     4793.092   -2278.3396    35552.933   -19190.126    20131.405   -1347.0532    80.333509 
   41200    1520.5697   -115.89132    1.3758434   -114.51548    984.34323    4.3266585    4.3266585    4.3266585    984.34323    33469.816   -2843.8069   -27672.979    22082.634   -9319.4467   -3693.0136    80.994935 
   41300    1358.0006   -115.74383    1.2287475   -114.51509   -58483.099    4.3697035    4.3697035    4.3697035   -58483.099    3965.1541    -86978.42   -92436.031   -2764.4563   -9399.7864    57768.947    83.436469 
   41400    2031.2446   -116.29053    1.8379128   -114.45261   -20423.254    4.3594248    4.3594248    4.3594248   -20423.254   -44877.872   -6563.0228   -9828.8664   -13274.631    14914.817   -12052.305    82.849059 
   41500    1340.7326    -115.6457     1.213123   -114.43258   -18356.176    4.3313305    4.3313305    4.3313305   -18356.176   -41804.565   -9573.6087   -3690.3547    47953.932   -13269.411    17846.173    81.257597 
   41600    1388.8543   -115.72758    1.2566646   -114.47091    -17890.81    4.3248021    4.3248021    4.3248021    -17890.81    20521.181   -31855.918   -42337.692   -2856.9393    2412.5496    34103.466    80.890724 
   41700      2099.57   -116.39233    1.8997351    -114.4926   -2314.9759    4.3265008    4.3265008    4.3265008   -2314.9759    23645.108   -22056.559   -8533.4762   -8282.4931    6606.3843   -26883.967    80.986077 
   41800    1950.4241   -116.28598    1.7647847   -114.52119   -21885.251    4.3391796    4.3391796    4.3391796   -21885.251   -27672.295    587.60687   -38571.063    32153.322    1224.8251    6118.5855    81.700153 
   41900    1152.4623   -115.56372    1.0427721   -114.52095    -50559.86     4.357228     4.357228     4.357228    -50559.86   -30743.595   -30891.047   -90044.939    8849.8618   -13478.665    52575.133     82.72387 
   42000    1672.4319   -116.01697    1.5132515   -114.50372   -21019.072    4.3367674    4.3367674    4.3367674   -21019.072     13992.13    -11178.01   -65871.337   -9188.1759   -10399.456   -15001.154    81.563976 
   42100    2061.2847   -116.34544    1.8650937   -114.48034    33418.458    4.3185457    4.3185457    4.3185457    33418.458    51361.041     17398.72    31495.614    12139.792    17868.049   -7445.3894    80.540176 
   42200    1515.0855   -115.87846    1.3708812   -114.50758   -29447.547    4.3552153    4.3552153    4.3552153   -29447.547    8285.2778   -46056.492   -50571.428    6302.0959    620.92421    36440.093    82.609288 
   42300    1448.8628   -115.80185    1.3109615   -114.49088   -53436.866    4.3561914    4.3561914    4.3561914   -53436.866   -20657.194   -71163.232   -68490.172   -18639.554   -27143.118   -15047.224    82.664848 
   42400     1858.326   -116.15805    1.6814524    -114.4766    18660.794    4.3057035    4.3057035    4.3057035    18660.794    17086.879    33552.875    5342.6276   -2584.3926    9670.0664   -21320.289    79.823791 
   42500    1478.0195   -115.85142    1.3373431   -114.51407    30419.783    4.3076711    4.3076711    4.3076711    30419.783    23799.473    65488.768    1971.1082    13948.412     39960.07    9552.2741    79.933276 
   42600    1917.0811   -116.26336    1.7346153   -114.52874   -5556.1245    4.3389936    4.3389936    4.3389936   -5556.1245    22573.408   -11528.614   -27713.167    5143.0856   -8852.4529    20553.059    81.689647 
   42700    1771.8526   -116.12109    1.6032095   -114.51788    7059.5886    4.3428374    4.3428374    4.3428374    7059.5886    37153.994    17336.482    -33311.71    11071.239     13871.55   -26731.098     81.90694 
   42800    1419.9136   -115.79636    1.2847677    -114.5116   -21266.906    4.3437217    4.3437217    4.3437217   -21266.906   -42222.597    13790.943   -35369.063   -14624.566    33304.813    1601.1282    81.956988 
   42900     2005.352   -116.30514    1.8144846   -114.49066   -24454.641    4.3293055    4.3293055    4.3293055   -24454.641   -14379.886    -20098.24   -38885.798     11295.36   -17784.444    28799.976    81.143679 
   43000    1836.1087   -116.14839    1.6613498   -114.48704    17897.404    4.3182799    4.3182799    4.3182799    17897.404    18522.164    20444.086    14725.961    25209.083    2622.4944   -14413.391    80.525305 
   43100    1700.3876   -116.04125    1.5385465   -114.50271   -33305.614    4.3515263    4.3515263    4.3515263   -33305.614    -52594.37   -5765.2019   -41557.269   -25687.229    29487.089    6197.8938    82.399551 
   43200    1429.1703   -115.77201    1.2931433   -114.47887   -42910.238    4.3580788    4.3580788    4.3580788   -42910.238   -31493.945    -61348.28   -35888.488   -984.34932   -10256.737    25364.851    82.772339 
   43300      1721.38   -116.02199    1.5575408   -114.46445    8010.7898    4.3371027    4.3371027    4.3371027    8010.7898     37492.07   -3639.5138   -9820.1865    16167.537   -21473.605     34594.11    81.582898 
   43400    2201.5457   -116.45774    1.9920048   -114.46574   -23850.155    4.3366201    4.3366201    4.3366201   -23850.155   -37720.345   -18542.059    -15288.06   -34650.456    5465.5244   -6352.3201    81.555663 
   43500    1189.3619   -115.56912    1.0761597   -114.49296   -10043.532    4.3247815    4.3247815    4.3247815   -10043.532    10802.154   -50211.145    9278.3943   -28833.936    1189.4771    8970.6923    80.889565 
   43600    1703.1394   -116.04632    1.5410364   -114.50528   -5177.1808    4.3232383    4.3232383    4.3232383   -5177.1808   -5348.2898   -7072.4749   -3110.7777    24187.178   -34355.829    18001.535    80.803005 
   43700    1856.1873   -116.18265    1.6795173   -114.50313   -24947.867    4.3393296    4.3393296    4.3393296   -24947.867   -47161.076    6966.3692   -34648.895   -19798.375   -46404.316    -12236.74     81.70863 
   43800    1376.1433   -115.74614    1.2451634   -114.50098   -18801.717    4.3361132    4.3361132    4.3361132   -18801.717     331.8048   -69172.394    12435.439   -26147.176    17859.546   -6223.2438    81.527072 
   43900     1729.313   -116.05325    1.5647188   -114.48853    9902.2467    4.3218503    4.3218503    4.3218503    9902.2467    18879.907    33836.395   -23009.562    8149.8276   -30928.845    919.17137    80.725205 
   44000    1596.0845   -115.94037    1.4441708    -114.4962    12466.301    4.3301933    4.3301933    4.3301933    12466.301   -3409.9084    43076.832   -2268.0217    6878.2619   -43387.158   -1338.1707    81.193609 
   44100     1475.448   -115.83232    1.3350163    -114.4973    -4626.745    4.3441703    4.3441703    4.3441703    -4626.745    54572.668   -41928.428   -26524.476   -17556.787    17871.482   -21883.893    81.982379 
   44200    1457.8599   -115.81469    1.3191022   -114.49559   -7051.1128    4.3371904    4.3371904    4.3371904   -7051.1128   -12199.664    5466.7328   -14420.407   -16778.313   -26206.509    3622.6273    81.587844 
   44300     1887.788   -116.19119    1.7081103   -114.48308    15252.072    4.3205099    4.3205099    4.3205099    15252.072    19986.672    39329.886    -13560.34    19397.906   -27037.528     -7133.13    80.650119 
   44400    1109.2241   -115.50475    1.0036493    -114.5011    12821.907    4.3256067    4.3256067    4.3256067    12821.907    41929.087   -4046.0823    582.71537   -16143.395    16699.821   -37324.917    80.935881 
   44500    1346.5596   -115.72616    1.2183955   -114.50776   -14311.924    4.3372727    4.3372727    4.3372727   -14311.924   -34784.148     8904.287    -17055.91   -24860.024    6338.0933    1200.0972     81.59249 
   44600     2224.658   -116.50579    2.0129173   -114.49288    28612.642    4.3347173    4.3347173    4.3347173    28612.642    7221.3992    49807.914    28808.614    20309.426   -6405.4093   -11064.681    81.448359 
   44700    902.71214   -115.32818   0.81679292   -114.51139    4983.9809    4.3320589    4.3320589    4.3320589    4983.9809    50843.483   -5572.6221   -30318.918   -1926.8338    6664.2551   -26049.284    81.298599 
   44800    1411.3605   -115.76691    1.2770286   -114.48988    13073.435    4.3392954    4.3392954    4.3392954    13073.435   -4083.7739    8231.4657    35072.612   -24484.203    16029.215    7770.0614    81.706695 
   44900    2318.7918   -116.56878    2.0980915   -114.47069   -5742.3739    4.3458767    4.3458767    4.3458767   -5742.3739   -10449.972    14879.185   -21656.335     19575.05   -22821.727   -4961.8539    82.079025 
   45000    1288.1614   -115.65269    1.1655555   -114.48713    5956.0082     4.330958     4.330958     4.330958    5956.0082    37022.213   -15535.744   -3618.4449    19424.799    13528.983   -25453.333    81.236633 
   45100    1603.7275   -115.94192    1.4510864   -114.49083    7156.1605    4.3182135    4.3182135    4.3182135    7156.1605   -5204.4727    34416.606   -7743.6514   -14777.263    7150.6571    1362.7899    80.521588 
   45200    1925.8891   -116.23952    1.7425849   -114.49694    4762.3127    4.3265299    4.3265299    4.3265299    4762.3127   -4957.5432    35216.721    -15972.24    16964.686    -45311.32    420.43943    80.987712 
   45300    1600.9655   -115.95127    1.4485872   -114.50268   -27823.685    4.3468895    4.3468895    4.3468895   -27823.685    232.04157   -60464.596   -23238.499    25726.705    11445.116   -4557.9833    82.136429 
   45400     1605.285   -115.93249    1.4524956   -114.47999   -27932.784    4.3549051    4.3549051    4.3549051   -27932.784   -26452.674   -5951.0114   -51394.665   -17214.678   -4724.4534   -7163.9447    82.591638 
   45500    1522.6897   -115.85348    1.3777617   -114.47571   -5314.9498    4.3347976    4.3347976    4.3347976   -5314.9498   -6452.6525    31120.565   -40612.762    14132.421   -58475.874    10686.266    81.452884 
   45600    2018.8315   -116.30484    1.8266811   -114.47815    3367.2221    4.3075148    4.3075148    4.3075148    3367.2221    27156.031   -21703.345    4648.9803    14191.064   -10113.742   -7101.2878    79.924576 
   45700    1715.6783   -116.06355    1.5523818   -114.51117    25513.049     4.306372     4.306372     4.306372    25513.049    38202.267    28465.934    9870.9463   -22948.552      4072.49   -9923.5323    79.860976 
   45800     1149.369   -115.58181    1.0399733   -114.54183    9353.4969    4.3383886    4.3383886    4.3383886    9353.4969    26675.563    25308.289   -23923.361   -5046.0568   -54458.258    3937.7217    81.655483 
   45900    2037.8292   -116.33293    1.8438707   -114.48906   -27187.549     4.354795     4.354795     4.354795   -27187.549   -21285.581   -33712.245   -26564.823    8959.7957   -4918.1283   -11305.015    82.585378 
   46000    1287.9261   -115.65314    1.1653426    -114.4878    9062.7476    4.3216914    4.3216914    4.3216914    9062.7476    11579.346    8207.5843    7401.3126   -25301.911    13341.104   -17334.492    80.716304 
   46100    1478.0987   -115.82422    1.3374148    -114.4868    17105.965    4.3045425    4.3045425    4.3045425    17105.965   -17553.588    37907.562    30963.922   -25478.658   -54876.204   -12548.899    79.759237 
   46200    1828.1978   -116.15521    1.6541918   -114.50102    1445.6336     4.326964     4.326964     4.326964    1445.6336   -16969.024    40106.105   -18800.181    16423.729    15350.813    7603.3547    81.012093 
   46300    1271.7259   -115.65336    1.1506843   -114.50267   -22582.807    4.3454208    4.3454208    4.3454208   -22582.807   -11793.627   -33701.876   -22252.918   -21976.829    30719.253     -1969.76      82.0532 
   46400    1881.9342   -116.19159    1.7028136   -114.48877   -23934.562    4.3372629    4.3372629    4.3372629   -23934.562   -16231.767   -42792.049   -12779.869   -40409.867   -35193.942   -16915.567    81.591938 
   46500       2083.6    -116.3693    1.8852851   -114.48402    26203.397    4.3144347    4.3144347    4.3144347    26203.397    6808.2162    19310.994     52490.98    15727.123    8326.7348    18595.731    80.310386 
   46600    911.63549   -115.34684   0.82486695   -114.52198    21049.179    4.3195473    4.3195473    4.3195473    21049.179    1953.7664    11326.128    49867.643   -36994.728    18303.093    11792.276    80.596226 
   46700    2050.3372   -116.36454    1.8551882   -114.50936   -33957.708    4.3532028    4.3532028    4.3532028   -33957.708   -31599.811   -70091.689   -181.62244   -34487.366   -9592.7857   -2191.3898    82.494822 
   46800    2142.0397     -116.419    1.9381625   -114.48083   -20455.641    4.3516121    4.3516121    4.3516121   -20455.641   -27115.297   -562.79382   -33688.833     11795.44   -8709.9503    912.71024    82.404426 
   46900    766.92666   -115.18288   0.69393136   -114.48895   -19356.627    4.3214268    4.3214268    4.3214268   -19356.627   -17904.087   -72582.113     32416.32   -44946.902    30683.561    41160.296    80.701477 
   47000    1882.0245   -116.18832    1.7028953   -114.48542    15122.173    4.3105452    4.3105452    4.3105452    15122.173   -17143.024   -7244.8027    69754.347   -20959.709    -9440.696    8778.9424    80.093379 
   47100    2085.6103   -116.38756     1.887104   -114.50046   -8078.8695    4.3236117    4.3236117    4.3236117   -8078.8695   -23435.689    -1258.088    457.16826    10372.218   -33625.051   -2813.2429    80.823944 
   47200    1071.2112   -115.48453   0.96925444   -114.51528   -3960.7438    4.3398548    4.3398548    4.3398548   -3960.7438   -21235.626   -50575.713    59929.108   -36694.578    16433.417    11000.072    81.738301 
   47300    1712.7379   -116.04228    1.5497213   -114.49256   -9479.9192     4.340757     4.340757     4.340757   -9479.9192   -11336.265   -30475.826    13372.334    1140.9488    1465.3151    12186.049    81.789289 
   47400    1407.5482   -115.76849    1.2735792   -114.49491    10476.531    4.3170172    4.3170172    4.3170172    10476.531   -7353.4455    15801.294    22981.743   -6616.4625    -42921.97    7426.7651    80.454682 
   47500    1766.1735   -116.10566    1.5980709   -114.50759   -14828.782    4.3259527    4.3259527    4.3259527   -14828.782   -12876.361   -48407.066     16797.08   -43937.347   -1117.4101   -13099.973    80.955301 
   47600    2401.0248   -116.66634    2.1724977   -114.49385   -18227.065    4.3479374    4.3479374    4.3479374   -18227.065   -4081.7653   -51636.133    1036.7026    13193.771    4698.6976    8078.0107    82.195844 
   47700    1399.7765   -115.76741    1.2665472   -114.50086    9873.1809    4.3321015    4.3321015    4.3321015    9873.1809     18328.64    5295.1969    5995.7061   -36692.015   -45976.906     8770.353    81.300996 
   47800    1328.9458   -115.69779    1.2024581   -114.49533    18627.256    4.3212427    4.3212427    4.3212427    18627.256     -21466.3   -14976.446    92324.513   -20735.504   -15480.308   -17769.691    80.691165 
   47900    2213.7846   -116.48656    2.0030788   -114.48348    9989.2649    4.3304199    4.3304199    4.3304199    9989.2649   -462.24452   -25148.675    55578.714    30119.858    17496.313    208.05736    81.206356 
   48000    1099.4631   -115.49932    0.9948173    -114.5045    7122.7468    4.3318534    4.3318534    4.3318534    7122.7468   -11864.527   -37261.848    70494.616   -43443.916   -29970.137    15975.388    81.287026 
   48100    1629.0312   -115.97558    1.4739816    -114.5016   -49605.886    4.3460946    4.3460946    4.3460946   -49605.886   -70293.047   -40473.147   -38051.465   -13750.988   -19431.446   -13844.134    82.091375 
   48200    1575.9035   -115.92843    1.4259106   -114.50252   -16167.786    4.3250269    4.3250269    4.3250269   -16167.786    21175.829   -53494.585   -16184.602    26780.733    10005.546   -16553.455    80.903339 
   48300    1435.5881   -115.79693    1.2989503   -114.49798    8538.4569     4.296933     4.296933     4.296933    8538.4569    27969.796   -42185.341    39830.916   -40967.225   -16011.929     19795.51    79.336994 
   48400     1874.993   -116.21859    1.6965331   -114.52205    -20554.05    4.3220489    4.3220489    4.3220489    -20554.05   -64925.536   -18787.146    22050.534   -2710.3687   -26437.282    587.34642    80.736337 
   48500    1654.2732   -116.00975    1.4968212   -114.51293   -28084.323    4.3345894    4.3345894    4.3345894   -28084.323   -23206.446   -71514.005    10467.481    48679.706    7072.8894   -12275.977    81.441151 
   48600    1410.8009   -115.78626    1.2765223   -114.50974   -8611.1748    4.3308692    4.3308692    4.3308692   -8611.1748     11254.26   -65031.182    27943.397   -34634.613     3486.789    18807.969    81.231637 
   48700    1318.9347   -115.70554    1.1933999   -114.51214   -13795.692    4.3257125    4.3257125    4.3257125   -13795.692   -11015.423   -43790.089    13418.437   -1934.2749   -17736.552    18417.849    80.941819 
   48800    1651.9109   -116.00616    1.4946837   -114.51148   -1630.6317    4.3030954    4.3030954    4.3030954   -1630.6317   -22507.062   -28445.613     46060.78    74481.942    858.65574    -8045.469    79.678825 
   48900      2053.27   -116.38083    1.8578418   -114.52299    17866.859    4.3181398    4.3181398    4.3181398    17866.859    89126.931   -36470.072    943.71798   -11547.859   -9008.5413    20493.899    80.517465 
   49000    1529.3792   -115.89254    1.3838145   -114.50873   -15343.119    4.3403352    4.3403352    4.3403352   -15343.119    50622.083   -81595.779   -15055.661     17155.57   -4173.2479    24413.321    81.765444 
   49100    1134.4797   -115.52988    1.0265011   -114.50337    5766.3465     4.325365     4.325365     4.325365    5766.3465    37375.415    -54081.78    34005.405    60215.338   -21359.997   -6859.6222    80.922314 
   49200    1789.7618   -116.12136    1.6194141   -114.50195   -4681.2261    4.3157371    4.3157371    4.3157371   -4681.2261    22904.713   -17062.397   -19885.994   -31816.787   -24781.377    3582.1639    80.383137 
   49300    1659.4714   -116.01851    1.5015246   -114.51699   -676.50254    4.3116229    4.3116229    4.3116229   -676.50254    62526.513   -41979.632   -22576.388     9786.612    22971.014     16019.41    80.153468 
   49400    1494.9929   -115.88706     1.352701   -114.53436   -30594.886    4.3249386    4.3249386    4.3249386   -30594.886   -27079.737   -56274.087   -8430.8345     55562.78    12344.793    7442.5329    80.898381 
   49500    1453.9725   -115.83855    1.3155849   -114.52297   -37563.528    4.3334251    4.3334251    4.3334251   -37563.528   -37946.313   -76823.798    2079.5268   -52587.819   -17641.752   -10625.919    81.375541 
   49600    1750.5033   -116.09362    1.5838922   -114.50973   -13330.049    4.3270745    4.3270745    4.3270745   -13330.049    16897.413   -36303.789   -20583.771   -22564.576    4038.5228    9234.1941    81.018301 
   49700    1597.8972   -115.95874     1.445811   -114.51293    -3488.106    4.3185935    4.3185935    4.3185935    -3488.106     12937.07   -28715.985     5314.598    29462.289    20611.311    12862.501    80.542846 
   49800    1288.9751   -115.69317    1.1662917   -114.52688   -1116.8085    4.3131465    4.3131465    4.3131465   -1116.8085    16341.612   -60413.511    40721.474   -50129.293    4768.6611   -4905.3687    80.238468 
   49900    1842.4872   -116.19821    1.6671211   -114.53109   -3940.3495    4.3322661    4.3322661    4.3322661   -3940.3495    16483.602   -39025.638    10720.987   -29682.804   -215.37176   -1893.2545    81.310266 
   50000     2177.251   -116.47631    1.9700224   -114.50629   -17528.536    4.3452858    4.3452858    4.3452858   -17528.536   -87.500202   -24446.729   -28051.378    7160.4075     26676.72   -623.41346    82.045554 
   50100     1125.959   -115.53572    1.0187914   -114.51693   -6534.7286    4.3247668    4.3247668    4.3247668   -6534.7286    8549.9588    -52775.82    24621.675   -61849.431    18240.623    3181.9113    80.888744 
   50200     1405.791    -115.7866    1.2719892   -114.51461   -5175.4603    4.3100732    4.3100732    4.3100732   -5175.4603   -346.22864   -54300.754    39120.601   -23734.717   -9717.4502   -1200.6133    80.067071 
   50300    1862.5741   -116.20796    1.6852962   -114.52266     15613.39    4.3203966    4.3203966    4.3203966     15613.39    24949.466   -5367.7887    27258.493     43603.95   -12792.422    2388.7546    80.643773 
   50400    1662.5947   -116.02935    1.5043506     -114.525   -1262.3588    4.3319755    4.3319755    4.3319755   -1262.3588    41146.682   -53002.631    8068.8727   -45229.532    4974.6901    2023.6232    81.293904 
   50500     1559.782   -115.93108    1.4113236   -114.51976   -12764.429    4.3319495    4.3319495    4.3319495   -12764.429   -17296.987   -28612.251    7615.9508   -22445.108    6716.2914   -3195.7183    81.292437 
   50600    1498.5575   -115.86981    1.3559263   -114.51388   -20781.671    4.3254424    4.3254424    4.3254424   -20781.671   -38384.551   -12885.547   -11074.915    54703.779    -21969.35   -493.04783    80.926659 
   50700    1459.1756   -115.83383    1.3202928   -114.51354    9961.6689    4.3211031    4.3211031    4.3211031    9961.6689    8790.1197    27042.066   -5947.1793   -1439.2913   -15239.405   -3068.5046    80.683343 
   50800    1565.7305   -115.93347    1.4167058   -114.51676    15934.217    4.3288341    4.3288341    4.3288341    15934.217    348.23763        45698     1756.413   -27087.844    10159.575    -1835.691    81.117175 
   50900    1646.7696   -115.99881    1.4900317   -114.50878   -16375.572    4.3414359    4.3414359    4.3414359   -16375.572    4350.9666   -16107.751   -37369.932    43962.548   -12242.742    19378.008    81.827672 
   51000    1550.9196   -115.90131    1.4033047   -114.49801   -12374.853    4.3366457    4.3366457    4.3366457   -12374.853   -12604.533    25123.281   -49643.307    3675.7331   -18142.641   -18199.262    81.557108 
   51100    1463.6239   -115.81786    1.3243177   -114.49354   -6648.1957    4.3204881    4.3204881    4.3204881   -6648.1957   -1026.7232    11057.756    -29975.62   -20018.311    2286.4521    944.79587    80.648901 
   51200    1316.1902   -115.70108    1.1909165   -114.51017   -4572.2342    4.3165423    4.3165423    4.3165423   -4572.2342    18726.241   -48662.013     16219.07    51652.133    11987.851    23338.754    80.428138 
   51300    2479.6008   -116.74818    2.2435949   -114.50458    7198.6257    4.3276636    4.3276636    4.3276636    7198.6257    6932.7732    12376.679    2286.4249    10474.453    -17338.37   -3353.4608    81.051395 
   51400    1314.8699   -115.71044    1.1897219   -114.52072    -4006.859    4.3387563    4.3387563    4.3387563    -4006.859     15518.64   -22895.656   -4643.5616   -26520.554   -2272.6593    525.29302    81.676248 
   51500    1054.5792   -115.47148   0.95420542   -114.51727   -19041.965    4.3299315    4.3299315    4.3299315   -19041.965    21726.282   -38111.557    -40740.62    33671.297     15378.06    1026.1447    81.178884 
   51600    1765.2647   -116.09989    1.5972486   -114.50264    21854.118    4.3142993    4.3142993    4.3142993    21854.118    11514.169    27806.771    26241.414    6362.1674   -15400.033    1570.6974    80.302821 
   51700    2000.8405   -116.32493    1.8104025   -114.51453    18692.494    4.3233072    4.3233072    4.3233072    18692.494    35780.276    20765.742   -468.53571   -24109.138   -11963.343   -700.00312    80.806871 
   51800    1978.6154    -116.3105    1.7902928   -114.52021   -4787.9455    4.3317387    4.3317387    4.3317387   -4787.9455    37541.819   -32871.298   -19034.357    27374.124    14443.464    7593.0398    81.280575 
   51900    611.75851   -115.09496   0.55353196   -114.54143    16801.675    4.3178241    4.3178241    4.3178241    16801.675   -15343.629    95751.088   -30002.435    13115.422   -13750.082    8017.3649    80.499806 
   52000    1672.6588   -116.05626    1.5134568    -114.5428   -9085.4582    4.3220187    4.3220187    4.3220187   -9085.4582   -13034.135    31257.928   -45480.168    2716.0271   -20034.173   -4262.2851    80.734644 
   52100    2236.0299   -116.54449    2.0232068   -114.52129    19701.435    4.3279402    4.3279402    4.3279402    19701.435    44206.083    10813.479    4084.7437    10419.863    14040.317   -21.784392    81.066937 
   52200     1300.542   -115.69861    1.1767577   -114.52185   -2697.6184    4.3370181    4.3370181    4.3370181   -2697.6184   -44239.471    39092.261    -2945.645    15513.037   -9231.1536   -1768.9848    81.578123 
   52300    1663.0829   -116.00687    1.5047923   -114.50208   -13125.325    4.3367751    4.3367751    4.3367751   -13125.325   -37843.104    33538.875   -35071.744    11591.249   -12558.457    2211.5725    81.564411 
   52400    1814.8378   -116.13959    1.6421034   -114.49749    32197.856    4.3195946    4.3195946    4.3195946    32197.856    37880.942    28722.381    29990.246   -2290.1492    20808.309   -8785.4659    80.598875 
   52500    952.84544    -115.3802   0.86215458   -114.51805    -5290.571    4.3295655    4.3295655    4.3295655    -5290.571   -35953.475    18369.018    1712.7439    22604.939    -11477.61   -7514.7278    81.158298 
   52600    1405.1181    -115.7876    1.2713804   -114.51622   -21195.608     4.335913     4.335913     4.335913   -21195.608   -39628.598     25774.43   -49732.656   -6600.3216   -40323.698    9416.6037     81.51578 
   52700    2219.3446   -116.50893    2.0081096   -114.50082     31800.59    4.3179342    4.3179342    4.3179342     31800.59     43425.95    41738.159     10237.66    2391.4174    5611.0735   -3209.6221    80.505962 
   52800    1792.3046   -116.14211    1.6217148    -114.5204   -249.93886    4.3177654    4.3177654    4.3177654   -249.93886   -23289.083    13393.104    9146.1618      47953.6    325.57752     4758.615    80.496523 
   52900    870.42777     -115.324   0.78758134   -114.53642   -9910.2804    4.3264033    4.3264033    4.3264033   -9910.2804   -20017.773    39050.531   -48763.599   -12179.004   -53130.776   -5752.1392    80.980603 
   53000    1718.9613    -116.0827    1.5553523   -114.52735   -24701.769    4.3268872    4.3268872    4.3268872   -24701.769   -27424.646    12205.985   -58886.645   -12085.719   -24262.219    16736.211    81.007779 
   53100    2361.6445   -116.65464    2.1368656   -114.51778    -5296.464    4.3214611    4.3214611    4.3214611    -5296.464    -10980.07    1690.7399   -6600.0613    14311.428    8591.7134    12228.028    80.703397 
   53200    1604.4641   -115.97809    1.4517528   -114.52634   -7095.1814     4.325406     4.325406     4.325406   -7095.1814   -41931.604    60959.594   -40313.535   -6318.3621   -55244.475   -9154.1541    80.924616 
   53300    945.82478   -115.38048   0.85580214   -114.52467   -35934.925    4.3389767    4.3389767    4.3389767   -35934.925   -37996.466    9278.3186   -79086.629   -18123.636     -35746.6    19246.808    81.688694 
   53400    2250.8711    -116.5312    2.0366355   -114.49456   -23729.884    4.3389564    4.3389564    4.3389564   -23729.884   -3742.7948   -28613.648   -38833.211   -18146.681    10054.487    7982.9386    81.687549 
   53500    2055.5654   -116.34495    1.8599188   -114.48503   -24501.134     4.335924     4.335924     4.335924   -24501.134   -53923.042    36713.492   -56293.854   -860.61126   -55609.403   -946.37914    81.516396 
   53600    1429.4293   -115.79073    1.2933777   -114.49735   -19565.103    4.3279072    4.3279072    4.3279072   -19565.103   -14414.293    11912.015   -56193.032   -10125.216   -30084.402    16717.888    81.065082 
   53700    1753.3613   -116.08338    1.5864782    -114.4969    2909.1232    4.3165133    4.3165133    4.3165133    2909.1232    15089.311   -10291.003    3929.0619   -25834.377    16584.855    23959.023    80.426515 
   53800    1270.9428   -115.66534    1.1499758   -114.51537   -20275.302    4.3327101    4.3327101    4.3327101   -20275.302   -28198.741    10276.329   -42903.492   -1841.8711   -59654.812    4567.1176    81.335269 
   53900    1810.0123   -116.13952    1.6377372   -114.50178   -29837.511    4.3488599    4.3488599    4.3488599   -29837.511   -27863.485    8556.2045   -70205.253   -2132.3509   -20841.145     6361.603     82.24817 
   54000    2464.4736   -116.71585    2.2299075   -114.48594   -20577.822    4.3310755    4.3310755    4.3310755   -20577.822   -15882.243    -23550.88   -22300.345   -854.49951    11547.303    26278.237    81.243246 
   54100    748.17195   -115.17446   0.67696171    -114.4975    29144.168    4.3050441    4.3050441    4.3050441    29144.168    16405.904     92822.28   -21795.679   -9573.1786   -88863.129    15216.768    79.787127 
   54200    1957.5108   -116.29196    1.7711969   -114.52076     13326.17    4.3306086    4.3306086    4.3306086     13326.17   -5888.3726    22172.873     23694.01    8326.6039    2767.0014   -2035.4563    81.216976 
   54300    1949.5171   -116.24832     1.763964   -114.48436   -8438.2845    4.3525717    4.3525717    4.3525717   -8438.2845   -38111.203    2797.2703    9999.0791   -141.69902   -11565.974    5919.4647    82.458951 
   54400    1106.4922   -115.47797    1.0011774   -114.47679    26225.338    4.3279913    4.3279913    4.3279913    26225.338    1788.5074    95923.638   -19036.131   -5085.4672   -67506.256    25983.081    81.069806 
   54500    2045.1231   -116.31442    1.8504704   -114.46395    33575.424    4.3164551    4.3164551    4.3164551    33575.424    24315.711     24588.62     51821.94   -1039.0562    32253.613    11621.154     80.42326 
   54600    919.14148   -115.33057   0.83165852   -114.49891   -6556.3172    4.3347938    4.3347938    4.3347938   -6556.3172    -12848.58    2834.9742   -9655.3462    5203.7964   -46058.921   -2902.3195    81.452673 
   54700    1116.4397    -115.5029    1.0101781   -114.49272   -17156.456    4.3474826    4.3474826    4.3474826   -17156.456   -33437.135    30887.592   -48919.826   -4204.5247   -50708.952   -2517.5837    82.170053 
   54800     2277.688   -116.52357       2.0609   -114.46267     31482.16    4.3294968    4.3294968    4.3294968     31482.16    57780.602     6064.987     30600.89   -10366.639    35099.852    21298.548    81.154438 
   54900     988.0424    -115.3859   0.89400153   -114.49189   -7397.2843     4.331942     4.331942     4.331942   -7397.2843    8816.0795    9023.2309   -40031.163   -4643.2644   -71360.948   -358.67893    81.292015 
   55000    1509.1356   -115.85347    1.3654976   -114.48797   -33961.377    4.3427592    4.3427592    4.3427592   -33961.377   -12677.533   -27332.118   -61874.479    4353.5961    -44466.29   -14120.482    81.902519 
   55100    2427.5705   -116.67287    2.1965168   -114.47636    897.32097    4.3347648    4.3347648    4.3347648    897.32097    24256.087    -12874.82   -8689.3043   -491.33909    15600.228    6929.0578    81.451038 
   55200    1604.8491   -115.95133    1.4521012   -114.49923   -17618.588    4.3196685    4.3196685    4.3196685   -17618.588   -57628.283    47186.538   -42414.019   -14495.712   -86140.393    2814.1766    80.603011 
   55300    1255.1565   -115.64232     1.135692   -114.50663    12124.427    4.3191998    4.3191998    4.3191998    12124.427    56115.521    20372.395   -40114.636    6574.8689    -32420.52   -16951.511    80.576778 
   55400    1930.1154   -116.25537     1.746409   -114.50896   -19688.202    4.3386753    4.3386753    4.3386753   -19688.202   -3646.5969   -30690.236   -24727.771    15583.975    19951.477   -11513.514    81.671675 
   55500    1452.0413   -115.81383    1.3138375   -114.49999    9450.8284    4.3301059    4.3301059    4.3301059    9450.8284    1553.5213    64536.359   -37737.395   -9736.1818   -62429.433    28526.985    81.188692 
   55600    1989.8668   -116.28806    1.8004733   -114.48758    8536.1905    4.3251607    4.3251607    4.3251607    8536.1905     58547.38   -2699.1295   -30239.679   -8975.3195   -10048.438    -37061.13    80.910844 
   55700    1567.3005   -115.91441    1.4181264   -114.49628   -39444.787    4.3345889    4.3345889    4.3345889   -39444.787   -18911.447   -49649.142   -49773.771    23631.647     12255.05    -21224.62    81.441123 
   55800    1389.0707   -115.75327    1.2568604   -114.49641   -661.35115    4.3166111    4.3166111    4.3166111   -661.35115   -26940.333     47163.41    -22207.13    17789.908   -53661.956    27037.604    80.431982 
   55900    1726.9176   -116.06843    1.5625513   -114.50588    2358.6402    4.3206092    4.3206092    4.3206092    2358.6402   -8883.4081    36221.954   -20262.625   -16813.636   -8558.8785   -39729.022     80.65568 
   56000    1838.8842   -116.16989    1.6638611   -114.50603    -40047.17    4.3339125    4.3339125    4.3339125    -40047.17   -4858.8345   -62031.394   -53251.282    3698.0802    7227.0571   -30383.428    81.403001 
   56100    1710.6909   -116.04134    1.5478691   -114.49347   -4295.2615    4.3235281    4.3235281    4.3235281   -4295.2615   -48775.564    60611.128   -24721.349    14864.948   -47733.041    32170.796    80.819259 
   56200    1446.1351   -115.81011    1.3084935   -114.50162    -13004.18    4.3358355    4.3358355    4.3358355    -13004.18   -9527.6485    7163.4193   -36648.312    5203.0498   -6604.7419   -22008.609     81.51141 
   56300    2020.7997   -116.32516     1.828462    -114.4967   -20224.266    4.3293636    4.3293636    4.3293636   -20224.266    233.42992   -33779.877    -27126.35   -13131.988    8634.3499   -39375.075    81.146947 
   56400     1341.315   -115.71459      1.21365   -114.50094    36574.071     4.294344     4.294344     4.294344    36574.071    81639.583    51004.209    -22921.58    5460.0615   -33451.141     30933.96    79.193676 
   56500    1072.7855   -115.51682   0.97067885   -114.54614    -3988.587     4.316074     4.316074     4.316074    -3988.587   -4228.8799    47431.841   -55168.722    18040.902    -30119.15    21892.542    80.401963 
   56600     2513.948   -116.77723    2.2746729   -114.50256   -8714.2959    4.3371668    4.3371668    4.3371668   -8714.2959    28625.126   -32128.329   -22639.685   -15550.242    14722.364   -15701.681    81.586511 
   56700    1153.1076   -115.55176     1.043356   -114.50841     3938.903    4.3364492    4.3364492    4.3364492     3938.903     8820.859    46047.711   -43051.861   -1616.5492   -40018.557    21505.787    81.546023 
   56800    1153.1543   -115.53699    1.0433983    -114.4936   -43815.597    4.3433986    4.3433986    4.3433986   -43815.597   -69624.266   -8498.7999   -53323.724     9937.243   -10950.398    26554.807    81.938699 
   56900    2369.4658   -116.62592    2.1439424   -114.48197    25176.963    4.3070113    4.3070113    4.3070113    25176.963    49439.209    6381.2149    19710.467    3179.0037    17004.044   -26931.437    79.896549 
   57000    1466.9541    -115.8318    1.3273309   -114.50447     36827.72    4.2956331    4.2956331    4.2956331     36827.72    77556.393    15648.639    17278.127   -4988.6927   -32517.314   -19971.522    79.265013 
   57100     1615.237   -115.98994    1.4615004   -114.52843   -30543.625    4.3232639    4.3232639    4.3232639   -30543.625   -12840.943   -18156.819   -60633.114   -682.56692     -34048.4    53474.345    80.804443 
   57200    1987.6164   -116.31329    1.7984371   -114.51485    12914.467    4.3265603    4.3265603    4.3265603    12914.467    49924.341   -12366.863    1185.9233    6601.7123    6000.1906   -7456.4254     80.98942 
   57300    1642.5543   -115.99717    1.4862177   -114.51095   -8750.4948    4.3399024    4.3399024    4.3399024   -8750.4948    38013.832   -22577.715   -41687.601   -11232.896   -10419.217   -40496.419    81.740987 
   57400    777.29467   -115.20899   0.70331256   -114.50568   -33742.308    4.3343949    4.3343949    4.3343949   -33742.308    37214.019   -45710.845   -92730.097    7683.7223   -46213.383    53757.688    81.430186 
   57500    1868.3597   -116.17554    1.6905311   -114.48501    37379.168     4.302033     4.302033     4.302033    37379.168     34044.92    12438.881    65653.704       526.22    10005.886    18623.913    79.619823 
   57600    2274.3853   -116.55693    2.0579116   -114.49902    26989.563    4.3059373    4.3059373    4.3059373    26989.563    20200.003    18341.778    42426.908   -4770.4746    31872.083   -19720.849      79.8368 
   57700    1267.7706   -115.68019    1.1471055   -114.53308    4313.1185    4.3234748    4.3234748    4.3234748    4313.1185    19361.826   -31144.265    24721.795    6694.6676   -47111.964    40347.628     80.81627 
   57800    1167.1566   -115.59309    1.0560678   -114.53702   -35805.444    4.3326297    4.3326297    4.3326297   -35805.444   -21848.462   -12447.483   -73120.386   -1674.3629   -10181.537    38570.436    81.330737 
   57900    1822.2573    -116.1708    1.6488167   -114.52198    3119.4701    4.3156198    4.3156198    4.3156198    3119.4701   -18865.665    38192.477   -9968.4015    9391.6439    63278.718   -21496.142    80.376584 
   58000    1499.4299   -115.88045    1.3567157   -114.52374    17085.059    4.3064534    4.3064534    4.3064534    17085.059     23365.44    28593.714   -703.97777    4949.2746   -8557.8413   -15451.903    79.865505 
   58100    1007.2246   -115.45087   0.91135796   -114.53951    -4792.259     4.316696     4.316696     4.316696    -4792.259    21951.561    38006.014   -74334.352    5248.3353   -48626.906    28795.939    80.436726 
   58200     2037.606   -116.36303    1.8436687   -114.51936    13003.833     4.331227     4.331227     4.331227    13003.833    -19279.97     65311.34   -7019.8715    11785.963    7549.3208    15991.865    81.251773 
   58300    2047.2701    -116.3576    1.8524131   -114.50519   -16667.296    4.3393013    4.3393013    4.3393013   -16667.296   -13602.834    13970.208   -50369.261   -207.53969    4900.3211   -45191.238    81.707028 
   58400    597.50847     -115.072   0.54063822   -114.53137   -34010.624     4.314637     4.314637     4.314637   -34010.624    7921.6424   -5380.0523   -104573.46    5590.3195   -49496.556    26829.334    80.321682 
   58500    1413.3241   -115.80481    1.2788053   -114.52601    6925.7221    4.2904106    4.2904106    4.2904106    6925.7221    9782.1634    46386.778   -35391.775   -12220.277   -16174.575    43106.972    78.976262 
   58600    2353.8767   -116.66323    2.1298371   -114.53339    3956.8281     4.310851     4.310851     4.310851    3956.8281   -23357.483    56745.879   -21517.912    11885.323     47919.18   -9806.6462    80.110424 
   58700    1633.3746   -116.00374    1.4779117   -114.52583    -29757.82     4.335818     4.335818     4.335818    -29757.82    1517.8496   -20566.119   -70225.191    4883.5112   -11045.546    27854.867    81.510418 
   58800    1374.8241   -115.74941    1.2439698   -114.50544   -20957.693    4.3301064    4.3301064    4.3301064   -20957.693   -9485.1429    15833.515   -69221.452    1937.9462   -25894.995    48531.835    81.188721 
   58900    1177.9231   -115.56835    1.0658095   -114.50254    -3050.415    4.3190808    4.3190808    4.3190808    -3050.415   -42329.856    93473.634   -60295.023    4536.5061    78560.888    -8261.098    80.570114 
   59000     2164.951   -116.45563    1.9588932   -114.49674     22.91956    4.3134286    4.3134286    4.3134286     22.91956    24533.114    5400.0703   -29864.425   -15901.292    15979.854     3328.987    80.254212 
   59100    1806.1515   -116.15047    1.6342439   -114.51622    15080.946    4.3127401    4.3127401    4.3127401    15080.946    44663.869    8774.9059   -8195.9353    7479.3538   -5573.6637    35220.312    80.215791 
   59200    1062.2629   -115.49771   0.96115781   -114.53655   -9757.7362    4.3192616    4.3192616    4.3192616   -9757.7362    -25463.75    51993.159   -55802.618   -1270.6451    52055.312    20423.268    80.580237 
   59300    1102.8538   -115.53593   0.99788532   -114.53805   -12357.359    4.3227967    4.3227967    4.3227967   -12357.359    7740.0795    2978.4384   -47790.594    -1381.836    2.0087958   -45504.444    80.778248 
   59400    1799.2541     -116.158    1.6280029      -114.53    3457.5392    4.3146869    4.3146869    4.3146869    3457.5392    30498.732    15213.668   -35339.782    9728.6326   -19327.539   -44905.656     80.32447 
   59500    2256.7911   -116.56577     2.041992   -114.52378    13596.196     4.313359     4.313359     4.313359    13596.196   -16346.996    64535.898    -7400.314   -9720.6141    41057.003    16507.035    80.250327 
   59600    1115.4667   -115.54827    1.0092978   -114.53897   -14237.729    4.3270604    4.3270604    4.3270604   -14237.729    27333.818    572.17479    -70619.18    3405.6902    12370.165   -55680.502    81.017509 
   59700    973.77163   -115.40597   0.88108903   -114.52488   -3680.8484    4.3298533    4.3298533    4.3298533   -3680.8484     43707.14   -27390.273   -27359.412   -9307.9066   -27500.946   -46366.756    81.174486 
   59800    2423.7527   -116.67845    2.1930623   -114.48539    287.69073    4.3342103    4.3342103    4.3342103    287.69073   -18526.654    23994.734   -4605.0081    754.30137    1703.7315    33163.499    81.419785 
   59900    1460.9439    -115.8258    1.3218928   -114.50391   -20624.605    4.3272967    4.3272967    4.3272967   -20624.605    18570.888   -55522.858   -24921.844    5908.6799    2456.7516   -66850.222    81.030781 
   60000    1108.6664   -115.52257    1.0031446   -114.51942    6526.1531    4.2978403    4.2978403    4.2978403    6526.1531    42511.515      2718.27   -25651.326   -6645.6789   -12213.886   -61121.003    79.387264 
   60100    1551.3062   -115.93645    1.4036545   -114.53279    16479.276    4.2973475    4.2973475    4.2973475    16479.276    64.977901    52670.953   -3298.1031    4330.7038   -25192.792    39611.129    79.359956 
   60200    1720.3336    -116.0993     1.556594   -114.54271   -15810.048    4.3218309    4.3218309    4.3218309   -15810.048    21102.604   -25729.072   -42803.678    324.73619    1265.7525   -12393.554    80.724119 
   60300    1819.5025   -116.17235    1.6463241   -114.52602    2835.1803    4.3332062    4.3332062    4.3332062    2835.1803    34144.692   -4209.8521     -21429.3   -6043.4466     2563.987   -44245.129     81.36321 
   60400    1448.6326   -115.81673    1.3107532   -114.50598   -24013.556    4.3416819    4.3416819    4.3416819   -24013.556   -59737.036    46394.741   -58698.374    1457.7198   -45154.163    16771.294     81.84158 
   60500    1448.4045   -115.80365    1.3105469    -114.4931   -3610.3399    4.3245588    4.3245588    4.3245588   -3610.3399   -10589.282    20047.502    -20289.24   -9478.6663    29227.713    9325.4609     80.87707 
   60600    1659.4806    -115.9834    1.5015329   -114.48187    28427.466    4.2967131    4.2967131    4.2967131    28427.466    57326.348    26452.842    1503.2064    15786.702       1771.9   -11741.527    79.324817 
   60700    1192.3593   -115.59982    1.0788717   -114.52095    2471.1176     4.313753     4.313753     4.313753    2471.1176    -29875.94    48485.196   -11195.903    5541.4736    -95313.34   -16328.344    80.272321 
   60800    2230.8985   -116.51625    2.0185639   -114.49768   -15106.064      4.33199      4.33199      4.33199   -15106.064   -26131.499   -8620.4107   -10566.284   -9467.9083    17399.902    8717.4068    81.294718 
   60900    1503.8098   -115.86225    1.3606787   -114.50157    4252.7236    4.3267101    4.3267101    4.3267101    4252.7236   -24335.692   -14578.434    51672.296   -6022.2535   -4311.4111   -1678.0512    80.997833 
   61000    817.63098   -115.25596   0.73980969   -114.51615   -12399.069    4.3197276    4.3197276    4.3197276   -12399.069   -5705.5812   -3664.6436   -27826.982    11169.454   -82460.966   -8865.2434    80.606316 
   61100    1841.3237   -116.17985    1.6660684   -114.51378      25042.9    4.3078572    4.3078572    4.3078572      25042.9    59235.285   -23476.386    39369.801   -17774.171    8982.3732   -354.33592    79.943635 
   61200    1997.1332   -116.32477    1.8070481   -114.51772     26240.45    4.3160685    4.3160685    4.3160685     26240.45    19244.276    -9382.275    68859.349    -28634.56   -13558.349    2152.4565    80.401652 
   61300    997.83078   -115.43496   0.90285826   -114.53211     18367.44    4.3269973    4.3269973    4.3269973     18367.44     13614.48    13595.729    27892.111    16149.432   -54990.291   -5416.9488    81.013963 
   61400    1637.5595   -115.98324    1.4816982   -114.50154    1929.9503    4.3323637    4.3323637    4.3323637    1929.9503     25962.81   -47745.914    27572.955      8765.97    12642.552   -20163.726    81.315758 
   61500    2104.5353   -116.38321    1.9042278   -114.47898   -817.34555    4.3260586    4.3260586    4.3260586   -817.34555    40464.661   -29305.356   -13611.341     -13669.4   -20143.977   -1097.9274    80.961248 
   61600    1355.3174   -115.72095    1.2263197   -114.49464    19487.742    4.3038602    4.3038602    4.3038602    19487.742   -24513.807    35445.631    47531.402    9829.5169    -54969.02    10947.633    79.721319 
   61700    1553.8263   -115.91834    1.4059347   -114.51241    2099.5396    4.3112694    4.3112694    4.3112694    2099.5396    52118.384   -44630.384   -1189.3815    31165.621   -1038.4221   -33865.075    80.133755 
   61800    1797.0454   -116.13456    1.6260044   -114.50856   -12332.379    4.3303824    4.3303824    4.3303824   -12332.379    10133.893   -38829.481   -8301.5497   -1621.7332    12581.126   -23892.865    81.204246 
   61900    1384.1438   -115.75688    1.2524024   -114.50448    9002.3477     4.322347     4.322347     4.322347    9002.3477   -11876.378    40908.119   -2024.6972   -10089.681   -58941.901    11457.854     80.75304 
   62000     1874.674   -116.18604    1.6962444    -114.4898   -3245.0495     4.326867     4.326867     4.326867   -3245.0495    45813.267   -25799.145    -29749.27    21042.702    2893.5426   -26877.315    81.006646 
   62100      1573.84    -115.9094    1.4240435   -114.48535    -14315.16    4.3340715    4.3340715    4.3340715    -14315.16    1190.3482   -27228.741   -16907.088    6693.8635    1608.7683   -41630.615    81.411962 
   62200     1942.584   -116.23707    1.7576908   -114.47938    20914.357    4.3126404    4.3126404    4.3126404    20914.357    11134.453    58122.953   -6514.3349   -21693.777   -55074.671    24754.981    80.210225 
   62300    1342.5037   -115.71606    1.2147256   -114.50133   -2620.1037    4.3093572    4.3093572    4.3093572   -2620.1037    65825.981   -26887.866   -46798.425    671.16665    1352.0073   -65753.196    80.027174 
   62400    1242.0545   -115.64093    1.1238371    -114.5171   -19031.719    4.3139193    4.3139193    4.3139193   -19031.719    20541.205   -26520.419   -51115.942   -1806.1026    19521.976   -47930.865    80.281608 
   62500    2156.9628   -116.45784    1.9516653   -114.50617    10112.571    4.3158435    4.3158435    4.3158435    10112.571    2380.1656    41097.137   -13139.589    18366.347   -15260.112    28255.189     80.38908 
   62600    1237.2199   -115.63272    1.1194626   -114.51326   -21586.465    4.3348429    4.3348429    4.3348429   -21586.465    46278.611   -40699.121   -70338.886   -9116.1511    -15491.93   -89328.829    81.455436 
   62700    1709.6031   -116.04963    1.5468848   -114.50274   -24862.488    4.3172932    4.3172932    4.3172932   -24862.488    24005.366    -42232.14   -56360.689    419.14047    21643.165   -32017.301     80.47012 
   62800     1727.372   -116.04938    1.5629625   -114.48642    37574.029    4.2977842    4.2977842    4.2977842    37574.029     39555.67    43143.202    30023.214    6200.8948    13737.631    42231.186    79.384155 
   62900     883.9878   -115.31863   0.79985073   -114.51878    -33427.12    4.3227014    4.3227014    4.3227014    -33427.12    46414.929   -77723.558   -68972.732    4111.4019    705.63568   -76228.732    80.772909 
   63000    1856.2763   -116.17749    1.6795978   -114.49789    2240.9856    4.3283071    4.3283071    4.3283071    2240.9856    5493.9345   -8198.0277    9427.0498   -2819.5227   -21937.656   -16368.868    81.087554 
   63100    2108.3841   -116.39814    1.9077103   -114.49043   -680.61562    4.3253581    4.3253581    4.3253581   -680.61562    -7896.504   -20691.644    26546.301   -20867.179    -9995.696   -329.84444    80.921923 
   63200    1143.3731   -115.54732     1.034548   -114.51277    297.03802    4.3192297    4.3192297    4.3192297    297.03802    80874.605   -58279.718   -21703.773    11995.017    16626.408    -63558.94     80.57845 
   63300    1753.4955   -116.08191    1.5865995   -114.49532    20830.544    4.3049724    4.3049724    4.3049724    20830.544    39996.819    3674.2592    18820.552   -1405.9723   -36396.156    2577.1226     79.78314 
   63400    1398.9379    -115.7778    1.2657884   -114.51201    15359.205    4.3202085    4.3202085    4.3202085    15359.205    46961.867   -7478.4303    6594.1794    -22995.82   -23346.862   -8822.8971    80.633244 
   63500    1081.6515   -115.49081     0.978701   -114.51211   -32347.898    4.3398775    4.3398775    4.3398775   -32347.898    34841.958   -87687.771   -44197.882    -4041.331     5514.527   -67809.529     81.73958 
   63600    2151.0476   -116.43338    1.9463131   -114.48707    22233.928    4.3195203    4.3195203    4.3195203    22233.928      28607.2    16645.909    21448.676    22596.805   -5074.9293    11739.398    80.594712 
   63700    1745.7458   -116.07447    1.5795875   -114.49488    17985.409    4.3058447    4.3058447    4.3058447    17985.409    43342.806   -4387.4359    15000.856   -15914.659   -16606.027   -18926.253    79.831644 
   63800    681.62882   -115.13514   0.61675208   -114.51838   -3249.5832    4.3186752    4.3186752    4.3186752   -3249.5832    38033.803   -22827.984   -24954.569   -24296.971   -9129.1064   -68192.755    80.547416 
   63900    2319.8391   -116.58405    2.0990392   -114.48501    -1166.112    4.3349957    4.3349957    4.3349957    -1166.112   -11713.894    6754.3597    1461.1979    22929.401    24875.196    22023.088    81.464054 
   64000    1358.5181    -115.7137    1.2292157   -114.48448   -18695.973    4.3387164    4.3387164    4.3387164   -18695.973   -7617.0147     5767.731   -54238.637   -10144.862   -4023.7048   -41251.974    81.673993 
   64100    1034.8239   -115.43631   0.93633038   -114.49998   -4741.4341    4.3119012    4.3119012    4.3119012   -4741.4341    40996.111   -53237.021   -1983.3915   -43017.834    -16170.79    -49111.47    80.168987 
   64200    2295.4664   -116.56552    2.0769862   -114.48853    36662.967    4.2924113    4.2924113    4.2924113    36662.967    11250.413    37004.754    61733.734   -13896.406     4307.509     21520.78    79.086796 
   64300    1584.8144   -115.95872    1.4339734   -114.52474    5085.3776    4.3119521    4.3119521    4.3119521    5085.3776     28354.76   -10789.609    -2309.019    20068.453    29904.544   -31219.659    80.171826 
   64400    728.13922   -115.19037   0.65883567   -114.53153   -15675.387    4.3334012    4.3334012    4.3334012   -15675.387    24268.839   -54390.475   -16904.525   -36717.812    989.81271   -55565.969    81.374194 
   64500    2107.2627   -116.41034    1.9066956   -114.50365   -3485.3894    4.3277041    4.3277041    4.3277041   -3485.3894   -26829.873   -18825.238    35198.943   -27833.874     -6006.58    20919.632     81.05367 
   64600    2182.8484   -116.47504    1.9750871   -114.49996   -4530.3843    4.3118292    4.3118292    4.3118292   -4530.3843    22526.632   -5708.4238   -30409.361    14460.387    15977.787   -27462.914    80.164973 
   64700    765.04944   -115.21563   0.69223281    -114.5234   -2590.7737    4.3029419    4.3029419    4.3029419   -2590.7737    29195.939   -4610.3743   -32357.885   -29813.289    18505.309   -69564.978    79.670299 
   64800    1612.0794   -115.98453    1.4586433   -114.52588    9980.9077    4.3123159    4.3123159    4.3123159    9980.9077   -7035.0037    7448.1578    29529.569   -52773.367    1692.0119    12213.123    80.192123 
   64900    2369.9434   -116.64385    2.1443746   -114.49947   -6916.0272    4.3296902    4.3296902    4.3296902   -6916.0272    24273.689   -13534.319   -31487.452    18139.541    -8944.563    -14365.42     81.16531 
   65000    916.78858   -115.33524   0.82952957   -114.50571   -25417.798    4.3313797    4.3313797    4.3313797   -25417.798   -4521.4835   -34953.556   -36778.353   -28063.286    11240.927    -57837.32    81.260364 
   65100    1569.8277   -115.91971    1.4204131    -114.4993   -16715.019    4.3123726    4.3123726    4.3123726   -16715.019   -30674.174   -32678.313    13207.429   -61209.538    21655.982     5886.129    80.195286 
   65200    2109.8762   -116.40015    1.9090603   -114.49109    27409.517    4.2959424    4.2959424    4.2959424    27409.517    49747.767    19391.716    13089.069    21904.835    7148.7928    8214.6823    79.282135 
   65300    1223.0035    -115.6302    1.1065993    -114.5236   -12147.268    4.3094026    4.3094026    4.3094026   -12147.268     17529.18   -64510.852    10539.867   -3448.3166   -13782.591   -60886.979    80.029703 
   65400    1632.4074   -115.99461    1.4770365   -114.51757   -14989.593    4.3240763    4.3240763    4.3240763   -14989.593   -7954.2019   -44459.735    7445.1592   -41444.215    14735.991   -22513.155    80.850002 
   65500    2004.3696   -116.32048    1.8135958   -114.50688   -6913.8873    4.3247842    4.3247842    4.3247842   -6913.8873   -15554.964   -22324.839     17138.14     15934.02    16155.831    30592.314    80.889721 
   65600     818.2729   -115.26123   0.74039051   -114.52084   -23749.532    4.3157492    4.3157492    4.3157492   -23749.532    36398.554   -93938.182   -13708.967     18513.46   -9617.2483   -43353.545     80.38381 
   65700    2082.0469   -116.39023    1.8838797   -114.50635    8465.1257    4.3018343    4.3018343    4.3018343    8465.1257    26724.729   -22403.503    21074.152   -13730.231    1827.3794   -39738.607    79.608795 
   65800     2109.948   -116.41601    1.9091253   -114.50688   -9294.3074     4.316494     4.316494     4.316494   -9294.3074   -29881.574    -15935.51    17934.162    6242.0576   -25008.512    22700.607    80.425438 
   65900    821.98814   -115.25556   0.74375214   -114.51181   -48938.772    4.3281909    4.3281909    4.3281909   -48938.772    10613.288    -114726.7    -42702.91    32090.183    11168.416     -35862.6    81.081023 
   66000    1684.0837   -116.02121    1.5237944   -114.49742   -6460.5429    4.3140772    4.3140772    4.3140772   -6460.5429    18453.175   -34542.179   -3292.6238     5109.753   -9161.0471    -15456.13    80.290423 
   66100    1824.0529   -116.14842    1.6504414   -114.49797   -1205.0026    4.3136033    4.3136033    4.3136033   -1205.0026   -46600.494    10892.549    32092.937   -28602.888   -30091.742    7853.3046    80.263964 
   66200    1550.0545   -115.91027    1.4025219   -114.50775   -19125.766    4.3129173    4.3129173    4.3129173   -19125.766    12473.643   -53753.526   -16097.414   -6328.3445    15673.047    -27135.25    80.225677 
   66300    1534.9194   -115.89437    1.3888273   -114.50554     15985.92     4.310953     4.310953     4.310953     15985.92    48084.799   -14740.539    14613.501    14031.824   -6138.6525   -18385.946    80.116114 
   66400    1647.8134   -115.99694    1.4909762   -114.50597   -16052.937    4.3284386    4.3284386    4.3284386   -16052.937   -56955.161    -8958.603    17754.952   -30854.517   -39836.981    15111.082    81.094944 
   66500    1624.5921   -115.96844    1.4699651   -114.49848   -6260.8513    4.3248183    4.3248183    4.3248183   -6260.8513     13668.36   -52830.343    20379.429   -14495.471    7933.9168   -42645.066    80.891632 
   66600    1316.2939   -115.68671    1.1910104    -114.4957    14306.502    4.3038904    4.3038904    4.3038904    14306.502    62858.231   -37865.982    17927.258    15007.462    -6025.255   -42840.328    79.722997 
   66700     1776.483   -116.11152    1.6073991   -114.50412     6727.974    4.3066336    4.3066336    4.3066336     6727.974   -17450.267    21480.466    16153.723    6233.3589   -27354.264    46945.237    79.875532 
   66800    1580.3507   -115.94023    1.4299345    -114.5103    3810.7313    4.3155652    4.3155652    4.3155652    3810.7313    12272.753   -26981.229     26140.67   -3926.1649   -2325.6693   -35928.923    80.373529 
   66900    1369.1471   -115.75677     1.238833   -114.51794   -7143.1492    4.3238377    4.3238377    4.3238377   -7143.1492    26239.395   -20432.627   -27236.216   -5782.0701    5679.2692   -60148.926    80.836621 
   67000    1951.2519   -116.26289    1.7655337   -114.49736   -15265.793    4.3276504    4.3276504    4.3276504   -15265.793   -22431.937    1793.8884   -25159.331    397.40863   -13616.241    53042.251    81.050651 
   67100    1325.7582   -115.69279    1.1995739   -114.49322    2440.7601    4.3161794    4.3161794    4.3161794    2440.7601    1842.2511    19138.134   -13658.105    26877.847   -10441.522   -35248.941     80.40785 
   67200    1701.6296   -116.03294    1.5396702   -114.49327   -4347.5363    4.3140968    4.3140968    4.3140968   -4347.5363    5734.2041   -9527.8685   -9248.9446   -8055.5237    2205.1281   -53267.419    80.291514 
   67300    1989.8073   -116.28795    1.8004195   -114.48753   -5001.9464    4.3213167    4.3213167    4.3213167   -5001.9464   -23418.898    10736.411   -2323.3521   -26904.384    991.63958    41739.352    80.695307 
   67400    1410.0269   -115.77292    1.2758219    -114.4971   -27309.394    4.3222163    4.3222163    4.3222163   -27309.394     468.2477   -36172.014   -46224.416    21617.488   -14474.252   -58043.901    80.745716 
   67500    1477.1865   -115.83822    1.3365894   -114.50163    8633.9146    4.3180105    4.3180105    4.3180105    8633.9146    32814.684   -3125.1291   -3787.8116    11466.994   -4151.9401    -35257.93    80.510234 
   67600    2106.5441    -116.3975    1.9060453   -114.49145   -8591.6923    4.3188424    4.3188424    4.3188424   -8591.6923     -34711.1   -13759.562    22695.585   -35968.696    9333.5387    22015.834    80.556775 
   67700    1179.7944   -115.57243    1.0675027   -114.50493    8691.8715    4.3065495    4.3065495    4.3065495    8691.8715    42797.018    6288.1703   -23009.574   -11053.607   -16691.256   -80755.644    79.870854 
   67800    1650.8228    -116.0077    1.4936992     -114.514    13995.361    4.3090219    4.3090219    4.3090219    13995.361    42806.319    31519.909   -32340.147    13957.783   -17910.465   -19446.946    80.008496 
   67900    1743.0203   -116.08792    1.5771214    -114.5108   -6958.5773    4.3224034    4.3224034    4.3224034   -6958.5773   -39151.356   -7539.2202    25814.844   -24137.277    10248.707    16881.204    80.756204 
   68000     1404.016   -115.77969    1.2703832    -114.5093    12734.625    4.3156716    4.3156716    4.3156716    12734.625    15455.976   -997.93007    23745.829   -33022.124   -2089.4242   -38561.529    80.379474 
   68100    1779.9618   -116.11769    1.6105469   -114.50715    -1620.054    4.3145855    4.3145855    4.3145855    -1620.054    7503.1894    23647.307   -36010.659    12227.089   -41458.315   -13325.628    80.318806 
   68200    1565.1581    -115.9284     1.416188   -114.51221    8690.2073    4.3092283    4.3092283    4.3092283    8690.2073   -24111.456    39246.913    10935.164   -6207.1728   -19670.961     15712.15    80.019992 
   68300    1504.6314   -115.87805    1.3614221   -114.51663    30998.193    4.3139956    4.3139956    4.3139956    30998.193   -21710.914    53497.147    61208.345   -30980.964    9211.0484   -6856.2853    80.285864 
   68400    1721.7559   -116.06111    1.5578809   -114.50323   -431.59173    4.3316153    4.3316153    4.3316153   -431.59173   -21508.511    58267.807   -38054.071   -1543.3872    -54394.57   -15913.839    81.273628 
   68500    1780.9156   -116.10802    1.6114099   -114.49661    12820.951    4.3147303    4.3147303    4.3147303    12820.951   -17793.156    55312.269    943.73877   -1526.2107   -19048.664    26591.595    80.326894 
   68600    1579.9758   -115.93089    1.4295953    -114.5013    27310.668    4.2993664    4.2993664    4.2993664    27310.668   -6835.2007    6880.1368    81887.068   -35988.775    10288.477    9359.3127    79.471857 
   68700    1460.9787   -115.84301    1.3219242   -114.52108   -18690.574    4.3117311    4.3117311    4.3117311   -18690.574   -54937.118    9719.9501   -10854.553   -6574.6991   -64233.755   -19220.034    80.159501 
   68800    1704.9796   -116.06269    1.5427014   -114.51999    15906.986    4.3094249    4.3094249    4.3094249    15906.986   -24419.314    47948.482    24191.789    8277.0614   -12126.787    12109.596    80.030946 
   68900    1361.4262   -115.76597     1.231847   -114.53413    -4551.206    4.3125048    4.3125048    4.3125048    -4551.206   -1800.4264   -22399.703    10546.511   -22997.937    43654.953    18325.743    80.202659 
   69000    1676.9999   -116.03796    1.5173847   -114.52057   -19540.566    4.3239871    4.3239871    4.3239871   -19540.566   -19986.215   -36726.681   -1908.8012   -19761.404   -25226.881   -1190.2832    80.845002 
   69100    2295.7726    -116.5723    2.0772633   -114.49504    16634.767    4.3149624    4.3149624    4.3149624    16634.767   -15567.597    50703.557    14768.343   -1279.1139    15403.362   -2864.8469    80.339857 
   69200    510.21707    -114.9726   0.46165513   -114.51094   -13642.298      4.32397      4.32397      4.32397   -13642.298    2213.8838     6320.833    -49461.61   -19664.233    50297.841    26810.147    80.844042 
   69300    1939.8069   -116.23611    1.7551781   -114.48093   -12730.133    4.3284341    4.3284341    4.3284341   -12730.133    1310.6916   -19996.922    -19504.17   -22097.334   -9276.8208   -11731.679    81.094691 
   69400    2231.2862   -116.49497    2.0189146   -114.47606   -842.36121    4.3208063    4.3208063    4.3208063   -842.36121    8859.2112    9725.8122   -21112.107    9903.5951   -6462.8494   -3018.6978    80.666721 
   69500    742.46445   -115.17953   0.67179744   -114.50773   -23424.119    4.3141913    4.3141913    4.3141913   -23424.119   -23814.546   -6410.7825   -40047.028   -10374.394    55172.081    45242.744    80.296793 
   69600    1890.2234   -116.21439    1.7103138   -114.50407    10688.532    4.2984343    4.2984343    4.2984343    10688.532    22107.149    24176.732   -14218.285   -10885.359    4678.4415    25431.195    79.420182 
   69700    2034.7249   -116.35983    1.8410619   -114.51876    7693.8736    4.3081049    4.3081049    4.3081049    7693.8736    636.95093    50264.077   -27819.407    14456.353   -52857.414   -20931.327    79.957426 
   69800     1224.049   -115.63452    1.1075452   -114.52698   -32903.272    4.3250121    4.3250121    4.3250121   -32903.272   -17314.032   -2923.1842   -78472.601   -6462.0571    38782.631    37672.572     80.90251 
   69900    1556.6155   -115.91792    1.4084584   -114.50946    1835.0919    4.3174035    4.3174035    4.3174035    1835.0919    34393.025    15090.449   -43978.198   -4690.3221    26443.928    17922.307    80.476282 
   70000    1644.6699   -115.98831    1.4881319   -114.50018     5561.841     4.309017     4.309017     4.309017     5561.841    10764.443    39344.818   -33423.739    698.00418   -43684.368   -53244.354    80.008223 
   70100     1557.139   -115.91693    1.4089321     -114.508    5786.8808    4.3021966    4.3021966    4.3021966    5786.8808    3027.2148    55082.753   -40749.325   -7291.7032    29051.387    7261.8433    79.628909 
   70200    1898.0717   -116.22587    1.7174152   -114.50846    22586.918    4.3042809    4.3042809    4.3042809    22586.918    33704.854    63263.491    -29207.59    10468.001    47068.391    7320.7422    79.744699 
   70300    1269.8415   -115.66862    1.1489793   -114.51964   -1022.6128    4.3207861    4.3207861    4.3207861   -1022.6128    38117.041    -26516.35   -14668.529   -6411.4457   -26392.637   -60904.609    80.665585 
   70400    1392.8248   -115.76765    1.2602572   -114.50739   -11241.087    4.3240625    4.3240625    4.3240625   -11241.087   -14490.558    22442.654   -41675.356    2057.9336    19266.751   -1249.0837    80.849228 
   70500    1857.5892   -116.16985    1.6807857   -114.48906    32314.654    4.3080743    4.3080743    4.3080743    32314.654    65252.541    35371.467   -3680.0472   -1503.4604    30081.825    9171.2791    79.955725 
   70600    1705.0245   -116.04267     1.542742   -114.49993    2758.9225    4.3085805    4.3085805    4.3085805    2758.9225     25439.24   -54027.908    36865.435    4429.6777   -3207.7078   -43918.648    79.983912 
   70700    1512.9555    -115.8813     1.368954   -114.51235    2501.8187    4.3084235    4.3084235    4.3084235    2501.8187    16309.979   -5158.0902   -3646.4327    18005.682    -12053.05   -17053.263    79.975165 
   70800    1264.0662   -115.66525    1.1437537    -114.5215     19461.46    4.3057772    4.3057772    4.3057772     19461.46     57283.12    16316.946   -15215.688   -13048.898    903.48353    42467.564    79.827893 
   70900    1760.3712   -116.10911    1.5928208   -114.51628   -17475.472    4.3239343    4.3239343    4.3239343   -17475.472    18775.273   -60945.469   -10256.222    8092.0998    15380.845    21124.084    80.842041 
   71000    2109.0211   -116.41661    1.9082866   -114.50832   -4366.9566    4.3125645    4.3125645    4.3125645   -4366.9566   -2171.2106   -7710.6926   -3218.9667    31498.171   -31423.237   -14001.875    80.205992 
   71100    1055.4489   -115.47234   0.95499236   -114.51735    20181.866    4.2916713    4.2916713    4.2916713    20181.866    55420.536    42904.435   -37779.373   -944.17275   -28982.454    33314.415      79.0459 
   71200    1784.8279   -116.13175    1.6149498    -114.5168   -6388.2081    4.3091497    4.3091497    4.3091497   -6388.2081    23179.033   -18631.866   -23711.792   -1957.1655     10479.35    41424.815    80.015615 
   71300    1656.6106   -116.01212    1.4989361   -114.51318    12064.756    4.3118987    4.3118987    4.3118987    12064.756     8542.132    9464.0634    18188.072   -10465.179   -1218.9163   -16251.058    80.168852 
   71400    919.28091   -115.36026   0.83178469   -114.52848    16432.027    4.3154961    4.3154961    4.3154961    16432.027    8483.4894    51474.153   -10661.561    12262.909   -50724.945   -19349.037    80.369668 
   71500    2423.2386   -116.68992    2.1925972   -114.49732     4343.856    4.3225816    4.3225816    4.3225816     4343.856   -7182.0137     17753.67    2459.9121   -7122.4864   -7714.7511    7861.7108    80.766191 
   71600    1405.7552   -115.77801    1.2719569   -114.50605    38896.164    4.3026387    4.3026387    4.3026387    38896.164    598.81447     60902.28    55187.398   -33702.729    5407.6698   -2064.3065    79.653458 
   71700    1159.3815   -115.55447    1.0490327   -114.50543    66.002609    4.3152307    4.3152307    4.3152307    66.002609    2525.4024   -13169.015     10841.62    26830.464   -55291.069   -30895.317    80.354843 
   71800    1827.0576   -116.13615    1.6531601   -114.48299   -3480.8139    4.3255701    4.3255701    4.3255701   -3480.8139    2000.7644     1089.777   -13532.983   -1544.0509   -1612.7372   -2519.7322    80.933824 
   71900    1583.5193    -115.9164    1.4328015    -114.4836    11786.783    4.3118374    4.3118374    4.3118374    11786.783   -11615.128    13244.903    33730.573   -55551.945    9525.9563    19067.408    80.165429 
   72000    1430.4412   -115.78906    1.2942932   -114.49477   -11227.259    4.3130521    4.3130521    4.3130521   -11227.259   -29326.075    -12466.57    8110.8686    21949.972   -45244.177   -26038.091      80.2332 
   72100    1574.2278   -115.92574    1.4243944   -114.50135    3395.3585    4.3079327    4.3079327    4.3079327    3395.3585    7775.4074    10410.586   -7999.9175    14238.913   -7495.1089   -5117.8572    79.947838 
   72200    1820.0714   -116.15038    1.6468389   -114.50354    18256.855    4.3071465    4.3071465    4.3071465    18256.855   -1659.8453    31639.057    24791.352   -35760.834    22938.403    21188.593    79.904074 
   72300    1358.4964   -115.73843     1.229196   -114.50923   -8349.1755    4.3252844    4.3252844    4.3252844   -8349.1755   -48410.434    1011.5121    22351.396    32206.495   -48161.463   -12766.074    80.917786 
   72400    1553.0811   -115.90144    1.4052604   -114.49618    -7665.263    4.3196124    4.3196124    4.3196124    -7665.263   -33747.614    8969.0344    1782.7905    28046.434   -19931.781     896.7555    80.599869 
   72500    1832.2733   -116.14189    1.6578794   -114.48401    20326.974     4.308535     4.308535     4.308535    20326.974     475.9508    43879.011     16625.96   -31102.167    34917.226    17564.539    79.981376 
   72600    1406.9588      -115.77    1.2730459   -114.49696   -27648.931    4.3145575    4.3145575    4.3145575   -27648.931   -62209.586    11494.781   -32231.988    29899.992   -64293.621   -1515.4441    80.317241 
   72700    1368.3134   -115.74696    1.2380787   -114.50888   -7529.0224    4.3063264    4.3063264    4.3063264   -7529.0224    -39271.58   -5157.3434    21841.856    47081.538   -31629.395   -4650.6193    79.858443 
   72800    2238.4417   -116.52603    2.0253891   -114.50065     9017.184    4.3027661    4.3027661    4.3027661     9017.184    3602.3064    28090.663   -4641.4169    -12333.06    47257.726    3781.9468    79.660534 
   72900    998.72678   -115.42012   0.90366898   -114.51645   -39930.677    4.3253374    4.3253374    4.3253374   -39930.677   -56672.801     28676.34   -91795.569    6930.7255   -80766.585    17896.401    80.920764 
   73000    1689.6266   -116.03576    1.5288096   -114.50695    -20133.25    4.3230944    4.3230944    4.3230944    -20133.25   -16769.526   -10846.262   -32783.963    24929.035   -34282.412   -9004.3312    80.794941 
   73100    2108.6164   -116.39431    1.9079205   -114.48639    19871.571    4.3072398    4.3072398    4.3072398    19871.571    23934.832    30554.445    5125.4353   -7834.2047    11325.302    -11536.92    79.909266 
   73200    866.40373   -115.28922    0.7839403   -114.50528   -30380.694      4.31594      4.31594      4.31594   -30380.694    -60099.03    51878.818    -82921.87    -9175.513   -91628.434    15136.222    80.394475 
   73300    2216.7907   -116.49173    2.0057988   -114.48593    -15653.46    4.3256033    4.3256033    4.3256033    -15653.46   -6453.4847   -25389.581   -15117.313    4932.7162    17435.431   -6342.8233     80.93569 
   73400    1496.4149    -115.8473    1.3539877   -114.49331   -22115.709    4.3232364    4.3232364    4.3232364   -22115.709    -4930.457    4602.8766   -66019.547   -943.26532   -32137.449   -51347.454    80.802901 
   73500    954.68313   -115.36427   0.86381736   -114.50045   -19290.764    4.3120572    4.3120572    4.3120572   -19290.764   -65659.918    43746.165   -35958.538   -9943.4676   -77891.102    -9124.218    80.177689 
   73600    2387.6746   -116.64476    2.1604181   -114.48434    13923.092     4.306203     4.306203     4.306203    13923.092    14456.031   -305.65884    27618.904   -15710.994    34110.233    15080.196    79.851575 
   73700    1171.6171   -115.57017    1.0601038   -114.51006   -5241.1054    4.3140264    4.3140264    4.3140264   -5241.1054   -163.24707    14706.126   -30266.195   -2408.9709   -53637.678   -40290.618    80.287585 
   73800     1254.817   -115.64443    1.1353848   -114.50905   -9619.3717    4.3217513    4.3217513    4.3217513   -9619.3717    845.49504    16607.216   -46310.827    3891.7327   -56846.376   -29446.713    80.719661 
   73900    2539.7574   -116.77237    2.2980258   -114.47434    2079.1693    4.3277826    4.3277826    4.3277826    2079.1693   -2455.0424   -20293.354    28985.904   -12230.183    33716.458    16459.128     81.05808 
   74000    1101.2918   -115.49686   0.99647198   -114.50039   -20723.379    4.3211082    4.3211082    4.3211082   -20723.379   -1493.4712    7249.2978   -67925.963    4914.0259   -63912.654   -35008.144    80.683632 
   74100    1385.6307   -115.74732    1.2537478   -114.49358    1015.8686    4.3000873    4.3000873    4.3000873    1015.8686    35831.647      11992.9   -44776.942   -6563.0194   -41510.883   -46055.129    79.511844 
   74200    2307.0841   -116.57151    2.0874982   -114.48402    17255.052    4.3081041    4.3081041    4.3081041    17255.052    18190.271    1784.7982    31790.086   -2496.4185    24636.722    29492.346    79.957381 
   74300    1111.4546   -115.50742    1.0056675   -114.50175   -26873.439    4.3244808    4.3244808    4.3244808   -26873.439   -67989.537    8244.2185   -20874.999     -5498.53   -83335.681   -11675.726    80.872695 
   74400    1552.7431   -115.90301    1.4049546   -114.49805    1100.1986    4.3185151    4.3185151    4.3185151    1100.1986   -569.12129   -13008.027    16877.744    1241.8941   -22328.654    -38552.86    80.538461 
   74500    2203.6608   -116.48341    1.9939186   -114.48949   -253.66353    4.3119736    4.3119736    4.3119736   -253.66353    8267.5866   -13147.246    4118.6684    9188.7108    12402.196        12120    80.173026 
   74600    816.24711   -115.25552   0.73855754   -114.51696   -10153.224    4.3026254    4.3026254    4.3026254   -10153.224   -68328.816    56478.446   -18609.302   -8851.1144   -104331.59    15507.533    79.652717 
   74700     2068.348   -116.38821    1.8714847   -114.51673    17106.128    4.3053375    4.3053375    4.3053375    17106.128   -15379.257    24416.312    42281.329    -1539.637   -21694.652   -4773.7129    79.803441 
   74800    2223.6216   -116.52013    2.0119795   -114.50815    5533.2395    4.3245461    4.3245461    4.3245461    5533.2395   -27380.046   -8699.1267    52678.891   -6149.9121   -1781.1519   -7473.7869     80.87636 
   74900    643.52325   -115.10662   0.58227336   -114.52435   -38591.849    4.3257202    4.3257202    4.3257202   -38591.849   -83375.428    20775.879   -53175.999   -614.63924   -91780.669    19659.065    80.942247 
   75000    1644.7063   -115.99914    1.4881648   -114.51097   -6007.0995    4.3048527    4.3048527    4.3048527   -6007.0995    434.21703   -4159.6404   -14295.875     -8949.85     28283.11    23975.518    79.776482 
   75100     1965.142   -116.28172    1.7781017   -114.50362    9726.6094    4.2930164    4.2930164    4.2930164    9726.6094   -4032.8197     4902.201    28310.447   -3345.6592   -1955.5079   -28850.427    79.120247 
   75200    1230.2299   -115.63642    1.1131378   -114.52328    -12041.97    4.3131804    4.3131804    4.3131804    -12041.97   -10087.238    8491.7357   -34530.406     10508.51   -82749.405   -7971.1457    80.240359 
   75300    1742.5387   -116.08402    1.5766856   -114.50733   -14744.434    4.3271654    4.3271654    4.3271654   -14744.434   -9096.8636   -29207.071   -5929.3674   -24324.029    12464.726      40409.6    81.023404 
   75400    1662.9033   -116.00949    1.5046298   -114.50486    -1151.788    4.3166444    4.3166444    4.3166444    -1151.788    26060.606   -34728.945    5212.9748    5317.4182    11228.436   -26453.983    80.433843 
   75500    1405.6802   -115.77577     1.271889   -114.50388   -4072.1087    4.3015389    4.3015389    4.3015389   -4072.1087    25013.442   -5799.5664   -31430.201    11098.666   -57346.205   -48410.806    79.592392 
   75600    1679.7905   -116.02963    1.5199097   -114.50972    4411.4184    4.3011851    4.3011851    4.3011851    4411.4184    9333.8429   -1473.8136    5374.2259   -5360.8107   -8967.4009    57823.459    79.572753 
   75700    1790.6775   -116.13182    1.6202427   -114.51157    -9649.037    4.3146943    4.3146943    4.3146943    -9649.037    30658.707   -56286.969   -3318.8492   -3302.5419    4179.7605   -11981.183    80.324882 
   75800      1286.22   -115.68019    1.1637989   -114.51639   -4483.8653    4.3181043    4.3181043    4.3181043   -4483.8653    32058.515   -18711.816   -26798.295   -4272.4377   -16723.716   -77646.667    80.515482 
   75900    1990.2637   -116.30088    1.8008325   -114.50004     13411.33    4.3159535    4.3159535    4.3159535     13411.33   -2592.6678    6643.0843    36183.575    7726.7975   -21493.803    41027.935    80.395227 
   76000    1244.4105   -115.63691    1.1259688   -114.51094   -17576.088    4.3139631    4.3139631    4.3139631   -17576.088    49845.199   -76639.445   -25934.019   -9916.3931   -3477.7841   -36264.901    80.284051 
   76100    1215.4472   -115.61807    1.0997622   -114.51831   -1059.2735    4.3000788    4.3000788    4.3000788   -1059.2735    52216.337   -48767.473   -6626.6845   -5222.7809    10038.234   -71489.625     79.51137 
   76200    2546.7838   -116.80627    2.3043835   -114.50189    25649.885    4.3036591    4.3036591    4.3036591    25649.885   -3266.0572    18356.356    61859.355    892.30396   -26644.202    29116.723    79.710145 
   76300    1256.3352   -115.66126    1.1367585    -114.5245   -6189.6183    4.3140482    4.3140482    4.3140482   -6189.6183    38143.501   -68456.013    11743.657    399.90415   -14380.085   -82007.454    80.288804 
   76400    1078.0986   -115.49558   0.97548626   -114.52009   -2232.2016     4.317559     4.317559     4.317559   -2232.2016    38073.572   -60902.536     16132.36   -1595.9993    21387.503   -38699.139    80.484981 
   76500    2264.2522   -116.54787    2.0487429   -114.49912   -17434.149     4.318702     4.318702     4.318702   -17434.149   -23635.296   -13837.575   -14829.575   -6223.6356    14185.747     60379.51    80.548919 
   76600    1179.3511    -115.5833    1.0671017    -114.5162   -4310.6923    4.2998797    4.2998797    4.2998797   -4310.6923    42764.541   -48166.695   -7529.9228    9140.7868    1189.0552   -88115.639    79.500327 
   76700    1517.5593   -115.89344    1.3731195   -114.52032     17111.19    4.2984202    4.2984202    4.2984202     17111.19     27045.61   -12116.548    36404.509   -8975.1091   -6546.9819   -52450.605    79.419403 
   76800    2056.0263   -116.36985    1.8603358   -114.50952   -8473.2907    4.3181364    4.3181364    4.3181364   -8473.2907   -35128.584    12471.969   -2763.2571   -13397.254    7427.4464    44033.077    80.517277 
   76900    1135.3101   -115.54768    1.0272525   -114.52043   -8375.1606    4.3178882    4.3178882    4.3178882   -8375.1606    18128.731   -14337.997   -28916.216    12840.726    26753.598   -63107.686     80.50339 
   77000    1849.3858   -116.18092    1.6733631   -114.50756   -420.64094     4.314462     4.314462     4.314462   -420.64094    24773.009   -8474.2446   -17560.688   -9824.5219   -10814.382   -38159.309     80.31191 
   77100    1987.7341   -116.29745    1.7985436   -114.49891    2816.6958    4.3122951    4.3122951    4.3122951    2816.6958    -23739.68    18627.399    13562.368   -13844.824   -19871.493    25430.576    80.190959 
   77200    871.17212    -115.3064   0.78825484   -114.51815   -2149.1004    4.3120271    4.3120271    4.3120271   -2149.1004   -785.01339    23260.978   -28923.266   -2735.6816    32790.007   -54358.752    80.176014 
   77300    2210.2742   -116.49325    1.9999025   -114.49335    7545.5684    4.3226008    4.3226008    4.3226008    7545.5684    19055.445   -6628.9258    10210.186   -2882.0254    5320.1475   -13243.071    80.767265 
   77400    1610.8476   -115.94335    1.4575287   -114.48582   -3715.0623     4.333894     4.333894     4.333894   -3715.0623    -15773.96    6267.5326    -1638.759   -10401.789   -31160.391    36562.501    81.401958 
   77500     837.9051   -115.25291   0.75815414   -114.49475   -18893.982     4.323197     4.323197     4.323197   -18893.982   -23804.059    2638.9321   -35516.819   -5300.0879    18590.015   -51828.104    80.800692 
   77600     1966.544   -116.26527    1.7793704    -114.4859    21669.876    4.2934844    4.2934844    4.2934844    21669.876   -4274.8039        26638    42646.431    2562.7853    10335.588   -7002.3571    79.146129 
   77700    1882.5296   -116.20452    1.7033523   -114.50116    15756.905    4.2949907    4.2949907    4.2949907    15756.905    9058.8973     32498.72    5713.0983   -1000.8558    -17157.34    30971.286    79.229459 
   77800    1254.6644    -115.6568    1.1352467   -114.52155   -28322.941    4.3238142    4.3238142    4.3238142   -28322.941   -10483.166   -5322.2212   -69163.434    2725.4739    16960.841    -55204.47    80.835303 
   77900    2104.2301   -116.40085    1.9039516   -114.49689   -10760.088    4.3269008    4.3269008    4.3269008   -10760.088   -26394.403    8424.7489   -14310.611   -2780.2621    12507.625   -28913.504    81.008541 
   78000    1839.9107   -116.16037    1.6647899   -114.49558   -9394.5299    4.3164318    4.3164318    4.3164318   -9394.5299   -23809.631    2119.0452   -6493.0039   -8137.1984   -22310.796    43875.686    80.421958 
   78100    695.08007   -115.14828   0.62892305   -114.51936   -14724.948    4.3008576    4.3008576    4.3008576   -14724.948    9557.3344    4576.3987   -58308.578     867.5123    11491.428   -40658.203    79.554582 
   78200    1889.7295   -116.22622    1.7098669   -114.51635    29142.893    4.2960139    4.2960139    4.2960139    29142.893    8270.1378    49345.779    29812.762    7588.2889    15201.307   -38779.343    79.286097 
   78300    2147.3252   -116.45735     1.942945   -114.51441   -3476.1621    4.3165612    4.3165612    4.3165612   -3476.1621   -44099.331    35875.451   -2204.6063    724.30487    -25400.88    28825.179    80.429191 
   78400     1148.323    -115.5621    1.0390268   -114.52308   -12682.608     4.319842     4.319842     4.319842   -12682.608   -17011.912    37363.315   -58399.227   -4470.4205   -538.27596   -32740.529    80.612721 
   78500    1994.6524   -116.30561    1.8048034   -114.50081    9060.6762    4.3178331    4.3178331    4.3178331    9060.6762   -13517.432     11561.32    29138.141   -2905.1763    14123.156   -39144.116    80.500309 
   78600    1882.1214   -116.19957     1.702983   -114.49659   -14578.284    4.3192627    4.3192627    4.3192627   -14578.284   -62601.368    32176.629   -13310.113    838.14774   -41016.584    23577.353    80.580298 
   78700    780.92143   -115.21973   0.70659412   -114.51314    3074.7195    4.3000449    4.3000449    4.3000449    3074.7195   -22915.452    57424.702   -25285.091    1342.8889    -6613.581   -15707.531    79.509492 
   78800    2064.9536   -116.37751    1.8684134    -114.5091    15145.426     4.305677     4.305677     4.305677    15145.426   -8684.2182    20339.387    33781.111   -730.10448    24996.877   -42315.975    79.822319 
   78900    1936.5559   -116.25723    1.7522365     -114.505   -15813.307    4.3200334    4.3200334    4.3200334   -15813.307   -49596.791     18174.59    -16017.72    2597.0012   -46727.073    29711.626     80.62344 
   79000    1153.8505   -115.55717    1.0440282   -114.51314    13978.281    4.3061418    4.3061418    4.3061418    13978.281    -9189.047    65653.561    -14529.67   -240.58975   -11430.524    4397.1202    79.848173 
   79100    1984.4523   -116.29615    1.7955742   -114.50058    13442.305    4.3157357    4.3157357    4.3157357    13442.305   -23502.771    9523.4162    54306.271   -1762.8802    31340.784   -29577.874    80.383055 
   79200     1770.433   -116.09926     1.601925   -114.49733   -23689.829    4.3240926    4.3240926    4.3240926   -23689.829   -54843.146   -4359.6402   -11866.699   -7240.9019   -42354.498    30809.812    80.850916 
   79300     640.8156   -115.09555   0.57982342   -114.51572     13945.69    4.3012896    4.3012896    4.3012896     13945.69    -29209.16    102367.83   -31321.596   -1979.9927   -20761.787    16439.103    79.578555 
   79400    2352.9171   -116.63258    2.1289689   -114.50361    24875.638     4.300415     4.300415     4.300415    24875.638    9637.8279    35812.847     29176.24    3962.5302    32998.928   -25394.427     79.53002 
   79500     1888.885   -116.22327    1.7091028   -114.51417    9627.7581    4.3104269    4.3104269    4.3104269    9627.7581   -10649.356    32058.459    7474.1712    8599.8723   -30124.152    29085.718    80.086783 
   79600    965.08378   -115.40184   0.87322808   -114.52861   -14691.328    4.3190282    4.3190282    4.3190282   -14691.328   -37250.409    41709.534    -48533.11   -5348.8678   -32587.673    29633.398    80.567173 
   79700    2194.2521   -116.49063    1.9854054   -114.50523    3375.3458    4.3157995    4.3157995    4.3157995    3375.3458   -15711.053    21691.269    4145.8211    8497.9978    18963.086   -19771.596    80.386624 
   79800    1532.5859    -115.8962    1.3867159   -114.50949    35968.754    4.2981135    4.2981135    4.2981135    35968.754    25453.789      32560.3    49892.173    16351.227   -27747.889    19847.043    79.402401 
   79900    608.52105   -115.08649   0.55060264   -114.53589   -18229.322    4.3140169    4.3140169    4.3140169   -18229.322    -8927.324    26791.634   -72552.277   -3237.5633   -40587.997    19962.358    80.287056 
   80000    2520.0473   -116.76852    2.2801918   -114.48833   -6361.3793    4.3294588    4.3294588    4.3294588   -6361.3793   -9836.3185    7172.8673   -16420.687    -14300.48     12552.01   -23504.773    81.152301 
   80100    1464.9378   -115.81325    1.3255065   -114.48774    22879.577    4.3177213    4.3177213    4.3177213    22879.577   -6234.6146    30359.443    44513.903     361.4269   -31539.015    34740.824    80.494059 
   80200    1008.2447   -115.40496   0.91228096   -114.49268   -25693.815    4.3225762    4.3225762    4.3225762   -25693.815   -14395.053   -6326.2485   -56360.143    7961.4551   -34718.271    41054.258    80.765888 
   80300     2508.098   -116.74367    2.2693798   -114.47429    16253.414    4.3047403    4.3047403    4.3047403    16253.414   -20906.652    3164.4946    66502.398   -23710.538    18344.027   -9557.2543    79.770236 
   80400    1267.7441   -115.64758    1.1470815    -114.5005     2341.745    4.2945097    4.2945097    4.2945097     2341.745   -23880.198    33593.038   -2687.6049   -20625.755   -35208.175    5221.7722    79.202842 
   80500    1044.4634   -115.46102   0.94505241   -114.51597   -32089.461    4.3128131    4.3128131    4.3128131   -32089.461    1364.3879   -9632.6062   -88000.165    9228.5438   -47620.115    61646.972    80.219863 
   80600    2347.9233   -116.62037    2.1244504   -114.49592    9269.0242    4.3145091    4.3145091    4.3145091    9269.0242   -454.93777   -9750.3547    38012.365   -5203.5376    19664.092    811.95157    80.314537 
   80700    1229.3746   -115.62698     1.112364   -114.51462   -10888.775    4.3148843    4.3148843    4.3148843   -10888.775   -45684.909    24246.614   -11228.029   -20042.849   -28402.617   -23053.249    80.335495 
   80800      1691.23   -116.03471    1.5302605   -114.50445   -1904.8499    4.3068918    4.3068918    4.3068918   -1904.8499    696.88921    5544.4908    -11955.93    -3403.707   -34570.991    19469.935    79.889901 
   80900    2089.3239    -116.3878    1.8904642   -114.49733    14665.004    4.3051125    4.3051125    4.3051125    14665.004    14524.204   -16026.401     45497.21    22061.101    19207.405    6066.0114    79.790929 
   81000    572.20039   -115.04016   0.51773894   -114.52242   -17230.054    4.3200575    4.3200575    4.3200575   -17230.054   -42232.427   -39114.538    29656.802   -13818.938   -8032.7323   -34834.619    80.624785 
   81100    2088.7166   -116.38631    1.8899147    -114.4964   -8053.3175    4.3198527    4.3198527    4.3198527   -8053.3175    6377.7533   -39317.659    8779.9533   -18759.767   -14647.329   -11954.298     80.61332 
   81200    1842.0065   -116.16325    1.6666862   -114.49657    9581.8805    4.3045503    4.3045503    4.3045503    9581.8805    25574.907   -13207.504    16378.238    24121.179    4887.3721    33711.333    79.759673 
   81300    1023.4076   -115.44129   0.92600071   -114.51529   -3756.9628    4.3038333    4.3038333    4.3038333   -3756.9628   -23435.908   -32845.772    45010.792    855.22058    20793.657   -25479.154    79.719822 
   81400    1944.0587   -116.27155    1.7590252   -114.51252    772.77072    4.3020807    4.3020807    4.3020807    772.77072    16419.681   -42234.032    28132.663   -22918.695   -3860.5489   -5379.0516    79.622473 
   81500    1417.6184   -115.81098    1.2826909   -114.52829    14066.949    4.3036863    4.3036863    4.3036863    14066.949    66128.766    5828.8143   -29756.734    5684.1733    -13525.66    72778.467    79.711656 
   81600    1600.1479   -115.97043    1.4478475   -114.52258    -17729.21     4.318528     4.318528     4.318528    -17729.21   -36581.887   -30044.078    13438.336    7235.6021    27039.417   -525.94726    80.539183 
   81700    1624.3378   -115.98412     1.469735   -114.51439    3774.8958     4.308855     4.308855     4.308855    3774.8958    -13770.67   -20560.591    45655.948    3464.7938    13889.524    4554.6111    79.999197 
   81800    1693.6762    -116.0378    1.5324738   -114.50532    20837.992    4.2987922    4.2987922    4.2987922    20837.992    56282.834     20664.15   -14433.008   -4438.2898   -16156.356    59797.651     79.44002 
   81900    1224.8381   -115.62112    1.1082593   -114.51286   -1247.2042    4.3134213    4.3134213    4.3134213   -1247.2042    -9903.553    9556.4075   -3394.4672    17883.103   -554.85657     5869.043    80.253807 
   82000    1333.8695   -115.71875    1.2069131   -114.51183    1137.1014    4.3220622    4.3220622    4.3220622    1137.1014   -30220.632    8481.2479    25150.689    19686.978    26405.999    -21660.34     80.73708 
   82100    2565.0231   -116.80682    2.3208868   -114.48594    9439.7429    4.3174194    4.3174194    4.3174194    9439.7429    7610.6873    4555.4099    16153.131   -5179.1121   -5468.6667   -2214.2836    80.477175 
   82200    1605.8804   -115.96743    1.4530343   -114.51439   -3084.3895    4.3054412    4.3054412    4.3054412   -3084.3895   -52961.857    14401.292    29307.396    7254.5871   -20150.682     18174.15    79.809206 
   82300    719.81447   -115.19002   0.65130326   -114.53871   -9747.7518    4.2956852    4.2956852    4.2956852   -9747.7518   -15048.397    -587.8564   -13607.002    23492.667    12245.713   -31556.337    79.267898 
   82400    1598.3759   -115.98611    1.4462441   -114.53987    -3664.208    4.2990164    4.2990164    4.2990164    -3664.208    26439.973   -42186.029    4753.4315   -4128.8064    3505.5369   -31209.898    79.452453 
   82500    1566.0597   -115.95542    1.4170037   -114.53841    -12731.03    4.3131305    4.3131305    4.3131305    -12731.03    9861.6203   -70450.513    22395.803    -25902.04   -5000.5421    43671.797    80.237573 
   82600    1316.9432   -115.72974    1.1915979   -114.53814     -10662.7    4.3135568    4.3135568    4.3135568     -10662.7   -25088.064   -46705.004    39804.967    31245.479    4684.4195    2711.6042    80.261366 
   82700    2183.9613   -116.49253     1.976094   -114.51644    10736.691    4.3047152    4.3047152    4.3047152    10736.691    12747.728   -12810.678    32273.023    29052.583     13936.63   -9468.0531    79.768837 
   82800    1781.7284   -116.13643    1.6121453   -114.52429   -8927.4114    4.3069775    4.3069775    4.3069775   -8927.4114    44585.057   -61730.556    -9636.735    -33191.77    585.01064    44241.502    79.894672 
   82900    623.31925   -115.10394   0.56399236   -114.53995   -17099.085    4.3076106    4.3076106    4.3076106   -17099.085    -35100.18   -78377.252    62180.178    15675.201   -70.940938     29808.73     79.92991 
   83000    1721.8311   -116.08219     1.557949   -114.52424    1626.3269    4.3077217    4.3077217    4.3077217    1626.3269    469.40427   -36470.159    40879.736    38164.667    19284.088   -32623.621    79.936095 
   83100    1971.9605   -116.29924    1.7842713   -114.51497   -8853.3419    4.3159072    4.3159072    4.3159072   -8853.3419    38443.841   -47802.021   -17201.846   -14240.407    -14637.26   -42761.418    80.392643 
   83200    1738.6692    -116.0865    1.5731845   -114.51332   -5387.6171    4.3124341    4.3124341    4.3124341   -5387.6171   -20009.207   -44110.014     47956.37    7236.9805   -5119.2887    30060.878    80.198718 
   83300    1054.2202    -115.4732   0.95388059   -114.51932   -8174.2343    4.3017006    4.3017006    4.3017006   -8174.2343    11841.334    -66227.83    29863.793    26806.503    8583.4644   -49775.426    79.601369 
   83400    1224.4466   -115.64099     1.107905   -114.53308   -9708.6644    4.3010197    4.3010197    4.3010197   -9708.6644      64708.6   -63955.644   -29878.949   -153.86818   -3459.4101    -81109.15    79.563576 
   83500    2363.8981   -116.65613    2.1389047   -114.51723    755.40835    4.3069932    4.3069932    4.3069932    755.40835   -7332.4823    11049.636   -1450.9291   -1478.7056   -15192.635    44186.076    79.895546 
   83600    1427.3132   -115.81731     1.291463   -114.52585   -14615.955    4.3148959    4.3148959    4.3148959   -14615.955   -17936.589   -3614.3001   -22296.976    15193.906   -5449.4751   -46758.613    80.336141 
   83700    1575.6043   -115.94108    1.4256399   -114.51544   -17096.735    4.3131352    4.3131352    4.3131352   -17096.735   -1037.4105     -46629.3   -3623.4947    19013.394    7408.5209   -57842.437    80.237837 
   83800    1544.6423   -115.91347    1.3976248   -114.51584    6612.9811    4.3016257    4.3016257    4.3016257    6612.9811    10635.248    7249.2742    1954.4208   -6334.8525   -16359.163    73114.202    79.597212 
   83900    1810.4197   -116.15648    1.6381058   -114.51837    5473.3223    4.2992908    4.2992908    4.2992908    5473.3223   -7735.3604    18576.625    5578.7018     -5143.55   -5310.5179    13223.287    79.467667 
   84000    1663.8713   -116.02931    1.5055058   -114.52381    10858.695    4.3057242    4.3057242    4.3057242    10858.695   -12622.927   -12219.818    57418.831    21024.865    16434.421   -34587.457    79.824946 
   84100    1119.8012   -115.54702    1.0132196    -114.5338   -8843.7146    4.3155164    4.3155164    4.3155164   -8843.7146     12111.09   -62201.905    23559.671    29836.768   -7238.2019    62907.242    80.370807 
   84200     2170.391   -116.47412    1.9638154    -114.5103    304.54658    4.3133513    4.3133513    4.3133513    304.54658   -17578.436   -22883.746    41375.821    -15523.62   -5258.0118    26281.571      80.2499 
   84300    1881.0063   -116.21509     1.701974   -114.51312   -3026.6446    4.3024652    4.3024652    4.3024652   -3026.6446   -42641.949   -19178.037    52740.053   -22321.364    17878.032   -17256.328    79.643823 
   84400    1156.1049   -115.57037     1.046068    -114.5243   -12552.426    4.3061662    4.3061662    4.3061662   -12552.426   -8458.4963   -26068.446   -3130.3376    39531.071   -1523.1118    39566.758    79.849531 
   84500    1548.3884   -115.91928    1.4010143   -114.51826   -16688.193    4.3175102    4.3175102    4.3175102   -16688.193   -29757.033   -31350.861    11043.315   -9605.1486   -20825.913     25958.38    80.482254 
   84600    1945.6213   -116.26941     1.760439   -114.50897   -4484.4913    4.3150906    4.3150906    4.3150906   -4484.4913   -38138.922   -20732.092     45417.54   -51655.412   -16183.924   -22014.391    80.347016 
   84700    1477.0401   -115.84741    1.3364569   -114.51095    -4594.765    4.3068547    4.3068547    4.3068547    -4594.765     16659.45   -35036.215    4592.4706    24292.186    9941.9322    45697.208    79.887835 
   84800    1236.7866   -115.63912    1.1190705   -114.52005   -6259.7994    4.3067908    4.3067908    4.3067908   -6259.7994    1400.3731   -23675.123    3495.3516    24736.087    -3759.373    40594.707     79.88428 
   84900    2394.9128    -116.6712    2.1669674   -114.50423   -1911.5349    4.3133363    4.3133363    4.3133363   -1911.5349   -19211.962     17865.78   -4388.4227    -17505.74   -26478.364   -25803.242    80.249064 
   85000    1463.5945   -115.84031     1.324291   -114.51602    -7252.742    4.3205534    4.3205534    4.3205534    -7252.742    17579.612   -25103.222   -14234.616    4372.5341    3255.5279    55448.173    80.652555 
   85100    621.93327    -115.0819    0.5627383   -114.51916   -14307.485    4.3233231    4.3233231    4.3233231   -14307.485    9191.6052   -32095.328   -20018.732     37738.07    15722.589    31163.663    80.807761 
   85200    2178.8953   -116.46626    1.9715103   -114.49475    3114.8256    4.3124536    4.3124536    4.3124536    3114.8256   -10959.381    25652.196   -5348.3382    3956.6335   -909.22934   -42567.749    80.199803 
   85300    1840.9813   -116.16638    1.6657586   -114.50062    8097.3002    4.2975934    4.2975934    4.2975934    8097.3002    29143.289    3105.6949   -7957.0829   -27473.667   -2879.4384    59414.569    79.373583 
   85400    1364.9876   -115.75525    1.2350695   -114.52018   -10478.151    4.3040937    4.3040937    4.3040937   -10478.151   -1981.6031   -20426.026    -9026.823    37600.977    7451.8229     41751.69    79.734294 
   85500    1508.3429   -115.89061    1.3647803   -114.52583   -15855.601    4.3138425    4.3138425    4.3138425   -15855.601   -27147.629    -22177.69     1758.516    39857.229    16482.916    -28470.65     80.27732 
   85600    1736.1859   -116.10123    1.5709375    -114.5303   -4372.0159    4.3079687    4.3079687    4.3079687   -4372.0159    3617.2588   -15988.411   -744.89582   -64551.389    8763.5192    -5585.823    79.949844 
   85700    1606.8121   -115.98777    1.4538773   -114.53389    12211.076     4.298007     4.298007     4.298007    12211.076    15803.177   -13085.022    33915.073   -3046.4057   -9854.0507    18091.439    79.396501 
   85800    1238.2258   -115.65962    1.1203727   -114.53924     11463.87    4.3028806    4.3028806    4.3028806     11463.87    -3236.482    3661.1556    33966.936    79466.541    4257.3243    9020.0558    79.666896 
   85900      1757.04    -116.1129    1.5898067   -114.52309    -1110.603    4.3182136    4.3182136    4.3182136    -1110.603     3244.115    5346.4966   -11922.421   -16169.312    43788.628   -11970.418    80.521596 
   86000    1885.4157   -116.22061    1.7059638   -114.51465   -5174.7907    4.3162487    4.3162487    4.3162487   -5174.7907    5310.1146   -31431.709    10597.222   -8165.0869    656.73749   -7230.5661    80.411725 
   86100     870.9515    -115.3143   0.78805522   -114.52625    -4064.021    4.3047504    4.3047504    4.3047504    -4064.021   -20533.995   -59102.286    67444.218    77825.421   -21760.708    11544.601    79.770799 
   86200    1764.8501   -116.11584    1.5968735   -114.51896    14016.628    4.2989917    4.2989917    4.2989917    14016.628     25346.72    3446.2791    13256.887   -2241.9851    16849.998    24666.327    79.451083 
   86300    1952.8282   -116.28546      1.76696    -114.5185    17502.784    4.3090826    4.3090826    4.3090826    17502.784   -1730.1907    20824.921    33413.621    3781.5749    30307.902   -12691.042    80.011876 
   86400    1314.0238    -115.7076    1.1889563   -114.51864   -22107.029    4.3274187    4.3274187    4.3274187   -22107.029   -40146.245   -46111.451    19936.609    69578.975   -13531.578    -21683.69    81.037635 
   86500    1639.2735   -115.98805    1.4832491    -114.5048   -4564.3218    4.3152919    4.3152919    4.3152919   -4564.3218    -8959.799    14916.526   -19649.692    445.64357   -22939.321    856.29636     80.35826 
   86600    1956.7865    -116.2681    1.7705415   -114.49756       6925.1    4.2968035    4.2968035    4.2968035       6925.1   -15965.518    31185.036    5555.7824   -26963.125    10226.393    13832.077    79.329821 
   86700    1447.8504   -115.82675    1.3100455    -114.5167   -8655.0894    4.2968248    4.2968248    4.2968248   -8655.0894   -11852.371   -37780.778    23667.881    4952.9859    12019.737   -23601.581    79.331002 
   86800    1293.1806    -115.7027    1.1700969   -114.53261   -6265.6881    4.3034747    4.3034747    4.3034747   -6265.6881    -4621.357    27584.683    -41760.39    20276.326   -56670.285   -32442.529    79.699897 
   86900    1641.0528   -116.01683     1.484859   -114.53197    -6677.638    4.3165915    4.3165915    4.3165915    -6677.638   -49059.072    48255.888    -19229.73   -11797.726   -39475.973    6716.7637    80.430887 
   87000    2175.8007   -116.48145    1.9687102   -114.51274   -6722.9868    4.3165299    4.3165299    4.3165299   -6722.9868   -24055.412   -26422.347    30308.799   -26390.499    32132.125    2058.2326    80.427443 
   87100    840.68724   -115.28688   0.76067149   -114.52621    7482.5181    4.3019226    4.3019226    4.3019226    7482.5181   -18027.528     28286.55    12188.532    8213.7129   -60322.803   -33576.115    79.613697 
   87200    1358.7743   -115.75243    1.2294475   -114.52298    2178.6488    4.3105295    4.3105295    4.3105295    2178.6488   -39036.723    33555.124    12017.545    9281.1012    -32859.45   -8734.3317    80.092505 
   87300    2444.5079   -116.69752    2.2118421   -114.48568   -9792.4468    4.3220693    4.3220693    4.3220693   -9792.4468   -30621.743   -18713.698    19958.101   -26955.781    25357.848    12698.343    80.737479 
   87400    1159.6714   -115.54984     1.049295   -114.50054   -628.25351    4.3140227    4.3140227    4.3140227   -628.25351   -7429.4317    32543.269   -26998.598   -9824.5811   -74889.759   -8627.4252    80.287377 
   87500    1559.1826   -115.91191    1.4107812   -114.50113   -234.40654    4.3093353    4.3093353    4.3093353   -234.40654     190.8285    15514.735   -16408.783    19721.762   -26602.122   -24502.188    80.025955 
   87600    2410.2531   -116.67887    2.1808476   -114.49802    23181.718    4.2964675    4.2964675    4.2964675    23181.718    40125.915   -806.42919    30225.669    16360.555    19424.828    6531.0449    79.311214 
   87700    939.03177   -115.38548   0.84965568   -114.53582    13949.635    4.2974079    4.2974079    4.2974079    13949.635    12274.385    41671.775   -12097.254   -23443.627   -88701.015    6700.2663    79.363302 
   87800    1444.3271   -115.84037    1.3068575   -114.53351    -16520.95    4.3153919    4.3153919    4.3153919    -16520.95   -3704.6891   -2987.8132   -42870.349    -6808.057   -23309.223   -6479.2976    80.363849 
   87900    1858.3583   -116.19789    1.6814816   -114.51641    14323.903    4.3085647    4.3085647    4.3085647    14323.903    39879.771    14832.745   -11740.806    16774.748    38155.222   -13287.196    79.983029 
   88000    1645.1429    -116.0063    1.4885599   -114.51774    11930.117    4.3091296    4.3091296    4.3091296    11930.117   -37653.494    67505.207    5938.6372    271.60337   -51768.938    5140.5354    80.014495 
   88100    2156.4098   -116.46384    1.9511649   -114.51268   -723.69553    4.3083287    4.3083287    4.3083287   -723.69553   -12872.398    38233.769   -27532.457   -5470.1986    -26604.69   -8731.7094    79.969887 
   88200    510.67212   -115.00333   0.46206686   -114.54127    18658.054    4.2913942    4.2913942    4.2913942    18658.054    38020.941    79018.628   -61065.407   -197.44362    62718.683   -22154.575    79.030588 
   88300    1433.4107   -115.85069    1.2969801   -114.55371    -10855.05    4.3043785    4.3043785    4.3043785    -10855.05   -1253.0278   -476.59418   -30835.527    15014.955    25073.661    11854.042    79.750125 
   88400    2605.9121   -116.87903    2.3578841   -114.52115    4389.6129    4.3105191    4.3105191    4.3105191    4389.6129   -23570.672    38607.186   -1867.6749    476.58764   -22612.513    5118.1289    80.091921 
   88500    976.24044   -115.42335   0.88332286   -114.54003   -1183.9591    4.3079227    4.3079227    4.3079227   -1183.9591   -5349.9098    30557.647   -28759.614   -14420.913    42123.583   -27409.106    79.947282 
   88600    1493.2415   -115.87742    1.3511163   -114.52631   -18159.783    4.3136596    4.3136596    4.3136596   -18159.783   -6574.0049   -3011.0495   -44894.295    8561.3254    46663.554   -5897.8957    80.267105 
   88700    2013.0289   -116.33607    1.8214308   -114.51464   -1417.7231    4.3013074    4.3013074    4.3013074   -1417.7231   -31517.012    31195.153   -3931.3102    6359.9621   -67246.269    17256.496    79.579545 
   88800    1369.7422   -115.76169    1.2393715   -114.52232    10626.974    4.2963092    4.2963092    4.2963092    10626.974   -10250.976    48675.746    -6543.848    -17978.41   -25178.606   -5596.7828     79.30245 
   88900    1802.9766   -116.15347    1.6313711    -114.5221   -9673.3867    4.3112074    4.3112074    4.3112074   -9673.3867    6805.5504    -3288.698   -32537.012   -2581.9497    61539.974   -33687.121    80.130295 
   89000    1359.8798   -115.75565    1.2304479    -114.5252    -7963.992    4.3113287    4.3113287    4.3113287    -7963.992    8727.2434    12642.967   -45262.186    15486.947   -47954.499   -22205.471    80.137059 
   89100    1630.1101   -115.99653    1.4749579   -114.52157    6374.5585    4.3067428    4.3067428    4.3067428    6374.5585      20405.9    16674.079   -17956.304    7179.5844   -51699.594    26195.791    79.881612 
   89200    1806.3695   -116.15476    1.6344411   -114.52032   -447.49799     4.303566     4.303566     4.303566   -447.49799    40113.236   -25763.199   -15692.531   -22259.333    21011.917   -3515.0221     79.70497 
   89300    1378.2056    -115.7796    1.2470294   -114.53258    6424.9983    4.3002757    4.3002757    4.3002757    6424.9983    67222.939   -26726.226   -21221.718   -13562.613   -5463.8992   -70146.582    79.522293 
   89400    2105.2418   -116.43015     1.904867   -114.52528    7494.5181    4.3076789    4.3076789    4.3076789    7494.5181    25657.117   -1883.8519   -1289.7112    11886.442   -25659.008    2060.1833    79.933709 
   89500     1810.448   -116.17034    1.6381314   -114.53221    1307.4335    4.3084659    4.3084659    4.3084659    1307.4335    24702.919   -46331.337    25550.719    -18296.35   -3955.3344    29604.603    79.977528 
   89600    841.71194   -115.30809   0.76159865   -114.54649    -5522.799    4.3024683    4.3024683    4.3024683    -5522.799    65778.791   -85505.114    3157.9261   -28404.256    10426.389   -54069.766    79.643993 
   89700    1622.7498   -116.00569    1.4682981   -114.53739    -1609.485    4.3030348    4.3030348    4.3030348    -1609.485    7998.6991   -32552.364     19725.21    20525.673    1443.6584   -30294.535    79.675457 
   89800    2032.5696   -116.36356    1.8391117   -114.52444   -673.29705    4.3045393    4.3045393    4.3045393   -673.29705   -26019.171   -36768.424    60767.704    44773.673   -11571.122     11698.22    79.759062 
   89900    1465.5673   -115.85488    1.3260761   -114.52881   -21302.312    4.3091454    4.3091454    4.3091454   -21302.312    50571.408   -75713.305   -38765.038   -5249.2925    2512.7346   -56288.236    80.015376 
   90000    1244.3051   -115.65718    1.1258734    -114.5313   -13781.759    4.3050625    4.3050625    4.3050625   -13781.759    29844.067   -42414.623   -28774.722    11338.914    10884.567   -10432.047    79.788148 
   90100    1663.5164   -116.03307    1.5051846   -114.52789   -3168.2393    4.3026701    4.3026701    4.3026701   -3168.2393   -33095.858   -26078.583    49669.723    47751.787    9168.2246    30656.946    79.655204 
   90200     1992.183   -116.32666    1.8025691   -114.52409   -6774.6673    4.3062411    4.3062411    4.3062411   -6774.6673   -3657.8658   -44665.275    27999.139   -235.98216   -6027.6581   -52944.658    79.853698 
   90300    1941.6169   -116.28496    1.7568158   -114.52814    13103.072    4.2997129    4.2997129    4.2997129    13103.072    44816.915   -21747.176    16239.476   -4304.0642    2300.4851   -1156.5308    79.491076 
   90400    538.18914   -115.04287   0.48696485   -114.55591   -14858.732     4.305233     4.305233     4.305233   -14858.732   -15520.382   -43727.675    14671.861     40448.53    17293.845    49739.624    79.797628 
   90500    1556.7082   -115.95301    1.4085423   -114.54447   -14113.304    4.3178325    4.3178325    4.3178325   -14113.304   -49077.196   -12391.994    19129.277    7480.3043    6725.0544   -7096.8883    80.500279 
   90600    2561.7375   -116.81812    2.3179139   -114.50021   -3301.0324    4.3233646    4.3233646    4.3233646   -3301.0324    10945.667   -13325.247   -7523.5172    -13017.76   -3923.1492   -4838.7457    80.810091 
   90700    756.70658   -115.19298   0.68468401    -114.5083   -28876.297    4.3288559    4.3288559    4.3288559   -28876.297   -18734.928   -34657.853   -33236.111    45828.628    12807.192    44316.363    81.118403 
   90800    1417.9587   -115.77831    1.2829989   -114.49532    -6765.627    4.3109044    4.3109044    4.3109044    -6765.627   -8307.3002    9877.5145   -21867.095    19970.345    35432.125    7395.7524    80.113402 
   90900     2126.619   -116.40736    1.9242095   -114.48315    25851.549    4.2957245    4.2957245    4.2957245    25851.549    46474.294    967.48083    30112.873   -15436.234   -1803.9436   -52585.226    79.270075 
   91000    1444.4355   -115.81798    1.3069556   -114.51103    -12107.93    4.3091015    4.3091015    4.3091015    -12107.93    2126.0869   -59011.752    20561.874    46317.049   -4474.1632    2175.0639    80.012931 
   91100    1555.7451   -115.91996    1.4076708   -114.51229    9899.3026    4.3089079    4.3089079    4.3089079    9899.3026   -3197.5496    1795.8316    31099.626    32492.064    23005.518    24709.809    80.002143 
   91200    1206.0899   -115.61455    1.0912955   -114.52326    8543.8708     4.310004     4.310004     4.310004    8543.8708    39600.784   -7059.1406   -6910.0308    -20650.32    18414.221   -57555.777    80.063217 
   91300    1576.2988    -115.9442    1.4262683   -114.51793   -7837.6481    4.3159586    4.3159586    4.3159586   -7837.6481   -3338.8366   -35527.306    15353.199    21421.153   -17739.027   -28761.633    80.395512 
   91400    1981.6872   -116.29582    1.7930722   -114.50274    13350.418    4.3074799    4.3074799    4.3074799    13350.418   -21148.157    32516.741    28682.669    27248.771    14423.961     15189.39    79.922634 
   91500    1211.7593   -115.61339    1.0964253   -114.51696   -8787.8242    4.3107091    4.3107091    4.3107091   -8787.8242    25090.236    6237.0869   -57690.795   -2083.6696     55139.26    -53292.77    80.102512 
   91600     1865.445   -116.19758    1.6878939   -114.50969    -17056.88    4.3131588    4.3131588    4.3131588    -17056.88    9024.4091   -36705.373   -23489.674      5049.04    2061.6749   -27517.058    80.239157 
   91700    1835.0806   -116.16675    1.6604195   -114.50633    7337.0846    4.3027864    4.3027864    4.3027864    7337.0846    20836.081   -26311.926    27487.098    42558.441   -5161.0179    16048.923     79.66166 
   91800    1313.4054   -115.71275    1.1883968   -114.52436    -10497.41    4.3052528    4.3052528    4.3052528    -10497.41    40316.717   -18143.772   -53665.176    3267.5972    44521.091    -31182.89    79.798728 
   91900    1600.1547   -115.97907    1.4478536   -114.53121   -5237.9152    4.3011102    4.3011102    4.3011102   -5237.9152    42237.198   -6618.7357   -51332.207   -4297.7538    17937.156   -36300.634    79.568596 
   92000    1396.7522   -115.79982    1.2638107   -114.53601    23899.647     4.296325     4.296325     4.296325    23899.647    30360.694    9892.5427    31445.705    45645.757   -35631.793    9750.4256     79.30332 
   92100    1658.4421   -116.03414    1.5005932   -114.53354   -16330.199    4.3155378    4.3155378    4.3155378   -16330.199   -6790.5822   -51560.299    9360.2839    10205.405    3646.5802   -8013.5361    80.371998 
   92200    1793.4692   -116.14828    1.6227686   -114.52551   -4546.2176    4.3113951    4.3113951    4.3113951   -4546.2176    36974.346   -24286.722   -26326.277    -26956.57    16105.696   -48612.944    80.140764 
   92300    1527.6764   -115.90615    1.3822738   -114.52388    11808.212     4.297802     4.297802     4.297802    11808.212   -7297.8237    33611.611     9110.848    26727.054   -41877.125   -10985.796    79.385139 
   92400    1975.7961   -116.30681    1.7877418   -114.51907   -14991.521    4.3075438    4.3075438    4.3075438   -14991.521   -44927.097   -32081.575    32034.109    25402.676   -8793.3465    11229.417    79.926187 
   92500    1024.1178   -115.45762   0.92664331   -114.53098    -9118.096    4.3076048    4.3076048    4.3076048    -9118.096    10407.095   -59644.016    21882.632   -36475.236    15704.744   -44375.836    79.929586 
   92600    1222.6529   -115.64281    1.1062821   -114.53653   -2151.3117    4.3101999    4.3101999    4.3101999   -2151.3117     48374.14   -45337.433   -9490.6422   -8256.2527   -25607.964   -7309.0975     80.07413 
   92700    2263.8026   -116.57203    2.0483362    -114.5237   -7179.1134    4.3129158    4.3129158    4.3129158   -7179.1134   -8308.2014   -4546.4509    -8682.688    11621.288    -17515.24    33543.048    80.225595 
   92800    1581.6425   -115.97253    1.4311034   -114.54143    23184.713    4.2895855    4.2895855    4.2895855    23184.713     9460.163    23364.651    36729.325   -18705.405    45417.554   -26189.744    78.930708 
   92900    1128.7165   -115.57849    1.0212865   -114.55721      3350.87     4.292935     4.292935     4.292935      3350.87    23014.282   -22569.236     9607.564   -39161.145    12178.748   -28971.881    79.115746 
   93000      2141.66   -116.47126     1.937819   -114.53344   -6693.0069    4.3124891    4.3124891    4.3124891   -6693.0069    4037.8369   -25058.987    942.12969   -1494.7582   -16693.937    6212.1701    80.201783 
   93100    1555.6149   -115.94202    1.4075531   -114.53447     10674.97    4.3101604    4.3101604    4.3101604     10674.97   -26391.858    35227.144    23189.625    48830.241    35371.164    4561.3465    80.071931 
   93200    1212.4569   -115.62696    1.0970565   -114.52991    -15098.23     4.314733     4.314733     4.314733    -15098.23   -32561.094   -12140.692   -592.90311    -24776.14    44149.714   -18749.557    80.327045 
   93300     2116.491    -116.4253    1.9150455   -114.51025   -6074.1863    4.3078335    4.3078335    4.3078335   -6074.1863    18564.751   -29333.095   -7454.2147   -30897.971   -14668.834   -29622.854    79.942317 
   93400     1416.355   -115.80121    1.2815478   -114.51967    12671.755    4.2944333    4.2944333    4.2944333    12671.755   -2854.2634    22567.801    18301.727     56209.98    13190.157    5241.3531    79.198616 
   93500    1249.0171   -115.66289    1.1301369   -114.53276   -13509.475    4.3090688    4.3090688    4.3090688   -13509.475   -28215.472    29080.784   -41393.737    11855.253    48082.802   -3962.3032    80.011106 
   93600    1750.8623   -116.09876     1.584217   -114.51454   -19629.794    4.3187491    4.3187491    4.3187491   -19629.794    33705.642   -21248.531   -71346.493   -10806.208   -4177.7298   -45756.169    80.551551 
   93700    1584.8127   -115.94613    1.4339719   -114.51216   -2777.4675    4.3095647    4.3095647    4.3095647   -2777.4675    12332.207   -14269.662   -6394.9476    46971.474   -4288.1775   -6778.6023    80.038734 
   93800    1715.9671   -116.06438    1.5526431   -114.51173   -11805.821    4.3079968    4.3079968    4.3079968   -11805.821    -35626.29    18065.652   -17856.825    20078.142    37022.795    11997.984    79.951409 
   93900    1694.0614   -116.04828    1.5328224   -114.51546   -7507.3794    4.3024728    4.3024728    4.3024728   -7507.3794    2931.2717    22544.752   -47998.162   -24449.862    25541.395   -37963.557    79.644245 
   94000    1642.3133   -116.01105    1.4859996   -114.52505      3926.71    4.2989926    4.2989926    4.2989926      3926.71    35997.353   -28950.015    4732.7919     37265.43   -14155.575   -15326.507     79.45113 
   94100    1617.9233   -115.99228     1.463931   -114.52835   -8113.0636     4.310461     4.310461     4.310461   -8113.0636    -23702.59   -19399.997    18763.396    40443.053    2715.1332    16815.662    80.088683 
   94200    1488.2634   -115.87059     1.346612   -114.52398   -7784.6413    4.3160832    4.3160832    4.3160832   -7784.6413   -37697.343    11960.353    2383.0666   -67352.235    25911.116    1721.6657    80.402477 
   94300    1652.8974    -116.0121    1.4955763   -114.51652   -9149.1327    4.3120674    4.3120674    4.3120674   -9149.1327     174.7645   -28684.244    1062.0813   -1712.3457    2930.4256   -24379.947    80.178261 
   94400    2203.1086   -116.49487     1.993419   -114.50145    13542.297    4.3052744    4.3052744    4.3052744    13542.297    2787.1945    8122.4557    29717.242    42547.816    -6136.122   -6401.0833    79.799927 
   94500    1258.6923   -115.65945    1.1388913   -114.52056   -13825.194    4.3097041    4.3097041    4.3097041   -13825.194   -68440.776   -10998.472    37963.665   -79297.839    17123.906    9976.7977    80.046503 
   94600     1182.915   -115.59312    1.0703263   -114.52279   -22719.852     4.312741     4.312741     4.312741   -22719.852   -52753.572    -5228.976   -10177.009   -35871.439    15469.377   -13377.344    80.215842 
   94700    2057.7679   -116.37324    1.8619116   -114.51133    10478.121    4.3019563    4.3019563    4.3019563    10478.121   -4183.8296    6830.7128    28787.479     11238.01   -15934.559   -22790.202    79.615563 
   94800    1553.6164   -115.92314    1.4057447   -114.51739    4741.3853    4.3063634    4.3063634    4.3063634    4741.3853   -34289.419   -45505.373    94018.948   -77874.592   -5170.6126    2854.7856    79.860503 
   94900    1840.0305   -116.16458    1.6648983   -114.49968   -6486.8684    4.3221262    4.3221262    4.3221262   -6486.8684   -26899.958   -10855.418    18294.771   -13672.226    26294.465    11782.918    80.740666 
   95000    1811.3997   -116.13949    1.6389925    -114.5005   -9308.3164    4.3173969    4.3173969    4.3173969   -9308.3164   -37957.504     155.6153    9876.9397    1956.9729   -11128.836   -17622.282    80.475914 
   95100    1063.8091   -115.48236   0.96255683    -114.5198   -4966.6166    4.2959737    4.2959737    4.2959737   -4966.6166     -25665.8   -40286.247    51052.197   -85941.361    -23142.02   -2148.5026    79.283873 
   95200    1933.5228   -116.26858    1.7494921   -114.51909    16339.495    4.2900472    4.2900472    4.2900472    16339.495    20180.487    5383.1253    23454.871   -14016.259    13012.496     38011.31    78.956196 
   95300    2081.6382   -116.40583      1.88351   -114.52232    787.09403    4.3137691    4.3137691    4.3137691    787.09403   -25521.806    15254.669    12628.419   -1780.4868    12036.526    7484.0952     80.27322 
   95400    673.19364   -115.13525   0.60911975   -114.52613   -27800.137    4.3299273    4.3299273    4.3299273   -27800.137   -59717.334    -38804.15    15121.073   -77280.815    -18456.48   -21040.364     81.17865 
   95500    1574.8822   -115.93888    1.4249865   -114.51389   -1970.0774    4.3096855    4.3096855    4.3096855   -1970.0774   -13551.448    4395.8444    3245.3709    25784.947   -12501.264    23752.623    80.045464 
   95600    2013.1214   -116.32002    1.8215145   -114.49851    18257.198    4.2892031    4.2892031    4.2892031    18257.198    3448.5475    12230.714    39092.332   -7751.0183    10582.572    16276.901    78.909596 
   95700    1563.9382   -115.93028    1.4150841    -114.5152    4970.8951    4.2968694    4.2968694    4.2968694    4970.8951   -19828.934   -6518.9713     41260.59    -82625.02   -2370.5872   -17959.175    79.333471 
   95800    1400.3043   -115.78656    1.2670248   -114.51954   -7142.4068    4.3169172    4.3169172    4.3169172   -7142.4068   -46509.117   -2811.8784    27893.775    28901.918   -37242.874    34.449607    80.449093 
   95900    1172.9929   -115.58373    1.0613487   -114.52238   -4900.8021    4.3189487    4.3189487    4.3189487   -4900.8021   -52531.001    -3761.213    41589.808    33772.152    11680.807    6582.6545    80.562725 
   96000    2089.3343    -116.4019    1.8904735   -114.51143    14346.407    4.3021189    4.3021189    4.3021189    14346.407   -13769.604     31786.65    25022.175   -28735.875    44288.112    864.67107    79.624592 
   96100    2221.3953   -116.52196    2.0099651     -114.512    24491.048    4.2890959    4.2890959    4.2890959    24491.048   -14237.837    18687.008    69023.974    20597.598   -40936.206   -681.35854    78.903679 
   96200    917.36184   -115.37553   0.83004827   -114.54548   -6697.3689     4.297629     4.297629     4.297629   -6697.3689   -66340.874    2589.5635    43659.204    49338.747     11020.98   -1896.6687    79.375553 
   96300     1380.578   -115.79245     1.249176   -114.54327   -10989.645    4.3109407    4.3109407    4.3109407   -10989.645   -43569.256    9604.4199    995.90064    1206.7388    53074.416    2782.4107    80.115424 
   96400    2314.3555   -116.61446    2.0940775   -114.52038    1679.4062    4.3098509    4.3098509    4.3098509    1679.4062    3142.2344   -45613.126     47509.11   -21163.751   -15697.191    -4852.814    80.054681 
   96500    953.23734   -115.40338   0.86250918   -114.54087   -23276.883    4.3028847    4.3028847    4.3028847   -23276.883   -37538.923   -49457.585    17165.859    21967.905    20349.513   -12515.202    79.667121 
   96600    1186.4075   -115.61706    1.0734864   -114.54358   -6652.7203    4.2948874    4.2948874    4.2948874   -6652.7203   -22813.264    8219.5476   -5364.4449    34146.372    55923.605   -2441.8821    79.223741 
   96700     2426.267   -116.71587    2.1953374   -114.52054    8642.2896     4.304692     4.304692     4.304692    8642.2896    31031.591   -31301.286    26196.563   -31159.844   -14257.098    23098.494     79.76755 
   96800    1192.8231   -115.60041    1.0792914   -114.52112   -28589.416    4.3270707    4.3270707    4.3270707   -28589.416   -49709.985   -57075.091    21016.828   -913.44424    20786.369   -6857.8169    81.018083 
   96900    1270.8767    -115.6489     1.149916   -114.49898   -16537.158    4.3215113    4.3215113    4.3215113   -16537.158   -39785.159   -14317.775    4491.4592    19214.279     61124.31   -3388.1712     80.70621 
   97000    1836.3476   -116.14181    1.6615659   -114.48025    10071.539    4.3010289    4.3010289    4.3010289    10071.539    48955.898   -11999.816   -6741.4651   -2990.7247   -37436.008    36004.897    79.564085 
   97100    1298.3468   -115.67423    1.1747715   -114.49946   -3824.6151      4.29444      4.29444      4.29444   -3824.6151   -3967.1682   -13021.769    5515.0914    -370.4372   -11200.044    12497.011    79.198988 
   97200    2207.0202   -116.49908    1.9969583   -114.50212    8214.2972    4.3017904    4.3017904    4.3017904    8214.2972    -8610.919    10243.031     23010.78    8733.5697    40563.357   -18264.935    79.606355 
   97300    1349.8579   -115.74551    1.2213798   -114.52413   -23135.839    4.3158946    4.3158946    4.3158946   -23135.839    10441.808   -1645.3083   -78204.018    4745.8934   -37311.376    52847.039    80.391935 
   97400    669.96074   -115.13731   0.60619455   -114.53112   -29260.475    4.3148692    4.3148692    4.3148692   -29260.475   -4439.3744   -2488.7537   -80853.298   -9992.7969   -54025.842    31147.786     80.33465 
   97500     2692.799   -116.93083    2.4365011   -114.49433    13361.485    4.3037098    4.3037098    4.3037098    13361.485   -3840.1438    24433.481    19491.118   -11553.213    15582.918   -35214.799     79.71296 
   97600    1246.0335   -115.64259    1.1274373   -114.51516    -11346.51    4.3041757    4.3041757    4.3041757    -11346.51    2251.4435    19185.471   -55476.445    5145.0871   -9212.9431    49218.474    79.738853 
   97700    885.87784   -115.32504   0.80156089   -114.52348   -1568.2999    4.3096712    4.3096712    4.3096712   -1568.2999     -22165.4    30027.372   -12566.872    3066.7078   -65190.625    35716.096    80.044668 
   97800    2674.3985   -116.90022     2.419852   -114.48036   -4346.0771     4.320711     4.320711     4.320711   -4346.0771   -40430.455    12368.999    15023.224   -1670.5656    12847.521   -26078.388    80.661381 
   97900    971.46638   -115.38429   0.87900319   -114.50529   -6086.0571    4.3107271    4.3107271    4.3107271   -6086.0571    -9703.887    15031.526    -23585.81   -3612.0197      18340.8    25403.529    80.103519 
   98000    1209.4727   -115.59829    1.0943563   -114.50394   -4946.6725    4.3026338    4.3026338    4.3026338   -4946.6725   -24600.885    35299.315   -25538.448    15484.568   -36071.554    57288.737    79.653184 
   98100    2345.6445   -116.60969    2.1223885    -114.4873    6055.1426    4.3030132    4.3030132    4.3030132    6055.1426   -9322.2977    28282.196   -794.47092     9833.929    1813.2195   -45490.878    79.674257 
   98200    973.95684   -115.39639   0.88125661   -114.51514     -15624.5    4.3070256    4.3070256    4.3070256     -15624.5    20631.897   -13587.508   -53917.889   -10204.664    20402.748   -2329.8026    79.897348 
   98300    1647.8612   -115.99694    1.4910194   -114.50592   -18741.433    4.3157012    4.3157012    4.3157012   -18741.433    321.61103   -5642.6275   -50903.283     6189.255   -13133.304    81345.491     80.38113 
   98400    2436.8947   -116.69167    2.2049536   -114.48671    4973.3242    4.3103865    4.3103865    4.3103865    4973.3242   -12502.602    36745.559   -9322.9844   -285.09375     7277.535   -47817.868    80.084532 
   98500    721.64973   -115.16702   0.65296384   -114.51405   -9466.8944    4.2989645    4.2989645    4.2989645   -9466.8944    19089.094     18305.12   -65794.897    -4459.203    28078.671   -4045.6493    79.449572 
   98600    1525.0532   -115.89478    1.3799002   -114.51488     2463.234    4.2976694    4.2976694    4.2976694     2463.234    33137.868    16573.227   -42321.393    4363.6988    2506.4859    63330.903    79.377792 
   98700    2281.1846   -116.56532    2.0640638   -114.50126    13840.174    4.3042891    4.3042891    4.3042891    13840.174   -34520.739    47995.865    28045.396   -12672.957   -3246.9393   -9782.2865    79.745154 
   98800    875.72916   -115.31875   0.79237815   -114.52638    -22767.71    4.3129409    4.3129409    4.3129409    -22767.71   -43813.246    39280.434   -63770.319    1102.0961    18077.617   -18536.971    80.226994 
   98900    2035.9048   -116.34768    1.8421294   -114.50555    4825.8527    4.3083818    4.3083818    4.3083818    4825.8527    1898.0546    22305.183   -9725.6801    7955.0638    10702.992    32329.468    79.972844 
   99000    2125.4449   -116.42065    1.9231472   -114.49751    742.02548    4.3040098    4.3040098    4.3040098    742.02548   -55494.697    43444.766    14276.007   -3056.2471   -23293.139    6669.5076    79.729632 
   99100    429.24289   -114.91538   0.38838799   -114.52699    -24798.38    4.3063076    4.3063076    4.3063076    -24798.38   -84820.953    71053.175   -60627.362   -995.76404    1919.6722   -24364.116    79.857396 
   99200     2331.528   -116.61858    2.1096156   -114.50896    6372.8614    4.3086625    4.3086625    4.3086625    6372.8614   -32970.322     12295.82    39793.086    2475.9433    15512.309   -6812.8383    79.988479 
   99300    1908.8346   -116.23227    1.7271537   -114.50512   -16951.317    4.3194276    4.3194276    4.3194276   -16951.317   -48038.076    1853.6694   -4669.5431    6435.8472   -21650.907    22780.901    80.589526 
   99400    758.56595   -115.20343   0.68636641   -114.51706   -21653.479    4.3087672    4.3087672    4.3087672   -21653.479   -79144.704    48633.955   -34449.688   -689.34848    154.77096   -10080.724    79.994309 
   99500    2172.1164   -116.45816    1.9653766   -114.49278    24989.874    4.2935902    4.2935902    4.2935902    24989.874   -18371.614     55441.67    37899.568   -6662.9526    9929.2489   -9108.9767    79.151977 
   99600    1485.4067   -115.84908    1.3440272   -114.50505   -6835.3567    4.3054379    4.3054379    4.3054379   -6835.3567    26456.878   -33944.379   -13018.569    4239.9544   -8709.8549    77946.791     79.80902 
   99700    1460.0468   -115.82672     1.321081   -114.50564   -6444.7965    4.3089879    4.3089879    4.3089879   -6444.7965   -41336.494    22062.299   -60.194987   -3697.4091    2400.5474    2262.9684    80.006599 
   99800    1695.0753   -116.03447    1.5337398   -114.50073    2840.1958    4.3042753    4.3042753    4.3042753    2840.1958   -28320.242     39039.68   -2198.8505   -3277.6281    1531.3993   -517.22392    79.744384 
   99900    1136.6164   -115.54516    1.0284344   -114.51672   -25252.099    4.3062429    4.3062429    4.3062429   -25252.099    41200.265   -68419.241   -48537.321    2362.3482    -6155.395    121314.94    79.853798 
  100000    2741.6171   -116.97852    2.4806728   -114.49785    10083.014    4.3012056    4.3012056    4.3012056    10083.014   -11045.738     581.4034    40713.378   -7997.3472    7660.7404   -20426.511    79.573895 
Loop time of 22.2903 on 1 procs for 100000 steps with 8 atoms

Pair  time (%) = 6.84881 (30.7255)
Kspce time (%) = 5.35728 (24.0342)
Neigh time (%) = 0.225507 (1.01168)
Comm  time (%) = 1.11727 (5.01238)
Outpt time (%) = 0.02443 (0.109599)
Other time (%) = 8.71698 (39.1066)

Nlocal:    8 ave 8 max 8 min
Histogram: 1 0 0 0 0 0 0 0 0 0
Nghost:    2189 ave 2189 max 2189 min
Histogram: 1 0 0 0 0 0 0 0 0 0
Neighs:    2257 ave 2257 max 2257 min
Histogram: 1 0 0 0 0 0 0 0 0 0

Total # of neighbors = 2257
Ave neighs/atom = 282.125
Neighbor list builds = 2622
Dangerous builds = 0
unfix 20
unfix 21
print "seeds:3785876"
seeds:3785876
