LAMMPS (10 Feb 2015)
# ---- initialize simulations
clear
units metal
dimension 3
boundary p p p
atom_style charge
atom_modify map array
# ---- create atoms
read_data /Users/eugeneragasa/pyflamestk_git/pypospack/tests/tests_integration/workflow/WorkflowLammpsThermalExpansion/MgO_NaCl_unit.npt.T1300/lammps.structure
  triclinic box = (0 0 0) to (4.2565 4.2565 4.2565) with tilt (0 0 0)
  1 by 1 by 1 MPI processor grid
  reading atoms ...
  8 atoms
# ---- define interatomic potential
include potential.mod
mass 1 24.305
mass 2 15.999

group Mg type 1
4 atoms in group Mg
group O type 2
4 atoms in group O

set group Mg charge 2.0
  4 settings made for charge
set group O charge -2.0
  4 settings made for charge

variable R_cut equal 10.0

pair_style buck/coul/long ${R_cut}
pair_style buck/coul/long 10
pair_coeff 1 1 0.0 0.5 0.0 ${R_cut}
pair_coeff 1 1 0.0 0.5 0.0 10
pair_coeff 1 2 821.6 0.3242 0.0 ${R_cut}
pair_coeff 1 2 821.6 0.3242 0.0 10
pair_coeff 2 2 2274.0 0.149 27.88 ${R_cut}
pair_coeff 2 2 2274.0 0.149 27.88 10

kspace_style pppm 1.0e-5

neighbor 1.0 bin
neigh_modify every 1 delay 0 check yes
# ---- define settings
compute eng all pe/atom
compute eatoms all reduce sum c_eng
# ---- run minimization
reset_timestep 0
fix 1 all box/relax iso 0.0 vmax 0.001
thermo 10
thermo_style custom step pe lx ly lz xy xz yz press pxx pyy pzz pxy pxz pyz c_eatoms
min_style cg
minimize 1e-25 1e-25 5000 10000
PPPM initialization ...
  G vector (1/distance) = 0.354854
  grid = 8 8 8
  stencil order = 5
  estimated absolute RMS force accuracy = 5.34408e-05
  estimated relative force accuracy = 3.71126e-06
  using double precision FFTs
  3d grid and FFT values/proc = 3375 512
Neighbor list info ...
  1 neighbor list requests
  update every 1 steps, delay 0 steps, check yes
  master list distance cutoff = 11
Memory usage per processor = 4.06549 Mbytes
Step PotEng Lx Ly Lz Xy Xz Yz Press Pxx Pyy Pzz Pxy Pxz Pyz eatoms 
       0   -162.12848       4.2565       4.2565       4.2565            0            0            0    -64012.53    -64012.53    -64012.53    -64012.53 -3.8759874e-11 -1.4292379e-10 -3.6687737e-10   -162.12848 
      10   -162.17871     4.213935     4.213935     4.213935            0            0            0   -4821.7526   -4821.7526   -4821.7526   -4821.7526 8.9106085e-11 8.5332225e-11 -4.2335946e-10   -162.17871 
      14   -162.17896    4.2106915    4.2106915    4.2106915            0            0            0    -1.347652    -1.347652    -1.347652    -1.347652 2.5597609e-11 1.0162971e-11 2.8091283e-10   -162.17896 
Loop time of 0.033994 on 1 procs for 14 steps with 8 atoms

Minimization stats:
  Stopping criterion = linesearch alpha is zero
  Energy initial, next-to-last, final = 
        -162.128476026     -162.178964554     -162.178964554
  Force two-norm initial, final = 9.24344 0.000276677
  Force max component initial, final = 9.24344 0.000190436
  Final line search alpha, max atom move = 0.125 2.38044e-05
  Iterations, force evaluations = 14 33

Pair  time (%) = 0.0100901 (29.6821)
Kspce time (%) = 0.00518298 (15.2468)
Neigh time (%) = 0 (0)
Comm  time (%) = 0.000742197 (2.18332)
Outpt time (%) = 3.00407e-05 (0.0883708)
Other time (%) = 0.0179486 (52.7995)

Nlocal:    8 ave 8 max 8 min
Histogram: 1 0 0 0 0 0 0 0 0 0
Nghost:    2189 ave 2189 max 2189 min
Histogram: 1 0 0 0 0 0 0 0 0 0
Neighs:    2344 ave 2344 max 2344 min
Histogram: 1 0 0 0 0 0 0 0 0 0

Total # of neighbors = 2344
Ave neighs/atom = 293
Neighbor list builds = 0
Dangerous builds = 0
unfix 1
# ---- define output variables ----
variable natoms equal "count(all)"
variable tot_energy equal "c_eatoms"
variable length_x equal "lx"
variable length_y equal "ly"
variable length_z equal "lz"
variable tilt_xy equal "xy"
variable tilt_xz equal "xz"
variable tilt_yz equal "yz"
variable tot_press equal "press"
variable press_xx equal "pxx"
variable press_yy equal "pyy"
variable press_zz equal "pzz"
variable press_xy equal "pxy"
variable press_xz equal "pxz"
variable press_yz equal "pyz"

# ---- output ----
print "pypospack:output_section:begin"
pypospack:output_section:begin
print "tot_energy = ${tot_energy}"
tot_energy = -162.17896455406
print "num_atoms = ${natoms}"
num_atoms = 8
print "xx = ${length_x}"
xx = 4.21069146013408
print "yy = ${length_y}"
yy = 4.21069146013408
print "zz = ${length_z}"
zz = 4.21069146013408
print "xy = ${tilt_xy}"
xy = 0
print "xz = ${tilt_xz}"
xz = 0
print "yz = ${tilt_yz}"
yz = 0
print "tot_press = ${tot_press}"
tot_press = -1.34765197939399
print "pxx = ${press_xx}"
pxx = -1.34765197919426
print "pyy = ${press_yy}"
pyy = -1.3476519793348
print "pzz = ${press_zz}"
pzz = -1.34765197965291
print "pxy = ${press_xy}"
pxy = 2.55976090046832e-11
print "pxz = ${press_xz}"
pxz = 1.01629705561986e-11
print "pyz = ${press_yz}"
pyz = 2.80912827691917e-10
print "pypospack:output_section:done"
pypospack:output_section:done
print "pypospack:lammps_sim:done"
pypospack:lammps_sim:done
#------------------------------------------------------------------------------
# RUN THERMOSTAT
# running using an NPT Nose-Hoover style thermostat
#------------------------------------------------------------------------------
variable tempdamp equal 0.1
variable pressdamp equal 1.0
# set initial velocities
velocity all create 1300 2889908 mom yes dist gaussian loop all
# fix for Nose-Hoover style thermostat
fix 20 all npt temp 1300 1300 0.1 aniso 0.0 0.0 1.0 drag 1.0 couple xyz
variable boxx equal lx
variable boxy equal ly
variable boxz equal lz
variable boxp equal press
variable boxt equal temp
# calculate averages every 10000 steps
reset_timestep 0
fix 21 all ave/time 10 10 100 v_boxx v_boxy v_boxz v_boxp v_boxt file lattice.out
thermo_style custom step temp pe ke etotal press lx ly lz press pxx pyy pzz pxy pxz pyz vol
thermo_modify flush yes
thermo 100
run 100000
PPPM initialization ...
  G vector (1/distance) = 0.355384
  grid = 8 8 8
  stencil order = 5
  estimated absolute RMS force accuracy = 5.2136e-05
  estimated relative force accuracy = 3.62065e-06
  using double precision FFTs
  3d grid and FFT values/proc = 3375 512
Memory usage per processor = 3.06549 Mbytes
Step Temp PotEng KinEng TotEng Press Lx Ly Lz Press Pxx Pyy Pzz Pxy Pxz Pyz Volume 
       0         1300   -162.17896    1.1762673   -161.00269    16828.761    4.2106915    4.2106915    4.2106915    16828.761    29174.915    11741.644    9569.7237    6807.8618   -8578.1104   -5053.0728    74.655234 
     100    781.49709   -161.55581   0.70711499   -160.84869    3429.8314    4.2422606    4.2422606    4.2422606    3429.8314    31634.464   -11329.042   -10015.929    3459.7801   -6227.4848    6889.1575    76.347011 
     200    1223.3779   -161.63555     1.106938   -160.52861   -29289.852    4.2618267    4.2618267    4.2618267   -29289.852    -24013.14   -31616.757   -32239.658   -5624.7679    -509.9521    3701.2224    77.408267 
     300     1352.565   -161.46637    1.2238292   -160.24254     2399.724    4.2445878    4.2445878    4.2445878     2399.724    29401.679   -15279.765   -6922.7422    587.75752     328.4575   -3096.2358    76.472726 
     400     1472.018   -161.36739    1.3319128   -160.03548       -11522     4.258027     4.258027     4.258027       -11522    786.09963   -5251.7687    -30100.33    10470.935   -5116.4789    3443.3062    77.201412 
     500    1449.7816   -161.20415    1.3117929   -159.89235   -18559.447    4.2708001    4.2708001    4.2708001   -18559.447    2837.7682   -28710.767   -29805.341   -10288.767   -10833.509     8668.624    77.898255 
     600    1728.5013   -161.38325    1.5639843   -159.81927    11219.101    4.2537515    4.2537515    4.2537515    11219.101    3716.4405    13778.254    16162.609    7179.9711    2035.5822   -389.80645    76.969087 
     700    1622.3451   -161.29579     1.467932   -159.82786    12628.023    4.2576809    4.2576809    4.2576809    12628.023    40114.455   -20507.529    18277.142    1689.2121   -9671.1913   -3437.4814    77.182588 
     800    890.76569   -160.62908   0.80598352   -159.82309    2504.8968    4.2711135    4.2711135    4.2711135    2504.8968    44202.353    -3170.731   -33516.931    6504.6534    6917.2445   -6016.2138    77.915406 
     900    1238.9407   -160.92712    1.1210196    -159.8061   -23306.121    4.2740024    4.2740024    4.2740024   -23306.121    13011.695   -38804.982   -44125.075   -2141.6618   -8489.4736   -19011.419    78.073612 
    1000    1075.0871   -160.78277   0.97276136   -159.81001    5471.0941    4.2707373    4.2707373    4.2707373    5471.0941    53819.291   -19527.997   -17878.011   -16064.226    6222.4453   -26285.101     77.89482 
    1100    755.32773   -160.50259    0.6834364   -159.81916    25161.622    4.2664043    4.2664043    4.2664043    25161.622     56372.24   -8835.3575    27947.983    8949.8428   -3405.2052   -13260.804    77.657967 
    1200    1207.9858   -160.90967     1.093011   -159.81665    14488.755    4.2693962    4.2693962    4.2693962    14488.755    16938.636    436.77606    26090.852   -8520.7156   -17397.998    5466.8068    77.821462 
    1300       1335.2   -161.01839     1.208117   -159.81027    7935.9769    4.2810786    4.2810786    4.2810786    7935.9769    53316.623   -18009.408   -11499.285    1376.9441     9871.488   -2115.4869    78.462044 
    1400    1068.3995   -160.76639   0.96671036   -159.79968   -2029.8442    4.2811875    4.2811875    4.2811875   -2029.8442   -16381.527    -13321.16    23613.155     14310.39    12834.609   -1725.9591    78.468029 
    1500    1242.3001   -160.93045    1.1240593   -159.80639   -5350.6501    4.2639141    4.2639141    4.2639141   -5350.6501    4431.7229   -33636.864     13153.19    9600.1759    15873.292    3242.7591    77.522066 
    1600    1925.1183   -161.55177    1.7418875   -159.80988    7617.4818    4.2487007    4.2487007    4.2487007    7617.4818    1625.4973   -3267.6067    24494.555    11389.486    25385.393    4943.1445    76.695239 
    1700    967.93243    -160.7014    0.8758056    -159.8256    12415.379     4.259098     4.259098     4.259098    12415.379    36030.382    -21277.37    22493.124   -17883.999    -12326.99    491.91078    77.259679 
    1800    1614.9342   -161.28108    1.4612264   -159.81985   -42516.725    4.2726749    4.2726749    4.2726749   -42516.725   -54279.332   -32926.684   -40344.157   -1730.2453   -5672.5257   -3589.3068    78.000889 
    1900    1270.4692   -160.98431    1.1495472   -159.83477    21457.389    4.2725432    4.2725432    4.2725432    21457.389    73677.233   -27397.766    18092.701    8762.9376   -7729.3201    2502.3219    77.993678 
    2000    1174.9796    -160.8944    1.0631462   -159.83126   -3675.8269    4.2797979    4.2797979    4.2797979   -3675.8269    6870.3712   -39680.464    21782.612   -12513.385   -23197.871   -331.61625    78.391648 
    2100    1129.9494   -160.83438    1.0224019   -159.81198   -29891.106    4.2667345    4.2667345    4.2667345   -29891.106   -21394.741   -13109.321   -55169.256   -4165.2385   -26425.359   -16302.524       77.676 
    2200    1317.3886   -160.98483    1.1920009   -159.79283    2650.4288    4.2380187    4.2380187    4.2380187    2650.4288    27441.145    18627.693   -38117.551    -4860.922    -24814.99   -14835.339    76.118216 
    2300     1232.205   -160.94253     1.114925   -159.82761    1038.7774    4.2614355    4.2614355    4.2614355    1038.7774    38964.964   -21337.081   -14511.551    1393.8815   -5498.4402   -8650.3508    77.386953 
    2400    870.25502   -160.60503   0.78742503   -159.81761   -24076.681    4.3021299    4.3021299    4.3021299   -24076.681    2622.7836   -40645.837    -34206.99    16030.993   -11087.337   -13159.378    79.625207 
    2500     1512.233   -161.18029    1.3683002   -159.81199   -8773.1982    4.2675651    4.2675651    4.2675651   -8773.1982    8743.2472   -14669.818   -20393.024   -9890.3321   -5741.4949   -2595.4992    77.721375 
    2600    1411.2437   -161.04073     1.276923   -159.76381    41637.577     4.215565     4.215565     4.215565    41637.577    23142.535    55291.446     46478.75   -1040.2016   -6341.7056    9540.7075    74.914758 
    2700    1202.4298   -160.89735    1.0879837   -159.80936   -12135.404    4.2454836    4.2454836    4.2454836   -12135.404   -53272.783    20369.047   -3502.4772    9899.6955    3835.3709    2821.2484    76.521155 
    2800    1586.2498   -161.22143    1.4352721   -159.78616   -52420.919    4.2900097    4.2900097    4.2900097   -52420.919   -53111.227   -56741.296   -47410.234   -10.296667    18104.073   -4327.1542    78.954123 
    2900    1344.5215   -160.99063    1.2165513   -159.77408    9584.2439    4.2753331    4.2753331    4.2753331    9584.2439    40530.676    5124.7121   -16902.656    19037.041    19925.509   -7330.8194    78.146564 
    3000    1210.7024   -160.88301     1.095469   -159.78754    4392.2531    4.2555778    4.2555778    4.2555778    4392.2531    9879.6509    -9899.679    13196.787    13930.923    27175.346    3725.4157    77.068271 
    3100    1007.8142   -160.73031   0.91189144   -159.81842   -23562.557     4.262922     4.262922     4.262922   -23562.557   -19537.001   -5831.5475   -45319.123    18227.063    44213.007    13416.579    77.467967 
    3200    1387.7225   -161.06525    1.2556404   -159.80961   -22849.468    4.2644422    4.2644422    4.2644422   -22849.468   -22715.918   -41536.841   -4295.6442   -4593.8488    16542.071   -5079.7354    77.550876 
    3300    912.31981   -160.62272   0.82548613   -159.79724    8905.1532    4.2591919    4.2591919    4.2591919    8905.1532   -11367.496    -27482.73    65565.685   -25033.827    3807.3463    -966.3548    77.264791 
    3400    693.14449   -160.42778    0.6271717   -159.80061    31177.363    4.2645967    4.2645967    4.2645967    31177.363    33056.382   -9092.5169    69568.225   -16348.741   -2461.1682    1831.8417    77.559302 
    3500    1446.8938   -161.09516    1.3091799   -159.78598    2154.8513    4.2669268    4.2669268    4.2669268    2154.8513    7682.2849   -19979.551     18761.82   -1956.4706    6148.3227   -8620.3013    77.686505 
    3600    1127.6467   -160.80074    1.0203184   -159.78042    11250.879    4.2565406    4.2565406    4.2565406    11250.879    553.83411    16604.214    16594.589   -1133.6891    22574.771   -8736.6759    77.120587 
    3700    894.42737   -160.59387   0.80929668   -159.78458    15368.994    4.2551573    4.2551573    4.2551573    15368.994   -24154.887    28001.807    42260.064     1485.055    19810.405    11838.438    77.045426 
    3800    1689.5324   -161.32736    1.5287244   -159.79864   -26036.843    4.2745454    4.2745454    4.2745454   -26036.843    -55633.22   -43892.047    21414.737    13120.687   -9853.3473   -12298.058    78.103373 
    3900     1158.088   -160.85079    1.0478623   -159.80293   -12425.306     4.291936     4.291936     4.291936   -12425.306   -53619.432   -52325.063    68668.578   -6833.0138   -6053.8735   -13240.037    79.060527 
    4000     1291.473   -160.96958    1.1685519   -159.80103    2682.8193     4.272541     4.272541     4.272541    2682.8193   -22795.757   -29621.141    60465.356   -4990.8355   -9591.8897    8417.1748    77.993557 
    4100    1154.7475   -160.83565    1.0448398   -159.79081    45185.967    4.2469895    4.2469895    4.2469895    45185.967    12611.426    24051.906     98894.57    2373.7898    5855.3966   -6538.1661     76.60261 
    4200    1489.3877   -161.15853    1.3476293    -159.8109    4615.5928    4.2631325    4.2631325    4.2631325    4615.5928   -43445.263   -14089.462    71381.503     9187.471    3751.3949    4933.1876    77.479445 
    4300    1300.2129   -160.99079      1.17646   -159.81433   -6264.8784    4.2886984    4.2886984    4.2886984   -6264.8784   -4712.1935   -16673.093    2590.6517     7865.076    23236.039   -2446.6783    78.881747 
    4400    861.77567   -160.57455   0.77975273    -159.7948    10988.481    4.2798474    4.2798474    4.2798474    10988.481    3991.4477   -21262.783    50236.778   -11057.679    14723.808    3262.2731    78.394367 
    4500    1345.0672   -160.98823    1.2170451   -159.77118    19363.506    4.2582905    4.2582905    4.2582905    19363.506   -8932.5454   -21703.305    88726.369   -4467.5538   -11656.581    9037.2659    77.215746 
    4600    1120.4877   -160.81398    1.0138408   -159.80013   -6250.9681    4.2734796    4.2734796    4.2734796   -6250.9681   -48629.541   -25973.647    55850.283    1704.2182   -19515.775    -1321.064    78.044966 
    4700    1013.5819   -160.71847   0.91711017   -159.80136   -17229.142    4.2812879    4.2812879    4.2812879   -17229.142    -29312.79   -32090.781    9716.1464   -3908.7164   -13789.285    14997.917    78.473552 
    4800     1458.836    -161.1097    1.3199855   -159.78972    4944.8584    4.2567849    4.2567849    4.2567849    4944.8584   -11668.771   -35242.796    61746.143     9436.289   -6469.6392    -4082.742    77.133866 
    4900    1233.8735   -160.90423    1.1164347   -159.78779    51976.914    4.2441414    4.2441414    4.2441414    51976.914    81793.532    39539.025    34598.184    8102.8428   -12043.614   -31743.499    76.448601 
    5000     1193.209   -160.89346    1.0796406   -159.81382    5078.5149    4.2800503    4.2800503    4.2800503    5078.5149    289.80566   -25906.817    40852.556    5063.2568    -1817.644    3840.5286    78.405515 
    5100    1412.8684    -161.0674    1.2783931   -159.78901   -32866.318    4.2939009    4.2939009    4.2939009   -32866.318   -60913.324   -52523.463    14837.834    4808.3555    4839.3541   -14836.687    79.169162 
    5200    1408.6736   -161.05198    1.2745975   -159.77738    3916.2981    4.2535595    4.2535595    4.2535595    3916.2981   -922.51461    51657.916   -38986.507   -19064.866   -16870.899    18511.309    76.958667 
    5300    1399.6827   -161.05039    1.2664623   -159.78393    5258.2868    4.2452784    4.2452784    4.2452784    5258.2868    29303.293   -9423.6025   -4104.8299   -6265.1582   -15675.947    21177.299    76.510056 
    5400    1317.2572   -160.99111     1.191882   -159.79922   -14693.078    4.2730797    4.2730797    4.2730797   -14693.078   -7375.7575   -26659.025   -10044.452    -2726.878   -10808.418   -11624.708    78.023062 
    5500    1263.8698   -160.93354    1.1435759   -159.78996    10810.353    4.2670899    4.2670899    4.2670899    10810.353     2488.104    15430.314     14512.64   -13351.932   -11562.457   -2833.3589    77.695413 
    5600    1283.3394   -160.95492    1.1611925   -159.79373     15560.79    4.2637018    4.2637018    4.2637018     15560.79    15212.252   -27450.301    58920.421   -13076.708    -5668.851    2602.0151    77.510489 
    5700    1501.4078   -161.16259    1.3585054   -159.80409   -25583.368    4.2835248    4.2835248    4.2835248   -25583.368    3442.8769   -51623.202   -28569.778   -20626.157    1928.1451   -10331.236    78.596617 
    5800    1502.8462   -161.16138    1.3598068   -159.80158   -20535.153    4.2570104    4.2570104    4.2570104   -20535.153   -11604.031   -18814.041   -31187.388   -9652.7948    6823.9343    3082.6966    77.146128 
    5900    1450.6648   -161.07916     1.312592   -159.76657     36940.13    4.2147541    4.2147541    4.2147541     36940.13    48255.144    9570.5607    52994.686    2560.6157    5744.7643    6313.1365    74.871532 
    6000    1697.5073    -161.3641    1.5359403   -159.82816   -14528.979    4.2563516    4.2563516    4.2563516   -14528.979    4113.1686   -44580.065   -3120.0398   -1011.6551   -1867.2585   -1586.0731    77.110318 
    6100    1452.7715   -161.09791    1.3144982   -159.78341   -45144.687     4.303101     4.303101     4.303101   -45144.687    -49940.89   -48128.091    -37365.08   -10669.541    4181.4241    10084.996    79.679139 
    6200    1195.6578   -160.83737    1.0818563   -159.75552    7975.2413    4.2722135    4.2722135    4.2722135    7975.2413    55299.006   -22039.845   -9333.4369    5390.9952    2431.2941    1993.9314     77.97562 
    6300    1454.4713   -161.06066    1.3160362   -159.74462    25381.873    4.2494127    4.2494127    4.2494127    25381.873    82763.544   -23724.997    17107.073    -194.0407   -6904.2927   -11762.001    76.733805 
    6400    1858.1138   -161.46092    1.6812604   -159.77966   -30392.146    4.2623864    4.2623864    4.2623864   -30392.146   -40617.163   -8161.4197   -42397.855    8513.7922   -4277.8344   -8190.5789    77.438773 
    6500    1133.8872   -160.81776     1.025965   -159.79179    5325.3505    4.2562003    4.2562003    4.2562003    5325.3505    -12213.74    18277.996    9911.7956    22920.525    10456.311    5019.1481    77.102096 
    6600    1478.6905   -161.15085    1.3379502    -159.8129    5285.4585    4.2603609    4.2603609    4.2603609    5285.4585   -20708.258    17111.868    19452.765   -5788.7639    2852.0134    7161.2791    77.328425 
    6700    1373.8345   -161.06127    1.2430743    -159.8182    -21722.45    4.2958339    4.2958339    4.2958339    -21722.45   -21410.224   -2070.3227   -41686.803    46.687052    1917.1062   -1763.0895    79.276129 
    6800    1451.3777   -161.11507     1.313237   -159.80183   -20289.432    4.2734318    4.2734318    4.2734318   -20289.432    46503.279   -40987.183   -66384.392   -4719.3322    5552.7422   -49.191542    78.042348 
    6900     1384.439   -161.00635    1.2526695   -159.75368    65333.799    4.2187859    4.2187859    4.2187859    65333.799    129024.58    42972.293    24004.521   -7926.6461   -9124.2767    3365.0533    75.086604 
    7000    1046.9831   -160.79917   0.94733229   -159.85184    43701.574    4.2636956    4.2636956    4.2636956    43701.574    72348.974    2632.5152    56123.232    8441.6389   -17123.964    20056.992    77.510149 
    7100    826.35815   -160.51754   0.74770622   -159.76984   -36308.129    4.3289501    4.3289501    4.3289501   -36308.129    5360.3555   -98575.994   -15708.749    2112.6092   -13429.157    5029.1412    81.123699 
    7200    1480.9333   -161.06121    1.3399796   -159.72123   -26005.856     4.288188     4.288188     4.288188   -26005.856   -35240.459    12415.817   -55192.925   -7066.7725   -4678.9369   -9054.7853    78.853587 
    7300     1550.708   -161.10077    1.4031132   -159.69766    41309.788    4.2420188    4.2420188    4.2420188    41309.788    -18774.33    134860.04    7843.6564    311.73424   -11367.527    452.60982    76.333953 
    7400    1041.2907    -160.7289   0.94218168   -159.78672   -961.93936    4.2774548    4.2774548    4.2774548   -961.93936   -39610.407    55304.723   -18580.134    18044.478   -15441.366    11840.143    78.262965 
    7500    1124.4962   -160.79791    1.0174678   -159.78044   -9430.3597    4.2912618    4.2912618    4.2912618   -9430.3597   -33166.392    54015.678   -49140.365    17694.307   -10739.994    4549.8006    79.023275 
    7600    1550.7769   -161.17377    1.4031755    -159.7706    35816.368    4.2562603    4.2562603    4.2562603    35816.368    26715.079    98369.411   -17635.386    19311.098    5968.1063   -3575.7151    77.105355 
    7700     1194.564    -160.8889    1.0808666   -159.80804    15106.041    4.2684553    4.2684553    4.2684553    15106.041    44986.552    28516.183   -28184.611    7678.7973     76.54022   -12321.753    77.770022 
    7800     1540.779   -161.18271    1.3941292   -159.78858    -61638.58    4.2942152    4.2942152    4.2942152    -61638.58   -63337.498   -45730.952   -75847.291     1423.396   -1329.3842   -1271.6228    79.186551 
    7900    1247.2327   -160.90358    1.1285224   -159.77505    6594.1319    4.2557089    4.2557089    4.2557089    6594.1319    18636.764    3289.9918   -2144.3606    7045.6416    2441.9745    10184.563    77.075391 
    8000    1132.2028   -160.80516    1.0244409   -159.78072    25714.811     4.242193     4.242193     4.242193    25714.811    62426.626   -787.54806    15505.356    16172.753    2959.9969    5354.1269     76.34336 
    8100    869.92142   -160.60933   0.78712319   -159.82221    -22553.65    4.2942806    4.2942806    4.2942806    -22553.65     16543.49   -54990.289    -29214.15    6871.6142    9406.5416    13372.712    79.190167 
    8200    1010.6817   -160.70253   0.91448607   -159.78805    -10510.09    4.2920289    4.2920289    4.2920289    -10510.09    26279.878   -16301.935   -41508.213    17819.731    12670.487    12952.336    79.065661 
    8300    1128.7659   -160.76852    1.0213311   -159.74719    36319.513    4.2407629    4.2407629    4.2407629    36319.513    66546.045    25823.869    16588.625    2503.7034    9648.5566    32804.257    76.266176 
    8400    1596.6203   -161.23228    1.4446556   -159.78762    -4668.031    4.2636985    4.2636985    4.2636985    -4668.031    23728.244   -32068.101    -5664.236   -15207.937   -3945.7866    22316.156    77.510309 
    8500    1740.6858   -161.34397     1.575009   -159.76896   -47104.433    4.3014204    4.3014204    4.3014204   -47104.433   -47970.538    -30282.16     -63060.6   -4769.3302    569.19965    2563.8631    79.585817 
    8600    1403.5714   -161.01541    1.2699809   -159.74543    44131.171    4.2606451    4.2606451    4.2606451    44131.171    33583.679    65994.607    32815.226    7014.1328    10043.009   -2270.7397    77.343903 
    8700    1313.3292   -160.94911    1.1883278   -159.76079     41912.05     4.256588     4.256588     4.256588     41912.05    42072.092     85284.05   -1619.9918    11526.496    7929.6499   -13716.438    77.123167 
    8800    1490.6965   -161.12415    1.3488136   -159.77533   -31705.437    4.2972556    4.2972556    4.2972556   -31705.437    -21996.26    18775.211   -91895.263    2589.2247   -11146.643   -1704.2511    79.354865 
    8900    1896.9347   -161.46946    1.7163864   -159.75308   -48019.356    4.2813521    4.2813521    4.2813521   -48019.356    -56663.96   -37418.092   -49976.017   -19192.602    1296.1187   -4952.2227    78.477082 
    9000    1612.4148   -161.20429    1.4589468   -159.74535    3580.4025    4.2523919    4.2523919    4.2523919    3580.4025    17850.986   -15017.575    7907.7959   -14522.055    2439.8593   -5307.0632     76.89531 
    9100    1122.4932   -160.81174    1.0156554   -159.79608    253.88145    4.2779399    4.2779399    4.2779399    253.88145    23581.317   -21460.326   -1359.3468   -7995.4795    11610.569    3858.4633    78.289594 
    9200    848.45267   -160.54552    0.7676978   -159.77782    4509.9822    4.2894918    4.2894918    4.2894918    4509.9822    49230.403    -23712.56   -11987.896    18262.862   -1663.3778    15959.133    78.925535 
    9300    1584.1291   -161.18556    1.4333533   -159.75221    15851.328    4.2600417    4.2600417    4.2600417    15851.328    14084.962    6931.9906    26537.032    4328.7839     5258.258    23532.259    77.311047 
    9400    1994.0318    -161.5635    1.8042419   -159.75925   -15737.736    4.2627944    4.2627944    4.2627944   -15737.736    -36509.96    25524.163   -36227.412   -20178.571   -10307.716    19227.563    77.461009 
    9500    1082.6797   -160.75171   0.97963132   -159.77208   -34151.878    4.2819847    4.2819847    4.2819847   -34151.878    2184.3402   -72870.334    -31769.64   -1947.9539    8821.9765    598.77897    78.511871 
    9600    733.34738   -160.42951   0.66354812   -159.76596    23739.532    4.2587522    4.2587522    4.2587522    23739.532    80970.667   -25336.834    15584.763     1203.756    10913.004   -24712.311    77.240864 
    9700    947.50537    -160.6298   0.85732277   -159.77248    45003.904    4.2539599    4.2539599    4.2539599    45003.904    104756.08    54834.452   -24578.817    6997.2819   -131.51252   -41583.383    76.980404 
    9800    920.22341    -160.6164   0.83263748   -159.78376   -14341.812    4.2870887    4.2870887    4.2870887   -14341.812    27920.517   -12378.953   -58567.001     10483.98   -12070.719   -18657.843    78.792961 
    9900    1355.9611   -160.99353    1.2269021   -159.76663   -16589.505    4.2882516    4.2882516    4.2882516   -16589.505   -12365.188   -9334.8017   -28068.526   -6288.5467   -5516.9503    2603.4644    78.857093 
   10000    2028.1074   -161.59138    1.8350742   -159.75631   -30666.574    4.2756345    4.2756345    4.2756345   -30666.574    3116.4961   -39035.361   -56080.856   -3314.1591    11906.818    4817.7719    78.163089 
   10100    1798.1063   -161.39701    1.6269643   -159.77005   -45959.324     4.281441     4.281441     4.281441   -45959.324   -43461.224   -52859.304   -41557.444   -8310.4961    13251.393    6565.4887    78.481967 
   10200    1254.3511     -160.907    1.1349633   -159.77203    -6420.825     4.277882     4.277882     4.277882    -6420.825   -6667.0337   -29031.274    16435.833     14675.75   -2903.7129    19508.288    78.286414 
   10300    956.03797   -160.62129   0.86504325   -159.75624    53365.366    4.2544209    4.2544209    4.2544209    53365.366    58774.984    234.11261       101087    12864.486   -28817.266   -6243.5807    77.005432 
   10400     881.8259   -160.57343    0.7978946   -159.77553    29951.465    4.2652938    4.2652938    4.2652938    29951.465    26152.248   -35454.841    99156.988    9381.6124   -11577.082   -28768.867    77.597345 
   10500    1365.1326   -161.00572    1.2352007   -159.77052   -57460.588    4.3009791    4.3009791    4.3009791   -57460.588    -59277.85   -64142.237   -48961.676    -794.2288    9708.3656    -37134.58    79.561325 
   10600    1201.8181   -160.83495    1.0874303   -159.74752   -24918.894    4.2797919    4.2797919    4.2797919   -24918.894    38466.371   -58907.683    -54315.37    7242.7254    7309.7549   -14727.004    78.391317 
   10700    1142.1158   -160.76413    1.0334104   -159.73072    41664.584    4.2494078    4.2494078    4.2494078    41664.584    135200.02    -53257.01    43050.737    5964.4662   -5951.0163     2520.157    76.733541 
   10800    966.64505   -160.66331   0.87464076   -159.78867    23822.936    4.2804867    4.2804867    4.2804867    23822.936    115103.07   -55844.614    12210.348     -10523.8     -24364.5    7341.8672      78.4295 
   10900    952.88931   -160.62908   0.86219427   -159.76689    -9163.921    4.3022422    4.3022422    4.3022422    -9163.921    88924.091   -78616.649   -37799.205   -9819.3056   -9084.7925    11251.869     79.63144 
   11000    1817.1294   -161.37269    1.6441769   -159.72852   -16233.671    4.2775682    4.2775682    4.2775682   -16233.671    -9741.304    5811.1529   -44770.862    19709.833    16619.915    18081.208    78.269188 
   11100    1319.5297   -160.94566    1.1939382   -159.75172    10941.338    4.2823011    4.2823011    4.2823011    10941.338   -20632.596     35186.95    18269.661    312.40897   -2685.4881    -236.4898    78.529279 
   11200    949.80186   -160.59958   0.85940069   -159.74018    -21762.71    4.3069055    4.3069055    4.3069055    -21762.71   -24220.593   -76812.841    35745.304   -19338.784   -10745.792   -10307.149    79.890664 
   11300    1627.0883   -161.19478    1.4722237   -159.72255   -56373.917    4.2792407    4.2792407    4.2792407   -56373.917   -38551.298   -72563.003    -58007.45   -3845.7966    20825.605   -13091.122    78.361029 
   11400    1291.5204   -160.88907    1.1685948   -159.72048   -1196.3527    4.2499655    4.2499655    4.2499655   -1196.3527    1698.4816    5404.2474   -10691.787   -8699.5419    14460.338   -18769.564    76.763755 
   11500    592.20172    -160.3235   0.53583656   -159.78766    30600.747    4.2782195    4.2782195    4.2782195    30600.747   -1428.3346    48553.149    44677.427    -18673.04   -2229.9823   -29431.394    78.304942 
   11600    1359.6224   -160.98396    1.2302149   -159.75375   -24278.234    4.3064774    4.3064774    4.3064774   -24278.234   -61525.462   -19568.145    8258.9054    5687.9325    182.87616    2534.1827     79.86684 
   11700    1573.4361   -161.14082     1.423678   -159.71714   -28060.606    4.2878446    4.2878446    4.2878446   -28060.606    -33639.99    8648.6548   -59190.482     6290.973    11264.446    10167.369    78.834643 
   11800    972.43734   -160.60368   0.87988175    -159.7238    52207.711     4.268097     4.268097     4.268097    52207.711    33620.323    76115.164    46887.647   -15013.335   -15487.541   -12772.043     77.75044 
   11900    1760.4057   -161.32191     1.592852   -159.72906    11016.725    4.2632083    4.2632083    4.2632083    11016.725   -3129.4986    43766.203     -7586.53    3812.0295    371.09277     3040.895    77.483577 
   12000     1811.131   -161.36825    1.6387494    -159.7295   -15727.221    4.2644477    4.2644477    4.2644477   -15727.221   -10851.669   -34972.462   -1357.5333    11584.233    14196.281    13208.776    77.551172 
   12100    1013.3061   -160.67736   0.91686065    -159.7605    37357.197     4.283013     4.283013     4.283013    37357.197    69881.326    19858.023    22332.241   -19162.662   -15761.492   -587.14583     78.56845 
   12200    1172.0277   -160.80052    1.0604753   -159.74004   -1004.1915    4.2983887    4.2983887    4.2983887   -1004.1915   -9023.4564     6090.268   -79.386078   -24835.264   -7794.9904   -16418.204    79.417655 
   12300    1576.7661   -161.13808    1.4266911   -159.71139   -33763.888    4.2776356    4.2776356    4.2776356   -33763.888    -49429.93   -13008.792   -38852.942    6331.1691    19214.832   -772.11315    78.272887 
   12400     1310.873    -160.9086    1.1861054   -159.72249    36635.689    4.2595896    4.2595896    4.2595896    36635.689    54864.892    454.41631    54587.758   -22445.003   -9179.3758   -14531.016    77.286437 
   12500    1130.1982   -160.77475    1.0226271   -159.75212    33341.817    4.2689273    4.2689273    4.2689273    33341.817    67989.778   -27371.802    59407.475   -18657.764   -23608.815   -9783.1219    77.795825 
   12600    1768.4908   -161.35151    1.6001676   -159.75134   -52371.241    4.2814258    4.2814258    4.2814258   -52371.241   -46953.527   -51192.333   -58967.863    14165.424    8795.8354    11367.318    78.481133 
   12700    1783.2084    -161.3568    1.6134844   -159.74332    -17361.84    4.2791564    4.2791564    4.2791564    -17361.84   -39025.192   -25727.022    12666.693    4993.5843    2665.1384    11365.528      78.3564 
   12800    1012.1059   -160.66398   0.91577471   -159.74821    26655.748    4.2835463    4.2835463    4.2835463    26655.748    2902.7051     17852.41    59212.129   -4398.1763   -10433.737   -18042.427    78.597804 
   12900    1697.4215   -161.27024    1.5358627   -159.73438   -34001.315    4.2732896    4.2732896    4.2732896   -34001.315   -56356.139   -30744.485   -14903.321    9152.9464    16557.102     5510.018    78.034561 
   13000     1752.065   -161.32026    1.5853052   -159.73495    3769.7106    4.2589426    4.2589426    4.2589426    3769.7106    33772.884   -4611.8358   -17851.917    2834.0743    11045.977    7156.3858    77.251223 
   13100     811.1233   -160.50911    0.7339214   -159.77519    13198.109    4.2768376    4.2768376    4.2768376    13198.109     16372.16   -23765.189    46987.358    -21205.48   -10613.148   -10141.603     78.22909 
   13200    649.48997   -160.35392   0.58767217   -159.76624    13988.976    4.2847423    4.2847423    4.2847423    13988.976      42972.9   -20132.944    19126.972   -24729.156   -9359.4781   -8392.9183    78.663657 
   13300    1703.3467   -161.27872    1.5412239    -159.7375   -15023.393    4.2697251    4.2697251    4.2697251   -15023.393   -6223.8954   -8242.0485   -30604.235     327.6514    13984.001    4847.3702    77.839446 
   13400    1425.1538   -161.03565    1.2895091   -159.74614   -595.67416     4.270414     4.270414     4.270414   -595.67416   -24399.812    13759.885    8852.9053    5003.7369     10547.15   -11443.205    77.877129 
   13500    1174.2869    -160.8205    1.0625195   -159.75798    2751.9405    4.2819459    4.2819459    4.2819459    2751.9405   -10726.706    15783.724    3198.8039    1319.1429   -3807.7739   -23892.864     78.50974 
   13600    1809.1967   -161.38376    1.6369992   -159.74676   -14983.665    4.2759308    4.2759308    4.2759308   -14983.665   -44704.566    12706.101   -12952.529    17414.161    14818.146   -5352.2718    78.179342 
   13700    2025.4939   -161.57968    1.8327094   -159.74697   -39622.395    4.2750714    4.2750714    4.2750714   -39622.395   -25478.903   -53907.167   -39481.113    16874.113    6081.1715    17271.961    78.132214 
   13800    1274.3166   -160.92182    1.1530284   -159.76879   -4152.0395       4.2934       4.2934       4.2934   -4152.0395    15634.834    31117.504   -59208.456   -7771.5679    1914.7433   -482.91096    79.141458 
   13900    1239.7293    -160.8738    1.1217332   -159.75207    2001.2205    4.2897372    4.2897372    4.2897372    2001.2205    42436.014     20007.68   -56440.033   -18434.674    161.40978   -11286.343     78.93908 
   14000    1308.6458   -160.91683    1.1840903   -159.73274    8289.3955    4.2635183    4.2635183    4.2635183    8289.3955    31374.536   -33248.631    26742.282    8394.2974     9901.018    10117.067     77.50048 
   14100    1220.4397   -160.85564    1.1042795   -159.75136   -11343.453    4.2696494    4.2696494    4.2696494   -11343.453   -40585.917   -1414.2166    7969.7752   -6296.4966   -481.19204   -8647.9756    77.835308 
   14200    814.67214   -160.49583   0.73713247   -159.75869    27271.313    4.2734711    4.2734711    4.2734711    27271.313    3498.5104     39224.34    39091.089   -24803.668   -14129.205   -26315.393    78.044502 
   14300    1052.9962   -160.70403   0.95277312   -159.75125    16344.706     4.267427     4.267427     4.267427    16344.706    45890.696   -33670.163    36813.584   -5208.0585   -15901.948    4684.9203    77.713828 
   14400    1877.6202   -161.44404    1.6989102   -159.74513   -36078.067    4.2785566    4.2785566    4.2785566   -36078.067   -26431.776   -48310.924   -33491.502    6392.0098     2148.994    11954.663    78.323456 
   14500    1368.9588   -160.98189    1.2386627   -159.74322    7388.0959    4.2862795    4.2862795    4.2862795    7388.0959   -11826.512    51368.185   -17377.385    2583.4427   -454.52874   -4023.6224    78.748349 
   14600     1044.745   -160.68709   0.94530724   -159.74178     22263.02    4.2812111    4.2812111    4.2812111     22263.02   -37165.511    80931.604    23022.966   -11041.003   -5038.5477   -14638.824    78.469325 
   14700    1657.5715   -161.24638    1.4998055   -159.74657   -6591.4599    4.2743891    4.2743891    4.2743891   -6591.4599    -48789.97    38930.248   -9914.6575   -7435.7808    7386.2577    3383.9654    78.094807 
   14800    1743.9206   -161.33757     1.577936   -159.75963   -33471.453    4.2796395    4.2796395    4.2796395   -33471.453   -15379.764   -34694.938   -50339.656    7876.7032   -834.60216    12132.985     78.38294 
   14900    980.93576   -160.65173   0.88757129   -159.76416    7000.4322    4.2809779    4.2809779    4.2809779    7000.4322   -16078.147   -2521.9576    39601.402   -5080.4472   -30416.066   -26963.902    78.456506 
   15000    1064.6691   -160.72145   0.96333496   -159.75812     33999.02    4.2641172    4.2641172    4.2641172     33999.02    11375.733    12543.317     78078.01    -134.5631    -29638.33   -18854.158    77.533144 
   15100    1465.9561   -161.08521    1.3264279   -159.75879   -20955.514    4.2734136    4.2734136    4.2734136   -20955.514   -12941.662   -45518.634   -4406.2458    16314.678    5013.2019   -10198.201    78.041349 
   15200    1026.5698   -160.68355   0.92886191   -159.75469   -14530.242    4.2891301    4.2891301    4.2891301   -14530.242    37546.882    7307.8222   -88445.428   -15029.148    9334.4322   -14406.268    78.905568 
   15300    941.81072   -160.60385   0.85217013   -159.75168    42463.707    4.2740355    4.2740355    4.2740355    42463.707    103756.52    80812.899   -57178.299   -37853.953   -5844.3439   -20937.924    78.075429 
   15400    1162.5859   -160.81111    1.0519321   -159.75918    236.27665    4.2741176    4.2741176    4.2741176    236.27665     52554.97    21446.314   -73292.455   -7402.7061    10222.427   -4526.0992    78.079925 
   15500    1724.8076   -161.31072    1.5606422   -159.75008   -72756.174    4.2916883    4.2916883    4.2916883   -72756.174   -78058.216   -81566.318   -58643.986    12798.659    21427.211    21527.823    79.046842 
   15600    1051.8741   -160.69203   0.95175778   -159.74027    21550.439    4.2811045    4.2811045    4.2811045    21550.439    18850.235    12318.462     33482.62    -7505.474   -11803.457   -8828.4521    78.463467 
   15700    948.51505   -160.59213   0.85823635    -159.7339    18230.135    4.2653595    4.2653595    4.2653595    18230.135    30347.435    17770.501     6572.469   -7185.3631   -980.67111    -12677.76    77.600927 
   15800    1541.6827   -161.13795    1.3949469     -159.743   -44151.594    4.2739723    4.2739723    4.2739723   -44151.594   -40840.693   -57665.199   -33948.889    11869.097    18106.566    10310.315    78.071967 
   15900    1150.3736   -160.79266    1.0408822   -159.75178    24126.043    4.2780205    4.2780205    4.2780205    24126.043   -2003.7106    75283.116   -901.27502   -10024.255    12213.972   -17687.459    78.294016 
   16000    751.94656   -160.43088   0.68037705    -159.7505    49982.928    4.2719706    4.2719706    4.2719706    49982.928   -10793.882    113269.96      47472.7   -1360.6488    104.14768   -36458.537     77.96232 
   16100    1315.7502   -160.93941    1.1905185   -159.74889   -18960.805     4.286196     4.286196     4.286196   -18960.805   -68499.597   -25573.574    37190.757    12365.585   -4359.6224   -4767.4063    78.743746 
   16200     1568.741   -161.15738    1.4194298   -159.73795   -23400.253     4.291812     4.291812     4.291812   -23400.253    4627.0971   -22785.675   -52042.182    11513.162   -1849.1664    5581.2111    79.053674 
   16300    725.60244   -160.39388   0.65654033   -159.73734    39054.987    4.2814014    4.2814014    4.2814014    39054.987    50275.713    49202.805    17686.442   -26393.736   -20286.436   -19156.464    78.479794 
   16400    1631.9055   -161.21146    1.4765824   -159.73488   -26890.937    4.2803246    4.2803246    4.2803246   -26890.937    -15100.81   -19767.698   -45804.304    1937.8276     9156.477    7293.8678    78.420591 
   16500    1825.6693   -161.38489    1.6519039   -159.73298   -54270.554    4.2921419    4.2921419    4.2921419   -54270.554   -53403.683   -29966.827   -79441.152    11701.549    22922.854    18424.127    79.071909 
   16600    836.58228   -160.49484   0.75695723   -159.73789    11267.037    4.2763579    4.2763579    4.2763579    11267.037    29039.186     32125.49   -27363.566   -23772.435   -20667.176   -19250.239    78.202768 
   16700    905.90899   -160.56141   0.81968549   -159.74173    39446.577     4.254338     4.254338     4.254338    39446.577     96674.55    27433.162   -5767.9805   -17790.957    4870.9641   -4317.2573    77.000928 
   16800    1862.1237   -161.46027    1.6848886   -159.77538    -41792.43    4.2871281    4.2871281    4.2871281    -41792.43   -20167.647   -60211.755   -44997.887   -1021.3636    30727.778    7149.0228    78.795132 
   16900    997.50964   -160.64899   0.90256769   -159.74642   -27477.958    4.3070204    4.3070204    4.3070204   -27477.958   -70185.495   -28360.845    16112.466    2008.4779    6705.6543   -11950.513    79.897056 
   17000    914.69584   -160.56085   0.82763602   -159.73321    39408.161    4.2624778    4.2624778    4.2624778    39408.161   -20577.679    55033.505    83768.656    5509.7015    1204.5241   -23174.895    77.443754 
   17100    1925.4219   -161.46935    1.7421622   -159.72719   -1877.9317    4.2511445    4.2511445    4.2511445   -1877.9317   -23242.829    22610.092   -5001.0583    18248.401     19295.53     306.6122    76.827661 
   17200    1573.2544   -161.19576    1.4235136   -159.77224   -49297.359    4.2930003    4.2930003    4.2930003   -49297.359   -45786.376   -60801.063   -41304.638    15753.653    3432.9384     2137.906     79.11936 
   17300    787.19302   -160.46193   0.71226878   -159.74966     5586.838    4.3000986    4.3000986    4.3000986     5586.838    46350.893   -3970.9693    -25619.41   -14407.855   -13669.231   -5702.2259     79.51247 
   17400    1679.2275   -161.24135    1.5194003   -159.72195   -1053.5444    4.2598192    4.2598192    4.2598192   -1053.5444    18155.498    26271.194   -47587.325   -16058.259    17725.375    21727.484    77.298933 
   17500    1619.1503    -161.2018    1.4650412   -159.73676    -16562.16     4.252447     4.252447     4.252447    -16562.16   -47130.601    5362.6277   -7918.5058    10425.947    22508.035    24818.394    76.898297 
   17600    1043.7946   -160.72816   0.94444725   -159.78371    -10481.41    4.2831448    4.2831448    4.2831448    -10481.41    26514.095   -15842.636   -42115.689    -11002.17    8056.1052     24519.31    78.575702 
   17700    1286.3529   -160.93926    1.1639191   -159.77534    -5487.383    4.2889338    4.2889338    4.2889338    -5487.383    2560.2497    15916.832    -34939.23   -16358.258     -11182.2   -3558.4354    78.894734 
   17800    1140.8163   -160.79899    1.0322346   -159.76675    14761.619     4.269465     4.269465     4.269465    14761.619   -1311.5772   -7400.2957     52996.73   -1041.5199   -1163.1135   -751.04111     77.82522 
   17900    1251.8454   -160.90599     1.132696   -159.77329   -30885.018    4.2763405    4.2763405    4.2763405   -30885.018   -6956.9984   -44053.513   -41644.543    11110.107    18597.995    7049.7225    78.201813 
   18000    1627.3516   -161.23933    1.4724619   -159.76687   -37733.207     4.275988     4.275988     4.275988   -37733.207   -44526.068    4744.7665   -73418.319    7085.3273     19048.93    -762.1074    78.182476 
   18100    710.95695   -160.40866   0.64328879   -159.76537    51343.995    4.2533747    4.2533747    4.2533747    51343.995    6348.8859    103990.01    43693.089   -9163.2719    4227.4332   -18663.944    76.948635 
   18200    857.80602   -160.56506   0.77616092    -159.7889    491.27462    4.2703038    4.2703038    4.2703038    491.27462    11175.342   -11291.704    1590.1867   -7759.8526     4668.512     -9976.88    77.871099 
   18300    1682.6889   -161.29592    1.5225322   -159.77339   -59227.387      4.28799      4.28799      4.28799   -59227.387   -57253.299   -56600.884   -63827.979    13273.144    20455.434    10464.973    78.842663 
   18400    1092.6425   -160.74753   0.98864586   -159.75888    21712.827    4.2592831    4.2592831    4.2592831    21712.827    19860.722    43012.165     2265.594   -13266.367    1701.9832    -5323.381    77.269752 
   18500    638.27041    -160.3449   0.57752048   -159.76738    49669.958    4.2573676    4.2573676    4.2573676    49669.958    60061.658    52668.243    36279.974    -24349.73   -12604.425   -17507.643    77.165547 
   18600    1582.4707   -161.20006    1.4318527   -159.76821   -35160.715    4.2873047    4.2873047    4.2873047   -35160.715   -46768.969   -12033.001   -46680.176   -22955.532    13256.351   -19261.325     78.80487 
   18700    1293.0618   -160.92608    1.1699895   -159.75609   -21232.821    4.2760133    4.2760133    4.2760133   -21232.821    -75480.62   -3770.1761    15552.334   -1267.3077    8798.4208    8073.5087    78.183864 
   18800    676.18505   -160.37155   0.61182644   -159.75972    31617.411    4.2493048    4.2493048    4.2493048    31617.411   -7627.4504     28372.29    74107.394     4530.996   -8637.5441    8874.6438    76.727959 
   18900    988.29362   -160.68408   0.89422883   -159.78985    25545.649    4.2589627    4.2589627    4.2589627    25545.649   -6548.2103    21933.421    61251.738    15770.574   -4874.4579    13470.163    77.252314 
   19000    1252.3559   -160.91492     1.133158   -159.78176   -22594.647    4.2733652    4.2733652    4.2733652   -22594.647    -52953.19   -25690.198    10859.447   -12070.626   -5922.4354     1699.603    78.038701 
   19100    1258.2628   -160.89781    1.1385027    -159.7593   -37486.756    4.2679346    4.2679346    4.2679346   -37486.756   -54376.974   -35934.888   -22148.406   -15846.155    378.27031   -8122.3781    77.741565 
   19200    1679.9508   -161.28641    1.5200548   -159.76636   -5716.5241    4.2669356    4.2669356    4.2669356   -5716.5241    18204.085   -1865.8412   -33487.816   -6719.5488    3974.1933    1652.0987    77.686982 
   19300    1388.2771   -161.03414    1.2561423     -159.778    23607.961    4.2781411    4.2781411    4.2781411    23607.961     70789.64    10444.624   -10410.381    15867.055    -11908.31    7610.6412    78.300641 
   19400    1057.7359   -160.72476   0.95706163    -159.7677    6150.3602    4.2755618    4.2755618    4.2755618    6150.3602    28658.754   -31171.134    20963.461    7279.6221   -19178.658    5674.6499    78.159104 
   19500    1882.3712   -161.45729     1.703209   -159.75408   -37232.619    4.2654066    4.2654066    4.2654066   -37232.619   -56510.646   -39591.999   -15595.212   -2266.8732     13864.09   -11573.489      77.6035 
   19600    1554.5105    -161.1719    1.4065538   -159.76534   -21865.222    4.2658002    4.2658002    4.2658002   -21865.222     11438.73   -24099.618   -52934.777     19110.56   -5023.6517   -19807.093    77.624985 
   19700    697.44753   -160.40687   0.63106518    -159.7758    29810.536    4.2550661    4.2550661    4.2550661    29810.536    84601.095    120.43071    4710.0809    30541.821   -9471.1203   -10537.683    77.040471 
   19800    837.13319   -160.54188    0.7574557   -159.78442    42825.329    4.2566064    4.2566064    4.2566064    42825.329    55942.725    50283.919    22249.343    20609.054     -14849.6   -7490.2447    77.124169 
   19900    1496.1764    -161.1431    1.3537718   -159.78933   -22922.641    4.2900545    4.2900545    4.2900545   -22922.641   -22785.266   -28544.113   -17438.544     13203.67    1966.5233   -4020.8296    78.956599 
   20000    1214.5288   -160.85366    1.0989312   -159.75473   -54626.537    4.2958652    4.2958652    4.2958652   -54626.537   -48023.667   -94085.619   -21770.327    2050.7012    3674.4072   -1289.5577    79.277864 
   20100    1107.2269   -160.74461    1.0018422   -159.74276    32483.981    4.2543341    4.2543341    4.2543341    32483.981    65831.472     16896.96     14723.51    21105.883   -4439.9277     12716.27    77.000721 
   20200    1439.5076   -161.06517    1.3024967   -159.76268    36943.172    4.2518933    4.2518933    4.2518933    36943.172    55105.286    54698.672    1025.5586     17736.72    4874.4465    6606.6741    76.868263 
   20300    1301.7208   -160.95411    1.1778243   -159.77629   -26806.447    4.2829691    4.2829691    4.2829691   -26806.447   -41631.627   -7745.0937   -31042.621    4895.5979    14420.231    1000.1584    78.566034 
   20400    1665.5275   -161.27168    1.5070043   -159.76467   -35373.856    4.2811732    4.2811732    4.2811732   -35373.856   -32538.913   -61966.872   -11615.784   -16542.287    16683.828    1513.4269    78.467243 
   20500    1847.7892   -161.43338    1.6719185   -159.76146    15240.921    4.2588705    4.2588705    4.2588705    15240.921    818.80382    24426.278     20477.68   -9606.1125   -2028.8238     9926.446      77.2473 
   20600    974.32431   -160.65531   0.88158911   -159.77372    38824.934     4.252559     4.252559     4.252559    38824.934    33387.664    6576.1724    76510.965    1522.8101    -8779.117     10920.45    76.904372 
   20700    1291.1296   -160.94435    1.1682412    -159.7761   -19121.677     4.271041     4.271041     4.271041   -19121.677   -9650.9824   -50601.175    2887.1273   -14413.939   -1622.5608    75.771461    77.911438 
   20800    1882.2688   -161.46925    1.7031164   -159.76613   -36522.905    4.2873915    4.2873915    4.2873915   -36522.905   -4771.7531   -38319.397   -66477.563    2585.4154    4294.0974   -10344.011    78.809655 
   20900    854.99263   -160.52987    0.7736153   -159.75625    17851.978    4.2757112    4.2757112    4.2757112    17851.978   -20388.188    51210.842    22733.281    2427.7744    7246.5689    15778.362    78.167296 
   21000     1070.168   -160.72356   0.96831046   -159.75525    10110.406    4.2564859    4.2564859    4.2564859    10110.406   -57541.565    53581.679    34291.103    16649.699   -4276.9544    23588.524    77.117615 
   21100    1741.1501   -161.34867    1.5754292   -159.77324   -10138.862    4.2581247    4.2581247    4.2581247   -10138.862   -27390.676    1901.5932    -4927.502    37675.956   -13243.504   -2764.0886    77.206722 
   21200    1278.7113   -160.94046    1.1570048   -159.78346   -12804.347    4.2743763    4.2743763    4.2743763   -12804.347    19303.553   -37898.048   -19818.547     21104.04   -12645.812   -2951.7239    78.094105 
   21300    877.68718   -160.57588   0.79414981   -159.78173    4019.7963    4.2784285    4.2784285    4.2784285    4019.7963    10505.473    -9192.196    10746.112    213.90988   -751.71155    16473.792     78.31642 
   21400    1525.8115   -161.16065    1.3805863   -159.78006    5535.9338     4.261742     4.261742     4.261742    5535.9338   -3773.6613    13531.261    6850.2012    17625.413   -4161.7597    2161.7751    77.403652 
   21500     1490.284   -161.11267    1.3484403   -159.76423   -22256.606    4.2510026    4.2510026    4.2510026   -22256.606   -37080.249   -38006.361    8316.7929    22325.563   -12159.879   -8259.9477    76.819967 
   21600    1207.5358   -160.86397    1.0926038   -159.77136   -16863.785    4.2612058    4.2612058    4.2612058   -16863.785   -29343.773   -25110.082    3862.4987    19928.457    -3856.374   -4517.8141    77.374444 
   21700     1147.398   -160.81544    1.0381898   -159.77725    30323.905    4.2807092    4.2807092    4.2807092    30323.905    18621.181    44956.152    27394.383    10473.591     20850.21    16025.477    78.441731 
   21800    833.79291   -160.51611   0.75443335   -159.76168     12762.85    4.2844336    4.2844336    4.2844336     12762.85    29609.579   -4019.6443    12698.616   -3753.5753    14842.256     8006.719    78.646652 
   21900     1478.845   -161.07596      1.33809   -159.73787   -33334.375    4.2637223    4.2637223    4.2637223   -33334.375   -22243.325   -48363.064   -29396.736    11955.383   -2953.0148   -16304.497    77.511604 
   22000    1790.5322   -161.37496    1.6201112   -159.75485      -3726.9    4.2550006    4.2550006    4.2550006      -3726.9   -33130.007   -20092.236    42041.543    15649.561   -8564.0605   -21576.648    77.036913 
   22100       1051.5   -160.73883    0.9514193   -159.78741    4400.8981     4.271501     4.271501     4.271501    4400.8981   -56992.839   -8004.9523    78200.486   -2024.6431    2731.4113   -9131.7261    77.936617 
   22200    614.76202   -160.34836    0.5562496   -159.79211    25903.351    4.2802221    4.2802221    4.2802221    25903.351   -32724.968    6016.1643    104418.86   -16077.108   -424.28043    6772.4139    78.414957 
   22300    1316.0379   -160.96959    1.1907788   -159.77881    27164.943    4.2700218    4.2700218    4.2700218    27164.943   -12669.144     22655.08    71508.893     8114.203   -14356.313    6080.9603    77.855676 
   22400    1483.5497   -161.10822    1.3423469   -159.76587    -9538.417    4.2553638    4.2553638    4.2553638    -9538.417   -42735.241     299.4378    13820.552   -7309.9935   -4082.9923   -12013.867    77.056642 
   22500    1500.0113   -161.12095    1.3572417   -159.76371   -29248.814    4.2508724    4.2508724    4.2508724   -29248.814   -42225.988    -52387.36    6866.9066   -16056.685   -1412.8363   -21046.829    76.812909 
   22600    1909.7806   -161.50417    1.7280096   -159.77616   -12295.232    4.2550897    4.2550897    4.2550897   -12295.232   -14690.274   -22152.864    -42.55723   -6842.7067     10526.22   -12137.001    77.041752 
   22700    1631.8456   -161.26413    1.4765282    -159.7876   -28132.391     4.274304     4.274304     4.274304   -28132.391   -31222.547   -31040.028   -22134.597    6291.1235    10214.182   -4316.9438    78.090146 
   22800    818.42309   -160.51512   0.74052641   -159.77459   -7348.2858    4.2826716    4.2826716    4.2826716   -7348.2858     2573.862   -36873.147    12254.428    16518.321   -211.17788    9092.3512     78.54966 
   22900    1029.0071   -160.69199   0.93106726   -159.76092    33295.289    4.2644434    4.2644434    4.2644434    33295.289    32197.659    5218.4137    62469.795   -2837.9036   -9957.2252   -3212.3964    77.550942 
   23000    1183.1959   -160.82615    1.0705805   -159.75556    22567.828    4.2554078    4.2554078    4.2554078    22567.828    1846.5019    16339.979    49517.004   -6845.4802   -3898.3399   -9381.6965    77.059031 
   23100     1039.302   -160.71423   0.94038229   -159.77385   -11005.723    4.2627462    4.2627462    4.2627462   -11005.723   -24179.349   -20907.056    12069.236   -14560.278     19524.76   -18928.646    77.458383 
   23200    1679.8402   -161.29957    1.5199547   -159.77962   -26931.783    4.2630522    4.2630522    4.2630522   -26931.783   -17096.339   -11231.354   -52467.655   -11501.855    22385.317   -4445.5168    77.475066 
   23300    1958.9385   -161.55305    1.7724887   -159.78056   -21660.337    4.2582921    4.2582921    4.2582921   -21660.337   -5783.3314   -30123.208    -29074.47    16556.605    18809.745    4881.2484    77.215832 
   23400    1366.7519   -161.02984    1.2366659   -159.79317   -25292.426    4.2715751    4.2715751    4.2715751   -25292.426   -29272.763   -59895.348    13290.832   -6242.7091    6797.0795     -6381.71    77.940668 
   23500    1409.8445   -161.06003     1.275657   -159.78437   -8369.7455    4.2807305    4.2807305    4.2807305   -8369.7455   -1660.0737   -27956.682    4507.5193    315.55942   -14549.501   -12574.448    78.442903 
   23600    1343.7846    -160.9892    1.2158846   -159.77332    12192.136    4.2716681    4.2716681    4.2716681    12192.136   -15895.234   -8990.7615    61462.404    24744.341   -16765.197    -9616.937    77.945759 
   23700    921.98581   -160.60567   0.83423214   -159.77143    17407.921    4.2654039    4.2654039    4.2654039    17407.921   -28020.758   -25922.503    106167.02    17118.761   -3610.0881    5062.9255    77.603355 
   23800    1255.3189   -160.91332    1.1358389   -159.77748    2783.7455    4.2707744    4.2707744    4.2707744    2783.7455   -44855.948   -21402.181    74609.366    2157.6267    7325.2405    6691.0337    77.896848 
   23900    1744.8646   -161.35294    1.5787901   -159.77415   -14916.942    4.2670536    4.2670536    4.2670536   -14916.942   -11849.184   -29105.678   -3795.9654   -2094.9823    12992.102   -4322.4117    77.693429 
   24000    1376.1304   -161.02919    1.2451517   -159.78404    -15820.55    4.2711585    4.2711585    4.2711585    -15820.55    4975.7348   -7065.0085   -45372.377      3619.06    4284.3191    1272.2788    77.917868 
   24100    1154.4359   -160.83449    1.0445578   -159.78993   -245.95253    4.2929488    4.2929488    4.2929488   -245.95253   -21975.963    8662.7744    12575.331    15091.636   -15384.575    18003.354    79.116511 
   24200    1571.0686   -161.19374    1.4215359    -159.7722   -13063.516    4.2873572    4.2873572    4.2873572   -13063.516    13.365199   -3192.7582   -36011.154     11359.21   -5610.2343   -635.42024    78.807764 
   24300    1360.4587   -160.97048    1.2309716   -159.73951   -6523.4786    4.2643818    4.2643818    4.2643818   -6523.4786    24833.192    -56875.23    12471.602   -9864.4271    6468.8783   -14452.597    77.547581 
   24400    1205.6039   -160.84438    1.0908557   -159.75352    28193.042    4.2629571    4.2629571    4.2629571    28193.042    22134.246    8679.1716    53765.707   -25797.077    20547.503    9363.1011    77.469883 
   24500    1587.9531   -161.19324    1.4368133   -159.75642   -17172.693    4.2740123    4.2740123    4.2740123   -17172.693   -29233.604   -17849.826    -4434.649   -5297.1122   -4245.4647    122.62167    78.074154 
   24600    1739.6239   -161.32201    1.5740482   -159.74796    -65921.75    4.2825562    4.2825562    4.2825562    -65921.75   -59373.046   -81091.577   -57300.626    12589.726   -14204.937   -6604.4112     78.54331 
   24700    1423.0507   -161.03936    1.2876061   -159.75175    2124.6573    4.2838903    4.2838903    4.2838903    2124.6573    27395.727   -56985.575    35963.821    423.75855    16687.792    12215.145    78.616737 
   24800    935.89682   -160.60547   0.84681911   -159.75865    30309.505    4.2738073    4.2738073    4.2738073    30309.505    50176.559   -48116.968    88868.923   -2807.5823    18974.913    8924.0131    78.062923 
   24900    1020.7787   -160.68603   0.92362206    -159.7624   -1427.5404    4.2658429    4.2658429    4.2658429   -1427.5404   -23212.069   -68193.692     87123.14    16475.088   -692.34074   -11300.177    77.627314 
   25000    1589.7724   -161.21635    1.4384594   -159.77789    2087.2033    4.2714541    4.2714541    4.2714541    2087.2033   -48674.091    29363.197    25572.504    13071.481   -12343.922   -11504.547     77.93405 
   25100    1256.7592   -160.92205    1.1371422   -159.78491   -10893.729    4.2862843    4.2862843    4.2862843   -10893.729   -28900.361    9937.0608   -13717.886   -6528.1127   -17150.545    7081.9307    78.748614 
   25200    819.88757   -160.51689    0.7418515   -159.77504    2582.9461    4.2876606    4.2876606    4.2876606    2582.9461    35399.336   -22590.685    -5059.813   -9877.4252    7821.5384    12672.588    78.824498 
   25300    1013.5042   -160.68059   0.91703991   -159.76355    36471.088    4.2697818    4.2697818    4.2697818    36471.088    112635.66   -5712.9496    2490.5571    17574.892    17952.139    7537.5293    77.842551 
   25400     1298.142   -160.92623    1.1745862   -159.75164    13762.637    4.2537503    4.2537503    4.2537503    13762.637    85175.029   -23484.098    -20403.02    25580.634    -207.2348    9623.5089    76.969025 
   25500     1251.591   -160.89558    1.1324658   -159.76312   -18775.927    4.2620916    4.2620916    4.2620916   -18775.927   -7611.9676   -23763.918   -24951.894     17026.82   -5492.0437    1433.3601    77.422703 
   25600    1712.7643   -161.32022    1.5497452   -159.77048   -18776.375    4.2741086    4.2741086    4.2741086   -18776.375   -46225.543    8869.2919   -18972.873   -4176.4472   -17462.516    11203.389    78.079434 
   25700    1609.6649   -161.22137    1.4564586   -159.76491    3257.8802    4.2708954    4.2708954    4.2708954    3257.8802    17752.556   -13525.973    5547.0579    -18709.35    11634.171   -6236.6738     77.90347 
   25800    1203.2621   -160.85115    1.0887368   -159.76242   -6669.0267    4.2670186    4.2670186    4.2670186   -6669.0267    27183.096   -37347.609   -9842.5663   -6733.2087    9157.2133   -17833.054     77.69152 
   25900    1736.4375    -161.3403    1.5711651   -159.76913   -30854.192    4.2716541    4.2716541    4.2716541   -30854.192   -39247.451   -33929.654    -19385.47   -769.95381   -5392.2554   -25437.576    77.944995 
   26000    1687.4154   -161.30395    1.5268089   -159.77714    -6620.014     4.274625     4.274625     4.274625    -6620.014   -13057.748   -22154.675    15352.381     -11027.9    13617.921   -12100.364     78.10774 
   26100    888.07349   -160.57591   0.80354755   -159.77237    10664.547    4.2674073    4.2674073    4.2674073    10664.547   -26697.859     468.6293     58222.87   -6570.7559      28.4901    12234.978    77.712752 
   26200    1051.7686    -160.7207   0.95166231   -159.76904   -4966.0468      4.25997      4.25997      4.25997   -4966.0468   -47732.488    7207.3151    25627.033   -1289.3273   -3547.8819    20937.792    77.307143 
   26300    1782.5947   -161.38253    1.6129292    -159.7696   -16031.052    4.2540761    4.2540761    4.2540761   -16031.052    1628.4822   -38003.928    -11717.71    17622.561   -15409.994    9448.8509    76.986709 
   26400    1120.5036   -160.79383    1.0138552   -159.77998   -9293.5575    4.2639018    4.2639018    4.2639018   -9293.5575     23801.69   -43436.395   -8245.9668   -2016.5073   -17137.123    23807.382    77.521398 
   26500    689.46213   -160.39607   0.62383982   -159.77224    8604.5357    4.2797545    4.2797545    4.2797545    8604.5357    24937.599   -17762.843    18638.851   -17814.625    15722.468    25431.979    78.389262 
   26600    1702.8995   -161.30155    1.5408193   -159.76073    5908.9849    4.2719396    4.2719396    4.2719396    5908.9849    5001.4565    7005.6548    5719.8433      13252.1    -10060.85    7329.5227    77.960626 
   26700     1968.805   -161.52637    1.7814161   -159.74496   -21684.362    4.2630529    4.2630529    4.2630529   -21684.362   -28509.435   -21275.983   -15267.667    9334.7313   -4255.8115   -6963.4891    77.475105 
   26800    975.05948   -160.63769    0.8822543   -159.75544    4549.5546     4.263466     4.263466     4.263466    4549.5546   -55101.797    10009.528    58740.933    936.23755   -773.75738    1630.4208     77.49763 
   26900    1173.1752   -160.83186    1.0615136   -159.77034    25148.113    4.2659993    4.2659993    4.2659993    25148.113   -8800.4895    34807.306    49437.522   -8772.5785    -230.1286    10087.452    77.635855 
   27000    1559.1468   -161.17267    1.4107488   -159.76193   -32861.646    4.2772063    4.2772063    4.2772063   -32861.646    -36011.57   -19912.154   -42661.214   -8109.9971    9118.0521    -3662.854    78.249326 
   27100    1124.5839   -160.76563    1.0175471   -159.74808   -41871.119    4.2755904    4.2755904    4.2755904   -41871.119   -82812.959   -47258.075    4457.6781    4458.0617    9771.2181   -5178.8344    78.160674 
   27200    937.75745   -160.60748   0.84850265   -159.75897    30035.403    4.2689465    4.2689465    4.2689465    30035.403     9853.109    34639.963    45613.137   -15880.652    14289.904    21941.392    77.796872 
   27300    1268.0456   -160.91818    1.1473543   -159.77083    17643.407    4.2795979    4.2795979    4.2795979    17643.407   -10327.159    23558.903    39698.477   -5490.6587    5406.5391    21005.315    78.380656 
   27400    1449.1862   -161.06456    1.3112541   -159.75331   -59269.145    4.2899616    4.2899616    4.2899616   -59269.145   -41909.749   -82992.405   -52905.281    17031.876   -16468.215   -1916.3298     78.95147 
   27500    1486.6159   -161.09542    1.3451213    -159.7503    3323.9994    4.2807239    4.2807239    4.2807239    3323.9994   -23391.968    66001.458   -32637.492    2484.3854   -4821.5796    9844.6798     78.44254 
   27600    1236.2847   -160.87917    1.1186164   -159.76055    24485.723    4.2825233    4.2825233    4.2825233    24485.723   -31037.022    112961.47   -8467.2776    -6630.039    9243.7782    8427.8755    78.541501 
   27700    1011.0631   -160.67699   0.91483113   -159.76216   -4460.2442    4.2906524    4.2906524    4.2906524   -4460.2442   -22299.461    65172.628     -56253.9   -18598.797    2186.0526   -3729.0204    78.989616 
   27800    1860.7441   -161.44002    1.6836404   -159.75638    -33504.85    4.2842756    4.2842756    4.2842756    -33504.85   -61641.196    298.32575   -39171.681    5681.5642   -6223.3941   -20296.764    78.637951 
   27900    1348.1814   -160.97798    1.2198628   -159.75812    2732.3958    4.2707073    4.2707073    4.2707073    2732.3958    4440.7273   -9039.4292    12795.889     9123.527    20644.038   -11105.448    77.893179 
   28000    652.19242   -160.35228    0.5901174   -159.76216    37140.835    4.2605202    4.2605202    4.2605202    37140.835    27329.752   -36.618812    84129.373   -14103.573    31048.208    13678.462    77.337101 
   28100    1296.0694   -160.94472    1.1727109   -159.77201    14393.919    4.2661856    4.2661856    4.2661856    14393.919    46963.717   -23885.428    20103.468    13625.371    19710.213    2866.4193    77.646026 
   28200    1543.5846   -161.16045    1.3966678   -159.76378   -38635.549    4.2817018    4.2817018    4.2817018   -38635.549   -44155.672   -9094.3244    -62656.65     17271.05   -13259.705   -6759.0428    78.496313 
   28300    562.79295   -160.26776   0.50922689   -159.75853     13319.32    4.2709837    4.2709837    4.2709837     13319.32   -18624.421    80192.027   -21609.647   -9008.5688   -6053.3884    24258.935    77.908304 
   28400    910.07747   -160.59088   0.82345722   -159.76742      31569.4    4.2576529    4.2576529    4.2576529      31569.4    33824.934    79001.976   -18118.711   -7861.9861    5124.7985    25691.533    77.181063 
   28500    1518.9208   -161.14709    1.3743515   -159.77274   -16235.717    4.2675518    4.2675518    4.2675518   -16235.717   -2569.9731    99.813964   -46236.992   -1234.4777    1302.6141   -6429.6547    77.720647 
   28600    1308.5696   -160.95074    1.1840213   -159.76671   -34795.375    4.2758329    4.2758329    4.2758329   -34795.375   -48044.093   -34242.482   -22099.551    10265.005    -12667.75   -10639.645    78.173972 
   28700    1049.7454   -160.72227   0.94983166   -159.77244    16170.959     4.276162     4.276162     4.276162    16170.959    34156.792   -773.38523    15129.472    4867.4363   -6313.0634    6063.4055    78.192023 
   28800    1362.6666   -161.00537    1.2329694    -159.7724    19035.917    4.2742903    4.2742903    4.2742903    19035.917     8193.102    29731.633    19183.015   -2763.8637    5333.4345    8703.2159     78.08939 
   28900    1492.0365   -161.11012     1.350026   -159.76009   -16963.474    4.2569258    4.2569258    4.2569258   -16963.474   -46450.436   -6756.6126    2316.6268    22038.001   -12007.214   -13525.974    77.141528 
   29000    1474.9508   -161.09188    1.3345665   -159.75732   -618.91444    4.2503829    4.2503829    4.2503829   -618.91444    -20720.38   -13068.314    31931.951    20504.859   -6099.6422   -12650.113    76.786377 
   29100    1314.3676   -160.96632    1.1892674   -159.77705   -7807.0833    4.2761218    4.2761218    4.2761218   -7807.0833    4457.2946    10570.901   -38449.446    -8847.034    23406.721    857.64123    78.189819 
   29200    811.69568   -160.50285   0.73443931   -159.76841    7449.6919    4.2794364    4.2794364    4.2794364    7449.6919   -21101.484    44784.878   -1334.3182     1972.438    26693.904    14350.444    78.371781 
   29300    1242.5761   -160.87372     1.124309   -159.74941   -7045.5919    4.2678182    4.2678182    4.2678182   -7045.5919   -19535.903    7439.3095   -9040.1821    22028.605     5247.527   -2689.3197    77.735205 
   29400    1451.7561   -161.06715    1.3135794   -159.75357   -32640.828     4.274802     4.274802     4.274802   -32640.828   -44837.457   -34156.906   -18928.122    15954.927    5798.7712   -3441.6089     78.11744 
   29500    1018.9436   -160.68145   0.92196157   -159.75949    18730.125    4.2717727    4.2717727    4.2717727    18730.125   -4442.0243    33560.966    27071.433   -10548.613    13269.416    14044.727     77.95149 
   29600      1180.72   -160.82573    1.0683402   -159.75739    890.38024    4.2779664    4.2779664    4.2779664    890.38024    16557.919    8303.1654   -22189.944   -13185.139    6515.5892   -3672.7802    78.291046 
   29700    2015.9733   -161.57887     1.824095   -159.75478   -42396.546    4.2830497    4.2830497    4.2830497   -42396.546   -26575.888    -58542.04   -42071.712    12939.382   -16966.065   -15923.536     78.57047 
   29800    1562.7731   -161.16514    1.4140299   -159.75111    7307.1959    4.2631186    4.2631186    4.2631186    7307.1959   -13316.337      38864.8   -3626.8757   -5226.6809   -14795.981    1353.9039    77.478688 
   29900    1030.2984    -160.7009   0.93223569   -159.76867    35147.101    4.2647012    4.2647012    4.2647012    35147.101    8608.7515    76438.136    20394.415   -11428.907    3215.4721    16955.114    77.565007 
   30000    1382.8934    -161.0218     1.251271   -159.77053   -4736.6843    4.2876675    4.2876675    4.2876675   -4736.6843   -40142.482    49095.081   -23162.652     7403.386   -6354.7872    6673.8079    78.824876 
   30100    1520.5918   -161.12715    1.3758635   -159.75129   -40713.474    4.2844773    4.2844773    4.2844773   -40713.474    -36636.59   -11487.047   -74016.786    2332.4097    1485.8231   -8492.9634    78.649058 
   30200    770.21246   -160.44515   0.69690442   -159.74825    11089.993    4.2638941    4.2638941    4.2638941    11089.993    51776.973   -53405.787    34898.793   -8091.0662    33634.691    927.93789    77.520976 
   30300     915.5891   -160.58844   0.82844426   -159.75999    37796.475    4.2572557    4.2572557    4.2572557    37796.475    96211.785    1856.9668    15320.673   -19659.761    25697.817    23097.467    77.159463 
   30400    1409.0243   -161.04448    1.2749148   -159.76956   -19415.277    4.2824367    4.2824367    4.2824367   -19415.277   -11449.401    2026.3234   -48822.752    -8493.009   -847.54935    6385.7086    78.536739 
   30500    1550.7028   -161.14242    1.4031085   -159.73932   -52381.831    4.2944582    4.2944582    4.2944582   -52381.831   -23205.794   -87094.523   -46845.175    8161.1019   -10034.049   -4515.6868    79.199991 
   30600    1046.6749   -160.68045   0.94705348   -159.73339    37219.256     4.265982     4.265982     4.265982    37219.256    98111.117   -28337.521    41884.172   -3081.9779    21323.681   -1523.5095    77.634913 
   30700    956.66982   -160.62167   0.86561496   -159.75605    58502.722    4.2575479    4.2575479    4.2575479    58502.722    91421.487   -18157.436    102244.11     7342.578    29182.724   -13040.357    77.175355 
   30800    1325.9776   -160.96863    1.1997724   -159.76886   -9890.2247    4.2800927    4.2800927    4.2800927   -9890.2247   -21982.112   -62687.968    54999.406    6711.3506   -115.83199   -14151.656    78.407846 
   30900    1645.3849    -161.2398    1.4887788   -159.75102   -51229.547    4.2910047    4.2910047    4.2910047   -51229.547   -37053.341   -41208.312   -75426.989    7408.8536   -16663.303   -3412.8834    79.009075 
   31000    1658.4097   -161.24395    1.5005639   -159.74338   -21676.093    4.2824516    4.2824516    4.2824516   -21676.093   -19052.263   -23594.425   -22381.592   -5085.4444    -9260.624    4967.5675    78.537559 
   31100    931.74599   -160.59623   0.84306335   -159.75317    26771.643    4.2760408    4.2760408    4.2760408    26771.643    19607.495   -26007.587    86715.021    3348.7051    22301.685    -1168.051    78.185376 
   31200    847.10515   -160.52973   0.76647855   -159.76325    27405.131     4.271976     4.271976     4.271976    27405.131    30040.558   -34806.524    86981.358   -3528.5053    25213.227    7523.1237    77.962618 
   31300     1432.308   -161.06821    1.2959824   -159.77223    4286.1808    4.2636709    4.2636709    4.2636709    4286.1808    -5959.341   -49153.981    67971.865   -3971.6916   -3339.0103    19806.148    77.508803 
   31400    1838.0148   -161.44014    1.6630744   -159.77706   -30372.053    4.2662815    4.2662815    4.2662815   -30372.053   -32905.397   -47503.028   -10707.734   -6849.2473   -14441.352    3055.5298    77.651262 
   31500    1446.2605   -161.08598    1.3086069   -159.77737   -35147.813    4.2764434    4.2764434    4.2764434   -35147.813   -1992.6582   -33495.632   -69955.149   -6836.5936   -4312.1348    -14778.32    78.207459 
   31600     1255.978    -160.9075    1.1364353   -159.77106    20394.265    4.2666689    4.2666689    4.2666689    20394.265    35997.129   -21241.722    46427.389    6935.5514    7122.8439   -20151.648    77.672418 
   31700    1189.4434    -160.8536    1.0762334   -159.77736    33141.021    4.2608432    4.2608432    4.2608432    33141.021     28695.63   -4347.6655    75075.097   -10230.188    28799.117   -16038.914    77.354689 
   31800    1268.6666   -160.93333    1.1479162   -159.78541   -19265.927    4.2746383    4.2746383    4.2746383   -19265.927   -753.63916   -19120.725   -37923.418   -6808.6023    1244.5223    1813.5326    78.108467 
   31900    1616.0667   -161.23245    1.4622511    -159.7702   -31789.165    4.2788198    4.2788198    4.2788198   -31789.165   -34010.739    5999.3483   -67356.104   -7863.4471   -7445.4995    5400.8171     78.33791 
   32000      1047.28   -160.70956   0.94760095   -159.76196    39646.983    4.2585608    4.2585608    4.2585608    39646.983    21946.093    71581.767     25413.09    13878.129    19318.341   -14311.943    77.230449 
   32100     1099.139   -160.75626   0.99452403   -159.76173    24738.607    4.2584262    4.2584262    4.2584262    24738.607    21276.092    57419.413   -4479.6849     14274.31    2652.3662   -677.60807    77.223128 
   32200    1675.0827    -161.2779      1.51565   -159.76225   -44098.295    4.2878077    4.2878077    4.2878077   -44098.295   -57120.469    -8878.809   -66295.607   -4409.1379   -13522.358    3137.9974     78.83261 
   32300    1159.7842   -160.79834    1.0493971   -159.74894     6794.691    4.2863448    4.2863448    4.2863448     6794.691    9382.0944   -33460.464    44462.443    12488.781    8083.5776    -1652.648    78.751952 
   32400    776.86258   -160.44505   0.70292159   -159.74213    37980.398    4.2607705    4.2607705    4.2607705    37980.398    69521.009    20392.784    24027.401    17934.149    10915.635    3223.2806    77.350734 
   32500    1470.8664   -161.08377    1.3308709    -159.7529    -9547.968    4.2604056    4.2604056    4.2604056    -9547.968    23078.846   -38097.161   -13625.589    12799.888   -889.10642    405.76181    77.330862 
   32600    1953.8361   -161.52725     1.767872   -159.75938   -36314.617    4.2700015    4.2700015    4.2700015   -36314.617   -60697.571   -36732.502   -11513.778    793.10852   -15778.895    15855.782    77.854567 
   32700    1319.0743   -160.95996    1.1935262   -159.76643    2885.5909    4.2707143    4.2707143    4.2707143    2885.5909    40505.515    11686.537    -43535.28    3380.3325   -2310.2428   -12871.496    77.893562 
   32800    932.14258   -160.61553   0.84342219    -159.7721        18909     4.278704     4.278704     4.278704        18909    90370.798   -24718.142   -8925.6553    4065.4498    18473.829   -8413.7138    78.331553 
   32900    1273.2788   -160.91969    1.1520894    -159.7676   -2627.7269    4.2758466    4.2758466    4.2758466   -2627.7269    28430.948   -62658.039     26343.91    -9190.107    9523.2049    5775.1469    78.174725 
   33000     1333.563   -160.96169    1.2066358   -159.75505   -8494.9824    4.2535315    4.2535315    4.2535315   -8494.9824    5511.8527    21072.801   -52069.601   -14558.982   -12894.515     6652.742    76.957149 
   33100    1235.5487   -160.90477    1.1179504   -159.78682    1167.7261    4.2646099    4.2646099    4.2646099    1167.7261   -20153.666    41157.557   -17500.713    -12547.92   -6133.7986     5602.734    77.560024 
   33200    1180.5521   -160.85166    1.0681884   -159.78347   -2559.9911    4.2935432    4.2935432    4.2935432   -2559.9911   -50939.465    34604.201    8655.2904    1499.7299    2798.3725   -6175.8239    79.149377 
   33300     1080.653    -160.7403   0.97779751    -159.7625   -14666.514    4.2720873    4.2720873    4.2720873   -14666.514   -5346.7976    29449.888   -68102.632    14156.524   -974.34082   -4207.4194    77.968712 
   33400    1617.3553    -161.2048    1.4634171   -159.74138   -8482.0842    4.2394471    4.2394471    4.2394471   -8482.0842   -4238.8767    1920.0309   -23127.407   -7145.9507    -10083.28    18688.957    76.195209 
   33500     1811.619   -161.43049    1.6391909    -159.7913   -28770.984    4.2656741    4.2656741    4.2656741   -28770.984   -47663.173   -36095.594    -2554.186   -13197.659   -7075.8303    4482.1443      77.6181 
   33600    991.41532   -160.67476   0.89705341   -159.77771   -19278.107    4.2921114    4.2921114    4.2921114   -19278.107   -32697.392    24980.504   -50117.432    485.56558    6437.2298   -8490.3627    79.070222 
   33700    826.91414   -160.51633   0.74820929   -159.76812    23966.485    4.2624237    4.2624237    4.2624237    23966.485   -17980.324    74805.153    15074.627   -9970.9002    2171.8266   -14481.562    77.440806 
   33800    1604.1371   -161.20886     1.451457    -159.7574    2383.3127    4.2417009    4.2417009    4.2417009    2383.3127   -35270.214    5067.1343    37353.018   -22260.149   -5527.0174    3098.2748    76.316796 
   33900    1516.3836   -161.15322    1.3720558   -159.78116   -37426.795     4.263902     4.263902     4.263902   -37426.795   -26403.855   -50272.489    -35604.04   -24364.197   -3954.8102    9968.9843    77.521408 
   34000    964.37296   -160.64951   0.87258492   -159.77692   -1386.8049    4.2796855    4.2796855    4.2796855   -1386.8049    61606.299   -39891.669   -25875.045    1017.8372    15582.182   -8552.6901    78.385472 
   34100    1450.4021   -161.07845    1.3123543    -159.7661     11946.74    4.2678548    4.2678548    4.2678548     11946.74    46734.017   -36316.069    25422.273    11011.359    20288.476   -13713.636    77.737204 
   34200    1357.3529   -160.99265    1.2281614   -159.76449   -9037.2728    4.2599132    4.2599132    4.2599132   -9037.2728    13861.322   -17544.919   -23428.221    6779.7079   -12721.812    10126.482    77.304051 
   34300    1291.7159     -160.935    1.1687717   -159.76623   -30144.444    4.2626021    4.2626021    4.2626021   -30144.444   -18847.013    11600.569   -83186.888   -7786.0837   -6859.6041    9984.6259    77.450527 
   34400    1166.4446   -160.83043    1.0554236   -159.77501    40202.736    4.2573765    4.2573765    4.2573765    40202.736    10286.861    73864.072    36457.275    2767.7174   -6793.5317   -11036.806    77.166033 
   34500    945.34716   -160.64631   0.85536998   -159.79094    36551.413    4.2716697    4.2716697    4.2716697    36551.413    13664.641     53667.27     42322.33    15292.773   -2778.5672   -8521.8364    77.945849 
   34600    1005.5933   -160.67932   0.90988192   -159.76944   -32598.175    4.2904578    4.2904578    4.2904578   -32598.175    17341.234   -18900.629    -96235.13    9690.5267    6826.0955    9109.2647    78.978866 
   34700    1608.3649   -161.20365    1.4552824   -159.74837   -16149.832    4.2726867    4.2726867    4.2726867   -16149.832    17512.205   -47486.232    -18475.47   -8035.4539   -20619.682    15640.828    78.001537 
   34800    1223.5288   -160.86348    1.1070746    -159.7564    23922.932    4.2548146    4.2548146    4.2548146    23922.932    10400.573    32580.357    28787.866   -2751.8149   -20920.501   -9526.5787    77.026811 
   34900    837.10773   -160.53692   0.75743266   -159.77948    11723.785    4.2645288    4.2645288    4.2645288    11723.785   -19753.872    74508.389   -19583.162    3292.1442   -4843.2679   -11205.016    77.555599 
   35000    1466.1528   -161.10372    1.3266059   -159.77712   -16882.944    4.2720105    4.2720105    4.2720105   -16882.944    -26053.19   -277.12597   -24318.517    12230.381    4671.2922   -4308.8068    77.964507 
   35100    1640.5301   -161.24746    1.4843861   -159.76307   -34295.942    4.2651369    4.2651369    4.2651369   -34295.942   -7101.0874   -63838.389   -31948.351    5656.9379    12410.309    4108.1517     77.58878 
   35200    1234.3478   -160.88128    1.1168639   -159.76442    12489.924    4.2452885    4.2452885    4.2452885    12489.924    53347.036    13123.003   -29000.266   -910.28555    1644.2233   -9030.0391    76.510605 
   35300    1225.4985   -160.89243    1.1088568   -159.78358    39898.289      4.24498      4.24498      4.24498    39898.289    51004.516    37524.375    31165.976   -2573.5381   -5098.5173   -15397.884    76.493925 
   35400    1333.9691   -161.00091    1.2070033    -159.7939   -435.27291      4.26965      4.26965      4.26965   -435.27291   -18296.118   -9272.5288    26262.828    12851.772    6390.6495   -5732.2152    77.835339 
   35500    1366.3975   -161.00209    1.2363451   -159.76575   -62454.868    4.2852701    4.2852701    4.2852701   -62454.868   -59103.707   -59796.506   -68464.392    19765.594    8144.6693      818.985    78.692727 
   35600     1167.377   -160.81589    1.0562672   -159.75962    11841.035    4.2661982    4.2661982    4.2661982    11841.035    21941.562    2025.7861    11555.757    -3123.218   -11938.718   -5839.2869    77.646717 
   35700    994.94237    -160.6683   0.90024477   -159.76805    44321.618    4.2585563    4.2585563    4.2585563    44321.618    41627.648    5228.3119    86108.892   -2486.7028    -25443.79   -8920.2146    77.230202 
   35800    1198.0684   -160.85106    1.0840375   -159.76702   -19021.145    4.2665664    4.2665664    4.2665664   -19021.145   -18473.221   -21617.718   -16972.496    14113.409    -12012.03    3585.9216    77.666821 
   35900    1629.8764   -161.23124    1.4747465    -159.7565   -36666.616     4.261494     4.261494     4.261494   -36666.616   -53331.812   -16439.258   -40228.779    21267.699   -50.235596    5267.2193    77.390143 
   36000    1375.4116   -161.01491    1.2445013   -159.77041    16814.636    4.2622427    4.2622427    4.2622427    16814.636   -26537.275    9734.7251    67246.456   -484.43146    3708.0576   -14924.309    77.430942 
   36100    980.11219   -160.65766   0.88682611   -159.77084    212.61956    4.2801109    4.2801109    4.2801109    212.61956   -35060.864    43886.808   -8188.0848   -10915.952   -6282.4634   -19339.931    78.408848 
   36200    1544.2412   -161.15036    1.3972619    -159.7531   -26845.138    4.2702021    4.2702021    4.2702021   -26845.138   -41099.153     32231.55   -71667.813   -1022.8234    15241.862    3974.9025     77.86554 
   36300    1731.3399   -161.31852    1.5665527   -159.75197      12583.4    4.2518576    4.2518576    4.2518576      12583.4    5484.4844    5594.5408    26671.175    9147.4454    4842.1211    15655.239    76.866326 
   36400    1189.2169   -160.84846    1.0760285   -159.77243    10646.402    4.2598278    4.2598278    4.2598278    10646.402    39829.436   -15871.266    7981.0354    6541.1013   -7748.6353    6585.8228    77.299401 
   36500    1583.6649   -161.20278    1.4329333   -159.76985   -34718.817    4.2729011    4.2729011    4.2729011   -34718.817    6357.6815   -32955.133   -77558.999   -4073.2581    2536.8505   -7504.2511    78.013277 
   36600    1848.6841   -161.43979    1.6727282   -159.76706   -16627.185    4.2724315    4.2724315    4.2724315   -16627.185   -32671.975   -6391.9445   -10817.637   -14779.684    2106.4819   -9155.1166    77.987558 
   36700    1055.7333   -160.72075    0.9552497    -159.7655    25573.651    4.2622504    4.2622504    4.2622504    25573.651    2266.3249    46703.654    27750.975     4045.181   -30179.493      14522.7    77.431359 
   36800    1017.2659   -160.68484   0.92044358    -159.7644    4757.0467    4.2585087    4.2585087    4.2585087    4757.0467   -4195.7314     43074.13   -24607.259   -3609.0342   -14232.011    4946.5959    77.227615 
   36900    1842.8977    -161.4294    1.6674926   -159.76191    -23799.78    4.2657966    4.2657966    4.2657966    -23799.78   -25609.797   -11176.558   -34612.986   -8498.3006   -6112.2824   -14866.574    77.624787 
   37000    1400.3877   -161.03324    1.2671002   -159.76614   -9617.7444    4.2699511    4.2699511    4.2699511   -9617.7444    6451.5559   -44594.357    9289.5677   -8412.9619    -22219.01    288.45956     77.85181 
   37100    701.17079    -160.4088   0.63443407   -159.77436    16697.593    4.2676084    4.2676084    4.2676084    16697.593     58168.58   -21638.497    13562.697    3096.2235   -21853.554    4664.6294    77.723742 
   37200    1441.1701   -161.08175     1.304001   -159.77775    16186.705    4.2647736    4.2647736    4.2647736    16186.705    31545.832   -30555.017    47569.299    5245.1777    310.73017    6638.2171    77.568957 
   37300    1748.3889   -161.35464     1.581979   -159.77266   -14054.343    4.2623642    4.2623642    4.2623642   -14054.343   -27535.185   -30977.158    16349.313    -8373.519    7845.1163   -3988.8888    77.437562 
   37400    1195.7691   -160.85242     1.081957   -159.77046   -14489.178    4.2622765    4.2622765    4.2622765   -14489.178   -500.66105    37031.683   -79998.555    3327.5277    18344.409   -5428.0293    77.432782 
   37500    1497.4336   -161.13301    1.3549094    -159.7781    19609.623    4.2636323    4.2636323    4.2636323    19609.623     56620.46    38438.769   -36230.361    19137.521    5317.1125      7586.37    77.506699 
   37600    1584.3714    -161.2162    1.4335726   -159.78263   -4679.4314    4.2711149    4.2711149    4.2711149   -4679.4314    18946.295   -23683.387   -9301.2023    11615.829   -9657.0131    2909.9665    77.915483 
   37700    1125.0022   -160.79435    1.0179256   -159.77642   -23271.016    4.2672155    4.2672155    4.2672155   -23271.016     31183.18   -40562.981   -60433.245   -6473.2765   -1409.5997   -14340.408    77.702275 
   37800    1922.1529   -161.50809    1.7392043   -159.76888   -15598.631    4.2531524    4.2531524    4.2531524   -15598.631   -7505.6328   -3825.1003    -35465.16   -8262.4374    -5621.387   -8234.2535    76.936575 
   37900    1651.5713   -161.27931    1.4943764   -159.78494    17532.733    4.2516512    4.2516512    4.2516512    17532.733    76.603174    24516.482    28005.114   -1794.4827   -22675.376   -7230.2612    76.855134 
   38000     640.5315   -160.38213   0.57956636   -159.80256    120.03414    4.2718406    4.2718406    4.2718406    120.03414    265.97646      43715.7   -43621.574    9325.7117   -13712.865    10428.738    77.955206 
   38100    1063.5543   -160.74402    0.9623263   -159.78169   -5370.4717    4.2744932    4.2744932    4.2744932   -5370.4717   -23598.802    62526.148   -55038.761    12641.662   -17007.954    4290.3678    78.100513 
   38200    1684.2544   -161.29185    1.5239488    -159.7679     25211.43     4.249199     4.249199     4.249199     25211.43    2996.5216    44944.985    27692.784   -2597.4152   -2079.1746   -14426.393     76.72223 
   38300    974.05104   -160.66303   0.88134185   -159.78169    1511.7903    4.2568654    4.2568654    4.2568654    1511.7903    16689.433    47350.738     -59504.8   -8335.3804    6505.5144   -5535.7565    77.138247 
   38400    1132.0821   -160.81148    1.0243317   -159.78715   -15436.049    4.2743759    4.2743759    4.2743759   -15436.049   -2086.9534    6751.5326   -50972.727   -9937.0965   -1975.4201   -8987.5833    78.094085 
   38500    2027.4774   -161.60541    1.8345042   -159.77091   -21958.947    4.2601554    4.2601554    4.2601554   -21958.947   -38163.037   -40609.632    12895.828    10701.751    13103.121    665.05465    77.317239 
   38600     1218.203   -160.86895    1.1022557   -159.76669   -4268.1743    4.2527684    4.2527684    4.2527684   -4268.1743    26390.752   -13732.057   -25463.218    11294.447    610.14345    7234.6734    76.915737 
   38700    761.95102   -160.47049    0.6894293   -159.78106     11491.53    4.2722303    4.2722303    4.2722303     11491.53    56261.494     21112.35   -42899.253    -11640.56   -23210.239   -7598.9364    77.976543 
   38800    1266.3652   -160.92095    1.1458339   -159.77512    15510.002    4.2705138    4.2705138    4.2705138    15510.002     22346.51    30252.918   -6069.4231   -5602.1768   -29202.856   -7044.3449    77.882589 
   38900    1056.5772   -160.71626   0.95601322   -159.76025    4362.3183    4.2521384    4.2521384    4.2521384    4362.3183     5637.331    14310.376   -6860.7525    7745.7735   -13501.547    1156.5909     76.88156 
   39000    1158.0481   -160.81833    1.0478263    -159.7705   -20062.442    4.2560117    4.2560117    4.2560117   -20062.442   -21835.666   -11813.581    -26538.08    13223.331   -8467.2288    4626.2015    77.091844 
   39100    1623.7645    -161.2475    1.4692163   -159.77828    4853.7155    4.2633201    4.2633201    4.2633201    4853.7155   -5250.7897   -6424.6139     26236.55    4512.0777   -2910.0357   -9833.3536    77.489673 
   39200     1228.152    -160.8824    1.1112577   -159.77114     13007.44    4.2599573    4.2599573    4.2599573     13007.44    13048.734   -1205.7414    27179.328   -897.57391   -12668.981   -11065.805    77.306453 
   39300    1226.2001   -160.87898    1.1094916   -159.76949   -10372.131    4.2545515    4.2545515    4.2545515   -10372.131   -9904.3338   -24933.515    3721.4552    12185.525    3343.3364    7232.6095    77.012525 
   39400    1856.9554   -161.45704    1.6802123   -159.77683   -14011.938    4.2580257    4.2580257    4.2580257   -14011.938    -32400.84   -1387.8758   -8247.0985    8955.7118    16559.254    12010.575    77.201338 
   39500     1367.206   -161.01879    1.2370767   -159.78172    12822.494    4.2596425    4.2596425    4.2596425    12822.494    24017.125    23493.094   -9042.7356   -5699.6721     2431.015    2612.5045    77.289313 
   39600    622.03199   -160.34239   0.56282762   -159.77956    18033.334    4.2595976    4.2595976    4.2595976    18033.334    58471.948     57802.01   -62173.955    -12594.76   -4863.1131    1174.1379    77.286871 
   39700    1395.7439   -161.04695    1.2628985   -159.78405    1349.5453    4.2640328    4.2640328    4.2640328    1349.5453    4695.1105    40631.835    -41278.31   -9366.7199   -8542.6156   -9342.1279    77.528543 
   39800    1696.5468   -161.31506    1.5350712   -159.77999   -29166.035    4.2615599    4.2615599    4.2615599   -29166.035   -45441.221   -1189.9172   -40866.967     12048.24   -18813.005    1924.0837    77.393735 
   39900    761.02338   -160.46827   0.68858995   -159.77968   -11930.402    4.2531102    4.2531102    4.2531102   -11930.402    8635.9572    15418.599   -59845.763    16065.176   -26308.266    16289.401    76.934283 
   40000    1142.5004   -160.82187    1.0337584   -159.78811    6799.1959    4.2587847    4.2587847    4.2587847    6799.1959    4912.3121    11547.204    3938.0721   -262.21967   -35740.797   -1644.3364    77.242629 
   40100    1652.2706   -161.28183    1.4950091   -159.78682    3356.9836    4.2641527    4.2641527    4.2641527    3356.9836   -3121.3461    7413.5941    5778.7028    -7442.035   -22590.286   -11531.778    77.535083 
   40200    916.41963   -160.60645   0.82919574   -159.77725    3729.9223    4.2614683    4.2614683    4.2614683    3729.9223    23369.766    31355.312   -43535.311    1045.1735    1192.9613    7123.6785    77.388741 
   40300    1606.4384   -161.22123    1.4535392   -159.76769   -24856.766    4.2557059    4.2557059    4.2557059   -24856.766    -13626.92   -23978.918   -36964.461   -1171.1978    15615.209   -2647.5963    77.075228 
   40400    2014.3158    -161.5986    1.8225952     -159.776     8689.009    4.2522632    4.2522632    4.2522632     8689.009   -22460.218   -9087.4521    57614.697    6676.4764    9628.5429   -10507.062    76.888329 
   40500    1216.9045   -160.88868    1.1010808    -159.7876    3647.7405    4.2635424    4.2635424    4.2635424    3647.7405    -3344.977    6905.1041    7383.0945    3230.1909   -2415.9457    2416.4232    77.501794 
   40600    721.66278   -160.43398   0.65297565   -159.78101   -4074.3501    4.2694552    4.2694552    4.2694552   -4074.3501    11884.235   -1575.5526   -22531.733   -9609.6901   -5797.1377   -4835.6738    77.824689 
   40700    1725.4493   -161.33708    1.5612228   -159.77586    7792.9748    4.2556716    4.2556716    4.2556716    7792.9748   -3436.9076    8921.4382    17894.394    8994.1873   -6809.7756    -2674.183    77.073363 
   40800      1648.21   -161.26986     1.491335   -159.77853   -17850.968    4.2510986    4.2510986    4.2510986   -17850.968    -7647.825    -6045.147   -39859.933     8620.422    1133.6822    1697.3501    76.825173 
   40900    521.74347   -160.26035   0.47208446   -159.78827   -13569.258    4.2527164    4.2527164    4.2527164   -13569.258    11685.991    24083.542   -76477.308    4335.9188   -11093.413   -6804.8414    76.912914 
   41000    1144.2564   -160.82841    1.0353472   -159.79307    22125.297    4.2483676    4.2483676    4.2483676    22125.297    47569.608    21914.096   -3107.8122   -10008.517   -24395.232   -6019.6038    76.677203 
   41100    1464.5257   -161.12131    1.3251336   -159.79617    20548.577    4.2560973    4.2560973    4.2560973    20548.577    53633.245    29370.304    -21357.82   -8573.9444   -19186.993    11460.072    77.096496 
   41200     879.0502   -160.58931    0.7953831   -159.79393   -11745.983    4.2646692    4.2646692    4.2646692   -11745.983     34466.56    10142.721   -79847.231     7555.164   -12102.079    16702.258    77.563259 
   41300    1453.5523   -161.09729    1.3152046   -159.78209   -24988.722    4.2590486    4.2590486    4.2590486   -24988.722    -9332.578   -30021.638    -35611.95    10616.033   -1463.1944    13979.784    77.256993 
   41400    1760.9917   -161.37375    1.5933823   -159.78037    21940.709    4.2479227    4.2479227    4.2479227    21940.709   -10350.568    23696.464     52476.23    2159.6899    8392.4532   -4676.7964    76.653115 
   41500    1098.1445   -160.78077   0.99362418   -159.78715    15166.474    4.2547312    4.2547312    4.2547312    15166.474    9569.8035     33978.43    1951.1888    9597.3281    11797.849   -6491.4875    77.022282 
   41600    1086.7706   -160.76684   0.98333287   -159.78351   -16304.601    4.2650212    4.2650212    4.2650212   -16304.601   -19640.218   -3903.9408   -25369.644   -2241.1651    12102.287   -7990.5242    77.582465 
   41700    2033.3133   -161.62122    1.8397846   -159.78143   -18500.409     4.256031     4.256031     4.256031   -18500.409   -27106.773   -59817.128    31422.676   -4231.6355    3267.2959    3280.2209    77.092894 
   41800    1749.3674   -161.36537    1.5828644   -159.78251   -4295.3206    4.2483656    4.2483656    4.2483656   -4295.3206    1241.8498   -2479.6378   -11648.174    12809.852   -4919.3012    11806.786    76.677097 
   41900    970.62387   -160.66624   0.87824088     -159.788   -21538.269    4.2590285    4.2590285    4.2590285   -21538.269   -19215.589    38328.965   -83728.184   -6712.4075   -323.31303   -991.33865    77.255895 
   42000    1202.5123   -160.87484    1.0880584   -159.78678    14045.902     4.261282     4.261282     4.261282    14045.902   -30500.579    57889.232    14749.051    2903.9577    -2335.736   -18727.724    77.378592 
   42100    1247.6544   -160.91458    1.1289039   -159.78568    24595.354    4.2562953    4.2562953    4.2562953    24595.354   -5846.7565    61079.382    18553.436   -2659.3515   -4065.6447   -22091.773    77.107255 
   42200    760.71913   -160.47377   0.68831465   -159.78545    -7775.665    4.2621964    4.2621964    4.2621964    -7775.665    4426.4849    38745.478   -66498.958   -5082.9507   -9117.1342   -12905.057    77.428417 
   42300    1621.5734   -161.24992    1.4672337   -159.78269   -17367.363    4.2621478    4.2621478    4.2621478   -17367.363   -15722.739    1133.3146   -37512.664    6815.4557   -14315.885   -2367.5005    77.425767 
   42400    1911.0216   -161.51375    1.7291325   -159.78462   -775.93323    4.2461573    4.2461573    4.2461573   -775.93323   -20830.147    21523.899   -3021.5511   -5465.5713   -452.94324    953.94819    76.557587 
   42500    1306.9078   -160.97525    1.1825176   -159.79273   -12823.297    4.2454411    4.2454411    4.2454411   -12823.297   -8471.2049    25064.969   -55063.654    6412.2437    1644.2666    12896.475    76.518857 
   42600    1407.8312   -161.07592    1.2738352   -159.80209   -20412.046    4.2609681    4.2609681    4.2609681   -20412.046   -8388.2174   -34918.683   -17929.236   -2928.9677    15364.846    8292.8229    77.361495 
   42700    1569.2079   -161.21231    1.4198523   -159.79245    2229.5106    4.2636187    4.2636187    4.2636187    2229.5106    17156.633   -17626.984    7158.8827    -4571.278    7077.6644   -7781.6758    77.505956 
   42800    867.28702   -160.56254   0.78473952    -159.7778    19726.843    4.2500595    4.2500595    4.2500595    19726.843    23154.098    63337.987   -27311.557    3581.2943   -3123.1898    -17360.19    76.768852 
   42900    702.97239   -160.41793   0.63606419   -159.78186    15299.926     4.246302     4.246302     4.246302    15299.926    -12214.84    80215.184   -22100.566   -1189.9434    3034.9026   -18064.785    76.565413 
   43000    1476.9836   -161.12946    1.3364058   -159.79306     13907.49    4.2436058    4.2436058    4.2436058     13907.49   -37951.512    39362.081    40311.902     4388.636    15122.892   -14646.811    76.419658 
   43100    1508.5437   -161.15804    1.3649621   -159.79308    -14022.51    4.2515642    4.2515642    4.2515642    -14022.51   -7377.3605   -5960.6336   -28729.535   -778.07891    649.19834   -5487.7302    76.850415 
   43200    1204.3013    -160.8822    1.0896771   -159.79252   -41208.847    4.2700904    4.2700904    4.2700904   -41208.847    8070.6447   -39299.168   -92398.018    4861.0274   -4801.2055   -6140.0793    77.859427 
   43300    1916.6076   -161.51999    1.7341868   -159.78581   -25727.591    4.2639349    4.2639349    4.2639349   -25727.591   -36432.438   -14783.042   -25967.293    7026.2011   -2981.9332    8845.2037    77.523202 
   43400    1678.8747   -161.29615    1.5190811   -159.77707     16701.69    4.2366679    4.2366679    4.2366679     16701.69   -13045.105    57717.272    5432.9019    5231.9037   -2528.5285    7494.3638    76.045457 
   43500    821.84672   -160.53567   0.74362418   -159.79204    15686.196    4.2434857    4.2434857    4.2434857    15686.196    11141.014    89524.127   -53606.552    1054.0877   -13052.304   -5480.4698    76.413175 
   43600     1283.868   -160.96125    1.1616708   -159.79958    11738.787    4.2679164    4.2679164    4.2679164    11738.787   -22719.387     53323.82    4611.9283   -7424.0855    1719.2005    7437.7198    77.740568 
   43700     1317.968   -160.97694    1.1925251   -159.78442      13612.7    4.2696485    4.2696485    4.2696485      13612.7   -32049.072    45981.211    26905.961   -2471.4091    12007.663   -7034.1744    77.835256 
   43800     848.3192   -160.54281   0.76757704   -159.77523    -3563.792    4.2524773    4.2524773    4.2524773    -3563.792   -10698.482     62712.36   -62705.255    700.49446    14987.848    3364.0708    76.899941 
   43900    1314.7876   -160.97326    1.1896475   -159.78361    -7465.582    4.2410931    4.2410931    4.2410931    -7465.582   -19886.924    43656.379   -46166.201    8553.9874     24949.42   -3474.7893    76.283995 
   44000    1733.1503    -161.3643    1.5681908   -159.79611   -2609.4015    4.2408957    4.2408957    4.2408957   -2609.4015   -18926.484    12748.768   -1650.4888    2646.2575    8815.1211   -8018.7593    76.273343 
   44100    1167.5658   -160.85737     1.056438   -159.80093   -31365.128    4.2580582    4.2580582    4.2580582   -31365.128   -19663.302   -3222.2688   -71209.814   -6272.6873   -5803.6609    2162.2703    77.203108 
   44200    1389.0697   -161.04682    1.2568595   -159.78996   -36572.586    4.2716805    4.2716805    4.2716805   -36572.586   -37874.618   -50260.978   -21582.162   -993.53207   -3928.2274    -4177.832    77.946442 
   44300    1583.7843    -161.2149    1.4330413   -159.78186    855.11929    4.2620292    4.2620292    4.2620292    855.11929   -36796.838   -20041.059    59403.254   -1164.2363    1266.0677   -2513.1212    77.419304 
   44400    784.64989   -160.49066   0.70996771   -159.78069    3926.1641     4.242223     4.242223     4.242223    3926.1641    -3701.885    53822.697    -38342.32    3746.2845    19480.856    -2456.935    76.344979 
   44500    808.04634   -160.52081   0.73113731   -159.78967    4667.4165    4.2365123    4.2365123    4.2365123    4667.4165    22147.621    53713.239    -61858.61    27.358909    11520.295   -11583.907    76.037078 
   44600    1658.5035   -161.30248    1.5006488   -159.80183    12105.258    4.2477217    4.2477217    4.2477217    12105.258    1445.7857    6044.0191    28825.968   -5867.2276    -4125.522    1587.3919    76.642234 
   44700    1295.5288   -160.97004    1.1722217   -159.79782   -3800.1988    4.2650049    4.2650049    4.2650049   -3800.1988    26526.387   -35888.993   -2037.9903   -2328.5631    24284.085   -7609.8004    77.581576 
   44800     595.3878   -160.32452   0.53871939    -159.7858   -10100.621    4.2677605    4.2677605    4.2677605   -10100.621    46892.843   -26117.401   -51077.306   -680.08209    10385.893    2729.9604    77.732051 
   44900    1415.9811   -161.06514    1.2812095   -159.78394    8846.3541    4.2463645    4.2463645    4.2463645    8846.3541    19679.909   -5934.2618    12793.415    13508.162   -1615.7535    7615.9374    76.568795 
   45000    1525.4052   -161.16117    1.3802187   -159.78095    24527.023     4.224624     4.224624     4.224624    24527.023    27332.399    19861.714    26386.956    5968.0964    14348.412    14256.859    75.398758 
   45100    858.93344   -160.57296   0.77718103   -159.79578    -10981.25    4.2431358    4.2431358    4.2431358    -10981.25    24987.829    17386.044   -75317.621    984.37725    6543.7569    12596.365    76.394274 
   45200    1218.9163   -160.89992    1.1029011   -159.79702   -25432.319    4.2722642    4.2722642    4.2722642   -25432.319   -5656.7912   -13398.738   -57241.426   -4893.7763    9358.7836   -864.81362    77.978399 
   45300    1950.8029   -161.54957    1.7651274   -159.78444   -4225.2053    4.2680301    4.2680301    4.2680301   -4225.2053    -30290.91    8888.9106    8726.3834   -6460.2788    5914.8305    2866.1508    77.746779 
   45400    1049.8725    -160.7256   0.94994667   -159.77565    9753.9292    4.2443328    4.2443328    4.2443328    9753.9292    4067.3555    58264.556   -33070.124    5929.1583   -7826.0758   -2122.2324    76.458941 
   45500    1101.4177   -160.78204   0.99658585   -159.78546      -1761.1     4.241383     4.241383     4.241383      -1761.1    2582.5022    26466.921   -34332.723    13550.391   -5568.5412    115.30194    76.299635 
   45600    2142.9868   -161.73165    1.9390195   -159.79263   -11728.237    4.2476223    4.2476223    4.2476223   -11728.237   -24001.667   -17682.408    6499.3632    7835.3437   -14042.148    10199.088    76.636857 
   45700    1478.8853   -161.12906    1.3381265   -159.79093   -300.38369    4.2474371    4.2474371    4.2474371   -300.38369    16725.552    10285.545   -27912.248    4662.5518   -13944.606   -2416.7345    76.626831 
   45800    825.16624   -160.54097   0.74662776   -159.79434   -3830.0968    4.2559007    4.2559007    4.2559007   -3830.0968    50576.986    16653.057   -78720.334   -1924.6741   -3270.1141   -3821.6214    77.085812 
   45900    1640.5326   -161.27233    1.4843884   -159.78794   -5828.0034    4.2629661    4.2629661    4.2629661   -5828.0034    11522.036   -4887.1842   -24118.862    -2727.731   -3814.4806   -7436.7813    77.470371 
   46000    1515.8556   -161.15446     1.371578   -159.78288   -3818.4493    4.2434939    4.2434939    4.2434939   -3818.4493    20261.427   -2373.7924   -29342.982    1801.1615     11917.98   -8914.2567    76.413614 
   46100    651.56232   -160.37067   0.58954728   -159.78112   -10334.657    4.2316503    4.2316503    4.2316503   -10334.657    27936.775    28868.741   -87809.487   -3065.5994    26220.437    1536.2717    75.775588 
   46200    997.30056   -160.70179   0.90237851   -159.79942   -5143.2086    4.2489591    4.2489591    4.2489591   -5143.2086    1451.1362    19647.614   -36528.375    1545.8157    18156.908   -5833.1242    76.709237 
   46300    1484.8495   -161.13768    1.3435231   -159.79415    18674.116     4.263499     4.263499     4.263499    18674.116    14056.663    17006.383    24959.303    2633.9263     32704.15   -9271.0346     77.49943 
   46400    731.51845   -160.44476   0.66189327   -159.78287    17288.604    4.2584713    4.2584713    4.2584713    17288.604     82473.86    30165.897   -60773.945    2389.2266    20265.768   -2681.4738    77.225579 
   46500    1131.2492   -160.80333    1.0235781   -159.77976   -3585.2146     4.249465     4.249465     4.249465   -3585.2146    36731.781   -3659.7882   -43827.637   -2045.9883    9501.4684    4461.7095    76.736639 
   46600    2006.4213   -161.59808    1.8154522   -159.78263    41.037973     4.240812     4.240812     4.240812    41.037973   -18595.726   -4214.7455    22933.586   -2185.3632    7585.2688    4751.8465    76.268828 
   46700    1425.5442   -161.07803    1.2898624   -159.78817     7727.693    4.2371963    4.2371963    4.2371963     7727.693    10629.217    33928.899   -21375.037    5158.1086   -302.87352   -3169.9273     76.07391 
   46800    885.27769   -160.59678   0.80101786   -159.79576    -7349.318    4.2531448    4.2531448    4.2531448    -7349.318     33752.44    11248.185   -67048.579    231.43914   -11662.568    2461.7732    76.936162 
   46900    1993.6725   -161.59194    1.8039168   -159.78803   -22968.134    4.2635842    4.2635842    4.2635842   -22968.134   -20380.529   -52705.735    4181.8613    2599.0496   -16312.086   -3955.2784    77.504076 
   47000    1861.3693    -161.4647    1.6842061   -159.78049   -11206.347    4.2489404    4.2489404    4.2489404   -11206.347   -26712.078   -22066.263    15159.299   -10234.968   -9385.6328    7755.9182    76.708224 
   47100    767.88509   -160.47087   0.69479856   -159.77607     2874.026    4.2355842    4.2355842    4.2355842     2874.026    357.28441     67949.23   -59684.436   -4099.7514    12418.308    9738.4994    75.987117 
   47200    1172.2266    -160.8503    1.0606553   -159.78965     1415.145    4.2436423    4.2436423    4.2436423     1415.145   -33506.613    76446.857   -38694.809    2993.8661    22333.515    7196.1826    76.421634 
   47300    1449.0821   -161.10965    1.3111599    -159.7985    18542.531    4.2546475    4.2546475    4.2546475    18542.531    -37229.51    56249.646    36607.456    1264.1996    9652.7219    6301.5809    77.017736 
   47400    608.98026   -160.33946   0.55101814   -159.78844   -7562.7446    4.2574942    4.2574942    4.2574942   -7562.7446    -16893.78    33588.637    -39383.09    1787.8223    7601.9786   -3348.3925    77.172434 
   47500    906.83465   -160.60243   0.82052305    -159.7819   -10375.219    4.2509147    4.2509147    4.2509147   -10375.219   -5113.7831    14403.121   -40414.994   -2970.2915   -1984.2109   -7129.8047    76.815202 
   47600    1837.9284   -161.44752    1.6629962   -159.78452    11859.574    4.2482509    4.2482509    4.2482509    11859.574    432.90742    21296.979    13848.836    -2868.011    326.80357   -16671.359    76.670883 
   47700    1171.9293   -160.84757    1.0603862   -159.78718   -1793.6735    4.2451982    4.2451982    4.2451982   -1793.6735    29425.523    26517.721   -61324.264    1714.4966   -2456.2894   -23694.332     76.50572 
   47800    894.86826   -160.59914   0.80969561   -159.78944   -16616.784    4.2438893    4.2438893    4.2438893   -16616.784    27045.306    1218.0033   -78113.663    6064.3174   -8004.5354   -22123.855    76.434977 
   47900    1657.8296   -161.29699     1.500039   -159.79696    3326.5639    4.2543008    4.2543008    4.2543008    3326.5639   -2892.4207   -9158.5645    22030.677    9484.8315   -8209.2584   -13747.583    76.998909 
   48000    1347.7593   -161.00808    1.2194809    -159.7886    81.756422     4.262535     4.262535     4.262535    81.756422   -11381.422      23875.5   -12248.809   -4219.3028    918.08374    -6404.884    77.446869 
   48100     439.3582   -160.17863   0.39754053   -159.78109    2797.7531      4.25103      4.25103      4.25103    2797.7531    12068.304    89641.295    -93316.34   -5764.5503    13636.935   -1509.9837     76.82145 
   48200    1356.1691   -161.01432    1.2270903   -159.78723    13931.066    4.2365638    4.2365638    4.2365638    13931.066   -1421.3839    62686.752   -19472.169    -1405.221    24886.536   -2596.8381     76.03985 
   48300    1742.0112   -161.37331    1.5762084    -159.7971   -3917.9398    4.2479638    4.2479638    4.2479638   -3917.9398   -15417.221    1942.1172    1721.2844   -57.713526    16490.716   -15598.297    76.655342 
   48400    982.84953   -160.68019   0.88930291   -159.79089   -24712.075    4.2599126    4.2599126    4.2599126   -24712.075    3915.6797   -20228.193   -57823.712    6093.4447    2820.7943   -10087.084    77.304016 
   48500     1292.169   -160.95545    1.1691816   -159.78627    46.024006    4.2537292    4.2537292    4.2537292    46.024006    22000.355    11729.444   -33591.727   -4000.4801   -1604.1265   -5910.3781    76.967877 
   48600    1934.3141    -161.5341    1.7502081   -159.78389    31309.615     4.243817     4.243817     4.243817    31309.615    18330.669    33835.933    41762.243   -8446.0671   -8743.5526    5338.4358    76.431072 
   48700    1218.9042   -160.88755    1.1028902   -159.78466    1122.8166    4.2475823    4.2475823    4.2475823    1122.8166    17668.164    32347.844   -46647.559   -4735.4807    829.44067    16781.856     76.63469 
   48800    988.88639   -160.68198   0.89476519   -159.78721   -17313.751    4.2505347    4.2505347    4.2505347   -17313.751    13383.378    11271.605   -76596.237   -3843.2302   -1458.7993    11525.357    76.794605 
   48900     2184.421   -161.76385    1.9765101   -159.78734   -25171.561     4.252214     4.252214     4.252214   -25171.561   -26034.339   -45082.561   -4397.7843    3616.8784    -2998.581    11309.119     76.88566 
   49000    1726.9449   -161.35158    1.5625761     -159.789    -29475.62    4.2545492    4.2545492    4.2545492    -29475.62   -6861.4925   -40464.485   -41100.882    5553.1561   -5740.7408    8357.9419    77.012396 
   49100    819.33733   -160.52691   0.74135363   -159.78556   -18238.499    4.2549166    4.2549166    4.2549166   -18238.499    24031.185    2626.8944   -81373.578   -3323.9871   -1995.8188   -2345.4533    77.032353 
   49200    1398.2328   -161.05047    1.2651505   -159.78532    17892.689    4.2499936    4.2499936    4.2499936    17892.689    28010.029    15055.295    10612.744   -5461.2101    324.17421   -1140.9744    76.765281 
   49300    1581.9774   -161.21812    1.4314064   -159.78671    12143.292    4.2450593    4.2450593    4.2450593    12143.292    8778.1013    4776.8415    22874.933   -4870.5484    1940.2575    8936.7589    76.498209 
   49400    841.33215   -160.54941   0.76125501   -159.78816   -22620.665    4.2500872    4.2500872    4.2500872   -22620.665   -9006.2969    11682.735   -70538.433   -632.96353    4572.0106   -8075.7317     76.77035 
   49500    1208.5839   -160.88657    1.0935521   -159.79302   -12603.891    4.2570728    4.2570728    4.2570728   -12603.891   -45235.888   -1268.3673    8692.5818    9631.9178    14648.278   -9226.9027    77.149522 
   49600    1647.1644     -161.284    1.4903889   -159.79361    9431.2446    4.2573771    4.2573771    4.2573771    9431.2446   -38493.627   -10719.178    77506.539    -70.88883    13562.385   -10157.629    77.166063 
   49700     732.8298   -160.45671    0.6630798   -159.79363    7059.7338    4.2499867    4.2499867    4.2499867    7059.7338   -9789.8153    37174.645   -6205.6284   -6177.2012    17008.342    4961.9474    76.764904 
   49800     643.1091   -160.37446   0.58189863   -159.79256    12691.272    4.2477228    4.2477228    4.2477228    12691.272    4367.5436    33238.735     467.5359    1341.0358     6669.626    7047.8465    76.642297 
   49900    1739.5089   -161.36533    1.5739443   -159.79139    10680.808    4.2559182    4.2559182    4.2559182    10680.808   -28888.708   -20040.447    80971.578    6741.0196    126.69304   -7022.6715    77.086765 
   50000    889.83739    -160.5977   0.80514357   -159.79255      12369.7    4.2597798    4.2597798    4.2597798      12369.7    7976.2689    11240.364    17892.467   -6588.9693   -2271.2094   -15931.683    77.296791 
   50100      507.146   -160.24683   0.45887636   -159.78796    1862.6969    4.2524544    4.2524544    4.2524544    1862.6969     5941.532    29739.334   -30092.775   -2815.5139    10421.247   -6708.9955      76.8987 
   50200    1794.7012   -161.40571    1.6238834   -159.78182   -22728.896    4.2534077    4.2534077    4.2534077   -22728.896   -48585.098   -23017.975    3416.3843    7289.1832    15623.456   -9593.4673    76.950427 
   50300    1528.0169   -161.16554    1.3825818   -159.78296    -18531.41    4.2581055    4.2581055    4.2581055    -18531.41   -20829.921    -15006.05    -19758.26   -1822.8954    8550.6837    8978.7343    77.205677 
   50400    549.53359    -160.2793   0.49722954   -159.78207    367.77242    4.2571565    4.2571565    4.2571565    367.77242    25239.706    29927.515   -54063.904   -8601.4549   -5455.1723    2073.8641    77.154072 
   50500    1326.0836   -160.98321    1.1998683   -159.78334    18408.673    4.2511202    4.2511202    4.2511202    18408.673    7370.3878    4229.1117    43626.521   -7123.2921   -7492.8778   -2513.6762     76.82634 
   50600    1888.4953   -161.49261    1.7087502   -159.78386    934.96245    4.2506616    4.2506616    4.2506616    934.96245   -36097.151   -23678.058    62580.096    10320.933   -3699.6842   -7943.1647     76.80148 
   50700    698.50373   -160.42432   0.63202085    -159.7923   -457.44977    4.2620198    4.2620198    4.2620198   -457.44977   -15254.684    1498.8465    12383.488    7688.7162    7457.5823    720.10019    77.418792 
   50800    734.64059   -160.45105   0.66471824   -159.78633    19975.646    4.2657445    4.2657445    4.2657445    19975.646    5652.1096   -3512.7324    57787.561    -10468.31    25536.933    14113.861    77.621946 
   50900    1726.6962   -161.33909     1.562351   -159.77674    8928.6384    4.2565649    4.2565649    4.2565649    8928.6384   -27638.719   -42035.182    96459.816    4512.6196     252.8301     16990.35    77.121911 
   51000    1121.0496   -160.79052    1.0143492   -159.77617   -22181.843    4.2603162    4.2603162    4.2603162   -22181.843   -15041.969    1263.0822   -52766.643    8645.0214   -19301.954    -3669.356    77.325991 
   51100    824.58005   -160.52483   0.74609736   -159.77874    6395.6437    4.2624339    4.2624339    4.2624339    6395.6437    36316.188    42128.158   -59257.415   -14881.435     -8511.82    1251.6244    77.441363 
   51200    1608.8007   -161.23471    1.4556767   -159.77903    32731.554    4.2563407    4.2563407    4.2563407    32731.554    27078.976    35227.303    35888.383   -12542.066   -8690.7764    10258.447    77.109723 
   51300     1170.666   -160.83619    1.0592432   -159.77695   -558.21158    4.2621377    4.2621377    4.2621377   -558.21158    14936.196     11527.08   -28137.911   -266.96644    5579.1303     4022.744    77.425218 
   51400    1360.2001   -161.00129    1.2307376   -159.77055   -45087.736    4.2639526    4.2639526    4.2639526   -45087.736   -15348.763   -20424.949   -99489.495    6426.0733     2065.735   -6514.6132    77.524167 
   51500    2192.6131   -161.75339    1.9839224   -159.76946   -5662.8974    4.2512077    4.2512077    4.2512077   -5662.8974   -10861.492   -17493.779    11366.579    4192.2527    28.190317    -1388.214    76.831088 
   51600    1097.6406   -160.77501   0.99316824   -159.78184    20230.093    4.2512885    4.2512885    4.2512885    20230.093     54420.62    42836.753   -36567.093    -9948.614    3376.5838    3087.1429    76.835469 
   51700    513.72432   -160.24863   0.46482856    -159.7838   -580.73651    4.2678632    4.2678632    4.2678632   -580.73651    43158.142     70963.67   -115864.02   -19541.286    1866.8067   -5625.7194    77.737664 
   51800    1569.0249   -161.20038    1.4196867   -159.78069    6520.2109    4.2666384    4.2666384    4.2666384    6520.2109    18021.564    12077.107   -10538.038   -12836.694   -13680.181   -14032.231    77.670752 
   51900    1516.1102   -161.14508    1.3718084   -159.77327    -7331.565    4.2490049    4.2490049    4.2490049    -7331.565    5571.4131   -10590.862   -16975.246    -1410.892   -5454.1365    3307.8998    76.711715 
   52000    994.62895    -160.6783   0.89996117   -159.77834   -27790.428    4.2517515    4.2517515    4.2517515   -27790.428   -9956.4771    8389.2694   -81804.077    8871.3439    6334.3347    5120.6338    76.860572 
   52100    1697.2976    -161.3214    1.5357505   -159.78565   -15380.713    4.2683925    4.2683925    4.2683925   -15380.713   -27225.959    18378.379    -37294.56    1811.8396    2668.4994     11696.85     77.76659 
   52200    1221.3784    -160.8845    1.1051288   -159.77937    13637.604    4.2655326    4.2655326    4.2655326    13637.604    30576.255        58369   -48032.443   -14765.532   -4295.8911   -6408.9522     77.61038 
   52300    266.30632   -160.02272   0.24095956   -159.78176    20816.597    4.2524337    4.2524337    4.2524337    20816.597    107452.82    75131.756   -120134.78   -18347.523    -52.35277   -8451.6556    76.897575 
   52400    1399.4169   -161.06292    1.2662218    -159.7967    23337.797     4.254796     4.254796     4.254796    23337.797    51609.453    40764.002   -22360.063   -10180.268    6835.4426    4881.3084    77.025801 
   52500    1714.4165   -161.34372    1.5512401   -159.79248   -15892.335    4.2636401    4.2636401    4.2636401   -15892.335    6556.7503   -9287.5032   -44946.252    8785.4399   -10440.029   -1371.8723    77.507122 
   52600    1020.4394   -160.70317   0.92331502   -159.77985   -37665.262     4.263967     4.263967     4.263967   -37665.262   -9354.6153   -5601.5062   -98039.665    18887.463   -6784.3852   -2473.5733    77.524954 
   52700    1751.6779   -161.36538    1.5849549   -159.78042   -15304.359     4.259155     4.259155     4.259155   -15304.359   -13566.034    5523.8257   -37870.868    15335.339   -2888.1483    7758.5493     77.26278 
   52800    1670.7685   -161.30024    1.5117464   -159.78849    5161.8889    4.2576128    4.2576128    4.2576128    5161.8889    9078.3233     26768.24   -20360.896    5412.0642   -4781.2409    9442.4203    77.178884 
   52900    412.41645   -160.16298   0.37316307   -159.78982     8627.384    4.2584759    4.2584759    4.2584759     8627.384    58256.245     81374.65   -113748.74   -8952.1503    3905.2898    2598.0923    77.225829 
   53000    1149.3058   -160.82826     1.039916   -159.78834     24478.23    4.2596098    4.2596098    4.2596098     24478.23    38062.633    67388.667   -32016.608   -11980.045    3599.8533    790.68481    77.287535 
   53100    1762.5134   -161.37819    1.5947592   -159.78343    696.97645    4.2622412    4.2622412    4.2622412    696.97645    7605.7016    3159.3799   -8674.1522    794.69213   -2925.1752    989.74336    77.430857 
   53200    1081.8199   -160.75557   0.97885341   -159.77672   -30337.718    4.2638147    4.2638147    4.2638147   -30337.718    17014.505   -20404.397   -87623.262    12207.065    4023.2361   -4669.2166    77.516644 
   53300    1669.8931    -161.2863    1.5109543   -159.77534   -21769.292    4.2597509    4.2597509    4.2597509   -21769.292   -30425.453   -8484.4356   -26397.989    9107.5863   -393.68653   -4499.9766    77.295215 
   53400    1527.3584   -161.16373     1.381986   -159.78174    29450.556    4.2518874    4.2518874    4.2518874    29450.556    7606.0132    61076.144     19669.51    -4076.281    2958.4601   -6726.8219    76.867944 
   53500     519.5306   -160.25636   0.47008221   -159.78628    23581.175     4.257197     4.257197     4.257197    23581.175    52243.305    102728.53    -84228.31   -16747.261    11600.159   -4004.1169    77.156272 
   53600    944.25443   -160.64084   0.85438125   -159.78646    12814.177    4.2678226    4.2678226    4.2678226    12814.177    23312.858    60270.543    -45140.87   -10468.494    3818.6243   -4608.9201    77.735443 
   53700    1991.2996    -161.5754    1.8017697   -159.77363   -22188.482    4.2651623    4.2651623    4.2651623   -22188.482     -24797.7   -29858.023   -11909.723    9357.0057   -2210.5858   -751.23646    77.590167 
   53800    1178.8864   -160.83052    1.0666812   -159.76384   -39413.302    4.2587828    4.2587828    4.2587828   -39413.302    1024.6718   -14443.994   -104820.58    14046.246    5779.1454    1340.7103    77.242526 
   53900    1243.5227   -160.89719    1.1251655   -159.77203     -382.766    4.2621369    4.2621369    4.2621369     -382.766    33018.382    26056.807   -60223.487   -7644.0693   -6170.0478   -14088.559    77.425174 
   54000    1378.0878   -161.02299    1.2469228   -159.77607    27015.627      4.26347      4.26347      4.26347    27015.627    29629.873    63498.175   -12081.167   -23186.752   -11472.213    13.602972    77.497845 
   54100    584.36828    -160.3025    0.5287487   -159.77375    20543.359    4.2611143    4.2611143    4.2611143    20543.359    40699.337    90187.442   -69256.701   -14532.883   -1001.8416   -538.04109    77.369459 
   54200    1325.6826   -160.97738    1.1995055   -159.77787   -17251.042    4.2626544    4.2626544    4.2626544   -17251.042     10779.14     12351.97   -74884.235     1930.276   -1717.4711     6161.773    77.453377 
   54300    2104.3818   -161.68098    1.9040889   -159.77689    -25827.93    4.2619196    4.2619196    4.2619196    -25827.93   -34569.693   -46049.895    3135.7985    14207.287   -4267.3574    9707.0521    77.413331 
   54400    972.17259   -160.65617   0.87964219   -159.77652   -28270.611    4.2599037    4.2599037    4.2599037   -28270.611    15794.816    6475.8942   -107082.54    6636.8601    -2793.703    6570.7944    77.303532 
   54500    1070.3173   -160.75178   0.96844558   -159.78333    5064.8885    4.2631723    4.2631723    4.2631723    5064.8885    39302.333    60489.303   -84596.971   -12548.156   -2476.8562    1905.3708    77.481615 
   54600    1291.2301   -160.95808    1.1683322   -159.78975    41267.778    4.2672478    4.2672478    4.2672478    41267.778    53080.467    83301.987    -12579.12   -28719.019   -8115.4436    6498.2337    77.704037 
   54700    731.61442   -160.44469   0.66198011   -159.78271     10156.68    4.2622532    4.2622532    4.2622532     10156.68    30973.143     84243.55   -84746.654   -13063.553   -4470.6083   -4868.5199    77.431509 
   54800      1369.16   -161.01763    1.2388448   -159.77878   -14893.656      4.25429      4.25429      4.25429   -14893.656    19270.037    5833.2057   -69784.212    5057.2222   -2526.1621   -3876.8603    76.998325 
   54900    2224.1888   -161.79325    2.0124927   -159.78075   -20839.737    4.2582143    4.2582143    4.2582143   -20839.737   -23691.746   -41595.304    2767.8404    15731.814    -2314.594    502.61855    77.211601 
   55000    1182.1358   -160.85585    1.0696214   -159.78623   -28983.996    4.2680982    4.2680982    4.2680982   -28983.996   -12275.025    6848.1878    -81525.15    9997.4412   -6223.5675   -12306.233    77.750505 
   55100    778.44534   -160.48717    0.7043537   -159.78282     11384.45    4.2657418    4.2657418    4.2657418     11384.45     24092.82    69077.641   -59017.112   -4978.1953   -9435.0031   -13913.459    77.621798 
   55200    1579.5547   -161.20991    1.4292143   -159.78069    38755.844    4.2571908    4.2571908    4.2571908    38755.844    23043.035    62359.093    30865.403   -11893.477    1306.6897    2065.7905    77.155936 
   55300    1266.8856    -160.9194    1.1463047    -159.7731   -8481.2339    4.2554906    4.2554906    4.2554906   -8481.2339   -15495.847    48886.962   -58834.817   -1885.3296    2969.4753    1439.6946    77.063533 
   55400    1392.1571   -161.03035     1.259653    -159.7707   -24014.876    4.2548466    4.2548466    4.2548466   -24014.876   -13806.516   -574.51046   -57663.601    11307.237    4381.9983    3197.3844    77.028551 
   55500    2066.8998   -161.65001    1.8701743   -159.77984   -9820.7603    4.2574009    4.2574009    4.2574009   -9820.7603    -1101.591   -42407.469    14046.779    3669.8895    1890.6696   -3025.5168    77.167359 
   55600    1392.6268   -161.04612     1.260078   -159.78604    7609.7324    4.2622162    4.2622162    4.2622162    7609.7324     24821.43    25417.557    -27409.79   -7188.0688   -8074.3188   -9010.8611    77.429496 
   55700    657.11493   -160.37608   0.59457139   -159.78151    21383.676    4.2606013    4.2606013    4.2606013    21383.676    66649.497    56608.639   -59107.107   -15908.065   -323.83931   -4619.2183    77.341515 
   55800    1423.9225   -161.06806     1.288395   -159.77966    16483.183    4.2553839    4.2553839    4.2553839    16483.183    25968.563    24060.832   -579.84362   -527.13137     1975.843   -3386.9589    77.057734 
   55900    1830.2058   -161.43348    1.6560087   -159.77747   -23152.217    4.2592332    4.2592332    4.2592332   -23152.217   -13178.808   -25709.976   -30567.867    13382.225    400.53805   -2705.5349    77.267036 
   56000    1334.1994   -160.98526    1.2072117   -159.77805   -52528.256    4.2668407    4.2668407    4.2668407   -52528.256   -27050.937   -16532.884   -114000.95    9114.1043    1493.9652    893.42811    77.681802 
   56100    1567.1941   -161.19684    1.4180302   -159.77881   -4054.6451    4.2634768    4.2634768    4.2634768   -4054.6451    21061.333    1020.4405   -34245.709   -1490.9117   -92.012934     6356.684    77.498219 
   56200    1270.1582   -160.92808    1.1492659   -159.77881    36535.375    4.2543835    4.2543835    4.2543835    36535.375    66990.325    77519.165   -34903.366   -23904.977   -7239.0933   -2023.8867    77.003399 
   56300    622.63274     -160.352   0.56337119   -159.78863    31111.799    4.2610431    4.2610431    4.2610431    31111.799    64695.407     101441.9   -72801.909   -27734.731   -10260.036    -6003.658     77.36558 
   56400     1360.945    -161.0214    1.2314116   -159.78999   -2871.5425     4.268317     4.268317     4.268317   -2871.5425     11222.42    43254.046   -63091.093   -1159.1561   -5500.8635    -3051.828     77.76246 
   56500     1853.782   -161.45775    1.6773409    -159.7804   -20525.609    4.2603774    4.2603774    4.2603774   -20525.609    -5062.092    -24842.36   -31672.374    12655.458   -6290.5254    3598.3679    77.329326 
   56600    1385.0343    -161.0286    1.2532081   -159.77539   -33311.488    4.2579943    4.2579943    4.2579943   -33311.488   -17909.101    12498.191   -94523.553    20027.686     4492.715    7458.7547    77.199633 
   56700    1589.9075    -161.2237    1.4385817   -159.78512   -21785.988    4.2683543    4.2683543    4.2683543   -21785.988   -10036.703   -3003.4903   -52317.771    9944.0779   -2673.4453    4348.7056    77.764502 
   56800    1203.9397   -160.87556    1.0893499   -159.78621    11318.397      4.26531      4.26531      4.26531    11318.397      32289.8     39936.38    -38270.99   -18426.202    133.18485    1909.9062    77.598229 
   56900    597.43925   -160.32196   0.54057559   -159.78139    48522.321    4.2509712    4.2509712    4.2509712    48522.321    84221.047    111334.42     -49988.5       -24775   -1814.4288    1100.4429    76.818262 
   57000     1275.106   -160.94039    1.1537427   -159.78665    12781.146    4.2580128    4.2580128    4.2580128    12781.146    15720.721    83617.794   -60995.076   -13690.332   -6629.7215   -6963.6317     77.20064 
   57100    1689.1541   -161.30923    1.5283821   -159.78085   -34651.238    4.2753682    4.2753682    4.2753682   -34651.238   -21982.336   -53675.459   -28295.921    4284.9966   -3863.6479   -4245.3724    78.148486 
   57200    1268.4567   -160.91499    1.1477263   -159.76726   -46997.181    4.2663154    4.2663154    4.2663154   -46997.181   -14354.514   -36610.456   -90026.572    11883.897    2228.8323    11065.868    77.653114 
   57300    1447.7023   -161.07899    1.3099114   -159.76908    10089.816    4.2464555    4.2464555    4.2464555    10089.816    3218.9232    58198.652   -31148.128    1451.8494   -808.94819     11855.28    76.573716 
   57400    1148.9043   -160.83274    1.0395528   -159.79319    34489.712     4.256309     4.256309     4.256309    34489.712    22453.151     56082.55    24933.435    -10005.81   -7633.9825    3194.5993       77.108 
   57500     745.2598   -160.46057   0.67432673   -159.78624    681.49102    4.2732613    4.2732613    4.2732613    681.49102    36897.516    21018.941   -55871.984   -8988.3714    7709.3851    -273.5059    78.033008 
   57600    1514.4464   -161.13867    1.3703029   -159.76837   -19384.277    4.2635681    4.2635681    4.2635681   -19384.277   -15887.365     15275.95   -57541.416    349.63656   -6719.9268    863.45929    77.503195 
   57700    2052.5085   -161.61607    1.8571528   -159.75892   -15136.546    4.2444114    4.2444114    4.2444114   -15136.546   -29026.751   -23148.363     6765.476    10304.862     3411.847   -2926.7509    76.463192 
   57800    1017.4921    -160.6992   0.92064824   -159.77855   -7992.2184     4.249765     4.249765     4.249765   -7992.2184    3580.9921   -4451.8593   -23105.788    801.18312    12008.442   -7584.5707    76.752892 
   57900    849.00117    -160.5542    0.7681941   -159.78601    14786.653    4.2613271    4.2613271    4.2613271    14786.653    54308.252      36716.6   -46664.894   -17622.062   -2888.6224   -13462.602    77.381049 
   58000    1399.8205   -161.04924     1.266587   -159.78265    23863.804    4.2581703    4.2581703    4.2581703    23863.804    42720.166    33501.433   -4630.1873   -12339.842    13735.731   -15470.556    77.209206 
   58100    961.25102   -160.64752   0.86976012   -159.77776    1365.3787    4.2536464    4.2536464    4.2536464    1365.3787    24007.652   -18117.833   -1793.6822    4896.1426    2599.7432   -7276.9775    76.963382 
   58200    1132.3587   -160.80427    1.0245819   -159.77968   -28623.828    4.2587185    4.2587185    4.2587185   -28623.828   -5134.6926   -40494.114   -40242.678    9865.5649   -4842.8009   -12527.017    77.239028 
   58300    1437.3376   -161.08346    1.3005333   -159.78293    6042.4189    4.2591229    4.2591229    4.2591229    6042.4189   -37062.104    18088.626    37100.735    4907.4565    -7420.261    -15150.38    77.261033 
   58400    1117.8554   -160.79096    1.0114591    -159.7795    24669.054    4.2553224    4.2553224    4.2553224    24669.054   -18830.485    18532.988     74304.66   -10389.307   -9888.8738   -7783.8467    77.054391 
   58500    1195.3337   -160.86001     1.081563   -159.77845   -11934.312    4.2614517    4.2614517    4.2614517   -11934.312   -7573.9936   -27488.005   -740.93657    2574.9253    9550.4235      10920.8    77.387837 
   58600    1688.1382   -161.29965    1.5274629   -159.77218    -36244.94    4.2729119    4.2729119    4.2729119    -36244.94   -39317.471   -13982.856   -55434.492    2407.6681    10482.594    11781.997     78.01387 
   58700    1602.4931   -161.21724    1.4499695   -159.76727    7258.6884    4.2590923    4.2590923    4.2590923    7258.6884   -17402.559    28647.125    10531.499    -10198.18   -11076.662   -7380.5854     77.25937 
   58800    945.62014   -160.62306   0.85561697   -159.76745    30450.205    4.2435373    4.2435373    4.2435373    30450.205    39662.977    59165.133   -7477.4958   -10579.906   -2232.4587   -9415.6407     76.41596 
   58900    1278.8809    -160.9429    1.1571583   -159.78574   -15352.458    4.2622519    4.2622519    4.2622519   -15352.458    8623.9117    717.78692   -55399.071   -8667.0855   -5748.6394   -5805.2553     77.43144 
   59000    1806.3527   -161.40974    1.6344259   -159.77531   -48568.907    4.2743817    4.2743817    4.2743817   -48568.907   -87006.565   -43491.219   -15208.939     9560.651    14628.193     7220.397    78.094402 
   59100    902.87972   -160.58705   0.81694454   -159.77011    10551.782     4.252154     4.252154     4.252154    10551.782       5249.4    10367.577    16038.368   -5354.4457    4216.3043   -23585.894    76.882405 
   59200    770.18247   -160.46865   0.69687729   -159.77177    27615.224    4.2408796    4.2408796    4.2408796    27615.224    51906.145    23884.616    7054.9105       -14530   -15481.295    -33236.82    76.272474 
   59300    1416.7927   -161.06592    1.2819438   -159.78397    1234.5637    4.2524669    4.2524669    4.2524669    1234.5637    5172.7638   -8565.6916    7096.6188    4465.4149   -10386.573   -26648.766    76.899377 
   59400    1480.9292   -161.11975    1.3399758   -159.77977   -18820.834    4.2614864    4.2614864    4.2614864   -18820.834   -29223.025   -8212.7776   -19026.699   -398.46924    2613.0773    -1503.554    77.389729 
   59500    1316.6568   -160.96414    1.1913388   -159.77281   -27216.074    4.2597986    4.2597986    4.2597986   -27216.074   -6125.8084   -2194.5075   -73327.907    4687.8544    7210.9379      6903.65    77.297811 
   59600    1327.9428   -160.98195    1.2015506    -159.7804    15981.456    4.2538043    4.2538043    4.2538043    15981.456   -15094.126    38927.553     24110.94   -6440.7356   -2575.5494    5058.5505    76.971957 
   59700    1462.5846    -161.1065    1.3233772   -159.78312    20076.121    4.2553852    4.2553852    4.2553852    20076.121   -56550.521    53506.707    63272.176   -7629.7067    -1480.524   -1782.7747    77.057803 
   59800    1242.6633   -160.90232    1.1243878   -159.77793   -10829.833    4.2563132    4.2563132    4.2563132   -10829.833   -17580.078    16327.513   -31236.933    9820.2671    868.28446   -520.55054    77.108229 
   59900    1404.7313   -161.05036    1.2710304   -159.77933   -13775.203    4.2604917    4.2604917    4.2604917   -13775.203    19183.959   -19438.532   -41071.037    4899.2541    1818.3653    4499.8651    77.335548 
   60000    1437.7773   -161.07933    1.3009311    -159.7784   -8168.5838    4.2727554    4.2727554    4.2727554   -8168.5838    22393.548   -35854.281   -11045.018   -5927.5675    4688.7524   -3112.2844    78.005296 
   60100    952.76753   -160.63818   0.86208409    -159.7761     12573.42    4.2628508    4.2628508    4.2628508     12573.42    76811.523    6433.1162   -45524.377   -15183.019   -4529.0012   -9397.1984    77.464087 
   60200    949.19841   -160.63031   0.85885466   -159.77145    12764.066     4.245648     4.245648     4.245648    12764.066    101296.01   -10178.456   -52825.355   -5919.4448    7227.2549   -4916.4533    76.530043 
   60300    1555.2134   -161.18836    1.4071898   -159.78117   -12116.995    4.2506761    4.2506761    4.2506761   -12116.995    2458.8403   -27776.446    -11033.38     3032.322    8831.5516   -4893.5873    76.802265 
   60400      1449.76    -161.1004    1.3117733   -159.78863   -16152.529    4.2635432    4.2635432    4.2635432   -16152.529   -35159.127    3540.4707   -16838.931    7768.4484     1300.963   -11231.133    77.501837 
   60500    1254.5853   -160.91768    1.1351752   -159.78251   -7580.5809    4.2681664    4.2681664    4.2681664   -7580.5809   -10559.756    30350.547   -42532.534    5583.1923   -4246.2593   -12110.867    77.754232 
   60600    1196.2133   -160.86148    1.0823589   -159.77912    25354.268    4.2572127    4.2572127    4.2572127    25354.268   -7311.5641    65331.189     18043.18   -11423.715   -9024.1411   -1810.4148    77.157129 
   60700    1468.3767   -161.10451    1.3286181   -159.77589    4672.8138    4.2488947    4.2488947    4.2488947    4672.8138   -28795.173    49778.819   -6965.2045   -6120.0639    2057.2835    7962.3494    76.705749 
   60800    1523.3712   -161.15579    1.3783783   -159.77742    -27002.58    4.2548845    4.2548845    4.2548845    -27002.58   -4548.9163   -4726.5224   -71732.302    7901.4766    12142.348      13372.4    77.030611 
   60900    1497.1903   -161.13761    1.3546893   -159.78292     -20435.6    4.2626006    4.2626006    4.2626006     -20435.6   -5662.6682   -47013.953   -8630.1786    -2330.468   -11172.255    7631.2497    77.450448 
   61000    1281.7864   -160.94485    1.1597872   -159.78507   -754.00904    4.2623566    4.2623566    4.2623566   -754.00904   -37366.298    624.47829    34479.793   -5909.4571   -21511.432   -9955.5915    77.437149 
   61100     1329.891   -160.98494    1.2033133   -159.78162    458.54465    4.2538516    4.2538516    4.2538516    458.54465    6231.0873   -8678.5461    3823.0927    4315.7097   -7952.6164   -3447.7588    76.974525 
   61200    1466.7979   -161.10884    1.3271896   -159.78165    2686.3695    4.2424712    4.2424712    4.2424712    2686.3695    16162.066   -25497.124    17394.166   -1229.4599   -2224.9505   -612.74471    76.358379 
   61300    1348.8577   -161.01119    1.2204748   -159.79071    7653.9651    4.2447767    4.2447767    4.2447767    7653.9651   -30130.907   -1289.2425    54382.045   -1071.8459    15237.244    10155.003    76.482933 
   61400    1368.0399   -161.03291    1.2378312   -159.79508   -14292.747    4.2640168    4.2640168    4.2640168   -14292.747   -23602.876    6068.5893   -25343.954   -6648.9061    21833.393     6183.526    77.527666 
   61500    1646.4862   -161.27286    1.4897753   -159.78308   -25160.109    4.2629652    4.2629652    4.2629652   -25160.109    30953.773   -40769.822   -65664.279   -5530.9775    10320.895   -12516.489    77.470322 
   61600     1372.954   -161.01725    1.2422777   -159.77497     4719.497    4.2446924    4.2446924    4.2446924     4719.497    18333.805   -18561.461    14386.147    6025.9837   -629.94057    1158.6607    76.478377 
   61700    891.64702   -160.59344   0.80678097   -159.78666    26045.421    4.2464121    4.2464121    4.2464121    26045.421    34920.952    12212.585    31002.726    13356.969   -13873.993    7048.5859    76.571369 
   61800    1261.1322   -160.93319    1.1410989   -159.79209    10758.309    4.2550497    4.2550497    4.2550497    10758.309     83485.54   -15736.559   -35474.053   -536.07836   -11895.877   -831.60234    77.039579 
   61900    1241.8096    -160.9114    1.1236154   -159.78778    4825.5848    4.2545789    4.2545789    4.2545789    4825.5848    64070.179   -27704.794   -21888.631   -10810.629    6282.3566   -4631.8272    77.014012 
   62000    948.43929   -160.64909    0.8581678   -159.79092    1801.6615    4.2584797    4.2584797    4.2584797    1801.6615   -18504.928   -77.564186    23987.477   -10527.907   -3261.3157    -5368.574    77.226036 
   62100    1164.6867   -160.84533     1.053833    -159.7915    393.27085    4.2625841    4.2625841    4.2625841    393.27085   -11749.468    19322.207   -6392.9272   -6485.3437   -10322.531    8711.7324    77.449548 
   62200    1417.2345    -161.0655    1.2823435   -159.78316   -19124.679    4.2511357    4.2511357    4.2511357   -19124.679   -12975.555    -2598.026   -41800.457    6480.0814   -8053.8826    6397.8491    76.827184 
   62300    1226.1868   -160.88614    1.1094795   -159.77666   -7518.8998    4.2391124    4.2391124    4.2391124   -7518.8998   -16197.905   -6821.3847    462.58985    10519.349   -20578.349    -644.6315    76.177163 
   62400    1198.3228   -160.87786    1.0842677    -159.7936   -1612.9861     4.251879     4.251879     4.251879   -1612.9861     240.0533    12071.586   -17150.598    4676.5456   -10654.499    3899.1284    76.867489 
   62500    1499.5337   -161.14685    1.3568096   -159.79004   -10266.587    4.2637357    4.2637357    4.2637357   -10266.587      10578.4    14192.534   -55570.696   -1865.4908   -1561.1514    -282.8443    77.512336 
   62600    1242.8409   -160.90552    1.1245486   -159.78097   -12387.637    4.2547678    4.2547678    4.2547678   -12387.637   -17349.384   -6114.0066    -13699.52     -1481.73    2742.3671   -3324.8508    77.024269 
   62700     1016.168   -160.70638   0.91945018   -159.78693   -2965.3225    4.2538581    4.2538581    4.2538581   -2965.3225    10462.982   -31519.043    12160.093    3596.1034    3708.4427    655.15012    76.974874 
   62800    1413.3531   -161.07632    1.2788316   -159.79749    13416.369    4.2614666    4.2614666    4.2614666    13416.369    49313.955   -5591.6795   -3473.1682    10221.825   -1516.4825    5382.8711    77.388649 
   62900    1350.0013   -161.01224    1.2215096   -159.79073    1549.1517     4.256111     4.256111     4.256111    1549.1517    33140.542   -28663.855    170.76784    10119.022   -7796.5681   -229.25885    77.097239 
   63000    913.22978   -160.61377    0.8263095   -159.78746   -5426.6691    4.2542244    4.2542244    4.2542244   -5426.6691    7703.1212   -21935.527    -2047.601    5085.7778   -2997.0277   -7900.3208     76.99476 
   63100    1122.5062   -160.81396    1.0156672   -159.79829    19698.195    4.2657571    4.2657571    4.2657571    19698.195    96983.657    2348.2889    -40237.36   -12661.963    322.96522    4697.2897    77.622634 
   63200    1370.9252    -161.0335    1.2404419   -159.79306    11837.033    4.2619246    4.2619246    4.2619246    11837.033    90892.761   -22612.476   -32769.185   -6989.2967    19315.806    3327.9492    77.413604 
   63300     890.0565   -160.58738   0.80534182   -159.78204    2278.0767    4.2477272    4.2477272    4.2477272    2278.0767    20767.373   -15564.014    1630.8707    5538.0495     9912.031   -8553.0836    76.642535 
   63400    1260.2392   -160.93669    1.1402909    -159.7964   -4033.5424    4.2554762    4.2554762    4.2554762   -4033.5424    31440.866    -22860.35   -20681.143     7229.911   -8076.8039    32.849411    77.062751 
   63500    1495.7331   -161.15294    1.3533708   -159.79957    4064.6961    4.2653055    4.2653055    4.2653055    4064.6961    74750.548   -12841.107   -49715.352    13160.051   -9175.5185    8265.7906    77.597985 
   63600     1231.417   -160.90036     1.114212   -159.78615    -8558.775    4.2536585    4.2536585    4.2536585    -8558.775   -28188.545    24202.938   -21690.718    8839.7013    216.46171   -4818.0344    76.964041 
   63700    1198.5775   -160.86444    1.0844981   -159.77994     -12958.1    4.2506459    4.2506459    4.2506459     -12958.1   -57883.485    14510.746    4498.4396   -9142.4669    9957.7827   -1871.6631    76.800629 
   63800    1774.3851    -161.3909     1.605501    -159.7854   -10304.573    4.2592287    4.2592287    4.2592287   -10304.573    17299.156    -33565.58   -14647.295   -6133.0124    8029.4884   -3133.8088    77.266793 
   63900     1359.405   -161.01491    1.2300182   -159.78489    9525.2714    4.2567959    4.2567959    4.2567959    9525.2714   -11687.002   -9563.4058    49826.222    -6140.132   -5556.5144    8809.6407    77.134467 
   64000    729.38977   -160.44664    0.6599672   -159.78667    22120.626     4.250236     4.250236     4.250236    22120.626   -31219.075    10162.087    87418.867    2338.8731   -15357.642    13973.061    76.778414 
   64100    1386.0164    -161.0472    1.2540968    -159.7931    -4255.366    4.2618305    4.2618305    4.2618305    -4255.366     -1481.14   -43489.092    32204.134    15070.798   -3307.0077    2750.6574    77.408479 
   64200    1929.9705   -161.53133    1.7462779   -159.78506   -42549.839    4.2684275    4.2684275    4.2684275   -42549.839   -37449.132   -44117.424    -46082.96   -17120.292    5015.9722   -11970.796    77.768503 
   64300    1120.3874   -160.78783    1.0137501   -159.77408   -10017.798    4.2547966    4.2547966    4.2547966   -10017.798   -22537.594   -1969.9409   -5545.8596    1043.5228     1628.895    -6673.695    77.025835 
   64400    936.49199   -160.62449   0.84735764   -159.77713     32535.18    4.2482865    4.2482865    4.2482865     32535.18    70962.644     6260.513    20382.382    19630.259   -11601.298    7931.0371    76.672813 
   64500    1465.6274   -161.11472    1.3261305   -159.78859    33330.652    4.2577183    4.2577183    4.2577183    33330.652    93325.185    8213.2639   -1546.4922    8401.4251   -11319.989    5057.8766    77.184619 
   64600    1480.1513   -161.11819     1.339272   -159.77892   -18866.943    4.2617226    4.2617226    4.2617226   -18866.943   -17570.985   -14045.349   -24984.493    107.64409    12810.991   -7959.5314    77.402597 
   64700     1212.791   -160.86845    1.0973588   -159.77109   -16814.418    4.2561606    4.2561606    4.2561606   -16814.418   -52624.305   -2693.6583    4874.7083    -9376.513    16485.094   -6027.5042    77.099936 
   64800      1457.31   -161.10188    1.3186047   -159.78327    14591.687    4.2557691    4.2557691    4.2557691    14591.687   -6282.3254     36425.75    13631.637   -1125.5363    7144.4812     7031.403    77.078662 
   64900    1213.3506   -160.88586    1.0978651     -159.788    19474.966    4.2597102    4.2597102    4.2597102    19474.966   -41621.396    74076.207    25970.088    10550.535   -11408.951    13962.724       77.293 
   65000    971.05855   -160.66148   0.87863418   -159.78284   -1152.6144    4.2558139    4.2558139    4.2558139   -1152.6144   -87163.715    52137.018    31568.854   -6481.8612   -7563.7117    4893.5217    77.081096 
   65100    1505.4259   -161.14316     1.362141   -159.78102   -329.62236    4.2525124    4.2525124    4.2525124   -329.62236   -2576.5982     2730.723   -1142.9919   -15619.647   -2685.5898   -4488.7541    76.901848 
   65200    1608.9766   -161.24398    1.4558358   -159.78815   -7379.3484    4.2617264    4.2617264    4.2617264   -7379.3484    22130.884   -23847.057   -20421.872   -4961.2183    -11164.79   -14105.762    77.402805 
   65300    1161.8915   -160.83766    1.0513038   -159.78635   -17521.234    4.2627385    4.2627385    4.2627385   -17521.234   -67998.449   -1584.4695    17019.217      5275.62   -15916.864   -3224.0864    77.457964 
   65400     1104.602   -160.78512   0.99946707   -159.78565    13171.062      4.25359      4.25359      4.25359    13171.062   -30179.247    11369.361    58323.071    4123.8029   -8570.7039    4067.3082    76.960322 
   65500     1329.137   -160.99557    1.2026311   -159.79294    31178.246    4.2549799    4.2549799    4.2549799    31178.246    3052.0459    5550.2438    84932.449    5459.4093    9093.3229    9854.7976     77.03579 
   65600    934.54825   -160.63568   0.84559889   -159.79008     6880.936    4.2632039    4.2632039    4.2632039     6880.936    -82986.06    18458.289    85170.579    3132.0768    5654.0703    11885.556    77.483337 
   65700    1283.0449   -160.94335    1.1609259   -159.78242   -13980.614    4.2549754    4.2549754    4.2549754   -13980.614   -55960.664   -38437.019    52455.841    4082.5908    -8108.333    3834.4617    77.035544 
   65800    1701.6565   -161.32832    1.5396946   -159.78863    1711.6522    4.2485375    4.2485375    4.2485375    1711.6522     26681.76   -31480.794    9933.9911   -3421.1539   -8257.7111   -12055.916    76.686402 
   65900    1509.1321   -161.15903    1.3654945   -159.79354   -20112.768    4.2581423    4.2581423    4.2581423   -20112.768   -49428.502    12960.417   -23870.218   -7129.7874    4419.9936    -7482.482    77.207681 
   66000    1139.9793   -160.81873    1.0314772   -159.78725   -20012.847    4.2575797    4.2575797    4.2575797   -20012.847   -77457.107    15785.143    1633.4224   -14177.147    12068.219   -2420.9242    77.177085 
   66100    1331.9294   -160.99212    1.2051577   -159.78696    31407.773    4.2457172    4.2457172    4.2457172    31407.773    19516.994    30799.321    43907.003    4144.9456    7093.0906      8963.79    76.533784 
   66200    1181.4506   -160.86418    1.0690013   -159.79517    26559.459    4.2516128    4.2516128    4.2516128    26559.459   -6922.5991    61156.999    25443.977    7583.9559    6604.2489    10161.281    76.853053 
   66300    791.63075   -160.50742   0.71628413   -159.79114   -11773.933    4.2610426    4.2610426    4.2610426   -11773.933   -90279.441    58235.519   -3277.8749    8727.8882    12569.044    4356.0867    77.365554 
   66400    1637.8776   -161.26617    1.4819861   -159.78419   -14475.759    4.2472484    4.2472484    4.2472484   -14475.759   -16259.971   -761.02514   -26406.279    1849.1401    20296.507   -984.42061     76.61662 
   66500    1770.8961   -161.38985     1.602344    -159.7875    1119.8893    4.2449553    4.2449553    4.2449553    1119.8893    20752.362   -13472.812   -3919.8817   -2111.0402    1316.9686   -10989.968    76.492591 
   66600     1099.569   -160.78627   0.99491317   -159.79135   -23701.433    4.2651564    4.2651564    4.2651564   -23701.433   -79625.406   -12525.756    21046.864    3229.3705   -9707.5478   -6136.5436    77.589845 
   66700    1274.7203   -160.93978    1.1533937   -159.78638   -549.61298     4.257808     4.257808     4.257808   -549.61298   -50103.806   -5100.3303    53555.298    1386.7895    -2187.647    14684.268    77.189501 
   66800    1551.0524   -161.18701    1.4034248   -159.78358    32373.318    4.2415884    4.2415884    4.2415884    32373.318    12093.022    1921.4292    83105.504   -3394.6175    3365.7751    7977.2718    76.310722 
   66900     971.0231   -160.67472   0.87860211   -159.79612    8995.4149     4.256581     4.256581     4.256581    8995.4149    -67446.99    35789.454     58643.78    986.45574    10006.977    8724.9737    77.122787 
   67000    1204.2723   -160.87619    1.0896509   -159.78654   -26778.824    4.2689205    4.2689205    4.2689205   -26778.824   -85415.657    5677.4829   -598.29837   -2764.8761   -6446.2995    874.02927    77.795449 
   67100    1943.7437   -161.53695    1.7587401   -159.77821   -17248.299    4.2537287    4.2537287    4.2537287   -17248.299    -223.6964   -40233.383   -11287.817    10767.674   -11762.491   -11214.268     76.96785 
   67200    1283.5712   -160.94355    1.1614022   -159.78214   -14348.598    4.2446901    4.2446901    4.2446901   -14348.598   -29939.707    367.40707   -13473.495   -4981.1379   -8355.0731   -11723.324    76.478255 
   67300    781.21776   -160.49933   0.70686224   -159.79247   -12366.546    4.2489742    4.2489742    4.2489742   -12366.546   -80574.012    50751.613   -7277.2405   -5426.0363   -10795.495    4413.4828    76.710055 
   67400    1332.4277   -161.00055    1.2056086   -159.79494    24796.363    4.2451399    4.2451399    4.2451399    24796.363    17787.603    39352.171    17249.315   -9822.8334   -9165.6354    7067.3363    76.502568 
   67500    1273.5308   -160.94993    1.1523174   -159.79761    22286.517    4.2492312    4.2492312    4.2492312    22286.517    26326.314    25609.169    14924.069   -9729.4026   -12032.439    5429.6395    76.723975 
   67600    828.30552   -160.54366   0.74946824   -159.79419   -24438.798    4.2601139    4.2601139    4.2601139   -24438.798   -81074.532    8217.9192   -459.78065    9291.0163    -9363.962   -2977.1235     77.31498 
   67700    1772.4786   -161.38953    1.6037759   -159.78576   -26388.685    4.2503746    4.2503746    4.2503746   -26388.685   -37663.368   -19637.724   -21864.962   -3287.2509   -3244.3733   -11915.064    76.785926 
   67800    2034.7458   -161.62454    1.8410807   -159.78346    2485.8532    4.2377825    4.2377825    4.2377825    2485.8532    9043.5413   -11383.691    9797.7096    2961.6929    9864.1197   -1075.3083    76.105492 
   67900    913.94685   -160.62267   0.82695831   -159.79571   -6495.6936    4.2511372    4.2511372    4.2511372   -6495.6936    -76224.09     18299.46     38437.55    4277.2825    12301.423    11751.076    76.827265 
   68000     1028.633     -160.723   0.93072878   -159.79227   -4482.5488     4.267072     4.267072     4.267072   -4482.5488   -79453.789    45890.336    20115.807   -1281.8554    7355.7279    12157.882    77.694434 
   68100    1673.1748    -161.3047    1.5139237   -159.79078    21714.299    4.2580547    4.2580547    4.2580547    21714.299     4974.279    12144.857    48023.761    12501.701   -402.56291    17024.173    77.202919 
   68200    1014.6879   -160.70235   0.91811093   -159.78424    7217.8762    4.2476887    4.2476887    4.2476887    7217.8762   -43271.044    8674.4559    56250.217    2023.4907   -11179.343   -3808.4873    76.640451 
   68300      1125.88   -160.80713    1.0187199   -159.78841   -32371.221    4.2584161    4.2584161    4.2584161   -32371.221   -92926.951   -12328.939    8142.2271   -1478.1581    -3154.495   -12576.907    77.222574 
   68400    2160.9036   -161.74302     1.955231   -159.78779   -25663.862    4.2634467    4.2634467    4.2634467   -25663.862   -22570.684   -12580.091   -41840.812   -16888.583   -4492.3119   -10310.413    77.496576 
   68500    1314.9019   -160.97804    1.1897508   -159.78829   -12857.098    4.2571019    4.2571019    4.2571019   -12857.098   -51642.308    28359.494   -15288.479   -9941.7155   -1720.3932   -8328.8213    77.151103 
   68600    530.80938    -160.2742   0.48028748   -159.79391    1715.7197     4.255437     4.255437     4.255437    1715.7197    -90850.69    60272.564    35725.285    -5802.258      4212.98    8024.7683    77.060617 
   68700    1606.1754   -161.25099    1.4533013   -159.79769     21616.95    4.2556069    4.2556069    4.2556069     21616.95   -12873.656    50972.632    26751.875    -7914.628   -116.10753    18396.264     77.06985 
   68800    1293.7495   -160.96577    1.1706117   -159.79516    19609.957    4.2547411    4.2547411    4.2547411    19609.957   -27342.918    56130.636    30042.151   -2157.2542    10748.464    10800.514    77.022819 
   68900     748.6184   -160.46852   0.67736566   -159.79116   -21522.073    4.2584573    4.2584573    4.2584573   -21522.073   -96596.903    19107.495    12923.187   -4073.2579     4397.601    10576.816    77.224819 
   69000    1941.8842   -161.54567    1.7570576   -159.78861   -30856.323    4.2565127    4.2565127    4.2565127   -30856.323   -35362.082   -26480.222   -30726.664    14155.196   -6095.1146   -9784.1409    77.119074 
   69100    1956.6686   -161.55678    1.7704349   -159.78634   -11020.583    4.2511759    4.2511759    4.2511759   -11020.583   -9642.5452   -12616.159   -10803.044   -1170.4452   -2776.8479   -8619.2677    76.829362 
   69200    515.36389   -160.25557   0.46631208   -159.78926   -1014.9368    4.2539528    4.2539528    4.2539528   -1014.9368   -75334.713    41487.794    30802.108   -2339.0199    2775.7897     8823.467    76.980018 
   69300    969.65805   -160.66595   0.87736698   -159.78858    11407.952    4.2571829    4.2571829    4.2571829    11407.952   -20205.415    59115.646   -4686.3771   -1840.1107   -824.55959     15885.42    77.155508 
   69400    1537.7624   -161.18248    1.3913998   -159.79108     24766.79    4.2482725    4.2482725    4.2482725     24766.79    23976.204    56786.717   -6462.5509    5337.0085   -223.84228    19048.363    76.672055 
   69500    922.14634   -160.62092   0.83437738   -159.78654   -7733.6767    4.2427727    4.2427727    4.2427727   -7733.6767   -68275.561    39010.525     6064.006    14454.533   -11319.271    2765.0577    76.374662 
   69600     1180.094   -160.85761    1.0677739   -159.78984    -38383.95    4.2577049    4.2577049    4.2577049    -38383.95   -91437.089   -21825.313   -1889.4467    8714.0465   -14387.082   -13675.182    77.183892 
   69700    2157.0226   -161.73377    1.9517194   -159.78205   -22569.168    4.2649223    4.2649223    4.2649223   -22569.168   -18523.466   -35923.976   -13260.061   -2254.4209    10920.909   -1855.0119    77.577068 
   69800     1087.268   -160.75857   0.98378294   -159.77478    19584.934    4.2479277    4.2479277    4.2479277    19584.934   -54598.996    40460.568    72893.231   -12672.436    6236.5794    7506.6786    76.653387 
   69900    357.47809   -160.10457   0.32345369   -159.78112    31995.645    4.2452483    4.2452483    4.2452483    31995.645   -71460.834    65394.689    102053.08   -5113.4534    3102.5572    17658.617    76.508432 
   70000    1518.6673    -161.1653    1.3741221   -159.79118    6585.2332     4.262378     4.262378     4.262378    6585.2332   -17857.446   -1836.8494    39449.995   -13121.966    9888.5202     10839.84    77.438315 
   70100    1613.6725   -161.23967    1.4600848   -159.77959   -25696.743    4.2625094    4.2625094    4.2625094   -25696.743   -52371.502    -36207.54    11488.812   -185.95645   -4291.6261   -10557.174    77.445476 
   70200    1000.4456   -160.67816   0.90522418   -159.77293   -35868.158    4.2525683    4.2525683    4.2525683   -35868.158   -109676.37    825.42272    1246.4717   -3909.8805    2240.6599   -14808.506    76.904878 
   70300    1813.1276    -161.4266    1.6405559   -159.78604   -15216.175    4.2567005    4.2567005    4.2567005   -15216.175    -25540.01    3755.2091   -23863.724    5079.2553   -2706.7093   -4221.6023    77.129283 
   70400    1404.9218   -161.06189    1.2712028   -159.79068    5990.0211     4.261846     4.261846     4.261846    5990.0211   -54740.118      39120.8    33589.382    5459.4502   -13077.621    8212.4923    77.409319 
   70500    416.23908   -160.16112   0.37662186   -159.78449    12172.954    4.2563586    4.2563586    4.2563586    12172.954   -115568.68    62861.274    89226.271    600.61814    1193.6139     20720.96    77.110696 
   70600    1201.3072   -160.88022     1.086968   -159.79326    27353.619    4.2560392    4.2560392    4.2560392    27353.619    -16467.36    17182.725    81345.494   -2185.4995    8022.4405    12569.292    77.093342 
   70700    1741.1827   -161.36713    1.5754587   -159.79167   -16726.281    4.2645849    4.2645849    4.2645849   -16726.281   -38538.244   -31486.009    19845.411    1529.5154    179.66674   -5077.6957    77.558662 
   70800    1066.0609   -160.74059   0.96459427   -159.77599   -46592.624    4.2586565    4.2586565    4.2586565   -46592.624   -114928.45   -2712.6493   -22136.768    8473.7095    3889.5187   -14822.891    77.235655 
   70900    1556.4718   -161.18377    1.4083284   -159.77544   -6797.0386    4.2455584    4.2455584    4.2455584   -6797.0386   -33805.939    10667.753    2747.0707    1623.1235    10590.259   -6724.0687    76.525197 
   71000    1594.7427   -161.23812    1.4429567   -159.79516    18122.407    4.2560227    4.2560227    4.2560227    18122.407   -8291.2509    20715.015    41943.458    4045.4015    8707.3974    5286.9541    77.092445 
   71100    403.16213   -160.15453   0.36478956   -159.78974    327.60688    4.2704523    4.2704523    4.2704523    327.60688   -124154.89    57323.583    67814.131   -6157.2185    8129.3639    16940.459    77.879227 
   71200    1263.8156   -160.92267    1.1435269   -159.77914   -3545.2373    4.2580648    4.2580648    4.2580648   -3545.2373   -48365.018    11607.083    26122.223   -2828.7521    281.17077    6076.8449    77.203464 
   71300    2073.6991   -161.64403    1.8763265    -159.7677   -9939.0925    4.2460907    4.2460907    4.2460907   -9939.0925    7608.1914   -22846.049    -14579.42    3147.2325   -5660.2641    -9914.884    76.553986 
   71400    1233.4562   -160.89044    1.1160571   -159.77438   -35363.977    4.2542277    4.2542277    4.2542277   -35363.977   -100096.48     2498.028   -8493.4773   -4851.7282    -8631.801   -7226.4659    76.994941 
   71500    1107.4001   -160.78272    1.0019989   -159.78072    39.397176    4.2548018    4.2548018    4.2548018    39.397176   -57977.518     45144.99    12950.719     7381.715   -13822.464   -404.29485    77.026116 
   71600    1423.3505   -161.07565    1.2878775   -159.78777    43681.539    4.2506758    4.2506758    4.2506758    43681.539    43298.402     49301.16    38445.056    6039.7993   -10675.383    12862.784    76.802253 
   71700    804.48473   -160.51383   0.72791469   -159.78592    12515.052    4.2592685    4.2592685    4.2592685    12515.052   -43510.704    46109.414    34946.446    2597.8929   -6098.9146    11254.975    77.268959 
   71800     1217.616   -160.87796    1.1017246   -159.77623   -30892.642    4.2562104    4.2562104    4.2562104   -30892.642   -86823.541    6370.8015   -12225.185   -4603.6085    264.87093   -4912.6116    77.102642 
   71900    2193.8019   -161.75653     1.984998   -159.77153   -1380.8575    4.2418794    4.2418794    4.2418794   -1380.8575    42022.993   -26520.947   -19644.619     1399.426    8369.8779   -10188.805    76.326431 
   72000    1396.5299   -161.04922    1.2636096   -159.78561    -4303.051    4.2513435    4.2513435    4.2513435    -4303.051   -18590.701   -11862.968    17544.516     1073.741    4962.5592    -417.7232     76.83845 
   72100    700.31123   -160.41797   0.63365631   -159.78432   -7023.1056    4.2661104    4.2661104    4.2661104   -7023.1056   -98411.055    32537.418    44804.321    3801.5093    1078.5362    7809.4397    77.641921 
   72200    1785.1575   -161.39386    1.6152481   -159.77861   -2203.7521    4.2571547    4.2571547    4.2571547   -2203.7521   -9195.0601    7277.6638     -4693.86    2336.1022    10934.502     4857.212    77.153972 
   72300    1680.3762   -161.29148    1.5204397   -159.77104   -21690.996    4.2473052    4.2473052    4.2473052   -21690.996    -9321.514   -23441.073     -32310.4   -8369.6184    17815.844   -10308.139    76.619694 
   72400    719.97468     -160.433   0.65144822   -159.78156   -26947.993    4.2571706    4.2571706    4.2571706   -26947.993   -73330.432   -8185.3763    671.82939    -5339.667   -3187.8197   -5924.9045     77.15484 
   72500    1283.3318   -160.94578    1.1611855   -159.78459    10934.226    4.2618984    4.2618984    4.2618984    10934.226    19169.198    5568.0395    8065.4398    12579.121   -7821.9893    5321.2219    77.412175 
   72600    1535.9807    -161.1729    1.3897876   -159.78312    14881.463    4.2521703    4.2521703    4.2521703    14881.463    53868.766   -17519.039    8294.6614    2816.3126    -12358.87   -3602.7332     76.88329 
   72700    746.65501   -160.45745   0.67558914   -159.78186   -14420.449     4.250335     4.250335     4.250335   -14420.449   -63937.629    7595.3244    13080.957   -8207.5924   -7145.5382   -13242.902    76.783781 
   72800    1324.2976   -160.98236    1.1982523   -159.78411    -15375.39    4.2533199    4.2533199    4.2533199    -15375.39   -46461.936    19063.682   -18727.916   -6858.6446     4120.427   -8293.9029    76.945663 
   72900    1751.2011   -161.37106    1.5845236   -159.78654    20883.482    4.2492454    4.2492454    4.2492454    20883.482    32168.212    31826.641   -1344.4075   -7213.4038   -6497.5948    2865.1318    76.724745 
   73000    705.43849   -160.42504   0.63829557   -159.78675    20896.543    4.2519478    4.2519478    4.2519478    20896.543   -17292.654    32797.373    47184.911    7772.4386   -4930.3596    9115.3929    76.871222 
   73100    966.34253   -160.66018   0.87436703   -159.78581   -5884.0487    4.2585105    4.2585105    4.2585105   -5884.0487   -57671.408    14752.989    25266.273   -462.82623   -1252.3066   -570.94629    77.227711 
   73200    2233.5276   -161.80485    2.0209427   -159.78391   -15862.463    4.2512608    4.2512608    4.2512608   -15862.463    7240.2307   -13957.487   -40870.133   -7583.5855    4165.1609   -10413.501    76.833963 
   73300     1423.864   -161.07223    1.2883421   -159.78389   -11850.596    4.2437968    4.2437968    4.2437968   -11850.596   -25033.392   -11728.615    1210.2202   -12662.691    6512.1569   -13180.756    76.429977 
   73400    822.90082   -160.53778   0.74457796    -159.7932   -21328.237    4.2533078    4.2533078    4.2533078   -21328.237   -93881.068   -10302.077    40198.434   -2723.6842   -3403.1854   -5631.7045    76.945008 
   73500    1778.2388   -161.40153    1.6089878   -159.79254   -8783.9508    4.2614796    4.2614796    4.2614796   -8783.9508   -30405.804   -8569.0858    12623.037    5062.0368   -12999.145    9445.1459    77.389359 
   73600    1439.9092   -161.08813    1.3028601   -159.78527    463.31489    4.2529386    4.2529386    4.2529386    463.31489   -34679.096    37489.282   -1420.2416    6714.2056   -5399.0083    11360.054    76.924972 
   73700    532.98037   -160.26355   0.48225184    -159.7813   -1202.6999    4.2433262    4.2433262    4.2433262   -1202.6999   -90401.483     76998.36    9795.0224     5171.409   -11973.251    6764.9351    76.404557 
   73800     1363.543   -161.02528    1.2337624   -159.79152    7417.1928    4.2491261    4.2491261    4.2491261    7417.1928   -7908.4121    50315.495   -20155.504   -3990.1197   -5142.0674   -3810.6016    76.718282 
   73900    1804.7963   -161.42573    1.6330176   -159.79272    6411.7592    4.2568488    4.2568488    4.2568488    6411.7592    35367.594   -2443.3555   -13688.961     -3322.37   -7890.3209   -7048.8113    77.137343 
   74000    745.52594   -160.45767   0.67456754    -159.7831   -16630.682    4.2573802    4.2573802    4.2573802   -16630.682   -65288.592   -23385.574     38782.12    5198.9254   -12207.958   -5908.5974    77.166237 
   74100    890.32747   -160.58882     0.805587   -159.78323    8115.9421    4.2500456    4.2500456    4.2500456    8115.9421    -23923.05   -12169.625    60440.502   -7984.4504    203.86979    5492.2239    76.768095 
   74200    1633.9953   -161.26726    1.4784733   -159.78879    31487.616    4.2453572    4.2453572    4.2453572    31487.616    38997.867    5548.9341    49916.048   -6761.5356   -2989.9836    14243.417    76.514319 
   74300    1173.2234   -160.85135    1.0615572   -159.78979    4906.5639    4.2480296    4.2480296    4.2480296    4906.5639    -49498.18    8934.0975    55283.775   -14639.936     2488.018    1227.1647    76.658905 
   74400    1001.3276   -160.69477   0.90602226   -159.78875   -27867.586    4.2567861    4.2567861    4.2567861   -27867.586    -64330.84   -37276.035    18004.119   -7902.5639    714.55347   -6659.4158    77.133935 
   74500    1930.9723   -161.52979    1.7471843   -159.78261   -21167.374    4.2577383    4.2577383    4.2577383   -21167.374   -5988.2565   -21760.262   -35753.603    6204.1598   -680.33366   -7398.4209    77.185706 
   74600    1694.8728   -161.31322    1.5335566   -159.77966    13166.693     4.247948     4.247948     4.247948    13166.693   -21209.436    73648.366   -12938.851   -8349.9937    8370.7545    1914.2809    76.654487 
   74700    870.80663   -160.57542   0.78792414    -159.7875    9585.7134    4.2506914    4.2506914    4.2506914    9585.7134   -81066.044      82676.8    27146.384   -1534.5591    1667.9585    15348.581    76.803098 
   74800    1258.2263   -160.92832    1.1384696   -159.78985     1841.555    4.2573694    4.2573694    4.2573694     1841.555   -32468.938     33893.69    4099.9135    5530.9874    8190.5095    9126.9084    77.165647 
   74900    1751.5584   -161.37198    1.5848468   -159.78713    809.93325    4.2507663    4.2507663    4.2507663    809.93325   -2713.4229    18684.629   -13541.407     3044.928    4119.6264   -4527.5674    76.807154 
   75000    1380.7118   -161.03459    1.2492971   -159.78529   -16680.818    4.2470353    4.2470353    4.2470353   -16680.818   -65712.669    14965.446    704.76925     12895.29   -584.96941   -9256.4284    76.605086 
   75100     1400.944   -161.05637    1.2676036   -159.78877   -22947.351    4.2576364    4.2576364    4.2576364   -22947.351   -23310.802   -49207.237    3675.9838   -4019.7566    4237.1126   -8411.3641    77.180165 
   75200    1382.9496   -161.03497    1.2513218   -159.78365    7668.1945    4.2584921    4.2584921    4.2584921    7668.1945    2276.4256   -29129.831    49857.988   -6717.5622    5271.0214    7516.8304    77.226709 
   75300    1027.2376   -160.70833   0.92946617   -159.77887    8495.1959    4.2482318    4.2482318    4.2482318    8495.1959   -70734.556    42299.342    53920.801    9184.4146    368.77462    20426.715    76.669848 
   75400    1138.8352   -160.81399    1.0304421   -159.78355    313.68364    4.2446839    4.2446839    4.2446839    313.68364    -62096.46    14282.975    48754.537    4955.6125   -15139.311    340.81651     76.47792 
   75500    1789.9715   -161.40788    1.6196038   -159.78828   -10030.249    4.2503607    4.2503607    4.2503607   -10030.249     21176.78   -46437.374   -4830.1526    1523.6298   -10417.454   -6521.5933    76.785174 
   75600    1460.2624   -161.10543    1.3212761   -159.78415   -13164.046    4.2534745    4.2534745    4.2534745   -13164.046   -24382.572   -14080.225   -1029.3409   -6570.8444    -8241.138   -11298.765    76.954052 
   75700    1108.8779   -160.79027     1.003336   -159.78693   -2642.0671    4.2552614    4.2552614    4.2552614   -2642.0671    -78541.78    48660.344    21955.235   -2870.3018   -2731.7791   -3575.6838    77.051081 
   75800    1472.4312   -161.12313    1.3322867   -159.79085    14662.065     4.258972     4.258972     4.258972    14662.065   -8213.4255    37232.212     14967.41   -4558.6862    -1582.076    15928.129     77.25282 
   75900    1021.5562   -160.71231   0.92432555   -159.78798    20515.924    4.2518429    4.2518429    4.2518429    20515.924   -18166.646    54737.455    24976.964     4854.404   -11027.284    14830.347    76.865531 
   76000    647.58788   -160.36914   0.58595112   -159.78319     4087.812    4.2441775    4.2441775    4.2441775     4087.812   -80580.948    77724.307    15120.077    1082.3016   -380.36908    8441.8297    76.450549 
   76100    1571.0133   -161.21111    1.4214858   -159.78962   -1641.3316    4.2483881    4.2483881    4.2483881   -1641.3316   -20366.601    22063.384   -6620.7781    -4829.282   -57.848232   -3866.3403    76.678312 
   76200    1714.1789   -161.34301    1.5510251   -159.79199    -16736.81    4.2607984    4.2607984    4.2607984    -16736.81    7857.8078   -50700.788   -7367.4507    1825.9932    8636.7262    -9408.949     77.35225 
   76300     513.7627   -160.24719   0.46486329   -159.78232   -11069.924    4.2594466    4.2594466    4.2594466   -11069.924   -76278.103    18171.458    24896.872   -6317.7369    17474.345    4768.1168    77.278654 
   76400    934.73566   -160.62764   0.84576846   -159.78187    20520.248    4.2435735    4.2435735    4.2435735    20520.248   -50288.584    78878.471    32970.856    7217.0672    13494.157     16898.88    76.417917 
   76500    1673.2623   -161.30419    1.5140029   -159.79018    32937.536    4.2406795    4.2406795    4.2406795    32937.536    15178.719    55490.521    28143.368    3260.1591     18619.78    21022.494    76.261678 
   76600    973.53037   -160.67158   0.88087074   -159.79071   -18652.813    4.2564611    4.2564611    4.2564611   -18652.813   -81024.798    869.28104    24197.077   -1865.3563    9087.0939    9095.3695    77.116271 
   76700    1086.1379   -160.76765    0.9827604   -159.78489   -39716.161    4.2630347    4.2630347    4.2630347   -39716.161   -97181.528   -17112.251   -4854.7045    5508.9076     -2842.81   -4661.9197    77.474112 
   76800    2118.5417   -161.69878     1.916901   -159.78188   -6126.4215    4.2555284    4.2555284    4.2555284   -6126.4215   -2650.0679   -12656.563   -3072.6341   -8474.2183   -4774.5123   -1302.0794    77.065584 
   76900    1199.3609   -160.86833     1.085207   -159.78312    4997.2115    4.2470823    4.2470823    4.2470823    4997.2115    -38601.56    10345.099    43248.095    1005.7518   -20096.703    8069.7273    76.607633 
   77000    330.34836   -160.08515   0.29890613   -159.78624    10221.742    4.2446405    4.2446405    4.2446405    10221.742   -79195.496     40615.45    69245.272    1958.9892   -17057.697    13084.899    76.475571 
   77100    1528.2891   -161.17436    1.3828281   -159.79153     15393.85    4.2529164    4.2529164    4.2529164     15393.85    2123.3907    4584.9261    39473.235   -10456.695   -2408.8484    11105.718    76.923766 
   77200    1732.9069   -161.35208    1.5679706   -159.78411     -9395.52    4.2626922    4.2626922    4.2626922     -9395.52    2618.0231    -31762.88    958.29702   -3386.6699   -2649.6728   -10053.742    77.455441 
   77300    710.85963   -160.41998   0.64320073   -159.77678   -24521.586    4.2616717    4.2616717    4.2616717   -24521.586   -56156.217   -11491.298   -5917.2416    8620.6852   -1069.8643   -11453.033    77.399822 
   77400    1461.3332   -161.10277     1.322245   -159.78053    10616.975    4.2502664    4.2502664    4.2502664    10616.975    30935.319    20142.452   -19226.847    2495.9809   -5148.9264    613.50959    76.780063 
   77500    1986.4649   -161.58006    1.7973952   -159.78266      4644.67    4.2476664    4.2476664    4.2476664      4644.67    10712.268    13284.047   -10062.304     5099.783   -5716.6519    3063.0655    76.639245 
   77600    1008.8006   -160.69521   0.91278396   -159.78243   -20245.833    4.2523845    4.2523845    4.2523845   -20245.833    -85811.59   -7296.0969     32370.19   -7276.4073   -1721.3637    7433.7291     76.89491 
   77700     1040.784   -160.72811   0.94172321   -159.78638   -6741.3539    4.2567422    4.2567422    4.2567422   -6741.3539   -34718.776   -16656.675    31151.389     2962.119    12485.174   -1633.2722     77.13155 
   77800     1667.388   -161.29933    1.5086877   -159.79064    27931.023     4.257272     4.257272     4.257272    27931.023    62149.992   -20679.354    42322.431    12762.751    12295.612    -8716.209    77.160351 
   77900    1214.7368    -160.8823    1.0991193   -159.78318    9406.7486    4.2511379    4.2511379    4.2511379    9406.7486   -6286.1029   -4202.1693    38708.518    940.06408    751.52584   -991.86541    76.827299 
   78000    1076.0261   -160.75348   0.97361102   -159.77987   -23161.253    4.2526856    4.2526856    4.2526856   -23161.253   -62793.141   -17292.102    10601.485   -2314.3632   -11058.482    9287.9343    76.911246 
   78100    1790.5469   -161.40606    1.6201244   -159.78594   -10852.437    4.2643705    4.2643705    4.2643705   -10852.437     5309.718    5346.2312   -43213.261    14.753457    -11511.49    1708.3606     77.54696 
   78200    1403.5415   -161.05052    1.2699539   -159.78056    7703.4849    4.2594457    4.2594457    4.2594457    7703.4849    15801.959    32801.197   -25492.702    9902.0316     6640.174   -4172.7803    77.278601 
   78300    917.73056   -160.60455   0.83038189   -159.77417   -11716.862    4.2502867    4.2502867    4.2502867   -11716.862   -68206.953    12921.168    20135.199    3310.8417    13739.136   -8459.3758    76.781162 
   78400    1662.7587   -161.28493     1.504499   -159.78043   -11774.632    4.2537536    4.2537536    4.2537536   -11774.632   -14523.667   -32781.727    11981.497   -8438.1389    6691.9372   -4368.4025    76.969203 
   78500    1543.6041   -161.17954    1.3966855   -159.78285    14355.237    4.2562846    4.2562846    4.2562846    14355.237   -6786.6333    727.38259    49124.962    7693.1668   -1920.4918    14580.249    77.106673 
   78600     787.9384   -160.49188   0.71294322   -159.77894    5005.3515    4.2540956    4.2540956    4.2540956    5005.3515   -86514.364    46329.222    55201.196    11079.346   -11496.903    12788.486    76.987767 
   78700    1289.0357   -160.94891    1.1663466   -159.78256   -10052.197    4.2544277    4.2544277    4.2544277   -10052.197   -52357.371     5012.058    17188.723   -3919.3329    3958.7376     329.7487    77.005799 
   78800    1964.6236   -161.55963    1.7776327   -159.78199   -14387.697    4.2542331    4.2542331    4.2542331   -14387.697    30614.301   -39029.429   -34747.962   -3462.8775    6410.8024   -10211.805    76.995236 
   78900     944.7685   -160.63808   0.85484639   -159.78324    11024.059    4.2529687    4.2529687    4.2529687    11024.059    12186.638    29663.635    -8778.098    12114.842   -4553.4887   -5411.0895    76.926603 
   79000    694.12138   -160.41544   0.62805562   -159.78738     17828.36    4.2589331    4.2589331    4.2589331     17828.36    25159.024    20617.655    7708.4014    10221.295   -12828.663    12038.503    77.250707 
   79100    1639.8512   -161.26713    1.4837718   -159.78336   -7126.6509     4.267446     4.267446     4.267446   -7126.6509    35493.306   -21650.592   -35222.667    7476.6883    2288.7395    4452.2449    77.714865 
   79200    1675.5382   -161.28234    1.5160622   -159.76628   -39021.059    4.2615979    4.2615979    4.2615979   -39021.059   -75705.199   -3000.5002   -38357.478   -5197.8942    2533.2387   -9472.9639    77.395801 
   79300    906.91771   -160.58401    0.8205982   -159.76342    6328.6314    4.2462428    4.2462428    4.2462428    6328.6314   -44497.243    33314.081    30169.057   -1634.2922   -11008.627    7079.7535    76.562214 
   79400    1251.8522   -160.90843    1.1327022   -159.77573     24603.95    4.2513076    4.2513076    4.2513076     24603.95     52303.32    13202.123    8306.4056    14130.082   -15818.944    9317.2456    76.836505 
   79500    1674.8393   -161.28923    1.5154298    -159.7738   -15519.601    4.2654028    4.2654028    4.2654028   -15519.601   -33304.841    22147.625   -35401.586   -5081.1129     685.0568    2691.1493     77.60329 
   79600    1401.7474   -161.02865    1.2683305   -159.76032   -49110.247    4.2672398    4.2672398    4.2672398   -49110.247   -110363.14   -29993.407   -6974.1913   -10837.964    6036.7351   -8138.5607    77.703599 
   79700    1418.2483   -161.04607    1.2832609   -159.76281    8317.5956    4.2575365    4.2575365    4.2575365    8317.5956     30521.38    -43675.75    38107.157    10238.899   -9082.2846   -851.09824    77.174736 
   79800    1158.2018   -160.82209    1.0479654   -159.77412    36753.864    4.2561265    4.2561265    4.2561265    36753.864    71276.444   -17700.994    56686.144    8928.3198   -16440.755     10951.82    77.098085 
   79900    905.74776   -160.59317    0.8195396   -159.77363   -11027.211    4.2626669    4.2626669    4.2626669   -11027.211   -37774.812   -27993.453    32686.633     5268.066    -6257.044   -3441.9823    77.454063 
   80000    1461.6599   -161.09257    1.3225406   -159.77003   -19472.721    4.2610181    4.2610181    4.2610181   -19472.721   -19054.991    738.51168   -40101.685   -3847.7336    11183.171   -6138.3113    77.364218 
   80100    1346.6458   -160.99489    1.2184734   -159.77641    17602.578    4.2593885    4.2593885    4.2593885    17602.578   -14333.737    62211.294     4930.176   -794.47756    765.55252    10100.939    77.275488 
   80200    683.66971    -160.3988   0.61859872    -159.7802    14969.514    4.2623408    4.2623408    4.2623408    14969.514   -83652.125    87370.395    41190.273    12233.755   -6021.8247    15247.364    77.436283 
   80300    1342.4557   -160.98819    1.2146822   -159.77351   -6511.6914    4.2595175    4.2595175    4.2595175   -6511.6914    -30956.28    29329.461   -17908.256    3798.7241    -10192.82    3595.2891    77.282511 
   80400    1891.6902   -161.47979     1.711641   -159.76815   -23783.906    4.2536445    4.2536445    4.2536445   -23783.906     1546.568   -30965.945   -41932.341   -10792.157    1401.1811   -10194.075     76.96328 
   80500    1294.3705   -160.94626    1.1711736   -159.77509   -12083.896    4.2541162    4.2541162    4.2541162   -12083.896   -55562.085   -15112.904    34423.302   -924.53917    3212.0738   -891.12583    76.988887 
   80600    1017.0358   -160.70321   0.92023535   -159.78297    12144.541    4.2578817    4.2578817    4.2578817    12144.541   -41235.786    14000.918    63668.492    920.85517   -9303.4883    10692.454    77.193509 
   80700    1235.3296   -160.90191    1.1177522   -159.78415    24255.499    4.2562369    4.2562369    4.2562369    24255.499     27063.03   -12231.391    57934.858    739.47703   -1455.1454    15000.897    77.104084 
   80800    1124.9445   -160.79884    1.0178734   -159.78096    1770.1803    4.2566516    4.2566516    4.2566516    1770.1803   -34032.165    2017.2261     37325.48   -4993.4559     7313.151    1922.6263    77.126625 
   80900    1293.5296   -160.94619    1.1704128   -159.77577   -19915.894    4.2588359    4.2588359    4.2588359   -19915.894   -36949.003     -22133.6   -665.07904    -2475.838    10214.503   -8843.6639    77.245414 
   81000    1433.3246   -161.07711    1.2969023   -159.78021    12199.776    4.2550043    4.2550043    4.2550043    12199.776    83478.568   -14174.058   -32705.181     18471.43   -1029.4407   -4901.1015    77.037118 
   81100    915.09881   -160.61309   0.82800063   -159.78509    22235.515    4.2561525    4.2561525    4.2561525    22235.515     67240.32    20413.264    -20947.04     14185.41   -8476.4932     7593.959    77.099497 
   81200    899.16687   -160.59743   0.81358508   -159.78384   -6621.9873     4.260838     4.260838     4.260838   -6621.9873   -15053.713    6082.8538   -10895.103   -429.85094   -4251.0297    -2905.125    77.354408 
   81300    1863.6226   -161.46337    1.6862449   -159.77712   -25086.203     4.258349     4.258349     4.258349   -25086.203   -3710.1597   -37336.243   -34212.207   -13890.776    4973.0307   -5021.5504    77.218927 
   81400    1482.3639   -161.12017     1.341274    -159.7789   -3789.4793    4.2527787    4.2527787    4.2527787   -3789.4793    3223.9034   -16277.084    1684.7425   -11579.235    8711.2268    4346.4947    76.916294 
   81500    773.32588   -160.48141    0.6997215   -159.78169    3791.6554    4.2522875    4.2522875    4.2522875    3791.6554    -54015.64    39356.528    26034.079   -884.43649   -1104.9354    11089.328    76.889648 
   81600    1340.8697   -160.99887    1.2132471   -159.78563    10225.148     4.256974     4.256974     4.256974    10225.148   -8869.5114    41772.962    -2228.006     17476.13   -1710.6258    9668.4174    77.144147 
   81700    1752.9785   -161.36935    1.5861318   -159.78321    1826.0527    4.2554409    4.2554409    4.2554409    1826.0527    25635.074    4802.0787   -24958.995    -2983.764    10577.897   -10080.406    77.060829 
   81800    1184.8097   -160.84901    1.0720407   -159.77697   -23999.515    4.2509392    4.2509392    4.2509392   -23999.515   -77203.749   -91.616902    5296.8212   -10269.486    7098.4126   -7197.0819     76.81653 
   81900    1080.2788   -160.76062   0.97745893   -159.78316   -5345.6992    4.2544492    4.2544492    4.2544492   -5345.6992   -73760.317    7114.3158    50608.904   -5080.4465   -678.10003   -6902.7926     77.00697 
   82000    1356.5519   -161.01571    1.2274366   -159.78827    31030.696    4.2562744    4.2562744    4.2562744    31030.696    25638.488   -13663.365    81116.963    8933.1297   -8776.3471    8974.2869     77.10612 
   82100     883.8787   -160.58019   0.79975202   -159.78044    6755.6896    4.2569225    4.2569225    4.2569225    6755.6896   -48902.389   -13111.061    82280.519    13410.869   -290.05291    7790.9332    77.141347 
   82200    974.92078   -160.65718   0.88212881   -159.77505   -22760.007    4.2581513    4.2581513    4.2581513   -22760.007   -87545.118    -7241.205    26506.303    37.615049    18324.205   -2457.6549    77.208172 
   82300    1701.5158   -161.31599    1.5395673   -159.77642   -3471.5883    4.2568599    4.2568599    4.2568599   -3471.5883     26493.54   -6449.1938   -30459.111    299.65678    18043.068    2500.1114    77.137948 
   82400    1325.6592   -160.97462    1.1994843   -159.77514    7508.0387    4.2541999    4.2541999    4.2541999    7508.0387    36916.825    10587.181   -24979.889    6772.9822    4183.5298    11335.815    76.993432 
   82500    791.09558   -160.49235   0.71579991   -159.77655    6528.7746    4.2501875    4.2501875    4.2501875    6528.7746   -34236.547    38940.517    14882.354   -817.24262   -7346.3704    10475.866    76.775784 
   82600     1645.444   -161.26709    1.4888323   -159.77826   -10835.069    4.2594897    4.2594897    4.2594897   -10835.069   -34278.819    3907.3316   -2133.7181   -6285.7129   -12015.019    6379.0989    77.280997 
   82700    2073.8035   -161.65026     1.876421   -159.77383   -21424.045    4.2617652    4.2617652    4.2617652   -21424.045   -5926.0765   -35339.231   -23006.829   -50.702289    12726.632   -12695.972    77.404917 
   82800    866.75016   -160.55877   0.78425376   -159.77452   -3414.5772    4.2503254    4.2503254    4.2503254   -3414.5772   -20445.779    27705.394   -17503.347    5833.8365    -21.34822    -13868.46    76.783256 
   82900    882.62477    -160.5825   0.79861744   -159.78388    22373.381    4.2479986    4.2479986    4.2479986    22373.381    21301.626    62945.691   -17127.175     15341.89   -7698.9159    1495.2872    76.657224 
   83000    1772.9162   -161.39305    1.6041718   -159.78888    17257.902    4.2555216    4.2555216    4.2555216    17257.902    47790.598    25410.419   -21427.312    7986.6376   -9538.2288   -268.18248    77.065216 
   83100    1432.2521   -161.07519    1.2959318   -159.77925   -23529.796    4.2549463    4.2549463    4.2549463   -23529.796   -48091.393   -11232.289   -11265.705   -10043.893   -840.69578   -2958.1628    77.033965 
   83200    1058.0147   -160.73256   0.95731393   -159.77525   -30051.276     4.252556     4.252556     4.252556   -30051.276   -62872.358   -11159.642   -16121.827    -9339.521    7845.7012   -3585.8145    76.904209 
   83300    1665.8553   -161.29182    1.5073009   -159.78452    10653.472    4.2539871    4.2539871    4.2539871    10653.472    42195.998    16081.642   -26317.226    6587.2591   -318.80758    -410.5167    76.981879 
   83400    1272.8344   -160.93642    1.1516873   -159.78473    16891.983    4.2534285    4.2534285    4.2534285    16891.983    18063.821    44931.591   -12319.465    20146.456   -3892.5755    4256.7051    76.951555 
   83500     468.5831   -160.20808   0.42398383    -159.7841    8170.8001     4.250635     4.250635     4.250635    8170.8001   -33473.418    61451.182   -3465.3633    17906.156    9210.5181   -8678.0242    76.800039 
   83600    1347.3524   -161.00864    1.2191128   -159.78952   -1099.2197    4.2559957    4.2559957    4.2559957   -1099.2197   -4059.3087    16422.201   -15660.552    9871.4004    13741.176   -9114.2869    77.090973 
   83700    1935.4067   -161.53577    1.7511966   -159.78457   -20714.176    4.2591774    4.2591774    4.2591774   -20714.176   -13333.421   -31906.317   -16902.791   -8903.3988    5119.8791   -3250.4361    77.263999 
   83800    925.46167   -160.61507   0.83737717   -159.77769    -19491.32    4.2547773    4.2547773    4.2547773    -19491.32    -63116.43    9110.6874    -4468.218    -7731.029    1475.4668    2165.8329    77.024785 
   83900    1019.8823   -160.70859   0.92281091   -159.78578    9546.7468    4.2558385    4.2558385    4.2558385    9546.7468    45017.577     15746.53   -32123.866    1565.4559    1003.0574    549.59404    77.082432 
   84000    1564.8596    -161.2068    1.4159178   -159.79089    29377.439    4.2573949    4.2573949    4.2573949    29377.439    107042.17    21257.066    -40166.92     19365.05    11045.197   -4773.3981    77.167032 
   84100     899.4305   -160.59972   0.81382362    -159.7859    12068.196    4.2515643    4.2515643    4.2515643    12068.196    19440.456     20819.32   -4055.1889    17371.859   -3195.5606    3975.9296    76.850421 
   84200    839.08156    -160.5451   0.75921863   -159.78588   -9202.4722    4.2492552    4.2492552    4.2492552   -9202.4722   -17282.481    2325.7672   -12650.703    7122.3718   -15561.733    5120.1465    76.725274 
   84300    1874.8299   -161.48821    1.6963855   -159.79183   -12442.938    4.2549096    4.2549096    4.2549096   -12442.938     21831.54   -21598.503    -37561.85   -675.12428    -4482.095   -3311.2921    77.031971 
   84400    1703.3467   -161.33166    1.5412239   -159.79043   -23613.948    4.2601554    4.2601554    4.2601554   -23613.948   -36593.189    666.56158   -34915.217   -7304.9633   -17602.631   -3448.4389    77.317236 
   84500    834.78174   -160.53868   0.75532806   -159.78335   -14957.227    4.2583772    4.2583772    4.2583772   -14957.227   -60555.805    34161.771   -18477.649   -4353.3693   -4828.0543    2193.9184    77.220462 
   84600    1124.8476    -160.8023    1.0177858   -159.78452    27674.783    4.2504731    4.2504731    4.2504731    27674.783    66828.376    45493.057   -29297.084    9998.1038   -3787.8485    10309.095    76.791263 
   84700    1535.3969   -161.17483    1.3892594   -159.78557    13541.083    4.2511221    4.2511221    4.2511221    13541.083    36047.432    35656.566   -31080.749    1047.6572    2027.2136    7813.4158    76.826447 
   84800    1237.2911   -160.90111     1.119527   -159.78158   -21673.946    4.2569933    4.2569933    4.2569933   -21673.946   -64143.713    9236.4765   -10114.602   -92.017659     12548.43   -5393.6121    77.145196 
   84900    1309.1628   -160.96599     1.184558   -159.78143   -8560.9342    4.2526382    4.2526382    4.2526382   -8560.9342   -18894.791   -18819.149    12031.137    -3168.293    3898.2371   -3157.9947    76.908673 
   85000    1694.3596   -161.31966    1.5330922   -159.78657    8290.3531    4.2489027    4.2489027    4.2489027    8290.3531    15348.175   -14109.663    23632.548   -5368.6223    5442.8081    7126.4162     76.70618 
   85100    1264.3672   -160.93589     1.144026   -159.79186    12262.053    4.2495069    4.2495069    4.2495069    12262.053   -36517.386     14748.33    58555.216    7622.8606    3760.9294    7770.7537    76.738908 
   85200    1105.5437   -160.78803    1.0003192   -159.78771   -5353.8838    4.2499866    4.2499866    4.2499866   -5353.8838   -42909.342   -7648.0068    34495.698   -3243.3996    6358.0198   -5792.3565    76.764896 
   85300    1639.4076   -161.26474    1.4833705   -159.78137   -21931.273    4.2515486    4.2515486    4.2515486   -21931.273   -1520.5061   -32812.039   -31461.273   -3078.3251    12822.406   -5629.9507    76.849568 
   85400    1494.5516   -161.13477    1.3523017   -159.78246   -6815.6235    4.2522039    4.2522039    4.2522039   -6815.6235   -38362.283    23201.391   -5285.9785    13095.872   -8858.4635   -6038.9441    76.885113 
   85500    861.63665   -160.56459   0.77962695   -159.78497    1292.5697    4.2523159    4.2523159    4.2523159    1292.5697   -89860.452     72252.09    21486.071    6161.9123   -14251.127    1501.5574    76.891186 
   85600    1089.6616   -160.77345   0.98594875    -159.7875    4563.0482    4.2473978    4.2473978    4.2473978    4563.0482   -19118.203    51072.758    -18265.41     6674.258   -17544.378    11295.947    76.624703 
   85700    1236.6014   -160.91228    1.1189029   -159.79338    14160.984    4.2435774    4.2435774    4.2435774    14160.984    7315.9445    34728.769    438.23814   -2186.5108   -12851.301    7308.3889    76.418127 
   85800    1198.6374   -160.88027    1.0845523   -159.79572   -8965.5232    4.2539035    4.2539035    4.2539035   -8965.5232   -58844.674      21549.5    10398.604   -4520.2012    1417.8811    2971.2983    76.977343 
   85900     1415.455   -161.07102    1.2807334   -159.79028   -21101.766    4.2561856    4.2561856    4.2561856   -21101.766   -16302.992   -14677.788   -32324.517   -6195.8229   -7175.4376   -11186.197    77.101295 
   86000    1593.8443   -161.22825    1.4421438   -159.78611   -11097.575    4.2492059    4.2492059    4.2492059   -11097.575    41327.642   -43963.525   -30656.841   -800.98992    -6352.555   -7281.4303    76.722603 
   86100    1323.4094   -160.98698    1.1974487   -159.78953    -4588.019    4.2518375    4.2518375    4.2518375    -4588.019   -25766.335   -11104.484    23106.762    6096.2097    1834.4527    9106.5621    76.865235 
   86200    1359.7673   -161.01895     1.230346    -159.7886   -12262.787    4.2558783    4.2558783    4.2558783   -12262.787    -71902.31    30926.031    4187.9174   -4315.4678    875.85321    4289.2737    77.084595 
   86300    1419.5037   -161.07189    1.2843968   -159.78749    3905.9473    4.2474163    4.2474163    4.2474163    3905.9473    11231.369    35711.654    -35225.18    6967.4891    8826.0683    6503.0858    76.625707 
   86400    999.54787   -160.69966   0.90441192   -159.79525    24478.399    4.2461863    4.2461863    4.2461863    24478.399    14972.744    65853.225   -7390.7719   -7488.8961    3070.1894   -6084.3912    76.559157 
   86500    955.99564   -160.66574   0.86500494   -159.80073    15844.082    4.2595179    4.2595179    4.2595179    15844.082   -36914.379    87196.834   -2750.2079   -18767.605    2353.8763   -13178.958    77.282533 
   86600     1305.582   -160.97372     1.181318    -159.7924      7506.91    4.2592305    4.2592305    4.2592305      7506.91    2177.7379    63510.827   -43167.835   -8332.7726   -3679.0203    6531.3385    77.266887 
   86700    1211.9847   -160.88114    1.0966292   -159.78451    847.51172    4.2466595    4.2466595    4.2466595    847.51172    17467.082    20974.339   -35898.886   -9656.5865    2891.8989    -40.50083    76.584755 
   86800    1101.5772   -160.78774   0.99673017   -159.79101   -4700.2652     4.246588     4.246588     4.246588   -4700.2652     -61494.5    34548.984     12844.72    75.744174   -857.84377    7028.5309    76.580884 
   86900    1559.5871   -161.20846    1.4111472   -159.79732   -14703.673    4.2550245    4.2550245    4.2550245   -14703.673   -60992.229    26636.539   -9755.3277    6543.7848   -15886.743   -2728.7608    77.038211 
   87000    1728.4109   -161.35509    1.5639025   -159.79118   -19978.654    4.2519687    4.2519687    4.2519687   -19978.654     10185.97   -37552.704   -32569.228    4097.7254    959.81466   -7774.8669    76.872352 
   87100    1246.5896   -160.91283    1.1279404   -159.78489   -26354.076    4.2507647    4.2507647    4.2507647   -26354.076   -30904.599   -48919.792    762.16071    -521.4952   -3046.6139   -2891.6104    76.807067 
   87200    1408.0425   -161.06153    1.2740265    -159.7875   -10892.116    4.2527753    4.2527753    4.2527753   -10892.116   -56502.033    9595.9536    14229.733   -4538.7922   -1352.0171   -4198.0966    76.916109 
   87300    1532.2758   -161.17691    1.3864354   -159.79047    13178.946    4.2487915    4.2487915    4.2487915    13178.946    18187.005    24994.241   -3644.4088   -646.42534    12546.815    4152.8705     76.70016 
   87400    845.16241   -160.55674   0.76472071   -159.79202    18076.341    4.2454696    4.2454696    4.2454696    18076.341    42305.186    11374.076    549.76121    13654.321   -9979.7117    990.71105    76.520397 
   87500     727.7425   -160.45315   0.65847671   -159.79468    10388.273    4.2517357    4.2517357    4.2517357    10388.273   -24267.136    49363.019    6068.9368    17134.315    3955.5684   -7157.8427    76.859719 
   87600     1504.494   -161.15518    1.3612978   -159.79388    4196.1356    4.2571132    4.2571132    4.2571132    4196.1356   -25794.401    38236.383    146.42436    13625.783   -1356.9575   -13523.958    77.151718 
   87700    1422.2268   -161.07412    1.2868607   -159.78726   -9689.0298    4.2525333    4.2525333    4.2525333   -9689.0298    2069.5651   -46219.706    15083.052    7815.6019    -5842.208   -13340.325    76.902979 
   87800    845.55673   -160.55347    0.7650775   -159.78839   -20521.659    4.2484907    4.2484907    4.2484907   -20521.659   -45619.605   -58446.241    42500.869    4967.5519    3919.4347   -12771.821    76.683868 
   87900    1290.7024   -160.96354    1.1678546   -159.79569    1893.0109    4.2492527    4.2492527    4.2492527    1893.0109   -44693.624   -7200.4459    57573.102     6829.195   -6828.0769    3769.4857    76.725137 
   88000    1640.3589   -161.27834    1.4842312   -159.79411    11883.592    4.2497184    4.2497184    4.2497184    11883.592    7228.9593   -19819.339    48241.156    4535.7192   -2553.0443    7188.2179    76.750366 
   88100    1147.8092   -160.82866    1.0385619    -159.7901   -10200.864    4.2503003    4.2503003    4.2503003   -10200.864    -16890.47     -47715.9    34003.778   -3652.8259    12735.518   -478.87367    76.781897 
   88200    1181.7719   -160.85814    1.0692921   -159.78885   -18226.738    4.2525701    4.2525701    4.2525701   -18226.738   -47345.933   -22507.446    15173.164    -9633.734    774.26462    706.37041    76.904978 
   88300     1741.587   -161.36583    1.5758245   -159.79001   -3149.7607      4.24722      4.24722      4.24722   -3149.7607    28401.474   -18077.459   -19773.297   -6114.1417    3644.9805   -2344.3387    76.615085 
   88400    1334.1243   -161.00072    1.2071437   -159.79358    25421.412    4.2384864    4.2384864    4.2384864    25421.412    87461.142   -8813.7247    -2383.183    3146.8361   -985.68248    7972.6997     76.14342 
   88500    624.78955   -160.36164   0.56532271   -159.79632    10138.341    4.2482267    4.2482267    4.2482267    10138.341    17558.041   -17340.614    30197.596     5762.653    -9052.225    7534.5572    76.669576 
   88600      1108.79   -160.79609    1.0032565   -159.79283   -3541.0611    4.2567314    4.2567314    4.2567314   -3541.0611   -30193.508   -11899.198    31469.522   -2129.3693    5888.2051   -329.91561    77.130959 
   88700    1845.0453   -161.45541    1.6694358   -159.78598    1249.6567    4.2508617    4.2508617    4.2508617    1249.6567    14479.198   -19653.766    8923.5379   -1078.4025   -733.93881   -778.20197    76.812328 
   88800    1249.5465   -160.91723    1.1306159   -159.78661   -7687.6868    4.2477373    4.2477373    4.2477373   -7687.6868   -14685.674   -5416.1147   -2961.2713   -7553.5881   -151.79885   -3581.4187    76.643082 
   88900    871.11864   -160.58143   0.78820645   -159.79322    -9435.808    4.2513371    4.2513371    4.2513371    -9435.808   -67708.471    40814.219   -1413.1725   -138.67288    4130.9504   -12.607631    76.838103 
   89000    1688.1082   -161.32288    1.5274358   -159.79544     1483.045    4.2511279    4.2511279    4.2511279     1483.045   -11126.903    37367.682   -21791.644    14000.074   -12187.329   -3421.3496    76.826758 
   89100    1884.8879   -161.50142    1.7054862   -159.79594    6573.3237    4.2481035    4.2481035    4.2481035    6573.3237    57195.967   -9575.4372   -27900.559    8967.0813    8076.0876    -5149.786    76.662904 
   89200    931.73842   -160.63731   0.84305651   -159.79426    -18438.88    4.2557751    4.2557751    4.2557751    -18438.88   -5988.1856     -25522.5   -23805.956    13611.704   -1275.6656   -9345.5706     77.07899 
   89300    983.11693    -160.6827   0.88954486   -159.79315   -1844.0764    4.2545391    4.2545391    4.2545391   -1844.0764    14996.176   -9407.8956   -11120.509    292.31696    4659.1183    3196.7084     77.01185 
   89400    1911.6518   -161.52303    1.7297027   -159.79332    18216.431     4.246284     4.246284     4.246284    18216.431    90344.653   -11357.335   -24338.027   -6752.9718     12010.59    9411.5468     76.56444 
   89500    1402.5252   -161.06462    1.2690343   -159.79558    14508.962    4.2463048    4.2463048    4.2463048    14508.962      72523.7     -8353.15   -20643.664   -10464.963   -7683.2208    2405.6097    76.565566 
   89600    769.42401   -160.49277   0.69619101   -159.79658   -17554.763    4.2564545    4.2564545    4.2564545   -17554.763   -34732.368   -5494.6693   -12437.251   -2086.2354   -4746.2994    1094.3502    77.115911 
   89700    1692.1731   -161.32557    1.5311138   -159.79445   -11603.954    4.2567838    4.2567838    4.2567838   -11603.954   -14419.011   -10158.306   -10234.545    12016.762    -110.8215    908.14681    77.133808 
   89800    1904.1412   -161.51248     1.722907   -159.78957    10148.953     4.246258     4.246258     4.246258    10148.953    6576.0309    3087.4726    20783.356    7006.4856   -5735.5557    12404.219    76.563034 
   89900    853.29414   -160.56115   0.77207847   -159.78907   -5548.5065    4.2445931    4.2445931    4.2445931   -5548.5065   -66097.397    18071.418    31380.459   -5345.6911    4749.8267    11538.396    76.473013 
   90000    1006.8666   -160.70412   0.91103406   -159.79309   -10000.235    4.2502279    4.2502279    4.2502279   -10000.235    -46267.46    6072.4207    10194.336     -11936.8    211.70479    447.36366    76.777976 
   90100    1915.4205   -161.52725    1.7331127   -159.79414    -714.6778    4.2523171    4.2523171    4.2523171    -714.6778    40570.115   -17154.546   -25559.603   -14490.366    -2700.241   -1306.0817    76.891253 
   90200      1035.57    -160.7315   0.93700554    -159.7945    18498.656     4.249703     4.249703     4.249703    18498.656    32955.137   -3295.8868    25836.719   -610.42792   -8793.9683   -8353.0973    76.749532 
   90300    458.12149   -160.20458   0.41451795   -159.79006    6363.9219    4.2526463    4.2526463    4.2526463    6363.9219   -24309.505     12302.26    31099.012   -309.08063     -17521.3     2677.538     76.90911 
   90400    1570.4293    -161.2106    1.4209574   -159.78964    7900.2502    4.2526847    4.2526847    4.2526847    7900.2502    34767.731    6976.3232   -18043.304   -945.37935   -219.53233    1663.1081    76.911195 
   90500     1799.352   -161.41531    1.6280915   -159.78721    155.85485    4.2474338    4.2474338    4.2474338    155.85485    30822.045   -17796.995   -12557.486   -6524.3647    77.012625    -8800.828    76.626654 
   90600    862.80709   -160.56626   0.78068599   -159.78557   -13955.057    4.2446807    4.2446807    4.2446807   -13955.057   -66368.125   -14189.564    38692.516   -4952.6773   -3590.6214     3804.936    76.477747 
   90700    1140.2654   -160.82376    1.0317361   -159.79202   -8865.1245    4.2508276    4.2508276    4.2508276   -8865.1245   -49391.033   -14257.971     37053.63   -2310.7595   -8296.4315   -2756.4331     76.81048 
   90800    1640.6028    -161.2791    1.4844519   -159.79465    14826.611    4.2542754    4.2542754    4.2542754    14826.611    23126.247     -23110.3    44463.886     10202.92   -22098.691    6027.0941    76.997529 
   90900    778.71137   -160.49692   0.70459441   -159.79233    14286.076    4.2501143    4.2501143    4.2501143    14286.076   -26816.947   -12344.154    82019.328    16698.652    -11114.64    4297.7448    76.771816 
   91000    795.68222   -160.50945   0.71994999    -159.7895   -12399.106    4.2500728    4.2500728    4.2500728   -12399.106   -64991.073   -7745.6877    35539.444    1745.2854    2281.6822   -3945.2959    76.769571 
   91100    1936.7284   -161.54074    1.7523926   -159.78835   -12919.117    4.2518704    4.2518704    4.2518704   -12919.117     130.6862    -7065.925   -31822.114   -5446.9602    6544.1836     1332.285    76.867022 
   91200    1454.1633   -161.10157    1.3157575   -159.78582    -1969.185    4.2494263    4.2494263    4.2494263    -1969.185   -9472.4678    7583.9407   -4019.0279    9514.4379    8600.2116    7356.6856    76.734543 
   91300    693.26998   -160.41345   0.62728525   -159.78617   -7324.3058    4.2463469    4.2463469    4.2463469   -7324.3058   -54106.602    5159.6145     26974.07      5711.49    3293.2189    15450.806    76.567844 
   91400    1440.8091   -161.09559    1.3036743   -159.79191    2554.6962    4.2485499    4.2485499    4.2485499    2554.6962    7643.9144   -12396.016     12416.19    8539.6112   -4720.1954    15115.283    76.687075 
   91500     1763.366   -161.38886    1.5955306   -159.79333    4049.0644    4.2531045    4.2531045    4.2531045    4049.0644    12252.319   -2305.8374    2200.7112   -9253.0424     10822.74    -473.3915    76.933975 
   91600     1101.179   -160.78097   0.99636993    -159.7846   -20272.923    4.2522399    4.2522399    4.2522399   -20272.923   -77401.569    4435.3112    12147.488   -11632.907    3408.6484   -2019.0987    76.887065 
   91700    1155.7251   -160.83094    1.0457244   -159.78522   -5487.7926    4.2453764    4.2453764    4.2453764   -5487.7926   -36166.018    27862.606   -8159.9655   -11508.703    7329.7688    -4805.345    76.515355 
   91800    1687.1112   -161.31966    1.5265336   -159.79312    16531.735    4.2441218    4.2441218    4.2441218    16531.735    43953.727    57315.869    -51674.39   -1275.5537    3944.8101    1368.3702    76.447538 
   91900    1201.1199   -160.88106    1.0867985   -159.79426    759.47864    4.2529359    4.2529359    4.2529359    759.47864   -30519.161    52056.009   -19258.411     13939.81   -3159.3901    10771.314    76.924822 
   92000    738.00896   -160.45924   0.66776602   -159.79147   -2545.3181    4.2501105    4.2501105    4.2501105   -2545.3181   -63089.437    39191.061    16262.422    7308.1213    7984.1473    1494.7745    76.771615 
   92100    1561.9416   -161.20133    1.4132776   -159.78806   -11299.133    4.2471583    4.2471583    4.2471583   -11299.133   -3388.6594   -3342.5447   -27166.194    15901.054    12094.647   -2710.6451    76.611744 
   92200    1468.7999    -161.1204     1.329001    -159.7914     -8720.27    4.2479347    4.2479347    4.2479347     -8720.27    6616.2153   -3326.6565   -29450.369    16354.271    494.70596   -7311.9073    76.653768 
   92300    682.47776   -160.40673   0.61752022   -159.78921    2561.4832    4.2455951    4.2455951    4.2455951    2561.4832   -43332.745     16755.78    34261.415    20858.372   -6422.3309    5354.1004     76.52718 
   92400     1029.442   -160.72227    0.9314608   -159.79081     17907.24    4.2446512    4.2446512    4.2446512     17907.24    18423.471    14300.165    20998.085    25046.076   -7239.0769   -481.91747    76.476152 
   92500    1696.9354   -161.32618    1.5354228   -159.79076    3686.2496    4.2503578    4.2503578    4.2503578    3686.2496    43852.229    10035.195   -42828.675    19727.471   -164.07453   -3857.6971    76.785018 
   92600    1353.1915   -161.00972    1.2243961   -159.78532   -20164.169    4.2507976    4.2507976    4.2507976   -20164.169   -48749.518    9070.9074   -20813.898    9691.8892    7183.7161   -1893.0073    76.808855 
   92700    1225.3738   -160.89278     1.108744   -159.78404   -17811.082    4.2473311    4.2473311    4.2473311   -17811.082   -69065.896   -15747.341     31379.99   -2672.2257    7894.2798   -15008.142    76.621095 
   92800    1810.3863   -161.42962    1.6380756   -159.79154    15391.882    4.2435448    4.2435448    4.2435448    15391.882    34669.096   -27739.881    39246.432   -4048.1655   -12012.871    -2615.328    76.416365 
   92900    1450.2192   -161.10844    1.3121888   -159.79625    14023.392    4.2492503    4.2492503    4.2492503    14023.392    13653.244   -14914.983    43331.916   -4965.5998   -8679.0384    1207.6503    76.725008 
   93000    827.64041   -160.54139   0.74886643   -159.79252   -17652.182    4.2556514    4.2556514    4.2556514   -17652.182   -89038.866   -9336.4186    45418.738   -4891.8339   -8450.6362     2417.414    77.072265 
   93100    1422.9212   -161.07746     1.287489   -159.78997    -10210.79     4.253092     4.253092     4.253092    -10210.79   -35498.973   -26914.889    31781.492   -6648.8438   -9126.7254    8197.4161    76.933296 
   93200    1795.8145   -161.41483    1.6248907   -159.78994   -2672.3997    4.2467451    4.2467451    4.2467451   -2672.3997    17393.289   -22659.146   -2751.3421   -7246.9615    13018.883   -4713.5829    76.589387 
   93300    872.48596   -160.58074   0.78944363    -159.7913    1328.2489    4.2412013    4.2412013    4.2412013    1328.2489   -23919.647    19461.607    8442.7865   -8291.3362    -746.1518    -445.2641    76.289831 
   93400    603.43582   -160.34403   0.54600141   -159.79802    6144.0922     4.247574     4.247574     4.247574    6144.0922   -14437.394    8328.5672    24541.103   -2292.2898    3540.9893    -456.1715    76.634243 
   93500    1344.4134   -161.01793    1.2164535   -159.80147    13951.159    4.2561917    4.2561917    4.2561917    13951.159    61051.223    -24060.31    4862.5652    1959.2496   -9852.0771    4542.5861    77.101627 
   93600    1320.1661   -160.99136     1.194514   -159.79684    6341.7665    4.2532964    4.2532964    4.2532964    6341.7665    5060.2851    8724.4346    5240.5797   -5473.6326    -12871.98    10922.519     76.94439 
   93700    871.43417   -160.58088   0.78849195   -159.79239   -10724.044    4.2448885    4.2448885    4.2448885   -10724.044   -68380.095    17742.525    18465.437   -10066.468    947.90171   -1456.2202     76.48898 
   93800    1481.6645   -161.13407    1.3406412   -159.79343    -20341.08    4.2459644    4.2459644    4.2459644    -20341.08   -20724.487   -34331.268   -5967.4866   -15292.772    1143.0093    -905.1818    76.547151 
   93900    1971.5888   -161.57718     1.783935   -159.79325   -21862.368    4.2536344    4.2536344    4.2536344   -21862.368    800.84996   -40007.057   -26380.897   -5884.8453     9632.687   -248.45467    76.962732 
   94000    1393.5252   -161.04871    1.2608909   -159.78781   -18619.338    4.2548077    4.2548077    4.2548077   -18619.338   -51091.947   -2368.9452   -2397.1223    3838.1269   -8746.8744    1906.9689    77.026439 
   94100    1140.7043   -160.81623    1.0321333   -159.78409   -16379.985    4.2522477    4.2522477    4.2522477   -16379.985   -16684.726   -27871.784   -4583.4437    13985.349   -9953.9861    2559.2802    76.887488 
   94200    1522.1731   -161.16341    1.3772942   -159.78612   -878.74241    4.2494325    4.2494325    4.2494325   -878.74241    67574.514   -47915.939   -22294.802    15855.767   -6630.3396    -5881.296     76.73488 
   94300    1314.5051   -160.98508    1.1893919   -159.79568    21831.361    4.2458484    4.2458484    4.2458484    21831.361    57711.071    15078.985   -7295.9733    7490.8254    6749.4035    4087.3482    76.540882 
   94400    638.23208   -160.37747    0.5774858   -159.79999    21286.007    4.2514267    4.2514267    4.2514267    21286.007    17347.768    34479.098    12031.156    927.61385    14810.274    107.38442    76.842958 
   94500    736.11612    -160.4639   0.66605334   -159.79784    15572.123    4.2567487    4.2567487    4.2567487    15572.123    55495.102   -13894.177    5115.4442   -5129.0581   -1255.6712    1312.0008    77.131903 
   94600    1484.7407   -161.13523    1.3434246   -159.79181    8584.1785    4.2532125    4.2532125    4.2532125    8584.1785    52679.629   -9937.6552   -16989.439   -4354.1929   -4424.8944   -4384.5114    76.939831 
   94700    1447.7797   -161.09799    1.3099815     -159.788    4436.9322     4.246547     4.246547     4.246547    4436.9322    -12181.21    31333.142   -5841.1355    5107.3985   -8967.0941   -13582.683     76.57867 
   94800    1078.1385   -160.76562    0.9755224    -159.7901   -11868.031    4.2473575    4.2473575    4.2473575   -11868.031   -31265.684   -25437.152    21098.744    5168.1969   -7704.1254    3718.5935    76.622522 
   94900    1558.7826   -161.20092    1.4104193    -159.7905   -24325.477    4.2522063    4.2522063    4.2522063   -24325.477   -6151.5038   -67253.868    428.94099    3929.8907    6124.6169    297.33605    76.885238 
   95000    2008.1526   -161.60549    1.8170187   -159.78847   -19805.012    4.2513659    4.2513659    4.2513659   -19805.012    -6375.478   -11676.276   -41363.283    5404.3715    700.10246     10685.61    76.839663 
   95100    1141.5487   -160.82216    1.0328972   -159.78926   -11503.457    4.2508585    4.2508585    4.2508585   -11503.457    4780.7943   -19621.671   -19669.496   -8957.9918     3191.973    9286.5284    76.812157 
   95200    583.33978   -160.31622   0.52781809    -159.7884    2985.1367    4.2488673    4.2488673    4.2488673    2985.1367    53885.278   -78905.033    33975.165   -15351.719   -7956.2115   -13.408552    76.704264 
   95300    1174.0273   -160.85662    1.0622846   -159.79433     27679.74    4.2452608    4.2452608    4.2452608     27679.74    91373.287   -28184.997    19850.929    -12712.82    -10706.48    7431.7562    76.509106 
   95400     1284.821   -160.96373     1.162533    -159.8012    25683.648    4.2505401    4.2505401    4.2505401    25683.648    68750.446    16011.988   -7711.4904    -7650.237   -27.495726    641.57823    76.794894 
   95500    653.43746   -160.38798   0.59124395   -159.79674   -4695.7285    4.2572975    4.2572975    4.2572975   -4695.7285    30216.792   -45461.578    1157.5997    -1119.488   -2246.8877     6350.823    77.161739 
   95600    1171.9364    -160.8503    1.0603927    -159.7899   -6827.0485    4.2502755    4.2502755    4.2502755   -6827.0485    5606.2146   -45740.764    19653.404   -3790.4112    10983.464   -3843.3783    76.780555 
   95700    2045.3889   -161.63892    1.8507109   -159.78821    5016.5555    4.2420283    4.2420283    4.2420283    5016.5555    -4707.501    7001.4331    12755.734    -5509.473    918.22993   -4538.5051    76.334468 
   95800     1494.459   -161.14405     1.352218   -159.79183   -12939.344    4.2491614    4.2491614    4.2491614   -12939.344   -24444.749   -32506.731    18133.449   -2217.1183     2261.502    269.82092    76.720192 
   95900    784.49258   -160.50204   0.70982538   -159.79222   -4009.0308    4.2522595    4.2522595    4.2522595   -4009.0308   -6238.1017   -74383.586    68594.595    6622.7054   -9442.1752    1028.5332    76.888124 
   96000    1473.9785   -161.12728    1.3336867   -159.79359    18603.018    4.2511855    4.2511855    4.2511855    18603.018    18961.068   -20797.001    57644.986    4974.8627   -15556.749    2445.4279    76.829883 
   96100    1747.9577   -161.37351    1.5815889   -159.79192    1357.7274    4.2545218    4.2545218    4.2545218    1357.7274   -1483.0781   -19901.949    25458.209    3963.7918   -1004.2919   -10516.918    77.010912 
   96200    924.14939   -160.62388   0.83618979   -159.78769   -26351.023    4.2551596    4.2551596    4.2551596   -26351.023   -28720.924    -73939.76    23607.614    3502.6582    2013.3377   -8299.0309    77.045553 
   96300    1252.3903   -160.92275    1.1331891   -159.78956   -5828.1169     4.249397     4.249397     4.249397   -5828.1169    -13830.96   -17345.796    13692.406    8433.2646    11408.948   -4101.2516    76.732956 
   96400    2013.6422   -161.61577    1.8219858   -159.79378    8565.3461    4.2475804    4.2475804    4.2475804    8565.3461     23485.51    18407.705   -16197.177    15465.493    5277.4966    5627.1168    76.634585 
   96500    1233.6161   -160.90716    1.1162017   -159.79096   -19765.927    4.2560006    4.2560006    4.2560006   -19765.927   -343.70697   -41566.421   -17387.653   -5269.6797   -5564.9247    13608.228    77.091241 
   96600     1040.776    -160.7278   0.94171601   -159.78608   -29336.395    4.2585101    4.2585101    4.2585101   -29336.395   -50089.224   -28146.576   -9773.3853   -5960.1265    -11010.17       3250.1    77.227693 
   96700    1820.3353   -161.43764    1.6470776   -159.79057    13974.868    4.2536852    4.2536852    4.2536852    13974.868   -22349.079    71056.246   -6782.5625    12205.098   -1555.7689   -6307.5229    76.965489 
   96800    1297.1935   -160.96541    1.1737279   -159.79168    20279.694    4.2518819    4.2518819    4.2518819    20279.694    4255.0276    48502.659    8081.3945    356.33239    1114.9162   -15451.297    76.867644 
   96900    768.11563   -160.48105   0.69500716   -159.78604   -18945.536    4.2541898    4.2541898    4.2541898   -18945.536   -44389.931   -36244.268    23797.592   -10058.712     -400.921   -8378.7462    76.992885 
   97000    1653.5276   -161.28192    1.4961465   -159.78577    -10896.66    4.2542838    4.2542838    4.2542838    -10896.66   -30157.046    2941.9099   -5474.8448   -12639.846   -3467.5852    7513.0325    76.997988 
   97100    1891.7967   -161.49894    1.7117374    -159.7872   -2210.5846    4.2581962    4.2581962    4.2581962   -2210.5846    30220.268   -2240.7585   -34611.264   -16433.591   -2793.5709    6190.6845    77.210616 
   97200    759.80989   -160.47157   0.68749196   -159.78408   -13519.462    4.2554187    4.2554187    4.2554187   -13519.462    36485.098   -76384.344   -659.14045    4925.5257    14993.441   -6757.3574    77.059625 
   97300    890.98825   -160.59229   0.80618489    -159.7861    3643.1752    4.2458501    4.2458501    4.2458501    3643.1752    6102.3005   -21327.297    26154.522    -409.1544    4652.5008   -8647.4477    76.540969 
   97400     1836.759   -161.45213    1.6619382   -159.79019    5755.2067    4.2494574    4.2494574    4.2494574    5755.2067   -12089.592    46943.338   -17588.126    1372.6188    646.20684   -16962.891    76.736226 
   97500    1224.6465   -160.89714    1.1080859   -159.78905   -17618.619    4.2607788    4.2607788    4.2607788   -17618.619   -14032.493   -19213.219   -19610.144   -4228.5744   -7800.7808    2966.6691    77.351183 
   97600    801.07658    -160.5081   0.72483092   -159.78327   -17875.569    4.2621138    4.2621138    4.2621138   -17875.569   -24123.244   -67790.672    38287.208   -11685.326   -3146.8263     13796.69    77.423914 
   97700    1548.1153   -161.18572    1.4007672   -159.78496    20874.006    4.2537328    4.2537328    4.2537328    20874.006    8088.8878   -7998.7364    62531.866   -9486.7698    14933.306   -4765.8972    76.968071 
   97800    1248.5873   -160.91725    1.1297481   -159.78751    20184.246    4.2469915    4.2469915    4.2469915    20184.246    63243.656   -36823.262    34132.345   -187.63358    13578.602   -7367.8199    76.602719 
   97900    770.21184   -160.48248   0.69690386   -159.78558   -15711.399    4.2489372    4.2489372    4.2489372   -15711.399    12803.987   -73291.415    13353.231    487.67904    637.64239    1871.7206    76.708047 
   98000    1537.1157    -161.1776    1.3908146   -159.78678    -21835.34    4.2552397    4.2552397    4.2552397    -21835.34   -46459.431   -20740.503    1693.9122   -5300.9676   -8404.9407    5268.0324      77.0499 
   98100    1772.6137   -161.39031    1.6038981   -159.78641   -9660.3113    4.2595378    4.2595378    4.2595378   -9660.3113    6708.8063   -20708.176   -14981.564    2154.0435   -8133.8624    13545.843    77.283616 
   98200    750.23995   -160.46141   0.67883288   -159.78258    10261.172    4.2529311    4.2529311    4.2529311    10261.172    80359.969   -63116.012     13539.56    11175.859    7645.8508   -1736.0663    76.924565 
   98300    648.60001   -160.37162   0.58686692   -159.78475     18104.22    4.2464109    4.2464109    4.2464109     18104.22    49018.169   -48408.842    53703.334    8030.5994    15959.736   -1617.8874    76.571307 
   98400    1467.3145   -161.11847     1.327657   -159.79081    12359.328    4.2476146    4.2476146    4.2476146    12359.328    9512.3306   -11624.335    39189.989    2770.4411    6768.9421    9416.5857    76.636439 
   98500    1456.9055   -161.10696    1.3182387   -159.78872   -17031.312    4.2532916    4.2532916    4.2532916   -17031.312    17395.947   -54642.986   -13846.898     -2216.48   -1343.5745    11340.779    76.944127 
   98600    1236.2742   -160.90344    1.1186069   -159.78484   -36936.413    4.2578522    4.2578522    4.2578522   -36936.413   -19271.467   -66352.414   -25185.357    3891.8064   -12069.392   -2477.1102    77.191903 
   98700    1639.5397    -161.2656      1.48349   -159.78211   -16547.183    4.2569632    4.2569632    4.2569632   -16547.183   -44046.103   -17917.961    12322.515   -1220.2836    -8222.453    -4955.085     77.14356 
   98800    1474.0226   -161.11765    1.3337267   -159.78393    11923.173    4.2518604    4.2518604    4.2518604    11923.173     13423.49   -43939.568    66285.598   -8450.1619    10788.037     829.9335    76.866479 
   98900     821.7692   -160.53432   0.74355404   -159.79077    22303.624    4.2491682    4.2491682    4.2491682    22303.624    61620.294   -71659.889    76950.467   -3199.4802    11995.264   -4971.5627    76.720562 
   99000    896.58366    -160.6108   0.81124774   -159.79955    15369.174    4.2564538    4.2564538    4.2564538    15369.174   -5591.2622   -33857.207     85555.99   -1405.5889    15984.644   -7966.9176    77.115872 
   99100    1510.9771   -161.16498    1.3671638   -159.79782    898.01735    4.2574477    4.2574477    4.2574477    898.01735   -49210.662   -28381.758    80286.472     2589.344   -2121.1631   -9982.0038    77.169906 
   99200    1565.7546   -161.20474    1.4167276   -159.78801   -22654.189    4.2518364    4.2518364    4.2518364   -22654.189    2493.8711   -80722.578    10266.141   -9267.3323   -11961.203    3277.5032    76.865177 
   99300    1465.2374   -161.11431    1.3257776   -159.78853   -35993.694    4.2552853    4.2552853    4.2552853   -35993.694   -18793.136   -36857.023   -52330.922    4153.3012    -10137.74    8766.7352    77.052377 
   99400    1552.3524   -161.19612    1.4046011   -159.79151   -26173.698    4.2609342    4.2609342    4.2609342   -26173.698   -55384.674   -28251.841    5115.4221     7313.652   -2545.2846   -2025.8883    77.359648 
   99500    1290.6602   -160.96078    1.1678165   -159.79297     14179.78    4.2535082    4.2535082    4.2535082     14179.78      20208.9   -63734.561    86065.001    4545.0522    8847.5042    2359.8351    76.955883 
   99600    884.10786   -160.59712   0.79995937   -159.79716    31104.608    4.2499229    4.2499229    4.2499229    31104.608     48996.94   -36897.508    81214.393   -6051.8394    16726.896     1097.395    76.761448 
   99700    952.77864   -160.66068   0.86209413   -159.79858    15404.709      4.25834      4.25834      4.25834    15404.709    -14367.29   -3086.3851    63667.802    -1184.349    9383.2073   -3250.3268    77.218434 
   99800    1605.5534   -161.23887    1.4527384   -159.78613   -14763.676     4.261118     4.261118     4.261118   -14763.676   -42284.459   -43648.225    41641.657    5047.0626   -3151.8199   -8586.2183    77.369657 
   99900    1733.9093   -161.34794    1.5688776   -159.77906     -22688.3    4.2504047    4.2504047    4.2504047     -22688.3    3408.4058   -51969.725   -19503.582   -7047.0805   -9761.6855    906.48791    76.787558 
  100000    1474.0222   -161.11428    1.3337263   -159.78055   -22731.555    4.2480133    4.2480133    4.2480133   -22731.555   -15788.647   -2001.5898   -50404.428   -1863.3774   -11745.249    2921.0465    76.658022 
Loop time of 53.4463 on 1 procs for 100000 steps with 8 atoms

Pair  time (%) = 18.4911 (34.5975)
Kspce time (%) = 13.5101 (25.2779)
Neigh time (%) = 0.0244956 (0.0458322)
Comm  time (%) = 2.7417 (5.12983)
Outpt time (%) = 0.185966 (0.347948)
Other time (%) = 18.493 (34.601)

Nlocal:    8 ave 8 max 8 min
Histogram: 1 0 0 0 0 0 0 0 0 0
Nghost:    2189 ave 2189 max 2189 min
Histogram: 1 0 0 0 0 0 0 0 0 0
Neighs:    2363 ave 2363 max 2363 min
Histogram: 1 0 0 0 0 0 0 0 0 0

Total # of neighbors = 2363
Ave neighs/atom = 295.375
Neighbor list builds = 117
Dangerous builds = 0
unfix 20
unfix 21
print "seeds:2889908"
seeds:2889908
