LAMMPS (10 Feb 2015)
# ---- initialize simulations
clear
units metal
dimension 3
boundary p p p
atom_style charge
atom_modify map array
# ---- create atoms
read_data /Users/eugeneragasa/pyflamestk_git/pypospack/tests/tests_integration/workflow/WorkflowLammpsThermalExpansion/param_5262/MgO_NaCl_unit.npt.T1600/lammps.structure
  triclinic box = (0 0 0) to (4.2565 4.2565 4.2565) with tilt (0 0 0)
  1 by 1 by 1 MPI processor grid
  reading atoms ...
  8 atoms
# ---- define interatomic potential
include potential.mod
mass 1 24.305
mass 2 15.999

group Mg type 1
4 atoms in group Mg
group O type 2
4 atoms in group O

set group Mg charge 1.695400086
  4 settings made for charge
set group O charge -1.695400086
  4 settings made for charge

variable R_cut equal 10.0

pair_style buck/coul/long ${R_cut}
pair_style buck/coul/long 10
pair_coeff 1 1 0.0 0.5 0.0 ${R_cut}
pair_coeff 1 1 0.0 0.5 0.0 10
pair_coeff 1 2 1303.37543516 0.290482854228 0.0 ${R_cut}
pair_coeff 1 2 1303.37543516 0.290482854228 0.0 10
pair_coeff 2 2 9936.88636401 0.22003654812 26.9596347598 ${R_cut}
pair_coeff 2 2 9936.88636401 0.22003654812 26.9596347598 10

kspace_style pppm 1.0e-5

neighbor 1.0 bin
neigh_modify every 1 delay 0 check yes
# ---- define settings
compute eng all pe/atom
compute eatoms all reduce sum c_eng
# ---- run minimization
reset_timestep 0
fix 1 all box/relax iso 0.0 vmax 0.001
thermo 10
thermo_style custom step pe lx ly lz xy xz yz press pxx pyy pzz pxy pxz pyz c_eatoms
min_style cg
minimize 1e-25 1e-25 5000 10000
PPPM initialization ...
  G vector (1/distance) = 0.353118
  grid = 8 8 8
  stencil order = 5
  estimated absolute RMS force accuracy = 4.08652e-05
  estimated relative force accuracy = 2.83793e-06
  using double precision FFTs
  3d grid and FFT values/proc = 3375 512
Neighbor list info ...
  1 neighbor list requests
  update every 1 steps, delay 0 steps, check yes
  master list distance cutoff = 11
Memory usage per processor = 4.06549 Mbytes
Step PotEng Lx Ly Lz Xy Xz Yz Press Pxx Pyy Pzz Pxy Pxz Pyz eatoms 
       0   -115.99413       4.2565       4.2565       4.2565            0            0            0    97842.713    97842.713    97842.713    97842.713 -3.9648682e-11 -1.4130262e-10 -2.4072873e-11   -115.99413 
      10   -116.09248     4.299065     4.299065     4.299065            0            0            0    39915.456    39915.456    39915.456    39915.456 -6.718901e-11 1.6759609e-10 -1.4910019e-10   -116.09248 
      20   -116.11494    4.3319944    4.3319944    4.3319944            0            0            0    7.4200549    7.4200549    7.4200549    7.4200549 -9.9303313e-12 -1.50322e-10 -3.7717238e-11   -116.11494 
      22   -116.11494    4.3320008    4.3320008    4.3320008            0            0            0  0.022500426  0.022500427  0.022500425  0.022500427 -1.5011423e-10 -9.5142159e-11 1.463096e-10   -116.11494 
Loop time of 0.0187101 on 1 procs for 22 steps with 8 atoms

Minimization stats:
  Stopping criterion = linesearch alpha is zero
  Energy initial, next-to-last, final = 
        -115.994127563     -116.114943198     -116.114943198
  Force two-norm initial, final = 14.1285 3.9258e-05
  Force max component initial, final = 14.1285 8.20487e-06
  Final line search alpha, max atom move = 0.5 4.10243e-06
  Iterations, force evaluations = 22 41

Pair  time (%) = 0.00504494 (26.9637)
Kspce time (%) = 0.00352097 (18.8185)
Neigh time (%) = 0 (0)
Comm  time (%) = 0.000654936 (3.50043)
Outpt time (%) = 5.62668e-05 (0.300729)
Other time (%) = 0.00943303 (50.4167)

Nlocal:    8 ave 8 max 8 min
Histogram: 1 0 0 0 0 0 0 0 0 0
Nghost:    2189 ave 2189 max 2189 min
Histogram: 1 0 0 0 0 0 0 0 0 0
Neighs:    2344 ave 2344 max 2344 min
Histogram: 1 0 0 0 0 0 0 0 0 0

Total # of neighbors = 2344
Ave neighs/atom = 293
Neighbor list builds = 0
Dangerous builds = 0
unfix 1
# ---- define output variables ----
variable natoms equal "count(all)"
variable tot_energy equal "c_eatoms"
variable length_x equal "lx"
variable length_y equal "ly"
variable length_z equal "lz"
variable tilt_xy equal "xy"
variable tilt_xz equal "xz"
variable tilt_yz equal "yz"
variable tot_press equal "press"
variable press_xx equal "pxx"
variable press_yy equal "pyy"
variable press_zz equal "pzz"
variable press_xy equal "pxy"
variable press_xz equal "pxz"
variable press_yz equal "pyz"

# ---- output ----
print "pypospack:output_section:begin"
pypospack:output_section:begin
print "tot_energy = ${tot_energy}"
tot_energy = -116.114943197766
print "num_atoms = ${natoms}"
num_atoms = 8
print "xx = ${length_x}"
xx = 4.33200077919323
print "yy = ${length_y}"
yy = 4.33200077919323
print "zz = ${length_z}"
zz = 4.33200077919323
print "xy = ${tilt_xy}"
xy = 0
print "xz = ${tilt_xz}"
xz = 0
print "yz = ${tilt_yz}"
yz = 0
print "tot_press = ${tot_press}"
tot_press = 0.0225004262556315
print "pxx = ${press_xx}"
pxx = 0.0225004265502418
print "pyy = ${press_yy}"
pyy = 0.0225004253807009
print "pzz = ${press_zz}"
pzz = 0.0225004268359518
print "pxy = ${press_xy}"
pxy = -1.50114228566484e-10
print "pxz = ${press_xz}"
pxz = -9.5142158828828e-11
print "pyz = ${press_yz}"
pyz = 1.46309599907844e-10
print "pypospack:output_section:done"
pypospack:output_section:done
print "pypospack:lammps_sim:done"
pypospack:lammps_sim:done
#------------------------------------------------------------------------------
# RUN THERMOSTAT
# running using an NPT Nose-Hoover style thermostat
#------------------------------------------------------------------------------
variable tempdamp equal 0.1
variable pressdamp equal 1.0
# set initial velocities
velocity all create 1600 4003121 mom yes dist gaussian loop all
# fix for Nose-Hoover style thermostat
fix 20 all npt temp 1600 1600 0.1 aniso 0.0 0.0 1.0 drag 1.0 couple xyz
variable boxx equal lx
variable boxy equal ly
variable boxz equal lz
variable boxp equal press
variable boxt equal temp
# calculate averages every 10000 steps
reset_timestep 0
fix 21 all ave/time 10 10 100 v_boxx v_boxy v_boxz v_boxp v_boxt file lattice.out
thermo_style custom step temp pe ke etotal press lx ly lz press pxx pyy pzz pxy pxz pyz vol
thermo_modify flush yes
thermo 100
run 100000
PPPM initialization ...
  G vector (1/distance) = 0.352343
  grid = 8 8 8
  stencil order = 5
  estimated absolute RMS force accuracy = 4.23631e-05
  estimated relative force accuracy = 2.94196e-06
  using double precision FFTs
  3d grid and FFT values/proc = 3375 512
Memory usage per processor = 3.06549 Mbytes
Step Temp PotEng KinEng TotEng Press Lx Ly Lz Press Pxx Pyy Pzz Pxy Pxz Pyz Volume 
       0         1600   -116.11495    1.4477136   -114.66724    19019.122    4.3320008    4.3320008    4.3320008    19019.122    8395.3493    31233.228    17428.789   -8305.3355    328.53125   -8683.6586    81.295326 
     100     753.7568   -115.18458     0.682015   -114.50256    17171.823    4.3715729    4.3715729    4.3715729    17171.823   -5552.2701    38485.487    18582.254    16076.567    8355.1765    1209.3288    83.543595 
     200    1175.8922   -115.16116     1.063972   -114.09719   -47848.169    4.4237144    4.4237144    4.4237144   -47848.169   -46907.821   -32178.644   -64458.041   -5397.4009    2034.8611    15832.704    86.568771 
     300    1386.8269   -114.99394    1.2548301   -113.73911    -15724.28    4.4180935    4.4180935    4.4180935    -15724.28   -52457.951    9627.9777   -4342.8654    -8127.763    273.07844    9584.9602      86.2392 
     400    1355.9169   -114.68041    1.2268621   -113.45354    27012.826    4.3953762    4.3953762    4.3953762    27012.826    39130.027      45947.2   -4038.7481    16001.722    1679.9799   -10111.097    84.915731 
     500    1172.8452   -114.35315     1.061215   -113.29194    24766.507    4.4093889    4.4093889    4.4093889    24766.507     4591.994    29993.668    39713.859   -14575.822    5451.1874   -2197.8692    85.730472 
     600      1897.08   -114.91565    1.7165179   -113.19913   -36050.798    4.4426433    4.4426433    4.4426433   -36050.798   -242.40389   -73429.746   -34480.244    1718.5854   -6689.6731   -10438.149    87.684806 
     700     767.0261   -113.84796   0.69402133   -113.15394   -1916.8288    4.4471674    4.4471674    4.4471674   -1916.8288   -21989.598    46314.273   -30075.161   -17175.012     8851.859    24169.069    87.952953 
     800    2232.9062   -115.14495    2.0203805   -113.12457   -18793.181    4.4128716    4.4128716    4.4128716   -18793.181   -15023.508   -14661.516    -26694.52    13302.777    16296.524     4039.229    85.933774 
     900    1974.6376   -114.93957    1.7866936   -113.15288    30101.108    4.3952344    4.3952344    4.3952344    30101.108    4697.0277    67365.637    18240.658   -16899.284   -6070.1496    9446.4932    84.907516 
    1000    1224.1227    -114.3218     1.107612   -113.21419    24087.836    4.4178394    4.4178394    4.4178394    24087.836   -11345.444    78618.723    4990.2279   -7255.7722    10463.158   -15384.141    86.224319 
    1100    2110.0802   -115.10765    1.9092449   -113.19841   -30076.299    4.4381464    4.4381464    4.4381464   -30076.299    -29971.05    -2805.375   -57452.473   -420.52586    1217.5381    13593.373    87.418806 
    1200    1257.0434   -114.31805    1.1373992   -113.18065    13043.547    4.4226806    4.4226806    4.4226806    13043.547    10267.859    21926.937     6935.845      1565.39   -11178.589   -16590.909    86.508089 
    1300    1156.9155    -114.2108    1.0468014     -113.164    40982.066      4.40319      4.40319      4.40319    40982.066    19345.302    59853.833    43747.063    3856.8223   -10482.104   -4214.5351    85.369408 
    1400    1818.6715   -114.83173    1.6455721   -113.18615   -16395.875     4.426948     4.426948     4.426948   -16395.875    38094.235   -48675.962   -38605.899   -5006.9815     -1172.93    3971.0159    86.758746 
    1500    1283.5173   -114.31649    1.1613535   -113.15514     17428.67    4.4390919    4.4390919    4.4390919     17428.67    7634.4458     44466.48     185.0838    -23284.26   -2067.6313   -11962.967     87.47469 
    1600    1249.0834   -114.25773    1.1301969   -113.12753    34876.029     4.435972     4.435972     4.435972    34876.029    86652.092    42615.131   -24639.137   -10907.236    3684.2261   -10636.092    87.290379 
    1700    2225.4511   -115.13991    2.0136349   -113.12628   -30201.962    4.4309396    4.4309396    4.4309396   -30201.962   -3869.8847   -46122.857   -40613.143   -19006.093   -1398.8793    7633.0829    86.993635 
    1800    1135.1667   -114.17505    1.0271227   -113.14793     20731.22     4.415865     4.415865     4.415865     20731.22     46228.02   -6355.9934    22321.633    2623.8436   -33468.123   -7399.6935    86.108767 
    1900    2296.6878   -115.24475    2.0780914   -113.16665   -22767.913    4.4146393    4.4146393    4.4146393   -22767.913   -20348.878   -48467.403    512.54275    7766.3794    6707.6091   -373.13423    86.037083 
    2000     1002.108   -114.09998   0.90672837   -113.19325   -6712.0577    4.4397368    4.4397368    4.4397368   -6712.0577   -47699.472    17478.432    10084.867    -14963.71     -32044.1   -5072.8819    87.512816 
    2100    1266.9239   -114.29738    1.1463394   -113.15105   -29028.518    4.4360371    4.4360371    4.4360371   -29028.518   -23976.331    14068.896   -77178.118   -18201.664    -36493.46    1903.4549    87.294225 
    2200    1888.8763   -114.84292     1.709095   -113.13383    21368.116    4.4084024    4.4084024    4.4084024    21368.116    24989.756   -22925.928    62040.519     22021.73    1116.2428    19854.084    85.672945 
    2300    1608.5097   -114.63834    1.4554134   -113.18292    2079.9797    4.4169864    4.4169864    4.4169864    2079.9797    57240.779   -20897.877   -30102.963   -13811.883   -2377.3116   -8096.8728    86.174383 
    2400    1878.3432   -114.89089    1.6995644   -113.19133   -13230.733    4.4210739    4.4210739    4.4210739   -13230.733   -23116.442    20218.964    -36794.72   -6554.2925   -10524.782    6005.1772    86.413842 
    2500    1430.9796   -114.48452    1.2947804   -113.18974    14611.565    4.4336885    4.4336885    4.4336885    14611.565    65309.709    3906.0574    -25381.07    12294.077     2203.149    4364.2476    87.155645 
    2600    1785.0123   -114.76696    1.6151166   -113.15185   -47425.084    4.4443841    4.4443841    4.4443841   -47425.084   -46931.998    -56444.25   -38899.003   -14648.557   -6883.4468   -15955.841    87.787919 
    2700    1171.3603   -114.19146    1.0598714   -113.13159    17380.097    4.4102151    4.4102151    4.4102151    17380.097    30346.318     85544.45   -63750.478    8862.5569   -10876.362   -213.06694     85.77867 
    2800    1236.1548    -114.2892    1.1184989    -113.1707    32539.119    4.3972315    4.3972315    4.3972315    32539.119    52455.409   -43242.783    88404.731   -257.14959    9097.3126   -4204.1945    85.023307 
    2900    1804.5121     -114.826    1.6327605   -113.19324   -13244.713    4.4132696    4.4132696    4.4132696   -13244.713    19928.349   -37330.817   -22331.671    2726.3012    -4613.179   -6896.8759    85.957028 
    3000    1806.3521    -114.8076    1.6344254   -113.17317    17534.418    4.4227794    4.4227794    4.4227794    17534.418    3805.5301    956.60224    47841.122    7824.5766   -22153.997    3321.9333    86.513888 
    3100    1904.7435   -114.88034    1.7234519   -113.15688   -23172.176    4.4398691    4.4398691    4.4398691   -23172.176    6883.1487   -36205.738    -40193.94   -4837.7979    6666.1924    -6028.964    87.520641 
    3200    1333.5654   -114.34861     1.206638   -113.14197   -12214.243    4.4182917    4.4182917    4.4182917   -12214.243   -61126.401   -26122.635    50606.309   -13918.452    14012.059   -13359.651    86.250807 
    3300    1701.8906   -114.67087    1.5399064   -113.13096     20523.84    4.3858841    4.3858841    4.3858841     20523.84   -18255.075    71473.674    8352.9217    4766.5503   -16282.034    10646.434    84.366778 
    3400    1593.3928   -114.63616    1.4417353   -113.19442    12032.597     4.408586     4.408586     4.408586    12032.597   -19325.601     28235.43    27187.962   -9372.2681    12766.462    -3635.832     85.68365 
    3500    1116.9799   -114.20989    1.0106669   -113.19922   -8101.9674    4.4352014    4.4352014    4.4352014   -8101.9674   -40838.357    37829.492   -21297.037   -21315.382   -6678.9575   -13443.069    87.244896 
    3600    1460.5956   -114.48957    1.3215776   -113.16799   -664.60715    4.4222363    4.4222363    4.4222363   -664.60715   -4158.2567    4476.2421   -2311.8068   -5230.0795   -17041.066   -3557.9474    86.482021 
    3700    1977.6014   -114.92171    1.7893753   -113.13234    24201.911    4.3953121    4.3953121    4.3953121    24201.911    13819.356    45024.645    13761.731    -15479.31    6593.0069    13588.014    84.912014 
    3800    1117.4772   -114.17412    1.0111169     -113.163    28513.747     4.398299     4.398299     4.398299    28513.747    34828.777    21630.592    29081.874   -15351.646    5889.5303   -10506.085    85.085245 
    3900     1941.424   -114.92869    1.7566412   -113.17205   -44499.616      4.42103      4.42103      4.42103   -44499.616    -5766.673    -59124.21   -68607.965   -13415.409   -1435.1741   -30177.776     86.41127 
    4000    1832.9662   -114.82145    1.6585063   -113.16294    779.83924    4.4192864    4.4192864    4.4192864    779.83924    58153.593   -23512.464   -32301.612   -8650.6759    3433.1605   -14280.475    86.309071 
    4100    1528.1336    -114.5415    1.3826874   -113.15882    18581.606     4.409262     4.409262     4.409262    18581.606    68747.925    -19181.74    6178.6326   -7405.3986   -8092.0078   -10053.261    85.723072 
    4200    1072.8698   -114.12819   0.97075518   -113.15743    27303.286    4.4196584    4.4196584    4.4196584    27303.286     41938.47    6916.6298     33054.76    -15130.51   -21971.055   -13331.293    86.330868 
    4300    1501.7886   -114.50123    1.3588499   -113.14238   -21883.986    4.4234189    4.4234189    4.4234189   -21883.986   -19421.866    12737.451   -58967.543   -10276.567   -11113.223    8594.1492     86.55142 
    4400     1068.533   -114.10361   0.96683112   -113.13678    14551.265    4.4079909    4.4079909    4.4079909    14551.265    14445.358    35035.567   -5827.1314   -6306.5586   -6046.8454   -28422.251    85.648952 
    4500    1404.8091   -114.41381    1.2711008   -113.14271    7915.9761     4.412791     4.412791     4.412791    7915.9761    49288.266   -15028.011   -10512.327   -11543.577   -4608.3519   -16775.786    85.929062 
    4600    1376.8564   -114.38133    1.2458086   -113.13552   -9863.7123     4.412538     4.412538     4.412538   -9863.7123   -30849.368   -10450.981    11709.212    2800.9912    -15777.08   -5939.2495    85.914285 
    4700    1795.3776    -114.7573    1.6244954   -113.13281   -2304.1977    4.3994672    4.3994672    4.3994672   -2304.1977    27345.528   -16604.871    -17653.25    22023.445   -432.99708   -4743.1862     85.15306 
    4800    1731.6535   -114.71506    1.5668364   -113.14822   -4802.6461    4.4101909    4.4101909    4.4101909   -4802.6461    -15269.23    6633.5994   -5772.3075   -1035.8475   -20163.376    14249.997    85.777261 
    4900    1694.5803   -114.68387    1.5332919   -113.15058   -23770.325    4.4086197    4.4086197    4.4086197   -23770.325   -23641.391    38070.978   -85740.561   -10637.956   -34736.762   -8574.7425    85.685612 
    5000    1806.9366    -114.7913    1.6349542   -113.15634    3796.6252    4.3976324    4.3976324    4.3976324    3796.6252   -11349.372    22424.072    315.17601    2553.1574    -11741.73    -15227.06    85.046565 
    5100    1337.5462   -114.38926    1.2102399   -113.17903    7479.4899    4.4084653    4.4084653    4.4084653    7479.4899    39229.066   -18481.848     1691.252    13886.177    3897.5224    2194.7753     85.67661 
    5200    840.69708   -113.93486   0.76068039   -113.17418    23641.274     4.407238     4.407238     4.407238    23641.274   -40391.328   -12505.048     123820.2    7241.4678    4664.9299    431.45807    85.605077 
    5300     1736.388   -114.74415    1.5711203   -113.17303   -18555.492    4.4047046    4.4047046    4.4047046   -18555.492   -18080.235   -35446.478   -2139.7629    988.46143   -15495.279    3824.6178    85.457533 
    5400    1800.1937   -114.80431    1.6288531   -113.17546   -10617.151    4.4089019    4.4089019    4.4089019   -10617.151   -30572.213   -35182.052    33902.812   -7037.0207    22505.631    6239.2063    85.702067 
    5500    1662.0458   -114.68458     1.503854   -113.18072   -14568.009     4.414928     4.414928     4.414928   -14568.009   -56567.954   -14744.296    27608.224    1723.9942    -6983.753   -1964.7081    86.053965 
    5600    1777.4965   -114.79037    1.6083162   -113.18206   -12334.591    4.4199987    4.4199987    4.4199987   -12334.591    -52552.57   -54646.584    70195.382   -10535.617   -11914.656    1951.4993    86.350814 
    5700    1681.4637   -114.69352    1.5214237    -113.1721    7709.9522    4.4178584    4.4178584    4.4178584    7709.9522   -30085.885   -43016.458    96232.199   -20139.607    20211.708    6139.9542     86.22543 
    5800     1911.522   -114.89692    1.7295853   -113.16733    163.50806    4.4052344    4.4052344    4.4052344    163.50806    7590.6272    6123.0491   -13223.152   -6910.3497   -3332.2587    8771.9493    85.488373 
    5900    1388.5746   -114.44631    1.2564115    -113.1899   -16657.842    4.4131713    4.4131713    4.4131713   -16657.842   -17670.517   -77399.632    45096.624    2041.2144   -17036.313   -2029.1581    85.951279 
    6000     1172.906   -114.24839      1.06127   -113.18712   -7117.3144    4.4247966    4.4247966    4.4247966   -7117.3144    -45816.69   -65054.282    89519.029    8950.4914    21532.501   -3642.9169    86.632317 
    6100    926.30867   -114.00842   0.83814355   -113.17027    27120.076    4.4147268    4.4147268    4.4147268    27120.076   -6643.8724    28462.626    59541.475   -20208.502   -1074.9173    13019.046    86.042199 
    6200    1253.3356   -114.28626    1.1340444   -113.15222    29818.418     4.408661     4.408661     4.408661    29818.418    29745.131    16498.079    43212.044   -28094.797    17314.385   -6305.7346    85.688024 
    6300    1675.5677   -114.67149    1.5160889    -113.1554   -5672.3599    4.4210329    4.4210329    4.4210329   -5672.3599   -5098.9531   -11377.373   -540.75318   -27.213961    25947.838   -12218.146    86.411437 
    6400    2149.1288   -115.07243    1.9445769   -113.12785   -2447.3402    4.4216252    4.4216252    4.4216252   -2447.3402     -2574.23    965.23617   -5733.0268   -1261.3944    3724.7352    25139.717    86.446175 
    6500    1154.9654   -114.17787     1.045037   -113.13283   -8103.4411    4.4274626    4.4274626    4.4274626   -8103.4411    9996.1849     17341.96   -51648.469   -13977.579    10693.999   -16530.248    86.789006 
    6600    1058.2857   -114.09217   0.95755915   -113.13461    -16185.08    4.4158697    4.4158697    4.4158697    -16185.08    32524.741    -48336.83    -32743.15   -10172.992    24940.345   -19993.206    86.109038 
    6700    1658.4693   -114.61929    1.5006179   -113.11867    31823.042    4.3905283    4.3905283    4.3905283    31823.042     1409.879     48400.38    45658.868   -14217.657    8940.9011    23607.287    84.635069 
    6800    1073.7296   -114.15255   0.97153314   -113.18101    11628.952    4.4168077    4.4168077    4.4168077    11628.952   -8269.5255   -6676.1699    49832.551   -10705.812   -2286.8638   -3248.4849    86.163928 
    6900     1773.594   -114.75319    1.6047851   -113.14841   -41032.006    4.4415134    4.4415134    4.4415134   -41032.006    -50140.98   -26683.604   -46271.433   -2436.4632   -1282.8487    10784.861    87.617916 
    7000    1701.3545   -114.64972    1.5394213    -113.1103    13125.366     4.428052     4.428052     4.428052    13125.366    11500.295    48918.173    -21042.37    -3891.979   -9445.5768    24887.077    86.823667 
    7100     1853.174   -114.78883    1.6767908   -113.11203   -4526.7197    4.4075639    4.4075639    4.4075639   -4526.7197   -23252.974   -22763.928    32436.743   -11112.521   -1753.2499    5656.1924     85.62407 
    7200    1788.4111   -114.75453    1.6181919   -113.13634    25211.007    4.3957687    4.3957687    4.3957687    25211.007    27742.497    4389.1379    43501.385   -8843.5327   -12496.029    12066.999    84.938484 
    7300    1503.0702   -114.53179    1.3600095   -113.17178   -15839.903    4.4216494    4.4216494    4.4216494   -15839.903   -19930.919   -62074.824    34486.033   -6742.0674   -7025.0299   -5228.2935    86.447595 
    7400    1203.8138   -114.23612     1.089236   -113.14688   -1231.8687    4.4356998    4.4356998    4.4356998   -1231.8687    3351.4332    5534.4998   -12581.539    512.01463   -7275.6151    12731.309    87.274313 
    7500    1966.7939   -114.90846    1.7795964   -113.12886   -28556.222    4.4170633    4.4170633    4.4170633   -28556.222   -23313.809   -41110.681   -21244.176   -12746.232   -2466.7216   -3268.2985    86.178885 
    7600    1428.5882   -114.42092    1.2926167    -113.1283    26319.423     4.383232     4.383232     4.383232    26319.423    51143.223   -13608.081    41423.128   -4069.4545   -9738.1504      233.082    84.213821 
    7700    1615.8741   -114.64424    1.4620769   -113.18217    17781.203    4.3902636    4.3902636    4.3902636    17781.203   -10924.083      49452.6    14815.091    2988.4572   -5420.0233   -2943.8171    84.619762 
    7800    1723.6041    -114.7503    1.5595532   -113.19075   -30258.262    4.4332709    4.4332709    4.4332709   -30258.262   -59360.049   -10661.863   -20752.872    502.55159   -907.35355   -4412.8303    87.131021 
    7900    1774.5039   -114.74528    1.6056084   -113.13967    7310.7192    4.4273627    4.4273627    4.4273627    7310.7192   -35699.792    61832.169   -4200.2198   -15995.736   -4510.9101   -4234.2423    86.783132 
    8000    1706.6545   -114.66487    1.5442168   -113.12065    19550.658    4.3967014    4.3967014    4.3967014    19550.658   -3264.5452    15887.869    46028.651     6157.373    396.19222   -3292.5633    84.992559 
    8100    1694.1511    -114.7013    1.5329035    -113.1684   -16284.516    4.3973125    4.3973125    4.3973125   -16284.516   -43970.135   -8714.8403    3831.4276    9300.3274     13300.01    -4025.199    85.028008 
    8200    1728.5483   -114.74208    1.5640269   -113.17805    10951.171    4.3929357    4.3929357    4.3929357    10951.171    967.37737    51828.549   -19942.413   -5896.7582   -12187.017   -4298.2369    84.774367 
    8300    1519.8227   -114.57011    1.3751675   -113.19494    3058.9616    4.4011829    4.4011829    4.4011829    3058.9616    4396.6471   -15081.907    19862.145    224.47522     2943.702    7129.4588    85.252724 
    8400    1135.9017   -114.22498    1.0277877   -113.19719   -18997.458    4.4172497    4.4172497    4.4172497   -18997.458   -50858.129    12083.507   -18217.752    7911.2294    -6053.533    -8901.666    86.189794 
    8500    1767.9707   -114.76344     1.599697   -113.16374   -25620.933    4.4018373    4.4018373    4.4018373   -25620.933   -34024.799    23516.575   -66354.575    1230.1101   -23923.207      7520.95    85.290755 
    8600    1463.4866   -114.47871    1.3241934   -113.15452    7854.7894    4.3880275    4.3880275    4.3880275    7854.7894     42287.76    37898.273   -56621.665    158.92108    4112.4598    27527.415    84.490525 
    8700    1761.0391   -114.77179    1.5934252   -113.17836    3714.0223    4.3995864    4.3995864    4.3995864    3714.0223   -3132.8091   -14429.177    28704.053    20170.751   -11416.824   -6955.8144     85.15998 
    8800    1509.0407   -114.54384    1.3654118   -113.17843    2064.1858    4.4186752    4.4186752    4.4186752    2064.1858   -27679.017    35299.988   -1428.4132    -10262.07   -1146.3823    17788.473    86.273269 
    8900    1418.4759   -114.44174    1.2834668   -113.15827   -6691.4493    4.4161966    4.4161966    4.4161966   -6691.4493    21219.791   -1337.6304   -39956.508   -21685.184    6972.4302    13880.641    86.128165 
    9000    2176.6056   -115.11008    1.9694385   -113.14064    -15855.39    4.4006109    4.4006109    4.4006109    -15855.39     1256.952   -40975.405   -7847.7166    4001.6253   -5664.0561   -15631.881    85.219485 
    9100    1155.9767   -114.20572     1.045952   -113.15977    19786.916    4.3955576    4.3955576    4.3955576    19786.916    98309.849   -1464.6885   -37484.412   -3316.0974   -15470.029    28477.771    84.926246 
    9200    1442.9477   -114.47756    1.3056094   -113.17195   -30155.049    4.4112573    4.4112573    4.4112573   -30155.049    -158.5524   -28011.318   -62295.276   -10851.326    4155.1656    16545.667    85.839498 
    9300    1595.9515   -114.60216    1.4440505   -113.15811   -12190.445    4.4156663    4.4156663    4.4156663   -12190.445    15009.207   -35679.763   -15900.778    17193.736    15002.198   -3589.6458    86.097143 
    9400    1266.7391   -114.29542    1.1461722   -113.14925   -6035.3515    4.4099644    4.4099644    4.4099644   -6035.3515    100379.08   -58127.342   -60357.788   -1865.1504   -6991.9025    40698.772    85.764044 
    9500    1617.0696   -114.62092    1.4631586   -113.15776   -10594.468    4.4026246    4.4026246    4.4026246   -10594.468     81611.97   -26779.532   -86615.844    -14300.93    3603.7825   -5773.6032    85.336528 
    9600    2074.5678   -115.06439    1.8771125   -113.18727   -10206.158    4.4058305    4.4058305    4.4058305   -10206.158    27484.899   -2555.3872   -55547.986    10886.991    1262.7799    14729.653    85.523084 
    9700    1594.5415   -114.64934    1.4427747   -113.20656   -14693.287    4.4176724    4.4176724    4.4176724   -14693.287    13412.863     10328.22   -67820.943    16301.825   -3946.9723    17302.086    86.214541 
    9800    990.10508   -114.09066   0.89586788   -113.19479    36101.174    4.4107465    4.4107465    4.4107465    36101.174    81307.365    29916.234   -2920.0759    11596.771    15579.567   -22928.077    85.809684 
    9900    1781.8096   -114.79001    1.6122188   -113.17779   -13370.174    4.4221869    4.4221869    4.4221869   -13370.174   -35588.714      38859.7   -43381.507    35435.746    5374.0781    1461.8616    86.479122 
   10000    1174.3447   -114.22441    1.0625718   -113.16184     5270.604    4.4200471    4.4200471    4.4200471     5270.604    85411.341   -9262.4907   -60337.038    4284.9138    3943.0787    10836.507    86.353651 
   10100    1136.3658   -114.18225    1.0282077   -113.15404    24302.044    4.4097656    4.4097656    4.4097656    24302.044    44388.379    66689.465   -38171.711    13215.391    16207.871   -8038.6763    85.752447 
   10200     2164.204   -115.12005    1.9582173   -113.16183   -10190.377    4.4140432    4.4140432    4.4140432   -10190.377   -25631.372    16767.973   -21707.732   -19664.503   -9145.5133    17625.719    86.002237 
   10300    1239.9062   -114.31492    1.1218932   -113.19303    5961.8229      4.42668      4.42668      4.42668    5961.8229    63345.481   -12165.283    -33294.73    2916.6038   -8295.7345   -1757.5134    86.742989 
   10400    1370.7789   -114.41433    1.2403095   -113.17402    15079.793    4.4226494    4.4226494    4.4226494    15079.793    92745.908    10066.769   -57573.297   -18048.294   -5520.8808   -3180.1473    86.506259 
   10500    1584.2208   -114.60332    1.4334363   -113.16988    -9688.414    4.4186222    4.4186222    4.4186222    -9688.414   -25103.887    23419.628   -27380.983    18379.074    1777.1819   -3473.6734     86.27016 
   10600    1640.5886   -114.66257    1.4844391   -113.17813   -5982.7252    4.4179634    4.4179634    4.4179634   -5982.7252    -23433.31    13178.971   -7693.8372   -9525.6125    9766.9571   -2464.1689    86.231581 
   10700    1811.0396   -114.82239    1.6386667   -113.18372    13576.756    4.4172406    4.4172406    4.4172406    13576.756    81372.026    13973.377   -54615.135    13614.728   -12905.132   -4221.9709    86.189264 
   10800    1705.1891   -114.72052    1.5428909   -113.17762   -732.95345    4.4193311    4.4193311    4.4193311   -732.95345   -25271.098    65881.346   -42809.109    2022.4563   -2588.2149     7971.158     86.31169 
   10900     1632.406   -114.65033    1.4770353   -113.17329   -5548.7437     4.418066     4.418066     4.418066   -5548.7437   -10097.434      11075.5   -17624.298   -2560.9846    4073.7403    3676.3534    86.237588 
   11000    1572.4922   -114.59714     1.422824   -113.17432    5831.7008    4.4219384    4.4219384    4.4219384    5831.7008   -2605.3576    70646.135   -50545.676   -10494.505    -9718.097    372.15791    86.464547 
   11100    1629.6703   -114.64378      1.47456   -113.16922   -6230.2146    4.4145915    4.4145915    4.4145915   -6230.2146   -40329.219    47073.412   -25434.837   -331.52049    11661.333    8492.3488    86.034289 
   11200    1163.0613   -114.22707    1.0523623    -113.1747    25607.933    4.4037379    4.4037379    4.4037379    25607.933    -21745.32    134782.31   -36213.193    6157.4746   -3339.1592   -13625.707    85.401279 
   11300     2093.506   -115.08693    1.8942482   -113.19268   -44171.586    4.4267325    4.4267325    4.4267325   -44171.586   -43864.695   -19013.714    -69636.35   -14295.047   -15906.685   -9221.2792    86.746076 
   11400    1206.5664   -114.26896    1.0917266   -113.17724    121.31448    4.4341119    4.4341119    4.4341119    121.31448   -57365.632    71913.189   -14183.614    6494.3135    10504.771   -16705.608    87.180618 
   11500    2021.9099   -114.97447    1.8294666   -113.14501    3466.9522    4.4037175    4.4037175    4.4037175    3466.9522   -41870.717     80261.45   -27989.876   -6025.2936   -5438.1516    -2278.275    85.400093 
   11600    2261.4075   -115.22553    2.0461691   -113.17936   -25380.736    4.3979907    4.3979907    4.3979907   -25380.736   -15909.681    -6850.265   -53382.263   -6875.0212   -13666.293    4671.1252    85.067352 
   11700    1978.2899   -115.00926    1.7899983   -113.21926   -30813.898    4.4164753    4.4164753    4.4164753   -30813.898    -63551.12    25197.307   -54087.881   -6678.8034    5959.0416    2088.4888    86.144475 
   11800    1512.2927   -114.57117    1.3683543   -113.20282   -490.78287    4.4089982    4.4089982    4.4089982   -490.78287   -71338.105    88714.944   -18849.187   -1378.7635   -12026.667    8967.3869    85.707685 
   11900    1908.9127   -114.90872    1.7272243   -113.18149    4737.4586    4.3892814    4.3892814    4.3892814    4737.4586   -38887.591    43152.921    9947.0454   -383.54253    2408.3539   -975.83264     84.56298 
   12000    917.52347   -114.04932   0.83019451   -113.21912     9398.728    4.3957296    4.3957296    4.3957296     9398.728   -50706.114    130918.81   -52016.515    24452.942   -11161.518    15490.913    84.936217 
   12100    1177.6732   -114.29344    1.0655834   -113.22786    10076.346    4.4112651    4.4112651    4.4112651    10076.346   -36470.938    69175.994    -2476.016   -2842.2921   -14159.539    3993.2023    85.839953 
   12200    2052.7754   -115.04632    1.8573943   -113.18892    -9541.715    4.4175859    4.4175859    4.4175859    -9541.715   -29912.868    54452.737   -53165.014    20923.983    10104.204    9745.1885    86.209475 
   12300    1577.7508   -114.60816    1.4275821   -113.18058   -12624.397     4.405371     4.405371     4.405371   -12624.397   -31900.264    32958.557   -38931.484   -4984.8174   -18986.155    8002.7491    85.496327 
   12400    1628.7274   -114.64974    1.4737067   -113.17603    3545.5286      4.39614      4.39614      4.39614    3545.5286   -14229.055    37217.287   -12351.646    -20791.57    11777.901   -7135.6553    84.960006 
   12500    1427.0613   -114.46592     1.291235   -113.17468    24395.504    4.4059766    4.4059766    4.4059766    24395.504    2026.8196    72739.591   -1579.8997     18326.15   -15921.945   -20713.571    85.531592 
   12600    1440.9909   -114.49145    1.3038388   -113.18761   -35474.294    4.4258722    4.4258722    4.4258722   -35474.294   -80508.186    53577.632   -79492.327   -14560.503   -15180.857    7560.6091    86.695512 
   12700    1381.6615   -114.41835    1.2501564   -113.16819   -18908.867    4.4153914    4.4153914    4.4153914   -18908.867   -63384.923    43361.869   -36703.546    7814.2719    20398.642    12803.497    86.081066 
   12800     2117.678   -115.06434    1.9161196   -113.14822     4750.052    4.3879467    4.3879467    4.3879467     4750.052   -12635.204    22500.624    4384.7357   -5841.0543   -19345.317    -16785.69    84.485858 
   12900    1189.9216   -114.27924    1.0766661   -113.20258    3255.6402    4.4013987    4.4013987    4.4013987    3255.6402   -50794.043    106660.79    -46099.83   -4166.0104    21399.626    5510.9088    85.265261 
   13000    1501.4793   -114.55667    1.3585701    -113.1981    -8594.245    4.4110938    4.4110938    4.4110938    -8594.245    3621.7153    31228.045   -60632.495     8991.891    25250.397     5367.183    85.829955 
   13100     2150.535   -115.12095    1.9458492    -113.1751   -29001.711    4.4133284    4.4133284    4.4133284   -29001.711   -9930.0612   -7465.0506    -69610.02   -7185.6371   -14927.522    2028.8419     85.96046 
   13200    1534.9799   -114.55768     1.388882    -113.1688   -14179.202    4.4141073    4.4141073    4.4141073   -14179.202    337.16437   -11569.915   -31304.854    1727.2577    27132.867    11238.118    86.005981 
   13300    1750.8586   -114.75692    1.5842137   -113.17271   -7284.8008    4.4053201    4.4053201    4.4053201   -7284.8008   -42504.855    24314.131   -3663.6779     10197.66    4218.1616     3983.494    85.493363 
   13400    1520.1004   -114.55932    1.3754188    -113.1839    12961.429    4.4006511    4.4006511    4.4006511    12961.429   -17300.084    70692.733   -14508.361   -1780.0951   -3409.2688   -22917.088     85.22182 
   13500    1696.1549   -114.72329    1.5347166   -113.18858   -39876.469    4.4139989    4.4139989    4.4139989   -39876.469   -62764.688    7623.4127    -64488.13    -468.6168      35044.9   -900.57166    85.999647 
   13600    1444.2008   -114.49089    1.3067432   -113.18415    23988.923    4.3959707    4.3959707    4.3959707    23988.923    23259.018    62889.457   -14181.707    -5883.924    3392.1553     9489.598    84.950194 
   13700    1780.8597   -114.80765    1.6113593    -113.1963    21540.021    4.3946873    4.3946873    4.3946873    21540.021    47400.935    20902.708   -3683.5792   -18197.376   -7283.2699   -9191.0814    84.875808 
   13800    1635.2731    -114.6766    1.4796294   -113.19697   -11464.099    4.4178332    4.4178332    4.4178332   -11464.099   -9829.7509    30445.505   -55008.051    7119.9608    11885.774   -8538.3079    86.223957 
   13900    1263.0757   -114.32072    1.1428575   -113.17787     18291.46    4.4151304    4.4151304    4.4151304     18291.46    66826.361   -21607.033    9655.0505    -20985.06   -13636.965    7144.7378    86.065799 
   14000    1897.4899   -114.89159    1.7168887    -113.1747   -5384.2106    4.4083196    4.4083196    4.4083196   -5384.2106   -2084.2951    3024.2243   -17092.561    10241.135    14318.738   -10423.221    85.668115 
   14100     2054.471   -115.03295    1.8589285   -113.17402    10095.075    4.3990307    4.3990307    4.3990307    10095.075    20690.696     24138.08   -14543.552   -1221.2435    13441.451    1471.9459    85.127717 
   14200    920.11072   -114.04017   0.83253552   -113.20763    -21435.88    4.4097495    4.4097495    4.4097495    -21435.88   -30746.684   -26517.298   -7043.6591    3679.2304   -29566.886   -1406.4174    85.751506 
   14300    1216.3673   -114.31072    1.1005947   -113.21013    16359.201    4.4025553    4.4025553    4.4025553    16359.201    42318.462    5181.6827    1577.4595   -3674.0063   -14484.126   -4105.8257    85.332499 
   14400     2314.218   -115.30062    2.0939531   -113.20667   -27843.666     4.408324     4.408324     4.408324   -27843.666   -21297.366   -32197.306   -30036.325    1288.2511    5802.8578    173.53411    85.668371 
   14500    1637.2194   -114.67977    1.4813905   -113.19838   -4113.2384    4.3993549    4.3993549    4.3993549   -4113.2384    1659.6384    6988.2208   -20987.574    225.49955    1280.6312    3838.5035    85.146537 
   14600    1630.7213    -114.6742    1.4755109   -113.19869   -8888.8584    4.3848572    4.3848572    4.3848572   -8888.8584    12426.666   -35622.018   -3471.2236   -14343.724   -11641.463   -13913.071    84.307527 
   14700    1717.1764   -114.75546    1.5537373   -113.20172    20020.335    4.3885693    4.3885693    4.3885693    20020.335    47994.381     15051.25   -2984.6268    1495.0385    18137.148    594.96412    84.521827 
   14800    1916.2237   -114.93786    1.7338395   -113.20402   -23247.606    4.4152609    4.4152609    4.4152609   -23247.606    9689.5942   -38052.706   -41379.707    18390.967    8778.0045    3144.1683    86.073433 
   14900     1329.461   -114.38723    1.2029242   -113.18431    33605.485    4.4030817    4.4030817    4.4030817    33605.485    124311.18    -45188.36    21693.632    4957.2337   -10706.853   -7531.6441    85.363109 
   15000    853.53144   -113.97928   0.77229318   -113.20699    22064.389    4.3927995    4.3927995    4.3927995    22064.389    70877.877   -2208.0922   -2476.6179    6483.0254    21488.068    1458.8643    84.766477 
   15100    1119.2468   -114.24766    1.0127181   -113.23494    844.14836    4.4018794    4.4018794    4.4018794    844.14836    42831.974   -19793.632   -20505.896    -2569.224    23130.628   -3482.8492    85.293203 
   15200    1796.9296   -114.86907    1.6258997   -113.24317    28541.109    4.3942629    4.3942629    4.3942629    28541.109     132382.1   -32482.136   -14276.635    9920.3875    3513.0047    -6125.669    84.851223 
   15300    1178.5287     -114.346    1.0663575   -113.27964   -4433.4134    4.3989541    4.3989541    4.3989541   -4433.4134      15229.8   -18399.038   -10131.003   -3419.9886    18549.118    4502.2333    85.123266 
   15400    1666.9302   -114.77259    1.5082734   -113.26431   -33141.094      4.40159      4.40159      4.40159   -33141.094   -9839.3583    -43461.72   -46122.205    7115.3065    31426.819   -8070.7866    85.276382 
   15500    2218.8257   -115.24233    2.0076402   -113.23469   -26330.828    4.3907147    4.3907147    4.3907147   -26330.828   -13002.653   -54916.227   -11073.605    9266.9593    -8553.091   -6259.9873    84.645847 
   15600    1743.1468   -114.80149    1.5772358   -113.22425    11512.934    4.3954433    4.3954433    4.3954433    11512.934     28140.11    -8879.013    15277.706    4731.4557    9926.0753    10774.767    84.919619 
   15700    1621.8658    -114.6722    1.4674982    -113.2047   -40546.882    4.4163476    4.4163476    4.4163476   -40546.882   -41307.339    -46806.02   -33527.286   -5614.7184     32158.61    1011.2134    86.137002 
   15800    1660.0556   -114.67982    1.5020532   -113.17776   -2128.9381    4.3981189    4.3981189    4.3981189   -2128.9381   -14172.801   -52934.615    60720.601   -1085.4604   -26163.809   -4098.0736    85.074793 
   15900    1700.2393   -114.72075    1.5384123   -113.18234    28299.262    4.3875263    4.3875263    4.3875263    28299.262    62229.141   -17211.221    39879.866   -826.11079    15793.826    3616.6184    84.461578 
   16000    1466.9917   -114.52957    1.3273649    -113.2022   -8276.9212    4.4049482    4.4049482    4.4049482   -8276.9212    32081.856   -43179.079    -13733.54   -5890.7193    19302.607   -7556.9111    85.471716 
   16100    1445.6151   -114.51728    1.3080229   -113.20926    16893.292    4.4020107    4.4020107    4.4020107    16893.292    40040.514   -23870.267    34509.628    2261.4094    15245.089    228.73908    85.300833 
   16200    1925.6683   -114.95187    1.7423852   -113.20949   -11593.855    4.4040895    4.4040895    4.4040895   -11593.855   -11008.837   -12384.782   -11387.945   -8628.5397   -12959.353    6150.5746    85.421737 
   16300    1442.1068   -114.50888    1.3048485   -113.20403   -13771.545    4.4205645    4.4205645    4.4205645   -13771.545    8051.8189    -12898.11   -36468.343    3645.0807    19148.578    2255.3409    86.383978 
   16400    1869.1871    -114.8576    1.6912797   -113.16632   -25456.568    4.4190244    4.4190244    4.4190244   -25456.568   -15845.305   -49125.084   -11399.316   -6676.7524    3160.5407   -3112.3164    86.293719 
   16500    1915.7529   -114.88703    1.7334135   -113.15362    -12233.55    4.4071138    4.4071138    4.4071138    -12233.55    49868.486    -34902.27   -51666.866   -5126.9239   -12627.344   -644.58624    85.597839 
   16600    1428.8453   -114.46118    1.2928493   -113.16833    13576.439    4.3985103    4.3985103    4.3985103    13576.439    76763.727   -36300.228    265.81737   -10289.039      -7785.1   -4886.2129    85.097509 
   16700    1521.3399   -114.56679    1.3765403   -113.19025    18171.833    4.3982286    4.3982286    4.3982286    18171.833    35714.324   -1070.9872    19872.164   -7460.5923   -11819.008   -12564.028    85.081156 
   16800    1783.5928   -114.82399    1.6138323   -113.21015   -12337.319    4.4277582    4.4277582    4.4277582   -12337.319   -10198.269    -40970.09      14156.4   -803.80882   -6333.5945   -5457.9486    86.806389 
   16900    1611.9449   -114.61586    1.4585216   -113.15734   -22393.901    4.4404729    4.4404729    4.4404729   -22393.901    60412.511   -81817.677   -45776.535   -6084.4295    1663.4662     5309.433    87.556354 
   17000    1782.9554   -114.76053    1.6132555   -113.14728   -14896.482    4.4095182    4.4095182    4.4095182   -14896.482    9606.1852   -25390.773   -28904.859   -22476.969   -6927.1229    5944.6028    85.738015 
   17100    2191.8188   -115.13695    1.9832037   -113.15375    12821.565    4.3892424    4.3892424    4.3892424    12821.565    50387.346    2270.5127   -14193.165   -6151.3483   -21729.373    23.118016    84.560727 
   17200     1100.356   -114.18704    0.9956252   -113.19142     9767.193    4.4158923    4.4158923    4.4158923     9767.193    94138.954   -11843.325   -52994.049   -20282.211   -23229.851    485.76328     86.11036 
   17300    1694.4113   -114.69696    1.5331389   -113.16383   -30884.906    4.4216238    4.4216238    4.4216238   -30884.906   -15390.824   -61187.192     -16076.7   -19509.333   -6621.9475   -2369.4374     86.44609 
   17400    1729.7415   -114.70373    1.5651064   -113.13863    13796.985    4.4117705    4.4117705    4.4117705    13796.985     98466.99    -41467.07   -15608.966    5678.4693   -5216.7998   -8438.6909    85.869461 
   17500    2057.8627   -115.00249    1.8619974   -113.14049   -48400.383    4.4192771    4.4192771    4.4192771   -48400.383   -39935.936   -57737.615   -47527.599   -9708.2304    -8355.771    9132.0726    86.308525 
   17600    860.05335   -113.92779   0.77819435   -113.14959    2057.9186    4.4134259    4.4134259    4.4134259    2057.9186    30809.417   -26550.429    1914.7678   -21684.291    20657.847     13038.84    85.966156 
   17700    1837.8678   -114.80509    1.6629414   -113.14215    25399.518    4.4013505    4.4013505    4.4013505    25399.518    27492.676    -5290.373    53996.251   -3621.9735     2878.006    1845.4755     85.26246 
   17800    1198.9952   -114.24864    1.0848761   -113.16376    4019.0175    4.4213791    4.4213791    4.4213791    4019.0175    57825.046   -34665.787   -11102.206   -11204.395    1778.5296    7615.4036    86.431741 
   17900    1823.1229   -114.79078    1.6495999   -113.14118   -29925.783    4.4219227    4.4219227    4.4219227   -29925.783   -13707.399   -57507.594   -18562.357   -16938.443    17109.324   -6369.2337    86.463628 
   18000    2138.4608   -115.06119    1.9349242   -113.12626     1173.359    4.3996924    4.3996924    4.3996924     1173.359   -16105.525    2091.9047    17533.698    6791.7504   -5987.8249   -7445.1138    85.166138 
   18100     1426.467   -114.45855    1.2906973   -113.16786    17315.318    4.4063769    4.4063769    4.4063769    17315.318    82663.209   -14604.824   -16112.431    15231.494   -15762.621   -2566.0842    85.554905 
   18200     1679.911   -114.70341    1.5200188   -113.18339   -28642.335    4.4291666    4.4291666    4.4291666   -28642.335    4246.6783   -31877.794    -58295.89   -31916.318     16388.51   -15540.987     86.88925 
   18300    1887.1511   -114.87566     1.707534   -113.16813   -32206.985      4.41748      4.41748      4.41748   -32206.985     -36222.2    1933.3233   -62332.079    10018.979   -5847.3293     2222.957    86.203277 
   18400    1190.7685   -114.25565    1.0774324   -113.17822    14616.981    4.4037256    4.4037256    4.4037256    14616.981     65143.43   -8413.8219   -12878.665   -24041.565   -5360.7024   -1733.9308    85.400564 
   18500    1440.6909   -114.48652    1.3035674   -113.18296   -6586.3559    4.4073933    4.4073933    4.4073933   -6586.3559   -27293.647   -5629.8567    13164.436   -3686.3193    10688.993    103.69848    85.614122 
   18600    1982.0842   -114.96047    1.7934315   -113.16704   -4697.2611    4.4152765    4.4152765    4.4152765   -4697.2611    8953.0518   -12230.454   -10814.381    495.75586   -1795.2556   -10093.346    86.074342 
   18700    1335.6396    -114.3794    1.2085148   -113.17089   -6712.6729    4.4326718    4.4326718    4.4326718   -6712.6729   -16037.701    25251.532   -29351.849    3810.0009    14848.571   -8688.4623    87.095705 
   18800    1692.0897   -114.66185    1.5310383   -113.13081   -607.95859    4.4202524    4.4202524    4.4202524   -607.95859    14880.415   -6031.4438   -10672.847    6768.4318    16076.923    3112.6395    86.365682 
   18900    1703.7861   -114.67155    1.5416214   -113.12993    11679.005    4.4168567    4.4168567    4.4168567    11679.005   -10739.123     60689.46   -14913.324   -2650.2209   -126.04868    -5174.757    86.166792 
   19000    1928.3812   -114.87969    1.7448398   -113.13485   -44279.057    4.4327996    4.4327996    4.4327996   -44279.057   -51439.994   -23847.154   -57550.023   -1036.1648    6762.4483    6480.1002    87.103237 
   19100    1875.0822   -114.81224    1.6966138   -113.11562   -18417.773    4.4289891    4.4289891    4.4289891   -18417.773   -3071.5411   -23444.527   -28737.251   -8546.2752    2293.9535    2470.5864    86.878806 
   19200    1604.8002    -114.5773     1.452057   -113.12525    29.920491    4.4366583    4.4366583    4.4366583    29.920491   -69671.759    84524.068   -14762.547    7393.7138   -5476.2484   -9310.1625    87.330902 
   19300     1891.367   -114.84784    1.7113486   -113.13649    -18948.26    4.4276884    4.4276884    4.4276884    -18948.26   -58147.152   -19181.456    20483.827    8455.9094    1766.9019   -12569.248    86.802281 
   19400    1473.4054   -114.47829    1.3331682   -113.14512    47447.873    4.4151671    4.4151671    4.4151671    47447.873   -9401.5812    133468.18    18277.021   -5651.6368   -1445.9048   -4902.6518    86.067943 
   19500    2082.9908    -115.0389    1.8847339   -113.15416   -19308.961    4.4224137    4.4224137    4.4224137   -19308.961   -30182.345    4626.3769   -32370.917    1467.5577   -558.71334     14315.21     86.49243 
   19600    991.08873   -114.06506   0.89675791    -113.1683     8822.508    4.4134206    4.4134206    4.4134206     8822.508    -50426.77    54861.008    22033.286   -378.28906    526.20788   -5986.8471    85.965849 
   19700     1869.681   -114.87025    1.6917267   -113.17852   -1065.6664    4.4045503    4.4045503    4.4045503   -1065.6664   -15872.971   -17396.441    30072.414    3541.8286   -5039.1993    17127.718    85.448554 
   19800    1415.8676   -114.48211    1.2811067     -113.201    17152.434    4.4270347    4.4270347    4.4270347    17152.434   -28879.196    36677.121    43659.377   -10033.473    361.30105   -22310.863    86.763841 
   19900    1653.1456   -114.65617    1.4958009   -113.16037   -30185.433    4.4530743    4.4530743    4.4530743   -30185.433   -61471.052   -25623.038    -3462.208   -1408.4898    6101.5465   -18723.881    88.303889 
   20000    905.67127    -113.9661    0.8194704   -113.14663     -12772.5    4.4295845    4.4295845    4.4295845     -12772.5   -80943.223     4734.708    37891.015    2711.1399   -11847.088    12798.866    86.913844 
   20100    2062.2473   -114.96085    1.8659647   -113.09489    18842.282    4.3787523    4.3787523    4.3787523    18842.282     14101.45    28926.902    13498.493    2942.9894   -11649.634   -10921.797    83.955881 
   20200    1366.4395   -114.44026    1.2363832   -113.20387    24272.244     4.410948     4.410948     4.410948    24272.244   -40766.672    14854.416    98728.988   -1302.9389   -7205.3758    27821.899    85.821441 
   20300     1168.487   -114.24717    1.0572716    -113.1899   -40871.722    4.4499648    4.4499648    4.4499648   -40871.722   -57266.522   -37025.431   -28323.212    973.24167   -16772.771    34964.858    88.119036 
   20400    1767.0259   -114.74189    1.5988421   -113.14304    8531.4738    4.4282729    4.4282729    4.4282729    8531.4738   -19003.462    5190.9266    39406.957   -3168.1901   -1974.1475    -2283.815    86.836662 
   20500    1615.1109   -114.59789    1.4613863    -113.1365    -826.1502    4.4237947    4.4237947    4.4237947    -826.1502    26017.459   -48988.487    20492.577    8083.9128    1311.9817    1591.1613    86.573482 
   20600    1552.4625   -114.55561    1.4047007   -113.15091   -26471.229    4.4268401    4.4268401    4.4268401   -26471.229   -59492.725   -66237.799    46316.837   -10679.214   -13499.499    6402.5774    86.752401 
   20700    1838.0933   -114.81973    1.6631454   -113.15659    19431.608    4.4131967    4.4131967    4.4131967    19431.608    93075.925   -32573.436   -2207.6643   -6390.2784    1105.4586   -4124.4157    85.952768 
   20800    1752.1866   -114.76516    1.5854153   -113.17975    25697.395    4.4027926    4.4027926    4.4027926    25697.395    12685.521    6851.0802    57555.585    5278.2239   -8847.7848    16990.208    85.346294 
   20900    1322.0247   -114.41257    1.1961957   -113.21638   -10248.033    4.4263904    4.4263904    4.4263904   -10248.033    5141.4105   -18903.754   -16981.757    -14250.97   -13784.505    4133.3575    86.725963 
   21000     1531.554   -114.56415    1.3857822   -113.17837   -10605.012    4.4427097    4.4427097    4.4427097   -10605.012     36367.04   -52700.099   -15481.976    19154.502     12738.38   -1866.1433    87.688733 
   21100    1714.8458   -114.69891    1.5516285   -113.14728    10694.934    4.4209228    4.4209228    4.4209228    10694.934    42267.416    -27946.78    17764.165   -638.26618   -3128.1685     11450.92    86.404987 
   21200    1570.0529   -114.57454    1.4206169   -113.15392    14687.231    4.4065325    4.4065325    4.4065325    14687.231    5203.9445    22713.648    16144.102     9866.458    -19859.15   -5668.7401    85.563972 
   21300    2033.0236   -115.02705    1.8395225   -113.18753   -19995.248    4.4269005    4.4269005    4.4269005   -19995.248   -20216.196   -24215.858    -15553.69    8018.6692    3929.1966    4979.4667    86.755953 
   21400    1345.0002   -114.39497    1.2169845   -113.17798    2543.4201    4.4500906    4.4500906    4.4500906    2543.4201   -21986.337    11530.278    18086.318    4173.9351    -1766.764    8301.0591    88.126508 
   21500    1615.3595   -114.59476    1.4616112   -113.13315     -37758.3    4.4435963    4.4435963    4.4435963     -37758.3   -38185.822   -57305.454   -17783.624   -21354.041   -4471.3602    12927.291    87.741247 
   21600     1142.317   -114.15817    1.0335924   -113.12458    31759.809    4.4122329    4.4122329    4.4122329    31759.809    57086.967    -8945.838    47138.297    7783.7715   -15166.881     16258.87    85.896462 
   21700    1971.1842   -114.93225    1.7835689   -113.14868    24150.362    4.4017464    4.4017464    4.4017464    24150.362    51734.594    22572.434   -1855.9429      6348.23    944.59185   -3866.7826     85.28547 
   21800    1753.4674   -114.78557    1.5865741   -113.19899   -29664.501    4.4262025    4.4262025    4.4262025   -29664.501   -46611.937    2965.2004   -45346.765    8535.4979   -6118.0165    108.33142     86.71492 
   21900    942.29475   -114.05349   0.85260809   -113.20088   -8719.9581    4.4348658    4.4348658    4.4348658   -8719.9581    15262.141   -57244.981    15822.966    6531.8861    4700.6063    2524.6035    87.225092 
   22000    2352.3268   -115.29356    2.1284348   -113.16512   -18027.382    4.4208494    4.4208494    4.4208494   -18027.382   -4238.4368   -3035.3253   -46808.384    10587.935   -12633.268   -96.215489    86.400682 
   22100    1417.2297   -114.44976    1.2823392   -113.16742    24505.154    4.4150631    4.4150631    4.4150631    24505.154   -3510.9657   -20303.978    97330.406    2886.4072    4156.9882   -4645.9322    86.061866 
   22200     1476.079    -114.5121    1.3355873   -113.17651   -22236.551    4.4328251    4.4328251    4.4328251   -22236.551    7989.3787   -58159.911   -16539.122    21538.375    11644.714   -3549.0954    87.104738 
   22300    2301.8605   -115.21758    2.0827718   -113.13481   -38016.155    4.4401859    4.4401859    4.4401859   -38016.155   -44655.259   -34019.098   -35374.107    7829.9148    20669.611     15709.16    87.539378 
   22400    1750.5265   -114.70748    1.5839131   -113.12357   -21645.801    4.4428361    4.4428361    4.4428361   -21645.801   -9883.0099   -16194.924   -38859.471    18906.552   -4265.9546    6192.8611    87.696223 
   22500    1003.1224   -114.02036   0.90764626   -113.11271    -9629.207    4.4400163    4.4400163    4.4400163    -9629.207   -15641.078   -24580.197    11333.654    5111.1443   -9054.1086   -29899.835    87.529345 
   22600    2127.0151   -115.01302     1.924568   -113.08845   -9285.5964    4.4147837    4.4147837    4.4147837   -9285.5964    4313.1844   -24469.209   -7700.7645   -20294.022    5145.0978   -4580.7959    86.045525 
   22700    1159.4235   -114.18555    1.0490708   -113.13648    23813.286    4.4161624    4.4161624    4.4161624    23813.286    -11784.69    62594.456    20630.093    10414.762   -17375.759   -13935.893    86.126165 
   22800    1959.1951   -114.93451    1.7727209   -113.16179   -40477.609    4.4443649    4.4443649    4.4443649   -40477.609    66.080336   -71415.982   -50082.925   -11218.202   -15129.607    8725.3882    87.786784 
   22900    1715.7379   -114.68505    1.5524357   -113.13262   -29204.988    4.4466255    4.4466255    4.4466255   -29204.988   -68740.294    12163.059   -31037.731    -29380.81   -6714.9562    3499.5594    87.920809 
   23000     1845.961   -114.78085    1.6702643   -113.11059   -25222.726    4.4100082    4.4100082    4.4100082   -25222.726   -8728.6113   -26131.506    -40808.06    2261.7949      3213.08   -2641.2007      85.7666 
   23100    1147.9182   -114.17783    1.0386605   -113.13917    65504.365    4.3937838    4.3937838    4.3937838    65504.365    4983.7817    163115.97    28413.349    -14934.95   -11228.109    2418.2578    84.823472 
   23200     1618.178   -114.65789    1.4641614   -113.19372   -30093.807    4.4279632    4.4279632    4.4279632   -30093.807   -76018.805    -7475.262   -6787.3542    11198.811    1085.8626   -3596.0067    86.818449 
   23300    1436.0207   -114.47019    1.2993417   -113.17085    3395.5405    4.4272347    4.4272347    4.4272347    3395.5405   -53795.219    36799.204    27182.637    12865.635   -1587.4744   -41498.799    86.775602 
   23400    1476.6834   -114.50742    1.3361342   -113.17128    2019.3486     4.422174     4.422174     4.422174    2019.3486   -27421.065   -42979.823    76458.934   -13020.485   -6417.1867   -3137.9504    86.478366 
   23500    1394.4869   -114.43855    1.2617611   -113.17679   -4652.4623    4.4309904    4.4309904    4.4309904   -4652.4623   -62151.384   -7624.9621    55818.959    10222.303    11139.628    3420.9131    86.996627 
   23600    1738.7794   -114.72798    1.5732842    -113.1547    3789.0151    4.4247657    4.4247657    4.4247657    3789.0151    9402.6098   -5012.2877     6976.723    21979.774    2975.0646   -7496.8116    86.630501 
   23700    1568.8853   -114.57566    1.4195604    -113.1561    4611.7305    4.4280441    4.4280441    4.4280441    4611.7305    33700.391   -12604.264   -7260.9353    3034.2433    -6837.418   -1020.6378    86.823204 
   23800    1522.7878    -114.5328    1.3778504   -113.15495   -15060.215    4.4320752    4.4320752    4.4320752   -15060.215   -29276.121   -29260.497    13355.972    16914.989    275.22098    19217.245     87.06054 
   23900     1474.255   -114.47779    1.3339369   -113.14385    2780.7682    4.4112842    4.4112842    4.4112842    2780.7682    31860.718   -42998.628    19480.214    20991.757   -6499.1551   -30296.955     85.84107 
   24000    1944.5833    -114.9149    1.7594998    -113.1554    7621.0182    4.4063443    4.4063443    4.4063443    7621.0182   -7229.2582    24907.124     5185.189   -9939.3603    4681.0098    19096.095    85.553007 
   24100    1574.2546   -114.60484    1.4244187   -113.18042   -27814.635    4.4202789    4.4202789    4.4202789   -27814.635   -45232.684   -51621.905    13410.685    22704.792    25370.943   -8958.7339    86.367238 
   24200    1595.5102   -114.62201    1.4436512   -113.17836   -14685.742    4.4184211    4.4184211    4.4184211   -14685.742    2599.9355   -30770.064   -15887.097    16978.472   -1698.6995   -14833.111    86.258382 
   24300    1737.9491   -114.74105    1.5725329   -113.16851     13086.83    4.4175044    4.4175044    4.4175044     13086.83    38339.753   -29043.018    29963.756    4919.2591    -817.0149    3224.6073    86.204705 
   24400    1275.6657   -114.33276    1.1542492   -113.17852   -23539.512     4.422566     4.422566     4.422566   -23539.512   -20008.433    -62091.06    11480.958    14975.134    16556.125   -29211.514    86.501367 
   24500    1460.0103   -114.49287     1.321048   -113.17182    7266.6924    4.4151807    4.4151807    4.4151807    7266.6924    83121.662    -36372.08   -24949.504    3713.5157   -17119.605   -1626.8751    86.068743 
   24600    1921.6778   -114.91133    1.7387745   -113.17255    4658.4234    4.4086355    4.4086355    4.4086355    4658.4234     3386.959    -38688.98    49277.292    1149.2303   -2068.6977    3452.8944    85.686534 
   24700    1466.0454     -114.512    1.3265086   -113.18549   -6009.8269    4.4124222    4.4124222    4.4124222   -6009.8269    37023.548   -20654.306   -34398.723    -2199.332   -10496.461   -15574.983    85.907522 
   24800    1607.6978   -114.63063    1.4546787   -113.17595   -11008.206     4.425049     4.425049     4.425049   -11008.206   -36851.574   -23554.534     27381.49    5908.5755    14455.086   -7364.2133    86.647141 
   24900    1513.2972   -114.53144    1.3692631   -113.16218    3615.1667    4.4308428    4.4308428    4.4308428    3615.1667   -5901.7898   -34427.689    51174.979   -7932.1356    7372.4393    760.64558    86.987933 
   25000    1696.3312   -114.69036    1.5348761   -113.15549   -16076.457    4.4223472    4.4223472    4.4223472   -16076.457    45691.468   -74064.479   -19856.361    2001.4577   -4524.3297   -2245.2601    86.488532 
   25100    2000.3702   -114.95793     1.809977   -113.14795    818.94404    4.4016588    4.4016588    4.4016588    818.94404    15409.828   -43502.289    30549.293   -1558.1829    9196.1312   -13055.251    85.280382 
   25200     1385.979   -114.43143     1.254063   -113.17736    31345.605    4.4128965    4.4128965    4.4128965    31345.605    34705.004   -9875.7232    69207.534   -9786.6338   -4818.5835    13436.279    85.935224 
   25300    1283.0548   -114.33291     1.160935   -113.17197   -29787.225    4.4425948    4.4425948    4.4425948   -29787.225    2154.4061   -38823.262   -52692.819   -5463.3852   -5913.6926     2140.106    87.681934 
   25400    2072.7031   -115.00612    1.8754253    -113.1307   -42954.973    4.4127249    4.4127249    4.4127249   -42954.973   -52565.853   -34289.139   -42009.926   -18243.368    2227.1224    5635.4331    85.925203 
   25500    1375.4484   -114.35826    1.2445346   -113.11373    66281.194    4.3748996    4.3748996    4.3748996    66281.194    96663.961    108128.54   -5948.9223    14496.897   -13092.643   -16894.425    83.734468 
   25600    1965.9618   -114.98134    1.7788435   -113.20249   -14875.123    4.4096071    4.4096071    4.4096071   -14875.123   -55434.267   -20325.439    31134.337    -6821.412    6299.6794   -7551.9653    85.743198 
   25700    1240.9041   -114.30585    1.1227961   -113.18306   -24355.763    4.4501792    4.4501792    4.4501792   -24355.763   -66254.733    26486.638   -33299.193   -9937.1786   -5617.1957   -4218.6788     88.13177 
   25800    1770.9013   -114.73026    1.6023487   -113.12791   -16576.514    4.4237605    4.4237605    4.4237605   -16576.514   -2181.5712   -29763.798   -17784.174    19540.613    -8827.422    -9127.852    86.571475 
   25900    2060.4239   -114.96095    1.8643148   -113.09663    30032.658     4.374129     4.374129     4.374129    30032.658    42743.884    -9592.783    56946.871   -11111.536   -14166.863   -18894.413    83.690227 
   26000    1342.5057   -114.39376    1.2147274   -113.17903    40114.091    4.3892963    4.3892963    4.3892963    40114.091    18539.353    61982.288    39820.631   -6075.0692    6794.4913    27082.394    84.563838 
   26100     1731.768   -114.74313    1.5669401   -113.17619   -32997.568    4.4293353    4.4293353    4.4293353   -32997.568   -44470.298   -44436.343   -10086.064    3467.0422    8325.9011     10091.78    86.899178 
   26200    1120.3958   -114.15845    1.0137577   -113.14469   -12862.448     4.430649     4.430649     4.430649   -12862.448   -65250.684   -17763.965    44427.305   -20681.367   -9078.3878   -8261.1479    86.976523 
   26300    1742.6676   -114.69849    1.5768023   -113.12169   -9491.0858    4.3993546    4.3993546    4.3993546   -9491.0858   -35254.339    39709.223   -32928.141    8778.0198   -7199.9073    11791.986    85.146518 
   26400    1398.5259   -114.39684    1.2654156   -113.13142    43900.935    4.3804668    4.3804668    4.3804668    43900.935    -7825.644    48922.767    90605.681    5728.1162    -6859.399    17376.978     84.05454 
   26500    1562.9699   -114.59362     1.414208   -113.17942   -17887.176    4.4037656    4.4037656    4.4037656   -17887.176   -67316.861   -40105.819    53761.151   -42142.034    17233.962   -2407.7371    85.402893 
   26600    1634.4628   -114.64693    1.4788963   -113.16803    -12792.99    4.4190926    4.4190926    4.4190926    -12792.99   -36781.154   -23697.952    22100.136   -2608.1918   -18957.695    4525.5017    86.297717 
   26700    1344.4686   -114.36503    1.2165034   -113.14852    2913.9477    4.4119801    4.4119801    4.4119801    2913.9477    25450.474   -24683.292    7974.6616    -3002.487    618.20155    25975.233    85.881702 
   26800    1763.6594   -114.73188    1.5957961   -113.13609   -21588.892     4.404302     4.404302     4.404302   -21588.892   -35606.122   -34809.439    5648.8849   -23136.895    3148.5656    134.24554    85.434105 
   26900    1729.3775   -114.71178    1.5647771     -113.147   -2095.6558    4.3993272    4.3993272    4.3993272   -2095.6558    -37258.59   -18852.934    49824.557    10318.705   -41346.082   -11907.379    85.144932 
   27000     1175.128   -114.25162    1.0632805   -113.18833   -24978.846    4.4079451    4.4079451    4.4079451   -24978.846    -47025.58   -44951.555    17040.598   -19577.759    10079.422     2151.598    85.646282 
   27100    1735.9405   -114.74573    1.5707155   -113.17502   -2570.8246     4.411122     4.411122     4.411122   -2570.8246   -36177.757   -21774.671    50239.954   -10705.618    26266.358   -3164.9486    85.831598 
   27200    1736.1844   -114.74301    1.5709361   -113.17207    10537.483    4.3944148    4.3944148    4.3944148    10537.483   -7136.3233   -19672.825    58421.598    1704.0527   -29888.929   -18919.846    84.860025 
   27300    1438.1501    -114.4951    1.3012684   -113.19383   -1308.7467    4.3918802    4.3918802    4.3918802   -1308.7467   -33572.779   -29014.924    58661.464   -29869.652   -3162.0485    13714.852    84.713272 
   27400     1526.358   -114.58643    1.3810808   -113.20535   -18550.958    4.4139641    4.4139641    4.4139641   -18550.958   -2656.0609   -64861.645    11864.832    331.97282    23456.122    11279.886    85.997611 
   27500    1791.7761   -114.79421    1.6212367   -113.17297   -28436.456    4.4147495    4.4147495    4.4147495   -28436.456   -28740.566   -51529.344   -5039.4595   -4422.3928    -15519.29    -9689.219    86.043523 
   27600    928.80684   -113.99915   0.84040395   -113.15874    26095.497    4.4054666    4.4054666    4.4054666    26095.497   -12081.492    -31075.79    121443.77   -17634.844    9382.3738    18917.791    85.501897 
   27700    2096.0658   -115.05878    1.8965644   -113.16221   -25783.095    4.4051289    4.4051289    4.4051289   -25783.095   -20017.764   -24383.383   -32948.138   -2336.2507    11158.342    6906.3606    85.482231 
   27800    1326.3565   -114.36971    1.2001152    -113.1696     16303.67    4.4104435    4.4104435    4.4104435     16303.67   -27290.761    -25145.47    101347.24   -22850.045     16653.37   -7157.8983    85.791998 
   27900    1664.0655   -114.65777    1.5056815   -113.15209   -8060.5182    4.4175635    4.4175635    4.4175635   -8060.5182   -22906.497   -9569.5499    8294.4929    1696.3543   -5502.6168    1635.2263    86.208163 
   28000    1933.6958    -114.8912    1.7496486   -113.14155    -15402.49    4.4074883    4.4074883    4.4074883    -15402.49   -2436.4818   -42505.082   -1265.9049   -2939.0869    1142.8203   -9898.5275    85.619664 
   28100    1156.4263   -114.20097    1.0463588   -113.15461    12798.788    4.3938401    4.3938401    4.3938401    12798.788   -8437.1579    -20689.12    67522.643     -43662.2    20211.397   -9578.5662    84.826733 
   28200    1701.1702   -114.69821    1.5392545   -113.15895     12051.95    4.4031606    4.4031606    4.4031606     12051.95    28585.388    1431.4146    6139.0473    21849.524    5346.6954    6786.0546    85.367699 
   28300    1561.1151    -114.5757    1.4125297   -113.16317   -39252.531    4.4258856    4.4258856    4.4258856   -39252.531   -58627.678   -46614.585    -12515.33   -47597.099   -17514.102    457.21863      86.6963 
   28400    1706.0014   -114.70361    1.5436259   -113.15999   -28721.214    4.3983264    4.3983264    4.3983264   -28721.214   -27373.526   -57807.906   -982.21059    -36707.58    5197.7747   -3079.8597    85.086832 
   28500    1611.1379    -114.6019    1.4577914   -113.14411    42926.916    4.3761429    4.3761429    4.3761429    42926.916    45874.885    30000.496    52905.366     20322.43   -14091.584   -7500.1016    83.805881 
   28600    1299.5471   -114.35939    1.1758575   -113.18353   -49303.773    4.4189972    4.4189972    4.4189972   -49303.773    -73083.89   -89567.582    14740.154   -56016.073   -5944.1251   -6073.7567    86.292125 
   28700    1479.5403   -114.47415    1.3387192   -113.13543    9732.6147    4.4160596    4.4160596    4.4160596    9732.6147    40042.457    7709.9481   -18554.561   -18199.948    5816.5621    3024.5508    86.120151 
   28800    1805.4518      -114.76    1.6336108   -113.12639    13612.673    4.3859331    4.3859331    4.3859331    13612.673    27547.694    27337.467   -14047.141   -1674.0514   -17883.007    5502.5086    84.369601 
   28900    1191.4469   -114.25938    1.0780462   -113.18133    -4158.247    4.3895911    4.3895911    4.3895911    -4158.247   -38889.116    4347.4908    22066.884   -63443.298   -5058.3721   -10835.509     84.58088 
   29000    2211.0488   -115.19237    2.0006034   -113.19176   -17441.808    4.4084107    4.4084107    4.4084107   -17441.808   -16302.003    22502.942   -58526.362    3260.1519    10133.415     6902.819    85.673425 
   29100    1099.7428   -114.19389   0.99507037   -113.19882   -8673.1332     4.412365     4.412365     4.412365   -8673.1332   -74516.952    58372.519   -9874.9673   -12483.352   -11137.398    7641.1712    85.904179 
   29200    1230.3134   -114.29583    1.1132135   -113.18262    12760.389    4.3769776    4.3769776    4.3769776    12760.389   -43659.695    40359.482    41581.382   -50276.708    7777.9104   -1651.5559    83.853844 
   29300    1706.5764   -114.73189    1.5441462   -113.18774    32135.509    4.3780177    4.3780177    4.3780177    32135.509    24249.031    99661.806   -27504.312    10017.555   -11797.797    1869.1673    83.913636 
   29400    1650.0793   -114.68814    1.4930264   -113.19511   -12356.225    4.4044355    4.4044355    4.4044355   -12356.225   -50673.645    9982.1624    3622.8069   -21856.258   -6396.7817    -6763.563    85.441875 
   29500    1284.0714   -114.34992    1.1618547   -113.18807     -1618.23    4.4255006    4.4255006    4.4255006     -1618.23   -25528.471    27754.091   -7080.3092   -32859.879    9705.4776   -477.62359    86.673676 
   29600    1791.7663   -114.76804    1.6212278   -113.14681   -51912.271      4.42487      4.42487      4.42487   -51912.271   -21040.747   -46025.452   -88670.615    19875.959   -15437.305   -1463.1066     86.63663 
   29700    1332.5108   -114.35552    1.2056838   -113.14983    17439.881    4.3578502    4.3578502    4.3578502    17439.881    24593.849    9407.0091    18318.784   -37998.139   -19155.552   -7135.5742    82.759318 
   29800    2065.7867   -115.03909    1.8691672   -113.16992    23602.533    4.3511859    4.3511859    4.3511859    23602.533    22313.111    24191.291    24303.197   -43630.611    9165.7418    10709.431    82.380211 
   29900    1906.2906   -114.92665    1.7248518    -113.2018    -18658.49    4.4071488    4.4071488    4.4071488    -18658.49    24543.146   -31986.533   -48532.085    19507.524    11038.434    13505.683    85.599876 
   30000    951.56183   -114.02283   0.86099314   -113.16183   -18580.463    4.4277809    4.4277809    4.4277809   -18580.463   -75846.439    16301.946    3803.1026   -21906.264   -7149.7372   -12572.944    86.807723 
   30100    1949.6463   -114.88479     1.764081   -113.12071   -6842.9864    4.3998107    4.3998107    4.3998107   -6842.9864   -15125.645   -15028.421    9625.1072   -4484.1503     14915.57    10669.441    85.173007 
   30200    1710.5874   -114.66795    1.5477754   -113.12018    9066.4148    4.3753797    4.3753797    4.3753797    9066.4148   -22159.884    48965.944    393.18413    -2515.714    697.46777    9913.7556    83.762041 
   30300    1329.1991   -114.36381    1.2026873   -113.16113    18392.123    4.3855251    4.3855251    4.3855251    18392.123    187.54724     25231.12    29757.701   -30467.006   -12870.035   -5253.8066    84.346058 
   30400    1810.2768   -114.81301    1.6379765   -113.17503   -10638.638    4.4096434    4.4096434    4.4096434   -10638.638   -3716.2733   -20737.443   -7462.1989    -4197.554    32048.376    5198.1086     85.74532 
   30500    1530.4542   -114.54957    1.3847871   -113.16478   -2561.1017    4.4216353    4.4216353    4.4216353   -2561.1017    36988.477    5005.7943   -49677.577   -10446.977    2496.6728   -7126.8836    86.446764 
   30600    1554.1881    -114.5476     1.406262   -113.14133    4585.2617    4.4073946    4.4073946    4.4073946    4585.2617    69765.626    -30856.87   -25152.971   -29925.569    -739.0072    1851.6878    85.614199 
   30700    1628.7641   -114.60245      1.47374   -113.12871    43213.521    4.3694029    4.3694029    4.3694029    43213.521    51966.299    37992.383    39681.881    714.50858    26316.831    18171.842    83.419252 
   30800     1909.486   -114.88884     1.727743    -113.1611    27801.198    4.3738139    4.3738139    4.3738139    27801.198    25993.163    27458.768    29951.662   -20015.143   -4758.1255    8917.3999    83.672146 
   30900    1150.8634   -114.23097    1.0413254   -113.18964   -31053.657    4.4233319    4.4233319    4.4233319   -31053.657   -30845.023   -34603.256   -27712.694   -22296.217    1856.5767   -16467.228    86.546316 
   31000     1479.663   -114.48593    1.3388302    -113.1471    -26297.02    4.4123273    4.4123273    4.4123273    -26297.02   -58531.574   -119.12516    -20240.36    3549.7948    11203.376     9249.159    85.901979 
   31100    1965.3469     -114.893    1.7782872   -113.11472    9350.9578    4.3726132    4.3726132    4.3726132    9350.9578    112.72233    10186.873    17753.278   -29414.262   -2347.2241    13611.455    83.603252 
   31200    1218.1241   -114.26979    1.1021843   -113.16761   -24900.951    4.3856417    4.3856417    4.3856417   -24900.951   -36542.022   -26323.743   -11837.088   -30448.177   -7049.2675   -38113.347    84.352787 
   31300    1707.3656   -114.72047    1.5448602   -113.17561   -9957.8338    4.4050122    4.4050122    4.4050122   -9957.8338   -6711.3379    38458.897    -61621.06    8909.3811    10581.309   -9429.4299    85.475439 
   31400    1815.4295   -114.80675    1.6426388   -113.16411   -6885.0261    4.4129209    4.4129209    4.4129209   -6885.0261    -35317.23     68468.01   -53805.858    4148.0682    3118.5267   -6700.8733    85.936654 
   31500     1054.002    -114.1227   0.95368319   -113.16902   -16347.907     4.415663     4.415663     4.415663   -16347.907   -48395.934    81387.333   -82035.119   -9167.0042    13437.367   -8813.7387     86.09695 
   31600     2005.066   -114.95829    1.8142258   -113.14407    31570.444    4.3913873    4.3913873    4.3913873    31570.444     64773.53    67996.637   -38058.835    33158.815    11524.866   -5223.1294     84.68475 
   31700    1507.7643   -114.53803    1.3642568   -113.17378    9727.8213    4.3854972    4.3854972    4.3854972    9727.8213    16105.013   -10155.493    23233.944    2171.0567   -3887.1194   -15633.994     84.34445 
   31800    1077.9101   -114.15742   0.97531575   -113.18211   -18195.471    4.4159637    4.4159637    4.4159637   -18195.471    7425.9582   -38534.543   -23477.829   -9970.5666    9815.4462   -4730.3114    86.114542 
   31900    2355.0358   -115.26656    2.1308859   -113.13567   -24584.676    4.4100009    4.4100009    4.4100009   -24584.676    17598.947   -39109.997   -52242.978    1269.9861   -8847.1058    6510.3339    85.766172 
   32000    1017.4949   -114.07825   0.92065078    -113.1576   -35487.638    4.3910138    4.3910138    4.3910138   -35487.638   -49743.931   -18902.767   -37816.216     7990.225   -2865.3024    2305.0185    84.663149 
   32100    1628.8553   -114.62039    1.4738225   -113.14656    18750.046    4.3705147    4.3705147    4.3705147    18750.046     942.8352    15779.932    39527.372   -14512.857    17430.193   -8177.0369    83.482944 
   32200    1863.0165   -114.87065    1.6856965   -113.18495   -7201.3783    4.3993748    4.3993748    4.3993748   -7201.3783    29459.603   -27883.727    -23180.01    5952.0462    -1146.383    5818.3211    85.147691 
   32300    1173.0491   -114.22103    1.0613995   -113.15963   -57548.976    4.4297989    4.4297989    4.4297989   -57548.976   -68406.387   -22728.369   -81512.171    21793.424    19360.639     4147.292    86.926465 
   32400    2471.5738   -115.34508    2.2363319   -113.10875   -16953.426    4.3985751    4.3985751    4.3985751   -16953.426   -20847.421    8553.1173   -38565.975   -3365.1627    5118.4258    10458.335     85.10127 
   32500    1551.7592   -114.53347    1.4040644   -113.12941    2950.7841    4.3933431    4.3933431    4.3933431    2950.7841    -6729.522    57818.762   -42236.887    16101.769   -3612.2723    12733.103    84.797949 
   32600    1074.6764   -114.12567   0.97238977   -113.15328   -8370.6954    4.4071395    4.4071395    4.4071395   -8370.6954   -63830.335    76410.159   -37691.911    24944.656    27397.524    164.82896    85.599338 
   32700    2010.9222   -114.95974    1.8195247   -113.14022    12675.623    4.4095926    4.4095926    4.4095926    12675.623   -3038.7776    72626.799   -31561.151    8232.3374     -18542.4   -9538.3633    85.742355 
   32800    987.46269   -114.04611   0.89347699   -113.15263   -11557.392     4.418017     4.418017     4.418017   -11557.392   -31206.293    60690.044   -64155.926    1871.3209    8721.9176    6866.5817    86.234719 
   32900    1305.3908   -114.32975     1.181145    -113.1486   -13536.656     4.397699     4.397699     4.397699   -13536.656   -54938.561    59167.391   -44838.799    36922.287    32668.178    22530.337     85.05043 
   33000    1838.3712   -114.80903    1.6633969   -113.14563    35760.458    4.3742038    4.3742038    4.3742038    35760.458    54829.316    41757.532    10694.525    1896.2868   -22287.151    -2279.717    83.694525 
   33100    1831.9715   -114.85519    1.6576064   -113.19759   -51503.965     4.409693     4.409693     4.409693   -51503.965   -56720.463   -11036.741    -86754.69   -13434.441    31038.411    6860.2694    85.748213 
   33200    1417.2584   -114.44875    1.2823652   -113.16639   -17466.345    4.4191862    4.4191862    4.4191862   -17466.345    -7916.254    17847.101   -62329.882    2804.1916    7019.3016    12131.513    86.303203 
   33300    1620.0789   -114.60246    1.4658815   -113.13657    29089.735     4.386683     4.386683     4.386683    29089.735     50556.51     70303.63   -33590.936    2988.7051    17841.367   -6126.3543    84.412888 
   33400    1185.8029    -114.2457    1.0729394   -113.17276    12095.914     4.388551     4.388551     4.388551    12095.914   -19767.834     100330.6   -44275.022    9838.8458     22245.09    3101.7948    84.520773 
   33500    2184.1778    -115.1496      1.97629   -113.17331    -5443.161    4.3973146    4.3973146    4.3973146    -5443.161    17582.186   -380.38225   -33531.287    6602.7474   -16418.698    5980.2482    85.028125 
   33600    743.86438   -113.86677   0.67306412    -113.1937   -1247.8216    4.4100581    4.4100581    4.4100581   -1247.8216    26903.818    54275.393   -84922.675    19178.816    45800.526   -12450.943     85.76951 
   33700    1864.9194    -114.8627    1.6874182   -113.17528   -21561.721     4.397749     4.397749     4.397749   -21561.721   -10522.497    18694.296   -72856.963   -5706.7359    8851.5768    1274.1273    85.053326 
   33800     1708.948   -114.70526    1.5462921   -113.15897    23155.386     4.384145     4.384145     4.384145    23155.386    71563.202    40905.389   -43002.431    33343.327   -16939.547   -11059.646    84.266454 
   33900    1319.9588   -114.37744    1.1943265   -113.18311   -37789.309    4.3996708    4.3996708    4.3996708   -37789.309   -49016.597    8782.1611   -73133.492    14356.105    47701.199   -10303.981    85.164882 
   34000    1659.9078   -114.67785    1.5019194   -113.17593    3651.1812    4.3884925    4.3884925    4.3884925    3651.1812    25904.729    11184.039   -26135.224    -11399.33   -7112.2324    7253.3904    84.517392 
   34100    2036.8747   -115.02154     1.843007   -113.17854    12480.544    4.3969095    4.3969095    4.3969095    12480.544    28967.606    41334.042   -32860.015    3848.8932   -22947.201   -7998.3662    85.004628 
   34200    1524.9072   -114.56499    1.3797681   -113.18522   -44422.679    4.4015317    4.4015317    4.4015317   -44422.679   -4006.2384   -49746.894   -79514.905    10469.559    39331.787    6103.9259    85.272991 
   34300    1290.2092   -114.34406    1.1674084   -113.17665    38109.708    4.3579624    4.3579624    4.3579624    38109.708      55251.8    69945.003   -10867.678    1230.1771   -5386.5755      10873.9    82.765709 
   34400     2121.166   -115.12341    1.9192756   -113.20414   -342.31045    4.3735991    4.3735991    4.3735991   -342.31045      4238.13   -24220.943    18955.882   -24349.818   -5303.4213   -8635.7231     83.65982 
   34500    1383.5196   -114.45183    1.2518376   -113.19999   -32422.795    4.4045356    4.4045356    4.4045356   -32422.795    7114.0413   -24925.505   -79456.921    1157.7541    16034.781    24243.048    85.447698 
   34600    1662.3226   -114.67422    1.5041045   -113.17012   -7356.5554    4.3955713    4.3955713    4.3955713   -7356.5554    33713.857   -20020.372   -35763.151   -2211.9805    18966.581    4728.4194     84.92704 
   34700    1672.5326   -114.68387    1.5133426   -113.17053   -14697.104    4.3953918    4.3953918    4.3953918   -14697.104   -53006.562   -28747.396    37662.647   -21697.029   -3479.9823   -1690.7308    84.916634 
   34800    1314.0623   -114.36396    1.1889912   -113.17497    6705.2069     4.379262     4.379262     4.379262    6705.2069    48626.996   -6889.8143   -21621.561    282.80612   -2338.3713     22510.17    83.985206 
   34900    1684.0664   -114.70748    1.5237787   -113.18371    14627.458    4.3799191    4.3799191    4.3799191    14627.458   -1099.6582   -17198.131    62180.163      4248.52    27923.577    2203.9341    84.023015 
   35000    1605.5423   -114.63835    1.4527285   -113.18562   -28609.127    4.4143191    4.4143191    4.4143191   -28609.127   -39123.346   -51579.058    4875.0227   -8825.9062   -11151.214   -18973.382     86.01836 
   35100    1581.4649   -114.58982    1.4309427   -113.15887    10891.703    4.3942413    4.3942413    4.3942413    10891.703    2114.3931    3795.1628    26765.553    -4878.795   -20.889152    14468.748    84.849974 
   35200     1516.812   -114.52348    1.3724434   -113.15104    33426.896    4.3723817    4.3723817    4.3723817    33426.896    53715.104    24287.839    22277.745    11833.871    25646.319    -11231.46    83.589974 
   35300    1572.1839   -114.60621    1.4225451   -113.18366   -15913.249    4.3928016    4.3928016    4.3928016   -15913.249   -12627.722   -12061.558   -23050.467   -18818.452   -17815.451   -15044.275      84.7666 
   35400    1536.9353    -114.5646    1.3906514   -113.17395      12691.4    4.4094278    4.4094278    4.4094278      12691.4     55897.25   -868.95628   -16954.093    16846.943    4915.9173    7703.3604     85.73274 
   35500    1289.6486   -114.32688    1.1669011   -113.15998   -6916.4144    4.4260514    4.4260514    4.4260514   -6916.4144    5597.3644    -7753.332   -18593.276   -3152.1487    19068.418   -21002.585    86.706039 
   35600    1347.9327   -114.35591    1.2196378   -113.13627   -2738.5444    4.4096643    4.4096643    4.4096643   -2738.5444    6896.2556     -28012.5    12900.611    -15806.27   -6767.8918   -20832.194    85.746535 
   35700    1690.0192   -114.64376    1.5291649    -113.1146    22499.604    4.3825376    4.3825376    4.3825376    22499.604    27507.864    46916.064   -6925.1146    40153.593    23813.862   -714.02107    84.173801 
   35800    1096.6876   -114.15665   0.99230597   -113.16434     13194.92    4.3928189    4.3928189    4.3928189     13194.92    21476.691    23735.123   -5627.0543   -7937.1941    9638.8748   -35810.902      84.7676 
   35900    1877.7287   -114.85427    1.6990084   -113.15526   -18220.642    4.4075948    4.4075948    4.4075948   -18220.642   -10202.356    -32190.26   -12269.312    1256.0741   -6945.8098   -25629.103     85.62587 
   36000    1709.3463   -114.69054    1.5466524   -113.14389    1591.2967    4.4041411    4.4041411    4.4041411    1591.2967    18020.344    2718.0261    -15964.48      6189.66     11121.43    4756.7824    85.424741 
   36100    1541.2105   -114.54059    1.3945196   -113.14608   -14581.447    4.3943373    4.3943373    4.3943373   -14581.447   -35691.095    28440.288   -36493.536   -4991.1842   -258.93834   -28825.396    84.855536 
   36200    1308.8756   -114.34557    1.1842982   -113.16127    19961.423    4.3833448    4.3833448    4.3833448    19961.423   -1005.7131    52361.534    8528.4471    9000.1967    2940.5924   -16211.595    84.220325 
   36300    2060.7803   -115.04332    1.8646373   -113.17868    1588.4061     4.389675     4.389675     4.389675    1588.4061   -21095.206    38014.916   -12154.492    1250.9383    5525.7714   -493.15265     84.58573 
   36400    1560.7268   -114.59534    1.4121784   -113.18316   -17883.688    4.4044945    4.4044945    4.4044945   -17883.688   -37288.322    2359.1662    -18721.91   -4911.2517    14323.552    -26095.93    85.445308 
   36500    1230.1257   -114.29218    1.1130436   -113.17914   -25154.982    4.3977545    4.3977545    4.3977545   -25154.982   -19224.451   -25916.824   -30323.673   -14254.087   -3354.2271   -1790.4927    85.053649 
   36600    2104.8604   -115.06828    1.9045219   -113.16376    7064.0869    4.3901522    4.3901522    4.3901522    7064.0869   -9461.6335    23522.269    7131.6255    6392.6785   -3699.2184    17581.275    84.613322 
   36700    1314.9991   -114.37059    1.1898388   -113.18075    26991.715    4.3845761    4.3845761    4.3845761    26991.715   -14327.215    95679.119   -376.75785   -16885.904    14388.672   -11426.924    84.291318 
   36800    1133.8857   -114.22117    1.0259636   -113.19521    2108.5166    4.3849722    4.3849722    4.3849722    2108.5166    36008.045    7118.8101   -36801.305    -9849.351   -11973.889   -9143.2532    84.314163 
   36900     2025.138   -115.00747    1.8323875   -113.17508   -1660.7488    4.4037318    4.4037318    4.4037318   -1660.7488    26371.986   -12200.943    -19153.29   -976.82544    537.27452    12610.192    85.400925 
   37000    1903.7714   -114.88991    1.7225724   -113.16733   -35300.928    4.3962238    4.3962238    4.3962238   -35300.928   -47254.699   -44571.595    -14076.49   -37801.416    7493.4203   -7675.2735    84.964864 
   37100    1411.9027   -114.44495    1.2775192   -113.16743    9301.7804    4.3714684    4.3714684    4.3714684    9301.7804    40622.403   -18078.877    5361.8151   -9390.1764   -2673.5715    590.74228    83.537607 
   37200    2025.4366   -115.01924    1.8326576   -113.18658    11118.987    4.3923137    4.3923137    4.3923137    11118.987    70629.943   -14410.412   -22862.571    10481.458    10659.871    15399.661     84.73836 
   37300    1435.9951   -114.46136    1.2993185   -113.16204   -25446.179    4.4193878    4.4193878    4.4193878   -25446.179   -6619.0672   -83596.998    13877.527   -29428.253   -8671.8878   -9138.7123    86.315011 
   37400    1521.6273   -114.50384    1.3768004   -113.12704    4755.3185    4.4032804    4.4032804    4.4032804    4755.3185    64307.385   -47002.989   -3038.4408    11508.139   -9518.8842    10459.333    85.374666 
   37500    1768.5926   -114.72962    1.6002597   -113.12936   -28991.797     4.387189     4.387189     4.387189   -28991.797   -22050.021   -22202.054   -42723.316    677.27435    39024.001    1456.5321    84.442102 
   37600    1316.2844   -114.35464    1.1910018   -113.16364    4908.0556    4.3784815    4.3784815    4.3784815    4908.0556    54599.816   -42568.263    2692.6136   -14833.585    18215.376   -13276.156    83.940307 
   37700    1881.5623   -114.89872    1.7024771   -113.19624    -21177.21    4.3993941    4.3993941    4.3993941    -21177.21    41674.953   -73619.085   -31587.499    8873.3199    8632.8048    19239.739    85.148811 
   37800    1638.3833   -114.65884    1.4824436   -113.17639    18368.044    4.3998156    4.3998156    4.3998156    18368.044    134729.46   -46646.999   -32978.325    9734.8145    19685.114   -14484.896    85.173288 
   37900    1466.7694   -114.51503    1.3271638   -113.18786   -15979.609    4.3931848    4.3931848    4.3931848   -15979.609    32874.827   -50300.389   -30513.265   -18766.874    11040.601   -3140.0935    84.788788 
   38000    1867.8126   -114.88544    1.6900361    -113.1954    -12627.06    4.3838281    4.3838281    4.3838281    -12627.06    24885.765   -43153.924   -19613.019    10874.929     9961.876    20795.743    84.248185 
   38100    1283.7676   -114.37261    1.1615799   -113.21103    47701.425    4.3797405    4.3797405    4.3797405    47701.425    151710.86   -26629.061    18022.474    12913.929   -3129.4755   -42355.723    84.012737 
   38200     1944.988   -114.96033     1.759866   -113.20046    -2396.021    4.4132955    4.4132955    4.4132955    -2396.021    36226.023   -33129.316    -10284.77   -2955.9968    3498.3352    9803.9138    85.958541 
   38300    1501.4092   -114.52397    1.3585066   -113.16546   -24055.464    4.4152868    4.4152868    4.4152868   -24055.464   -2528.0591   -71057.098    1418.7651     10434.27    4403.4388   -19664.547    86.074946 
   38400     1443.593    -114.4539    1.3061932    -113.1477    3059.0944    4.3908306    4.3908306    4.3908306    3059.0944    52061.561   -63642.039    20757.761    25088.485   -11345.652   -13508.283    84.652549 
   38500    1886.9404   -114.84235    1.7073434   -113.13501    24037.265    4.3824832    4.3824832    4.3824832    24037.265    77889.517   -33850.592     28072.87    4102.7411    -10053.49    11413.762     84.17067 
   38600    1035.8178   -114.12432   0.93722967   -113.18709    11938.267     4.396485     4.396485     4.396485    11938.267    99410.717   -53271.473   -10324.442    4111.0131   -14716.971   -25638.054    84.980011 
   38700    1485.8603   -114.52845    1.3444376   -113.18401   -640.45888    4.4053402    4.4053402    4.4053402   -640.45888    9983.1981   -30329.773    18425.198    5709.7547   -30005.285    13033.329    85.494533 
   38800    1756.2329   -114.75043    1.5890765   -113.16136    22016.304    4.3885821    4.3885821    4.3885821    22016.304     56259.32   -26415.072    36204.665   -3885.8691   -19774.712   -15554.643    84.522565 
   38900    1766.6687   -114.76626     1.598519   -113.16774   -11598.549    4.3827985    4.3827985    4.3827985   -11598.549    27822.743   -44511.921   -18106.469    4456.9072    5814.0763   -35743.378    84.188835 
   39000    1940.9724   -114.93179    1.7562326   -113.17555    23466.626     4.370634     4.370634     4.370634    23466.626    17284.671    25738.269    27376.939    11030.992   -2027.7597    2942.7362    83.489778 
   39100    1488.1839   -114.55883    1.3465401   -113.21229   -8171.0348    4.3927022    4.3927022    4.3927022   -8171.0348    58400.137   -53854.631   -29058.609    6687.9455   -11719.713   -32346.371    84.760848 
   39200    1271.0958   -114.34348    1.1501142   -113.19337   -43023.356    4.4059553    4.4059553    4.4059553   -43023.356   -36364.221   -34782.807    -57923.04   -12400.458    18229.364   -19088.807    85.530355 
   39300    2121.9871   -115.07246    1.9200185   -113.15244    15623.475    4.3814732    4.3814732    4.3814732    15623.475    13353.766    16147.153    17369.505    2886.6288    2892.7113    -1286.928    84.112487 
   39400    1618.3789   -114.63126    1.4643432   -113.16691    13420.208    4.3919377    4.3919377    4.3919377    13420.208    20564.219   -27367.617    47064.022   -12318.323   -15019.651   -32933.461    84.716598 
   39500    1100.0081   -114.15665   0.99531042   -113.16134   -27993.809    4.4111699    4.4111699    4.4111699   -27993.809   -46284.369   -58424.464    20727.406   -20410.809    26237.822   -3438.1621    85.834398 
   39600    1515.8471   -114.51475    1.3715703   -113.14318   -15600.795    4.4010677    4.4010677    4.4010677   -15600.795   -61476.116   -31828.613    46502.345    -3704.948    13932.866    4629.1896    85.246026 
   39700    1981.0109   -114.93439    1.7924603   -113.14193     8451.664    4.3847232    4.3847232    4.3847232     8451.664    30761.435   -32860.032    27453.589   -4045.9703    3191.5019   -28411.026    84.299802 
   39800    1226.9617   -114.28894    1.1101808   -113.17876   -27513.215    4.3929609    4.3929609    4.3929609   -27513.215    692.76934   -22312.238   -60920.175   -12432.484    25343.358   -16118.865    84.775825 
   39900    1951.6089   -114.94067    1.7658568   -113.17481    -20968.98    4.4015863    4.4015863    4.4015863    -20968.98    -14454.61   -48855.773    403.44451    2666.7141    6828.3784     7741.389    85.276166 
   40000    2383.3908   -115.32704    2.1565421    -113.1705   -14598.875     4.388133     4.388133     4.388133   -14598.875    316.49431   -30649.209   -13463.911   -2544.3492   -74.243824   -16670.612    84.496625 
   40100    1162.8064   -114.22757    1.0521317   -113.17543    53090.131    4.3597251    4.3597251    4.3597251    53090.131    107297.67    20657.156    31315.567   -13143.179    6844.7502   -212.89232    82.866182 
   40200    1503.7451   -114.57874    1.3606202   -113.21812    -19394.77    4.3846126    4.3846126    4.3846126    -19394.77    5759.3564   -51934.117   -12009.549    32069.884    14370.986    2102.9154    84.293423 
   40300    2423.5416   -115.36772    2.1928714   -113.17485   -43250.926    4.4046842    4.4046842    4.4046842   -43250.926   -45073.357   -57178.049   -27501.371    26043.516   -30724.327   -11809.372    85.456348 
   40400     1606.456   -114.61028    1.4535552   -113.15672    13420.942    4.3839393    4.3839393    4.3839393    13420.942    48174.375    16027.821   -23939.369    111.27705    15930.026    -9882.529    84.254597 
   40500    1418.6964   -114.44357    1.2836663    -113.1599    10601.596    4.3867156    4.3867156    4.3867156    10601.596    4403.1591   -14161.157    41562.787    29317.027   -253.56101    15301.896    84.414769 
   40600    2256.2821   -115.18309    2.0415314   -113.14155   -17119.465    4.3996087    4.3996087    4.3996087   -17119.465    1227.1256   -55534.744    2949.2239    2487.9802   -17285.007    -11805.75    85.161276 
   40700    1762.4032   -114.74895    1.5946595   -113.15429    4368.1097    4.3836966    4.3836966    4.3836966    4368.1097    50062.682   -13594.147   -23364.206   -1936.2482    14465.555    6016.7875      84.2406 
   40800    1194.6066   -114.24982    1.0809052   -113.16892    24300.077    4.3794298    4.3794298    4.3794298    24300.077   -4589.1378   -11027.142     88516.51    34222.507    22013.687     18303.69    83.994861 
   40900    1950.3914   -114.92591    1.7647551   -113.16115    16014.213    4.3826664    4.3826664    4.3826664    16014.213     45999.05   -9108.3324    11151.923   -5319.8394   -9584.3765   -6442.2906    84.181223 
   41000    1168.1857   -114.23496    1.0569989   -113.17797    14419.154    4.3829744    4.3829744    4.3829744    14419.154    33659.913   -22109.606    31707.156   -4173.3921    13071.938    10225.158    84.198973 
   41100    1786.2632    -114.7913    1.6162485   -113.17505   -9053.6568    4.3887402    4.3887402    4.3887402   -9053.6568    5975.1601   -26097.136   -7038.9949      7252.33    27732.719    13826.929    84.531701 
   41200    1909.3445    -114.8956     1.727615   -113.16799    28480.342    4.3808275    4.3808275    4.3808275    28480.342     36153.85    18899.865    30387.311   -7126.0068   -26953.837   -15637.302    84.075308 
   41300    926.88079   -114.03285   0.83866122   -113.19419    10901.076    4.3949602    4.3949602    4.3949602    10901.076   -6329.6064    67734.344   -28701.508    7388.5943    16837.909    804.06439    84.891621 
   41400    2184.1839   -115.11709    1.9762955    -113.1408   -16539.801    4.4122247    4.4122247    4.4122247   -16539.801    11633.669    6814.5771   -68067.651    9526.6103    8900.9577    3958.4802    85.895983 
   41500    1665.8418   -114.64055    1.5072887   -113.13326    12648.119    4.3868727    4.3868727    4.3868727    12648.119   -28180.824    45632.558    20492.622   -2246.6607   -4029.2702   -19896.409    84.423839 
   41600    1411.3875   -114.42092    1.2770531   -113.14387     8203.289    4.3719373    4.3719373    4.3719373     8203.289    13045.311     52491.37   -40926.814    -10452.78    41325.317    1853.0847    83.564494 
   41700      2054.82    -115.0183    1.8592443   -113.15905    18188.159    4.3813398    4.3813398    4.3813398    18188.159    31060.812    22237.277    1266.3868    10633.099    -12099.35   -3938.3103    84.104803 
   41800    1383.2371   -114.42344     1.251582   -113.17186    19571.496    4.3873643    4.3873643    4.3873643    19571.496    2960.2452    49929.148    5825.0943    1101.1672    8601.2241   -5072.0312    84.452222 
   41900    1527.3121   -114.56115    1.3819441    -113.1792   -18818.914    4.3975647    4.3975647    4.3975647   -18818.914   -14387.743     10157.57   -52226.569   -8581.5732    33460.508   -2433.4726    85.042635 
   42000    1787.0578   -114.78031    1.6169674   -113.16334    9663.2282    4.3856784    4.3856784    4.3856784    9663.2282    24109.587    -8289.122    13169.219    9378.8078    4627.9192    14513.999    84.354904 
   42100    1599.1176   -114.60867    1.4469152   -113.16175    25711.748    4.3765087    4.3765087    4.3765087    25711.748    4051.1628    35927.608    37156.473   -2433.9672    22900.585   -3536.1285    83.826894 
   42200    1640.9794   -114.64981    1.4847926   -113.16502   -6669.7463    4.3954385    4.3954385    4.3954385   -6669.7463   -40768.344    7043.0635    13716.042    10899.359    25764.623   -5882.2561    84.919345 
   42300    1524.4363    -114.5287     1.379342   -113.14936   -9356.3938    4.3993412    4.3993412    4.3993412   -9356.3938   -35072.426   -70397.166    77400.411    40063.938   -1943.2923      5687.65    85.145741 
   42400    1546.5312   -114.53728    1.3993339   -113.13795    2318.8885    4.3958847    4.3958847    4.3958847    2318.8885   -47923.831    17923.491    36957.006   -12545.828    24841.937   -12455.474    84.945204 
   42500    1365.8084   -114.38159    1.2358121   -113.14578    9721.2085    4.3922408    4.3922408    4.3922408    9721.2085   -64412.096    64728.803    28846.919    11617.484     22371.16   -17136.971    84.734141 
   42600    1510.2247   -114.51155     1.366483   -113.14507    6321.7497    4.3974584    4.3974584    4.3974584    6321.7497   -35011.257    43506.895     10469.61    26350.939   -17726.956   -754.51219    85.036468 
   42700     1330.901   -114.35546    1.2042272   -113.15123   -12545.545     4.405144     4.405144     4.405144   -12545.545   -38736.759    28327.068   -27226.944   -6486.9746    25713.574   -10904.007    85.483116 
   42800    1184.4746   -114.22302    1.0717375   -113.15128   -1982.1061    4.3963414    4.3963414    4.3963414   -1982.1061   -66525.488   -32147.717    92726.886    23703.249    12528.768   -26199.818    84.971685 
   42900    2106.5116   -115.04661     1.906016    -113.1406    17599.879    4.3673922    4.3673922    4.3673922    17599.879    7243.7749   -19453.991    65009.853    22212.392   -13384.557   -3672.1574    83.304142 
   43000    1645.9014   -114.66826    1.4892462   -113.17902    22831.184    4.3770295    4.3770295    4.3770295    22831.184     37172.45   -3039.3049    34360.407   -2163.9207    36929.987   -11398.991    83.856824 
   43100    1381.9809    -114.4316    1.2504453   -113.18115   -32676.667    4.4066944    4.4066944    4.4066944   -32676.667    -44468.76   -79583.782    26022.541    38189.161    12631.839    -16002.77    85.573402 
   43200      2300.46    -115.2095    2.0815046   -113.12799   -42275.903    4.4147822    4.4147822    4.4147822   -42275.903   -58860.503   -51995.944   -15971.261   -12389.943    19613.834   -14736.758    86.045436 
   43300    1173.9907   -114.18326    1.0622515   -113.12101   -35755.215    4.4019515    4.4019515    4.4019515   -35755.215   -79846.559   -14928.351   -12490.736     18617.89    46859.746   -2298.9727    85.297394 
   43400    1459.6756   -114.44085    1.3207452   -113.12011   -11036.434    4.3726541    4.3726541    4.3726541   -11036.434   -41510.402   -18770.965    27172.066    42128.145    -302.6663   -16155.774    83.605603 
   43500     2033.833   -114.99641    1.8402548   -113.15615    11791.181    4.3740725    4.3740725    4.3740725    11791.181    2441.7161    7017.1176    25914.708   -21168.243    14137.844   -3647.8901    83.686988 
   43600    1596.0495   -114.63019    1.4441391   -113.18605   -21418.495    4.3884788    4.3884788    4.3884788   -21418.495   -68703.988   -10567.517     15016.02    19253.242    24911.824    1864.2913    84.516599 
   43700    1126.0163   -114.21184    1.0188432     -113.193    14664.852     4.384554     4.384554     4.384554    14664.852   -30888.526   -18675.868     93558.95    30924.289     -7519.56   -17101.908     84.29004 
   43800    1969.9724   -114.96427    1.7824725    -113.1818   -3389.1266     4.386116     4.386116     4.386116   -3389.1266    5197.8603    -21213.55    5848.3098   -18642.621   -3054.1069   -15364.186    84.380157 
   43900    2122.1998   -115.09163     1.920211   -113.17142   -989.33916    4.3783167    4.3783167    4.3783167   -989.33916   -29520.645   -19172.384    45725.011    27083.137    9908.5953    6370.2279    83.930831 
   44000    1364.2585   -114.41732    1.2344098   -113.18291    508.62466    4.3786644    4.3786644    4.3786644    508.62466   -25475.158    -36394.85    63395.882    22561.161   -5855.9459   -22301.435    83.950825 
   44100    1510.1724    -114.5488    1.3664357   -113.18237   -17475.066     4.387765     4.387765     4.387765   -17475.066    26120.712   -27593.425   -50952.486   -24890.579   -8485.3727    -17625.73    84.475365 
   44200    1646.1952   -114.66382     1.489512    -113.1743    1509.4758    4.3801181    4.3801181    4.3801181    1509.4758    40860.713   -40273.306    3941.0207    24198.008    7732.8251    32177.479    84.034469 
   44300    1468.8517    -114.5077    1.3290479   -113.17865   -7670.8018    4.3792662    4.3792662    4.3792662   -7670.8018    30003.408   -57580.452    4564.6388    28817.872    906.03034   -10025.164    83.985448 
   44400    1744.3985   -114.75807    1.5783684   -113.17971   -19621.819    4.3792782    4.3792782    4.3792782   -19621.819    17117.609   -32741.066   -43242.002   -3853.7809   -25848.229   -23392.325    83.986137 
   44500    1577.3734   -114.61872    1.4272406   -113.19148    9674.1312    4.3663138    4.3663138    4.3663138    9674.1312    76660.009   -29915.104   -17722.511    14681.354    4279.9385    31639.421    83.242447 
   44600    1469.2371   -114.54119    1.3293966   -113.21179   -16944.386    4.3767584    4.3767584    4.3767584   -16944.386   -1519.5472   -58583.373    9269.7616    41854.917   -4335.4593   -698.37011    83.841247 
   44700    1502.7523   -114.56389    1.3597219   -113.20416   -18966.191      4.39927      4.39927      4.39927   -18966.191    49340.124   -41315.108   -64923.588   -7688.4702   -25674.347   -7456.8958    85.141611 
   44800    1653.8176    -114.6658     1.496409   -113.16939   -12220.557    4.4034174    4.4034174    4.4034174   -12220.557    95086.522   -68193.555   -63554.639    8911.5417    12190.922    33930.349    85.382637 
   44900    1533.4149   -114.53065     1.387466   -113.14318   -13226.374    4.3917217    4.3917217    4.3917217   -13226.374    13887.672   -43166.038   -10400.756    22391.832   -5202.0403   -433.55536    84.704101 
   45000    1134.7578   -114.17482    1.0267527   -113.14807   -8866.2033    4.3818902    4.3818902    4.3818902   -8866.2033    28693.336   -9351.0075   -45940.938   -29847.126    -30962.02   -8852.3503    84.136504 
   45100     2099.741   -115.05847    1.8998898   -113.15858   -4322.7493    4.3687564    4.3687564    4.3687564   -4322.7493    34288.893   -21384.274   -25872.866   -11371.736    10740.919    25089.429    83.382226 
   45200    2014.9976   -115.00448    1.8232122   -113.18127    10257.217    4.3762107    4.3762107    4.3762107    10257.217   -5345.4944    44815.288   -8698.1417     6400.248   -25365.139   -6691.2633    83.809772 
   45300    1003.2067   -114.11578   0.90772254   -113.20806   -10328.092    4.3904595    4.3904595    4.3904595   -10328.092   -11120.568    20579.242   -40442.951    2921.7296   -22386.135   -20146.572    84.631086 
   45400    1667.5814   -114.69115    1.5088627   -113.18228    6574.4546    4.3798046    4.3798046    4.3798046    6574.4546   -6518.5045   -5916.0984    32157.967   -30429.611    13308.046    3384.9146    84.016427 
   45500    1937.5042   -114.92257    1.7530946   -113.16948    11650.727    4.3811013    4.3811013    4.3811013    11650.727   -9643.6633    38748.575    5847.2692   -5305.7491   -22183.432    -2449.817     84.09107 
   45600     1583.554   -114.61353    1.4328329    -113.1807   -31579.798    4.3858176    4.3858176    4.3858176   -31579.798   -34919.485   -33253.936   -26565.974   -11734.676    -7704.217    -26697.58    84.362941 
   45700     814.5994   -113.93483   0.73706666   -113.19776    4154.3469    4.3667412    4.3667412    4.3667412    4154.3469   -23864.195   -52904.158    89231.394   -44994.189    6643.7154   -14398.869    83.266894 
   45800    1733.3308   -114.77902    1.5683541   -113.21067    2268.8304    4.3646094    4.3646094    4.3646094    2268.8304    1254.4893   -27362.699    32914.701    33050.669    5932.0185      7804.14    83.145005 
   45900    1884.6912   -114.90606    1.7053082   -113.20075   -6927.5909     4.384198     4.384198     4.384198   -6927.5909    16224.557   -53445.193    16437.863   -5341.5588    -12596.85    5754.3544    84.269513 
   46000      1200.08   -114.28499    1.0858576   -113.19913   -16923.794    4.3847703    4.3847703    4.3847703   -16923.794   -13720.121   -63849.082    26797.822   -44064.395    4597.2096   -7530.5515    84.302514 
   46100    1081.6299   -114.16763   0.97868151   -113.18894    379.50014    4.3781568    4.3781568    4.3781568    379.50014   -5569.9402    -35270.21    41978.651    28198.704     16793.22    -3742.616    83.921632 
   46200     2109.214   -115.08315    1.9084612   -113.17469   -8640.6029      4.37774      4.37774      4.37774   -8640.6029    23576.323   -26205.469   -23292.662    10597.985   -25129.912    21708.798    83.897669 
   46300    1846.5034   -114.85197    1.6707551   -113.18121   -5546.4802    4.3803878    4.3803878    4.3803878   -5546.4802    3936.7325   -4648.8262   -15927.347   -38439.703    18116.762   -6926.0929    84.049992 
   46400    1121.0234   -114.20848    1.0143256   -113.19415   -5425.9957     4.391506     4.391506     4.391506   -5425.9957   -13819.822   -33484.968    31026.803    16697.809   -3951.6136   -8659.2641    84.691619 
   46500    1588.5333   -114.62683    1.4373383   -113.18949   -28781.713    4.3863996    4.3863996    4.3863996   -28781.713   -15700.887   -25696.165   -44948.086    25683.427   -20615.272    36280.063    84.396526 
   46600    1940.8654   -114.93562    1.7561358   -113.17948    34630.776    4.3634356    4.3634356    4.3634356    34630.776    49883.785    37819.617    16188.927   -2544.9875   -4342.8957   -1088.0352    83.077941 
   46700    1913.3819   -114.92868    1.7312682   -113.19741    24021.821    4.3695223    4.3695223    4.3695223    24021.821    20304.838   -15431.814    67192.437    29044.702      6081.46   -17488.358    83.426087 
   46800    713.63512   -113.85848   0.64571205   -113.21277     3515.952    4.3903848    4.3903848    4.3903848     3515.952     43513.64   -37458.453    4492.6691    18085.283   -5233.4729    32618.954    84.626769 
   46900    1572.2962   -114.60529    1.4226466   -113.18265    7583.6158    4.3939912    4.3939912    4.3939912    7583.6158    11993.681   -22699.053    33456.219   -112.65386   -16793.037    7241.5478    84.835486 
   47000    2223.0662   -115.18344     2.011477   -113.17196   -10172.701    4.3822974    4.3822974    4.3822974   -10172.701    228.68356   -35394.358    4647.5711    14248.858    10883.684   -6948.5711    84.159964 
   47100     757.2194   -113.88276   0.68514802   -113.19761    15056.126    4.3615782    4.3615782    4.3615782    15056.126    70815.038   -25237.996    -408.6651    15241.832      -5958.2    48514.247    82.971889 
   47200    1587.1617   -114.63505    1.4360973   -113.19896    11643.673    4.3726114    4.3726114    4.3726114    11643.673    3803.4256     11650.26    19477.333   -16221.265   -18479.134    10878.978    83.603152 
   47300    2083.3621    -115.0554    1.8850698   -113.17033   -25909.212    4.4021465    4.4021465    4.4021465   -25909.212   -15624.316   -42818.853   -19284.468   -19924.217   -818.71831    10291.808    85.308731 
   47400    1139.4442   -114.19648     1.030993   -113.16549   -679.89393    4.3858519    4.3858519    4.3858519   -679.89393    55556.627    -20963.13   -36633.178    10180.413    7743.9899    51589.344    84.364916 
   47500    1664.4156   -114.66149    1.5059982   -113.15549   -14798.028    4.3650354    4.3650354    4.3650354   -14798.028   -16224.828    -14279.31   -13889.946   -20103.219   -8939.7972   -15381.022    83.169348 
   47600    1603.5764   -114.63053    1.4509497   -113.17958   -1622.9734    4.3633685    4.3633685    4.3633685   -1622.9734   -2753.4026   -21204.783    19089.265   -22262.276   -13940.217    15998.949    83.074105 
   47700    1961.1322   -114.97115    1.7744736   -113.19668    627.62533    4.3708714    4.3708714    4.3708714    627.62533    48325.152   -28098.028   -18344.248    17038.743    12236.374    51064.773    83.503385 
   47800    1754.1896   -114.77996    1.5872276   -113.19273   -21293.788    4.3900171    4.3900171    4.3900171   -21293.788   -19534.289   -25160.225   -19186.848   -31475.319   -1700.0817   -14095.398    84.605505 
   47900    1007.1004   -114.11357   0.91124564   -113.20232   -16671.391    4.3759724    4.3759724    4.3759724   -16671.391   -16952.316   -32778.019   -283.83831   -20480.355   -1525.4996    24910.995    83.796084 
   48000    1121.7679   -114.21327    1.0149992   -113.19827    28785.563     4.359197     4.359197     4.359197    28785.563     101314.5   -5685.6754   -9272.1314     16611.57    7137.8894     40096.46    82.836071 
   48100    2545.1775   -115.49129    2.3029301   -113.18836    8050.7382    4.3699183    4.3699183    4.3699183    8050.7382    21727.717   -10225.756    12650.253   -16157.045   -4814.8942   -15214.275    83.448775 
   48200     1257.688   -114.34268    1.1379826    -113.2047    47502.603    4.3760187    4.3760187    4.3760187    47502.603    65609.564     50235.36    26662.886   -6316.1514    12022.596    29880.892    83.798745 
   48300    1103.1954   -114.20142   0.99819438   -113.20323   -9391.3126     4.396525     4.396525     4.396525   -9391.3126   -8241.5973   -13559.436   -6372.9044    10479.411   -1547.7695    33218.371    84.982329 
   48400    2359.7086   -115.28345    2.1351139   -113.14834   -7046.5923    4.3975855    4.3975855    4.3975855   -7046.5923    -30496.45    4843.0677    4513.6058    11417.506   -3975.6577   -15257.887    85.043842 
   48500    1460.5908   -114.47334    1.3215732   -113.15176   -4275.9717    4.3751452    4.3751452    4.3751452   -4275.9717    43253.483   -36119.203   -19962.195   -4017.8359    8256.1109    56131.469    83.748571 
   48600    1010.9266   -114.08583   0.91470761   -113.17112   -14615.035    4.3608829    4.3608829    4.3608829   -14615.035   -18341.562   -130.50895   -25373.034    7797.3313    5030.0203    24540.607    82.932218 
   48700    1709.9079   -114.73271    1.5471606   -113.18555    17951.145    4.3564822    4.3564822    4.3564822    17951.145   -17366.122    41993.744    29225.814    22725.184    4553.1874   -8160.3495    82.681401 
   48800     1460.497   -114.52736    1.3214884   -113.20587   -18871.692    4.3841459    4.3841459    4.3841459   -18871.692    29189.349   -49250.937   -36553.489   -24069.578   -8969.9387    44908.557     84.26651 
   48900    1632.5888   -114.65782    1.4772007   -113.18062   -40015.324     4.394617     4.394617     4.394617   -40015.324   -31380.436   -28859.499   -59806.038    1780.5882    13142.099     5380.955    84.871735 
   49000    1811.8924   -114.80164    1.6394383    -113.1622   -3734.4173    4.3659702    4.3659702    4.3659702   -3734.4173   -18167.252    16413.183   -9449.1825    87.686218    20296.501    10104.549    83.222795 
   49100    933.16519   -114.02476   0.84434748   -113.18041     8870.433    4.3568348    4.3568348    4.3568348     8870.433     39282.85   -8239.6862   -4431.8651   -23916.954    -9642.287    70171.457     82.70148 
   49200    1855.5207   -114.86999    1.6789142   -113.19107   -10611.892     4.376485     4.376485     4.376485   -10611.892   -13398.023    7794.4759   -26232.128   -6581.2727    14346.702   -20589.129    83.825532 
   49300    1923.7769   -114.92004    1.7406738   -113.17937   -40248.669    4.3947418    4.3947418    4.3947418   -40248.669   -20700.639   -43871.463   -56173.904   -2605.3759    12368.153    18822.093     84.87897 
   49400    1669.2477   -114.68278    1.5103704   -113.17241   -25260.306    4.3801927    4.3801927    4.3801927   -25260.306     12871.62   -47381.171   -41271.368   -20909.913   -11392.058    61188.076    84.038761 
   49500    1807.1159   -114.79859    1.6351165   -113.16347    3720.3728    4.3704851    4.3704851    4.3704851    3720.3728   -494.40138    34715.741   -23060.221   -21167.371    27107.347   -20043.894    83.481248 
   49600    1756.7077   -114.76324     1.589506   -113.17374    -1941.253     4.367081     4.367081     4.367081    -1941.253    12711.972    16828.835   -35364.566    21552.231    29058.126    22664.193    83.286335 
   49700    1463.6243   -114.51797     1.324318   -113.19366     14142.65    4.3643788    4.3643788    4.3643788     14142.65    36028.263    25907.056   -19507.369   -13585.203   -18045.669    37954.713    83.131826 
   49800    1762.9723   -114.79315    1.5951744   -113.19798   -6187.5921    4.3783495    4.3783495    4.3783495   -6187.5921   -327.74278   -4945.5712   -13289.462    -38039.51   -11502.897   -15849.328    83.932715 
   49900    2006.2082   -115.00389    1.8152593   -113.18863    26416.631    4.3676949    4.3676949    4.3676949    26416.631    34704.538    57576.843   -13031.488    13476.406    6628.9865    21128.002     83.32146 
   50000    1579.7966   -114.62388    1.4294332   -113.19445    2174.1789    4.3673844    4.3673844    4.3673844    2174.1789    44207.275   -17189.607   -20495.132   -3415.2131   -13295.359    33470.298    83.303692 
   50100    1248.4621   -114.32162    1.1296347   -113.19198   -19587.902    4.3802851    4.3802851    4.3802851   -19587.902   -45714.608   -18326.884     5277.787   -45733.317   -33801.479   -1901.0794    84.044081 
   50200    2420.5212   -115.35852    2.1901384   -113.16838     6087.267    4.3745266    4.3745266    4.3745266     6087.267    6421.1035   -5158.1255    16998.823   -9111.6581    13603.897    3152.3464    83.713052 
   50300    1686.4516   -114.71191    1.5259368   -113.18598    -2032.352    4.3735161    4.3735161    4.3735161    -2032.352   -1572.3438   -4451.1763   -73.535846    3831.6012   -15278.253    14724.401    83.655056 
   50400    979.13129   -114.08684   0.88593857   -113.20091   -4984.6557     4.363234     4.363234     4.363234   -4984.6557   -13259.135   -27050.379    25355.547   -59702.168   -35214.495   -582.72168    83.066426 
   50500    2191.2105   -115.17062    1.9826533   -113.18797    30388.863    4.3748318    4.3748318    4.3748318    30388.863    18995.707    30893.185    41277.696    16246.134    12070.407   -3077.5425    83.730575 
   50600    1465.7388   -114.50118    1.3262313   -113.17495   -23210.028    4.4016246    4.4016246    4.4016246   -23210.028   -55948.714   -3492.9425   -10188.427   -13372.975   -14678.464    1824.9589    85.278394 
   50700     884.3939   -113.95145   0.80021819   -113.15123    -5883.085    4.3891361    4.3891361    4.3891361    -5883.085   -50553.875    28951.377    3953.2423   -48636.763   -14591.933   -9583.2773     84.55458 
   50800    2219.2192   -115.12468    2.0079962   -113.11668    28266.875    4.3715836    4.3715836    4.3715836    28266.875    18812.793    49677.665    16310.168    32525.471    8476.9455   -9438.1061    83.544209 
   50900    1109.5327     -114.162    1.0039285   -113.15807   -518.72446     4.371217     4.371217     4.371217   -518.72446   -48400.037    22810.959    24032.904   -51427.443   -27765.197   -5002.4215    83.523193 
   51000    1382.2194   -114.41864    1.2506612   -113.16798    7156.8848    4.3833725    4.3833725    4.3833725    7156.8848    14319.535   -3400.6246    10551.744   -18978.296   -6395.7708   -2198.1314    84.221917 
   51100     1891.792   -114.86226    1.7117332   -113.15053   -3781.1199    4.3915469    4.3915469    4.3915469   -3781.1199    38660.574   -6251.8578   -43752.076    6490.8685   -7731.7331   -15144.315    84.693989 
   51200    1083.9057   -114.14377   0.98074067   -113.16303    6566.3924    4.3701741    4.3701741    4.3701741    6566.3924   -15872.635    43835.522   -8263.7095   -44433.367   -38411.574   -496.61159     83.46343 
   51300    1700.5662   -114.70603     1.538708   -113.16732    17677.716     4.362293     4.362293     4.362293    17677.716    57846.064    13421.115   -18234.032   -6485.0809   -17569.558   -6489.8868    83.012694 
   51400    1878.6283   -114.87173    1.6998224   -113.17191    18167.355    4.3764674    4.3764674    4.3764674    18167.355    29156.147    -14051.39    39397.308   -4537.2729    5812.2802   -10182.497    83.824523 
   51500    802.98076   -113.91248   0.72655387   -113.18593    19769.806    4.3819608    4.3819608    4.3819608    19769.806   -12597.251    45460.415    26446.253   -49947.495   -26637.081      10569.2    84.140571 
   51600    2122.8788   -115.08022    1.9208253    -113.1594    149.23647     4.386931     4.386931     4.386931    149.23647   -22070.504     21094.16    1424.0532    15351.972    -20348.41   -1962.2456    84.427203 
   51700    1920.0206   -114.89788     1.737275   -113.16061    19049.444    4.3691503    4.3691503    4.3691503    19049.444   -13628.038    25233.183    45543.187   -27026.713    9682.7196   -2546.5546    83.404782 
   51800    1119.3778   -114.19262    1.0128366   -113.17978    11087.362    4.3585311    4.3585311    4.3585311    11087.362   -40400.256    48786.698    24875.644   -48469.495   -29490.299    216.18828    82.798115 
   51900      1858.99   -114.87216    1.6820533   -113.19011    10095.559    4.3693282    4.3693282    4.3693282    10095.559    6312.7461    29011.137   -5037.2076     19157.75   -14309.172    16105.186    83.414973 
   52000    1552.7052    -114.5977    1.4049203   -113.19278    20711.647    4.3829865    4.3829865    4.3829865    20711.647     -16380.8    52181.457    26334.285   -25486.434    9603.2252    7815.1646    84.199674 
   52100    1370.8996   -114.42682    1.2404188    -113.1864   -28156.995      4.39411      4.39411      4.39411   -28156.995    -68474.15    9977.1197   -25973.954   -31394.403   -20028.449   -9217.4104    84.842366 
   52200    2175.4082   -115.12887     1.968355   -113.16051    18503.373    4.3665399    4.3665399    4.3665399    18503.373    30064.042    48037.599   -22591.521    9869.9355   -1134.2577    20237.059    83.255381 
   52300       1471.9   -114.50017     1.331806   -113.16836    37447.736    4.3536099    4.3536099    4.3536099    37447.736    61001.838    36696.588    14644.783   -32214.461   -3018.4889    18007.134    82.517972 
   52400    1641.4433   -114.66692    1.4852124    -113.1817   -18388.594     4.376737     4.376737     4.376737   -18388.594   -19856.531   -14762.756   -20546.497   -28010.617   -29810.296    -6644.245    83.840015 
   52500    2301.0451   -115.25232     2.082034   -113.17028   -4532.9028    4.3755854    4.3755854    4.3755854   -4532.9028    3849.9067    32843.305    -50291.92    12143.236   -9258.9468    26466.112    83.773855 
   52600    1294.5188   -114.35112    1.1713078   -113.17982    11828.657    4.3746265    4.3746265    4.3746265    11828.657    40324.377    -10340.39    5501.9845   -18397.739    1818.4029    30023.066    83.718787 
   52700    1480.9771   -114.51577    1.3400192   -113.17575   -6225.5109    4.3779925    4.3779925    4.3779925   -6225.5109   -25854.244    25896.678   -18718.967     -34417.6   -27149.962   -22285.879    83.912186 
   52800    1950.9457   -114.93602    1.7652567   -113.17076    4183.0846    4.3666402    4.3666402    4.3666402    4183.0846    10223.464    46342.176   -44016.386    29240.362   -6108.3693    33775.991    83.261113 
   52900     1303.693   -114.36266    1.1796088   -113.18305     13653.51    4.3674005    4.3674005    4.3674005     13653.51    56853.499   -14469.248   -1423.7203   -26262.352   -303.09976    18265.293    83.304614 
   53000    1365.5883   -114.42574     1.235613   -113.19013   -19183.694    4.3864866    4.3864866    4.3864866   -19183.694   -54336.421    18584.397   -21799.057   -31987.343   -35739.883    -15474.22    84.401552 
   53100    1825.0751   -114.81705    1.6513663   -113.16568   -20627.866    4.3916674    4.3916674    4.3916674   -20627.866     4073.942     1970.745   -67928.284    16916.827   -3047.0771     28843.52    84.700956 
   53200     1758.685   -114.75451    1.5912952   -113.16322   -5698.6048    4.3677158    4.3677158    4.3677158   -5698.6048    35397.746   -24207.143   -28286.417   -28854.445    4311.7615    12751.206    83.322658 
   53300    1184.1956   -114.23976    1.0714851   -113.16827    24425.125    4.3566065    4.3566065    4.3566065    24425.125    9523.4659    68651.664   -4899.7533   -42940.395   -24866.383   -14499.325    82.688479 
   53400    1797.1045   -114.80209    1.6260579   -113.17603   -7230.2158    4.3848561    4.3848561    4.3848561   -7230.2158    38743.367    4643.6538   -65077.668    9732.2857   -10825.127    17191.168    84.307469 
   53500    1810.6468    -114.8056    1.6383113   -113.16729   -8681.5055    4.3884367    4.3884367    4.3884367   -8681.5055    11602.246   -8830.3586   -28816.404   -34020.642    5698.5652    11766.279     84.51417 
   53600     1119.165   -114.17839     1.012644   -113.16575    15464.568    4.3728262    4.3728262    4.3728262    15464.568    36957.178    29916.563   -20480.036   -43471.884   -19676.674   -2689.3184    83.615473 
   53700     2095.823   -115.06112    1.8963447   -113.16477   -7614.8062    4.3694871    4.3694871    4.3694871   -7614.8062      13695.2     10689.08   -47228.699    26844.392   -36044.972   -7872.7662    83.424074 
   53800     1578.558    -114.6099    1.4283125   -113.18158    6226.6493    4.3754105    4.3754105    4.3754105    6226.6493   -16972.188   -1960.2753    37612.411   -36086.691    12421.788    906.84471    83.763806 
   53900    1551.6944   -114.57277    1.4040057   -113.16877   -28683.624    4.4003514    4.4003514    4.4003514   -28683.624   -32100.899   -16899.117   -37050.857   -23006.466   -25646.342   -5072.1764    85.204413 
   54000    2162.0797   -115.07936    1.9562952   -113.12306   -30850.862    4.4051022    4.4051022    4.4051022   -30850.862   -33675.717   -11780.511   -47096.358    2937.4471   -8701.7244    1373.6939    85.480682 
   54100    1217.3278    -114.2248    1.1014638   -113.12334   -6652.9664     4.379566     4.379566     4.379566   -6652.9664   -24828.642   -53407.948    58277.691   -69643.469    6692.7187    4456.7142    84.002696 
   54200    1804.7101   -114.75504    1.6329396    -113.1221     14396.39    4.3550838    4.3550838    4.3550838     14396.39    22201.451    30531.683   -9543.9648    11062.305   -28005.487   -12256.716    82.601808 
   54300    1598.5639   -114.61464    1.4464142   -113.16823   -15736.734    4.3709201    4.3709201    4.3709201   -15736.734   -29990.483    -11112.42   -6107.2979   -26306.636    3814.7128   -2587.6874    83.506177 
   54400    1360.1294   -114.40196    1.2306736   -113.17129    -34189.06    4.3995896    4.3995896    4.3995896    -34189.06   -47327.371   -63539.616    8299.8067   -58228.718    18.848836     4636.343    85.160167 
   54500    1910.7787   -114.88566    1.7289127   -113.15675   -10634.871    4.3798556    4.3798556    4.3798556   -10634.871    -7296.364    21418.671    -46026.92      39172.4    -12758.96    5769.5339    84.019361 
   54600    862.09719   -113.94287   0.78004366   -113.16283    20115.036    4.3564344    4.3564344    4.3564344    20115.036    12157.209    20231.088    27956.811   -44151.466    -4645.223   -14122.498    82.678682 
   54700    1963.6664   -114.94652    1.7767666   -113.16975    3711.1205    4.3694795    4.3694795    4.3694795    3711.1205   -410.74712   -14069.449    25613.558   -21383.754   -496.17308    8058.1721    83.423635 
   54800     1696.954   -114.70433    1.5354396   -113.16889    398.00821     4.386072     4.386072     4.386072    398.00821    11861.985     10050.17    -20718.13    24853.858   -10773.574   -1290.9898    84.377621 
   54900     1603.089   -114.61127    1.4505086   -113.16076   -30193.277    4.3939194    4.3939194    4.3939194   -30193.277   -35161.186   -24545.686    -30872.96   -44465.693    12482.977   -1455.7025    84.831328 
   55000    1930.6485   -114.89515    1.7468913   -113.14826    11023.668     4.373842     4.373842     4.373842    11023.668    521.44321   -23043.696    55593.256     8194.135    1735.4194   -1669.8082    83.673758 
   55100    1736.0452   -114.72331    1.5708102    -113.1525    7496.9272    4.3554144    4.3554144    4.3554144    7496.9272    18079.472   -1256.7294    5668.0389    26808.079   -6077.0717   -1368.1882    82.620621 
   55200    1837.2763   -114.83637    1.6624062   -113.17396   -4777.5787    4.3744448    4.3744448    4.3744448   -4777.5787    -23699.07    3399.0817     5967.252   -41713.413    9605.2215    -29.02178    83.708359 
   55300     1766.275    -114.7606    1.5981627   -113.16243   -3694.2238    4.3873689    4.3873689    4.3873689   -3694.2238   -6296.1668   -39239.023    34452.519    33708.084   -10666.077   -6264.2523    84.452489 
   55400    1390.0587   -114.41621    1.2577543   -113.15845    9020.6708    4.3743263    4.3743263    4.3743263    9020.6708    35297.231   -7157.3375   -1077.8812     32450.65   -5617.5549    2683.2009    83.701558 
   55500    1932.5018   -114.90273    1.7485682   -113.15416   -9221.9573      4.37084      4.37084      4.37084   -9221.9573   -27045.962    32405.708   -33025.618   -41566.331    31550.774   -7588.4666    83.501587 
   55600    1115.0849   -114.18087    1.0089523   -113.17192    15214.567     4.364172     4.364172     4.364172    15214.567    14753.586   -41444.966    72335.083      63246.1   -5696.9018    13.125212    83.120005 
   55700    1740.4949    -114.7603    1.5748363   -113.18546   -10220.474    4.3673453    4.3673453    4.3673453   -10220.474   -8268.7197   -17922.932   -4469.7698    39368.411    7646.7722    2545.9776    83.301454 
   55800    1664.8325   -114.68801    1.5063755   -113.18163   -13579.297    4.3800411    4.3800411    4.3800411   -13579.297    14012.263    -3719.521   -51030.633   -15144.598    20998.881     6496.189    84.030035 
   55900    762.46974   -113.87489   0.68989864   -113.18499   -14403.931    4.3710443    4.3710443    4.3710443   -14403.931   -48658.302   -72644.493    78091.003    79269.824    4182.8625    -3061.532    83.513299 
   56000    1882.0589   -114.86949    1.7029264   -113.16657    -7356.499    4.3715976    4.3715976    4.3715976    -7356.499    32457.767   -44476.538   -10050.726   -8673.9675   -5232.1265     10327.64    83.545017 
   56100    1407.6225   -114.43874    1.2736465   -113.16509   -28754.655    4.3817419    4.3817419    4.3817419   -28754.655    705.43875   -49724.816   -37244.588    19638.592    22578.545    8603.2849    84.127964 
   56200     1492.366   -114.51567    1.3503241   -113.16535    -5708.555    4.3668794    4.3668794    4.3668794    -5708.555   -28078.761   -45573.697    56526.793    57368.118    7591.3885    3953.5675    83.274799 
   56300    1959.0797   -114.93572    1.7726165   -113.16311    2590.5971    4.3640127    4.3640127    4.3640127    2590.5971    517.65667   -34916.383    42170.518   -43446.743    -10301.75    5301.6447    83.110909 
   56400    1405.8632   -114.44892    1.2720546   -113.17686   -17921.532    4.3750273    4.3750273    4.3750273   -17921.532   -2926.7839   -28453.446   -22384.367    20270.761    15982.163    15596.476    83.741803 
   56500    1592.3928   -114.62169    1.4408305   -113.18085   -7578.8544    4.3696249    4.3696249    4.3696249   -7578.8544   -47261.939   -16029.635    40555.011    32074.802    11220.372    1120.9412    83.431965 
   56600    2006.7513   -114.98663    1.8157508   -113.17088    5705.0679    4.3693838    4.3693838    4.3693838    5705.0679   -6059.7309   -33804.215    56979.149   -45208.041    655.34703   -7895.9096    83.418156 
   56700    1578.6758   -114.60065     1.428419   -113.17223    11000.612    4.3744699    4.3744699    4.3744699    11000.612    2353.8405    6752.1638    23895.831    26335.035   -4752.9231    12621.291      83.7098 
   56800    1343.3639    -114.3921    1.2155039    -113.1766    3143.6128     4.375219     4.375219     4.375219    3143.6128   -33455.977   -11363.519    54250.334    18784.518    9158.7004    3010.4938    83.752812 
   56900    1892.0445   -114.87813    1.7119616   -113.16617   -2413.1874    4.3766409    4.3766409    4.3766409   -2413.1874    -18264.98   -7070.2129     18095.63   -35642.087   -6692.7272    5794.5637    83.834492 
   57000    1526.6991   -114.55251    1.3813894   -113.17112    15178.563    4.3612502    4.3612502    4.3612502    15178.563   -29994.571   -321.00239    75851.264     53926.34   -10845.629    5159.4419    82.953171 
   57100    1333.8646   -114.38978    1.2069088   -113.18288    2345.6518    4.3620313    4.3620313    4.3620313    2345.6518   -12950.674    2882.5631    17105.066    10868.692    12474.461    6018.9533    82.997753 
   57200    1520.1231   -114.55033    1.3754394   -113.17489   -13364.225    4.3822881    4.3822881    4.3822881   -13364.225   -40090.691    12265.143   -12267.127    -11614.96    4516.1616    -4005.052    84.159426 
   57300    1284.3166   -114.33494    1.1620766   -113.17286    5411.6685    4.3701888    4.3701888    4.3701888    5411.6685   -14803.947   -11757.612    42796.565    75847.223   -6399.0024   -5384.0548     83.46427 
   57400    2187.9616   -115.14445    1.9797136   -113.16474    9846.8693    4.3642327    4.3642327    4.3642327    9846.8693    18491.482     17837.88    -6788.754    -8204.336    9190.4137    12264.116    83.123478 
   57500    1369.0632   -114.42581    1.2387571   -113.18705   -6340.5534     4.366148     4.366148     4.366148   -6340.5534   -42942.802    27456.106   -3534.9639    37285.403    22494.143   -2252.2396    83.232962 
   57600    960.42374   -114.06792   0.86901158    -113.1989    6856.9906    4.3681332    4.3681332    4.3681332    6856.9906   -39139.907    7634.6056    52076.273    64535.841   -11098.001   -217.57954     83.34655 
   57700    2269.2861   -115.22702    2.0532978   -113.17372   -12139.112    4.3839775    4.3839775    4.3839775   -12139.112   -7707.4931   -8347.9412   -20361.901   -27076.378   -4555.3389    -9836.246      84.2568 
   57800    1480.0504   -114.51096    1.3391807   -113.17177   -4985.1525    4.3751261    4.3751261    4.3751261   -4985.1525   -5640.8007   -43071.151    33756.494      61416.7   -453.90851    18646.314    83.747477 
   57900      1573.39   -114.59048    1.4236363   -113.16685     25820.54    4.3581908    4.3581908    4.3581908     25820.54    22956.421    1725.8556    52779.343    33100.195    12949.935   -9522.9267    82.778722 
   58000    1718.3071   -114.72698    1.5547604   -113.17222    12063.641    4.3700072    4.3700072    4.3700072    12063.641    34912.505    4858.9627    -3580.545   -12857.042    -8695.676   -14734.085    83.453868 
   58100    1645.9418   -114.65113    1.4892827   -113.16184   -14450.642    4.3890294    4.3890294    4.3890294   -14450.642   -27448.071   -63027.937    47124.082    49311.558   -4781.9646    16857.563    84.548416 
   58200    1543.8273   -114.54331    1.3968874   -113.14642   -6323.9804    4.3837707    4.3837707    4.3837707   -6323.9804    -5006.252   -3892.0801   -10073.609    1948.7737    21503.168   -12396.312    84.244875 
   58300    1584.9351   -114.58585    1.4340826   -113.15177   -12604.009     4.363092     4.363092     4.363092   -12604.009   -15246.717   -13015.435   -9549.8745   -3658.2457    2854.2293   -8930.1753    83.058315 
   58400     2115.175   -115.06891    1.9138548   -113.15505    15077.551    4.3538175    4.3538175    4.3538175    15077.551    -15440.41    1648.3177    59024.746    22543.933   -11622.242    9264.2642    82.529773 
   58500    1371.5011   -114.42625     1.240963   -113.18529    9749.1452    4.3630647    4.3630647    4.3630647    9749.1452   -8577.9598     17418.48    20406.915    1236.5717    33536.285   -9080.6784    83.056754 
   58600    1464.7243   -114.51053    1.3253134   -113.18521   -13806.377      4.38677      4.38677      4.38677   -13806.377   -44773.386   -13472.901    16827.155   -12213.755     15427.98   -14115.578    84.417911 
   58700    2216.6762    -115.1652    2.0056952    -113.1595   -17753.873    4.3783569    4.3783569    4.3783569   -17753.873   -30026.462   -26215.123    2979.9663    3180.9019   -9447.8228    4779.0726    83.933143 
   58800    1192.4701   -114.24334     1.078972   -113.16437    1115.7267    4.3542901    4.3542901    4.3542901    1115.7267   -3648.7791    19300.404   -12304.445    6357.7351    52333.483    6574.4979    82.556652 
   58900    1464.1031    -114.5018    1.3247512   -113.17705    10022.814    4.3549138    4.3549138    4.3549138    10022.814   -31806.425    11013.183    50861.683   -23817.899    12297.183   -15270.968    82.592135 
   59000    1755.7669   -114.76584    1.5886548   -113.17719    -1571.875    4.3731148    4.3731148    4.3731148    -1571.875   -10501.447   -18393.988    24179.811   -11916.732   -5774.9115    19971.162    83.632029 
   59100    1019.4777    -114.1029   0.92244485   -113.18046   -24283.571    4.3836708    4.3836708    4.3836708   -24283.571   -21135.132    1348.3191     -53063.9    2535.6707    27923.358    9296.5388    84.239116 
   59200    1817.4089   -114.79845    1.6444298   -113.15402    6631.9472    4.3730428    4.3730428    4.3730428    6631.9472   -19620.548   -12020.275    51536.665   -26197.658    13254.324    -11526.03    83.627901 
   59300    1782.8881    -114.7723    1.6131946   -113.15911    4467.0236     4.356645     4.356645     4.356645    4467.0236    16100.688    1530.7633   -4230.3807   -13705.125   -15436.402     30327.21     82.69067 
   59400    1232.9042   -114.29725    1.1155576    -113.1817    17208.457     4.353474     4.353474     4.353474    17208.457    16425.779    29807.898     5391.693    13380.545    19451.624    23793.603    82.510245 
   59500    2428.8485   -115.37544    2.1976732   -113.17777   -4305.0164    4.3717001    4.3717001    4.3717001   -4305.0164   -36631.283    8688.5804    15027.653   -16624.711    7139.1115   -4873.9968    83.550893 
   59600    1163.9163   -114.23993    1.0531359    -113.1868    -18268.39    4.3824398    4.3824398    4.3824398    -18268.39   -16398.894    8029.8652   -46436.141   -6959.6494   -29470.405    26448.939    84.168171 
   59700    1684.3521    -114.6992    1.5240372   -113.17516    -8115.936    4.3657123    4.3657123    4.3657123    -8115.936   -6333.6088    8157.0997   -26171.299    8918.2871    6318.0701     24360.74    83.208048 
   59800     2446.776   -115.37297    2.2138944   -113.15908    21283.442    4.3539616    4.3539616    4.3539616    21283.442   -9079.1562    16562.162     56367.32    1362.9844    4710.9845   -13204.613     82.53797 
   59900    912.66383   -114.01573   0.82579741   -113.18994     4504.788    4.3615713    4.3615713    4.3615713     4504.788    13499.485    23534.266   -23519.387    2291.1357   -21528.538    44571.858    82.971497 
   60000    1619.1522   -114.65228    1.4650429   -113.18724   -16903.321    4.3834997    4.3834997    4.3834997   -16903.321   -15101.986   -7325.7402   -28282.235    5847.0957   -18641.336    7381.0294    84.229251 
   60100    2091.9238   -115.05679    1.8928166   -113.16398    -5109.842    4.3793391    4.3793391    4.3793391    -5109.842   -13393.712   -21899.029    19963.216     16422.69    13905.939   -5492.5487    83.989641 
   60200    999.62963   -114.07862    0.9044859   -113.17413    15893.476    4.3523254    4.3523254    4.3523254    15893.476    27483.837      51625.6   -31429.008   -3223.9351   -14817.495    51963.781    82.444952 
   60300    1848.6996   -114.84585    1.6727422   -113.17311    16344.543    4.3521321    4.3521321    4.3521321    16344.543    18570.414    22844.823    7618.3911    7392.9668   -19160.112    6672.4003     82.43397 
   60400    1741.6061   -114.76082    1.5758418   -113.18498   -3761.8506    4.3696574    4.3696574    4.3696574   -3761.8506   -22178.893    23684.233   -12790.892    12972.802     20276.56   -5050.8856    83.433824 
   60500     1059.978   -114.15066   0.95909036   -113.19157   -35624.275    4.3838139    4.3838139    4.3838139   -35624.275   -13189.949   -11147.863   -82535.014   -10084.898    12538.872    52719.776    84.247365 
   60600    2218.5602   -115.17638    2.0073999   -113.16898     2247.112    4.3631098    4.3631098    4.3631098     2247.112   -63.731767   -6282.6178    13087.686   -4371.2994   -9191.4468    9421.7906    83.059332 
   60700    1448.9185   -114.48873    1.3110119   -113.17771     13803.99    4.3504754    4.3504754    4.3504754     13803.99    14921.105    15840.806    10650.059   -2952.5398    23544.028    -9056.674    82.339864 
   60800    1524.7238   -114.57013    1.3796021   -113.19053   -21171.117    4.3642287    4.3642287    4.3642287   -21171.117    10787.292   -16022.038   -58278.606     5155.526    36968.475     37990.67    83.123247 
   60900    1837.6113   -114.84599    1.6627093   -113.18328   -3986.8526    4.3771167    4.3771167    4.3771167   -3986.8526    11252.668   -26290.344    3077.1188   -24520.424   -25270.915   -915.60824    83.861836 
   61000    1439.6804   -114.48053     1.302653   -113.17788   -42131.787    4.3831337    4.3831337    4.3831337   -42131.787    -33845.16     -65722.4     -26827.8   -30094.297     7653.992    5495.5475    84.208153 
   61100    1990.3177   -114.95924    1.8008813   -113.15836    17520.939    4.3601037    4.3601037    4.3601037    17520.939    76520.052    -22899.95   -1057.2857    23366.386    19100.692    15814.897    82.887767 
   61200    1332.3884   -114.38034     1.205573   -113.17477   -10932.456    4.3574123    4.3574123    4.3574123   -10932.456   -18632.322   -25046.658    10881.614   -57407.339   -34324.312    1511.4555     82.73437 
   61300    895.41484   -113.99969   0.81019016    -113.1895   -24789.919    4.3705923    4.3705923    4.3705923   -24789.919   -32119.951   -52516.584    10266.777   -17013.536   -13141.573   -1354.5439    83.487393 
   61400    2280.5378   -115.22425    2.0634786   -113.16077   -9095.4213    4.3717721    4.3717721    4.3717721   -9095.4213    15059.777   -34144.738    -8201.303    14810.927    9458.5405    1581.1707     83.55502 
   61500    989.75109   -114.07343   0.89554759   -113.17789    -29797.94    4.3822609    4.3822609    4.3822609    -29797.94    -66709.61   -28907.582    6223.3733   -62818.031    -5375.753     1917.467     84.15786 
   61600    1972.1939   -114.94583    1.7844825   -113.16134   -9366.4623    4.3760814    4.3760814    4.3760814   -9366.4623   -36321.752    5899.6117    2322.7534   -16718.088   -19288.224   -12991.154    83.802346 
   61700    2377.9874   -115.30299     2.151653   -113.15134    21969.858    4.3631932    4.3631932    4.3631932    21969.858    25807.998    35971.136    4130.4393    13776.073    26980.912    7302.3321    83.064091 
   61800    814.91548   -113.92279   0.73735265   -113.18544    3362.7583    4.3682042    4.3682042    4.3682042    3362.7583    -30789.66    37303.837    3574.0984   -54792.814    4112.3214   -2415.8894    83.350614 
   61900    1731.1446   -114.74441    1.5663761   -113.17803    3083.1923    4.3764147    4.3764147    4.3764147    3083.1923    18379.414    16109.734   -25239.572   -7870.3336    -10761.09   -6149.2248    83.821494 
   62000       1665.4   -114.68222    1.5068889   -113.17533    10225.573    4.3724322    4.3724322    4.3724322    10225.573   -6803.8994    22861.831    14618.787    27689.006    5021.5805   -15884.471    83.592874 
   62100    1152.5472   -114.22593    1.0428489   -113.18308    2476.8476    4.3615438    4.3615438    4.3615438    2476.8476   -37134.172    31060.628    13504.088   -67951.937    4216.7755    2937.4333    82.969929 
   62200    1523.5889   -114.55999    1.3785752   -113.18142    -2826.342    4.3671626    4.3671626    4.3671626    -2826.342    -8394.463   -5467.7604    5383.1974    3835.5696   -1712.9035   -18682.172    83.290999 
   62300    1752.6851   -114.76133    1.5858663   -113.17547   -21729.219    4.3756464    4.3756464    4.3756464   -21729.219   -33133.727    -31792.05   -261.87957    30399.897   -3869.0404   -18245.136    83.777356 
   62400    1771.3841   -114.77799    1.6027856    -113.1752   -16271.547    4.3696038    4.3696038    4.3696038   -16271.547   -28881.791   -36409.184    16476.335   -62608.445    10338.465    20904.604    83.430755 
   62500    1631.7029   -114.64941    1.4763991   -113.17301    5241.1483    4.3668878    4.3668878    4.3668878    5241.1483    13317.694    -18867.09    21272.841    10843.545    2528.3372   -32810.336    83.275282 
   62600    1919.2229   -114.90522    1.7365532   -113.16866   -11802.287    4.3741637    4.3741637    4.3741637   -11802.287   -15068.867   -13474.722   -6863.2717    14528.773   -2125.2275   -26429.528    83.692223 
   62700    1642.1835    -114.6551    1.4858821   -113.16921   -1249.6236    4.3713213    4.3713213    4.3713213   -1249.6236    5787.5031   -18894.453    9358.0796   -40110.139    22979.046    25456.274    83.529173 
   62800    1301.5159   -114.35317     1.177639   -113.17553    21857.852    4.3626396    4.3626396    4.3626396    21857.852    57886.076    16920.478   -9232.9983   -6403.6786    10894.972   -36678.485    83.032481 
   62900    2108.1281   -115.08237    1.9074786   -113.17489    10519.237    4.3635044    4.3635044    4.3635044    10519.237    49036.668   -116.35427   -17362.603    13007.163   -10643.728   -14726.417    83.081867 
   63000    1510.2263   -114.55772    1.3664845   -113.19124    8112.1178    4.3614864    4.3614864    4.3614864    8112.1178    51651.572   -25837.483   -1477.7359   -10686.259     4889.085     27503.39     82.96665 
   63100    729.16384   -113.86517   0.65976276    -113.2054   -4313.4555    4.3695557    4.3695557    4.3695557   -4313.4555    21537.956    1715.2075   -36193.529   -32335.666    10997.724   -41010.401    83.428003 
   63200    2065.2212   -115.05586    1.8686556   -113.18721   -17465.482    4.3714819    4.3714819    4.3714819   -17465.482    5183.1003   -24546.595   -33032.953    25466.489    9976.1022   -12417.801    83.538381 
   63300    2052.8716    -115.0381    1.8574814   -113.18062    5416.8955    4.3612273    4.3612273    4.3612273    5416.8955    15780.871    7308.9949     -6839.18   -592.52983   -15241.738    23498.391    82.951868 
   63400    1009.6895    -114.1051   0.91358832   -113.19151   -18744.836    4.3690322    4.3690322    4.3690322   -18744.836   -23981.139   -27050.039   -5203.3321    -37778.63    28487.264   -37016.865     83.39802 
   63500    1709.1227   -114.73069    1.5464501   -113.18424   -10954.004    4.3665623    4.3665623    4.3665623   -10954.004   -10873.435   -31746.194    9757.6155    30285.917    2980.1956   -13907.831    83.256658 
   63600    2206.7762   -115.17525    1.9967375   -113.17851    10760.692    4.3648683    4.3648683    4.3648683    10760.692    35466.768   -18065.359    14880.668    9120.7414   -11952.241    11635.892    83.159798 
   63700    1411.9608   -114.47119    1.2775718   -113.19362   -9849.1847    4.3669289    4.3669289    4.3669289   -9849.1847   -2659.6745    -11030.02    -15857.86   -28194.261    22672.145   -34779.455     83.27763 
   63800    1006.6338   -114.10787   0.91082341   -113.19705    19207.092    4.3597922    4.3597922    4.3597922    19207.092    70530.985   -40073.827    27164.118    30353.998    7227.3727   -7114.4721    82.870006 
   63900    1794.0103   -114.80971    1.6232582   -113.18645     122.5094    4.3668973    4.3668973    4.3668973     122.5094    3622.0902   -22.276414   -3232.2856    27154.045   -7541.1783    17158.902    83.275823 
   64000       1323.1   -114.38549    1.1971687   -113.18832    3328.7734    4.3692902    4.3692902    4.3692902    3328.7734     19805.74    23557.588   -33377.008   -12382.626   -8177.4232   -9289.8386    83.412794 
   64100    1576.0152   -114.60728    1.4260116   -113.18127    6698.1975    4.3682986    4.3682986    4.3682986    6698.1975    14450.432   -10226.902    15871.062   -223.32771    1889.5372   -11807.563    83.356015 
   64200    1289.0289   -114.34717    1.1663404   -113.18083    6888.4429    4.3689758    4.3689758    4.3689758    6888.4429    10084.748     10529.76    50.821242    9614.4818   -7899.6309    45438.765    83.394792 
   64300    1598.4153   -114.62333    1.4462797   -113.17705   -11246.565    4.3728558    4.3728558    4.3728558   -11246.565    16906.699   -22884.599   -27761.794   -3334.3409    -17459.24     24753.34    83.617169 
   64400    2004.6888   -114.98645    1.8138845   -113.17256    -11306.15    4.3663355    4.3663355    4.3663355    -11306.15    -29340.96   -30412.944    25835.454   -35935.372    23.295286   -27484.241    83.243688 
   64500    1058.9231   -114.14564   0.95813584   -113.18751    -18037.57     4.364518     4.364518     4.364518    -18037.57    1022.0782   -34771.433   -20363.356    7345.2402   -9255.2116    52430.923    83.139777 
   64600    1569.7007   -114.61411    1.4202981   -113.19381   -20244.145    4.3664972    4.3664972    4.3664972   -20244.145     173.6097   -18245.135   -42660.909    13458.131   -26951.241     38039.88    83.252937 
   64700    2192.4016   -115.16851    1.9837311   -113.18477   -6832.1526    4.3688064    4.3688064    4.3688064   -6832.1526   -22919.984   -24880.204    27303.731   -50614.285    13459.061   -20180.282     83.38509 
   64800    1142.2044   -114.22812    1.0334905   -113.19463    -32952.43    4.3757357    4.3757357    4.3757357    -32952.43    -18112.71   -65276.906   -15467.675    7751.8322   -9085.4352    48898.106    83.782484 
   64900      1244.89   -114.31679    1.1264026   -113.19039    -8076.457    4.3669771    4.3669771    4.3669771    -8076.457    27147.006    -22016.48   -29359.897    21424.281    -32912.08    14629.648    83.280387 
   65000    2339.2255   -115.28704    2.1165804   -113.17046    11389.192    4.3659598    4.3659598    4.3659598    11389.192    15209.946    4750.5608    14207.069   -12315.682     13278.02   -20396.567    83.222201 
   65100    1431.7439   -114.48297    1.2954719    -113.1875    766.19028    4.3697212    4.3697212    4.3697212    766.19028    12805.331   -1070.6383   -9436.1223    3571.4187    2377.2775    50510.855    83.437479 
   65200    1117.5816   -114.20329    1.0112113   -113.19208    25826.411    4.3719118    4.3719118    4.3719118    25826.411    60133.154    10267.744    7078.3345    22192.419   -30965.429    1423.8742    83.563031 
   65300    2258.9903   -115.21047    2.0439819   -113.16649   -9975.1766    4.3857944    4.3857944    4.3857944   -9975.1766    5607.8735    -31477.63   -4055.7734   -4302.6726    8650.2784   -19808.603    84.361602 
   65400    1522.8505   -114.55641    1.3779071    -113.1785   -6964.7491    4.3665178    4.3665178    4.3665178   -6964.7491    44025.835   -41830.119   -23089.963   -7903.5063   -13560.658    50882.827    83.254113 
   65500    1501.6848   -114.53524    1.3587559   -113.17649    13723.392    4.3464251    4.3464251    4.3464251    13723.392    30592.761    10334.047    243.36911    19533.635   -18437.351    9001.2609    82.110101 
   65600     1605.806   -114.64643     1.452967   -113.19346   -14423.455    4.3638633    4.3638633    4.3638633   -14423.455   -19353.724   -34256.319    10339.678    5580.8714   -2153.1415   -9207.8339     83.10237 
   65700    1731.8195   -114.76052    1.5669867   -113.19353   -20823.813    4.3726931    4.3726931    4.3726931   -20823.813    23637.325   -52515.106   -33593.659   -26776.189   -126.17318    39130.598    83.607835 
   65800    1974.2124   -114.96971    1.7863089    -113.1834   -12789.533    4.3720133    4.3720133    4.3720133   -12789.533   -4587.9257    -20513.14   -13267.534    29509.571    -4259.287    3961.2841    83.568849 
   65900    1129.9921   -114.21453    1.0224406   -113.19209   -31903.583     4.369619     4.369619     4.369619   -31903.583   -37977.711    -56253.65   -1479.3889    20316.659   -10874.444   -9152.3653     83.43163 
   66000    1368.9811   -114.42231    1.2386829   -113.18363   -84.324224    4.3583759    4.3583759    4.3583759   -84.324224    40649.938    1278.0993    -42181.01   -34174.233    30753.319    19848.565    82.789271 
   66100    1850.0762   -114.85701    1.6739878   -113.18302   -863.15806     4.366242     4.366242     4.366242   -863.15806    1846.2651    3772.5292   -8208.2685    38470.846     16975.42   -218.78164     83.23834 
   66200    1463.6221   -114.51016     1.324316   -113.18585   -1608.7529    4.3703607    4.3703607    4.3703607   -1608.7529    30227.975   -42042.669    6988.4345    13410.202   -15106.904   -4635.5239     83.47412 
   66300    1310.5124   -114.37487    1.1857791   -113.18909   -9622.0241    4.3703646    4.3703646    4.3703646   -9622.0241    27060.353   -19803.306    -36123.12    -39058.52    31194.175     10759.05    83.474343 
   66400    1787.1607   -114.79828    1.6170606   -113.18122   -2776.5133    4.3664971    4.3664971    4.3664971   -2776.5133   -10961.476    44199.899   -41567.963    19255.122    12311.541     238.3987     83.25293 
   66500     1528.453   -114.56847    1.3829764   -113.18549    15235.918    4.3567229    4.3567229    4.3567229    15235.918    51991.107   -30409.195    24125.843   -14579.769   -14810.701   -5436.4892    82.695109 
   66600    1463.1338   -114.52039    1.3238742   -113.19652   -6495.8957    4.3689063    4.3689063    4.3689063   -6495.8957   -1989.4103   -44067.063    26568.786   -52946.111    22334.864    6093.5259    83.390809 
   66700    2366.0264   -115.31493    2.1408304    -113.1741   -4445.1176    4.3712278    4.3712278    4.3712278   -4445.1176    15547.746    16637.335   -45520.434    18993.538   -22818.177   -3235.2994    83.523814 
   66800    1410.5881   -114.45996    1.2763297   -113.18363   -11007.421    4.3703503    4.3703503    4.3703503   -11007.421   -9323.5372   -24769.412    1070.6877   -37227.475    -16658.35   -7103.4488    83.473523 
   66900    1357.7406   -114.41197    1.2285123   -113.18346   -27863.224    4.3755927    4.3755927    4.3755927   -27863.224   -47749.362   -64095.541     28255.23   -31050.959    17343.573    15898.108    83.774275 
   67000     2192.372   -115.15375    1.9837043   -113.17005    2443.3298     4.364494     4.364494     4.364494    2443.3298    24169.152    15754.458   -32593.621    30914.581   -10777.543    -12785.65    83.138409 
   67100    1178.7942   -114.25636    1.0665977   -113.18976    1407.4131    4.3621674    4.3621674    4.3621674    1407.4131    20102.196   -8877.7045   -7002.2518   -36861.265   -11105.634   -20133.992    83.005521 
   67200    1033.1529   -114.13376   0.93481845   -113.19894   -14438.311     4.369818     4.369818     4.369818   -14438.311   -35956.963   -43040.906    35682.938   -30600.627   -1373.5234    5010.9221    83.443029 
   67300    1655.6332   -114.68116    1.4980517    -113.1831    17861.114    4.3733599    4.3733599    4.3733599    17861.114    33237.111    20279.468    66.763733     32841.71    22473.805   -13167.878    83.646092 
   67400    1532.6555   -114.55993    1.3867789   -113.17315   -15089.129    4.3828525    4.3828525    4.3828525   -15089.129     9556.423   -30356.622   -24467.188   -33158.905     14214.65   -13572.742    84.191947 
   67500    1464.8647   -114.49711    1.3254404   -113.17167   -5013.7106    4.3703316    4.3703316    4.3703316   -5013.7106    3674.9547   -13255.002   -5461.0844   -36173.169   -7251.2168    10307.078    83.472454 
   67600    1746.3274   -114.75541    1.5801138    -113.1753    1177.1042    4.3564554    4.3564554    4.3564554    1177.1042    19201.592    22644.042   -38314.321    25394.559    36209.101   -1506.8827    82.679875 
   67700    1570.1485   -114.61438    1.4207034   -113.19368   -6813.3088    4.3610634    4.3610634    4.3610634   -6813.3088    11135.818    -11147.89   -20427.854    -16661.15    15739.039   -33136.457    82.942512 
   67800    1787.7633   -114.81764    1.6176058   -113.20003    3794.1183    4.3645789    4.3645789    4.3645789    3794.1183    42175.021   -34481.324    3688.6579    -25068.36   -6816.0905     13996.95    83.143257 
   67900    1640.3105   -114.67565    1.4841874   -113.19147   -3272.9867    4.3775622    4.3775622    4.3775622   -3272.9867    14470.518    7710.4754   -31999.953    4966.6882    24107.372    21907.299    83.887445 
   68000    1886.9469   -114.88377    1.7073492   -113.17643   -18468.389    4.3746216    4.3746216    4.3746216   -18468.389   -15150.957   -9400.0577   -30854.152   -449.45384   -6079.8402   -45505.321    83.718509 
   68100    1142.0165   -114.21338    1.0333205   -113.18006     8127.794    4.3564854    4.3564854    4.3564854     8127.794    42888.911    4788.6208    -23294.15   -26580.346   -5535.0518    29371.247    82.681584 
   68200    1684.6788   -114.70974    1.5243328   -113.18541    90.113306    4.3643905    4.3643905    4.3643905    90.113306    8956.0433    5957.3657   -14643.069   -4749.4937    9433.4953     33453.28    83.132491 
   68300    1971.8479   -114.96015    1.7841695   -113.17598     3915.843    4.3721169    4.3721169    4.3721169     3915.843   -32335.131    60954.054   -16871.394     9238.604   -3929.8188   -21929.883    83.574789 
   68400    979.85056   -114.08192   0.88658938   -113.19533   -12737.277    4.3683771    4.3683771    4.3683771   -12737.277    16109.777   -23909.297    -30412.31   -36013.096    -4015.813    42597.362     83.36051 
   68500    1403.3884   -114.46425    1.2698153   -113.19443    4643.4906    4.3615845    4.3615845    4.3615845    4643.4906    5806.7857    11313.462   -3189.7761   -4531.3889   -4004.1412    20673.038    82.972252 
   68600     2013.316    -115.0111    1.8216906   -113.18941    22452.883    4.3546852    4.3546852    4.3546852    22452.883   -10652.323    49012.136    28998.836     53799.35    1469.8348   -13341.921    82.579128 
   68700    1545.2027    -114.6005    1.3981319   -113.20237    3725.8092    4.3639402    4.3639402    4.3639402    3725.8092   -1795.3791    10512.836    2459.9711   -17276.262   -7318.9314    32974.014    83.106762 
   68800    1400.3352   -114.46505    1.2670527     -113.198   -1257.8565    4.3706781    4.3706781    4.3706781   -1257.8565   -30690.913    13097.962    13819.381   -15720.233   -3997.2198     23929.14     83.49231 
   68900    1754.9025   -114.78064    1.5878727   -113.19277   -7291.8055    4.3693343    4.3693343    4.3693343   -7291.8055   -32690.421   -27193.696      38008.7    38927.862      11695.9   -16593.934    83.415321 
   69000     1764.831   -114.78152    1.5968561   -113.18466    26984.842    4.3581851    4.3581851    4.3581851    26984.842    11411.126    31595.407    37947.993    8368.7733    1473.5472   -6043.6109      82.7784 
   69100    1852.6348   -114.86398    1.6763029   -113.18768    11997.313    4.3583695    4.3583695    4.3583695    11997.313   -26098.804    16491.146    45599.598   -17105.981   -107.12428    20160.839    82.788908 
   69200    1224.0779   -114.30345    1.1075714   -113.19588   -15539.667    4.3709865    4.3709865    4.3709865   -15539.667   -27431.603   -52144.271    32956.874    13783.172    2303.4088   -1476.3358    83.509985 
   69300    1410.8346   -114.47002    1.2765528   -113.19347   -7810.0544    4.3667904    4.3667904    4.3667904   -7810.0544   -9931.5302    9685.5077   -23184.141    10480.283    13817.536   -50965.312    83.269709 
   69400    2017.7376   -115.00948    1.8256914   -113.18378    15355.208      4.36442      4.36442      4.36442    15355.208   -41235.135    63166.886    24133.872   -11659.617    2965.3716    1026.4349    83.134181 
   69500    1649.1586   -114.68019    1.4921934     -113.188    7280.8308    4.3657102    4.3657102    4.3657102    7280.8308   -32334.744    31001.212    23176.024    15364.117   -4464.7806   -2535.4805    83.207926 
   69600    1156.7686   -114.24131    1.0466685   -113.19464   -5134.8301    4.3735507    4.3735507    4.3735507   -5134.8301    2326.2757    10870.172   -28600.938    5168.3488    21564.609   -57229.643    83.657043 
   69700    1707.8737   -114.71541    1.5453201   -113.17009   -24609.599    4.3831039    4.3831039    4.3831039   -24609.599   -46276.341    8999.1328    -36551.59    -219.0246    3667.8718    22238.864    84.206436 
   69800       1469.8   -114.49606     1.329906   -113.16616   -7358.4922    4.3694678    4.3694678    4.3694678   -7358.4922   -17339.551    9500.4205   -14236.345    15975.287   -16250.481    10102.916    83.422969 
   69900      2017.91   -114.98836    1.8258474   -113.16251      9365.22    4.3559963    4.3559963    4.3559963      9365.22    29071.897    3132.4591   -4108.6956   -10305.075    10073.188   -42055.752    82.653742 
   70000     1540.978   -114.58182    1.3943093   -113.18751   -18559.854    4.3622479    4.3622479    4.3622479   -18559.854   -8921.0274    11155.801   -57914.335    2913.7415    34251.965    35486.089    83.010116 
   70100    1208.8257   -114.29597    1.0937709    -113.2022   -7000.8704    4.3676526    4.3676526    4.3676526   -7000.8704    3453.2413    13350.564   -37806.417    17676.794   -5074.0643    29897.896    83.319042 
   70200    2598.8895   -115.52716    2.3515298   -113.17563    5168.7635    4.3734581    4.3734581    4.3734581    5168.7635    15456.081    13614.248   -13564.038   -2386.2649   -9247.3042   -15173.129    83.651729 
   70300    1212.7624   -114.28021    1.0973329   -113.18288   -5435.9486    4.3781716    4.3781716    4.3781716   -5435.9486     25982.53    19215.193   -61505.569    6143.6849    33088.656    21079.851    83.922485 
   70400     1335.952   -114.37445    1.2087975   -113.16565   -7477.3206    4.3749694    4.3749694    4.3749694   -7477.3206    11143.773   -1300.8288   -32274.906    17606.194   -2783.4451    28425.356    83.738477 
   70500    1990.2719    -114.9511    1.8008399   -113.15026    15649.525    4.3644217    4.3644217    4.3644217    15649.525    49590.434    5892.5449   -8534.4024   -4784.3825    315.31923   -35816.677    83.134273 
   70600    1495.0299   -114.52216    1.3527345   -113.16942    5013.3632    4.3609296    4.3609296    4.3609296    5013.3632    26098.772    7387.5473   -18446.229   -11175.246    17977.332    9228.1231     82.93488 
   70700     1673.777   -114.68913    1.5144686   -113.17466   -12308.614    4.3708965    4.3708965    4.3708965   -12308.614    25755.188   -36956.916   -25724.112    17466.547    5088.8993    29484.878    83.504825 
   70800    1615.9412   -114.63751    1.4621376   -113.17537   -1201.9501    4.3702605    4.3702605    4.3702605   -1201.9501    40511.996   -17407.999   -26709.847    3099.3597    208.43858   -65322.084    83.468377 
   70900    2041.2012   -115.01375    1.8469217   -113.16683   -11452.413    4.3729811    4.3729811    4.3729811   -11452.413   -9210.8742    7688.8468   -32835.212   -5565.7767    14194.347    7775.6047     83.62436 
   71000    1271.5243   -114.32461    1.1505019   -113.17411    4761.9019    4.3651771    4.3651771    4.3651771    4761.9019    12646.159    30953.253   -29313.706    19653.121    17955.552    11479.925    83.177449 
   71100    1489.3561   -114.51961    1.3476007   -113.17201    23476.414     4.365985     4.365985     4.365985    23476.414    68818.266    26653.023   -25042.046    4588.5489   -7284.7849   -51701.351    83.223642 
   71200    1652.4508   -114.65855    1.4951722   -113.16338   -14445.654    4.3859364    4.3859364    4.3859364   -14445.654   -25443.815    8159.9483   -26053.094   -23408.581    13420.294    21397.562    84.369795 
   71300    1411.4565    -114.4371    1.2771155   -113.15998    1513.9815    4.3722262    4.3722262    4.3722262    1513.9815    14730.032   -73.007401   -10115.081    7130.9447     17149.52    477.35654    83.581061 
   71400    2013.7702   -114.97298    1.8221016   -113.15088    15200.028    4.3592394    4.3592394    4.3592394    15200.028     38480.26    8691.6396   -1571.8139    11162.043   -5457.4631   -13333.031    82.838487 
   71500    828.43403   -113.93979   0.74958452    -113.1902   -22470.798    4.3699766    4.3699766    4.3699766   -22470.798   -39535.429   -23560.026   -4316.9385    -36981.35    239.72502    8924.3433    83.452114 
   71600    1118.7766    -114.2065    1.0122926   -113.19421   -8031.3085    4.3726313    4.3726313    4.3726313   -8031.3085    1327.6433   -51919.226    26497.657   -15456.997    25653.101    32666.831    83.604293 
   71700     2376.125   -115.31969    2.1499678   -113.16972    4223.4496    4.3782265    4.3782265    4.3782265    4223.4496   -2117.1539   -15853.256    30640.759    11828.034   -11583.841    6175.0378    83.925643 
   71800    707.45744   -113.82003   0.64012236   -113.17991    8762.5336    4.3812209    4.3812209    4.3812209    8762.5336   -50112.052    23195.356    53204.297   -33596.265    11152.849    13341.433    84.097961 
   71900    1742.6396   -114.72221     1.576777   -113.14543    10503.299    4.3807328    4.3807328    4.3807328    10503.299    2065.4467    10247.235    19197.216   -11244.337    1076.0396    31663.814    84.069855 
   72000    1746.1009   -114.70755    1.5799088   -113.12764   -3298.4052    4.3859136    4.3859136    4.3859136   -3298.4052   -35631.592   -32090.412    57826.788    14432.442    12268.993   -11001.697    84.368478 
   72100    1385.7596   -114.39204    1.2538644   -113.13818   -24875.382    4.3852617    4.3852617    4.3852617   -24875.382   -72252.311   -11446.891    9073.0562   -32757.533    12922.583    21439.466    84.330861 
   72200    2361.9945   -115.26685    2.1371823   -113.12967    18099.149    4.3613569    4.3613569    4.3613569    18099.149    34836.252    3061.1189    16400.076    12745.145   -9027.9119    10872.939    82.959262 
   72300    813.00993   -113.90806   0.73562847   -113.17243    4067.3265    4.3621325    4.3621325    4.3621325    4067.3265    -25199.25    4199.8862    33201.343    26593.666    5599.4835   -24834.853     83.00353 
   72400    1607.3519   -114.63395    1.4543658   -113.17958   -17530.903    4.3819618    4.3819618    4.3819618   -17530.903   -49404.719   -6724.3463    3536.3546   -27283.026    3562.1051     -2771.59    84.140631 
   72500    1860.6931   -114.84063    1.6835942   -113.15704    23948.891    4.3792629    4.3792629    4.3792629    23948.891    10224.484    21314.207    40307.982    13579.493   -1949.2199    25556.888    83.985255 
   72600    860.59707    -113.9435   0.77868632   -113.16481   -5649.6759    4.3790579    4.3790579    4.3790579   -5649.6759   -17236.294   -13082.824     13370.09    24289.935    4728.0603   -13500.328    83.973461 
   72700    1987.9025   -114.94633    1.7986959   -113.14763    11872.543    4.3642051    4.3642051    4.3642051    11872.543    12111.376    9153.0818     14353.17   -17217.762    8126.2869   -2175.8269    83.121897 
   72800    1476.8403   -114.49895    1.3362762   -113.16267    21374.432    4.3511107    4.3511107    4.3511107    21374.432    31872.179    6468.2964    25782.821    15040.375   -2347.4369    44321.767     82.37594 
   72900    1309.4579   -114.37406    1.1848251   -113.18924   -25911.474    4.3757542    4.3757542    4.3757542   -25911.474   -29730.387   -55150.598    7146.5623     40703.87   -216.74379   -24061.401    83.783552 
   73000    2358.7033   -115.29744    2.1342043   -113.16323    -5051.495    4.3815317    4.3815317    4.3815317    -5051.495   -9001.2688    -6998.147    844.93072   -2313.2497    10258.152    1320.8258    84.115859 
   73100    1072.2033   -114.14532   0.97015206   -113.17517   -3340.9675    4.3847795    4.3847795    4.3847795   -3340.9675   -2217.2553   -16891.739    9086.0915    20896.584   -17515.011    37181.518    84.303047 
   73200    1721.0207   -114.71429    1.5572157   -113.15708   -3587.8944    4.3801823    4.3801823    4.3801823   -3587.8944   -41786.983    6709.7039    24313.596    30602.966    10452.352   -21207.351    84.038167 
   73300    1870.2399   -114.83799    1.6922323   -113.14575    37640.421    4.3589548    4.3589548    4.3589548    37640.421    19146.338    95650.746   -1875.8215   -13426.608    -1958.578    10105.726    82.822263 
   73400    959.46977   -114.04952   0.86814841   -113.18137   -978.55975    4.3674476    4.3674476    4.3674476   -978.55975    8789.5027    7040.6983    -18765.88    10612.589   -19524.237     42080.07    83.307312 
   73500    1946.5985   -114.92717    1.7613232   -113.16585   -20078.038    4.3864901    4.3864901    4.3864901   -20078.038   -37531.186   -9350.7569   -13352.172    20272.887    28497.899   -19934.553    84.401753 
   73600    1533.0386   -114.55777    1.3871255   -113.17065   -15287.281    4.3765591    4.3765591    4.3765591   -15287.281    -2664.701   -2428.0455   -40769.096   -1907.6098   -30499.078    16239.488    83.829791 
   73700    998.35303   -114.08716    0.9033308   -113.18383    -6375.291    4.3582952    4.3582952    4.3582952    -6375.291    36836.216   -13586.122   -42375.967   -243.84851   -23445.981    46941.385    82.784673 
   73800    2133.9333    -115.0995    1.9308277   -113.16867    21922.558    4.3724832    4.3724832    4.3724832    21922.558    -9977.814     51050.42    24695.069    19934.389    11116.863   -13377.849    83.595798 
   73900    1026.1714   -114.09922   0.92850145   -113.17072   -12800.481    4.3967551    4.3967551    4.3967551   -12800.481    1031.4678    30466.731   -69899.643   -6548.4112   -36196.475    13037.205    84.995675 
   74000     1730.841    -114.7132    1.5661013    -113.1471   -29137.204    4.3897668    4.3897668    4.3897668   -29137.204   -16513.556   -16237.179   -54660.877    4252.6948    -8166.227    31266.652    84.591039 
   74100    1969.0623   -114.91708    1.7816489   -113.13543     13281.73    4.3602796    4.3602796    4.3602796     13281.73   -16863.403    66768.165   -10059.573    3790.9477    39876.423   -10734.654    82.897801 
   74200    1356.9954   -114.38941    1.2278379   -113.16157    7496.9699    4.3611426    4.3611426    4.3611426    7496.9699    48935.985    20310.293   -46755.368   -89.878737   -7493.0238    21807.988    82.947034 
   74300    2049.1887   -115.01073     1.854149   -113.15658    1411.4084    4.3875475    4.3875475    4.3875475    1411.4084    26682.476   -15491.261     -6956.99    1624.5707    -1533.256    22254.784    84.462805 
   74400    1136.9611   -114.17687    1.0287463   -113.14812   -19685.915    4.4002953    4.4002953    4.4002953   -19685.915   -47917.545    46341.663   -57481.864   -2963.2022    26734.965    -11680.73    85.201154 
   74500    1665.7839   -114.63866    1.5072363   -113.13143    2039.8717    4.3842145    4.3842145    4.3842145    2039.8717    19735.941    7381.3681   -20997.694    11631.374   -5314.0436    21503.321    84.270461 
   74600    1855.2991   -114.80334    1.6787136   -113.12462    49681.489    4.3518089    4.3518089    4.3518089    49681.489    54551.529     42491.01    52001.929    10763.106   -2107.9414    7185.8512    82.415602 
   74700    621.35774   -113.74099   0.56221754   -113.17877    25870.762     4.365271     4.365271     4.365271    25870.762    24653.143     48216.29    4742.8526    2797.1306    22308.231   -6718.8797    83.182818 
   74800    2091.1424   -115.03428    1.8921096   -113.14217   -8598.8633    4.3966123    4.3966123    4.3966123   -8598.8633   -17003.865   -31187.665    22394.941    4010.0019   -8014.0664    6520.1024    84.987394 
   74900    1090.7244   -114.13107   0.98691039   -113.14416    1521.7836     4.386574     4.386574     4.386574    1521.7836   -36646.972    10591.488    30620.835    10363.886    1917.4372    7333.6447    84.406596 
   75000    1369.0562    -114.3894    1.2387508   -113.15065   -3326.3263    4.3650754    4.3650754    4.3650754   -3326.3263   -3229.9884    33793.283   -40542.274   -15028.645    41606.006   -11584.248    83.171636 
   75100    1908.8023   -114.87446    1.7271244   -113.14734    35871.537    4.3485286    4.3485286    4.3485286    35871.537    30324.093    14042.063    63248.453    18738.925    1453.5752    -2682.082    82.229374 
   75200    1019.0295   -114.11928   0.92203931   -113.19724   -24928.363    4.3785873    4.3785873    4.3785873   -24928.363   -38567.156   -31439.345   -4778.5891   -3475.1389    3936.6142    8294.2826    83.946393 
   75300    2426.2674   -115.33224    2.1953378    -113.1369    -30527.14    4.4021394    4.4021394    4.4021394    -30527.14   -17931.515   -34824.479   -38825.428    1348.5816    29013.106   -14441.301    85.308317 
   75400    1230.2001   -114.25283    1.1131109   -113.13972   -7735.9719    4.3795245    4.3795245    4.3795245   -7735.9719    7117.3331   -32126.456    1801.2074    14690.296   -22279.467    8048.0646    84.000307 
   75500    1435.2346   -114.44654    1.2986304   -113.14791   -1600.8353    4.3560265    4.3560265    4.3560265   -1600.8353   -18823.146     2266.908    11753.732   -17540.417    5368.0491    15674.131    82.655459 
   75600    2604.0329   -115.50314    2.3561837   -113.14696     33330.96    4.3556298    4.3556298    4.3556298     33330.96    69674.429    7084.9017    23233.548   -2364.6474    14011.478    -10466.17     82.63288 
   75700     943.1166   -114.04808   0.85335172   -113.19473   -8810.6368    4.3775027    4.3775027    4.3775027   -8810.6368   -24559.662   -5601.7126    3729.4645    21129.363   -26465.171    548.04259    83.884025 
   75800    1535.6116   -114.57057    1.3894536   -113.18112   -27468.677    4.3878664    4.3878664    4.3878664   -27468.677   -45305.333   -37221.081    120.38166    -5557.772   -13101.494    9169.3918    84.481223 
   75900    2078.1687   -115.03765    1.8803707   -113.15728     9986.197    4.3650113    4.3650113    4.3650113     9986.197    41988.213    12756.724   -24786.346    849.15166     18586.04   -19621.164    83.167971 
   76000    756.43498   -113.85786   0.68443827   -113.17342    2177.8453    4.3631864    4.3631864    4.3631864    2177.8453    -9111.486    20563.402   -4918.3804    15841.805   -3047.6608   -13018.763    83.063707 
   76100    2232.2191   -115.17554    2.0197588   -113.15578   -7630.1126    4.3740533    4.3740533    4.3740533   -7630.1126   -8458.2385   -17359.302     2927.203   -6634.7751   -3279.2503     6165.419    83.685885 
   76200    1056.3568   -114.12414   0.95581388   -113.16832    -5136.578    4.3857247    4.3857247    4.3857247    -5136.578    30377.137    18821.511   -64608.382    14335.469    22621.568   -13894.613    84.357577 
   76300    1561.1887   -114.54942    1.4125963   -113.13682   -9320.7109    4.3935218    4.3935218    4.3935218   -9320.7109   -5333.4808   -5741.1888   -16887.463    12015.959    -10511.22   -12126.284    84.808299 
   76400    1813.0978   -114.76035     1.640529   -113.11982   -2760.2333     4.384391     4.384391     4.384391   -2760.2333    4528.9214    33771.664   -46581.285   -3596.2625    21151.744    1390.3837     84.28064 
   76500    953.36115   -113.99674   0.86262121   -113.13412   -14603.636    4.3731327    4.3731327    4.3731327   -14603.636    14909.838    -7866.327   -50854.418    21084.991    27372.989     3008.926    83.633057 
   76600    2263.2277   -115.18258     2.047816   -113.13476    12691.942    4.3620564    4.3620564    4.3620564    12691.942    5634.8674   -6474.2773    38915.236    39839.576   -7644.4306   -19455.236    82.999187 
   76700     1341.187   -114.38067    1.2135342   -113.16714   -4099.5434     4.371722     4.371722     4.371722   -4099.5434    7410.5263    26294.473   -46003.629    620.90584    25987.601     15830.58    83.552148 
   76800    1159.8964   -114.22043    1.0494986   -113.17093   -10510.322    4.3861954    4.3861954    4.3861954   -10510.322   -24684.836   -12354.806    5508.6761    11643.587     16448.05    1027.6551    84.384741 
   76900    2379.8267   -115.29266    2.1533172   -113.13934    6272.7988    4.3807439    4.3807439    4.3807439    6272.7988   -37677.111    20273.482    36222.026    21061.004   -4329.9292    -15992.39    84.070492 
   77000    811.55869   -113.88651   0.73431535   -113.15219    7190.3341    4.3670771    4.3670771    4.3670771    7190.3341   -19680.119    13883.957    27367.164   -3456.9065    46326.291    3419.8828    83.286108 
   77100    1815.0826   -114.79822    1.6423248   -113.15589   -5376.1365    4.3712127    4.3712127    4.3712127   -5376.1365    -9767.695   -14469.186    8108.4714   -3021.1494    9476.9175    12094.469     83.52295 
   77200    1981.5921   -114.94332    1.7929861   -113.15034    10502.032    4.3741382    4.3741382    4.3741382    10502.032   -14274.162    25484.102    20296.155    1547.1568    5946.9961   -15364.958    83.690759 
   77300    799.26407   -113.89843   0.72319092   -113.17524   -30632.349    4.3851943    4.3851943    4.3851943   -30632.349   -43942.074    15695.384   -63650.356   -5592.1997    50435.032   -12150.248    84.326977 
   77400    2511.8566   -115.41668    2.2727806    -113.1439     1346.082    4.3770941    4.3770941    4.3770941     1346.082   -11122.668   -3408.9788    18569.893   -8740.3274    2768.4283    9312.2729    83.860538 
   77500    1464.3589   -114.48532    1.3249827   -113.16033   -1593.7709    4.3638484    4.3638484    4.3638484   -1593.7709   -10082.858    26892.911   -21591.366    4874.6981    15355.751   -25245.777    83.101519 
   77600    1214.6731    -114.2759    1.0990617   -113.17684   -5664.8391    4.3760526    4.3760526    4.3760526   -5664.8391   -22094.559    10874.191   -5774.1499   -6097.4492    47993.752   -15464.485    83.800692 
   77700      2490.15    -115.3951      2.25314   -113.14196   -952.91172     4.383894     4.383894     4.383894   -952.91172   -32697.001   -3788.8928    33627.158    3782.8505   -14889.619    15259.105    84.251985 
   77800    720.27372   -113.81883   0.65171879   -113.16711   -19412.024     4.376233     4.376233     4.376233   -19412.024   -41199.899   -3543.2383   -13492.935    20484.183    7176.2895   -10857.721    83.811056 
   77900    1952.1219   -114.92005     1.766321   -113.15373   -4423.4971    4.3676801    4.3676801    4.3676801   -4423.4971   -34731.318    37164.357    -15703.53    -3060.635    29085.191    4706.1182    83.320615 
   78000    1913.8584   -114.88548    1.7316993   -113.15378   -19105.297    4.3713024    4.3713024    4.3713024   -19105.297   -39359.431   -14315.793   -3640.6661   -23748.643   -17324.354    3574.9738    83.528091 
   78100    1140.7732   -114.19543    1.0321956   -113.16323   -24370.643    4.3818755    4.3818755    4.3818755   -24370.643   -38610.998    29254.074   -63755.005    4742.5811    7039.1605    49.429752    84.135659 
   78200     2365.893   -115.27137    2.1407097   -113.13066   -17917.988    4.3928182    4.3928182    4.3928182   -17917.988    -10802.02   -30020.157   -12931.786   -20658.739     3459.668   -412.83502     84.76756 
   78300     1256.702   -114.27076    1.1370904   -113.13367   -20236.876     4.390134     4.390134     4.390134   -20236.876   -8569.5988   -7747.9932   -44393.037   -14157.489   -23568.269    5528.4327    84.612265 
   78400    2055.6979   -114.98467    1.8600387   -113.12463    2257.4611    4.3672686    4.3672686    4.3672686    2257.4611    10738.443    12484.728   -16450.788    229.18581   -8399.1248     10204.25    83.297065 
   78500    2166.4459   -115.09762    1.9602458   -113.13738    9952.3914    4.3635024    4.3635024    4.3635024    9952.3914    14392.674   -2779.2925    18243.793   -15664.489    -2762.285     7651.882    83.081756 
   78600    1281.5632    -114.3257    1.1595853   -113.16611   -16336.146     4.377199     4.377199     4.377199   -16336.146   -5013.5288    5890.5365   -49885.447   -18114.531   -29237.837   -4299.1561    83.866568 
   78700     2022.429   -114.97954    1.8299362    -113.1496   -1033.3789    4.3909953    4.3909953    4.3909953   -1033.3789   -20451.651    22734.308   -5382.7939    15650.006    3310.9275    10855.448    84.662077 
   78800    1357.0388   -114.38248    1.2278772   -113.15461   -22359.392    4.3837448    4.3837448    4.3837448   -22359.392   -9654.8417   -32734.083   -24689.252   -2169.4368   -7328.5144    4131.5905     84.24338 
   78900    1634.0048   -114.62504    1.4784819   -113.14656    15347.081    4.3462051    4.3462051    4.3462051    15347.081     18036.11    56025.735   -28020.602   -16647.083   -8284.5597     -19577.9    82.097635 
   79000    1767.2383   -114.75057    1.5990343   -113.15154    27214.571    4.3509516    4.3509516    4.3509516    27214.571    31706.759    10130.916    39806.037    33111.098    1991.1818   -3286.2046    82.366909 
   79100    1014.8685   -114.09018   0.91827434   -113.17191   -23967.255     4.382892     4.382892     4.382892   -23967.255   -32208.375   -14885.291   -24808.098    7122.7808    774.63727    2365.8711    84.194225 
   79200     2132.028   -115.07064    1.9291037   -113.14154    -580.2946    4.3833132    4.3833132    4.3833132    -580.2946    6674.1248    30953.556   -39368.565   -10652.321    13886.486    4959.2847    84.218503 
   79300    1263.2882    -114.2875    1.1430497   -113.14446   -13063.067    4.3748298    4.3748298    4.3748298   -13063.067   -7390.9951   -41772.333    9974.1261    60192.297   -11108.114   -2952.1138     83.73046 
   79400    1673.8462   -114.65995    1.5145312   -113.14541   -10652.995    4.3642363    4.3642363    4.3642363   -10652.995   -8450.2615    -8255.264    -15253.46   -3989.6195    6357.5431    3670.5715    83.123681 
   79500    1950.3626   -114.91514    1.7647291   -113.15041    15411.962    4.3555071    4.3555071    4.3555071    15411.962    22339.194   -4275.3187    28172.011    2267.3558    12079.289    2918.7707    82.625897 
   79600    912.84281    -114.0129   0.82595936   -113.18695    -14099.05     4.373667     4.373667     4.373667    -14099.05   -40409.029   -25888.388    24000.267    77450.294   -13684.077     -6588.71    83.663716 
   79700    2491.7158   -115.39868    2.2545568   -113.14412   -24129.226    4.3945152    4.3945152    4.3945152   -24129.226   -32332.674   -6841.6613   -33213.341   -32187.776     14165.74    -8433.415    84.865843 
   79800    781.19461   -113.85961    0.7068413   -113.15277   -5905.6303    4.3803322    4.3803322    4.3803322   -5905.6303   -48428.325   -57155.875    87867.309    61557.708   -573.89994    20360.932     84.04679 
   79900    1844.7074   -114.80075      1.66913   -113.13162    10201.181    4.3607579    4.3607579    4.3607579    10201.181    2051.0027    14576.872     13975.67    20890.877   -8206.5382    -17792.59    82.925086 
   80000    1956.5299   -114.91307    1.7703094   -113.14276     6084.577    4.3645738    4.3645738    4.3645738     6084.577   -9758.1352    13493.832    14518.034   -471.29576    7239.4891   -5132.0568    83.142969 
   80100    1142.1199   -114.20723    1.0334141   -113.17381   -17142.669    4.3685578    4.3685578    4.3685578   -17142.669   -42586.134   -50326.154     41484.28     71499.38    9599.5934    31121.297    83.370856 
   80200    1957.9142   -114.94474    1.7715619   -113.17318    6791.6029    4.3746187    4.3746187    4.3746187    6791.6029    32087.995   -310.59025   -11402.596   -8876.4026    -9625.078    6250.8533    83.718341 
   80300    1585.1958   -114.60683    1.4343185   -113.17251    8228.8025    4.3748702    4.3748702    4.3748702    8228.8025   -4783.9357   -5226.3299    34696.673    30375.276   -4462.5437   -10684.181     83.73278 
   80400    1293.9548   -114.34094    1.1707975   -113.17014   -2656.6414    4.3651263    4.3651263    4.3651263   -2656.6414    26838.662   -50068.707    15260.121    42439.344    3593.7453    35365.805    83.174549 
   80500    2114.0393   -115.07141    1.9128272   -113.15858    11769.654    4.3662352    4.3662352    4.3662352    11769.654    43909.838   -13971.696    5370.8197   -23366.535    4298.9113    15741.026    83.237952 
   80600    1491.2509   -114.51952    1.3493151    -113.1702    2755.8931    4.3696567    4.3696567    4.3696567    2755.8931   -15644.725    2298.6842     21613.72    47800.189   -22785.127     -6859.74    83.433787 
   80700    1393.3385    -114.4363     1.260722   -113.17557     9308.616    4.3724269    4.3724269    4.3724269     9308.616     39686.52   -17121.415    5360.7434    18064.176    3198.2575    41056.392    83.592568 
   80800    1953.6551   -114.93152    1.7677082   -113.16381   -8200.6415    4.3769524    4.3769524    4.3769524   -8200.6415    21999.131   -23974.175    -22626.88   -16917.388    -669.2973    16676.048    83.852397 
   80900     1512.055   -114.54039    1.3681391   -113.17225    17886.843    4.3577348    4.3577348    4.3577348    17886.843   -7957.0246    34295.706    27321.846    41892.397   -30377.863   -16061.037    82.752744 
   81000    944.86905   -114.04009   0.85493737   -113.18516    19591.329    4.3560914    4.3560914    4.3560914    19591.329    54206.392    12056.835   -7489.2396    12472.714    1203.1431    63408.696    82.659154 
   81100    2156.7717   -115.12108    1.9514923   -113.16959   -23597.508     4.377824     4.377824     4.377824   -23597.508   -19091.157   -18397.957    -33303.41   -3825.3329    5347.7255    12771.156    83.902499 
   81200    1450.6277   -114.48814    1.3125584   -113.17558    6026.8133    4.3703946    4.3703946    4.3703946    6026.8133    6230.8353   -4362.6988    16212.303    33146.641   -9421.7838   -4609.1181    83.476062 
   81300    1235.3715   -114.29293    1.1177901   -113.17514     2494.407    4.3689147    4.3689147    4.3689147     2494.407    63099.335   -20913.703   -34702.411    12900.128   -10847.863     68687.58    83.391294 
   81400    2580.8073   -115.48521    2.3351687   -113.15004   -4778.9029     4.374158     4.374158     4.374158   -4778.9029    721.72633    -8276.846   -6781.5891    -15524.49    15824.934    -17898.24    83.691893 
   81500    1045.8763   -114.11889   0.94633088   -113.17256   -9850.0663    4.3682814    4.3682814    4.3682814   -9850.0663   -5360.1757   -12837.678   -11352.345    34123.353   -8266.0773    22994.144    83.355031 
   81600    1194.7967   -114.26821    1.0810771   -113.18713   -12147.196    4.3684345    4.3684345    4.3684345   -12147.196    19739.823   -10662.887   -45518.524    19640.965   -24112.031    43677.686    83.363794 
   81700    2433.5365   -115.37295     2.201915   -113.17103    4420.8206    4.3640625    4.3640625    4.3640625    4420.8206    11870.486   -5120.9354     6512.911   -17575.116     5627.819   -22693.671     83.11375 
   81800    964.53519   -114.06186   0.87273171   -113.18913    18509.809    4.3662236    4.3662236    4.3662236    18509.809    59829.771   -23235.985    18935.642    41593.497   -10907.941    41208.555    83.237287 
   81900    1427.4808   -114.46482    1.2916147    -113.1732   -11312.422    4.3912717    4.3912717    4.3912717   -11312.422    21844.706    -24177.24   -31604.731    7528.1859    2372.6045    14194.457    84.678063 
   82000     1859.726   -114.82268    1.6827192   -113.13996    2244.4869    4.3807059    4.3807059    4.3807059    2244.4869    5952.0238   -207.34957    988.78642   -2918.0821      11543.6   -11262.553    84.068306 
   82100    897.68725   -113.96285   0.81224629   -113.15061    16726.352     4.347511     4.347511     4.347511    16726.352    82905.156   -28069.726   -4656.3734    37398.588    564.68418    63123.447    82.171659 
   82200     2060.348   -115.03209    1.8642461   -113.16784    6221.8129    4.3543805    4.3543805    4.3543805    6221.8129    22371.675   -6269.9134    2563.6768    19409.414   -4231.4985    4942.2987    82.561796 
   82300    1945.1742   -114.94416    1.7600345   -113.18412    22408.572    4.3667593    4.3667593    4.3667593    22408.572    66238.858     29788.62   -28801.761   -13068.274   -3130.1585   -1799.4417    83.267931 
   82400    738.25192   -113.87139   0.66798585    -113.2034   -26720.507    4.3872127    4.3872127    4.3872127   -26720.507    17706.688   -51073.978   -46794.231    44652.511    9279.1354     53931.07    84.443471 
   82500    2296.2349   -115.25345    2.0776816   -113.17577   -10456.165     4.374229     4.374229     4.374229   -10456.165   -8522.2886   -7613.0827   -15233.123    10049.156   -3001.9142   -5062.0593    83.695969 
   82600    2326.4507   -115.27047    2.1050215   -113.16544    35594.931     4.336347     4.336347     4.336347    35594.931    63088.776    31909.825    11786.193     -28024.4    3006.2269    12226.064    81.540259 
   82700    893.28858   -114.01473   0.80826628   -113.20646   -10739.565    4.3501001    4.3501001    4.3501001   -10739.565    15873.428   -26873.398   -21218.726    60165.022    5188.3411    56441.121    82.318557 
   82800    1839.2427   -114.85996    1.6641855   -113.19577   -25905.537    4.3759328    4.3759328    4.3759328   -25905.537   -23822.257   -24152.024   -29742.331     16824.08    11645.527   -232.36586    83.793807 
   82900    2110.3853   -115.08434    1.9095209   -113.17482   -11363.763    4.3826247    4.3826247    4.3826247   -11363.763    14620.968   -22290.614   -26421.645   -16099.629     329.1001    7052.7428    84.178821 
   83000    933.03639    -114.0268   0.84423093   -113.18256    -22968.37    4.3698701    4.3698701    4.3698701    -22968.37   -4021.9145   -59787.511   -5095.6838    54303.279   -2223.7531    41384.822    83.446009 
   83100    1528.9539   -114.55369    1.3834296   -113.17026    20115.072    4.3471045    4.3471045    4.3471045    20115.072    44562.344   -1162.9722    16945.846    13394.257    10527.862    1224.1818    82.148614 
   83200    1936.9534   -114.93349    1.7525961   -113.18089    5752.4511     4.356558     4.356558     4.356558    5752.4511    8708.2039   -3928.6194    12477.769   -8607.1228    1137.9395   -6294.9937    82.685719 
   83300    1111.5977    -114.1978    1.0057969     -113.192   -25237.564    4.3731447    4.3731447    4.3731447   -25237.564   -9741.9108    -78312.63     12341.85    48160.253   -6634.7534     33877.45    83.633747 
   83400    1581.4851   -114.60428    1.4309609   -113.17332   -4176.1672    4.3687024    4.3687024    4.3687024   -4176.1672   -18514.235    24264.159   -18278.426    17312.314    8840.9159    5450.6985    83.379137 
   83500     1452.955   -114.48988    1.3146642   -113.17521   -16119.185    4.3640236    4.3640236    4.3640236   -16119.185    -22331.82    3804.7931   -29830.529    -17561.63    2814.6118   -8944.4203    83.111528 
   83600    1975.8664   -114.96165    1.7878054   -113.17384    4001.7155    4.3600342    4.3600342    4.3600342    4001.7155    32679.819   -27202.361    6527.6891    15487.449   -10969.789    16531.682    82.883804 
   83700    1886.0538   -114.88886    1.7065411   -113.18231    271.62751    4.3612019    4.3612019    4.3612019    271.62751    21964.556    12361.006    -33510.68    6487.3577     16808.41   -8479.2453    82.950415 
   83800    415.68465   -113.58567   0.37612021   -113.20955   -20761.822    4.3725819    4.3725819    4.3725819   -20761.822   -34499.197    28365.888   -56152.157   -33385.418   -3941.8783   -14437.685    83.601458 
   83900    2329.3761   -115.29586    2.1076684   -113.18819   -2295.0136    4.3645684    4.3645684    4.3645684   -2295.0136    20764.575   -2429.7423   -25219.873     4985.286   -20635.204   -5443.6027    83.142658 
   84000     1795.659   -114.81214      1.62475   -113.18739    11728.041    4.3588708    4.3588708    4.3588708    11728.041    13512.885    40889.992   -19218.754    18238.737     16399.42    17163.452    82.817477 
   84100    1339.1009   -114.39755    1.2116467    -113.1859    -23382.91    4.3721503    4.3721503    4.3721503    -23382.91   -40894.818    42099.309   -71353.221   -21666.225    5679.2174   -11514.838    83.576704 
   84200    2084.8008   -115.04171    1.8863716   -113.15534    8893.1114    4.3704108    4.3704108    4.3704108    8893.1114   -1284.3665    29513.078   -1549.3776    13463.307   -10558.399    8717.8559    83.476988 
   84300    1203.8994   -114.25679    1.0893135   -113.16747   -8991.8856    4.3705973    4.3705973    4.3705973   -8991.8856   -23820.148    5724.9018    -8880.411      35242.1    13406.746    26344.511    83.487677 
   84400    1990.7737    -114.9577    1.8012938    -113.1564   -2611.0201    4.3681368    4.3681368    4.3681368   -2611.0201   -23078.251    51408.541   -36163.351   -12554.523    27683.298   -11396.561    83.346754 
   84500    1926.8985   -114.90704    1.7434983   -113.16354    2309.3656    4.3565446    4.3565446    4.3565446    2309.3656   -3084.1797   -10195.018    20207.295    31621.546    -10567.84    18089.107    82.684955 
   84600    989.74696   -114.08168   0.89554385   -113.18614   -4013.4034    4.3650133    4.3650133    4.3650133   -4013.4034   -5596.5928   -9649.5776    3205.9602    42045.272    10837.615    23904.333    83.168089 
   84700    2000.1647   -114.98053    1.8097911   -113.17074   -9397.6128    4.3772841    4.3772841    4.3772841   -9397.6128   -22560.933    27758.079   -33389.985    -17891.14    19672.742      5403.25    83.871462 
   84800    1548.6909   -114.57198    1.4012881   -113.17069   -8274.7794    4.3710874    4.3710874    4.3710874   -8274.7794   -34671.422   -13727.204    23574.288    23794.979   -6570.6534     3316.263    83.515765 
   84900    1296.3157   -114.34602    1.1729337   -113.17309   -738.36812    4.3525999    4.3525999    4.3525999   -738.36812   -10180.547    -10016.92    17982.363    42060.751    17102.359    12836.327    82.460554 
   85000    1850.4514   -114.84506    1.6743273   -113.17073    14679.205    4.3552578    4.3552578    4.3552578    14679.205    -2217.971    69402.603   -23147.019   -12067.687    37069.235    4013.8353    82.611709 
   85100     1431.758   -114.47453    1.2954848   -113.17905   -18576.952    4.3725323    4.3725323    4.3725323   -18576.952   -37150.898   -30230.831    11650.873    749.76256   -6945.2268   -8932.0412    83.598614 
   85200    1376.4859   -114.41707    1.2454734    -113.1716    1672.2161    4.3728169    4.3728169    4.3728169    1672.2161   -16275.276    25859.045   -4567.1204    27815.348    14201.357    12864.619    83.614938 
   85300    1900.1341   -114.87682    1.7192813   -113.15754    -3268.434    4.3686011    4.3686011    4.3686011    -3268.434   -16451.561    32580.818   -25934.559   -10916.591    30495.804    -12364.17    83.373333 
   85400    1090.0506   -114.15871   0.98630066   -113.17241   -165.59349    4.3553761    4.3553761    4.3553761   -165.59349    -7647.998   -12351.702    19502.919   -29469.957   -7456.5759   -14445.785    82.618439 
   85500    1758.2765   -114.76569    1.5909255   -113.17476    22860.887    4.3553887    4.3553887    4.3553887    22860.887    771.33291     62311.73    5499.5975    29776.762    6709.5971   -6233.7069    82.619157 
   85600    1843.8842   -114.84209    1.6683852    -113.1737    14564.167    4.3696568    4.3696568    4.3696568    14564.167   -4960.8673    37098.401    11554.968   -11026.941    14348.475   -5573.9727    83.433794 
   85700    895.88281   -113.99547    0.8106136   -113.18485   -2730.2244    4.3765917    4.3765917    4.3765917   -2730.2244     -28883.4   -3941.3374    24634.064   -34948.938   -9376.3421   -24007.424    83.831666 
   85800    2551.1269   -115.46354    2.3083132   -113.15523    2593.6482    4.3708348    4.3708348    4.3708348    2593.6482    -440.6728    11147.109    -2925.492    15099.666   -953.73518    749.16178    83.501289 
   85900    1415.9222   -114.45117    1.2811561   -113.17001    28058.507      4.34989      4.34989      4.34989    28058.507    35594.797    8947.2896    39633.436   -28736.429    4272.6287   -1138.1502    82.306628 
   86000    884.79465   -113.99656   0.80058079   -113.19598    8298.4206    4.3582438    4.3582438    4.3582438    8298.4206   -3830.4095   -25139.013    53864.684   -48910.054    2733.7536   -22085.822    82.781745 
   86100    2259.0366   -115.20897    2.0440237   -113.16495    10297.268    4.3770401    4.3770401    4.3770401    10297.268   -8222.7806    35206.749    3907.8356    14267.486    -6449.531    14444.422    83.857437 
   86200    910.91414   -114.00241   0.82421426    -113.1782    13699.672     4.371814     4.371814     4.371814    13699.672   -13800.913   -33882.648    88782.576   -17585.537   -1399.8033    6666.4656    83.557423 
   86300      1731.07   -114.72963    1.5663085   -113.16332    5890.7875     4.365233     4.365233     4.365233    5890.7875    21091.146   -23114.513    19695.729    -40652.39     11911.21    333.53531    83.180646 
   86400    2004.4741   -114.96866    1.8136903   -113.15497    37881.469    4.3543523    4.3543523    4.3543523    37881.469    17663.204    38458.124    57523.078    34900.168    1766.2811   -3056.7529    82.560191 
   86500    1100.9851   -114.17884   0.99619444   -113.18264    2658.9026    4.3649477    4.3649477    4.3649477    2658.9026    -11939.01   -41565.288    61481.006    6741.4788   -5530.0451    4094.3522    83.164337 
   86600    2294.6024   -115.23103    2.0762045   -113.15482   -8156.8785     4.377817     4.377817     4.377817   -8156.8785   -6018.1328   -4011.1839   -14441.319   -29299.931    11336.248     4035.406    83.902095 
   86700    1259.0836   -114.30714    1.1392453    -113.1679   -4478.9263    4.3682534    4.3682534    4.3682534   -4478.9263   -48634.496   -14494.365    49692.083    67170.057     18267.63   -5442.7243    83.353426 
   86800    1741.5314   -114.73189    1.5757742   -113.15612     2228.937    4.3611018    4.3611018    4.3611018     2228.937   -2546.6813   -23368.553    32602.046   -2048.9149    -11443.81    7663.7424    82.944709 
   86900    1989.1685    -114.9532    1.7998415   -113.15336   -10981.622    4.3690056    4.3690056    4.3690056   -10981.622   -19224.562   -3427.7389   -10292.564   -2776.0849    24017.669   -6795.1568    83.396494 
   87000    487.90488   -113.62509   0.44146659   -113.18363   -2829.7167    4.3658808    4.3658808    4.3658808   -2829.7167   -60080.498     23676.21    27915.137    63780.175    22075.834   -3282.3415    83.217682 
   87100    1935.4268    -114.9236    1.7512148   -113.17238    12114.235     4.365165     4.365165     4.365165    12114.235    42984.445    5167.1652   -11808.904   -7573.3395   -22168.129    1193.5779    83.176759 
   87200     1701.192   -114.71657    1.5392742   -113.17729    5609.0832    4.3636758    4.3636758    4.3636758    5609.0832    17005.216    10220.091   -10398.057    11098.329    14008.582    6494.4272     83.09166 
   87300    543.14926   -113.68489   0.49145287   -113.19344    12701.836    4.3609958    4.3609958    4.3609958    12701.836    2120.8413    25358.954    10625.713    55502.462    34397.606   -12923.773    82.938659 
   87400     2514.625   -115.43366    2.2752855   -113.15837      616.352    4.3772178    4.3772178    4.3772178      616.352     1881.725     9465.738    -9498.407   -18823.003   -11333.815      6641.41    83.867647 
   87500    1297.9672   -114.34147     1.174428   -113.16704   -19636.832    4.3810487    4.3810487    4.3810487   -19636.832    -50134.29   -10846.896    2070.6889    48840.863    7899.0053    6653.0371    84.088041 
   87600    1147.0039   -114.19703    1.0378333    -113.1592   -16336.452    4.3733541    4.3733541    4.3733541   -16336.452   -70064.623    30820.194   -9764.9287    27126.413    48197.781   -6330.9624    83.645758 
   87700    2603.5342   -115.49264    2.3557325   -113.13691     4519.515    4.3625892    4.3625892    4.3625892     4519.515   -2816.4035    19501.499   -3126.5507   -18126.114   -16209.773    7258.6339    83.029601 
   87800    886.51573   -113.97397   0.80213806   -113.17183    9916.2594    4.3605874    4.3605874    4.3605874    9916.2594   -6351.3134   -2218.4864    38318.578    66651.766    5107.4996   -10697.087    82.915361 
   87900    1511.8514   -114.54727     1.367955   -113.17932   -375.16178    4.3681427    4.3681427    4.3681427   -375.16178   -1109.1528    18429.958   -18446.291   -4746.8233    43699.271   -6112.6328    83.347092 
   88000    1861.3822   -114.84952    1.6842177    -113.1653   -846.35624    4.3765013    4.3765013    4.3765013   -846.35624     4026.303    3843.1153   -10408.487    924.14794   -24394.662    1474.6382    83.826473 
   88100    1116.4663   -114.18783    1.0102022   -113.17762   -13343.279    4.3695691    4.3695691    4.3695691   -13343.279   -50844.559   -11076.891    21891.613    53338.273   -19877.319    -6153.014    83.428766 
   88200    2004.9629   -114.97633    1.8141325    -113.1622    3281.4639    4.3582199    4.3582199    4.3582199    3281.4639    -4475.694    27694.067   -13373.982    -14178.65    42346.127   -8340.8915    82.780382 
   88300    1669.6718   -114.67706    1.5107542   -113.16631   -17334.372    4.3758188    4.3758188    4.3758188   -17334.372   -45832.227   -6930.3095    759.42112    28683.371   -18087.863     10187.12    83.787258 
   88400    1218.8499    -114.2633     1.102841   -113.16046   -36509.603    4.3898557    4.3898557    4.3898557   -36509.603   -75006.226   -12734.444   -21788.139    42265.416   -17311.221   -2844.0656    84.596174 
   88500    2613.2882    -115.4989    2.3645581   -113.13435    16224.752      4.36838      4.36838      4.36838    16224.752    41889.618    32596.007   -25811.368   -20291.729    6106.2547   -6187.8819    83.360679 
   88600    1240.0203    -114.2851    1.1219964    -113.1631   -419.36823     4.347663     4.347663     4.347663   -419.36823   -28968.401   -12487.918    40198.214    59592.096   -19872.608    4922.2586    82.180279 
   88700    1186.6881   -114.26473    1.0737403   -113.19099    13701.076    4.3527965    4.3527965    4.3527965    13701.076    5216.2141    27983.174    7903.8396    7460.9388   -37167.571    2683.8943    82.471727 
   88800    2557.2348   -115.48835    2.3138397   -113.17451   -16134.636    4.3783058    4.3783058    4.3783058   -16134.636   -22069.412   -4337.3503   -21997.146    -3439.941   -1817.5685   -3289.7762    83.930204 
   88900    1423.6926   -114.47208     1.288187   -113.18389   -15108.698    4.3729874    4.3729874    4.3729874   -15108.698   -43298.565   -15326.866    13299.337    76505.697   -2970.4213    -652.0343    83.624719 
   89000    1500.1127   -114.52903    1.3573335    -113.1717    1982.7808    4.3613977    4.3613977    4.3613977    1982.7808   -46263.194    51058.697    1152.8395   -16858.744   -35273.483     -1607.63    82.961589 
   89100    1988.2139   -114.96155    1.7989777   -113.16257    -5431.434    4.3661534    4.3661534    4.3661534    -5431.434   -31219.742    31975.538   -17050.098   -10822.037    9910.8432   -11139.468    83.233273 
   89200    1268.7226   -114.31978    1.1479669   -113.17181    18128.295    4.3658938    4.3658938    4.3658938    18128.295   -433.37701    47943.874    6874.3872    41017.246    471.20573   -3254.9548    83.218426 
   89300    1432.3153   -114.46807     1.295989   -113.17208   -7453.4585    4.3794449    4.3794449    4.3794449   -7453.4585   -26391.016    21201.321   -17170.681   -17180.523   -59073.374    6.9428311    83.995728 
   89400    1848.6553   -114.83674    1.6727021   -113.16404    9020.1545    4.3672839    4.3672839    4.3672839    9020.1545    40374.347    3145.1143   -16458.997   -10168.039    30645.794   -2916.1813    83.297942 
   89500    1362.1307   -114.40633    1.2324845   -113.17384   -195.38529     4.351287     4.351287     4.351287   -195.38529   -25123.187    41756.551   -17219.519    20898.343    6261.7022   -9566.7156    82.385955 
   89600    1479.5994   -114.52782    1.3387726   -113.18905   -15831.226    4.3576089    4.3576089    4.3576089   -15831.226   -39587.079     28426.14   -36332.741    28052.154   -83400.959    5382.0683     82.74557 
   89700    2349.0111    -115.3105    2.1254346   -113.18507    4404.5088    4.3613683    4.3613683    4.3613683    4404.5088    36994.543    523.34467   -24304.361   -18652.244     27535.77   -16032.958    82.959913 
   89800    1368.7988   -114.43733    1.2385179   -113.19881   -8177.6526    4.3655776    4.3655776    4.3655776   -8177.6526   -12822.369    18309.827   -30020.415    5867.2498   -8361.6834   -8857.2508    83.200347 
   89900    1119.9724   -114.20306    1.0133746   -113.18968   -4788.2034    4.3701716    4.3701716    4.3701716   -4788.2034   -584.86279    15575.642    -29355.39    11629.782   -60624.586    3978.4789    83.463287 
   90000    1871.5072   -114.86281     1.693379   -113.16944    5774.0505    4.3647701    4.3647701    4.3647701    5774.0505    27418.496   -29952.918    19856.574   -36150.856     25155.78   -15124.476    83.154188 
   90100    1207.2868   -114.26774    1.0923784   -113.17536    17244.828    4.3488214    4.3488214    4.3488214    17244.828    35146.366    26464.792    -9876.674    2926.6618   -38070.715    -7754.767    82.245985 
   90200    1571.8544   -114.60706    1.4222469   -113.18481    -10939.71    4.3612231    4.3612231    4.3612231    -10939.71   -35523.389    17044.851   -14340.592    4500.6471   -41734.217    2749.9979    82.951629 
   90300    1509.8417   -114.54129    1.3661365   -113.17516    -17967.35    4.3731254    4.3731254    4.3731254    -17967.35   -28155.657   -43587.138    17840.746   -37986.468    18479.376   -4166.7346    83.632639 
   90400    874.30158    -113.9688   0.79108644   -113.17771   -3718.6154    4.3659687    4.3659687    4.3659687   -3718.6154     9099.716    8753.1962   -29008.758   -8678.3047   -41543.882   -12192.404    83.222708 
   90500    1967.4229   -114.93976    1.7801656    -113.1596   -9265.5265    4.3707922    4.3707922    4.3707922   -9265.5265   -25940.831    22330.206   -24185.954     12442.44   -15355.803     4381.919    83.498847 
   90600    1481.4185    -114.5068    1.3404186   -113.16638   -15661.097    4.3632403    4.3632403    4.3632403   -15661.097   -21049.249    -25342.63   -591.41149   -23250.564    15132.129    -1425.938    83.066785 
   90700    1149.2303   -114.21571    1.0398477   -113.17586     19774.89    4.3527674    4.3527674    4.3527674     19774.89    38158.473     32783.74   -11617.545   -23936.886   -29630.115   -13515.743    82.470074 
   90800    2073.5113   -115.04762    1.8761566   -113.17147   -13290.556    4.3645574    4.3645574    4.3645574   -13290.556    -32682.62   -7952.5889     763.5396     58023.84   -17029.325    1329.2896     83.14203 
   90900     1167.022   -114.24025     1.055946   -113.18431   -1618.9297    4.3622989    4.3622989    4.3622989   -1618.9297   -8198.9526     4422.908   -1080.7447    7463.4606    13805.231   -3116.6059    83.013028 
   91000    2032.3404   -115.01463    1.8389043   -113.17573   -5020.2587    4.3615145    4.3615145    4.3615145   -5020.2587    -3592.035    13326.864   -24795.605   -36907.876   -3366.3007   -10902.397    82.968257 
   91100     1459.447   -114.49952    1.3205383   -113.17898   -2636.2942    4.3636514    4.3636514    4.3636514   -2636.2942   -11463.216   -15377.236    18931.569    86953.771   -1544.0199    9470.1735    83.090265 
   91200    1807.3493   -114.80958    1.6353276   -113.17425   -1979.6483     4.365701     4.365701     4.365701   -1979.6483    17133.396   -25598.747    2526.4059    6878.5889    6607.9702   -4265.9332    83.207403 
   91300    1922.6705   -114.90875    1.7396727   -113.16907   -9411.5522    4.3684174    4.3684174    4.3684174   -9411.5522   -759.63192   -28756.164    1281.1393   -22006.489    7278.6031   -7879.0968     83.36282 
   91400    764.51303   -113.88085   0.69174746   -113.18911   -7132.4704    4.3525294    4.3525294    4.3525294   -7132.4704   -19084.776   -59311.097    56998.462    97313.575   -3419.3256     13350.51    82.456545 
   91500    2192.5165   -115.15985     1.983835   -113.17601    22377.717    4.3547935    4.3547935    4.3547935    22377.717     40709.29     27142.97   -719.10972   -12772.678   -579.40888    -3582.484    82.585287 
   91600    1421.0413   -114.45854     1.285788   -113.17275   -9895.8127    4.3794434    4.3794434    4.3794434   -9895.8127   -4670.9458   -61790.578    36774.085    49685.895    10929.128   -5867.1704    83.995641 
   91700    1061.9728   -114.11546   0.96089527   -113.15456   -13338.056    4.3835365    4.3835365    4.3835365   -13338.056   -28227.118   -61040.685    49253.635      46021.9    2573.2277    12345.817    84.231372 
   91800    1934.9371   -114.87217    1.7507718    -113.1214   -3397.9044    4.3695844    4.3695844    4.3695844   -3397.9044   -4561.5104    3458.0424   -9090.2451   -20318.511   -208.65408   -1835.4107    83.429648 
   91900    1397.5943   -114.40352    1.2645727   -113.13895    12163.356    4.3532788    4.3532788    4.3532788    12163.356    26135.351   -20464.714     30819.43    85061.328   -8714.8206   -5898.7055    82.499145 
   92000    2172.4684   -115.11667    1.9656951   -113.15097     2592.337    4.3547898    4.3547898    4.3547898     2592.337    5941.9653   -5153.2485    6988.2942   -9820.0017    5070.2234    13162.572    82.585077 
   92100    1336.8922   -114.38668    1.2096481   -113.17703   -4665.6554    4.3648924    4.3648924    4.3648924   -4665.6554    -9509.517    6385.6456   -10873.095   -11371.313   -1431.8838    4362.6063    83.161177 
   92200     2244.174   -115.19594    2.0305758   -113.16536   -14911.979    4.3758594    4.3758594    4.3758594   -14911.979   -10889.403   -28388.657   -5457.8784    44016.977   -146.29066   -4037.4458    83.789593 
   92300    1702.7216   -114.71483    1.5406583   -113.17418   -19195.411    4.3703324    4.3703324    4.3703324   -19195.411   -14473.549   -31668.891   -11443.794   -25445.476    9880.8811    14632.453      83.4725 
   92400    911.55536   -114.00782   0.82479445   -113.18303    321.34023    4.3509424    4.3509424    4.3509424    321.34023   -5768.4459   -3986.4455    10718.912   -31823.602    2417.6537    11499.941    82.366382 
   92500    2627.1562   -115.54617    2.3771062   -113.16907    23687.485     4.357209     4.357209     4.357209    23687.485    23115.397    25420.151    22526.907     10678.16      3893.59   -991.91075    82.722793 
   92600    1069.2778   -114.15249     0.967505   -113.18499   -13374.928    4.3810621    4.3810621    4.3810621   -13374.928   -5677.1806   -56606.352    22158.749    -14705.18    228.09355    4291.1559    84.088813 
   92700    1591.7229   -114.57967    1.4402243   -113.13945   -11504.897    4.3902054    4.3902054    4.3902054   -11504.897   -11074.785    -33551.61    10111.703   -14570.323    2745.1201    12489.553    84.616396 
   92800    1657.1822   -114.63044    1.4994533   -113.13099    -21367.89    4.3744125    4.3744125    4.3744125    -21367.89    -45420.45   -44229.294    25546.073    46720.433     5312.098   -8237.5544    83.706502 
   92900    1125.3783   -114.16589    1.0182659   -113.14762    12902.954    4.3409459    4.3409459    4.3409459    12902.954    22849.674   -3626.7493    19485.937    -16006.35    7436.0217   -9633.6816    81.799967 
   93000    1982.5578   -114.94882      1.79386   -113.15496    26754.102    4.3424452    4.3424452    4.3424452    26754.102   -2203.2167    38890.724    43574.799    7232.7202   -4347.9016    11277.455    81.884751 
   93100    1098.7256   -114.17234   0.99414998   -113.17819   -37179.217    4.3822249    4.3822249    4.3822249   -37179.217   -71160.735   -55139.553    14762.636    78002.994    678.67696   -6712.3509    84.155789 
   93200    2070.0866   -115.02772    1.8730578   -113.15466   -24074.617    4.3765891    4.3765891    4.3765891   -24074.617    9323.1651   -44596.916   -36950.099   -30619.431    1383.8115    -24216.98    83.831516 
   93300    1603.8727   -114.60087    1.4512177   -113.14965    6524.2847    4.3461296    4.3461296    4.3461296    6524.2847   -33617.506    8242.1763    44948.184    60408.133    7550.5671    533.29256    82.093355 
   93400    1684.6236   -114.69191    1.5242828   -113.16762   -11645.484    4.3536024    4.3536024    4.3536024   -11645.484   -28702.019    -37907.97    31673.537    57254.109   -2706.4801    921.58204    82.517546 
   93500    2133.2945   -115.09083    1.9302497   -113.16058   -2938.0311    4.3700989    4.3700989    4.3700989   -2938.0311    31988.842   -1150.6748   -39652.261   -20770.041   -11275.574   -27199.948    83.459118 
   93600    1042.1562   -114.11522   0.94296482   -113.17226   -29982.199    4.3787402    4.3787402    4.3787402   -29982.199   -43959.117   -66796.333    20808.853    89616.313    4990.6369   -4860.0739    83.955187 
   93700    1973.1725   -114.93405    1.7853679   -113.14868    71.129953    4.3660807    4.3660807    4.3660807    71.129953   -1830.1725    9813.5822   -7770.0199    -12186.53   -1270.7734    6669.7155    83.229113 
   93800    1315.2128   -114.34611    1.1900322   -113.15608   -1801.6436    4.3522028    4.3522028    4.3522028   -1801.6436    13642.302   -6121.5498   -12925.683     20295.57   -1405.9114   -32874.724    82.437987 
   93900    1165.8035   -114.23346    1.0548435   -113.17862   -4906.7621    4.3530861    4.3530861    4.3530861   -4906.7621   -20043.407   -26765.399    32088.519    77464.934    3957.6636   -8182.6658    82.488192 
   94000    1949.6243   -114.93755    1.7640611   -113.17348   -16312.926    4.3710787    4.3710787    4.3710787   -16312.926       -22464   -2972.1242   -23502.653   -25076.683    11360.216     14639.56     83.51527 
   94100    1125.4675   -114.19601    1.0183467   -113.17767   -24838.843    4.3728442    4.3728442    4.3728442   -24838.843    -14960.17   -52068.252    -7488.106    22550.695   -4966.0127   -24843.598    83.616503 
   94200    1726.5153   -114.72084    1.5621874   -113.15865    26148.761    4.3525345    4.3525345    4.3525345    26148.761    10508.351    43456.851    24481.081    42911.461    3010.8962   -5344.0186    82.456838 
   94300    1553.7098   -114.57179    1.4058293   -113.16596   -1748.6781    4.3515982    4.3515982    4.3515982   -1748.6781    6087.8679    13059.754   -24393.656   -19463.209    23425.961    38151.347    82.403636 
   94400     1693.323   -114.70682    1.5321542   -113.17466    8905.4024    4.3603197    4.3603197    4.3603197    8905.4024    23972.889    12076.876   -9333.5579    452.81134     -8.54928   -20306.801    82.900092 
   94500    2281.0046   -115.22546    2.0639009   -113.16156   -4198.4938    4.3729037    4.3729037    4.3729037   -4198.4938    10640.524   -2675.9673   -20560.038    23558.094    2191.7703    16992.526    83.619919 
   94600    844.69459   -113.94847   0.76429742   -113.18418    -14911.78    4.3665982    4.3665982    4.3665982    -14911.78    9535.4028    6681.0615   -60951.803    -14618.06    30959.363    59596.537    83.258714 
   94700    2419.1652   -115.35049    2.1889115   -113.16158    20449.598    4.3493144    4.3493144    4.3493144    20449.598    18673.696    33069.622    9605.4748    7590.3675   -4095.4579   -24375.288    82.273962 
   94800    1708.1959   -114.71777    1.5456115   -113.17216    7591.5154    4.3590829    4.3590829    4.3590829    7591.5154    50387.403    4318.6661   -31931.523    4582.0044     2455.606    37369.891    82.829564 
   94900    830.43952   -113.93097   0.75139913   -113.17957   -31939.609    4.3740416    4.3740416    4.3740416   -31939.609   -15756.095   -7799.3025   -72263.429   -10783.067    40772.688     40198.86    83.685213 
   95000    2132.5609    -115.0775    1.9295859   -113.14791   -7570.0269    4.3719335    4.3719335    4.3719335   -7570.0269   -23944.513   -9350.3816    10584.813   -2332.7113   -7991.6362   -16415.754    83.564274 
   95100    1117.6113   -114.17645    1.0112382   -113.16521    -18317.47     4.358156     4.358156     4.358156    -18317.47    41682.679   -53421.558   -43213.533   -6712.9206    3819.8577    73049.541    82.776739 
   95200    1069.0339    -114.1408   0.96728435   -113.17351    21487.629    4.3480372    4.3480372    4.3480372    21487.629   -6285.8282    39250.106     31498.61    4695.6914    42070.591    8377.7157    82.201502 
   95300    2218.3264   -115.16856    2.0071883   -113.16137    -10346.61    4.3650542    4.3650542    4.3650542    -10346.61   -16096.515   -8962.7325   -5980.5841   -14783.199    1061.6272    3222.6099    83.170427 
   95400     1109.968   -114.17934    1.0043224   -113.17502   -8678.3374     4.365709     4.365709     4.365709   -8678.3374    31896.856   -48719.803   -9212.0651    853.00008   -6454.5036    80490.496    83.207857 
   95500    1971.2558   -114.94749    1.7836337   -113.16385   -506.55035    4.3638727    4.3638727    4.3638727   -506.55035   -6442.0841    10894.092   -5971.6586    -2984.708    45793.418   -9823.3878    83.102908 
   95600    2028.5261    -114.9938     1.835453   -113.15835   -4829.9005    4.3643164    4.3643164    4.3643164   -4829.9005    23163.128   -10149.474   -27503.356   -6273.9073   -17533.664    29227.023     83.12826 
   95700     1334.378   -114.37843    1.2073732   -113.17105   -3098.0071    4.3524997    4.3524997    4.3524997   -3098.0071     47482.07   -27136.494   -29639.597     5339.691   -16563.052    58334.611     82.45486 
   95800    2069.2303   -115.03612     1.872283   -113.16384     2948.675    4.3610545    4.3610545    4.3610545     2948.675   -8277.7372    19685.399   -2561.6364   -5680.9557    46984.683   -27989.059    82.942005 
   95900    1321.7858   -114.36013    1.1959796   -113.16415   -15712.398    4.3729823    4.3729823    4.3729823   -15712.398    28736.193   -33272.519   -42600.868    -157.2234   -17997.056     59872.02    83.624429 
   96000    1442.1779   -114.45852    1.3049129   -113.15361     -15176.4    4.3667512    4.3667512    4.3667512     -15176.4    29377.879   -33401.196   -41505.882   -2841.9252   -4375.8644    25331.535    83.267467 
   96100    1681.4273   -114.66869    1.5213907   -113.14729   -11217.989    4.3613465    4.3613465    4.3613465   -11217.989    -7095.923   -22903.462   -3654.5822    16731.613    26430.285    -24082.58    82.958668 
   96200    1040.3518   -114.11149   0.94133216   -113.17016   -5744.4148    4.3503203    4.3503203    4.3503203   -5744.4148    33205.971   -32945.511   -17493.705    5833.4735   -5526.7632    83179.702    82.331058 
   96300    1754.5663     -114.761    1.5875685   -113.17343    9262.1433    4.3544342    4.3544342    4.3544342    9262.1433    15452.844    7038.2807    5295.3048   -2122.3612    -4875.119   -1597.9896     82.56485 
   96400    1465.9846   -114.50475    1.3264537   -113.17829   -16375.949    4.3684654    4.3684654    4.3684654   -16375.949    5088.4261     -25875.5   -28340.772    6293.9767    197.69257   -18385.597    83.365568 
   96500    967.68865   -114.06043   0.87558502   -113.18484    5023.8498    4.3610195    4.3610195    4.3610195    5023.8498    44470.072   -7512.7018    -21885.82   -3979.9185    6977.3333    85901.338    82.940008 
   96600    2410.9638    -115.3417    2.1814907   -113.16021    10790.044    4.3594318    4.3594318    4.3594318    10790.044   -4769.8354    26439.605    10700.363    3763.3405    -5595.309   -23483.068    82.849456 
   96700    1190.1114   -114.26312    1.0768378   -113.18628   -5260.1005    4.3549456    4.3549456    4.3549456   -5260.1005    14800.711    4388.0376    -34969.05   -2910.0511   -3717.3416    22525.301    82.593944 
   96800    1002.3786   -114.10073   0.90697322   -113.19376    693.62061    4.3523728    4.3523728    4.3523728    693.62061    19798.334    22322.775   -40040.246    9911.3237    3517.8176    63082.071    82.447646 
   96900    2106.2391   -115.07679    1.9057694   -113.17102   -4333.2183    4.3674113    4.3674113    4.3674113   -4333.2183   -28496.427    21301.995   -5805.2229   -10805.313   -1497.4715   -20453.417    83.305231 
   97000     811.9245   -113.92186   0.73464635   -113.18721   -713.88121    4.3608914    4.3608914    4.3608914   -713.88121    45556.613   -15452.214   -32246.043   -26870.901   -2780.8592    65057.041    82.932701 
   97100    1703.5068   -114.71501    1.5413688   -113.17364     13043.34    4.3540655    4.3540655    4.3540655     13043.34    20108.373    13849.215    5172.4335    21471.228   -6912.4504    23272.069    82.543876 
   97200    2139.7586   -115.10474    1.9360985   -113.16864   -976.20594    4.3597725    4.3597725    4.3597725   -976.20594   -7249.6111   -5350.2229    9671.2162   -25123.281    13342.903   -12178.302    82.868885 
   97300    530.58818   -113.67696   0.48008733   -113.19688    11544.766    4.3570746    4.3570746    4.3570746    11544.766    53569.195   -29128.855    10193.957   -24561.947   -3332.0519    85361.761    82.715136 
   97400    2341.8124   -115.28956    2.1189211   -113.17064    3462.9982    4.3708276    4.3708276    4.3708276    3462.9982     5922.763    2663.4236    1802.8079    16840.166    4432.8072   -3204.0919    83.500875 
   97500    1660.4169   -114.67539    1.5023801   -113.17301   -11133.517     4.371534     4.371534     4.371534   -11133.517    34820.888   -51991.112   -16230.327   -14981.018    746.92908    24810.534     83.54137 
   97600    822.87603   -113.91863   0.74455553   -113.17407   -687.81605     4.352314     4.352314     4.352314   -687.81605    51965.876   -21170.996   -32858.328   -29005.681   -1780.3297     76253.54    82.444305 
   97700    2246.0297   -115.19413    2.0322548   -113.16188    19018.468    4.3526638    4.3526638    4.3526638    19018.468    473.92336    30791.331    25790.149    11113.879   -14489.919   -24432.361    82.464185 
   97800    1230.2588   -114.29755     1.113164   -113.18439    3855.1643    4.3549006    4.3549006    4.3549006    3855.1643    58244.011    6881.2194   -53559.737    4265.2065   -8283.0294    60529.234    82.591385 
   97900    1100.7077   -114.18654   0.99594346   -113.19059   -8416.8165    4.3650182    4.3650182    4.3650182   -8416.8165    36512.465   -23023.422   -38739.493   -34307.274    7209.2834    33228.285    83.168365 
   98000    2194.4455   -115.14967    1.9855804   -113.16409   -15016.969    4.3700962    4.3700962    4.3700962   -15016.969   -22246.325    5933.1293   -28737.712   -5277.4813    -12364.33   -23988.295    83.458963 
   98100    1337.9811   -114.38307    1.2106334   -113.17243    2504.1027    4.3537078    4.3537078    4.3537078    2504.1027    43943.639    -2844.568   -33586.763    5728.5227   -9218.2826    83550.121    82.523537 
   98200    1592.5408   -114.61118    1.4409644   -113.17021    5115.6175     4.350427     4.350427     4.350427    5115.6175    15759.694   -33329.248    32916.406    -44355.55   -1394.6885    6682.5269    82.337115 
   98300    1796.0716   -114.79764    1.6251234   -113.17252    2479.3623    4.3599908    4.3599908    4.3599908    2479.3623   -4729.4355   -2479.0996    14646.622   -11154.199    3470.0229   -24618.858    82.881332 
   98400    1730.3493   -114.73843    1.5656564   -113.17277    -3926.475    4.3668194    4.3668194    4.3668194    -3926.475    28892.032    -18056.43   -22615.027    13703.178    1336.4119    52653.519    83.271367 
   98500    1478.0139   -114.51349     1.337338   -113.17615   -1694.6873    4.3616054    4.3616054    4.3616054   -1694.6873   -15417.228   -40821.733      51154.9   -71237.876    -6802.268    1925.8639    82.973442 
   98600    2012.3589   -114.98639    1.8208246   -113.16556     17483.26    4.3554506    4.3554506    4.3554506     17483.26   -6593.0078    30955.374    28087.414   -5844.8786    5900.9952   -6330.7931    82.622677 
   98700    1684.6939   -114.70019    1.5243465   -113.17585    8168.5597    4.3569299    4.3569299    4.3569299    8168.5597    39472.858   -24478.331    9511.1524   -3205.5652   -1589.9234    23121.652    82.706893 
   98800    1125.4433   -114.21035    1.0183247   -113.19203   -761.15051    4.3591029    4.3591029    4.3591029   -761.15051   -21978.098   -30102.967    49797.614   -89309.607    1423.8995    2482.4639    82.830707 
   98900    2612.4516   -115.53112    2.3638011   -113.16732    7543.9588    4.3654495    4.3654495    4.3654495    7543.9588     15860.31    17157.386   -10385.819    19421.974    496.09727   -4004.6946     83.19302 
   99000    1182.1473   -114.26412    1.0696317   -113.19449   -7976.6327     4.362153     4.362153     4.362153   -7976.6327   -2980.9903   -21303.289    354.38144   -59267.575   -4345.5611    16270.207      83.0047 
   99100     900.8422   -114.00984   0.81510095   -113.19474   -7057.7938    4.3552394    4.3552394    4.3552394   -7057.7938   -7774.7557   -34724.415    21325.789   -57174.943    4681.5212    22420.984    82.610662 
   99200     2365.156   -115.30729    2.1400428   -113.16724    18920.219    4.3581548    4.3581548    4.3581548    18920.219    31367.851    34260.468   -8867.6608    45790.871    2590.5755   -9261.3201    82.776674 
   99300    1146.7956   -114.22892    1.0376448   -113.19127   -23893.706    4.3631541    4.3631541    4.3631541   -23893.706   -44601.319   -48536.606    21456.807   -95919.465    -203.7938   -3786.1711    83.061862 
   99400    1422.2432   -114.47889    1.2868755   -113.19201    -7040.224    4.3566171    4.3566171    4.3566171    -7040.224    10118.042   -18398.229   -12840.485   -34821.582   -2632.8374    32659.864    82.689083 
   99500    2272.2703   -115.22712    2.0559979   -113.17112    861.46392    4.3595293    4.3595293    4.3595293    861.46392   -6248.6746     20444.93   -11611.864    7841.0979   -2048.1929    3255.6758    82.855015 
   99600    1186.7445   -114.26074    1.0737913   -113.18695   -30624.574    4.3643226    4.3643226    4.3643226   -30624.574   -74242.336   -40351.378    22719.992   -100467.64    4878.3665   -4841.5151    83.128611 
   99700    1776.6187   -114.77902    1.6075219    -113.1715    12909.132    4.3509282    4.3509282    4.3509282    12909.132    24787.132    30549.843   -16609.578    16421.131    2441.0941     32322.16    82.365576 
   99800    1507.3027   -114.54217    1.3638392   -113.17833      -5022.8    4.3577114    4.3577114    4.3577114      -5022.8    -13426.36    3009.2273   -4651.2672   -35402.933   -6485.7669   -3949.7531    82.751409 
   99900    1251.2626   -114.31482    1.1321687   -113.18265   -5066.0118    4.3618866    4.3618866    4.3618866   -5066.0118   -49061.969    13472.764     20391.17   -68898.533   -1587.7096   -14401.675    82.989491 
  100000    1788.8184   -114.78852    1.6185605   -113.16996    6903.5892     4.355305     4.355305     4.355305    6903.5892    12671.877    26371.341    -18332.45    34464.497     5402.353    39855.466    82.614394 
Loop time of 22.1047 on 1 procs for 100000 steps with 8 atoms

Pair  time (%) = 6.61563 (29.9286)
Kspce time (%) = 5.41668 (24.5046)
Neigh time (%) = 0.182114 (0.82387)
Comm  time (%) = 0.991086 (4.4836)
Outpt time (%) = 0.0252984 (0.114448)
Other time (%) = 8.87391 (40.1449)

Nlocal:    8 ave 8 max 8 min
Histogram: 1 0 0 0 0 0 0 0 0 0
Nghost:    1900 ave 1900 max 1900 min
Histogram: 1 0 0 0 0 0 0 0 0 0
Neighs:    2121 ave 2121 max 2121 min
Histogram: 1 0 0 0 0 0 0 0 0 0

Total # of neighbors = 2121
Ave neighs/atom = 265.125
Neighbor list builds = 2278
Dangerous builds = 0
unfix 20
unfix 21
print "seeds:4003121"
seeds:4003121
