LAMMPS (10 Feb 2015)
# ---- initialize simulations
clear
units metal
dimension 3
boundary p p p
atom_style charge
atom_modify map array
# ---- create atoms
read_data /Users/eugeneragasa/pyflamestk_git/pypospack/tests/tests_integration/workflow/WorkflowLammpsThermalExpansion/MgO_NaCl_unit.npt.T900/lammps.structure
  triclinic box = (0 0 0) to (4.2565 4.2565 4.2565) with tilt (0 0 0)
  1 by 1 by 1 MPI processor grid
  reading atoms ...
  8 atoms
# ---- define interatomic potential
include potential.mod
mass 1 24.305
mass 2 15.999

group Mg type 1
4 atoms in group Mg
group O type 2
4 atoms in group O

set group Mg charge 1.7
  4 settings made for charge
set group O charge -1.7
  4 settings made for charge

variable R_cut equal 10.0

pair_style buck/coul/long ${R_cut}
pair_style buck/coul/long 10
pair_coeff 1 1 0.0 0.5 0.0 ${R_cut}
pair_coeff 1 1 0.0 0.5 0.0 10
pair_coeff 1 2 929.69 0.29909 0.0 ${R_cut}
pair_coeff 1 2 929.69 0.29909 0.0 10
pair_coeff 2 2 4870 0.2679 77 ${R_cut}
pair_coeff 2 2 4870 0.2679 77 10

kspace_style pppm 1.0e-5

neighbor 1.0 bin
neigh_modify every 1 delay 0 check yes
# ---- define settings
compute eng all pe/atom
compute eatoms all reduce sum c_eng
# ---- run minimization
reset_timestep 0
fix 1 all box/relax iso 0.0 vmax 0.001
thermo 10
thermo_style custom step pe lx ly lz xy xz yz press pxx pyy pzz pxy pxz pyz c_eatoms
min_style cg
minimize 1e-25 1e-25 5000 10000
PPPM initialization ...
  G vector (1/distance) = 0.353152
  grid = 8 8 8
  stencil order = 5
  estimated absolute RMS force accuracy = 4.10333e-05
  estimated relative force accuracy = 2.84961e-06
  using double precision FFTs
  3d grid and FFT values/proc = 3375 512
Neighbor list info ...
  1 neighbor list requests
  update every 1 steps, delay 0 steps, check yes
  master list distance cutoff = 11
Memory usage per processor = 4.06549 Mbytes
Step PotEng Lx Ly Lz Xy Xz Yz Press Pxx Pyy Pzz Pxy Pxz Pyz eatoms 
       0   -119.82944       4.2565       4.2565       4.2565            0            0            0   -43102.631   -43102.631   -43102.631   -43102.631 -1.1410716e-10 2.0651384e-11 1.0044018e-10   -119.82944 
       9    -119.8549     4.222448     4.222448     4.222448            0            0            0   -490.28356   -490.28356   -490.28356   -490.28356 -3.7927136e-11 -7.2182599e-11 3.2130495e-11    -119.8549 
Loop time of 0.105761 on 1 procs for 9 steps with 8 atoms

Minimization stats:
  Stopping criterion = linesearch alpha is zero
  Energy initial, next-to-last, final = 
        -119.829437963     -119.854898204     -119.854898204
  Force two-norm initial, final = 6.22404 0.0696885
  Force max component initial, final = 6.22404 0.069669
  Final line search alpha, max atom move = 1.75215e-06 1.2207e-07
  Iterations, force evaluations = 9 35

Pair  time (%) = 0.0519402 (49.1109)
Kspce time (%) = 0.0314968 (29.7811)
Neigh time (%) = 0 (0)
Comm  time (%) = 0.00177598 (1.67924)
Outpt time (%) = 0 (0)
Other time (%) = 0.0205481 (19.4288)

Nlocal:    8 ave 8 max 8 min
Histogram: 1 0 0 0 0 0 0 0 0 0
Nghost:    2189 ave 2189 max 2189 min
Histogram: 1 0 0 0 0 0 0 0 0 0
Neighs:    2344 ave 2344 max 2344 min
Histogram: 1 0 0 0 0 0 0 0 0 0

Total # of neighbors = 2344
Ave neighs/atom = 293
Neighbor list builds = 0
Dangerous builds = 0
unfix 1
# ---- define output variables ----
variable natoms equal "count(all)"
variable tot_energy equal "c_eatoms"
variable length_x equal "lx"
variable length_y equal "ly"
variable length_z equal "lz"
variable tilt_xy equal "xy"
variable tilt_xz equal "xz"
variable tilt_yz equal "yz"
variable tot_press equal "press"
variable press_xx equal "pxx"
variable press_yy equal "pyy"
variable press_zz equal "pzz"
variable press_xy equal "pxy"
variable press_xz equal "pxz"
variable press_yz equal "pyz"

# ---- output ----
print "pypospack:output_section:begin"
pypospack:output_section:begin
print "tot_energy = ${tot_energy}"
tot_energy = -119.854898204259
print "num_atoms = ${natoms}"
num_atoms = 8
print "xx = ${length_x}"
xx = 4.222448
print "yy = ${length_y}"
yy = 4.222448
print "zz = ${length_z}"
zz = 4.222448
print "xy = ${tilt_xy}"
xy = 0
print "xz = ${tilt_xz}"
xz = 0
print "yz = ${tilt_yz}"
yz = 0
print "tot_press = ${tot_press}"
tot_press = -490.283556338482
print "pxx = ${press_xx}"
pxx = -490.283556338668
print "pyy = ${press_yy}"
pyy = -490.283556338614
print "pzz = ${press_zz}"
pzz = -490.283556338163
print "pxy = ${press_xy}"
pxy = -3.79271362347293e-11
print "pxz = ${press_xz}"
pxz = -7.2182599384956e-11
print "pyz = ${press_yz}"
pyz = 3.21304951944417e-11
print "pypospack:output_section:done"
pypospack:output_section:done
print "pypospack:lammps_sim:done"
pypospack:lammps_sim:done
#------------------------------------------------------------------------------
# RUN THERMOSTAT
# running using an NPT Nose-Hoover style thermostat
#------------------------------------------------------------------------------
variable tempdamp equal 0.1
variable pressdamp equal 1.0
# set initial velocities
velocity all create 900 7346510 mom yes dist gaussian loop all
# fix for Nose-Hoover style thermostat
fix 20 all npt temp 900 900 0.1 aniso 0.0 0.0 1.0 drag 1.0 couple xyz
variable boxx equal lx
variable boxy equal ly
variable boxz equal lz
variable boxp equal press
variable boxt equal temp
# calculate averages every 10000 steps
reset_timestep 0
fix 21 all ave/time 10 10 100 v_boxx v_boxy v_boxz v_boxp v_boxt file lattice.out
thermo_style custom step temp pe ke etotal press lx ly lz press pxx pyy pzz pxy pxz pyz vol
thermo_modify flush yes
thermo 100
run 100000
PPPM initialization ...
  G vector (1/distance) = 0.353501
  grid = 8 8 8
  stencil order = 5
  estimated absolute RMS force accuracy = 4.03791e-05
  estimated relative force accuracy = 2.80417e-06
  using double precision FFTs
  3d grid and FFT values/proc = 3375 512
Memory usage per processor = 3.06549 Mbytes
Step Temp PotEng KinEng TotEng Press Lx Ly Lz Press Pxx Pyy Pzz Pxy Pxz Pyz Volume 
       0          900    -119.8549   0.81433891   -119.04056    11064.114     4.222448     4.222448     4.222448    11064.114    12339.796    7096.4609    13756.084    4356.4934    5429.7869    4414.0775    75.282309 
     100    325.25708   -119.22523   0.29429944   -118.93093    10232.866    4.2482392    4.2482392    4.2482392    10232.866    25115.483    117.33411     5465.779    2805.0195    -8216.028   -1240.1076     76.67025 
     200    589.74809   -119.24882   0.53361647   -118.71521    -20880.45     4.265734     4.265734     4.265734    -20880.45    -12186.97     -31149.8    -19304.58   -184.18786    17055.326    3843.3827    77.621371 
     300    648.33439    -119.0976   0.58662658   -118.51097    13540.718    4.2478137    4.2478137    4.2478137    13540.718   -6856.6139    31778.468    15700.299   -1897.2222    1145.7455   -4769.8325    76.647215 
     400    1060.7135   -119.32521   0.95975583   -118.36546    13426.384    4.2514235    4.2514235    4.2514235    13426.384    29994.807    1168.4799    9115.8644   -5181.5165   -13936.891   -7612.9223    76.842784 
     500    900.35493   -119.08152   0.81466007   -118.26686   -28021.781      4.28517      4.28517      4.28517   -28021.781   -42892.857   -26728.945    -14443.54    -1452.934    2532.8088   -3317.7662    78.687214 
     600    403.75462   -118.58303   0.36532567    -118.2177   -16676.899    4.2692977    4.2692977    4.2692977   -16676.899   -28391.722    6630.1824   -28269.157   -7656.5523   -3115.1963   -9499.3635    77.816077 
     700    1131.7358   -119.20752    1.0240184    -118.1835    25553.175     4.228798     4.228798     4.228798    25553.175     41539.12    25757.024    9363.3808    2360.9959    10492.193    6286.4733    75.622465 
     800     956.7781   -119.08876   0.86571293   -118.22305   -18767.677    4.2847688    4.2847688    4.2847688   -18767.677    2578.7937   -8065.2724   -50816.553    1466.8348   -21127.899   -2836.0557    78.665114 
     900     939.4656   -119.05764   0.85004821    -118.2076   -42235.555    4.2853509    4.2853509    4.2853509   -42235.555   -23549.477   -42642.075   -60515.112    2724.6851   -3162.4559    2531.8367    78.697178 
    1000    648.36832   -118.76256   0.58665728    -118.1759    53418.399    4.2268393    4.2268393    4.2268393    53418.399    123527.48    28004.763    8722.9581    1238.9733    10209.496    64.368263     75.51743 
    1100    988.16315   -119.10589   0.89411079   -118.21178   -33899.359    4.2766707    4.2766707    4.2766707   -33899.359    -41157.71   -13932.783   -46607.583   -7596.6027     22170.73    3535.8396    78.219929 
    1200    1011.5696   -119.10861   0.91528943   -118.19332   -22572.486    4.2739226    4.2739226    4.2739226   -22572.486   -6636.7691   -22185.286   -38895.402    4719.5288   -1810.5059    4736.2407     78.06924 
    1300     1002.013   -119.09326   0.90664243   -118.18662    9251.1107    4.2451382    4.2451382    4.2451382    9251.1107    5133.1292    -9.879687    22630.083    1936.4594   -3233.5868    9286.9049    76.502477 
    1400    696.68723   -118.84077   0.63037725    -118.2104   -16296.371    4.2741136    4.2741136    4.2741136   -16296.371     -32670.6    10755.348   -26973.862   -13248.627    17721.402    4274.7288    78.079709 
    1500    1142.1284   -119.23368    1.0334218   -118.20026   -9744.5435    4.2657099    4.2657099    4.2657099   -9744.5435   -18748.529   -17881.702    7396.6001    3972.0688    7027.8575   -1225.0001    77.620056 
    1600    808.74883    -118.9327   0.73177294   -118.20093    25934.177    4.2591138    4.2591138    4.2591138    25934.177    36111.223    10934.812    30756.496   -1149.5737    10543.533    13344.124    77.260537 
    1700    919.91728   -119.03615   0.83236049   -118.20379   -9563.4213       4.2662       4.2662       4.2662   -9563.4213   -8713.2964   -39157.991    19181.024   -13589.836   -9131.9376    14485.688    77.646811 
    1800    868.29199   -118.99078   0.78564884   -118.20513    29677.483    4.2453234    4.2453234    4.2453234    29677.483    47488.404    11799.916    29744.129   -200.08727     13971.42   -4204.2593    76.512491 
    1900    899.61996   -119.03291   0.81399504   -118.21891    7122.6621    4.2662355    4.2662355    4.2662355    7122.6621    44743.436   -16477.474   -6897.9755    1685.2168   -34.027038   -2276.9796    77.648754 
    2000    1060.5481   -119.16511   0.95960617    -118.2055   -24819.971    4.2755753    4.2755753    4.2755753   -24819.971   -15615.928   -41190.841   -17653.142   -7733.6658    16.555612    18044.382    78.159845 
    2100    673.52234   -118.80969   0.60941717   -118.20027      29106.7    4.2448307    4.2448307    4.2448307      29106.7    87819.195   -3227.8843    2728.7886    7680.1195   -14895.596    9283.4738    76.485854 
    2200    1172.4884   -119.27452    1.0608921   -118.21362   -27901.852    4.2636543    4.2636543    4.2636543   -27901.852   -31032.389   -15929.866     -36743.3    445.69497    18139.652   -9210.1817    77.507898 
    2300    714.34428   -118.85606   0.64635372   -118.20971   -21901.096    4.2750892    4.2750892    4.2750892   -21901.096   -9019.9684   -12237.405   -44445.915    -6472.238    19877.885    6866.0883    78.133187 
    2400    1110.1809   -119.20377     1.004515   -118.19926   -1396.5039    4.2524376    4.2524376    4.2524376   -1396.5039    5672.2387   -18484.797    8623.0466    45.307249   -4851.3735    10740.194     76.89779 
    2500     860.4812   -118.98851   0.77858148   -118.20993    2526.9855    4.2620388    4.2620388    4.2620388    2526.9855     12746.95   -16451.542    11285.549     -1278.69    1709.4352   -2616.1193    77.419829 
    2600    827.53689   -118.95924   0.74877277   -118.21047    8898.2571    4.2652376    4.2652376    4.2652376    8898.2571   -16483.113    13065.927    30111.957    594.99986    5622.3314   -11010.201    77.594278 
    2700    892.07411   -119.01251    0.8071674   -118.20534    20971.367    4.2553654    4.2553654    4.2553654    20971.367    33187.084    22495.119    7231.8984   -8083.5535    15886.968    5609.3124    77.056727 
    2800    973.85497   -119.08837   0.88116444   -118.20721     18999.71    4.2585767    4.2585767    4.2585767     18999.71    38442.006   -7291.2274     25848.35    6461.9569   -5419.5571    8530.6804    77.231316 
    2900    974.83003   -119.09133   0.88204669   -118.20929   -5048.4227     4.267889     4.267889     4.267889   -5048.4227    7550.9565   -6750.5769   -15945.648    -4254.197   -10842.257      3025.85    77.739071 
    3000    752.20826   -118.89114   0.68061384   -118.21053   -10112.851    4.2575475    4.2575475    4.2575475   -10112.851    16038.341   -15207.129   -31169.764   -1045.9263    7606.1991   -17356.169    77.175331 
    3100    901.13219   -119.02863   0.81536334   -118.21327   -5208.0214    4.2552324    4.2552324    4.2552324   -5208.0214    19663.766   -17317.272   -17970.558    8723.1007    17768.624   -3549.6981    77.049504 
    3200    1062.8772   -119.17217   0.96171365   -118.21046   -29739.551    4.2749748    4.2749748    4.2749748   -29739.551   -28957.312   -32545.832   -27715.509   -11799.519   -11765.545    8299.2741    78.126913 
    3300    858.91247   -118.98788   0.77716205   -118.21072   -1230.2916    4.2551834    4.2551834    4.2551834   -1230.2916   -5038.1201    910.80986    436.43551    6587.2465   -1248.3629   -14412.375    77.046842 
    3400    325.88903   -118.51367   0.29487124    -118.2188    38918.009    4.2526485    4.2526485    4.2526485    38918.009    77949.401     2554.729    36249.896   -7426.9912    8879.6307   -10666.023    76.909229 
    3500     1227.374   -119.31988    1.1105538   -118.20933     -34779.4    4.2814707    4.2814707    4.2814707     -34779.4   -34683.403   -25998.386    -43656.41   -3976.6325    1255.0817   -1602.9529      78.4836 
    3600     951.6718   -119.06499   0.86109264    -118.2039    31147.077    4.2495414    4.2495414    4.2495414    31147.077    59069.808    36847.736    -2476.313   -12671.141    15.940589    8685.0704    76.740779 
    3700    1023.2028   -119.14264   0.92581536   -118.21683    4457.8022    4.2540343    4.2540343    4.2540343    4457.8022   -4011.4693    16766.676    618.19968   -10164.145    10966.866      4317.62    76.984441 
    3800    437.12128   -118.61044   0.39551652   -118.21492   -15016.484    4.2850964    4.2850964    4.2850964   -15016.484    -33966.15    22106.018   -33189.321   -7547.3875   -2502.2435    1587.9387    78.683159 
    3900    1161.1893   -119.25014    1.0506685   -118.19947   -2670.5048    4.2532434    4.2532434    4.2532434   -2670.5048    784.73567   -17530.663    8734.4132    5048.8157    2170.0627   -2312.3299     76.94151 
    4000    952.73284   -119.06162    0.8620527   -118.19956    20663.525    4.2452526    4.2452526    4.2452526    20663.525    18393.205    33460.523    10136.846   -3292.7261    8836.0727    6967.0848    76.508661 
    4100     891.0149   -119.01361   0.80620901    -118.2074   -19486.285    4.2826892    4.2826892    4.2826892   -19486.285   -50655.323   -6705.9752   -1097.5578    2723.9896   -2890.6701   -5306.0128     78.55063 
    4200    1125.7329   -119.20974    1.0185868   -118.19115   -8594.6332    4.2706049    4.2706049    4.2706049   -8594.6332   -3555.9305   -33668.502    11440.533    6213.4219   -9854.0515   -7785.8491    77.887572 
    4300     710.0307   -118.83203    0.6424507   -118.18958    29021.137     4.254636     4.254636     4.254636    29021.137    52915.983    15570.215    18577.213   -10768.099   -3926.9192   -8529.1962    77.017112 
    4400    920.85686   -119.03238   0.83321064   -118.19917    1459.5375    4.2694945    4.2694945    4.2694945    1459.5375    5881.3845   -3822.8303    2320.0582   -4339.4171    6358.0482    9839.8103    77.826837 
    4500    912.21278   -119.02299    0.8253893    -118.1976     -6404.72    4.2709106    4.2709106    4.2709106     -6404.72    21013.963   -33699.373   -6528.7502   -7310.8284    2153.4177   -7545.7313    77.904301 
    4600    759.16727   -118.88554    0.6869105   -118.19863   -4022.5689    4.2599269    4.2599269    4.2599269   -4022.5689     35791.73   -30999.209   -16860.227   -6559.5711   -9739.8522   -28784.032    77.304797 
    4700    943.67181   -119.05645   0.85385409    -118.2026   -14012.178    4.2570213    4.2570213    4.2570213   -14012.178   -5434.8597   -17459.715    -19141.96    7758.7528    7714.9201    16821.236    77.146723 
    4800    963.60711   -119.07613   0.87189196   -118.20424   -30478.485    4.2732078    4.2732078    4.2732078   -30478.485   -25746.316   -40038.738   -25650.401   -6863.7263    16.445816   -411.32776    78.030077 
    4900    1065.5064   -119.17121   0.96409262   -118.20712    -17594.55    4.2558848    4.2558848    4.2558848    -17594.55    1662.4433   -24661.674   -29784.418   -2733.3901    2878.0069   -14134.249     77.08495 
    5000    669.90739    -118.8194   0.60614628   -118.21326     24947.86    4.2451669    4.2451669    4.2451669     24947.86    28013.189    24744.712    22085.679   -346.40541   -4199.6788    2896.4529    76.504031 
    5100    907.98812   -119.03452   0.82156673   -118.21296   -21313.688    4.2805966    4.2805966    4.2805966   -21313.688   -21512.792   -45378.877    2950.6053    12927.447   -5473.9029    3766.5926    78.435544 
    5200     1184.109   -119.27577    1.0714067   -118.20436    24304.948    4.2484469    4.2484469    4.2484469    24304.948    15571.163    33343.721    23999.962   -2849.1504    14828.668   -4431.7872    76.681498 
    5300    837.79225   -118.97324   0.75805203   -118.21518    17492.515    4.2468005    4.2468005    4.2468005    17492.515    40810.678   -13856.244    25523.112   -5685.3429   -4099.3363   -5849.6876    76.592381 
    5400    491.97078   -118.66066    0.4451455   -118.21551   -37253.286    4.2801642    4.2801642    4.2801642   -37253.286   -40090.002     -62099.8   -9570.0559   -15507.383   -11968.506    -16498.53    78.411778 
    5500    954.25479   -119.06753   0.86342979    -118.2041    21456.476    4.2385636    4.2385636    4.2385636    21456.476    31247.645    10143.816    22977.967    5383.5951   -13581.824   -1296.7152     76.14758 
    5600     1240.555   -119.33778    1.1224803    -118.2153   -9475.5514    4.2573973    4.2573973    4.2573973   -9475.5514   -16910.045   -18263.215    6746.6061    -6039.091   -4835.4823   -2462.0969    77.167163 
    5700    822.69061   -118.95496   0.74438775   -118.21058   -22432.748    4.2755707    4.2755707    4.2755707   -22432.748    -21729.05   -57105.298    11536.104   -12910.747    9161.7768   -13398.054     78.15959 
    5800    746.20927   -118.87167   0.67518583   -118.19649    25189.867    4.2452816    4.2452816    4.2452816    25189.867    33154.582    11683.168    30731.851    647.55813   -9295.1045   -4021.2041    76.510229 
    5900    1138.9041   -119.23383    1.0305044   -118.20333   -23318.899    4.2706885    4.2706885    4.2706885   -23318.899    -12757.48   -34444.739   -22754.478   -2871.0862   -2854.1565     3989.731    77.892151 
    6000    831.65214   -118.94921   0.75249634   -118.19671    4048.9978    4.2688588    4.2688588    4.2688588    4048.9978    1625.2468   -473.97867    10995.725    -8980.809    13385.486    5028.1611     77.79208 
    6100    730.86382   -118.85661   0.66130094   -118.19531    18802.894    4.2541912    4.2541912    4.2541912    18802.894    50055.783    13959.266   -7606.3664       -16070      4859.25   -16358.611    76.992961 
    6200    748.75867   -118.87809   0.67749258   -118.20059   -8751.0439    4.2766138    4.2766138    4.2766138   -8751.0439    16419.972     1166.867   -43839.971   -15519.783   -2405.4228    11083.251    78.216808 
    6300    1236.5332   -119.30846    1.1188412   -118.18962   -255.44503    4.2599612    4.2599612    4.2599612   -255.44503   -3029.8566    5422.2382   -3158.7168    7079.0709    5382.8138    16263.404    77.306663 
    6400     813.5151   -118.93097   0.73608556   -118.19488    6979.8574    4.2552423    4.2552423    4.2552423    6979.8574    5847.4854    28974.317    -13882.23   -4766.2279    6970.0626   -15865.754     77.05004 
    6500    566.91562   -118.72047   0.51295717   -118.20752   -26263.649    4.2761708    4.2761708    4.2761708   -26263.649   -11409.816    -20599.08    -46782.05   -644.59781    2670.2676   -27180.839    78.192508 
    6600    1224.8606   -119.30861    1.1082796   -118.20033    11929.761    4.2440762    4.2440762    4.2440762    11929.761    12813.485    3720.9257    19254.873    6804.2632   -417.13466   -1583.5455    76.445078 
    6700    1205.1744   -119.30125    1.0904671   -118.21078   -2015.9252    4.2571187    4.2571187    4.2571187   -2015.9252    15700.859   -7219.2368   -14529.398    1478.2731   -4059.3139   -884.39141    77.152016 
    6800     686.6176   -118.84257   0.62126603    -118.2213   -21443.451     4.269065     4.269065     4.269065   -21443.451   -20108.628   -28769.257    -15452.47   -7341.7858   -886.68925   -15648.338    77.803353 
    6900    601.74896   -118.75252    0.5444751   -118.20804    47931.746    4.2337131    4.2337131    4.2337131    47931.746    41525.033    14274.854    87995.352   -12208.403    87.373975   -23280.452    75.886455 
    7000    1113.1666   -119.22408    1.0072165   -118.21687   -13580.803    4.2743622    4.2743622    4.2743622   -13580.803   -7888.7553    5629.0744   -38482.727     2226.207   -3268.6885   -3722.5334    78.093334 
    7100    1126.3505   -119.22856    1.0191456   -118.20941    12329.206    4.2567367    4.2567367    4.2567367    12329.206   -10614.607    5501.7025    42100.521    3622.1714   -1102.4553    9113.1311    77.131248 
    7200    779.70907   -118.91759   0.70549715   -118.21209     22012.69    4.2433648    4.2433648    4.2433648     22012.69    19315.972    2787.2998    43934.798    -18161.74   -5391.5277   -20225.019    76.406642 
    7300    675.08184   -118.81376   0.61082823   -118.20294   -43002.734    4.2844877    4.2844877    4.2844877   -43002.734   -35369.358   -46925.461   -46713.382   -6995.5833    7371.7468   -34732.238    78.649635 
    7400    1195.0056   -119.27176    1.0812662   -118.19049    5108.2486     4.246484     4.246484     4.246484    5108.2486    14597.084   -1827.9715    2555.6329    19517.247    8233.1302    2683.2827    76.575257 
    7500    1032.7996   -119.14072   0.93449876   -118.20622   -2141.4029    4.2546223    4.2546223    4.2546223   -2141.4029    13203.188   -27900.923     8273.526   -5876.5961   -7611.2168    5913.3712    77.016371 
    7600    550.63975   -118.70417   0.49823042   -118.20594   -13751.862     4.276928     4.276928     4.276928   -13751.862    17628.393   -43803.284   -15080.696    679.14573    5019.7721   -23832.798    78.234049 
    7700    803.97904   -118.92396   0.72745713    -118.1965    32789.803    4.2467081    4.2467081    4.2467081    32789.803    61496.341   -7540.9848    44414.052   -2545.4173   -3376.6128   -4802.5789    76.587385 
    7800    1102.3283   -119.20273   0.99740981   -118.20532    3647.0919    4.2605173    4.2605173    4.2605173    3647.0919    15.317662   -17151.231    28077.189    9011.4277    -4097.661    12714.656    77.336941 
    7900    704.62385   -118.84561   0.63755847   -118.20805   -2608.6136    4.2679603    4.2679603    4.2679603   -2608.6136    2365.9421    -9338.818   -852.96473    10425.655   -24346.249   -5610.1488    77.742968 
    8000    848.09206   -118.96991   0.76737152   -118.20254    14192.988    4.2495439    4.2495439    4.2495439    14192.988    25847.036   -5516.4675    22248.394   -11297.641   -8426.4698   -11928.066    76.740914 
    8100    1026.3959   -119.13757   0.92870454   -118.20887   -14816.648      4.26371      4.26371      4.26371   -14816.648     -2755.06   -44628.636    2933.7515   -7061.9048   -2529.7669    10440.069    77.510934 
    8200    1075.7138   -119.18325   0.97332844   -118.20992   -1885.8075    4.2546226    4.2546226    4.2546226   -1885.8075    2240.4088    14657.759    -22555.59     4661.423    3317.0076    7324.0102    77.016383 
    8300    729.14718   -118.87891   0.65974769   -118.21916    19654.883    4.2538978    4.2538978    4.2538978    19654.883    51856.317    5586.1012    1522.2291    6442.1179   -10864.361   -21922.779    76.977033 
    8400    958.03983   -119.07792   0.86685457   -118.21106   -27095.331    4.2750438    4.2750438    4.2750438   -27095.331   -28487.893   -36543.507   -16254.592   -3298.2349   -2279.5108   -2177.6072    78.130697 
    8500    1092.6053   -119.18401    0.9886122   -118.19539    11903.843      4.24814      4.24814      4.24814    11903.843    28359.873    12504.482   -5152.8248   -2952.7352    16654.848    15110.047    76.664882 
    8600    997.83762   -119.11066   0.90286444   -118.20779    5130.2698    4.2537018    4.2537018    4.2537018    5130.2698     143.5132    15278.423   -31.126499    2090.9123   -3137.2561   -15142.459    76.966389 
    8700    619.40849   -118.76807   0.56045381   -118.20762   -14891.979    4.2740748    4.2740748    4.2740748   -14891.979   -17071.581   -27830.191    225.83514    -8497.059   -14452.134   -22018.258    78.077581 
    8800    984.03159   -119.08895   0.89037246   -118.19858     23242.37    4.2493325    4.2493325    4.2493325     23242.37    41600.832    28637.975    -511.6989    199.32728   -8128.2729    3418.8003    76.729459 
    8900    1240.8855   -119.32246    1.1227793   -118.19968    12026.324    4.2530374    4.2530374    4.2530374    12026.324    35057.938     1821.332   -800.29697   -7551.2814     9682.472    3814.6245     76.93033 
    9000    686.47539   -118.82743   0.62113736    -118.2063     -5528.53    4.2683168    4.2683168    4.2683168     -5528.53    7523.4469   -6114.0052   -17995.032   -6295.3694    -6558.414   -27751.014     77.76245 
    9100    574.34638   -118.72762   0.51968068   -118.20794    -1161.759    4.2583158    4.2583158    4.2583158    -1161.759    37641.275   -10293.058   -30833.494    13387.272   -8235.1208   -27473.168    77.217118 
    9200    1246.9501   -119.33379    1.1282667   -118.20552   -6783.5896    4.2485013    4.2485013    4.2485013   -6783.5896    -14349.63   -1041.7237   -4959.4148   -635.25024   -15499.728    8227.2311    76.684443 
    9300    1050.7809   -119.16197   0.95076864    -118.2112   -5757.8803    4.2578093    4.2578093    4.2578093   -5757.8803    5743.9269   -6772.7152   -16244.853    9139.2585    5313.9059   -552.62462    77.189569 
    9400    753.06174   -118.89404   0.68138609   -118.21265   -19290.702    4.2627888    4.2627888    4.2627888   -19290.702    8015.9672   -30937.854   -34950.218   -5548.5445    5568.6707   -29833.827    77.460703 
    9500    592.13897   -118.74834   0.53577979   -118.21256    7794.5655    4.2517513    4.2517513    4.2517513    7794.5655   -5436.0012   -2804.4448    31624.142   -4322.3733   -16426.121    -1950.324    76.860561 
    9600    1149.8081   -119.24983    1.0403705   -118.20946   -14918.887    4.2610469    4.2610469    4.2610469   -14918.887    -35282.49   -6508.6062   -2965.5658    11414.333   -10787.008    14379.434    77.365786 
    9700     1042.426   -119.14957   0.94320893   -118.20636   -17532.717    4.2618819    4.2618819    4.2618819   -17532.717   -14104.728   -13185.806   -25307.619    -9720.358    6166.9619    -15551.87    77.411279 
    9800    738.01107   -118.87178   0.66776792   -118.20401    15605.394    4.2505759    4.2505759    4.2505759    15605.394    9403.6972    8539.1747     28873.31   -181.13122   -3238.2601   -10764.931    76.796833 
    9900     905.1597    -119.0235   0.81900752   -118.20449    -19958.53    4.2707122    4.2707122    4.2707122    -19958.53   -18671.868   -22593.113   -18610.609   -6615.6331   -12055.742     9774.522    77.893449 
   10000    1030.3856   -119.13404   0.93231451   -118.20173    5265.8675    4.2538567    4.2538567    4.2538567    5265.8675    851.80353    9690.6762    5255.1227   -8232.6963   -4630.6298    1320.5498    76.974797 
   10100     697.5084   -118.84163   0.63112025   -118.21051     26651.47    4.2521272    4.2521272    4.2521272     26651.47      33092.1     30711.04     16151.27    6297.4064    16610.033   -16715.106    76.880951 
   10200     946.9166   -119.06068   0.85679004   -118.20389   -14935.253    4.2726261    4.2726261    4.2726261   -14935.253     12028.41   -21814.004   -35020.166   -8242.7355   -965.48547   -7560.2301    77.998214 
   10300    1054.6759   -119.14883   0.95429291   -118.19454    34737.979    4.2449927    4.2449927    4.2449927    34737.979    26719.882    49314.572    28179.484    1037.1584   -9285.7424    8096.4353     76.49461 
   10400    941.39989   -119.06307   0.85179841   -118.21127    -7611.578    4.2584191    4.2584191    4.2584191    -7611.578   -16891.306     7508.164   -13451.592    5319.0351    6766.4576   -12025.824    77.222739 
   10500    592.40648   -118.74557   0.53602184   -118.20955   -2856.9914    4.2624092    4.2624092    4.2624092   -2856.9914    21218.073   -21881.669   -7907.3783    -807.0486    4849.3279   -34074.937    77.440016 
   10600    1189.1555   -119.27421    1.0759729   -118.19823    5344.5272    4.2539125    4.2539125    4.2539125    5344.5272   -4563.0996   -17173.371    37770.053    10277.933    5381.0779    1427.2485     76.97783 
   10700    939.12765   -119.05141   0.84974244   -118.20166   -16695.962    4.2683519    4.2683519    4.2683519   -16695.962   -6117.2928   -35795.205   -8175.3873   -5158.7236   -10119.194    15754.643    77.764368 
   10800    575.95505   -118.72677   0.52113623   -118.20564     18501.93    4.2496519    4.2496519    4.2496519     18501.93    16689.787    7019.3064    31796.697   -6632.1316   -9613.8814   -28199.899    76.746761 
   10900    811.33559   -118.94848   0.73411349   -118.21437   -3361.7576    4.2661359    4.2661359    4.2661359   -3361.7576    -12100.95    18068.229   -16052.552   -3750.8053    15269.749   -17713.494    77.643313 
   11000    1085.3457     -119.185   0.98204362   -118.20295   -29441.395    4.2682406    4.2682406    4.2682406   -29441.395   -38890.523   -7374.8876   -42058.775   -3482.9656    -2534.075    18275.359    77.758285 
   11100    991.15963   -119.08712   0.89682206    -118.1903    39815.438    4.2280362    4.2280362    4.2280362    39815.438    40375.971    72349.372    6720.9702    3323.7944   -9830.2263   -2417.4751      75.5816 
   11200    597.36701   -118.76113   0.54051023   -118.22062   -18359.048    4.2766578    4.2766578    4.2766578   -18359.048   -12854.409   -7455.0451   -34767.691     1919.338    7742.7908   -34114.881    78.219223 
   11300    980.62122   -119.09531   0.88728669   -118.20803   -16136.111     4.261626     4.261626     4.261626   -16136.111    -18798.42   -3992.4717   -25617.441   -2433.1913    7237.3869   -10362.323    77.397332 
   11400    1152.5902   -119.22695    1.0428878   -118.18406     43034.47    4.2239064    4.2239064    4.2239064     43034.47    35301.648    55939.953    37861.809    2834.4705    -1907.813    6041.1242    75.360344 
   11500    782.26227   -118.91485   0.70780734   -118.20704   -24642.921    4.2698441    4.2698441    4.2698441   -24642.921    6993.5674   -36244.902   -44677.428   -2641.7342   -14312.125   -19968.247    77.845957 
   11600    787.68893   -118.91702    0.7127175    -118.2043   -2583.4845    4.2604215    4.2604215    4.2604215   -2583.4845   -7253.5299    6522.8364   -7019.7601    1412.4505   -3118.5809   -25646.655    77.331725 
   11700    993.08565   -119.09801   0.89856477   -118.19944    9098.5383    4.2485771    4.2485771    4.2485771    9098.5383   -7602.4065    25961.675    8936.3469   -11708.019    5569.2873   -4793.0369    76.688547 
   11800    1052.8621   -119.15867   0.95265179   -118.20602   -9406.2464    4.2533985    4.2533985    4.2533985   -9406.2464   -24268.851   -3938.8884   -11.000352   -5846.0072    3718.0161    12260.024     76.94993 
   11900    675.98662   -118.82643    0.6116469   -118.21479    14707.283    4.2608386    4.2608386    4.2608386    14707.283    15589.037    40084.093    -11551.28    661.36749   -1728.0294   -21850.675    77.354441 
   12000    925.11818   -119.03898   0.83706637   -118.20191   -18671.039    4.2762302    4.2762302    4.2762302   -18671.039   -19865.381   -552.28598    -35595.45   -8378.1499    693.31683   -17998.217    78.195765 
   12100    1044.2439   -119.14211   0.94485385   -118.19725    20273.102    4.2385074    4.2385074    4.2385074    20273.102   -3142.8856    36733.685    27228.508   -8623.6459    9931.7045    17139.267    76.144553 
   12200    1018.5453   -119.13685   0.92160119   -118.21525    6535.9665    4.2495063    4.2495063    4.2495063    6535.9665   -9190.7761     11533.06    17265.616    2007.4947   -2725.7815   -9228.5509    76.738877 
   12300    660.89777   -118.79678   0.59799419   -118.19879   -45973.455    4.2884416    4.2884416    4.2884416   -45973.455   -25252.052   -48519.743   -64148.571   -1557.6522    -5035.743   -31525.214    78.867578 
   12400    907.33892   -119.01044   0.82097933   -118.18947    12673.675    4.2411454    4.2411454    4.2411454    12673.675    27816.071    16980.948   -6775.9944    1911.8082    13501.643   -560.16642    76.286816 
   12500    1161.1066   -119.24802    1.0505937   -118.19742    1984.2845    4.2467018    4.2467018    4.2467018    1984.2845   -5242.5604     7454.671    3740.7428   -3809.8128    4189.3619    8235.5976    76.587041 
   12600    912.60461   -119.02447   0.82574383   -118.19873    -27602.02    4.2703281    4.2703281    4.2703281    -27602.02   -33708.213   -10795.275   -38302.573   -11644.096   -8927.3108   -25636.574    77.872431 
   12700    537.16944   -118.68553   0.48604219   -118.19949    16292.783      4.25403      4.25403      4.25403    16292.783    13355.811    33520.067    2002.4721    6813.3872   -7459.4936   -26803.564    76.984207 
   12800    1106.7282    -119.1987     1.001391   -118.19731   -24781.401    4.2598657    4.2598657    4.2598657   -24781.401   -30131.694   -9448.2924   -34764.217    -932.5268    10880.734    18553.883    77.301465 
   12900    962.05252    -119.0728   0.87048534   -118.20232    9864.2116    4.2426178    4.2426178    4.2426178    9864.2116   -14997.584    14175.675    30414.543   -4817.8293    3752.0468    9695.7076    76.366296 
   13000    835.99731   -118.97425   0.75642793   -118.21783   -2608.2844    4.2554354    4.2554354    4.2554354   -2608.2844   -2709.8945    -14295.11    9180.1518    2771.5425   -11565.474   -34007.771    77.060531 
   13100    771.77853   -118.90739   0.69832143   -118.20907   -15319.085    4.2686977    4.2686977    4.2686977   -15319.085   -16567.006   -12170.276   -17219.974   -4203.5411    3148.5256    -21340.23    77.783272 
   13200    968.38404   -119.07583   0.87621423   -118.19961    21571.904     4.239357     4.239357     4.239357    21571.904   -7466.6315    48338.434    23843.908     3301.326     20469.82    24198.922    76.190352 
   13300    924.39297   -119.04896   0.83641018   -118.21255   -1401.7762    4.2580751    4.2580751    4.2580751   -1401.7762    10112.963   -1581.7883   -12736.503    4902.1899   -3796.6237    4589.7916    77.204029 
   13400    818.46414   -118.94577   0.74056355   -118.20521   -9185.0757    4.2646259    4.2646259    4.2646259   -9185.0757     9750.466   -7745.5736   -29560.119   -4840.2805   -10225.255   -24891.015    77.560894 
   13500    833.11387   -118.95324   0.75381893   -118.19942    14854.916    4.2477718    4.2477718    4.2477718    14854.916    15811.443    35572.074   -6818.7674   -616.18655    11177.316   -13163.065    76.644949 
   13600    924.80865   -119.04493    0.8367863   -118.20814   -6432.1777    4.2529717    4.2529717    4.2529717   -6432.1777    13363.124   -1611.5771    -31048.08    1134.5535    7965.6534    22069.699    76.926767 
   13700    880.96952   -119.00874   0.79711974   -118.21162    13385.648    4.2495175    4.2495175    4.2495175    13385.648    42172.055    5236.1031   -7251.2151    2694.0927   -4764.3839    10676.875    76.739481 
   13800    961.16505   -119.08149   0.86968233   -118.21181   -31708.872    4.2698549    4.2698549    4.2698549   -31708.872   -18904.652   -46563.723   -29658.241   -2304.1407   -14113.384    -18361.69    77.846548 
   13900    781.64678   -118.91412   0.70725043   -118.20687   -6468.4507    4.2530121    4.2530121    4.2530121   -6468.4507        15665   -31810.356   -3259.9958   -10168.482    1402.4637   -3158.5339    76.928957 
   14000    1196.5299    -119.2846    1.0826454   -118.20196    7299.9252    4.2418158    4.2418158    4.2418158    7299.9252    15596.197    21060.905   -14757.326     1211.561    9090.2587    6518.5929    76.322998 
   14100     802.3735   -118.92996   0.72600441   -118.20395   -26230.184    4.2732375    4.2732375    4.2732375   -26230.184   -30962.117   -631.03455     -47097.4      2956.64   -31975.654    1876.2437    78.031702 
   14200    738.26801   -118.87255   0.66800041   -118.20455     3592.156    4.2488579    4.2488579    4.2488579     3592.156    31195.611   -23396.243    2977.0999     1034.762    -11894.21    -6491.633    76.703752 
   14300    906.77114   -119.02472   0.82046558   -118.20425     2574.815    4.2484091    4.2484091    4.2484091     2574.815    18876.454   -20578.511    9426.5023    2245.5518    14914.455   -8665.9748    76.679451 
   14400      1046.86   -119.14795   0.94722093   -118.20073    -25072.09    4.2644177    4.2644177    4.2644177    -25072.09   -15516.403   -19183.592   -40516.274   -559.22352   -24729.528    2790.4994    77.549539 
   14500    899.33659   -119.01641   0.81373865   -118.20267     9121.275    4.2500128    4.2500128    4.2500128     9121.275    38660.534    18167.005   -29463.714    3430.7605   -23892.011     4452.009    76.766316 
   14600    864.81012   -118.99181   0.78249837   -118.20931   -4603.1271    4.2523087    4.2523087    4.2523087   -4603.1271   -3161.9493    3800.4682     -14447.9   -2211.9713    10011.893   -1910.4216    76.890798 
   14700     839.6342   -118.97036   0.75971867   -118.21064    1104.6715    4.2508878    4.2508878    4.2508878    1104.6715    35215.648   -13049.605   -18852.028   -10238.235     12516.11   -9154.1575    76.813742 
   14800    966.44154   -119.08563   0.87445662   -118.21117   -6607.2393    4.2578335    4.2578335    4.2578335   -6607.2393    7869.7814   -15986.401   -11705.098   -3182.0508   -19414.647    790.98162    77.190883 
   14900    954.60932   -119.07512   0.86375058   -118.21137   -341.59713    4.2524391    4.2524391    4.2524391   -341.59713   -9150.0764    11236.331   -3111.0464   -3899.6315   -11428.984    14845.028    76.897867 
   15000    879.12774   -119.00822   0.79545326   -118.21277     22145.36    4.2420208    4.2420208    4.2420208     22145.36    60043.377    19699.452   -13306.748     712.6564     5404.935    7208.5543    76.334061 
   15100    758.39527   -118.90461   0.68621198    -118.2184   -6378.8983    4.2641059    4.2641059    4.2641059   -6378.8983   -5813.7084   -26224.282    12901.295   -16160.873    10043.099   -13588.572    77.532529 
   15200    939.46531   -119.06077   0.85004796   -118.21072   -4368.7372    4.2517329    4.2517329    4.2517329   -4368.7372   -18507.082   -19210.241    24611.112   -4454.1422   -9710.7583   -1416.1916    76.859564 
   15300    1048.5871   -119.15837   0.94878369   -118.20959    38.675883    4.2420688    4.2420688    4.2420688    38.675883    32191.506   -4580.4358   -27495.043    5331.3715   -4926.9093    31727.643    76.336657 
   15400    899.95168   -119.02739   0.81429519   -118.21309   -20413.349    4.2604092    4.2604092    4.2604092   -20413.349    8254.0214   -36607.427   -32886.643   -3948.1441    932.17696    18154.223    77.331057 
   15500    965.06266   -119.08271   0.87320897    -118.2095   -5692.6332     4.252622     4.252622     4.252622   -5692.6332    13538.704   -18556.648   -12059.956   -4417.8173    4098.1983   -24276.607    76.907795 
   15600    645.88809   -118.79854   0.58441312   -118.21413    77.896856    4.2488112    4.2488112    4.2488112    77.896856    41852.438   -31807.706   -9811.0419   -8217.7209    12472.276    20410.281    76.701225 
   15700     622.0213   -118.78237   0.56281794   -118.21955    7184.8343    4.2496615    4.2496615    4.2496615    7184.8343    51984.954   -50749.857    20319.405    5444.3461   -1029.9943    39872.164    76.747283 
   15800    1225.9498   -119.32721    1.1092651   -118.21794   -4112.4809    4.2553379    4.2553379    4.2553379   -4112.4809    2636.5586   -17469.978    2495.9766   -1877.7564   -1740.8076    2929.0923    77.055235 
   15900    1110.8694    -119.2165     1.005138   -118.21136   -13818.036    4.2588774    4.2588774    4.2588774   -13818.036   -15971.762   -9756.1022   -15726.245   -8539.8697   -4529.0965   -6201.3177    77.247677 
   16000    677.00089   -118.82807   0.61256463   -118.21551   -3877.5762    4.2480174    4.2480174    4.2480174   -3877.5762    17395.189   -23411.936   -5615.9816   -1596.6434   -1449.0145      38157.4    76.658243 
   16100    587.99624   -118.75074   0.53203136   -118.21871   -621.88846    4.2546849    4.2546849    4.2546849   -621.88846    18333.685   -9698.4395   -10500.911    3542.2156    4380.5014    17797.699    77.019766 
   16200    1146.2815   -119.24334    1.0371796   -118.20617   -19570.809    4.2670172    4.2670172    4.2670172   -19570.809   -16388.659   -16695.337   -25628.431    13348.823    -5955.425   -13229.257    77.691443 
   16300    973.77786   -119.08393   0.88109468   -118.20283   -674.19457    4.2561333    4.2561333    4.2561333   -674.19457    34120.121   -6943.2909   -29199.414   -3514.9115    505.94914    14892.058    77.098455 
   16400    779.46453   -118.91091   0.70527588   -118.20564    20388.363    4.2457294    4.2457294    4.2457294    20388.363      42772.1    14775.293    3617.6948   -2787.0664    5183.9886     37366.88    76.534442 
   16500    956.18026   -119.07317   0.86517199     -118.208    6981.2511    4.2582745    4.2582745    4.2582745    6981.2511    35431.519   -30277.278    15789.512    8678.2879    9472.0417   -848.87043    77.214875 
   16600    1090.4195   -119.19193   0.98663444   -118.20529   -7850.0143    4.2606544    4.2606544    4.2606544   -7850.0143    5500.2511   -13214.851   -15835.443    6813.6962   -360.97091   -7045.3748    77.344408 
   16700    769.89862   -118.90449   0.69662045   -118.20787    3646.8188    4.2465666    4.2465666    4.2465666    3646.8188    14834.798   -20725.589    16831.248   -14277.863   -7894.6431    23894.982    76.579726 
   16800    990.63292   -119.10871   0.89634549   -118.21236   -11812.118    4.2529764    4.2529764    4.2529764   -11812.118   -5039.2772   -11081.887   -19315.188   -1679.9778    7406.8216    15275.852    76.927024 
   16900     995.7964   -119.11479   0.90101751   -118.21377   -9278.8919    4.2593867    4.2593867    4.2593867   -9278.8919    1831.1149   -7655.1638   -22012.627   -567.75645    12484.129   -12584.029    77.275391 
   17000    812.10461    -118.9493   0.73480932   -118.21449    8105.6432    4.2477285    4.2477285    4.2477285    8105.6432    34809.063   -17937.412    7445.2784    6102.9446   -5985.8079   -4617.1375    76.642603 
   17100    799.79904   -118.94077   0.72367498   -118.21709    10596.739    4.2510098    4.2510098    4.2510098    10596.739    43240.062   -8127.5058   -3322.3405    -7689.447   -4935.9082    22598.986    76.820359 
   17200    964.94096   -119.08582   0.87309886   -118.21272    2980.2332    4.2553968    4.2553968    4.2553968    2980.2332    21540.425    9017.7423   -21617.467   -350.87637   -3128.4567    5960.4872    77.058434 
   17300    1062.3144   -119.16865   0.96120437   -118.20745    5269.2113    4.2518198    4.2518198    4.2518198    5269.2113    1849.3772    2458.8711    11499.386    4335.1844    11539.743   -20167.057    76.864277 
   17400     794.2698   -118.92673     0.718672   -118.20805   -9070.0387    4.2624008    4.2624008    4.2624008   -9070.0387   -8658.9549   -157.36916   -18393.792    13741.174    6492.1114    3657.1736    77.439554 
   17500    982.52419   -119.08937   0.88900854   -118.20037   -1975.2276    4.2541861    4.2541861    4.2541861   -1975.2276    964.55869    941.82243   -7832.0639   -3879.9221   -1244.2991    28563.305    76.992685 
   17600    947.44277   -119.05883   0.85726613   -118.20156    8842.4066    4.2531739    4.2531739    4.2531739    8842.4066    9081.0879    1278.2875    16167.845   -3360.9695   -1143.1126   -7903.8536    76.937741 
   17700    727.03651   -118.86432   0.65783792   -118.20648   -2733.9499    4.2618218    4.2618218    4.2618218   -2733.9499    12673.406     1116.032   -21991.287    8174.1316    11178.371   -21543.638    77.408001 
   17800    932.73683   -119.04631   0.84395989   -118.20235    7219.7333    4.2502135    4.2502135    4.2502135    7219.7333    31353.626   -10370.147    675.72115   -3635.5818    2673.8966    6561.1077    76.777197 
   17900    1098.6766    -119.1981   0.99410568     -118.204   -1956.5137    4.2546283    4.2546283    4.2546283   -1956.5137    25482.444   -28172.723   -3179.2624    -15124.97     4020.336    8863.5322    77.016697 
   18000     797.2691   -118.93249   0.72138584    -118.2111   -2528.1716    4.2541642    4.2541642    4.2541642   -2528.1716   -906.36824   -9426.7142    2748.5676    -3701.324   -4135.2019   -15961.381    76.991492 
   18100    626.73459   -118.78091   0.56708262   -118.21383    2101.6168    4.2506531    4.2506531    4.2506531    2101.6168   -2205.1393    89.136444    8420.8533   -2362.5413   -4423.4466   -23555.352    76.801019 
   18200    990.06408    -119.1065   0.89583079   -118.21067   -9137.2111    4.2560896    4.2560896    4.2560896   -9137.2111    -12552.03   -8049.8329   -6809.7702   -3286.2987    2422.2434   -1384.2311    77.096077 
   18300    1310.6498   -119.39118    1.1859035   -118.20528   -9077.6108    4.2494567    4.2494567    4.2494567   -9077.6108   -14546.358   -14762.652    2076.1779   -6720.4756    3778.1161    5166.1169     76.73619 
   18400    693.00436   -118.84092   0.62704491   -118.21388   -16227.474    4.2595343    4.2595343    4.2595343   -16227.474   -569.24343   -2128.4072   -45984.773   -9809.9441   -19783.456   -29552.328    77.283426 
   18500    688.21857   -118.83483   0.62271462   -118.21212   -715.41638    4.2498247    4.2498247    4.2498247   -715.41638   -12892.515    15955.428   -5209.1615    11358.497   -11375.648   -18541.675    76.756125 
   18600    969.75715    -119.0868   0.87745664   -118.20934   -411.44636    4.2524927    4.2524927    4.2524927   -411.44636   -5723.3104     -13885.6    18374.571    3369.6512    1205.0289    9542.3487    76.900778 
   18700     1082.564   -119.18492   0.97952667   -118.20539   -10623.737    4.2611606    4.2611606    4.2611606   -10623.737   -8116.1024   -4640.4103   -19114.697   -474.17153   -1979.3851    10263.497     77.37198 
   18800     816.3098   -118.94333   0.73861426   -118.20472    21237.429    4.2457589    4.2457589    4.2457589    21237.429     18375.13    45551.405   -214.24672   -376.05786   -11955.233   -9897.4206    76.536041 
   18900    760.98145   -118.89763   0.68855201   -118.20908   -13386.581    4.2618035    4.2618035    4.2618035   -13386.581   -31536.434   -1107.0463   -7516.2616    2302.0807     -12267.3   -15813.149    77.407003 
   19000    828.40834   -118.94951   0.74956128   -118.19994    7578.4318    4.2555225    4.2555225    4.2555225    7578.4318     16812.06    8596.8891   -2673.6537    16721.597   -2505.6777     12580.05    77.065266 
   19100    1134.8383   -119.22634    1.0268255   -118.19952   -5603.5897    4.2541635    4.2541635    4.2541635   -5603.5897    2732.7094    8624.4452   -28167.924   -1299.4689    4478.9681    17226.273    76.991455 
   19200    838.88586   -118.96189   0.75904155   -118.20285   -15062.358    4.2604167    4.2604167    4.2604167   -15062.358    1803.6842   -19289.538   -27701.222   -11713.688   -17051.274    -12894.93    77.331463 
   19300    874.83599   -118.99342   0.79156999   -118.20185    9023.6975    4.2424212    4.2424212    4.2424212    9023.6975    13191.827   -1454.5733    15333.839    23757.556   -15949.494   -15787.105    76.355681 
   19400    736.69514   -118.87834   0.66657725   -118.21177   -7847.0143    4.2636725    4.2636725    4.2636725   -7847.0143     4245.052   -20135.452   -7650.6432    11776.302     9976.947    15222.562    77.508887 
   19500    1153.0222   -119.24715    1.0432787   -118.20387   -8549.4798    4.2557635    4.2557635    4.2557635   -8549.4798    7588.5813   -14380.238   -18856.783   -10738.373   -6481.0743    18356.228    77.078356 
   19600    946.27011   -119.06031   0.85620508   -118.20411    27089.432    4.2379074    4.2379074    4.2379074    27089.432    30966.524    38325.029    11976.741   -5251.7222   -15430.299   -7993.6851    76.112222 
   19700    709.78196   -118.85367   0.64222563   -118.21144   -11370.071    4.2651231    4.2651231    4.2651231   -11370.071   -20136.033   -1781.4458   -12192.733    7875.4712    -5745.099   -5531.8031    77.588028 
   19800     933.8572    -119.0474   0.84497362   -118.20243    10540.665    4.2543138    4.2543138    4.2543138    10540.665    38983.996   -9936.9441    2574.9438    13982.327    1781.5628     7754.958    76.999618 
   19900    1154.9444   -119.24654     1.045018   -118.20152    1350.9596    4.2487901    4.2487901    4.2487901    1350.9596    831.59106   -1580.1981     4801.486   -14541.245    7502.3616    9404.9651    76.700085 
   20000    606.44306   -118.75761   0.54872242   -118.20888    638.07262    4.2549062    4.2549062    4.2549062    638.07262   -23883.273    26458.882   -661.39093   -26465.005    -13937.58   -1352.8059    77.031786 
   20100    706.45442   -118.85048   0.63921481   -118.21127    2491.9344     4.253784     4.253784     4.253784    2491.9344    4175.3579    10398.307   -7097.8611    14758.785   -13965.363   -12161.751    76.970853 
   20200    1273.2348   -119.35613    1.1520496   -118.20408   -18374.908    4.2586043    4.2586043    4.2586043   -18374.908   -10186.079    -27733.98   -17204.664     15946.21    12553.219    3412.1717    77.232816 
   20300    1003.6966   -119.11507   0.90816573   -118.20691    10471.424    4.2449271    4.2449271    4.2449271    10471.424    20445.353    7044.6368    3924.2806   -24692.215   -15202.098    6846.2324    76.491063 
   20400    346.32768   -118.53591   0.31336457   -118.22254    -2031.165    4.2582375    4.2582375    4.2582375    -2031.165    21054.286   -14510.797   -12636.985   -16395.577   -23991.962   -4297.9199    77.212861 
   20500    978.34733   -119.09858   0.88522922   -118.21335   -13151.694    4.2566098    4.2566098    4.2566098   -13151.694   -15174.145   -9967.6131   -14313.325   -972.78867   -894.08627   -2089.7851    77.124349 
   20600    1438.8606    -119.5015    1.3019113   -118.19959    2649.8993    4.2453777    4.2453777    4.2453777    2649.8993    11922.944    6492.2302   -10465.476    415.62867    8781.5811   -7349.9855    76.515427 
   20700     616.8517   -118.77215   0.55814038   -118.21401   -16918.555    4.2605696    4.2605696    4.2605696   -16918.555   -49682.214   -369.57881   -703.87388   -18966.973   -10344.583    3181.5861     77.33979 
   20800    637.49505   -118.78957   0.57681892   -118.21275    21096.155    4.2453477    4.2453477    4.2453477    21096.155     2647.151    56930.249    3711.0656   -15316.865   -27518.865   -9233.4815    76.513805 
   20900    1159.1839   -119.25573     1.048854   -118.20687   -7405.7619    4.2618349    4.2618349    4.2618349   -7405.7619     6592.402    653.58058   -29463.268    9386.0332   -779.64779   -296.94281    77.408716 
   21000    1107.2764    -119.2083     1.001887   -118.20642    5218.9327    4.2491429    4.2491429    4.2491429    5218.9327   -2154.8303    21432.026   -3620.3973    8642.7514    4744.4426    1312.4723    76.719193 
   21100    460.96772   -118.63666   0.41709328   -118.21956    23690.331     4.245151     4.245151     4.245151    23690.331    10379.916    51261.734    9429.3436   -17222.208   -13610.026   -1582.3407     76.50317 
   21200    1020.1046    -119.1286   0.92301205   -118.20559   -39401.467    4.2732798    4.2732798    4.2732798   -39401.467   -58235.284   -20153.599   -39815.518    -19982.35   -13101.544    8217.3267    78.034019 
   21300    1222.4929   -119.29403    1.1061372   -118.18789    20570.381    4.2464686    4.2464686    4.2464686    20570.381    10214.656    25365.319    26131.169    5734.3976    5821.3227   -9982.4904    76.574425 
   21400    561.33999   -118.71855   0.50791222   -118.21064    1499.3716    4.2600689    4.2600689    4.2600689    1499.3716   -36651.404    14651.894    26497.626   -1423.9095   -7813.2828   -474.90488     77.31253 
   21500    666.50265   -118.80507   0.60306561   -118.20201   -12880.853    4.2675984    4.2675984    4.2675984   -12880.853   -59962.225    -1542.496    22862.164   -21215.923   -1242.6194   -1066.4937    77.723191 
   21600     1357.124   -119.41023    1.2279543   -118.18227    14766.472    4.2474653    4.2474653    4.2474653    14766.472    3195.4301    22429.032    18674.952     736.8568   -951.49032   -2116.6659    76.628358 
   21700    990.51907   -119.09244   0.89624247    -118.1962   -31764.902    4.2664311    4.2664311    4.2664311   -31764.902   -52131.875   -1583.8953   -41578.936    10762.512    12523.679    6191.9187    77.659433 
   21800    346.40796   -118.51356    0.3134372   -118.20013    14573.075    4.2551465    4.2551465    4.2551465    14573.075   -13431.108    49048.523    8101.8106   -14096.411    3550.7743   -5171.6334    77.044837 
   21900    1154.4878   -119.24015    1.0446048   -118.19555    4246.4454     4.252556     4.252556     4.252556    4246.4454    15402.596    4608.8038   -7272.0638    -6564.679   -5332.2975    4268.8858    76.904211 
   22000    1105.4488   -119.19611    1.0002333   -118.19588   -1815.1257     4.257622     4.257622     4.257622   -1815.1257    24413.871   -7576.2322   -22283.016    3970.4351    2459.7814     6490.292    77.179383 
   22100    629.41944   -118.77312   0.56951194    -118.2036    5071.8519    4.2536204    4.2536204    4.2536204    5071.8519    14090.773    13666.465   -12541.682   -5456.3309   -848.77058   -12385.904     76.96197 
   22200    616.60399   -118.76801   0.55791625   -118.21009   -15313.454    4.2579768    4.2579768    4.2579768   -15313.454   -13273.684   -10195.863   -22470.816   -22150.152    4343.0478    3304.5258    77.198682 
   22300    1230.3457   -119.31514    1.1132427    -118.2019    4394.1124    4.2426425    4.2426425    4.2426425    4394.1124    17654.604    3427.5298   -7899.7969   -5082.2918   -1646.3672    11295.008     76.36763 
   22400    978.08292   -119.09544   0.88498998   -118.21045     -2274.66     4.259161     4.259161     4.259161     -2274.66    11730.173     3880.279   -22434.432    2886.5152   -2291.1324    5924.9453     77.26311 
   22500    573.00612   -118.72538   0.51846798   -118.20692   -12758.768    4.2656954    4.2656954    4.2656954   -12758.768   -45093.271    28963.925   -22146.958   -9308.3733    905.00541   -202.06787    77.619262 
   22600    967.84052   -119.07357   0.87572244   -118.19784    20626.054    4.2412446    4.2412446    4.2412446    20626.054    1619.6486    49129.608    11128.906   -9708.2794    3369.8078   -3367.4307     76.29217 
   22700    1429.9136    -119.4936    1.2938159   -118.19979   -9949.6481    4.2563968    4.2563968    4.2563968   -9949.6481    -2354.777   -6568.3132   -20925.854    7538.9224   -833.39896     4356.479    77.112775 
   22800    881.95485   -119.00408   0.79801128   -118.20607   -10500.658    4.2616371    4.2616371    4.2616371   -10500.658   -28419.034    21458.868   -24541.809    591.00235   -8970.8521    5523.8173    77.397937 
   22900    396.45701   -118.56634   0.35872264   -118.20761    12629.587    4.2559162    4.2559162    4.2559162    12629.587    18495.564    16327.803    3065.3934   -1503.1452    4834.7023    -12223.67    77.086653 
   23000    1243.4801   -119.32144     1.125127   -118.19632     -17551.6    4.2565093    4.2565093    4.2565093     -17551.6    6883.3967   -22398.436    -37139.76   -4369.9532    9667.7325   -6537.2876     77.11889 
   23100    1223.2257   -119.30236    1.1068003   -118.19556    2152.9398    4.2483499    4.2483499    4.2483499    2152.9398    7859.4691    19834.165   -21234.814    7909.1901   -8749.2167   -1964.4346    76.676245 
   23200    442.84396   -118.61199   0.40069452    -118.2113    3620.2672    4.2601142    4.2601142    4.2601142    3620.2672   -1195.8093    40647.314   -28590.703    1688.0157   -11441.071   -7653.0429    77.314993 
   23300     854.3914    -118.9765    0.7730713   -118.20343   -9526.4606    4.2617479    4.2617479    4.2617479   -9526.4606    8357.6501    3477.5783    -40414.61   -14984.612    11664.609    1631.1598    77.403976 
   23400    1257.0585   -119.32861     1.137413    -118.1912    12699.249    4.2484841    4.2484841    4.2484841    12699.249    37713.001    19667.778   -19283.031    -1362.143    1283.3086   -2507.9406    76.683512 
   23500    722.21612   -118.86078   0.65347633    -118.2073   -1295.9396    4.2612184    4.2612184    4.2612184   -1295.9396   -2709.9696    17121.467   -18299.316    8817.6047   -23262.145   -5395.3401    77.375128 
   23600    573.24753   -118.72766   0.51868642   -118.20898     2853.548    4.2557799    4.2557799    4.2557799     2853.548   -480.46426     34208.54   -25167.431    -5616.278   -4083.5857    6382.5372    77.079248 
   23700    1144.2285   -119.23686     1.035322   -118.20153    21171.947    4.2423767    4.2423767    4.2423767    21171.947    34587.958    32936.303   -4008.4193   -3942.0833    16094.188   -3959.7611    76.353278 
   23800    1048.6873   -119.15619   0.94887427   -118.20732   -8236.3285     4.262842     4.262842     4.262842   -8236.3285    1125.0593   -9573.4501   -16260.595    2876.3266   -3325.4168    5636.3787    77.463605 
   23900    478.87718   -118.64879   0.43329813   -118.21549    3461.4501    4.2531025    4.2531025    4.2531025    3461.4501   -1428.5333    33775.468   -21962.585    9478.7815   -25646.969    4799.1152    76.933863 
   24000    609.26891   -118.76805   0.55127931   -118.21677    14953.214    4.2434535    4.2434535    4.2434535    14953.214   -484.90169    43253.362    2091.1825   -70.332399   -7713.8401   -5822.8369    76.411431 
   24100    1267.3424   -119.35623    1.1467181   -118.20951   -192.04666    4.2516522    4.2516522    4.2516522   -192.04666    9329.3911    9426.0594   -19331.591   -11946.814    6522.5689    -334.7525     76.85519 
   24200    994.93442   -119.11292   0.90023758   -118.21269   -3803.6487     4.260732     4.260732     4.260732   -3803.6487    16775.315    9331.8015   -37518.062    14285.329   -15087.959   -3884.3383    77.348636 
   24300    458.93658   -118.62949   0.41525546   -118.21424   -14547.111    4.2635411    4.2635411    4.2635411   -14547.111   -23224.701     9135.492   -29552.124    9919.8789   -28315.623    -2577.172    77.501721 
   24400    1063.2593    -119.1643   0.96205932   -118.20224    891.47466    4.2423968    4.2423968    4.2423968    891.47466   -7419.4747    10382.628   -288.72954    3051.6838    3310.7532    10430.395    76.354365 
   24500    1426.9593   -119.49533    1.2911427   -118.20418   -20337.761    4.2605719    4.2605719    4.2605719   -20337.761   -15614.982   -4534.1523   -40864.148    2932.8688    6616.2902   -2941.9246    77.339917 
   24600    624.59434   -118.76834   0.56514609   -118.20319   -16673.091    4.2741511    4.2741511    4.2741511   -16673.091   -39568.945    6931.3853   -17381.714    6777.5997   -28069.823   -6201.5108    78.081766 
   24700    565.43848   -118.70669   0.51162062   -118.19507    23629.703    4.2472222    4.2472222    4.2472222    23629.703   -3001.7379    34819.644    39071.202    9209.5849   -18172.933     1470.474    76.615203 
   24800     1324.136   -119.39385    1.1981061   -118.19575   -52.512748    4.2535656    4.2535656    4.2535656   -52.512748   -16850.767   -2707.5315    19400.761   -3979.9553    7329.2157   -6250.4172    76.958999 
   24900    1182.3566     -119.269    1.0698211   -118.19918   -5032.9203    4.2613524    4.2613524    4.2613524   -5032.9203   -3135.0846    1849.6928   -13813.369   -7074.3466   -9553.3005    8901.2465    77.382425 
   25000    497.27695   -118.65901   0.44994663   -118.20907   -13197.571    4.2611022    4.2611022    4.2611022   -13197.571   -15362.586    9784.8692   -34014.997    6460.0607   -25209.558   -2032.2543    77.368799 
   25100    869.71053   -118.98978   0.78693236   -118.20285   -5114.1348    4.2555593    4.2555593    4.2555593   -5114.1348   -2869.5436    1995.7857   -14468.647    14191.935   -6144.1246    3152.1695    77.067262 
   25200     1361.926   -119.42884    1.2322992   -118.19654    2231.0384    4.2577117    4.2577117    4.2577117    2231.0384    2285.4782   -6284.2924    10691.929   -3256.8777    11367.621    174.34609    77.184262 
   25300    546.47471   -118.70056    0.4944618    -118.2061   -4378.6666    4.2684473    4.2684473    4.2684473   -4378.6666   -23848.876    19355.097   -8642.2209    5770.6038   -3672.8304   -11248.839    77.769584 
   25400    413.51582   -118.58039    0.3741578   -118.20624    17721.479    4.2518852    4.2518852    4.2518852    17721.479    11894.228    23028.471    18241.739    18846.125   -24470.059    5161.1354    76.867822 
   25500    1195.5178   -119.28176    1.0817296   -118.20003    3159.1011    4.2527874    4.2527874    4.2527874    3159.1011    16577.105    3248.7325   -10348.534    1704.8913   -3109.0073    -977.0711    76.916768 
   25600    1195.9181    -119.2824    1.0820919    -118.2003   -5755.2473    4.2611244    4.2611244    4.2611244   -5755.2473    19970.571   -12035.449   -25200.864   -5364.0198     12854.89    7861.6833    77.370008 
   25700    491.97322   -118.65478   0.44514771   -118.20963    -244.9071    4.2617398    4.2617398    4.2617398    -244.9071    9313.4339    14103.699   -24151.854   -3101.1218   -13565.244    252.49672    77.403533 
   25800    694.91526    -118.8353   0.62877393   -118.20652    5224.8199    4.2500585    4.2500585    4.2500585    5224.8199    -1401.276    33003.171   -15927.435    15322.363   -30749.188   -6474.6455    76.768797 
   25900    1283.2185   -119.36012    1.1610831   -118.19904    3416.5812    4.2489523    4.2489523    4.2489523    3416.5812    12444.474    9499.3808   -11694.111   -11369.981   -638.86004    2234.8617    76.708868 
   26000    806.48525   -118.93532   0.72972481   -118.20559   -21342.481    4.2678601    4.2678601    4.2678601   -21342.481   -27325.416     1994.976   -38697.002   -12502.927    12775.539    -5563.564    77.737495 
   26100    661.90029   -118.80305    0.5989013   -118.20415   -5213.9313    4.2538496    4.2538496    4.2538496   -5213.9313   -6395.6094    27241.768   -36487.953    13193.655   -16569.314    2240.5019    76.974417 
   26200    1078.4392   -119.17744   0.97579448   -118.20165    6196.8654    4.2467714    4.2467714    4.2467714    6196.8654     21527.85    17763.402   -20700.655     5101.874   -18901.642    309.99732    76.590809 
   26300    1164.3339   -119.25982    1.0535138   -118.20631    7201.3499    4.2486314    4.2486314    4.2486314    7201.3499    25552.535   -5019.3182    1070.8325   -3912.4932    7433.5138    478.01326    76.691488 
   26400    680.34889   -118.83287   0.61559397   -118.21727    9638.0832    4.2581301    4.2581301    4.2581301    9638.0832    6053.2831    23581.268   -720.30124   -9339.4692    7788.6755   -316.39197    77.207017 
   26500    792.38259   -118.92533   0.71696442   -118.20836   -13872.383    4.2671887    4.2671887    4.2671887   -13872.383   -18061.463    18422.489   -41978.174    6513.7419   -14153.847   -7111.8758    77.700807 
   26600    1268.6102   -119.34084    1.1478652   -118.19297    6886.1696    4.2447324    4.2447324    4.2447324    6886.1696    11485.205    33976.862   -24803.558   -1728.0054   -7675.3704    -195.6408    76.480543 
   26700    898.09391   -119.01937   0.81261424   -118.20676      -2351.2    4.2550685    4.2550685    4.2550685      -2351.2   -28714.415    17502.527    4158.2884   -16874.658    2874.7169     6998.675    77.040602 
   26800     484.2053    -118.6479   0.43811913   -118.20978   -7951.1481    4.2642317    4.2642317    4.2642317   -7951.1481   -38316.401    12667.473    1795.4846     -9227.03   -1808.5665   -3190.6932    77.539389 
   26900    1117.0417   -119.20886    1.0107228   -118.19814    6148.8736    4.2470869    4.2470869    4.2470869    6148.8736    7133.6443    28855.738   -17542.761    8622.8128   -618.60586    1180.5281    76.607878 
   27000    1263.9593   -119.34287    1.1436569   -118.19921   -4388.9964    4.2554653    4.2554653    4.2554653   -4388.9964   -14736.247    22939.288    -21370.03   -10160.007   -2627.6802    291.99792    77.062158 
   27100    551.28493   -118.70827   0.49881419   -118.20946    5512.6611    4.2592724    4.2592724    4.2592724    5512.6611   -15313.302    24911.111    6940.1752   -11793.671    2161.8885   -10382.909    77.269171 
   27200    588.35056   -118.74298   0.53235195   -118.21062    2913.1998     4.257468     4.257468     4.257468    2913.1998   -18465.285    34144.829   -6939.9451    11380.453    5194.0771    1323.3375    77.171011 
   27300    1408.3506   -119.47135    1.2743052   -118.19704    5806.3367    4.2459095    4.2459095    4.2459095    5806.3367   -5075.2762    25682.126   -3187.8392    9097.0713    1630.2638    3701.4488    76.544183 
   27400     992.6491    -119.1051   0.89816977   -118.20693    20557.212    4.2477024    4.2477024    4.2477024    20557.212    20429.977    46830.892   -5589.2318   -16503.993    4610.2515   -2017.0848    76.641193 
   27500    402.57081   -118.57439   0.36425453   -118.21014   -19261.157     4.278675     4.278675     4.278675   -19261.157   -54819.555    22417.047   -25380.964   -6310.3379    9348.9471    6826.9116    78.329961 
   27600    1229.7242   -119.31193    1.1126803   -118.19925   -5813.5364     4.249111     4.249111     4.249111   -5813.5364   -23388.881    11170.305   -5222.0329    12224.649      -1161.9   -4833.7363    76.717465 
   27700    1408.9048   -119.46258    1.2748066   -118.18778    10568.811    4.2344876    4.2344876    4.2344876    10568.811    14364.976     20984.74    -3643.283    6978.0744   -3201.1946   -9101.4027    75.928111 
   27800    428.19042   -118.59244   0.38743569   -118.20501   -19276.517    4.2717826    4.2717826    4.2717826   -19276.517    -38989.12    15602.655   -34443.086   -19067.386     8889.213    3745.7504    77.952028 
   27900    707.82725   -118.83774   0.64045697   -118.19729    13089.947    4.2607475    4.2607475    4.2607475    13089.947    21760.462    22748.953   -5239.5736   -8471.7099    2575.3043   -276.09846    77.349479 
   28000    1506.0951   -119.54685    1.3627465    -118.1841    4079.2132    4.2495581    4.2495581    4.2495581    4079.2132    21665.143    3434.3319   -12861.835    5192.3883    3294.7473    4048.0334     76.74168 
   28100    751.99111   -118.88198   0.68041736   -118.20157    18675.896    4.2491319    4.2491319    4.2491319    18675.896    17085.526    41077.688   -2135.5248   -12639.904    2892.6871   -550.46116    76.718596 
   28200     366.2735   -118.54499   0.33141196   -118.21358   -4319.2416    4.2647008    4.2647008    4.2647008   -4319.2416   -10404.805    26975.158   -29528.077    -23754.98    2592.1806   -4105.9983    77.564984 
   28300    1113.0325   -119.21465    1.0070952   -118.20755   -8095.7692    4.2510808    4.2510808    4.2510808   -8095.7692   -10469.272    8348.8078   -22166.843   -5905.1222   -6178.1982   -6842.5589    76.824203 
   28400    1239.0894   -119.32012    1.1211541   -118.19896    15747.563     4.235357     4.235357     4.235357    15747.563    7761.7094    26956.527    12524.452    9260.4373   -3675.5477   -11916.958    75.974889 
   28500    527.39806   -118.69278   0.47720085   -118.21558   -18312.136    4.2633243    4.2633243    4.2633243   -18312.136   -46831.448    12474.733   -20579.693   -12824.481    1962.1691    2688.8509    77.489904 
   28600    599.90825   -118.75573    0.5428096   -118.21292   -9957.3202    4.2606716    4.2606716    4.2606716   -9957.3202   -32505.958    23166.758   -20532.761    -22068.75   -3154.2852    3947.8575    77.345344 
   28700    1596.5641    -119.6398    1.4446048   -118.19519    9575.9255     4.239373     4.239373     4.239373    9575.9255    1823.6416    21461.591    5442.5437    3341.1319   -3315.9579   -3243.8644    76.191215 
   28800    1084.9491   -119.19364   0.98168477   -118.21196    6182.6756    4.2529049    4.2529049    4.2529049    6182.6756   -23458.147    17340.932    24665.242    1646.7294    6284.1873     5814.931     76.92314 
   28900    240.39854   -118.42998   0.21751765   -118.21246    5751.4287    4.2710997    4.2710997    4.2710997    5751.4287   -34728.393     13783.77    38198.909   -15799.676    1576.0045   -1595.3276    77.914649 
   29000    1050.4977   -119.14563   0.95051238   -118.19512     175.5246    4.2556867    4.2556867    4.2556867     175.5246   -14622.078    5289.2467    9859.4049   -4135.0752   -7380.3226   -252.89816    77.074187 
   29100    1344.7565   -119.40506     1.216764    -118.1883    11157.296     4.241708     4.241708     4.241708    11157.296    15263.888    14040.177     4167.823    8942.7649   -1920.5677   -6687.1879    76.317176 
   29200    590.64549   -118.74436   0.53442845   -118.20993   -7324.2308    4.2604533    4.2604533    4.2604533   -7324.2308   -9446.0646     14167.74   -26694.368   -18046.978    8879.2091   -3750.7521    77.333455 
   29300    510.70102   -118.67131   0.46209301   -118.20922     2154.698    4.2602897    4.2602897    4.2602897     2154.698   -18387.794    38783.806   -13931.918   -18079.975    11740.087    6191.8294    77.324548 
   29400    1337.0663   -119.40142    1.2098057   -118.19161    13873.689    4.2460164    4.2460164    4.2460164    13873.689    31911.932    12392.442   -2683.3061    6309.7645    178.59698   -3520.5374    76.549964 
   29500    902.48067   -119.02222   0.81658348   -118.20564    5498.9974    4.2576379    4.2576379    4.2576379    5498.9974    18415.591     15111.49   -17030.089   -6055.5892     14985.29   -918.61438    77.180247 
   29600    430.57297   -118.59913   0.38959147   -118.20954   -4326.4077    4.2617387    4.2617387    4.2617387   -4326.4077   -18875.449    42212.589   -36316.363   -18937.791    20320.437    386.57006    77.403472 
   29700    1140.5738   -119.22585    1.0320152   -118.19383    2486.1689     4.250296     4.250296     4.250296    2486.1689    8480.2944    9696.7448   -10718.532    409.60014   -1555.8186   -5009.5498    76.781668 
   29800    1244.3024   -119.31995     1.125871   -118.19408   -7129.2208    4.2595939    4.2595939    4.2595939   -7129.2208   -15863.787   -6303.7271    779.85143    11225.607   -3067.6992    1670.7229    77.286671 
   29900    393.89908   -118.55917   0.35640816   -118.20277    10059.202    4.2632767    4.2632767    4.2632767    10059.202   -24785.652    27127.512    27835.748   -5672.8091     18844.07    400.88151    77.487306 
   30000    938.08316   -119.04449   0.84879736   -118.19569    7078.3791    4.2544039    4.2544039    4.2544039    7078.3791   -11661.134    18365.419    14530.852   -10191.168    11048.203    6581.8904     77.00451 
   30100    1310.0419   -119.37412    1.1853535   -118.18877   -4485.8958    4.2570533    4.2570533    4.2570533   -4485.8958   -10435.269   -1124.3171   -1898.1007     6539.406   -6410.0662   -2504.3883     77.14846 
   30200    697.20712   -118.83106   0.63084765   -118.20022   -5385.3231     4.259079     4.259079     4.259079   -5385.3231   -33620.766    33357.387   -15892.591    3819.2539   -3202.0595    1368.4226    77.258647 
   30300    888.88051   -119.00473   0.80427777   -118.20046    -3450.726    4.2515688    4.2515688    4.2515688    -3450.726    -25814.74    9536.7231     5925.839   -20746.356    12623.738    -2871.991    76.850665 
   30400    1234.2559    -119.3124    1.1167807   -118.19562   -3056.5044    4.2537372    4.2537372    4.2537372   -3056.5044   -9952.9269   -14000.024    14783.437   -4658.4222     4716.939   -1955.5567    76.968313 
   30500    663.34484   -118.80315   0.60020835   -118.20294   -5897.5963    4.2596847    4.2596847    4.2596847   -5897.5963   -26160.257   -4953.8757    13421.344    14721.479   -16152.457    1827.1348    77.291613 
   30600    411.00703   -118.57702    0.3718878   -118.20514    6243.7443    4.2571978    4.2571978    4.2571978    6243.7443   -22075.272   -6064.6788    46871.184   -18991.056   -14339.282   -5368.1372    77.156319 
   30700    1339.0013   -119.40381    1.2115565   -118.19225   -7178.5686    4.2553263    4.2553263    4.2553263   -7178.5686   -18176.777   -26910.157    23551.228   -14177.367    5522.0783    10123.663    77.054604 
   30800     1083.738   -119.17568   0.98058895   -118.19509   -5606.9853    4.2562796    4.2562796    4.2562796   -5606.9853   -7372.9116   -11528.122    2080.0777    16903.644     3971.133    4980.9524    77.106404 
   30900    441.05214   -118.60304   0.39907325   -118.20396   -4239.4534    4.2628064    4.2628064    4.2628064   -4239.4534   -14489.918   -3144.8306    4916.3886    4997.0849   -7586.4442    7340.5728    77.461666 
   31000    1220.3524   -119.30248    1.1042005   -118.19828   -3024.9954    4.2485433    4.2485433    4.2485433   -3024.9954   -20424.402    8705.1743    2644.2415   -10376.284   -2020.6152   -5241.0152    76.686717 
   31100    1363.1366   -119.43231    1.2333946   -118.19891     9441.676    4.2460246    4.2460246    4.2460246     9441.676    19851.814   -2765.3101    11238.524   -3893.8839    10317.281    2620.9444    76.550408 
   31200    509.97105   -118.67493   0.46143253   -118.21349   -14358.945    4.2655897    4.2655897    4.2655897   -14358.945   -18166.719   -6509.5496   -18400.567     9548.715    4553.1526    7784.8063    77.613495 
   31300    671.72771   -118.81397   0.60779335   -118.20618    5331.3968    4.2508432    4.2508432    4.2508432    5331.3968    -15878.87    23712.152    8160.9088    6911.1467   -11598.043     2763.343    76.811325 
   31400    1302.5083   -119.37372    1.1785369   -118.19518    6645.1152    4.2494019    4.2494019    4.2494019    6645.1152   -10404.609     36.70475    30303.249   -8103.2612   -8743.8564   -5171.7365    76.733223 
   31500     622.4996   -118.77023   0.56325072   -118.20698     33.34818    4.2650819    4.2650819    4.2650819     33.34818   -24343.776    1114.4731    23329.348   -2328.1502    10448.536   -15616.271     77.58578 
   31600    623.12837    -118.7657   0.56381965   -118.20188    15845.833     4.259645     4.259645     4.259645    15845.833   -9034.5208    13879.736    42692.283    4275.3332    6735.6452    5347.4015    77.289451 
   31700    1298.9283   -119.36253    1.1752976   -118.18723    366.79375    4.2556902    4.2556902    4.2556902    366.79375   -8674.7215   -11912.507     21687.61   -12.936921   -10234.512    7916.9759    77.074373 
   31800    742.70072   -118.87068   0.67201122   -118.19867    20086.323    4.2453836    4.2453836    4.2453836    20086.323    3557.3437    42701.461    14000.165    916.46341   -1591.1633    2517.5116    76.515746 
   31900    472.56958   -118.64089   0.42759088    -118.2133   -1153.8312    4.2659461    4.2659461    4.2659461   -1153.8312    5957.0048    10946.497   -20364.996    14706.134    11892.589   -2365.3147    77.632952 
   32000    1388.3041   -119.45231    1.2561667   -118.19615   -21600.872     4.265304     4.265304     4.265304   -21600.872   -5814.6652   -19003.021   -39984.928    1446.4612    8074.2603   -6251.1225    77.597898 
   32100    1178.2773   -119.25388    1.0661301   -118.18775    17140.138    4.2364344    4.2364344    4.2364344    17140.138    25529.305    28924.785   -3033.6757   -12847.769   -10602.598    3460.7651    76.032884 
   32200    465.48115   -118.63202   0.42117713   -118.21084   -10463.066    4.2612443    4.2612443    4.2612443   -10463.066   -2461.2169   -3536.7702   -25391.212   -1465.7929    2888.4534   -10005.867    77.376538 
   32300    1002.5078   -119.10191   0.90709012   -118.19482   -17730.475    4.2662865    4.2662865    4.2662865   -17730.475    -12901.99   -16435.356   -23854.078    4541.9337    13278.467   -3860.1638    77.651537 
   32400    1243.1964   -119.31043    1.1248702   -118.18556    11908.802     4.244042     4.244042     4.244042    11908.802    11152.904   -882.14831    25455.651   -6317.2744   -11723.951    4443.9112     76.44323 
   32500    522.37566   -118.67426   0.47265647    -118.2016   -8635.2718    4.2560919    4.2560919    4.2560919   -8635.2718   -26996.279   -5256.6131    6347.0762   -20786.906   -21187.303    23.700602    77.096201 
   32600    764.60793   -118.89591   0.69183332   -118.20408   -1945.9309    4.2549308    4.2549308    4.2549308   -1945.9309   -19522.992    27149.727   -13464.528   -877.25246    2942.4898   -1179.1323    77.033124 
   32700      1344.18   -119.41343    1.2162423   -118.19719   -13261.186    4.2600526    4.2600526    4.2600526   -13261.186   -21820.181   -2229.0412   -15734.336    6630.1184    9108.7755   -10280.664    77.311638 
   32800    864.83878   -118.99102    0.7825243   -118.20849   -2935.5363    4.2493325    4.2493325    4.2493325   -2935.5363   -26985.133    28796.318   -10617.794   -6963.8501   -9717.1564     7595.408    76.729463 
   32900    256.93767    -118.4503   0.23248261   -118.21782    23227.487     4.239611     4.239611     4.239611    23227.487   -15813.576    55705.622    29790.415   -8486.4633   -11364.469     11775.22    76.204045 
   33000     1017.016   -119.13426   0.92021747   -118.21405   -13068.042     4.261356     4.261356     4.261356   -13068.042   -34369.936   -4728.4959   -105.69388   -402.48074     1356.423   -6298.7646    77.382624 
   33100    1431.1418   -119.49768    1.2949272   -118.20275   -1921.5315    4.2530396    4.2530396    4.2530396   -1921.5315   -16983.487    24746.667   -13527.775    8835.3903    6535.2611   -10326.251    76.930452 
   33200    655.20973   -118.80605   0.59284753    -118.2132    8051.8581    4.2448839    4.2448839    4.2448839    8051.8581    -3293.201     23377.11    4071.6652   -2853.3369   -9495.4858   -4200.5238    76.488731 
   33300    551.90793   -118.71428   0.49937789    -118.2149    2758.8689     4.250015     4.250015     4.250015    2758.8689   -20225.805    31298.067   -2795.6557   -7506.7805   -11090.219     3738.878    76.766438 
   33400     1138.897   -119.23579    1.0304979   -118.20529    2618.8107    4.2536649    4.2536649    4.2536649    2618.8107   -14687.725    35617.787    -13073.63   -3393.1687    1693.6439   -546.50647    76.964386 
   33500    1024.7338   -119.13416   0.92720067   -118.20696   -2007.0344    4.2551022    4.2551022    4.2551022   -2007.0344    18789.135    1094.0848   -25904.323    3329.2505   -324.19584   -13296.979    77.042431 
   33600      613.466   -118.76611   0.55507693   -118.21103    8531.4379    4.2501868    4.2501868    4.2501868    8531.4379    13786.573    36780.241     -24972.5    710.56073   -16547.934   -2904.2937    76.775746 
   33700    1036.6856   -119.14179   0.93801494   -118.20377   -3308.0977    4.2538887    4.2538887    4.2538887   -3308.0977   -10496.837    16993.054    -16420.51   -9513.4816   -8266.3239    7468.8363    76.976538 
   33800    1314.1397   -119.38792    1.1890612   -118.19886   -11627.396    4.2546016    4.2546016    4.2546016   -11627.396    4974.5133   -27433.145   -12423.555    4687.7884    9457.6287   -10952.906    77.015244 
   33900    827.17029   -118.95684   0.74844106    -118.2084     5028.341    4.2467408    4.2467408    4.2467408     5028.341    9388.3598    24685.441   -18988.778    1733.0225   -2175.7368   -15086.646    76.589154 
   34000    621.52799   -118.77552   0.56237158   -118.21315   -3947.2276    4.2570984    4.2570984    4.2570984   -3947.2276    3622.4683    22427.914   -37892.065    -1097.055   -13814.392    3797.8629    77.150915 
   34100     1050.237   -119.15178   0.95027655    -118.2015   -7555.3064    4.2602653    4.2602653    4.2602653   -7555.3064     7438.747   -14926.821   -15177.845    1225.9548    -842.4267    7191.5846     77.32322 
   34200    1217.6501   -119.29924    1.1017554   -118.19749    2508.9282    4.2472114    4.2472114    4.2472114    2508.9282    8642.4572     4443.275   -5558.9477   -4732.2584   -493.51012   -2196.4002    76.614619 
   34300    831.66276   -118.95929   0.75250594   -118.20679   -4203.5654    4.2471392    4.2471392    4.2471392   -4203.5654    4912.6726    7845.2177   -25368.587    5947.0385    -19189.35   -14396.474    76.610708 
   34400    663.97663    -118.8117   0.60078001   -118.21092   -7628.2315    4.2543396    4.2543396    4.2543396   -7628.2315    12068.851   -1372.8752    -33580.67    9075.4445   -3996.0712    -648.2913    77.001016 
   34500    897.20968   -119.01913   0.81181417   -118.20731   -10062.539    4.2549719    4.2549719    4.2549719   -10062.539    20254.129   -14242.079   -36199.667   -5346.8286    17114.446    25858.568    77.035354 
   34600    1083.2723   -119.18416   0.98016753   -118.20399   -448.13547    4.2491458    4.2491458    4.2491458   -448.13547    10151.317   -10026.365   -1469.3576   -3448.7498    215.01761    6863.3371    76.719347 
   34700    1012.8996   -119.12396    0.9164928   -118.20747    2222.7416    4.2489649    4.2489649    4.2489649    2222.7416    7743.3599    4119.4906   -5194.6257    130.47731   -12086.387   -6940.0403     76.70955 
   34800     671.5739   -118.82163   0.60765418   -118.21398    4585.7149    4.2497844    4.2497844    4.2497844    4585.7149    24404.503    29662.539   -40309.898    5867.4727    -7295.725    16796.125    76.753943 
   34900    788.22229   -118.92672    0.7132001   -118.21352    3882.5993    4.2506356    4.2506356    4.2506356    3882.5993    26823.402    7744.5802   -22920.185   -2186.9149    6624.4915    17893.954    76.800072 
   35000    952.28353   -119.07187   0.86164615   -118.21022    6484.5046    4.2484447    4.2484447    4.2484447    6484.5046   -359.79513    11751.673     8061.636   -22437.692    4678.9767   -2472.2848    76.681376 
   35100    810.43887   -118.94544   0.73330212   -118.21214    5559.4283    4.2502547    4.2502547    4.2502547    5559.4283   -20719.152    38409.421   -1011.9845   -8352.0658   -12631.558    -4426.373    76.779428 
   35200    971.13139   -119.08757   0.87870009   -118.20887   -7101.5538    4.2532406    4.2532406    4.2532406   -7101.5538   -15622.376    10947.235    -16629.52    18289.481   -12592.707    5368.1002    76.941357 
   35300    1097.3944   -119.19783   0.99294548   -118.20488   -2577.1203    4.2480672    4.2480672    4.2480672   -2577.1203   -2572.9104    844.39092   -6002.8415    2239.4177    3796.5721    1219.6017    76.660941 
   35400    858.80371   -118.98614   0.77706365   -118.20908   -12603.369    4.2528812    4.2528812    4.2528812   -12603.369   -17248.103   -12553.766   -8008.2379   -32191.116    -479.8679   -12937.192    76.921856 
   35500    602.45404   -118.75687   0.54511308   -118.21176   -5193.0758    4.2532664    4.2532664    4.2532664   -5193.0758   -36120.217    7391.6877    13149.302    5549.7478   -6055.5223   -9393.8687    76.942757 
   35600    859.20119   -118.98866   0.77742329   -118.21124    2617.4728    4.2468243    4.2468243    4.2468243    2617.4728   -32541.971    28333.187    12061.203    37302.105   -3308.7429    6669.6108    76.593668 
   35700    1155.5283   -119.25341    1.0455463   -118.20786    3151.1151    4.2472729    4.2472729    4.2472729    3151.1151   -19121.773    15172.529     13402.59   -285.74311      834.685   -9289.6821    76.617945 
   35800    1089.8051   -119.19731   0.98607851   -118.21123   -5714.2917    4.2539428    4.2539428    4.2539428   -5714.2917   -25278.565    6089.1714    2046.5183   -14103.601    6010.9332   -15139.079    76.979473 
   35900    533.05911   -118.70097   0.48232308   -118.21865    -8484.109    4.2535635    4.2535635    4.2535635    -8484.109   -51588.774     7204.341    18932.106     34183.22   -4432.6004    3428.3379    76.958886 
   36000    824.60667   -118.96173   0.74612144   -118.21561     5853.949    4.2370064    4.2370064    4.2370064     5853.949   -31824.117     15424.54    33961.424    29835.334   -414.00817   -1950.4561    76.063687 
   36100    1201.2262   -119.30075    1.0868947   -118.21386   -4699.9596    4.2517196    4.2517196    4.2517196   -4699.9596   -21624.073    13713.259   -6189.0639   -17439.552    1124.0682    2539.7295    76.858842 
   36200    816.90874   -118.95129    0.7391562   -118.21214   -12748.939    4.2598514    4.2598514    4.2598514   -12748.939   -23806.357   -23510.571    9070.1107    16243.471    3544.4812   -775.35952    77.300685 
   36300    486.02538   -118.65376   0.43976598     -118.214     19081.25    4.2430291    4.2430291    4.2430291     19081.25   -10869.182    8298.9377    59813.993     44096.05    1673.9391    -8819.428    76.388509 
   36400    1110.7871    -119.2149    1.0050635   -118.20983   -1032.7896    4.2483137    4.2483137    4.2483137   -1032.7896   -28540.696   -3047.5198    28489.847   -4829.1522   -3294.0161    2249.8276    76.674287 
   36500    1168.0469   -119.26135    1.0568733   -118.20448   -8214.4849    4.2572279    4.2572279    4.2572279   -8214.4849   -9097.4287   -30811.045    15265.019    -8132.004     4190.028   -277.64999    77.157951 
   36600    528.71675   -118.68838   0.47839403   -118.20999   -9338.9128    4.2581068    4.2581068    4.2581068   -9338.9128   -13179.467   -37444.556    22607.285    42076.101   -3084.3539    11407.955     77.20575 
   36700     825.6884   -118.95315   0.74710022   -118.20605   -3447.5061    4.2491839    4.2491839    4.2491839   -3447.5061   -15651.565   -13014.268    18323.314    15018.031    7639.1401   -13930.982    76.721409 
   36800    1322.0126   -119.39523    1.1961848   -118.19905   -6467.0833    4.2528248    4.2528248    4.2528248   -6467.0833   -4289.0273   -21398.225    6286.0027   -15824.364   -5822.7994   -12566.306    76.918797 
   36900    852.98345   -118.97412   0.77179735   -118.20233   -11870.181    4.2610728    4.2610728    4.2610728   -11870.181   -15825.874   -30159.449    10374.779    33523.252    1293.4021    895.80705    77.367195 
   37000    754.56606   -118.88223   0.68274723   -118.19948    18612.205    4.2420772    4.2420772    4.2420772    18612.205    10795.333    1430.0112     43611.27    29472.368    6994.8522   -2966.6325     76.33711 
   37100    1212.6069   -119.29936    1.0971922   -118.20217   -3332.5356    4.2516326    4.2516326    4.2516326   -3332.5356    10640.104   -20951.407    313.69616   -16313.259    5046.6096   -14233.395    76.854125 
   37200    722.00027   -118.85987   0.65328101   -118.20659   -11951.382    4.2631183    4.2631183    4.2631183   -11951.382   -12883.861    -32770.71    9800.4249    18960.358    5658.6257   -11837.447    77.478669 
   37300    482.35769   -118.64188   0.43644737   -118.20543    25591.227    4.2454802    4.2454802    4.2454802    25591.227    21155.483   -1060.2282    56678.427    37879.951   -3551.5062    4683.8205    76.520967 
   37400    1315.5186   -119.38846    1.1903089   -118.19815   -4049.8384    4.2568993    4.2568993    4.2568993   -4049.8384   -10038.035   -20615.722    18504.242   -13456.414   -5551.0546    7655.1102    77.140086 
   37500    1113.5227   -119.20812    1.0075387   -118.20058    6138.2527    4.2547488    4.2547488    4.2547488    6138.2527    129.31914    9071.0099    9214.4291    9570.4603    3733.8211    1908.9838    77.023236 
   37600    580.45474   -118.73388   0.52520764   -118.20867    8037.1101    4.2522559    4.2522559    4.2522559    8037.1101   -3677.1179   -2167.7162    29956.164    48046.722    1520.0716   -830.97162    76.887929 
   37700    1004.7203    -119.1075   0.90909202   -118.19841    -19123.97     4.259982     4.259982     4.259982    -19123.97   -26513.007   -31331.661    472.75768   -241.30975    -6559.853   -6079.5676    77.307797 
   37800    1037.5934   -119.13411   0.93883631   -118.19528    6967.2943    4.2501924    4.2501924    4.2501924    6967.2943   -7400.4747    8024.6614    20277.696   -2106.3484    -637.9508   -7654.9424    76.776054 
   37900    691.04572   -118.82801   0.62527269   -118.20274   -10233.128    4.2647854    4.2647854    4.2647854   -10233.128   -41769.069   -23852.596     34922.28    41997.501    2454.2063   -627.42176    77.569601 
   38000    1151.2797   -119.23556    1.0417021   -118.19386   -7884.7536    4.2530596    4.2530596    4.2530596   -7884.7536   -25696.257   -16566.034    18608.031    5332.9769    1551.1964   -10088.646    76.931539 
   38100    927.32412    -119.0334   0.83906235   -118.19433    18706.123    4.2381826    4.2381826    4.2381826    18706.123     18899.96    3594.8798     33623.53   -8832.7649   -2123.0664    -17158.56    76.127048 
   38200    468.88326   -118.63399   0.42425543   -118.20973   -9119.8272     4.259795     4.259795     4.259795   -9119.8272   -32305.774   -33788.428    38734.721    36237.245   -2507.6682   -1395.3712    77.297615 
   38300    959.64316   -119.07309    0.8683053   -118.20478   -2090.0369    4.2573612    4.2573612    4.2573612   -2090.0369   -36762.115    -3641.703    34133.708     14318.28    1616.3388    13337.817    77.165203 
   38400     1391.014   -119.45237    1.2586187   -118.19376   -7859.5386    4.2509413    4.2509413    4.2509413   -7859.5386   -21797.501    6097.4954   -7878.6106   -12428.935    16456.328   -4544.6584    76.816643 
   38500    691.53967   -118.83004   0.62571962   -118.20432   -4452.3199    4.2490236    4.2490236    4.2490236   -4452.3199   -29665.735   -2652.3904    18961.166     27957.21    262.32515   -4151.3273     76.71273 
   38600    654.16246   -118.80047   0.59189994   -118.20857    7827.2544    4.2500645    4.2500645    4.2500645    7827.2544   -4843.8634   -4654.7654    32980.392    37094.232   -6347.9999    92.032203    76.769122 
   38700    1314.1528   -119.38891    1.1890731   -118.19983    -13899.43    4.2610342    4.2610342    4.2610342    -13899.43    -5847.114   -16349.632   -19501.545   -6626.9811    5167.3194    4079.5862    77.365093 
   38800    1028.3771   -119.13478   0.93049721   -118.20429    14054.085    4.2434906    4.2434906    4.2434906    14054.085    1257.2953    15826.566    25078.392    4486.4845    4270.4249    6356.5772    76.413438 
   38900    355.30929   -118.53847   0.32149131   -118.21698    7966.1775    4.2487628    4.2487628    4.2487628    7966.1775    297.16688   -9041.5046     32642.87    43834.973    2052.5374   -7311.8757    76.698602 
   39000    829.90254   -118.96108   0.75091326   -118.21016   -15153.116    4.2607116    4.2607116    4.2607116   -15153.116   -8371.8932   -30004.258   -7083.1969    11657.473   -2428.8106   -6641.8967    77.347525 
   39100    1396.0892   -119.45948    1.2632108   -118.19627   -2069.1679    4.2492374    4.2492374    4.2492374   -2069.1679     -7797.18    4205.8339   -2616.1576   -17251.551    -698.8672    947.20628    76.724312 
   39200    673.56935   -118.81653    0.6094597   -118.20707    1779.1961    4.2516773    4.2516773    4.2516773    1779.1961   -38016.395    17299.119    26054.865    36640.297       9072.8   -658.16063     76.85655 
   39300    627.02749   -118.77467   0.56734765   -118.20733    -2275.725    4.2570369    4.2570369    4.2570369    -2275.725   -30762.427    15563.475    8371.7773    29435.719    5249.3172    -3984.599     77.14757 
   39400    1349.9462   -119.41214    1.2214597   -118.19068   -22597.519    4.2666234    4.2666234    4.2666234   -22597.519   -29191.966   -22012.028   -16588.562   -17575.907    -8705.506   -909.32729    77.669936 
   39500    723.44304   -118.84753   0.65458646   -118.19295   -2780.3445    4.2627218    4.2627218    4.2627218   -2780.3445   -21831.337   -14175.012    27665.316    34189.446   -3449.5931     7802.373    77.457051 
   39600    658.71454   -118.78608   0.59601875   -118.19006    20162.359    4.2523248    4.2523248    4.2523248    20162.359     8530.448    5261.0432    46695.586    27279.303    13819.285   -764.61104    76.891667 
   39700    1218.7677   -119.28517    1.1027666    -118.1824     2035.171    4.2591611    4.2591611    4.2591611     2035.171    7954.9396   -10565.244    8715.8169   -21044.993    12046.957    4480.7533    77.263114 
   39800    657.30508   -118.78753   0.59474345   -118.19279    5474.4028    4.2580905    4.2580905    4.2580905    5474.4028   -124.21544   -6074.5248    22621.949    29796.863   -4169.2429    5956.3463    77.204865 
   39900    666.79005   -118.80298   0.60332565   -118.19965   -10577.936    4.2566663    4.2566663    4.2566663   -10577.936   -32001.009    -6967.813    7235.0151    38567.079   -11457.326    1042.0904    77.127424 
   40000    1463.4838   -119.51318    1.3241909   -118.18899   -14994.231    4.2577419    4.2577419    4.2577419   -14994.231    -16364.69   -603.12335    -28014.88    -12246.57   -7211.6189    1814.5514    77.185905 
   40100    980.00896   -119.08056    0.8867327   -118.19382   -7612.5742    4.2608781    4.2608781    4.2608781   -7612.5742   -27355.817   -4374.9494    8893.0434    24819.538    5615.2253   -4839.9461    77.356594 
   40200    475.37961   -118.62477   0.43013346   -118.19463    2144.7544    4.2616298    4.2616298    4.2616298    2144.7544   -26333.783   -17443.348    50211.393     37031.26    250.36587     -987.056     77.39754 
   40300    1139.6403   -119.21502    1.0311705   -118.18385   -2748.3866    4.2552683    4.2552683    4.2552683   -2748.3866   -27450.967   -5714.9199    24920.728   -13362.515   -9717.9102   -3590.9239    77.051454 
   40400    891.09002   -118.99892   0.80627697   -118.19264    11205.053    4.2452974    4.2452974    4.2452974    11205.053   -12087.102    8750.1723    36952.089    18975.456   -10762.217   -1329.2482    76.511087 
   40500    652.09325   -118.79474   0.59002768   -118.20471   -8792.8508    4.2609378    4.2609378    4.2609378   -8792.8508   -32348.237   -19901.973    25871.657    47089.365    5423.0921    4582.5513    77.359846 
   40600    1293.1844   -119.35785    1.1701004   -118.18775   -23509.012    4.2683621    4.2683621    4.2683621   -23509.012   -36841.093   -7892.0477   -25793.894   -7744.3106    1561.8202    6961.0997    77.764928 
   40700    946.64013   -119.04495   0.85653988   -118.18841    497.21162    4.2530088    4.2530088    4.2530088    497.21162    6534.9432   -7430.0247    2386.7163    7687.7598   -5411.3368   -2772.2641    76.928781 
   40800    334.40446   -118.50072   0.30257619   -118.19814     14681.05    4.2512118    4.2512118    4.2512118     14681.05    -6008.034    8138.2141    41912.971    50835.393   -8942.2017   -6644.8214    76.831306 
   40900    1066.9962   -119.15977   0.96544061   -118.19433   -1039.5423     4.260299     4.260299     4.260299   -1039.5423   -9442.0756    5295.8929    1027.5557    3715.8691     1063.905   -5425.3064    77.325056 
   41000    1395.3013   -119.45444    1.2624979   -118.19194   -9600.0534    4.2538859    4.2538859    4.2538859   -9600.0534    2909.9908   -19033.304   -12676.847    -10174.75    5491.7171   -2010.7454    76.976385 
   41100    623.05471   -118.76939   0.56375299   -118.20564      7206.79    4.2472475    4.2472475    4.2472475      7206.79     14821.94   -18650.063    25448.493    39237.821   -4114.5218    440.13948     76.61657 
   41200    741.21809   -118.87428    0.6706697   -118.20361    -6830.933    4.2571676    4.2571676    4.2571676    -6830.933    15115.102   -30809.798    -4798.103    16725.121   -2788.5507   -4547.5618    77.154675 
   41300    1141.8377   -119.23103    1.0331588   -118.19787   -4361.3807    4.2513699    4.2513699    4.2513699   -4361.3807   -2638.2979    17629.842   -28075.686   -21649.649    4258.7455   -5908.6031    76.839879 
   41400    799.67846   -118.92854   0.72356588   -118.20497    3424.0298    4.2475627    4.2475627    4.2475627    3424.0298    1510.0967     1649.468    7112.5246    23537.302    12209.818   -4852.7889    76.633631 
   41500    838.64946   -118.96453   0.75882766    -118.2057   -7424.0158    4.2530192    4.2530192    4.2530192   -7424.0158   -8898.0562   -20450.761    7076.7699    47369.661    5291.4642    694.41494    76.929343 
   41600    982.30126   -119.09032   0.88880683   -118.20152    4676.4693    4.2494951    4.2494951    4.2494951    4676.4693    2583.5587    25190.786   -13744.937   -9602.8041   -5851.2121    4856.8725    76.738269 
   41700    753.35968   -118.88816   0.68165567   -118.20651   -3961.6382    4.2574108    4.2574108    4.2574108   -3961.6382   -10055.539    22664.535   -24493.911   -8369.4478    7916.0486    1127.8201    77.167901 
   41800    835.34452   -118.95973   0.75583728   -118.20389   -8046.5664    4.2569192    4.2569192    4.2569192   -8046.5664    -20372.39    807.38097   -4574.6897    28968.985    15359.552   -2115.9417    77.141168 
   41900    1200.8505   -119.28479    1.0865548   -118.19823    7343.9273    4.2443704    4.2443704    4.2443704    7343.9273    7979.1041    7676.0814    6376.5964    18428.272   -8115.2775    478.45859    76.460976 
   42000    886.73256   -119.00702   0.80233425   -118.20468    4925.9157    4.2489632    4.2489632    4.2489632    4925.9157    27042.412    7350.4287   -19615.094   -10768.176   -12111.013   -5396.0999    76.709455 
   42100    553.61907   -118.71331   0.50092617   -118.21238    2470.5525    4.2591734    4.2591734    4.2591734    2470.5525    5101.2839    22574.788   -20264.414   -5551.5935    9377.6116   -6649.1084    77.263782 
   42200    1130.3245   -119.22325    1.0227413   -118.20051    2435.0659    4.2549625    4.2549625    4.2549625    2435.0659   -1845.0216    7273.6501    1876.5694    6035.8423     13221.21    5931.8861    77.034843 
   42300    1253.5221   -119.32769    1.1342132   -118.19348   -1401.0039    4.2525284    4.2525284    4.2525284   -1401.0039   -8407.9507    31029.363   -26824.424    4666.4352   -16450.979    8025.4918    76.902714 
   42400     442.7962   -118.60459   0.40065131   -118.20394    -3888.399    4.2591279    4.2591279    4.2591279    -3888.399   -276.29814    51908.188   -63297.087   -2508.1146   -10176.506    524.30615    77.261308 
   42500    702.61093    -118.8369   0.63573713   -118.20116   -2127.0859    4.2548839    4.2548839    4.2548839   -2127.0859   -1016.5025    20288.071   -25652.827   -4858.8489    21864.931   -3371.6679    77.030575 
   42600    1401.8659   -119.46132    1.2684377   -118.19289   -3692.2152    4.2500094    4.2500094    4.2500094   -3692.2152   -1066.3747    -16424.65    6414.3794    -564.3154    5053.6902    1338.9981    76.766135 
   42700    875.19391   -118.99322   0.79189384   -118.20133    1544.5424     4.252414     4.252414     4.252414    1544.5424    29308.559   -13164.828   -11510.103    184.17978   -17207.463    12899.391    76.896506 
   42800    338.73811   -118.51652   0.30649736   -118.21002    7130.4418    4.2533795    4.2533795    4.2533795    7130.4418    33888.059    8512.0639   -21008.798    2276.9071    -3344.872    3026.0193    76.948896 
   42900    1048.0921    -119.1508   0.94833577   -118.20247   -2412.7661    4.2545543    4.2545543    4.2545543   -2412.7661   -4207.8786   -3547.7216    517.30188   -262.85964    7756.9498   -733.26613    77.012678 
   43000    1340.8606   -119.41193    1.2132388   -118.19869    -5249.391    4.2554589    4.2554589    4.2554589    -5249.391    10035.387   -28518.445    2734.8845   -2664.5961   -2356.5426    15015.317    77.061807 
   43100    629.53507   -118.77732   0.56961656    -118.2077   -13121.461    4.2570502    4.2570502    4.2570502   -13121.461    6829.3224   -15375.021   -30818.686    89.071767   -22088.138    9847.0537    77.148292 
   43200     693.3816   -118.83389   0.62738625   -118.20651    -516.9288     4.246566     4.246566     4.246566    -516.9288    11712.793    22834.574   -36098.153   -2321.5784     -6967.87   -4289.0358    76.579696 
   43300    1345.1422   -119.41572    1.2171129   -118.19861   -1584.4994    4.2470789    4.2470789    4.2470789   -1584.4994    7201.1404   -4838.0039   -7116.6348    2893.6562     18483.03    338.75829    76.607445 
   43400    944.30742   -119.06116    0.8544292   -118.20673   -10087.093    4.2603984    4.2603984    4.2603984   -10087.093    2616.0027   -28653.277   -4224.0053     6390.692   -9387.9502     16056.56    77.330466 
   43500    655.43881    -118.7991   0.59305481   -118.20604    8466.7554    4.2551472    4.2551472    4.2551472    8466.7554    20319.319    1501.3495    3579.5972   -8973.8328   -17245.331    6301.1929    77.044879 
   43600    1025.8593   -119.12107   0.92821903   -118.19285   -6503.6072     4.256811     4.256811     4.256811   -6503.6072    3671.3488   -6237.2936   -16944.877   -497.69972   -902.40806   -8485.1212    77.135289 
   43700    929.65465   -119.03723   0.84117106   -118.19606    16996.745    4.2484473    4.2484473    4.2484473    16996.745    17972.836    7255.2367    25762.164    17098.927    6641.2523    799.86911    76.681517 
   43800    646.07876   -118.79204   0.58458564   -118.20745    7738.5571    4.2538835    4.2538835    4.2538835    7738.5571    6494.1759    11624.887     5096.608    10620.984   -6470.7682    15139.638    76.976253 
   43900    909.65846    -119.0266   0.82307809   -118.20352    1096.3404    4.2521645    4.2521645    4.2521645    1096.3404    7876.8859    19044.882   -23632.747   -2753.7654   -13740.425    5412.5263    76.882975 
   44000    1127.1079    -119.2198    1.0198309   -118.19997    5608.1121    4.2498004    4.2498004    4.2498004    5608.1121   -8366.5409    18085.607      7105.27    2687.0828    4040.2037   -9240.2502    76.754811 
   44100    789.24136   -118.91889   0.71412216   -118.20477    -14054.14     4.260966     4.260966     4.260966    -14054.14   -25953.799   -28419.501    12210.881    24132.099    1887.7503    10797.887    77.361382 
   44200    736.53853   -118.87004   0.66643554    -118.2036    3734.0712      4.24819      4.24819      4.24819    3734.0712    5325.2944   -18692.425    24569.344    2851.1972   -11259.141    16517.531    76.667586 
   44300    1092.6419   -119.18734   0.98864533    -118.1987   -7870.1167    4.2510023    4.2510023    4.2510023   -7870.1167   -19486.115     7234.323   -11358.558   -5837.6457   -7288.7705    2004.8728    76.819949 
   44400    981.60302   -119.08974   0.88817504   -118.20156   -14051.896    4.2539893    4.2539893    4.2539893   -14051.896   -38518.959    -2111.952   -1524.7772    25315.825    4876.8807   -853.45598    76.981999 
   44500    817.87183   -118.94761   0.74002762   -118.20758    7034.2394    4.2433339    4.2433339    4.2433339    7034.2394    -6856.879   -5286.5788    33246.176    17505.913    6184.4411    1950.7677    76.404971 
   44600    1023.2918   -119.13417   0.92589591   -118.20827    -9122.763    4.2546442    4.2546442    4.2546442    -9122.763   -17540.087   -3060.9359   -6767.2661   -6997.3339   -11801.309     10474.89    77.017556 
   44700    1004.2253   -119.11308   0.90864418   -118.20444   -7748.8846    4.2527539    4.2527539    4.2527539   -7748.8846   -25248.246    1966.1263     35.46602    8307.9062   -5363.1756    4760.6221    76.914948 
   44800    561.11311   -118.71827   0.50770693   -118.21056    9792.9514    4.2438291    4.2438291    4.2438291    9792.9514   -34462.552    16616.958    47224.448    28797.627     17009.44   -9248.3744    76.431723 
   44900    752.08073   -118.89535   0.68049845   -118.21485   -10058.779    4.2514885    4.2514885    4.2514885   -10058.779   -40980.456   -5351.6637    16155.781    5003.6273    13614.056   -149.78427    76.846314 
   45000    1148.6228   -119.24758     1.039298   -118.20828   -3222.6791    4.2475143    4.2475143    4.2475143   -3222.6791   -5298.1897   -14230.085    9860.2374   -10941.627   -694.78531   -128.41586    76.631011 
   45100    837.85786   -118.96958    0.7581114   -118.21147   -10612.536    4.2499094    4.2499094    4.2499094   -10612.536   -21636.049   -10094.092   -107.46642    17025.466   -6115.4621   -999.67372    76.760717 
   45200    752.10386   -118.89567   0.68051938   -118.21515    3784.7944     4.245692     4.245692     4.245692    3784.7944   -24866.374    22729.957      13490.8    22045.346    7770.2823   -2029.3765    76.532421 
   45300    1126.0998   -119.23175    1.0189188   -118.21283    8526.7847    4.2499023    4.2499023    4.2499023    8526.7847   -2020.7399    1161.2232    26439.871   -747.44947    10086.323   -4344.8772    76.760329 
   45400     1041.186    -119.1491   0.94208697   -118.20701    -11883.99    4.2576857    4.2576857    4.2576857    -11883.99    -708.2727   -25223.138    -9720.561   -8563.5324   -9643.5589    3021.9179    77.182845 
   45500    424.15018   -118.59362      0.38378   -118.20984    17998.569    4.2440892    4.2440892    4.2440892    17998.569    19577.591    18930.002    15488.114    18373.837   -20401.038   -1176.0175    76.445777 
   45600    969.71598    -119.0865    0.8774194   -118.20908   -5110.0267    4.2525405    4.2525405    4.2525405   -5110.0267   -19306.657   -1322.5715    5299.1484    19690.588   -4295.3726   -883.35717    76.903372 
   45700    1496.9017   -119.55264    1.3544281   -118.19821   -10665.461    4.2584797    4.2584797    4.2584797   -10665.461   -13140.438   -24834.788    5978.8425   -3982.8202    6730.8797    3224.3605    77.226039 
   45800    658.29207   -118.80247    0.5956365   -118.20683    7529.9587    4.2504765    4.2504765    4.2504765    7529.9587    19750.335    3119.3809   -279.83939    7914.3325   -17367.849    9005.0354    76.791451 
   45900    508.47191   -118.66615   0.46007607   -118.20608    1672.9484    4.2524933    4.2524933    4.2524933    1672.9484   -4618.2781   -3632.6985    13269.822    13765.774   -19966.172   -2794.5894     76.90081 
   46000    1278.3349   -119.34705    1.1566643   -118.19039   -22743.345    4.2660666    4.2660666    4.2660666   -22743.345   -36190.246   -22517.553   -9522.2364   -4167.6798    6634.5622   -11065.192    77.639528 
   46100    932.72884   -119.03541   0.84395265   -118.19146   -5627.4012    4.2608687    4.2608687    4.2608687   -5627.4012    6586.3363    5664.8062   -29133.346    -3153.622    4673.4942    14194.364    77.356078 
   46200    552.42726   -118.69317    0.4998478   -118.19333    20311.956    4.2493979    4.2493979    4.2493979    20311.956    26747.243    35646.682   -1458.0555    18285.387   -6923.2283    10099.999    76.733005 
   46300    1030.9823   -119.12206   0.93285448   -118.18921   -2252.2898    4.2587442    4.2587442    4.2587442   -2252.2898   -11941.781    29457.702    -24272.79    17177.585    1468.0658   -9221.1086    77.240428 
   46400    893.50326   -118.99982   0.80846053   -118.19136   -10231.852    4.2597997    4.2597997    4.2597997   -10231.852    1680.9408   -5624.5745   -26751.923   -4308.7474      9380.92    19104.704    77.297873 
   46500    689.62884   -118.82497   0.62399067   -118.20098    5479.9135      4.24833      4.24833      4.24833    5479.9135    19477.791   -2681.2373   -356.81322   -4687.8245   -804.18214    28855.449     76.67517 
   46600    1098.5661   -119.19592   0.99400568   -118.20192   -5060.0451    4.2525517    4.2525517    4.2525517   -5060.0451   -5907.4515   -11523.316    2250.6318    12063.745   -11314.059   -7522.1371    76.903979 
   46700    1004.0883   -119.10871   0.90852022   -118.20019    1473.7619    4.2557788    4.2557788    4.2557788    1473.7619    12110.264   -18315.131    10626.152    4460.9256   -1282.0023    256.69223     77.07919 
   46800    663.47889   -118.80571   0.60032964   -118.20538    829.19944    4.2502364    4.2502364    4.2502364    829.19944    31206.497   -31576.886    2857.9876    -6199.422    510.80217    32620.135    76.778436 
   46900    782.09135   -118.91687   0.70765269   -118.20922    4403.8317    4.2461856    4.2461856    4.2461856    4403.8317    30878.281   -32781.277    15114.491   -1776.0832   -4416.4724    11877.908     76.55912 
   47000    1214.2594   -119.30623    1.0986874   -118.20754   -1438.8723    4.2496421    4.2496421    4.2496421   -1438.8723   -12758.389   -13050.587    21492.359     7846.994   -2160.9612   -9671.0801    76.746234 
   47100    940.59221   -119.05791    0.8510676   -118.20684   -10535.676     4.256389     4.256389     4.256389   -10535.676   -6114.3625   -33729.983    8237.3177    219.88881   -5255.2962    17583.649    77.112347 
   47200    480.83693    -118.6473   0.43507136   -118.21223   -4442.8125     4.253912     4.253912     4.253912   -4442.8125    12216.562   -54400.231    28855.232   -18853.018    8146.0483    23964.584    76.977801 
   47300    906.49242   -119.02963   0.82021339   -118.20942   -8642.8384    4.2477021    4.2477021    4.2477021   -8642.8384    268.42438   -34360.097    8163.1572   -10165.132    2670.1293   -11749.905    76.641175 
   47400    1266.1599   -119.34829    1.1456481   -118.20264   -4316.6192    4.2491034    4.2491034    4.2491034   -4316.6192    11294.731   -17029.548   -7215.0403    2632.7612   -4611.2669   -10257.834    76.717052 
   47500    826.90997   -118.95697   0.74820552   -118.20877   -6152.5651    4.2568291    4.2568291    4.2568291   -6152.5651    9842.5546   -23021.858   -5278.3925      1659.88     11959.16    23065.666    77.136271 
   47600    748.56918   -118.88454   0.67732112   -118.20721    694.74482     4.255287     4.255287     4.255287    694.74482    19528.894   -18960.727    1516.0665    -14488.51   -2144.0453    2665.4961    77.052473 
   47700    1192.6188   -119.27545    1.0791065   -118.19634   -14724.914    4.2561671    4.2561671    4.2561671   -14724.914   -4754.8327   -34679.923   -4739.9857   -4381.5153   -5385.9654   -21734.088     77.10029 
   47800    936.86395   -119.04367   0.84769419   -118.19597   -1919.7706    4.2492513    4.2492513    4.2492513   -1919.7706   -23212.818    18996.523    -1543.017    22075.422   -2571.1231    -2067.869    76.725061 
   47900    530.70076   -118.68916    0.4801892   -118.20897    3260.4908    4.2540044    4.2540044    4.2540044    3260.4908   -13038.655    12977.164    9842.9634    6785.7928   -685.82099    23435.698    76.982816 
   48000    918.26921   -119.03791   0.83086928   -118.20704    2395.6459    4.2519155    4.2519155    4.2519155    2395.6459    1135.1819   -15390.422    21442.178   -22602.752    6813.8354    9476.6329     76.86947 
   48100    1418.2932   -119.48255    1.2833015   -118.19925   -433.92852    4.2476043    4.2476043    4.2476043   -433.92852   -17198.458    12911.332    2985.3403   -413.58374   -2044.2509    -6402.927    76.635882 
   48200     831.0414   -118.96099   0.75194372   -118.20905   -11256.208    4.2548065    4.2548065    4.2548065   -11256.208   -21212.306    780.29517   -13336.613    18814.942    301.41078    9189.9503    77.026374 
   48300    361.03385   -118.54405   0.32667101   -118.21738    22504.191    4.2446173    4.2446173    4.2446173    22504.191    2786.9748    37811.428    26914.169   -1431.6843    7200.8974    16797.942    76.474319 
   48400    939.24978    -119.0649   0.84985294   -118.21505   -10624.886    4.2557632    4.2557632    4.2557632   -10624.886   -25867.376   -4475.0327     -1532.25   -14340.541    -2740.628    5636.0128    77.078341 
   48500    1180.9275   -119.27526     1.068528   -118.20673    4657.3292    4.2415666    4.2415666    4.2415666    4657.3292    6226.5712     11248.46   -3503.0441   -1801.7008   -8987.1937    -11794.39    76.309545 
   48600    926.84467    -119.0529   0.83862854   -118.21428    -7010.519     4.249869     4.249869     4.249869    -7010.519       814.88    -6255.933   -15590.504    4077.8817   -4461.5621   -3787.8375    76.758528 
   48700     984.7161   -119.10185   0.89099182   -118.21086   -15530.682    4.2574332    4.2574332    4.2574332   -15530.682   -19205.767   -15278.187   -12108.091    796.51047    13599.855    18784.217    77.169119 
   48800    846.49342   -118.97325   0.76592504   -118.20732    16460.674    4.2404019    4.2404019    4.2404019    16460.674   -1184.1632    34605.685      15960.5   -6456.3064   -5473.4211   -2801.7086    76.246702 
   48900    538.99656   -118.70255   0.48769541   -118.21486   -14021.058    4.2571425    4.2571425    4.2571425   -14021.058   -19548.204    5353.3143   -27868.284   -996.01115   -23033.087   -29816.973     77.15331 
   49000     984.0069   -119.09641   0.89035013   -118.20606   -1399.2344    4.2484839    4.2484839    4.2484839   -1399.2344    3771.4123    15543.448   -23512.564    9463.1525     2321.023   -7659.7297    76.683501 
   49100    1284.1377   -119.36519    1.1619148   -118.20328    952.95794    4.2486725    4.2486725    4.2486725    952.95794    5387.5518   -6044.8581    3516.1801   -8494.7586    7381.6017    6897.1334    76.693716 
   49200    677.21736   -118.82222    0.6127605   -118.20946   -5820.1699     4.259623     4.259623     4.259623   -5820.1699    -7994.821    -13803.12    4337.4311   -12641.272   -14889.587   -10904.693    77.288253 
   49300    664.77258   -118.80805    0.6015002   -118.20654    13016.364    4.2511328    4.2511328    4.2511328    13016.364    24201.646    10983.278    3864.1671    2374.4603   -15692.098   -17889.829    76.827027 
   49400    1358.5288    -119.4228    1.2292254   -118.19358   -24866.948    4.2634789    4.2634789    4.2634789   -24866.948   -24733.884    -17463.08   -32403.879    3519.0382     7921.397    3627.7992     77.49833 
   49500    875.04315   -118.98812   0.79175743   -118.19636    10773.043    4.2543794    4.2543794    4.2543794    10773.043    11010.333    8474.8969    12833.899   -21821.796    2271.3177   -8152.7582    77.003178 
   49600    623.45454   -118.76227   0.56411477   -118.19815   -2193.4972    4.2574973    4.2574973    4.2574973   -2193.4972   -3878.4437    1705.4817   -4407.5296    -14823.53   -17195.782   -22370.299    77.172603 
   49700    1195.0182   -119.27134    1.0812775   -118.19006   -10161.511    4.2528287    4.2528287    4.2528287   -10161.511   -7662.2209   -7299.0533    -15523.26    16040.197   -1146.0638     354.1771    76.919008 
   49800    1066.3838   -119.15985   0.96488647   -118.19496    4339.4884    4.2481575    4.2481575    4.2481575    4339.4884    11250.365   -9105.7128    10873.813   -9248.8597    2749.7291    5166.2339    76.665825 
   49900    679.77491   -118.82103   0.61507462   -118.20595   -5860.1245    4.2580199    4.2580199    4.2580199   -5860.1245   -17693.267    -10031.09    10143.983   -30590.982   -2228.5949   -19943.132    77.201023 
   50000    784.31742   -118.91345   0.70966689   -118.20379    15251.787    4.2463211    4.2463211    4.2463211    15251.787    2708.4757    21343.915     21702.97    370.49647   -3002.7451   -20504.126    76.566446 
   50100    1079.5038   -119.17748   0.97675774   -118.20072   -12752.615    4.2541269    4.2541269    4.2541269   -12752.615   -16166.776   -18941.511   -3149.5581    21209.801    4249.2951    280.08794    76.989467 
   50200    780.98303   -118.91115   0.70664986    -118.2045   -2638.5156    4.2510121    4.2510121    4.2510121   -2638.5156    7194.6138   -27666.099    12555.939    -5553.618    5935.4829    3970.9647    76.820482 
   50300    624.27105   -118.77474   0.56485356   -118.20988    6832.6261    4.2473119    4.2473119    4.2473119    6832.6261    45833.273   -28369.813    3034.4183   -28611.632   -11097.666   -17048.238    76.620055 
   50400    1049.1537   -119.15749   0.94929633    -118.2082     950.5476    4.2508509    4.2508509    4.2508509     950.5476    40384.558   -29295.816   -8237.0996   -542.58135    -5978.975   -4160.4849    76.811742 
   50500    1101.1208   -119.19922   0.99631724    -118.2029   -5492.5307    4.2539129    4.2539129    4.2539129   -5492.5307    25530.518   -32590.967   -9417.1438    5070.8371    5412.6963    11743.405    76.977851 
   50600     563.8459   -118.72143   0.51017962   -118.21125    -7472.866    4.2520442    4.2520442    4.2520442    -7472.866    7353.7784   -37567.027    7794.6507   -34484.995    2029.2009   -5512.9866    76.876451 
   50700    766.99346   -118.90527    0.6939918   -118.21128     12605.68    4.2370845    4.2370845    4.2370845     12605.68    21332.905   -11143.167    27627.303   -15863.398    1835.0364   -12342.033     76.06789 
   50800    1162.0713   -119.26062    1.0514665   -118.20916   -8689.8858    4.2548516    4.2548516    4.2548516   -8689.8858    15264.196   -24877.393    -16456.46    11541.818   -3969.0858    7890.4578    77.028819 
   50900    716.56591    -118.8524   0.64836389   -118.20404   -10138.555    4.2642868    4.2642868    4.2642868   -10138.555   -10665.732    -19969.01    219.07628   -11771.123   -1234.4653    17613.562    77.542395 
   51000    663.37538    -118.7991   0.60023598   -118.19886    19537.934    4.2449168    4.2449168    4.2449168    19537.934    23194.542    485.80712    34933.452   -33620.132    1523.4986    -10784.57    76.490508 
   51100    1202.6765   -119.28497     1.088207   -118.19676   -1923.9638    4.2540983    4.2540983    4.2540983   -1923.9638    11739.603   -12510.971   -5000.5229    -4669.671   -3290.8161   -15438.184    76.987917 
   51200    1161.2201   -119.24266    1.0506964   -118.19196   -13118.561    4.2615014    4.2615014    4.2615014   -13118.561   -6913.3846   -17280.067    -15162.23    6330.5644     5718.475    17023.022    77.390545 
   51300    420.02707   -118.57745   0.38004932    -118.1974   -1178.5674    4.2556944    4.2556944    4.2556944   -1178.5674    5307.2614   -29779.969    20937.006   -25682.302   -715.66239    10951.036    77.074605 
   51400    852.82138   -118.96621    0.7716507   -118.19456    7270.4732    4.2513099    4.2513099    4.2513099    7270.4732    3218.3027    205.40435    18387.713   -16942.489   -3382.4733   -11662.503    76.836628 
   51500    1405.3325   -119.46292    1.2715744   -118.19134   -1214.2543    4.2558242    4.2558242    4.2558242   -1214.2543    10109.386     -6384.89   -7367.2594    10266.555   -1093.1559   -8367.8527    77.081658 
   51600    691.77695   -118.82498   0.62593432   -118.19904   -8911.0062    4.2573033    4.2573033    4.2573033   -8911.0062    -914.0456   -20073.216   -5745.7574   -22737.574    3164.7956    14428.275    77.162052 
   51700    483.56944   -118.64097   0.43754379   -118.20342    5196.8347    4.2438066    4.2438066    4.2438066    5196.8347    8003.9584    -6792.539    14379.085   -34930.709    3507.7345    11294.819    76.430509 
   51800    1329.6759   -119.40576    1.2031187   -118.20264   -6062.0027    4.2491047    4.2491047    4.2491047   -6062.0027     8961.227   -13190.031   -13957.204    211.28501    2089.8984   -10526.857    76.717123 
   51900     1135.161   -119.22919    1.0271175   -118.20207   -16217.479    4.2609741    4.2609741    4.2609741   -16217.479   -6241.9884   -17713.302   -24697.147    4704.8056    8238.5296   -103.17553    77.361819 
   52000    334.32031   -118.51252   0.30250004   -118.21002    7196.2403    4.2439335    4.2439335    4.2439335    7196.2403    22284.968   -20121.818     19425.57    -24072.96    5292.2017    16396.232    76.437365 
   52100    683.71495   -118.83208   0.61863966   -118.21344    7039.4692    4.2425746    4.2425746    4.2425746    7039.4692    21391.923     -17101.1    16827.585   -20868.073   -6219.2902    13039.147    76.363962 
   52200    1471.0798   -119.53811    1.3310639   -118.20705    -12015.29    4.2541063    4.2541063    4.2541063    -12015.29    -5338.908    -13052.59   -17654.371    6401.4447    2414.0029   -68.554848     76.98835 
   52300    954.77475   -119.07205   0.86390025   -118.20815   -2607.6209    4.2508101    4.2508101    4.2508101   -2607.6209    3985.9469   -16250.606    4441.7963   -4573.2175     10649.31   -6285.3011    76.809529 
   52400    483.97238   -118.65165   0.43790838   -118.21374   -7492.7843    4.2496902    4.2496902    4.2496902   -7492.7843    5706.8603   -50872.544     22687.33   -26861.779    1761.2057    13787.661     76.74884 
   52500    986.07886   -119.10117   0.89222488   -118.20894   -4868.4575    4.2477623    4.2477623    4.2477623   -4868.4575    9570.0878       -36407    12231.539   -11172.091   -1906.7595    13572.672    76.644436 
   52600    1179.5715   -119.27359     1.067301   -118.20629   -13026.278    4.2504318    4.2504318    4.2504318   -13026.278   -12111.058   -10143.816    -16823.96    11523.379    -7720.035   -12177.692    76.789028 
   52700    575.04803   -118.72997   0.52031554   -118.20965   -5418.3263    4.2515314    4.2515314    4.2515314   -5418.3263   -17803.978   -16322.069    17871.068   -17065.769    1030.6588   -5822.0766    76.848635 
   52800    787.23101   -118.92185   0.71230316   -118.20955    9747.3536    4.2464038    4.2464038    4.2464038    9747.3536   -6305.8973   -6995.3131    42543.271   -32670.438    7462.7091    4009.1517    76.570921 
   52900    1379.4205   -119.45061    1.2481286   -118.20249   -6831.7963    4.2533208    4.2533208    4.2533208   -6831.7963   -12090.719   -9910.3809    1505.7114    1560.3176   -839.43802    4188.0338    76.945711 
   53000    940.84045   -119.05831   0.85129221   -118.20702    3904.1107    4.2476211    4.2476211    4.2476211    3904.1107    2236.2754    15071.639   -5595.5827    446.68104   -10285.894   -5893.9364    76.636793 
   53100    394.71335   -118.57401   0.35714493   -118.21686    1030.3415    4.2490803    4.2490803    4.2490803    1030.3415   -16754.057    8586.6252    11258.456   -31341.917    3354.3745   -14882.185    76.715799 
   53200    943.61063   -119.06662   0.85379873   -118.21282   -13674.703    4.2537091    4.2537091    4.2537091   -13674.703   -31758.917   -9242.5681   -22.624585   -14314.152     17435.44    7317.3199    76.966785 
   53300    1277.0136   -119.35809    1.1554688   -118.20263   -4134.1985    4.2499329    4.2499329    4.2499329   -4134.1985    19.288288    10823.142   -23245.026    18103.238   -8326.0873    4368.5335    76.761989 
   53400    784.56258   -118.91651   0.70988871   -118.20662   -432.39456    4.2546307    4.2546307    4.2546307   -432.39456    6568.8283    2217.0942   -10083.106   -4348.2039   -10155.193   -9945.7814    77.016822 
   53500    611.59081   -118.76025   0.55338022   -118.20687    11838.749    4.2490007    4.2490007    4.2490007    11838.749   -3896.8315     12671.26    26741.819   -37215.716    12524.646   -3677.5418    76.711486 
   53600    1059.0284   -119.16127   0.95823113   -118.20304   -2259.2118    4.2521593    4.2521593    4.2521593   -2259.2118   -17382.533    6523.5681    4081.3294   -6146.3408    6943.0804   -1466.9942    76.882694 
   53700    1146.7684   -119.23911    1.0376202   -118.20149   -4010.8225    4.2507461    4.2507461    4.2507461   -4010.8225    1228.1766   -15486.086    2225.4417    25513.096    -4257.781    3915.8152    76.806063 
   53800    667.74181   -118.81383   0.60418682   -118.20965     4023.704    4.2440715    4.2440715    4.2440715     4023.704    12869.086    -27062.76    26264.786   -14439.962   -11369.107    2171.7113    76.444825 
   53900    561.07834   -118.72402   0.50767547   -118.21635   -7622.2134     4.251978     4.251978     4.251978   -7622.2134   -12153.175   -30113.111    19399.646   -38318.695    4210.2045   -8258.3171     76.87286 
   54000    1194.8289   -119.29119    1.0811063   -118.21008   -2236.8147     4.245844     4.245844     4.245844   -2236.8147    9032.5092   -15556.032   -186.92103    3395.1487    10498.131   -1043.6463    76.540641 
   54100     1298.873   -119.38606    1.1752476   -118.21081   -7124.2224    4.2479864    4.2479864    4.2479864   -7124.2224    9460.7076   -27622.442   -3210.9329    5009.7439   -13453.698   -2906.3225    76.656564 
   54200    579.21556   -118.74259   0.52408641   -118.21851    2115.3272    4.2498978    4.2498978    4.2498978    2115.3272    1307.6848    -30844.34    35882.636   -34745.385   -8550.5477    2918.9556    76.760089 
   54300    631.63147   -118.78638   0.57151342   -118.21486    2583.1044    4.2465291    4.2465291    4.2465291    2583.1044    13180.753    -28754.35     23322.91   -15382.879    -2106.572   -2051.3827    76.577698 
   54400    1134.2741   -119.23444     1.026315   -118.20813   -7440.0219    4.2505445    4.2505445    4.2505445   -7440.0219    15379.377   -35661.306   -2038.1364    17044.942   -2111.9001    1857.6241    76.795132 
   54500     998.1305   -119.11319   0.90312945   -118.21006    2637.9058    4.2465451    4.2465451    4.2465451    2637.9058    8515.2863   -15189.171    14587.602   -13463.145   -6624.0182    6984.4375    76.578562 
   54600    711.00927   -118.85475   0.64333613   -118.21141   -933.92405    4.2519606    4.2519606    4.2519606   -933.92405   -17433.609   -4942.9481    19574.785   -29186.326   -15924.214    699.95321    76.871916 
   54700    924.95717   -119.04283   0.83692068   -118.20591    169.95129    4.2512186    4.2512186    4.2512186    169.95129    -21154.05   -3227.7779    24891.682    4543.1486    4269.8725   -94.850065    76.831675 
   54800    1020.1301   -119.12728   0.92303516   -118.20425    9718.0892    4.2491056    4.2491056    4.2491056    9718.0892    4967.8541   -1524.5671    25710.981    7523.9241    3643.0429    -3761.798    76.717173 
   54900    805.72797   -118.93656    0.7290396   -118.20753   -1114.1069     4.256857     4.256857     4.256857   -1114.1069   -11093.444   -13395.177      21146.3   -26077.694   -10297.231    2257.0901     77.13779 
   55000     926.2152   -119.03975   0.83805898   -118.20169    619.25035    4.2511959    4.2511959    4.2511959    619.25035   -17316.374   -15407.972    34582.097   -15072.834   -2911.0559    2818.7679    76.830446 
   55100    1078.4021   -119.17305   0.97576087   -118.19729    328.54389    4.2492015    4.2492015    4.2492015    328.54389   -9290.6092   -4191.9926    14468.233    15094.814    4188.9053   -8570.1735    76.722366 
   55200    647.33871   -118.79144   0.58572567   -118.20571   -1834.6685    4.2590646    4.2590646    4.2590646   -1834.6685    11963.361   -21505.326    4037.9594   -12849.637    4675.8371    4049.7797    77.257863 
   55300     797.6579   -118.92184   0.72173763   -118.20011    5644.2933    4.2543816    4.2543816    4.2543816    5644.2933    15206.208   -5667.7277    7394.3991    -35438.77   -5432.8567    13998.262      77.0033 
   55400     1181.071   -119.25765    1.0686578   -118.18899   -16016.319    4.2610139    4.2610139    4.2610139   -16016.319   -36383.461     339.7176   -12005.213    8972.6021   -11669.423    366.34855    77.363987 
   55500    780.44626   -118.89487   0.70616418   -118.18871   -14126.154    4.2603671    4.2603671    4.2603671   -14126.154   -21767.296   -13281.725   -7329.4409    19995.678   -3841.8522   -4589.0617    77.328765 
   55600    751.26019   -118.87011   0.67975601   -118.19035    6990.9701    4.2467668    4.2467668    4.2467668    6990.9701    6000.8268   -9917.9075    24889.991   -25057.235    1924.3482    -3174.967    76.590561 
   55700    1145.2561   -119.22836    1.0362517   -118.19211   -10554.918    4.2535851    4.2535851    4.2535851   -10554.918   -7636.4036   -30941.001    6912.6498   -11614.192   -4028.3928    4784.1963    76.960058 
   55800    795.76752   -118.91956   0.72002717   -118.19954    6144.1311    4.2479596    4.2479596    4.2479596    6144.1311    1897.6399   -6480.2676    23015.021    32033.001   -3649.6843    3366.7582    76.655113 
   55900    584.36443   -118.73764   0.52874522    -118.2089    4098.1494    4.2488396    4.2488396    4.2488396    4098.1494   -7611.4454   -8028.4992    27934.393    8440.0925    1219.2386   -2390.6238    76.702761 
   56000    1197.8654   -119.28504    1.0838538   -118.20118   -8966.3407     4.256158     4.256158     4.256158   -8966.3407    4793.2094   -21732.216   -9960.0155   -21900.076    2768.1535    1946.8019    77.099797 
   56100    1159.2518   -119.24971    1.0489154    -118.2008   -9996.8826    4.2523709    4.2523709    4.2523709   -9996.8826   -5476.3314   -15235.003   -9279.3131     13362.24    -8360.806    1267.0648    76.894167 
   56200    390.08824   -118.56355   0.35296003   -118.21059    428.41401    4.2454211    4.2454211    4.2454211    428.41401   -18790.817    2452.3474    17623.711    36312.833   -9945.4718   -2491.8077    76.517772 
   56300    757.24702   -118.89565   0.68517302   -118.21048     3978.817    4.2486089    4.2486089    4.2486089     3978.817    12272.447    43.744931   -379.74039    3017.3949   -7689.7852   -5146.6375    76.690269 
   56400    1474.9933   -119.53711     1.334605    -118.2025   -11635.412    4.2541968    4.2541968    4.2541968   -11635.412    1380.6843   -10942.114   -25344.805     -6122.51    193.22974     518.3758    76.993265 
   56500    951.26613   -119.06989   0.86072558   -118.20917      4991.03    4.2459232    4.2459232    4.2459232      4991.03   -2537.2312    10952.888    6557.4331    23407.841   -2396.6751    4322.8952    76.544924 
   56600    420.60896   -118.59365   0.38057583   -118.21307     935.1485    4.2499939    4.2499939    4.2499939     935.1485   -6814.4546    13462.796   -3842.8963    29265.743   -9653.0729    -5283.931    76.765297 
   56700    1066.0474   -119.16818   0.96458208    -118.2036   -14714.601    4.2535956    4.2535956    4.2535956   -14714.601   -12949.591   -9330.3327   -21863.878   -4690.1693   -5675.2279   -9762.4163    76.960628 
   56800    1282.2733   -119.36084    1.1602279   -118.20061    3735.1644    4.2468999    4.2468999    4.2468999    3735.1644    -11919.67    7654.0351    15471.128    -9531.091   -2480.0758   -2719.6566    76.597761 
   56900    551.91652   -118.70879   0.49938566   -118.20941   -4018.1212    4.2567816    4.2567816    4.2567816   -4018.1212   -38146.773     7717.883    18374.526    15437.883    1349.3045    2630.5521    77.133691 
   57000    825.15807   -118.94853   0.74662036   -118.20191   -7386.3866    4.2558776    4.2558776    4.2558776   -7386.3866    -36560.34    11858.731    2542.4495    11892.651    215.77478    11872.345    77.084559 
   57100    1449.6709   -119.50108    1.3116927   -118.18939   -3993.2782    4.2478702    4.2478702    4.2478702   -3993.2782   -21043.877     8321.172    742.87079   -7846.8854    810.55065    1976.6031    76.650276 
   57200    850.44469   -118.97617   0.76950023   -118.20667    6664.2381    4.2464369    4.2464369    4.2464369    6664.2381   -24270.631    19233.858    25029.487    8293.8318    3303.8595    943.00425    76.572709 
   57300    538.07952   -118.69873   0.48686565   -118.21186    6629.1366    4.2546064    4.2546064    4.2546064    6629.1366   -35951.704    22801.445    33037.668     19085.93    2861.8906   -1185.6599    77.015504 
   57400    1218.8733   -119.29972    1.1028621   -118.19686   -14217.519     4.258345     4.258345     4.258345   -14217.519   -33145.594    3998.6496   -13505.611   -4365.3705    1178.5622    1746.1644     77.21871 
   57500    1121.7745   -119.21231    1.0150052    -118.1973    10532.903      4.23822      4.23822      4.23822    10532.903   -3753.3886    40435.619   -5083.5212   -336.65862    896.93706    2858.4572    76.129064 
   57600    537.62261   -118.70084   0.48645224   -118.21439    3198.8602    4.2472864    4.2472864    4.2472864    3198.8602   -22643.961    22517.383    9723.1594    22218.328   -705.04898   -4076.1769    76.618674 
   57700    946.68689   -119.06033   0.85658219   -118.20375   -17890.701    4.2620967    4.2620967    4.2620967   -17890.701   -35614.574    -4842.538    -13214.99    11322.528   -5032.6895   -236.98958    77.422983 
   57800    1309.9069   -119.37628    1.1852313   -118.19105   -10244.031     4.248905     4.248905     4.248905   -10244.031   -21268.547    14074.979   -23538.527   -12834.663    4238.1518    4873.8965    76.706303 
   57900    600.99037   -118.74965   0.54378872   -118.20586    9892.5239    4.2396415    4.2396415    4.2396415    9892.5239   -3924.1785    29082.909    4518.8412    18763.515    8442.0887   -346.39947     76.20569 
   58000    547.60744   -118.71053   0.49548672   -118.21504    9283.5252    4.2519953    4.2519953    4.2519953    9283.5252    14041.582    19677.941   -5868.9475    35731.507   -7296.5153   -3150.3779    76.873796 
   58100    1341.0632   -119.41095    1.2134222   -118.19753   -19444.721    4.2628665    4.2628665    4.2628665   -19444.721   -9506.1174   -13470.953   -35357.093   -925.98898   -8240.2074    1242.4571    77.464941 
   58200    1091.7757   -119.18404   0.98786161   -118.19618    12737.835    4.2403978    4.2403978    4.2403978    12737.835    5399.1324    14104.194    18710.179   -6520.4263    7722.9897    3594.2503     76.24648 
   58300    419.78884   -118.59126   0.37983376   -118.21142    8120.5597    4.2498104    4.2498104    4.2498104    8120.5597    -17822.95    12812.792    29371.837    30525.134    8363.5577     4226.916    76.755354 
   58400     997.6296   -119.10114   0.90267622   -118.19846   -18956.005    4.2636218    4.2636218    4.2636218   -18956.005    -19165.45   -20967.029   -16735.536    12200.274    3405.8407   -542.80328    77.506125 
   58500    1328.6541   -119.38834    1.2021942   -118.18614   -6767.5705    4.2498691    4.2498691    4.2498691   -6767.5705   -1511.3647   -1034.5013   -17756.845    -22183.19    828.69057    125.81786    76.758533 
   58600    610.44194   -118.75225   0.55234069   -118.19991   -2343.9867    4.2494463    4.2494463    4.2494463   -2343.9867   -31947.719    10366.815    14548.943    13594.874    3693.3127   -577.62299    76.735624 
   58700    667.69565   -118.80825   0.60414505    -118.2041    2859.9164    4.2531545    4.2531545    4.2531545    2859.9164   -17843.363      13392.6    13030.512    27925.882    8113.4058   -5524.6717    76.936685 
   58800    1258.2767   -119.33197    1.1385152   -118.19346   -12527.842    4.2572571    4.2572571    4.2572571   -12527.842   -5539.3249   -8189.4389   -23854.762   -5443.2711    3746.5195    3155.1072    77.159542 
   58900    914.43301    -119.0281    0.8273982    -118.2007    2417.7017    4.2428081    4.2428081    4.2428081    2417.7017   -11167.401    10254.296    8166.2098   -2680.2337   -3789.4824    4359.5015    76.376574 
   59000    550.81222   -118.71009   0.49838647    -118.2117    8001.4329    4.2434549    4.2434549    4.2434549    8001.4329   -42613.581    25755.887    40861.992    27371.607    253.76218   -212.32072    76.411509 
   59100    1091.4674   -119.19074   0.98758261   -118.20315   -23024.109    4.2624096    4.2624096    4.2624096   -23024.109   -37076.447   -10776.011   -21219.869    16256.104    9675.0044   -3256.7336    77.440034 
   59200    1175.6017   -119.25906    1.0637091   -118.19535   -1724.6083    4.2494474    4.2494474    4.2494474   -1724.6083     16151.19   -7214.5512   -14110.464   -13188.694   -2743.4453   -3035.8227    76.735685 
   59300    569.36877    -118.7202   0.51517683   -118.20502    9718.9567     4.243946     4.243946     4.243946    9718.9567   -9444.2664   -3629.3047    42230.441    12909.444   -10755.151     1438.899    76.438039 
   59400    684.76868   -118.82576   0.61959309   -118.20617    -1183.414    4.2565416    4.2565416    4.2565416    -1183.414   -38720.538    1326.7433    33843.552    25079.953   -2698.9659    2457.7956    77.120646 
   59500    1261.8403   -119.33245    1.1417396   -118.19071   -9541.6506    4.2580017    4.2580017    4.2580017   -9541.6506   -19930.981   -8600.8884   -93.082591   -8633.9883    5946.6797   -12907.445    77.200033 
   59600    836.16657   -118.95312   0.75658108   -118.19654   -2349.1602    4.2497669    4.2497669    4.2497669   -2349.1602   -9302.5192    1029.3844    1225.6542   -1403.4303      7121.08   -14427.211    76.752996 
   59700    676.56483   -118.81545   0.61217008   -118.20328    8577.6238    4.2442887    4.2442887    4.2442887    8577.6238   -18286.807    19334.478      24685.2    27887.058   -1658.8287    6691.3074    76.456561 
   59800    1193.4633   -119.27902    1.0798707   -118.19915   -4435.6706    4.2525185    4.2525185    4.2525185   -4435.6706   -22276.279    5237.6756    3731.5919    11866.729    1730.8527    4970.9999    76.902179 
   59900    1022.3842   -119.12344    0.9250747   -118.19837    -11109.83    4.2551854    4.2551854    4.2551854    -11109.83   -10025.126    4131.9781   -27436.343   -7254.8503    7643.4885   -15236.926    77.046954 
   60000    538.99197   -118.69394   0.48769126   -118.20624    2575.9398    4.2456131    4.2456131    4.2456131    2575.9398   -3599.1084   -8612.6104    19939.538     17569.12    567.94559   -16010.022    76.528157 
   60100    957.60158   -119.07233   0.86645803   -118.20587     1372.833     4.249353     4.249353     4.249353     1372.833   -17935.525    -16140.69    38194.714    21338.826   -5504.9324    1524.5708     76.73057 
   60200     1406.427   -119.46838    1.2725647   -118.19581   -17250.137    4.2583023    4.2583023    4.2583023   -17250.137   -31928.135   -12650.982   -7171.2927   -8434.7652   -1423.7976    202.97178    77.216385 
   60300    582.19157   -118.73496   0.52677917   -118.20818    2093.1284     4.244176     4.244176     4.244176    2093.1284    11001.344   -9571.9864    4850.0274      804.701    4436.7095   -16894.186    76.450467 
   60400    416.51897   -118.59218   0.37687512    -118.2153    13253.431    4.2397342    4.2397342    4.2397342    13253.431    4837.2606    7698.6081    27224.424     31410.22    3530.9131   -16750.865    76.210687 
   60500    1194.8336   -119.28983    1.0811106   -118.20872   -10960.082    4.2575869    4.2575869    4.2575869   -10960.082   -30760.692   -14171.382    12051.829    10872.253   -735.83351   -1898.2017    77.177477 
   60600    1108.9846   -119.20335    1.0034326   -118.19991    3873.8245    4.2501954    4.2501954    4.2501954    3873.8245    4285.8671    5843.1062    1492.5001   -13457.817   -1561.0834    6056.2669    76.776215 
   60700    420.66815   -118.58654   0.38062939   -118.20591    1798.4508    4.2508026    4.2508026    4.2508026    1798.4508    1235.9764    9313.0655   -5153.6895    15983.219    1297.5607    -4920.301    76.809123 
   60800    975.25436   -119.08357   0.88243064   -118.20113   -10711.735    4.2545354    4.2545354    4.2545354   -10711.735   -9990.7975   -27087.762    4943.3552    22090.782    814.11964   -15847.379    77.011652 
   60900     1504.349   -119.55422    1.3611666   -118.19306   -5823.4746    4.2495173    4.2495173    4.2495173   -5823.4746    -1740.661   -7552.8235   -8176.9392   -9636.0282   -3371.2534   -925.13046    76.739469 
   61000    612.77672   -118.75489   0.55445325   -118.20044   -9442.8679    4.2571088    4.2571088    4.2571088   -9442.8679   -22225.918    1813.6931   -7916.3792   -2090.1329   -5811.3723     1423.262    77.151479 
   61100    690.93134   -118.81963    0.6251692   -118.19446    213.90897    4.2512489    4.2512489    4.2512489    213.90897     2776.907    -11585.89    9450.7097    9462.8417   -3558.2554   -7991.7825    76.833322 
   61200    1204.3249   -119.28102    1.0896985   -118.19132     1410.991     4.254909     4.254909     4.254909     1410.991    -195.4508   -16334.426    20762.849    2001.8774     9304.599   -9198.7667    77.031941 
   61300    622.98582   -118.76304   0.56369066   -118.19935    1582.9567    4.2610071    4.2610071    4.2610071    1582.9567   -19679.943   -2493.2954    26922.108   -10148.437    17177.791    3302.8933    77.363617 
   61400    717.72792   -118.84559   0.64941531   -118.19617    6008.9094    4.2509875    4.2509875    4.2509875    6008.9094    18171.271    725.88614   -870.42865    893.04136   -3085.9481   -289.37428    76.819147 
   61500     1282.478   -119.34659    1.1604131   -118.18617    -17360.83    4.2561473    4.2561473    4.2561473    -17360.83   -1393.9572   -16695.849   -33992.685    5556.1229   -6106.0895   -9399.4335    77.099214 
   61600    772.93036   -118.89844   0.69936364   -118.19907   -2744.3437    4.2518152    4.2518152    4.2518152   -2744.3437   -3887.0891    8224.9214   -12570.863   -19288.697    15381.243    2066.4775    76.864029 
   61700    607.54277   -118.75761   0.54971747   -118.20789    8059.3654    4.2468031    4.2468031    4.2468031    8059.3654    8495.2643    23622.385   -7939.5531   -11806.604    9731.8302    6666.9773    76.592524 
   61800    1229.1794    -119.3139    1.1121874   -118.20171   -6730.5355    4.2502366    4.2502366    4.2502366   -6730.5355   -3229.1795    4591.5076   -21553.935    10764.249    -11682.58    6802.1478    76.778447 
   61900     1070.857    -119.1742   0.96893392   -118.20526    2785.6676    4.2459005    4.2459005    4.2459005    2785.6676   -4682.1207    10867.836    2171.2875   -6442.4886   -1666.6462   -3089.2353    76.543696 
   62000    499.99035   -118.67013   0.45240178   -118.21773    1941.8751    4.2509837    4.2509837    4.2509837    1941.8751   -26616.401    22242.735    10199.291   -18182.141    24881.263    -1591.714    76.818943 
   62100    813.62884   -118.95111   0.73618847   -118.21492     -2130.42     4.248524     4.248524     4.248524     -2130.42   -16801.507    20566.225   -10155.979    -1682.273    18043.181    6454.6301    76.685671 
   62200    1349.7417    -119.4237    1.2212747   -118.20243   -1538.4105    4.2439392    4.2439392    4.2439392   -1538.4105    6770.7224    15306.073   -26692.026    6415.3596   -5263.1525    1422.5184    76.437671 
   62300    831.25541   -118.96332   0.75213736   -118.21118   -3697.6796    4.2512291    4.2512291    4.2512291   -3697.6796   -8205.9786    15349.174   -18236.234   -9154.3023    7196.0291   -3009.0955    76.832245 
   62400    483.69346   -118.65309   0.43765601   -118.21543    309.29319    4.2509861    4.2509861    4.2509861    309.29319   -21070.181    28169.474    -6171.413   -15261.634    27752.731   -1334.8368    76.819074 
   62500    1139.0468   -119.23791    1.0306335   -118.20728   -2011.2746    4.2481767    4.2481767    4.2481767   -2011.2746   -16188.511    17551.392   -7396.7051   -591.16939    8384.1372    1153.2568    76.666867 
   62600    1386.8974     -119.456    1.2548939    -118.2011   -2117.5977    4.2462956    4.2462956    4.2462956   -2117.5977    11959.378    10582.648   -28894.819    6243.7764   -13769.255    654.51565     76.56507 
   62700    509.13764   -118.67725   0.46067844   -118.21657   -4296.6307    4.2505711    4.2505711    4.2505711   -4296.6307   -4468.9249    33025.704   -41446.672    -8561.705    11609.924   -7241.4737    76.796574 
   62800    486.86446   -118.65706   0.44052519   -118.21653    2681.2109    4.2487145    4.2487145    4.2487145    2681.2109    4291.7784    24604.354     -20852.5   -16891.091     28099.55   -3197.4028    76.695987 
   62900     1340.877   -119.41855    1.2132537    -118.2053   -1919.9649    4.2462167    4.2462167    4.2462167   -1919.9649    9381.5646    718.50324   -15859.962    1145.7423   -178.80021    3854.7538      76.5608 
   63000    1203.7221   -119.29729     1.089153   -118.20813   -2832.9538    4.2479206    4.2479206    4.2479206   -2832.9538    1573.8999    15746.906   -25819.668    8644.3003   -8481.0603   -3334.6869    76.653002 
   63100    554.44744   -118.71839    0.5016757   -118.21672    7971.8481    4.2479412    4.2479412    4.2479412    7971.8481    13730.264    30616.446   -20431.166   -11036.265    18419.423   -1460.9554     76.65412 
   63200    669.61386   -118.82009   0.60588069    -118.2142   -2663.4189    4.2499892    4.2499892    4.2499892   -2663.4189   -8872.2565    14736.984   -13854.985   -14099.541    17365.126   -875.26685    76.765037 
   63300    1218.6351   -119.30692    1.1026466   -118.20427     776.8456    4.2459324    4.2459324    4.2459324     776.8456    8179.1337    8760.4509   -14609.048    5550.7634    -10555.86   -4020.5789    76.545422 
   63400    953.85088   -119.07127   0.86306432   -118.20821   -738.79062    4.2521063    4.2521063    4.2521063   -738.79062   -2383.0279    15416.348   -15249.692    10433.318    6940.5061   -164.56496    76.879819 
   63500    517.99074   -118.68036   0.46868891   -118.21167    3641.0385     4.251939     4.251939     4.251939    3641.0385   -5296.4762    15588.066    631.52552   -14872.832    31109.106     75.03021    76.870742 
   63600    950.74361   -119.06493   0.86025279   -118.20467    9382.0405     4.245951     4.245951     4.245951    9382.0405    24509.377   -8092.3507    11729.095   -14022.373    9504.6462    843.77517    76.546427 
   63700    1240.1673   -119.32126    1.1221294   -118.19913    -12431.93    4.2544824    4.2544824    4.2544824    -12431.93    -6588.113   -16479.755   -14227.921    17315.326    -11497.69   -1278.3126     77.00877 
   63800    691.45632     -118.831   0.62564421   -118.20536    4903.4637    4.2491766    4.2491766    4.2491766    4903.4637    9462.7638    19747.098   -14499.471    12767.324    10686.006   -700.11083    76.721015 
   63900    783.61779   -118.91294   0.70903385    -118.2039   -4879.7159    4.2514636    4.2514636    4.2514636   -4879.7159   -5498.5283   -1974.7891   -7165.8303   -16996.228    23760.631    2528.6123    76.844961 
   64000    1100.0192   -119.19199   0.99532047   -118.19667   -3194.8775    4.2512922    4.2512922    4.2512922   -3194.8775   -14769.253   -23230.201    28414.822    2589.9094   -2568.4696   -2872.1294    76.835667 
   64100    699.67628   -118.83551    0.6330818   -118.20243    10234.467     4.253603     4.253603     4.253603    10234.467   -7273.7879    -11030.04    49007.229    30875.905    -7199.237   -5718.5493    76.961027 
   64200    808.14553   -118.92947   0.73122706   -118.19824   -7373.1733    4.2619782    4.2619782    4.2619782   -7373.1733   -21204.676   -11714.124    10799.281   -4891.6089    15377.087   -3423.7911    77.416525 
   64300    1166.0256   -119.24166    1.0550445   -118.18662   -8401.6111    4.2514133    4.2514133    4.2514133   -8401.6111   -7456.7429   -26696.333    8948.2427   -5616.6967    6749.3665    6284.6696    76.842233 
   64400     718.9983   -118.84496   0.65056478   -118.19439   -7426.8172    4.2492709    4.2492709    4.2492709   -7426.8172   -8996.3472   -30923.943    17639.839    41270.916    -5528.248    2015.0943    76.726121 
   64500    883.70357   -118.99761   0.79959356   -118.19801   -10427.866    4.2551382    4.2551382    4.2551382   -10427.866   -15909.132    3834.8453    -19209.31    15245.189   -6717.5847   -248.49638    77.044389 
   64600    1202.8038   -119.28282    1.0883221    -118.1945   -538.39217    4.2530647    4.2530647    4.2530647   -538.39217    5255.2229    4910.1104    -11780.51   -13622.945    9165.4987   -6681.9369    76.931814 
   64700    673.99164   -118.80992    0.6098418   -118.20008    3254.2694     4.252498     4.252498     4.252498    3254.2694    3471.1695   -34227.773    40519.411    30230.616    8189.9073   -4471.8807    76.901063 
   64800     697.8643    -118.8312   0.63144228   -118.19976    5007.3511    4.2499042    4.2499042    4.2499042    5007.3511   -1601.2165   -18013.862    34637.132    28626.767    -4988.838     457.8843    76.760436 
   64900    1329.0496   -119.39533     1.202552   -118.19278   -10086.457     4.253023     4.253023     4.253023   -10086.457    3770.7617   -3441.8133   -30588.319   -14843.322   -10660.565    2319.0521     76.92955 
   65000    900.67892    -119.0155   0.81495321   -118.20054   -8452.2507     4.253851     4.253851     4.253851   -8452.2507   -4910.0907    242.44601   -20689.107    21759.122    -4281.867    371.16662    76.974492 
   65100    418.39541   -118.58485   0.37857296   -118.20628    11581.197    4.2449281    4.2449281    4.2449281    11581.197    6572.2249    4075.9643    24095.401    45654.653    9847.8832   -7408.1392    76.491117 
   65200    947.02509   -119.06075   0.85688821   -118.20386    3974.0501    4.2489065    4.2489065    4.2489065    3974.0501    15733.306   -3801.2569   -9.8986574   -4119.3593    4444.5854   -1086.0452    76.706387 
   65300    1247.0781   -119.32838    1.1283825       -118.2   -5786.4824    4.2543324    4.2543324    4.2543324   -5786.4824   -15169.765    19342.011   -21531.693   -8086.6422   -5964.9328    3714.2281    77.000626 
   65400    678.87195   -118.82402    0.6142576   -118.20976    1235.3307    4.2473553    4.2473553    4.2473553    1235.3307   -6928.1264    1319.9207    9314.1978     50220.39    1878.7925   -500.19884    76.622407 
   65500    710.20166   -118.85261   0.64260539      -118.21    1843.1866    4.2417488    4.2417488    4.2417488    1843.1866    2282.2744   -9467.1145      12714.4    31920.847    5518.4308    2089.7147    76.319381 
   65600    1256.6474   -119.34042     1.137041   -118.20338   -3937.0956    4.2491752    4.2491752    4.2491752   -3937.0956   -17254.161    21145.703   -15702.829   -19378.907    4228.9143   -1455.0683    76.720939 
   65700    928.49319   -119.05086   0.84012015   -118.21074   -6325.9437    4.2538881    4.2538881    4.2538881   -6325.9437   -31284.729    19088.922    -6782.024     16937.33   -147.11342   -894.43435    76.976506 
   65800    492.50416   -118.65952   0.44562811   -118.21389    8268.1201    4.2451969    4.2451969    4.2451969    8268.1201   -22044.946    28865.799    17983.507    46811.069   -987.29896    2810.7548    76.505649 
   65900    919.33531   -119.04087   0.83183391   -118.20903    5514.1351    4.2404005    4.2404005    4.2404005    5514.1351    5226.4373    14483.455   -3167.4871   -2863.7208    6948.8848    -4283.295    76.246624 
   66000    1136.9093   -119.23635    1.0286994   -118.20766   -1743.5394    4.2498717    4.2498717    4.2498717   -1743.5394    6865.8838    16106.363   -28202.865   -10531.118    3988.0659   -4839.5403     76.75867 
   66100    721.82349   -118.86681   0.65312107   -118.21368   -7882.1906     4.255999     4.255999     4.255999   -7882.1906   -18114.349   -416.90554   -5115.3171    45604.499   -3317.0882    2968.8962    77.091155 
   66200    749.04336   -118.88874   0.67775018   -118.21099    7306.8096    4.2396003    4.2396003    4.2396003    7306.8096   -1921.7664     5704.761    18137.434    27898.316    2997.9025   -158.25395     76.20347 
   66300    1056.2795   -119.16059   0.95574391   -118.20485    890.35646    4.2449782    4.2449782    4.2449782    890.35646    2549.1289    17644.273   -17522.332   -23027.747    7976.6478   -5862.6166    76.493829 
   66400    776.56825   -118.90756   0.70265527    -118.2049   -14299.577    4.2614736    4.2614736    4.2614736   -14299.577   -13049.181   -5370.7709   -24478.778    17954.695    2682.9995   -2461.9153    77.389032 
   66500    772.08817   -118.90236    0.6986016   -118.20376    5310.7256    4.2457101    4.2457101    4.2457101    5310.7256   -668.86232     3194.278    13406.761    56118.431   -652.81829   -2632.9153    76.533399 
   66600    1189.3849   -119.27426    1.0761805   -118.19808    8426.4949    4.2358677    4.2358677    4.2358677    8426.4949    4650.5552    13111.985    7516.9442   -153.14287   -976.78196   -1059.1314    76.002374 
   66700    915.41808   -119.03377   0.82828951   -118.20549   -2971.2947     4.251198     4.251198     4.251198   -2971.2947    12668.288   -14317.692   -7264.4802   -21483.633     5699.898   -1614.3612    76.830559 
   66800    466.93122   -118.63251   0.42248918   -118.21002   -6949.0233    4.2582557    4.2582557    4.2582557   -6949.0233    608.25534   -29270.002     7814.677    31184.696    8886.6535   -4924.9896    77.213851 
   66900    1011.5567   -119.12015   0.91527775   -118.20487    930.60491    4.2422424    4.2422424    4.2422424    930.60491   -2071.7273   -5543.4738    10407.016    25101.939   -5342.3963    288.37435    76.346025 
   67000     1306.646    -119.3798    1.1822807   -118.19752    -2568.587    4.2425448    4.2425448    4.2425448    -2568.587    8328.8087   -7244.5748   -8789.9949   -16435.558   -9317.9495   -2674.3119    76.362352 
   67100    584.65713   -118.73372   0.52901006   -118.20471   -5493.0616    4.2596474    4.2596474    4.2596474   -5493.0616    -11788.79   -29829.554    25139.159     13956.89   -1202.7859   -5936.5657    77.289582 
   67200    664.71265   -118.80129   0.60144597   -118.19984    9668.5335    4.2548698    4.2548698    4.2548698    9668.5335    10664.008   -27773.292    46114.884    27691.738    6346.5513    -4521.019    77.029808 
   67300    1363.3194   -119.42172    1.2335601   -118.18816     3697.379    4.2465237    4.2465237    4.2465237     3697.379    16648.007   -8393.0627    2837.1925   -13630.751   -8465.0568     5685.682    76.577405 
   67400    818.60925   -118.93606   0.74069485   -118.19536    6355.0141    4.2470924    4.2470924    4.2470924    6355.0141    17164.656   -2635.6787    4536.0652    8217.7272   -12625.828    4949.0731    76.608177 
   67500    371.98093   -118.54209   0.33657616   -118.20552    1883.3202    4.2567485    4.2567485    4.2567485    1883.3202     10169.07   -16909.889    12390.779    41857.489   -1347.9804   -4156.0888    77.131889 
   67600    1319.5293    -119.3934    1.1939378   -118.19946   -7938.4159    4.2517495    4.2517495    4.2517495   -7938.4159   -10291.046   -4888.2746   -8635.9268   -297.64395    3106.8694   -9712.8162    76.860464 
   67700    1414.2119   -119.47625    1.2796087   -118.19664    10387.976    4.2363447    4.2363447    4.2363447    10387.976    13791.268     7711.598     9661.062   -13102.763   -2980.6949   -3614.4563    76.028054 
   67800    321.93707   -118.50806   0.29129542   -118.21677   -3239.4211    4.2533889    4.2533889    4.2533889   -3239.4211   -4933.5308   -19769.351    14984.619    39117.823    -8632.752    1696.7369    76.949405 
   67900    616.71903   -118.76903   0.55802034   -118.21101   -3071.3318    4.2556213    4.2556213    4.2556213   -3071.3318   -11428.598     6151.307    -3936.704    27164.682   -3522.0322   -2697.5718    77.070635 
   68000    1563.9566   -119.61091    1.4151008   -118.19581    3144.8442    4.2410922    4.2410922    4.2410922    3144.8442    12337.351    10385.453   -13288.271    -17276.91    3703.6162   -4533.8838    76.283946 
   68100    807.63292   -118.93754   0.73076324   -118.20678    2884.6335    4.2468475    4.2468475    4.2468475    2884.6335    7944.1818   -7071.4094     7781.128     16251.58    2315.2043    -1941.187    76.594926 
   68200    362.28096   -118.53826   0.32779943   -118.21046   -2080.2827    4.2527723    4.2527723    4.2527723   -2080.2827    15465.308   -34842.121    13135.965    42400.514   -4120.8631    2793.1432    76.915945 
   68300    1190.0986   -119.27841    1.0768263   -118.20159   -5675.6605    4.2518051    4.2518051    4.2518051   -5675.6605    15527.347   -12507.288   -20047.041    1019.9154    1776.6638   -4301.7274    76.863479 
   68400    1291.4555   -119.36668    1.1685361   -118.19815   -2022.1496    4.2475962    4.2475962    4.2475962   -2022.1496    11921.796    -3771.641   -14216.603   -8804.1386    9018.5806   -7836.7292    76.635444 
   68500    402.74311   -118.57339   0.36441043   -118.20898    3960.7742    4.2466898    4.2466898    4.2466898    3960.7742    17904.348   -32902.543    26880.517    35777.542    3157.8815    1142.5872    76.586392 
   68600    733.54976   -118.87107   0.66373124   -118.20734    -1416.495    4.2515449    4.2515449    4.2515449    -1416.495    3006.9891   -22555.274      15298.8    22080.549     1328.922    5491.4873    76.849371 
   68700    1506.5192   -119.56066    1.3631302   -118.19753   -5002.8111    4.2492893    4.2492893    4.2492893   -5002.8111    1903.2787    10000.261   -26911.973   -13485.976    1353.3317    8556.3867    76.727119 
   68800    773.35428   -118.90753   0.69974721   -118.20778    3901.2104     4.247589     4.247589     4.247589    3901.2104    -3313.853    3220.2273    11797.257    22287.713    5276.2619   -249.33921    76.635051 
   68900    368.02101   -118.54459   0.33299314   -118.21159    5926.7325    4.2500593    4.2500593    4.2500593    5926.7325    4224.4855   -27091.998     40647.71    40440.597    6875.3067    -7783.257    76.768837 
   69000    1178.5096   -119.26643    1.0663403   -118.20009   -2132.4941    4.2514066    4.2514066    4.2514066   -2132.4941     7797.049   -24178.333     9983.802    -6673.938    524.30844    341.37939     76.84187 
   69100    1131.8385   -119.22322    1.0241113   -118.19911   -1045.6991    4.2504091    4.2504091    4.2504091   -1045.6991    11389.446   -17670.685    3144.1422   -391.43723   -3518.3436    5795.2591    76.787795 
   69200    460.25893   -118.62378   0.41645196   -118.20732   -60.057938    4.2496053    4.2496053    4.2496053   -60.057938    9941.0226   -27840.666     17719.47    44082.636   -3652.4533    3208.0651     76.74424 
   69300    958.75723   -119.07074   0.86750369   -118.20323    -6054.799    4.2484101    4.2484101    4.2484101    -6054.799   -6641.0082   -25286.124    13762.735    11336.054    9385.1381   -6600.3708    76.679504 
   69400     1301.808   -119.37435    1.1779033   -118.19644   -9553.3831    4.2515067    4.2515067    4.2515067   -9553.3831    -5282.514   -18985.665   -4391.9707   -15317.756    7028.0962    3055.4224    76.847297 
   69500    619.68254   -118.76719   0.56070178   -118.20649    2377.0433    4.2508531    4.2508531    4.2508531    2377.0433   -8548.3396    2024.4063    13655.063    30265.895   -8856.5452     14171.26    76.811864 
   69600    627.03182   -118.77446   0.56735157   -118.20711    6783.8122    4.2485603    4.2485603    4.2485603    6783.8122   -9046.5873    1717.1826    27680.841     28906.37    4704.3145    4361.2514    76.687637 
   69700    1300.7493   -119.37509    1.1769453   -118.19815   -5964.2369    4.2473215    4.2473215    4.2473215   -5964.2369   -8300.8067   -5704.1865   -3887.7174   -13766.275    17551.078   -5520.6835    76.620574 
   69800     922.3906    -119.0385    0.8345984    -118.2039    3562.3021      4.24683      4.24683      4.24683    3562.3021     7862.929    7819.9082   -4995.9309    13996.551    4421.6091   -7585.3085    76.593979 
   69900    412.76686   -118.58518   0.37348013    -118.2117   -1762.6137    4.2540099    4.2540099    4.2540099   -1762.6137    18272.511   -14625.475   -8934.8775    44889.602     -10681.5    4253.0551    76.983117 
   70000    1070.1929   -119.17517   0.96833302   -118.20684    848.00119    4.2454362    4.2454362    4.2454362    848.00119    4788.4852    3905.5182   -6149.9998    4125.2073   -1571.9898    2635.9852     76.51859 
   70100     1439.893   -119.50151    1.3028455   -118.19867   -2784.8049    4.2438988    4.2438988    4.2438988   -2784.8049    -2908.724   -1394.5463   -4051.1445   -11927.461    15787.493   -7179.2466    76.435492 
   70200     540.5665   -118.70088   0.48911592   -118.21177   -3422.0076    4.2534894    4.2534894    4.2534894   -3422.0076   -2465.1848    1096.6648   -8897.5029    36019.671    643.34981    377.87081    76.954861 
   70300    489.32558   -118.65399   0.44275207   -118.21124   -2086.2671    4.2516145    4.2516145    4.2516145   -2086.2671    17573.963    -1575.486   -22257.278     33456.55   -11003.727    5346.3314    76.853145 
   70400    1408.6526   -119.47322    1.2745785   -118.19864   -1915.8433    4.2443466    4.2443466    4.2443466   -1915.8433    4657.7485    1749.3276   -12154.606    -11144.02    1160.9012   -6389.7778     76.45969 
   70500    1066.9905   -119.16708   0.96543543   -118.20165   -1348.8098    4.2517552    4.2517552    4.2517552   -1348.8098   -9867.6014    -22908.66    28729.832    13301.627    5082.5727   -5072.1682    76.860776 
   70600    399.01993   -118.56612   0.36104162   -118.20508    4777.0811    4.2555941    4.2555941    4.2555941    4777.0811   -1648.4768   -19038.367    35018.087    37051.094   -2711.3507    8161.6041    77.069152 
   70700    1014.9329   -119.11373   0.91833262   -118.19539   -2268.9073    4.2524748    4.2524748    4.2524748   -2268.9073    11403.771   -1354.2097   -16856.283   -7106.5449   -8434.8203    8550.0182    76.899804 
   70800    1288.1331   -119.35456    1.1655299   -118.18903   -10973.175    4.2516863    4.2516863    4.2516863   -10973.175    -4541.997   -13334.523   -15043.006    2658.4517    4189.8174   -1745.6074     76.85704 
   70900    634.47587   -118.77138    0.5740871    -118.1973    5846.9938    4.2479685    4.2479685    4.2479685    5846.9938   -8718.7744   -2500.7938     28760.55    44211.392    6254.9736    2177.7606    76.655597 
   71000     784.6374   -118.90772   0.70995641   -118.19776   -3109.7057    4.2547462    4.2547462    4.2547462   -3109.7057    6360.8798   -14180.849   -1509.1481    4140.5581   -5088.4007    9407.6849    77.023095 
   71100    1208.8955   -119.28824    1.0938341    -118.1944   -2243.9695     4.250385     4.250385     4.250385   -2243.9695    3298.4538   -5851.4677   -4178.8947    -15674.75    -5611.492    5857.9103    76.786492 
   71200    733.27815   -118.86643   0.66348548   -118.20294    10369.582    4.2432975    4.2432975    4.2432975    10369.582   -15612.598    19762.967    26958.378     38448.59   -1040.7422   -1601.2335    76.403008 
   71300    725.53224   -118.86105   0.65647682   -118.20458   -6701.4415    4.2547409    4.2547409    4.2547409   -6701.4415    -16504.76    -7625.643    4026.0789    31873.625    1054.1319   -7435.3728    77.022809 
   71400    1311.2848   -119.37908    1.1864781    -118.1926   -10708.874    4.2548151    4.2548151    4.2548151   -10708.874   -11870.499   -2999.0623    -17257.06   -18461.284   -3004.4422    3122.1012     77.02684 
   71500    773.47124   -118.90469   0.69985304   -118.20483    5030.7885    4.2469491    4.2469491    4.2469491    5030.7885   -15990.596   -10974.629     42057.59    23030.914   -473.51745    1907.5233    76.600426 
   71600    463.29181   -118.62804   0.41919617   -118.20884    8509.3479    4.2492364    4.2492364    4.2492364    8509.3479   -28627.431    -5307.437    59462.911    42829.412   -2747.6557    8978.2374    76.724254 
   71700    1186.1992   -119.26608    1.0732979   -118.19278   -16387.598    4.2587828    4.2587828    4.2587828   -16387.598   -40118.413    4136.3364   -13180.718   -12099.034   -1989.3201    4549.0219    77.242525 
   71800     934.0241   -119.04151   0.84512463   -118.19638   -11837.784    4.2531174    4.2531174    4.2531174   -11837.784   -21401.146   -8770.3453   -5341.8594    20243.798    5162.4193   -2507.6032    76.934672 
   71900    648.02099   -118.78818   0.58634301   -118.20184    12265.271    4.2404254    4.2404254    4.2404254    12265.271   -18303.981    24735.735    30364.058    53895.421    2415.4254    2963.9756    76.247971 
   72000    1100.3209   -119.19609   0.99559346    -118.2005   -5467.6413    4.2530504    4.2530504    4.2530504   -5467.6413   -30191.162    14369.773   -581.53469   -4288.8045   -2551.5073     935.7289    76.931039 
   72100    857.95926   -118.97093   0.77629957   -118.19463   -2797.5715    4.2576512    4.2576512    4.2576512   -2797.5715   -26677.166    2300.4343    15984.017   -3196.2569   -2138.6792     -4487.76    77.180973 
   72200    531.24022   -118.68017   0.48067732    -118.1995    5844.1995    4.2498976    4.2498976    4.2498976    5844.1995    -25691.55    1605.0432    41619.106     46315.18    573.30711   -7315.5763    76.760078 
   72300    1211.2765    -119.2898    1.0959884   -118.19381   -8882.6244    4.2531666    4.2531666    4.2531666   -8882.6244   -13282.559   -16612.404    3247.0896    6285.1167   -4417.1123     1846.111    76.937345 
   72400    1213.1926   -119.28468    1.0977221   -118.18696   -13178.422    4.2559728    4.2559728    4.2559728   -13178.422    -1274.892   -19377.375   -18882.999   -17268.022   -3599.2414    4773.6525    77.089733 
   72500    306.55841   -118.47299    0.2773805   -118.19561   -2484.9946    4.2556252    4.2556252    4.2556252   -2484.9946   -6609.4579    -33681.88    32836.354    40519.992    924.02381   -2441.4438    77.070843 
   72600    834.70677   -118.94766   0.75526023    -118.1924    7106.9075    4.2474896    4.2474896    4.2474896    7106.9075    13857.308   -27146.045    34609.459    25704.028    3999.8804    2637.4513    76.629673 
   72700    1518.3091   -119.56337     1.373798   -118.18957   -3832.8707    4.2498543    4.2498543    4.2498543   -3832.8707    31894.626   -19020.338     -24372.9   -16374.619    515.28274    6952.4623     76.75773 
   72800    535.06157   -118.68576   0.48413495   -118.20162   -15271.193    4.2589058    4.2589058    4.2589058   -15271.193    6410.8154   -41633.948   -10590.446    33706.227   -4666.9987     4102.114    77.249221 
   72900     412.4693   -118.57865   0.37321089   -118.20544    5400.9441    4.2406215    4.2406215    4.2406215    5400.9441   -312.19386   -11691.583     28206.61    41173.981    -3298.403   -3418.4173    76.258551 
   73000    1474.1286   -119.53121    1.3338225   -118.19739    249.46382     4.243325     4.243325     4.243325    249.46382    12950.178   -406.00823   -11795.778   -14364.578    -4606.334    1976.7749    76.404492 
   73100    1115.4537   -119.21497     1.009286   -118.20569   -10519.051    4.2570073    4.2570073    4.2570073   -10519.051    3537.6738   -7473.9611   -27620.865    9615.6378   -3738.6209    6309.8394     77.14596 
   73200    212.93217     -118.405    0.1926655   -118.21234     4157.568    4.2463503    4.2463503    4.2463503     4157.568    5987.8243   -1698.9199    8183.7995    54727.111    1439.5603    2160.1029    76.568026 
   73300    951.33952   -119.06489   0.86079199    -118.2041   -1183.2664    4.2407728    4.2407728    4.2407728   -1183.2664      3169.91   -3635.9894   -3083.7199    10638.768   -914.04698   -1339.6721    76.266712 
   73400    1556.5481   -119.60893    1.4083975   -118.20054   -10506.238    4.2509958    4.2509958    4.2509958   -10506.238    3215.5489   -12684.684   -22049.579   -12287.186   -2491.4469    2177.9079    76.819597 
   73500    581.61789   -118.73901   0.52626009   -118.21275   -11778.622    4.2534171    4.2534171    4.2534171   -11778.622    2341.6307   -38438.204    760.70809    50419.879   -97.245205    3382.2435    76.950936 
   73600    478.47387   -118.64277   0.43293321   -118.20983    10842.075    4.2368125    4.2368125    4.2368125    10842.075    13968.319    7521.6648    11036.241    33507.936   -2785.8214    1763.2624     76.05324 
   73700     1378.186   -119.44669    1.2470117   -118.19968   -15120.026     4.253633     4.253633     4.253633   -15120.026   -7552.3619    -14501.72   -23305.997   -16739.444   -1525.2887   -706.06939    76.962655 
   73800    1059.4023   -119.16185   0.95856947   -118.20328   -4351.2074    4.2536192    4.2536192    4.2536192   -4351.2074   -66.165047   -24196.866    11209.409     27899.34    238.43115   -1629.0213    76.961908 
   73900    502.57379   -118.65913   0.45473933   -118.20439    13384.633    4.2408317    4.2408317    4.2408317    13384.633    16435.526   -5631.0552    29349.427    45492.457    1326.4351    2779.2178    76.269889 
   74000    1038.5547   -119.13575   0.93970614   -118.19604   -20732.976    4.2571202    4.2571202    4.2571202   -20732.976   -10259.874   -24720.106   -27218.947   -8258.0953    3282.3981    5765.9217    77.152099 
   74100    1128.3527   -119.21248    1.0209573   -118.19152   -5407.1719    4.2548804    4.2548804    4.2548804   -5407.1719   -15267.074   -10387.589    9433.1476    9277.1873    -1241.081    4916.5787    77.030384 
   74200    543.24415   -118.68937   0.49153872   -118.19783    10752.463    4.2490737    4.2490737    4.2490737    10752.463   -7254.0412   -12827.669    52339.098    49751.468   -1311.8834   -740.03475    76.715442 
   74300    1029.5096   -119.12391    0.9315219   -118.19239   -2820.8784    4.2510248    4.2510248    4.2510248   -2820.8784   -6966.7576   -7304.9016    5809.0239   -206.55112   -2828.0164    4290.8016    76.821171 
   74400    1160.2359    -119.2377    1.0498058   -118.18789   -10442.336     4.253634     4.253634     4.253634   -10442.336   -29863.531    13208.102   -14671.581   -5288.4261    -3392.349    4210.5387    76.962709 
   74500    500.92874   -118.65256   0.45325085   -118.19931   -8523.0748     4.254457     4.254457     4.254457   -8523.0748   -28448.461   -16148.868    19028.105    52388.205   -2287.0375   -449.21066    77.007393 
   74600    1044.2936   -119.14033   0.94489879   -118.19543    4419.1338    4.2453882    4.2453882    4.2453882    4419.1338   -5426.1577    9016.8976    9666.6617    14023.226   -1259.5167   -3100.3172    76.515997 
   74700    1296.8034   -119.36512     1.173375   -118.19174   -6588.0124     4.249872     4.249872     4.249872   -6588.0124   -20009.333    3009.1043   -2763.8085   -12741.124   -1426.8561    2974.6511    76.758688 
   74800    410.52969    -118.5768   0.37145589   -118.20534    767.29998    4.2514781    4.2514781    4.2514781    767.29998   -20078.436   -9435.1559    31815.491    50710.747    -1210.175    6884.2141    76.845747 
   74900    837.42823   -118.96028   0.75772266   -118.20256    5229.6886     4.248136     4.248136     4.248136    5229.6886   -2040.0678    3154.1583    14574.975    33449.456    1356.9671    1732.1415    76.664661 
   75000     1508.062   -119.55513    1.3645262   -118.19061   -12592.004    4.2568485    4.2568485    4.2568485   -12592.004    1710.7426   -13915.314   -25571.441   -15894.694    2798.1039   -1443.8194    77.137329 
   75100     574.7328   -118.71839   0.52003031   -118.19836      16245.8    4.2501871    4.2501871    4.2501871      16245.8    5352.2779   -1824.3092     45209.43    32589.233    6304.2375   -2720.5542    76.775764 
   75200    465.06091   -118.62068   0.42079689   -118.19989     9246.144    4.2532397    4.2532397    4.2532397     9246.144   -7120.0911   -9401.0262    44259.549    32359.778    4231.3135    1840.8747    76.941312 
   75300    1449.9848   -119.49662    1.3119767   -118.18464   -14897.134    4.2550684    4.2550684    4.2550684   -14897.134   -2414.0828     -19399.1   -22878.218   -20506.608   -3773.8651    7497.1701    77.040599 
   75400    986.05566   -119.08578   0.89220388   -118.19357    12686.101    4.2440957    4.2440957    4.2440957    12686.101     23387.43     6556.974    8113.8984    22401.622   -1258.7565   -1940.1423     76.44613 
   75500    437.26513   -118.59931   0.39564668   -118.20366   -582.47956    4.2564203    4.2564203    4.2564203   -582.47956   -15624.338   -9081.4715    22958.371    46708.242    2934.7145   -4402.6458    77.114048 
   75600    1134.0619   -119.21595     1.026123   -118.18983   -9314.4187    4.2532066    4.2532066    4.2532066   -9314.4187   -16776.191    3441.2187   -14608.284   -9884.1206    4886.1399   -783.21969    76.939512 
   75700    990.62267   -119.08954   0.89633621    -118.1932    2940.7074    4.2450221    4.2450221    4.2450221    2940.7074    9422.9711    5756.9649   -6357.8137    12489.776    993.31277     5220.133    76.496199 
   75800    517.96238   -118.67273   0.46866325   -118.20407   -3132.8591      4.25207      4.25207      4.25207   -3132.8591   -8717.8938   -14651.715    13971.032    61124.127    66.298943    889.79527    76.877846 
   75900    1070.1819     -119.167   0.96832309   -118.19868   -1688.2401    4.2487355    4.2487355    4.2487355   -1688.2401   -14587.728    17154.691   -7631.6833    7966.6906    4719.7066   -4437.2941    76.697123 
   76000    1129.8297   -119.21684    1.0222937   -118.19455   -7914.1695    4.2498018    4.2498018    4.2498018   -7914.1695   -20933.712    3841.1879   -6649.9848   -10143.586    1131.1358   -1461.7934    76.754884 
   76100    516.40535    -118.6734   0.46725442   -118.20614    382.98949    4.2523904    4.2523904    4.2523904    382.98949   -3440.5935   -18062.179    22651.741    46708.759   -6441.4077    1372.5969    76.895229 
   76200    948.99908   -119.05912   0.85867432   -118.20044   -4094.7979    4.2506984    4.2506984    4.2506984   -4094.7979    9419.6849   -17828.237   -3875.8416     20032.51   -4915.1109   -64.279411    76.803474 
   76300    1295.6292   -119.36219    1.1723125   -118.18988   -10137.559    4.2517946    4.2517946    4.2517946   -10137.559   -2833.0233   -9891.9808   -17687.672   -15551.078    1258.7067   -5177.4746    76.862913 
   76400    472.46689   -118.62622   0.42749797   -118.19873    1493.9529    4.2567061    4.2567061    4.2567061    1493.9529   -5735.4194   -30900.164    41117.442    38463.023    5019.0679    -1295.299    77.129588 
   76500    655.08352   -118.79126   0.59273334   -118.19853    2755.3206    4.2498312    4.2498312    4.2498312    2755.3206    16724.753   -31803.041     23344.25    29392.956    313.95441    6494.4187    76.756477 
   76600    1370.1321   -119.42645    1.2397243   -118.18673   -4662.8366    4.2484559    4.2484559    4.2484559   -4662.8366    19123.185    -7225.392   -25886.302   -17861.023    2262.3741    2001.6117    76.681983 
   76700    758.69494   -118.87947   0.68648312   -118.19299    -10911.93    4.2601309    4.2601309    4.2601309    -10911.93   -27733.512    -12943.07    7940.7932    35236.679    176.14941    661.68392    77.315902 
   76800    580.02732   -118.72096   0.52482091   -118.19614    1136.6419    4.2511767    4.2511767    4.2511767    1136.6419   -27954.674   -2287.2466    33651.846    38352.783   -1875.3013    906.34155    76.829406 
   76900    1397.6488   -119.44999     1.264622   -118.18537    2172.9665    4.2437936    4.2437936    4.2437936    2172.9665    10523.116    7281.1447   -11285.361   -19348.754    -400.0648    537.28231    76.429805 
   77000    922.10636   -119.03346   0.83434121   -118.19911   -5153.9209    4.2517106    4.2517106    4.2517106   -5153.9209   -26203.806    18208.017   -7465.9735    18709.392   -1497.9761    3115.9386    76.858355 
   77100    374.24662   -118.54617   0.33862621   -118.20754    998.71135     4.250018     4.250018     4.250018    998.71135   -31315.787    10647.379    23664.543    52614.302    2136.6384   -1825.1739    76.766603 
   77200    1070.7229   -119.16844   0.96881263   -118.19963     7930.304     4.245408     4.245408     4.245408     7930.304     7375.822    19785.887   -3370.7971   -4163.3176    -2262.786    -1270.726    76.517066 
   77300    1297.6176   -119.37354    1.1741117   -118.19943   -5555.8695    4.2492259    4.2492259    4.2492259   -5555.8695    12586.152   -2055.5734   -27198.187   -2732.4421   -1808.2326    226.79585    76.723689 
   77400     484.4662   -118.64875    0.4383552    -118.2104    10848.049    4.2479292    4.2479292    4.2479292    10848.049    19645.652   -1595.2391    14493.734    55833.897    640.08047    1066.3447    76.653468 
   77500    753.49724   -118.88781   0.68178013   -118.20603    1740.7018     4.246583     4.246583     4.246583    1740.7018    -17653.51      16567.7    6307.9151    23003.677   -1663.6572    4555.5779    76.580617 
   77600    1311.0087   -119.38447    1.1862283   -118.19824   -8445.4052    4.2477394    4.2477394    4.2477394   -8445.4052    12659.486   -5784.0119    -32211.69   -18247.678      2117.53   -2464.6774    76.643192 
   77700    811.02435   -118.94368   0.73383188   -118.20984    1170.2833    4.2479938    4.2479938    4.2479938    1170.2833    16214.625   -9035.2424   -3668.5326    29535.414    935.64263     -6244.12    76.656966 
   77800    589.80813   -118.74403   0.53367079   -118.21036   -7466.7057    4.2505635    4.2505635    4.2505635   -7466.7057   -19291.641   -14159.751    11051.275    40560.308   -5374.9631     1675.507    76.796166 
   77900    1179.7543   -119.26518    1.0674665   -118.19771    -361.0922    4.2462684    4.2462684    4.2462684    -361.0922    9708.1439    4594.7445   -15386.165   -17017.725   -1668.0991    3189.7807    76.563595 
   78000    1096.0232   -119.19794   0.99170483   -118.20623    1266.7549    4.2441951    4.2441951    4.2441951    1266.7549    21356.596   -1968.3061   -15588.025     7130.987    2264.1695   -1762.0566    76.451502 
   78100    534.74209   -118.69807   0.48384588   -118.21423     4540.291    4.2497275    4.2497275    4.2497275     4540.291    19024.274   -12823.926    7420.5253    53289.932    109.48168   -2429.8739     76.75086 
   78200    927.89364   -119.04555   0.83957767   -118.20597   -6107.0875    4.2506406    4.2506406    4.2506406   -6107.0875   -25504.504    9980.4297   -2797.1885    3025.3949   -3094.5719    1650.3715    76.800344 
   78300    1203.4512   -119.28711     1.088908   -118.19821    435.60917      4.24314      4.24314      4.24314    435.60917    -8968.123     17021.42     -6746.47   -12078.772   -982.38489     3996.528    76.394501 
   78400    705.72835   -118.85187   0.63855784   -118.21331   -464.53445    4.2500638    4.2500638    4.2500638   -464.53445   -3943.1619   -1151.7763    3701.3348    53380.593    2151.3597    2338.3447    76.769083 
   78500    727.94027   -118.86918   0.65865566   -118.21053   -8913.2828    4.2497112    4.2497112    4.2497112   -8913.2828   -15751.128   -9726.1816   -1262.5388    32148.162   -714.84922    -2532.016    76.749976 
   78600    1113.5366     -119.202    1.0075513   -118.19445   -4212.6603    4.2463336    4.2463336    4.2463336   -4212.6603   -11265.525    3600.5988   -4973.0546   -14714.868   -2138.0069   -3630.0338    76.567124 
   78700    745.63654   -118.87807   0.67466761    -118.2034   -2839.0664    4.2530698    4.2530698    4.2530698   -2839.0664   -10786.616   -18166.509    20435.926    31640.826   -1786.8323    162.40221     76.93209 
   78800    925.32392   -119.03909   0.83725253   -118.20184    3909.1544    4.2477559    4.2477559    4.2477559    3909.1544    13414.923   -17952.218    16264.758    40280.109   -1248.1669    2486.0124    76.644087 
   78900    1233.1567   -119.30722    1.1157861   -118.19143   -9252.7614    4.2534492    4.2534492    4.2534492   -9252.7614    2554.3138   -7929.7408   -22382.857   -10129.934   -278.13525   -1445.1573    76.952679 
   79000    607.76354   -118.74491   0.54991722   -118.19499    -4370.717     4.255609     4.255609     4.255609    -4370.717   -22143.993   -9432.1137    18463.956    11590.334    2303.7598   -3823.6358    77.069966 
   79100    592.05778   -118.73319   0.53570632   -118.19749    12345.925    4.2481493    4.2481493    4.2481493    12345.925   -5125.7009   -6864.4002    49027.875     42020.92    2031.9464   -1784.1357    76.665385 
   79200    1378.3006   -119.43904    1.2471153   -118.19193    -2224.807    4.2509604    4.2509604    4.2509604    -2224.807    7467.6718   -10631.713     -3510.38   -4026.5486    2006.6673    1571.6967    76.817678 
   79300    965.92168   -119.06573   0.87398624   -118.19174    -17173.47    4.2544335    4.2544335    4.2544335    -17173.47   -23403.795   -14484.075   -13632.541    4667.1971    3433.2225    -3503.308    77.006118 
   79400    281.25869    -118.4572   0.25448878   -118.20271     5650.472    4.2448515    4.2448515    4.2448515     5650.472    -14391.05    1192.1735    30150.292    52281.529   -1225.3703   -3410.7128    76.486978 
   79500     1157.418   -119.24888    1.0472561   -118.20162    553.04886    4.2468248    4.2468248    4.2468248    553.04886    404.55857    1245.9621    8.6259226     14829.24   -5988.0884    2411.1517    76.593698 
   79600    1456.6618   -119.51629    1.3180182   -118.19827   -1774.0481     4.249329     4.249329     4.249329   -1774.0481    5304.0202   -1398.4324   -9227.7323   -10890.733   -4638.2019    2539.7702    76.729271 
   79700    467.99556   -118.63233   0.42345222   -118.20888     10940.44    4.2443631    4.2443631    4.2443631     10940.44   -4628.7693    3916.9184     33533.17    42223.952    947.73482   -39.762052    76.460579 
   79800    544.20746   -118.70325   0.49241035   -118.21084   -2301.8362    4.2489423    4.2489423    4.2489423   -2301.8362   -23378.627    10180.088    6293.0302    32876.984    2116.9875   -7942.7041    76.708324 
   79900    1397.4223   -119.46474     1.264417   -118.20033   -3133.4344    4.2470892    4.2470892    4.2470892   -3133.4344    3812.3293    10543.223   -23755.856   -15610.827    -2383.088   -3480.9428    76.608004 
   80000    912.90767   -119.03212   0.82601805    -118.2061   -427.62621    4.2480687    4.2480687    4.2480687   -427.62621   -1446.4541   -2633.5031    2797.0786    14654.509   -6107.0771    9720.1051    76.661019 
   80100    467.56556   -118.63147   0.42306315   -118.20841     -5952.17    4.2523867    4.2523867    4.2523867     -5952.17   -20637.373   -9075.1944    11856.057    46005.874    2211.1433    85.454577    76.895029 
   80200    1089.1163   -119.18498   0.98545532   -118.19953   -408.61383    4.2434792    4.2434792    4.2434792   -408.61383    2131.9464    8395.2526    -11753.04    4635.9641    5312.9111   -10446.405    76.412821 
   80300     1190.363   -119.27879    1.0770655   -118.20172   -200.70153    4.2468493    4.2468493    4.2468493   -200.70153    11129.139    8143.4855   -19874.729   -10377.318   -5879.1236   -1585.5054    76.595024 
   80400    590.56096   -118.74196   0.53435197   -118.20761   -6157.0743    4.2538259    4.2538259    4.2538259   -6157.0743    5132.6231   -27173.009    3569.1629      36929.4   -3932.6279    7390.7127    76.973127 
   80500    798.75193   -118.92729   0.72272754   -118.20457    6158.1694    4.2415111    4.2415111    4.2415111    6158.1694   -4190.0941    9758.3055    12906.297    24800.177    -516.5674   -3029.9569    76.306549 
   80600    1264.1818   -119.34347    1.1438582   -118.19961   -8809.6454     4.250265     4.250265     4.250265   -8809.6454   -2770.5853    3245.3452   -26903.696   -17763.273    4795.8837   -13811.579    76.779988 
   80700    816.37562   -118.94459   0.73867382   -118.20592   -1055.1082    4.2508666    4.2508666    4.2508666   -1055.1082    3680.9497   -10176.501    3330.2269     13140.21   -1663.0602     1593.104    76.812594 
   80800    629.20999   -118.77726   0.56932243   -118.20794    9005.6265    4.2447846    4.2447846    4.2447846    9005.6265   -7863.8894    2066.7152    32814.054    34696.183   -4558.4342    9346.9775    76.483362 
   80900     1091.874   -119.18643   0.98795052   -118.19848   -8362.7074    4.2518527    4.2518527    4.2518527   -8362.7074   -5915.9144   -2514.3991   -16657.809   -4192.2059    2850.5063   -3598.4321    76.866061 
   81000    986.99486   -119.09002   0.89305369   -118.19696   -5892.5827    4.2526991    4.2526991    4.2526991   -5892.5827    4945.7136    -10467.98   -12155.481   -4538.9109    1356.8661   -6261.3674    76.911977 
   81100    597.16761   -118.74438    0.5403298   -118.20405    10601.536    4.2496653    4.2496653    4.2496653    10601.536        14240   -17394.123    34958.732    37185.014   -3689.1957    3348.4039    76.747488 
   81200     1019.447   -119.12122    0.9224171   -118.19881   -1052.5665     4.249791     4.249791     4.249791   -1052.5665   -11810.903   -7451.2192    16104.423    15339.913   -3345.8788    1693.5629    76.754302 
   81300    1166.1167   -119.24615    1.0551269   -118.19103   -13398.858    4.2513488    4.2513488    4.2513488   -13398.858   -3841.9834   -5692.1439   -30662.448   -16678.967    1821.0344   -4642.1126    76.838737 
   81400    562.70313    -118.7138   0.50914561   -118.20466    2561.1679     4.251321     4.251321     4.251321    2561.1679    20975.605   -14511.356    1219.2544    29278.938    1413.0009   -2313.2972    76.837231 
   81500    827.50907   -118.95234    0.7487476   -118.20359    -1380.867    4.2513189    4.2513189    4.2513189    -1380.867   -6385.8263   -15896.526    18139.751    36127.967    268.53018    2333.4622    76.837116 
   81600    1330.4894   -119.39534    1.2038548   -118.19148   -2884.6652    4.2467512    4.2467512    4.2467512   -2884.6652   -960.11607    8652.5946   -16346.474   -13001.345    1074.1929    388.73057    76.589713 
   81700    640.32652   -118.78155   0.57938089   -118.20217   -2732.8739    4.2509036    4.2509036    4.2509036   -2732.8739    9064.0138   -516.65164   -16745.984    12576.581    131.29699   -2711.9381    76.814601 
   81800    533.11776   -118.69194   0.48237616   -118.20956    3130.9818    4.2509999    4.2509999    4.2509999    3130.9818    20216.733   -20687.384    9863.5965     40811.05    1688.3129   -2182.4627    76.819819 
   81900    1410.9894   -119.47541    1.2766929   -118.19871   -5421.4009    4.2496325    4.2496325    4.2496325   -5421.4009    8647.9922   -17379.615   -7532.5798    2437.6232    4558.0953   -1607.2371    76.745714 
   82000    1063.4073   -119.15766   0.96219325   -118.19546   -11773.629    4.2500089    4.2500089    4.2500089   -11773.629   -9294.0463   -10056.438   -15970.403   -5997.8905    3648.5284   -718.86361    76.766107 
   82100    313.23758   -118.49289   0.28342395   -118.20947    2257.0519    4.2500236    4.2500236    4.2500236    2257.0519     16090.75    -28906.09    19586.496    32914.034    2140.9181    -4013.889    76.766901 
   82200    1044.9439   -119.15054   0.94548721   -118.20506   -1178.5786    4.2519843    4.2519843    4.2519843   -1178.5786    7535.4616   -24095.031    13023.833    16411.941    3556.9708    -5745.859      76.8732 
   82300    1480.7285   -119.53092    1.3397942   -118.19112   -11926.536    4.2520523    4.2520523    4.2520523   -11926.536   -7903.4039   -10782.491   -17093.714   -12818.308    3974.0788   -1865.3435    76.876885 
   82400    396.86383   -118.56002   0.35909073   -118.20093    8241.5207    4.2484742    4.2484742    4.2484742    8241.5207    2829.7291    1677.0797    20217.753    27600.874    2167.6218    1555.5818    76.682974 
   82500    601.55576    -118.7493   0.54430029     -118.205    7168.3092    4.2505788    4.2505788    4.2505788    7168.3092    15444.882   -20643.882    26703.928    22417.733    5091.7489   -1248.2117    76.796994 
   82600    1547.3549   -119.59345    1.4000792   -118.19337   -7118.1108    4.2532888    4.2532888    4.2532888   -7118.1108    4721.3866   -21518.242   -4557.4772   -14433.359    5913.0264    -5940.014    76.943973 
   82700    882.21887   -118.99508   0.79825017   -118.19683   -4001.8877    4.2461811    4.2461811    4.2461811   -4001.8877   -13524.503    2999.7886   -1480.9488    11314.283   -3278.1265    1673.0977    76.558874 
   82800    299.29963   -118.47942   0.27081259   -118.20861   -938.10505    4.2457354    4.2457354    4.2457354   -938.10505   -4917.7643   -960.37848    3063.8276     35242.34   -2028.9679    -204.4899    76.534768 
   82900    1187.2957   -119.27884    1.0742901   -118.20455   -4521.7808    4.2494784    4.2494784    4.2494784   -4521.7808    7464.8845   -12144.625   -8885.6018    7613.5443    5844.8433   -10627.552    76.737366 
   83000    1422.9734   -119.48956    1.2875362   -118.20203   -9908.5709    4.2472956    4.2472956    4.2472956   -9908.5709   -11825.228   -4957.3346    -12943.15    -9519.027   -2125.7382   -4325.7832    76.619173 
   83100    431.74802   -118.60024   0.39065468   -118.20959     545.2797    4.2437457    4.2437457    4.2437457     545.2797   -14686.144    12099.914    4222.0692    23964.579    -12084.59    7248.3928    76.427219 
   83200    515.94496   -118.68027   0.46683784   -118.21344    3243.3113    4.2451125    4.2451125    4.2451125    3243.3113    13201.964    1349.5188   -4821.5489    30331.882   -1361.9794    2508.6433    76.501086 
   83300     1448.455   -119.51717    1.3105925   -118.20658   -8436.3577    4.2496802    4.2496802    4.2496802   -8436.3577    12391.858   -14490.508   -23210.424   -7138.3145    4322.2219   -12009.384    76.748297 
   83400    1057.3669   -119.16059   0.95672781   -118.20386    291.91924    4.2468494    4.2468494    4.2468494    291.91924    5366.1308   -1089.6137   -3400.7593    4227.7797   -3589.4174   -4844.5648     76.59503 
   83500    304.93368   -118.48557    0.2759104   -118.20966   -3784.9633    4.2473665    4.2473665    4.2473665   -3784.9633   -15553.729   -4362.7807      8561.62    30220.018   -8349.9144    7372.1523     76.62301 
   83600    1001.0263    -119.1104   0.90574962   -118.20465   -9188.0405    4.2513498    4.2513498    4.2513498   -9188.0405   -5037.7757   -17899.763   -4626.5831    7801.4221   -915.84259   -5503.9251    76.838793 
   83700    1494.8075   -119.54881    1.3525332   -118.19628    -9066.375    4.2526294    4.2526294    4.2526294    -9066.375   -3007.9353   -5762.3822   -18428.808   -5621.7523    12994.536   -11950.622    76.908195 
   83800    571.72239   -118.71931   0.51730643   -118.20201    2659.5259    4.2512349    4.2512349    4.2512349    2659.5259   -23595.009     9317.517     22256.07    23084.575    1092.2814    274.96451    76.832559 
   83900    401.66224   -118.56513   0.36343244   -118.20169    6682.7699    4.2502283    4.2502283    4.2502283    6682.7699   -2656.8784    10491.068     12214.12    21402.324   -9788.9245    9448.1106    76.777997 
   84000    1379.3488   -119.44029    1.2480638   -118.19222   -8961.3196    4.2541241    4.2541241    4.2541241   -8961.3196   -2418.1784   -15997.569   -8468.2108   -9705.6068    5965.9883   -3229.1132    76.989317 
   84100    1193.7984    -119.2781    1.0801739   -118.19793   -2126.2655    4.2505221    4.2505221    4.2505221   -2126.2655   -464.26986   -18634.747    12720.221    6754.9015    2123.0943   -10886.216     76.79392 
   84200    365.88446   -118.53737   0.33105995   -118.20631    5081.6356    4.2455065    4.2455065    4.2455065    5081.6356    4904.9177   -5158.3002    15498.289    30769.546   -11047.871    3763.1502     76.52239 
   84300    728.73723   -118.86402   0.65937676   -118.20465    -3182.558    4.2496637    4.2496637    4.2496637    -3182.558   -12960.702    76.998228    3336.0301    6331.5924   -5246.1843    8005.0885    76.747405 
   84400    1447.5306   -119.50817    1.3097561   -118.19842    -9025.415    4.2496235    4.2496235    4.2496235    -9025.415   -971.56933   -16889.984   -9214.6919     -8393.39    4915.4785   -888.80612    76.745224 
   84500    961.85488   -119.08043   0.87030651   -118.21012    6127.3376    4.2438765    4.2438765    4.2438765    6127.3376   -8346.3434   -6618.3142     33346.67    21187.493    4804.6609   -2247.6152    76.434286 
   84600    379.43873   -118.55794   0.34332414   -118.21461    8064.4228    4.2468134    4.2468134    4.2468134    8064.4228   -17464.115    5307.1799    36350.203     23303.37    -9934.784    6970.4108    76.593079 
   84700    947.67522   -119.06165   0.85747645   -118.20417   -8597.2132    4.2522402    4.2522402    4.2522402   -8597.2132   -4649.2937   -13780.432   -7361.9136   -7053.1095   -2614.4922    4361.4374     76.88708 
   84800    1320.7372   -119.39709    1.1950307   -118.20206   -63.467889    4.2459518    4.2459518    4.2459518   -63.467889   -5695.8906   -13182.201    18687.688    2516.4069     7047.614   -4762.5333    76.546474 
   84900     763.2321   -118.90117   0.69058844   -118.21059    3995.8467    4.2475281    4.2475281    4.2475281    3995.8467   -2940.3943   -11838.585    26766.519    34954.603   -3680.3202   -367.73929    76.631759 
   85000    581.33544   -118.73401   0.52600453     -118.208   -2401.9107    4.2514578    4.2514578    4.2514578   -2401.9107    -13066.88     807.4444    5053.7035    11980.225   -9503.1344    1860.0804    76.844646 
   85100    1181.3351   -119.26521    1.0688969   -118.19631   -5984.1531    4.2471661    4.2471661    4.2471661   -5984.1531   -9426.8916   -6424.8706   -2100.6973    -9527.619    275.76171   -1784.1398    76.612168 
   85200    989.63396   -119.10161    0.8954416   -118.20617   -7439.7873    4.2503365    4.2503365    4.2503365   -7439.7873    18213.516   -46585.263     6052.385    21650.642    5634.0281   -5724.0876    76.783858 
   85300    613.63181   -118.76599   0.55522696   -118.21076   -1618.4365    4.2486278    4.2486278    4.2486278   -1618.4365   -1046.6504   -19657.152    15848.493     27529.49   -9888.1711   -297.31451    76.691293 
   85400    983.81812   -119.09118   0.89017931     -118.201   -3148.5954    4.2471199    4.2471199    4.2471199   -3148.5954   -19729.192    18196.905   -7913.4998   -7237.1219   -8382.2887    2255.2727    76.609663 
   85500    1130.7056    -119.2249    1.0230862   -118.20182   -6584.3469    4.2528784    4.2528784    4.2528784   -6584.3469   -1316.5513   -7890.0966   -10546.393    3404.0449    6677.9805   -1130.7005    76.921705 
   85600    646.02574    -118.7961   0.58453767   -118.21156    13203.911    4.2446557    4.2446557    4.2446557    13203.911    24149.716   -12582.969    28044.986    30083.495   -1975.4176    929.45358    76.476396 
   85700    745.25082   -118.88462   0.67431861   -118.21031    3645.9234    4.2484448    4.2484448    4.2484448    3645.9234    13930.132   -9398.5335    6406.1717    12208.469   -10791.102   -1160.4886    76.681381 
   85800     1284.251   -119.35939    1.1620173   -118.19737   -12271.064    4.2525026    4.2525026    4.2525026   -12271.064   -11817.822   -5512.8819   -19482.489   -10676.612    1129.7747   -2966.9109    76.901315 
   85900    853.61393   -118.97886   0.77236783   -118.20649    8063.4349    4.2441854    4.2441854    4.2441854    8063.4349    7374.1448    1013.7867    15802.373    19134.302    11490.124    251.63277    76.450977 
   86000    526.87788   -118.68986   0.47673018   -118.21313    2331.4877    4.2512203    4.2512203    4.2512203    2331.4877    11227.549   -22219.537     17986.45    30854.215    2282.3847    1402.9694     76.83177 
   86100    1101.0533   -119.19791   0.99625616   -118.20166   -8831.4875    4.2510943    4.2510943    4.2510943   -8831.4875   -14699.069   -1774.8096   -10020.584    -1716.975    -6260.847    -2060.627    76.824936 
   86200    1195.5049   -119.28095     1.081718   -118.19923    1848.0809    4.2444274    4.2444274    4.2444274    1848.0809   -4400.2866    13341.117   -3396.5881   -4578.3584     11478.79    -3827.082    76.464058 
   86300    511.94236   -118.67404   0.46321621   -118.21082   -13414.193    4.2535105    4.2535105    4.2535105   -13414.193   -9226.8202   -40104.454    9088.6956    31269.003    17440.389   -107.48629    76.956007 
   86400    803.69673   -118.93522   0.72720169   -118.20802   -4278.8369    4.2467844    4.2467844    4.2467844   -4278.8369    5325.0923   -29589.295    11427.692    18074.945    6130.2687   -4238.2891     76.59151 
   86500    1420.0681   -119.48299    1.2849075   -118.19809   -5064.8732    4.2478982    4.2478982    4.2478982   -5064.8732   -5996.2712   -921.53357   -8276.8148   -13003.881   -1822.6309   -3446.6897    76.651791 
   86600    797.15114   -118.92953    0.7212791   -118.20825   -3013.3614    4.2500321    4.2500321    4.2500321   -3013.3614   -25627.882   -2720.4649    19308.263    17993.933    3227.5426    3500.2937    76.767365 
   86700    342.21125   -118.52315   0.30963993   -118.21351    14093.214    4.2452979    4.2452979    4.2452979    14093.214    1628.0896   -6504.6003    47156.153    37828.421    11733.721    5860.9955    76.511111 
   86800    1159.6508   -119.25652    1.0492764   -118.20725    -10593.05    4.2513437    4.2513437    4.2513437    -10593.05   -13627.892   -13732.594   -4418.6641     1336.556    8522.9541   -2819.5693    76.838457 
   86900    1308.9425   -119.38483    1.1843587   -118.20047    -2660.693     4.245193     4.245193     4.245193    -2660.693   -17098.801    2688.1297    6428.5924   -381.85991   -4233.1063   -5433.4656    76.505442 
   87000    508.07172   -118.67227   0.45971397   -118.21256   -1890.8209    4.2487793    4.2487793    4.2487793   -1890.8209   -4358.4729   -27933.879    26619.889    34940.617   -4185.4896    2042.7226    76.699495 
   87100     702.7491   -118.84812   0.63586215   -118.21226   -3713.1146     4.249076     4.249076     4.249076   -3713.1146    3899.7845    -25353.28    10314.152    20852.475    15046.408   -653.99298    76.715568 
   87200    1365.0724   -119.43751    1.2351462   -118.20236    3793.7962    4.2432457    4.2432457    4.2432457    3793.7962    2436.7199    6594.6015    2350.0672   -11191.428    8730.5382   -3467.7802    76.400207 
   87300    921.41208   -119.04034   0.83371302   -118.20663   -7977.2077    4.2510217    4.2510217    4.2510217   -7977.2077    -9886.919    -22755.09    8710.3863    8925.2131   -5386.2247   -3662.9267    76.821002 
   87400    474.89754   -118.64409   0.42969727   -118.21439    4938.9976    4.2433176    4.2433176    4.2433176    4938.9976      7267.51   -27754.107     35303.59    30069.336   -961.48982    2098.9589    76.404093 
   87500     1009.131   -119.12571   0.91308289   -118.21263    5321.4214    4.2440204    4.2440204    4.2440204    5321.4214    8867.0432    -8450.208    15547.429    2805.0549    7545.4506    4667.0301     76.44206 
   87600    1286.8608    -119.3688    1.1643787   -118.20442   -15197.109    4.2517952    4.2517952    4.2517952   -15197.109   -15541.558    -17502.49    -12547.28   -7725.5614     9787.611   -5839.1244    76.862944 
   87700    595.30151    -118.7499   0.53864132   -118.21126    7150.0909     4.240153     4.240153     4.240153    7150.0909    8530.2675   -15374.049    28294.054    20311.024   -5420.2255   -5759.9816    76.233276 
   87800    595.17219   -118.75622    0.5385243    -118.2177    855.65288    4.2471537    4.2471537    4.2471537    855.65288    17652.224   -38811.928    23726.663    17737.652   -3881.4382    1071.7571    76.611495 
   87900    1313.3331   -119.39604    1.1883314   -118.20771   -9735.7789    4.2495151    4.2495151    4.2495151   -9735.7789    9246.3111   -27006.666   -11446.981   -10997.684    3453.6876   -144.73658    76.739352 
   88000    1142.4904   -119.23832    1.0337494   -118.20457     7207.639    4.2405101    4.2405101    4.2405101     7207.639    10458.897    6259.1544    4904.8657   -794.17174   -1489.1781   -7128.9822    76.252537 
   88100    471.99658   -118.64276   0.42707242   -118.21569    1582.4831    4.2464521    4.2464521    4.2464521    1582.4831    12137.726   -25809.209    18418.933    27031.029    959.19565   -10262.285    76.573531 
   88200    790.49097   -118.92996   0.71525284   -118.21471    1789.6802    4.2473066    4.2473066    4.2473066    1789.6802    37592.151   -43824.108    11600.997    2089.5141    -7891.396   -772.81571    76.619771 
   88300    1283.9026   -119.36833     1.161702   -118.20663   -5080.7553    4.2453262    4.2453262    4.2453262   -5080.7553    921.79728   -11470.924   -4693.1395   -22542.311   -4800.4521   -219.24379     76.51264 
   88400    823.45113   -118.95285   0.74507589   -118.20778   -1861.2048    4.2433284    4.2433284    4.2433284   -1861.2048   -9424.2719    10004.747     -6164.09    7096.2476    12411.247   -4396.8225    76.404674 
   88500     601.3912   -118.75913    0.5441514   -118.21498   -906.74007    4.2479379    4.2479379    4.2479379   -906.74007    836.93316   -16070.029    12512.876    24237.462    1555.1805    -5176.984     76.65394 
   88600    1143.5938   -119.24368    1.0347477   -118.20893    -11091.49    4.2494454    4.2494454    4.2494454    -11091.49   -3320.7609   -32846.144    2892.4342    927.45189   -6979.6251   -4319.4991    76.735574 
   88700    1189.4109   -119.27942     1.076204   -118.20321    2748.9477    4.2414477    4.2414477    4.2414477    2748.9477    7555.8417    16431.318   -15740.316   -15285.307    6988.1253    3821.6615    76.303127 
   88800    529.40879   -118.69125    0.4790202   -118.21223   -2408.4209    4.2490009    4.2490009    4.2490009   -2408.4209   -18234.373    20617.906   -9608.7955    10667.754    17996.944   -36.858828    76.711498 
   88900    666.44809   -118.81596   0.60301624   -118.21295    3429.4107    4.2478359    4.2478359    4.2478359    3429.4107    2969.2764   -6566.5068    13885.462     26709.78    3902.2374   -6319.4504    76.648418 
   89000    1349.5273   -119.42525    1.2210807   -118.20417   -1142.6049    4.2465392    4.2465392    4.2465392   -1142.6049    12893.407   -13438.857   -2882.3644   -1588.5899    -9625.773    2431.9184    76.578247 
   89100      991.606   -119.10102   0.89722595   -118.20379   -2011.3689    4.2493146    4.2493146    4.2493146   -2011.3689   -12935.409    12036.037   -5134.7347   -7374.3881    14905.426    -2143.713    76.728493 
   89200    399.06668   -118.57137   0.36108392   -118.21028    10076.265    4.2460767    4.2460767    4.2460767    10076.265   -3923.8205    10896.482    23256.134    16202.373    20432.833   -4309.8557    76.553225 
   89300    955.05595   -119.07213   0.86415469   -118.20797    -6024.886    4.2540022    4.2540022    4.2540022    -6024.886   -1253.8678   -24558.848    7738.0582    17232.309   -6165.7072    1384.7824    76.982699 
   89400    1453.8707   -119.51102    1.3154928   -118.19552    -5919.426    4.2475251    4.2475251    4.2475251    -5919.426    4908.1569   -5813.0566   -16853.378   -4312.2984   -4330.5146   -2827.9815    76.631593 
   89500    663.58575   -118.80502   0.60042633    -118.2046      2894.12    4.2471379    4.2471379    4.2471379      2894.12    3835.2014    19520.989    -14673.83    4526.6102    18924.031   -6728.7838    76.610638 
   89600     454.6889   -118.61637   0.41141207   -118.20496   -8909.7372     4.258122     4.258122     4.258122   -8909.7372    -28207.44   -7991.2929    9469.5216    26099.962    15550.791   -5424.0803     77.20658 
   89700    1334.7106   -119.40041    1.2076742   -118.19274    2854.7212    4.2462632    4.2462632    4.2462632    2854.7212    2001.4976   -11260.176    17822.843    3749.3295   -5674.1073    7446.9911    76.563316 
   89800     1137.822     -119.224    1.0295253   -118.19448   -7469.7271    4.2512179    4.2512179    4.2512179   -7469.7271   -9952.8527     12142.57   -24598.899   -6941.3216    9125.6482   -1970.6939    76.831641 
   89900    360.67318   -118.53001   0.32634467   -118.20366    5867.8279    4.2502153    4.2502153    4.2502153    5867.8279   -8885.1043    35337.445   -8848.8574      13629.4     19380.28   -14603.029    76.777291 
   90000    840.76158   -118.96233   0.76073875   -118.20159    7684.8325    4.2475254    4.2475254    4.2475254    7684.8325    9487.0895    7442.0247    6125.3833    11217.142     -1064.92    3113.3609    76.631612 
   90100    1491.9119   -119.54622    1.3499132   -118.19631   -11745.979    4.2507432    4.2507432    4.2507432   -11745.979   -7463.4172   -25917.892   -1856.6282     -6127.77   -4083.1218    6289.1108    76.805905 
   90200    749.17884   -118.88463   0.67787276   -118.20676    13604.684    4.2402513    4.2402513    4.2402513    13604.684    20447.471    13060.749    7305.8319   -2701.1586    16511.259   -5962.8863    76.238581 
   90300    305.81723   -118.49122   0.27670985   -118.21451   -10024.049    4.2531958    4.2531958    4.2531958   -10024.049   -12043.293   -9981.2979   -8047.5569    11719.133    14063.653   -12255.409    76.938926 
   90400    1192.4635   -119.28277    1.0789661    -118.2038   -10385.912    4.2483816    4.2483816    4.2483816   -10385.912   -14586.047   -28552.771    11981.082    2297.9611   -7572.1462   -343.25267    76.677959 
   90500    1450.5305   -119.51429    1.3124705   -118.20182    2221.5038    4.2426499    4.2426499    4.2426499    2221.5038    10655.228   -8891.8476    4901.1314   -8591.3965    3838.9941    3049.8354    76.368031 
   90600    558.37188   -118.71434   0.50522661   -118.20911   -2583.2539    4.2532312    4.2532312    4.2532312   -2583.2539    7633.3964   -7359.6771   -8023.4811    6484.7703    27593.779   -12400.763    76.940848 
   90700    504.30905   -118.66175   0.45630943   -118.20544     8131.058    4.2467357    4.2467357    4.2467357     8131.058    5263.3498   -9249.6281    28379.452    9360.5954    9913.6341   -7191.4319    76.588876 
   90800    1246.5197   -119.32574    1.1278772   -118.19786   -13022.015    4.2495985    4.2495985    4.2495985   -13022.015   -8161.2335   -30203.889   -700.92298   -3653.0441   -6423.9291    13884.899    76.743872 
   90900    1078.4025   -119.17731   0.97576128   -118.20155   -2770.1766    4.2487943    4.2487943    4.2487943   -2770.1766   -1083.5548    2234.9869   -9461.9618   -1041.9258    15553.578    5225.1737    76.700308 
   91000    542.35197   -118.69675   0.49073146   -118.20602    6392.3138    4.2488068    4.2488068    4.2488068    6392.3138   -9765.3444    39776.112   -10833.826    15311.038    18620.119   -16121.783    76.700985 
   91100    803.12803   -118.92671   0.72668712   -118.20002   -8005.0971    4.2521006    4.2521006    4.2521006   -8005.0971   -17419.063    11073.996   -17670.224    11862.594   -8550.7646   -6354.4176    76.879507 
   91200    1198.5733   -119.28112    1.0844944   -118.19663   -1925.1466    4.2474081    4.2474081    4.2474081   -1925.1466   -10297.916    6763.5074   -2241.0312   -7929.7668     5144.385    9093.3284     76.62526 
   91300    853.30294    -118.9766   0.77208643   -118.20451   -7392.8749    4.2519055    4.2519055    4.2519055   -7392.8749    -8913.124    8780.7452   -22046.246    2439.8154    30264.826   -3452.4557    76.868924 
   91400    722.92525   -118.85788   0.65411796   -118.20376    -4881.484     4.248154     4.248154     4.248154    -4881.484   -1798.7948    5349.7648   -18195.422    11630.472    2481.8851   -11937.287    76.665641 
   91500     1031.325   -119.13105   0.93316452   -118.19789   -4498.9479    4.2481284    4.2481284    4.2481284   -4498.9479   -8691.4064   -970.94857   -3834.4889    3485.2298   -8186.6711   -4439.4285    76.664253 
   91600    1012.9018   -119.12077   0.91649487   -118.20427    138.45609    4.2480175    4.2480175    4.2480175    138.45609   -19403.823    12921.188    6898.0033    -5317.191    22846.593    5652.4667     76.65825 
   91700    804.10437   -118.93674   0.72757053   -118.20917    8578.2035    4.2453207    4.2453207    4.2453207    8578.2035    6569.3161    17637.395     1527.899   -1019.3103    24477.022    2095.1653    76.512343 
   91800    831.96268   -118.95841   0.75277731   -118.20563    1511.0557    4.2480971    4.2480971    4.2480971    1511.0557    344.29877    5574.3164   -1385.4481    8232.1767   -3620.9338   -6382.4314    76.662558 
   91900    935.71048   -119.05071   0.84665051   -118.20406    688.22747    4.2462843    4.2462843    4.2462843    688.22747   -25419.538    18145.266    9338.9546    1010.2451    5770.3221     1457.348    76.564455 
   92000    834.07401   -118.96366   0.75468769   -118.20898     -1088.65    4.2506119    4.2506119    4.2506119     -1088.65   -31467.494    22176.085    6025.4591   -9002.2582    33383.077    6922.2036    76.798785 
   92100    966.26368   -119.07918   0.87429568   -118.20489   -9391.0088    4.2491225    4.2491225    4.2491225   -9391.0088   -9427.4067   -321.09595   -18424.524    620.28913    4021.1184    893.50157    76.718085 
   92200    1070.5539   -119.16488   0.96865962   -118.19622   -16369.465     4.250712     4.250712     4.250712   -16369.465   -18278.802   -5561.2785   -25268.315    6820.9439   -6919.5062   -506.72911    76.804213 
   92300    711.32283   -118.84653   0.64361985   -118.20291   -5304.0027    4.2522608    4.2522608    4.2522608   -5304.0027   -30234.969    10109.793    4213.1673   -49.449189     34200.12    109.53444    76.888196 
   92400    773.46638   -118.90538   0.69984863   -118.20553    9325.2482    4.2456537    4.2456537    4.2456537    9325.2482   -8824.6649    17142.437    19657.973   -8945.9213    20379.446    3456.5865    76.530352 
   92500    1150.0054    -119.2389    1.0405491   -118.19835     -3993.58     4.251142     4.251142     4.251142     -3993.58   -2042.8693    3134.5681   -13072.439   -2663.8242   -19220.558    4395.3783    76.827525 
   92600    865.08541   -118.98277   0.78274746   -118.20002   -3444.8695    4.2501057    4.2501057    4.2501057   -3444.8695    2414.1538    2894.0939   -15642.856    7017.7005    10322.077   -4044.9892    76.771354 
   92700    684.49762   -118.82558   0.61934783   -118.20623    4453.9607    4.2468026    4.2468026    4.2468026    4453.9607    649.96378    4922.1507    7789.7676   -855.12085    40327.225    1275.8977    76.592497 
   92800    1176.0738   -119.26792    1.0641363   -118.20378    4096.3786    4.2463941    4.2463941    4.2463941    4096.3786   -1149.7871    2150.6568    11288.266   -3483.4975   -1950.2946    3442.7383    76.570397 
   92900    1070.1451   -119.17069   0.96828974    -118.2024   -3423.0761    4.2475797    4.2475797    4.2475797   -3423.0761      10168.3    5041.3752   -25478.904   -1722.2426   -18468.023     848.3327    76.634549 
   93000    410.94924   -118.58384    0.3718355     -118.212    1845.1372    4.2490684    4.2490684    4.2490684    1845.1372    7044.5912    15555.624   -17064.804   -2370.0511    35149.545    445.11244    76.715158 
   93100    840.73682   -118.97204   0.76071635   -118.21132    583.65009    4.2485402    4.2485402    4.2485402    583.65009    12730.278    -4535.223   -6444.1048    36.876501    37406.313   -1830.2842    76.686549 
   93200    1542.5716   -119.59713    1.3957512   -118.20138   -6410.4426    4.2461993    4.2461993    4.2461993   -6410.4426    12814.603   -14017.218   -18028.713   -3728.1459   -12057.899    2028.8007    76.559859 
   93300    849.51965   -118.97706   0.76866324    -118.2084   -862.51056    4.2464359    4.2464359    4.2464359   -862.51056    15352.273    9934.5102   -27874.314   -5404.0441    14034.383    4198.9535    76.572656 
   93400    283.15379   -118.47302    0.2562035   -118.21682    984.84587    4.2477736    4.2477736    4.2477736    984.84587    19218.284    12379.378   -28643.124    2364.7822    46039.573   -31.469482    76.645044 
   93500    1141.4384   -119.24506    1.0327975   -118.21226   -4407.7764    4.2463761    4.2463761    4.2463761   -4407.7764    15715.681    -11639.01   -17300.001   -3384.3775   -693.90429    1207.9771    76.569423 
   93600     1323.035   -119.40145    1.1971098   -118.20434   -3859.0851    4.2452674    4.2452674    4.2452674   -3859.0851   -415.45436   -6234.1306   -4927.6704   -8558.3115    -15560.32    674.34945    76.509464 
   93700    562.87494    -118.7204   0.50930107    -118.2111    -5830.659    4.2452144    4.2452144    4.2452144    -5830.659   -10731.671    13686.175   -20446.481   -3089.0355    40040.092    1276.7168    76.506595 
   93800    754.95589   -118.89706   0.68309995   -118.21396    2930.3555    4.2461695    4.2461695    4.2461695    2930.3555    21573.658    4598.8076   -17381.399   -1770.6411    30000.901     143.8746    76.558247 
   93900    1315.9968   -119.39872    1.1907416   -118.20798   -8247.3887    4.2492974    4.2492974    4.2492974   -8247.3887    6295.9905   -11860.068   -19178.089   -2066.8826   -24053.667   -2750.1198    76.727558 
   94000    795.98582   -118.92807    0.7202247   -118.20785    5022.3867    4.2418433    4.2418433    4.2418433    5022.3867   -7400.3422    18254.832    4212.6707   -7011.4984   -7949.4944    2025.5782    76.324482 
   94100    584.63808   -118.74156   0.52899282   -118.21257    5490.9302    4.2449452    4.2449452    4.2449452    5490.9302     -14806.6    12826.805    18452.585   -6512.2477    32266.766    2230.4139    76.492044 
   94200    1193.4252   -119.28868    1.0798362   -118.20885   -4347.8204     4.251081     4.251081     4.251081   -4347.8204    5211.5595   -12053.277   -6201.7437    4903.7651    13871.935    -1846.334    76.824219 
   94300    1156.0753   -119.25194    1.0460412   -118.20589     4846.402    4.2440137    4.2440137    4.2440137     4846.402   -1021.6353    5011.0941    10549.747    2712.5955   -24617.338   -693.74201      76.4417 
   94400    538.04306   -118.69539   0.48683267   -118.20856    -181.5789    4.2471205    4.2471205    4.2471205    -181.5789   -26826.767    10741.977    15540.053   -5786.7706   -2345.1735    2282.4297    76.609698 
   94500    741.17843   -118.87871   0.67063382   -118.20808   -3335.5897    4.2494115    4.2494115    4.2494115   -3335.5897   -13702.781   -126.45693     3822.469   -1651.2391    31338.938    3584.2131    76.733742 
   94600    1270.3071   -119.35508    1.1494005   -118.20568   -938.89278    4.2461858    4.2461858    4.2461858   -938.89278   -1147.5264   -5990.4595    4321.3075    8167.2661    6552.8145   -4384.5143     76.55913 
   94700    952.03679   -119.06701   0.86142289   -118.20559   -5782.0928    4.2456654    4.2456654    4.2456654   -5782.0928   -13263.181   -1340.6203    -2742.477    4139.9939   -11651.551   -8605.5941    76.530985 
   94800    544.17668   -118.70008    0.4923825    -118.2077   -5934.6352    4.2472351    4.2472351    4.2472351   -5934.6352   -32646.514    14856.491   -13.882496   -4146.2787    11047.855    4265.2943    76.615899 
   94900    935.51706   -119.05486   0.84647549   -118.20838   -4441.9552     4.248721     4.248721     4.248721   -4441.9552   -30590.972    8230.0028    9035.1035    2177.2419    19392.093    1320.5062    76.696338 
   95000     1249.397   -119.33689    1.1304807   -118.20641   -2746.4247    4.2443455    4.2443455    4.2443455   -2746.4247   -1596.4463   -9463.7189    2820.8912    12754.474   -88.926649   -10418.775    76.459629 
   95100    735.15006   -118.87217   0.66517922   -118.20699    1963.5821    4.2454806    4.2454806    4.2454806    1963.5821   -5486.2264   -610.90344    11987.876    7747.4349   -3956.2882   -5151.9411    76.520991 
   95200    640.45601   -118.78628   0.57949806   -118.20679   -4470.2511    4.2509307    4.2509307    4.2509307   -4470.2511   -41600.621    19618.832    8571.0359   -2617.4888    14751.473    1240.8849    76.816068 
   95300    1108.1388    -119.2101    1.0026673   -118.20743    2655.9883     4.244639     4.244639     4.244639    2655.9883   -15448.592    10913.711    12502.845    218.87813    7296.6832     555.0494    76.475492 
   95400    1055.0817   -119.16192   0.95466008   -118.20726     5119.838    4.2432099    4.2432099    4.2432099     5119.838    8993.5787   -3363.9864    9729.9216    7736.3223     -6915.64   -10270.551    76.398273 
   95500    700.07891   -118.83986   0.63344611   -118.20641   -11539.151    4.2497029    4.2497029    4.2497029   -11539.151   -25727.545    560.04663   -9449.9536    5030.4129    7444.3651   -8415.9391    76.749528 
   95600    787.23308   -118.92142   0.71230503   -118.20911   -3401.2314    4.2458503    4.2458503    4.2458503   -3401.2314    -32641.85    13397.064    9041.0918   -52.075487    16639.547     7152.165    76.540985 
   95700    1066.6815   -119.17674   0.96515587   -118.21159    1497.3792    4.2438716    4.2438716    4.2438716    1497.3792   -11280.582    2612.4314    13160.288   -1350.8495     1479.041   -370.86353     76.43402 
   95800     975.2572   -119.09112   0.88243321   -118.20869   -6605.0696    4.2476125    4.2476125    4.2476125   -6605.0696   -7826.8901   -8640.6651   -3347.6537    1776.9374   -10994.088   -9076.7084    76.636326 
   95900    803.10613   -118.93172    0.7266673   -118.20506    2387.5934    4.2470834    4.2470834    4.2470834    2387.5934   -1951.2775   -246.37257    9360.4302    3649.1987    10276.634    773.62866     76.60769 
   96000     782.2634   -118.91992   0.70780837   -118.21211    3369.0022    4.2481598    4.2481598    4.2481598    3369.0022   -19850.974    6981.0102    22976.971   -3631.3835    19999.095     2036.126     76.66595 
   96100    896.02899   -119.02453   0.81074586   -118.21379    6090.2244    4.2465311    4.2465311    4.2465311    6090.2244   -9324.6101    6015.4127    21579.871   -6530.2195   -7769.5199    1636.2537    76.577806 
   96200    1027.0149   -119.13289   0.92926464   -118.20362   -7201.7319    4.2467989    4.2467989    4.2467989   -7201.7319   -10052.087   -8065.2269   -3487.8818   -1524.6313   -12380.136     320.8974    76.592296 
   96300    928.37324   -119.04537   0.84001162   -118.20536   -15419.248    4.2514521    4.2514521    4.2514521   -15419.248   -39518.286    302.77061   -7042.2273    4136.7221    19932.742   -4063.5248    76.844335 
   96400    783.63639    -118.9216   0.70905067   -118.21255    3561.9278    4.2457637    4.2457637    4.2457637    3561.9278   -31588.822    27576.642    14697.963   -3739.0297    20933.506   -1100.9794      76.5363 
   96500    874.08425   -119.00307    0.7908898   -118.21218    2336.3138    4.2435696    4.2435696    4.2435696    2336.3138   -11187.874    12049.116    6147.6989   -9462.9857   -12396.803   -286.81156    76.417702 
   96600    973.08483   -119.08332    0.8804676   -118.20285   -6735.4854    4.2504459    4.2504459    4.2504459   -6735.4854   -18459.619   -2659.7845    912.94708    -782.7793   -6103.6104   -3589.7011    76.789792 
   96700    907.08197   -119.03045   0.82074683    -118.2097    2298.4706    4.2450721    4.2450721    4.2450721    2298.4706   -14189.602    20495.017    589.99699    8095.3216    22142.143   -3419.0651    76.498905 
   96800    814.49869   -118.95063   0.73697553   -118.21365    7924.3889    4.2450373    4.2450373    4.2450373    7924.3889    -6304.509    16640.522    13437.154   -753.75452    8685.4129   -6085.9469    76.497024 
   96900    947.73848   -119.06524    0.8575337   -118.20771   -5835.1467    4.2492969    4.2492969    4.2492969   -5835.1467   -19688.052    2320.6808   -138.06901    -7458.197   -12742.815    2243.4568     76.72753 
   97000    945.48993    -119.0595   0.85549916     -118.204   -4488.2585    4.2476809    4.2476809    4.2476809   -4488.2585   -14185.952    10890.671   -10169.495    7391.7162   -2986.4647   -3616.3203    76.640028 
   97100    764.11327   -118.90359   0.69138574    -118.2122    2701.5015    4.2487515    4.2487515    4.2487515    2701.5015   -9232.9481    13072.999    4264.4536    6513.4693    15538.719   -5037.3265     76.69799 
   97200    886.30754   -119.01084   0.80194969   -118.20889   -5751.5298    4.2492046    4.2492046    4.2492046   -5751.5298   -11968.132    -1818.849   -3467.6079   -4432.3133    4364.4806    4149.2577    76.722532 
   97300     1095.045   -119.18974   0.99081974   -118.19892   -5116.3923     4.247884     4.247884     4.247884   -5116.3923    1956.3981   -39.100836   -17266.474   -4880.4412   -9847.8355    -616.7434    76.651019 
   97400    741.67675   -118.87903   0.67108471   -118.20794    1313.3215    4.2511366    4.2511366    4.2511366    1313.3215    3217.1641    187.73173     535.0688    6603.2745    13067.949   -4609.0014    76.827229 
   97500    726.33958   -118.86756   0.65720732   -118.21035    8349.0655    4.2480408    4.2480408    4.2480408    8349.0655    20826.968    5457.0519   -1236.8235    9711.0876    21968.073    3773.9837    76.659511 
   97600     1113.368    -119.2085    1.0073988    -118.2011   -1226.5253     4.250065     4.250065     4.250065   -1226.5253     14047.85   -9545.2446   -8182.1812   -4837.8613     288.8684    7599.0851    76.769146 
   97700    936.30517   -119.04468   0.84718859   -118.19749   -9962.0485    4.2528521    4.2528521    4.2528521   -9962.0485   -9314.6818   -14933.555   -5637.9086     2330.076   -6367.4295    -9511.384    76.920276 
   97800    658.69286   -118.80192   0.59599914   -118.20592    6353.6006    4.2483228    4.2483228    4.2483228    6353.6006   -1190.9754    16903.363    3348.4144    15740.745     11941.49   -12614.017    76.674776 
   97900    1037.2737   -119.14264     0.938547   -118.20409    3803.5921     4.248986     4.248986     4.248986    3803.5921   -5032.3201   -2606.4159    19049.512    273.65225      18492.1    8457.2938    76.710691 
   98000    1102.9324   -119.19529   0.99795641   -118.19733   -6374.7201    4.2495515    4.2495515    4.2495515   -6374.7201   -10101.683   -21462.984    12440.506   -3896.7114   -1534.9318    2252.8444    76.741323 
   98100    602.60486   -118.75211   0.54524954   -118.20686    -2555.244    4.2460462    4.2460462    4.2460462    -2555.244     3057.829     8177.719    -18901.28    11045.258   -6668.9737   -18617.331    76.551579 
   98200    686.22647    -118.8352   0.62091213   -118.21429    2224.8393    4.2444874    4.2444874    4.2444874    2224.8393   -6380.3115    14082.039   -1027.2097    11904.078    14974.736   -13121.902    76.467298 
   98300    1202.1618   -119.29797    1.0877413   -118.21022    -2219.523    4.2467123    4.2467123    4.2467123    -2219.523   -12519.758   -2055.3044    7916.4934    452.74139    16744.254    2913.6249    76.587612 
   98400    994.65672   -119.10595    0.8999863   -118.20596     189.8597     4.246973     4.246973     4.246973     189.8597    15233.006   -8674.5891    -5988.838   -9746.7276   -6760.7951   -1169.9293    76.601718 
   98500    571.30246   -118.72896   0.51692647   -118.21203    4316.2973     4.247791     4.247791     4.247791    4316.2973    14064.044   -4249.6637    3134.5118    4142.5949   -1151.5517   -18308.363    76.645989 
   98600    959.14378   -119.07788   0.86785345   -118.21003    2217.9815    4.2480548    4.2480548    4.2480548    2217.9815   -2236.6024    4590.3364    4300.2107    11679.043    10970.994   -9100.0989    76.660265 
   98700    1310.9352   -119.38622    1.1861617   -118.20006   -5704.0572    4.2496959    4.2496959    4.2496959   -5704.0572   -6299.7952   -18177.559     7365.183   -7127.7552    2716.0607    9108.7458    76.749145 
   98800    762.77462   -118.89192    0.6901745   -118.20175   -4102.4436    4.2501734    4.2501734    4.2501734   -4102.4436     12465.64   -14943.564   -9829.4067   -10040.829   -3019.7466   -4862.1938    76.775024 
   98900    502.32211   -118.66113    0.4545116   -118.20662    2958.9281    4.2483298    4.2483298    4.2483298    2958.9281    14095.506    3951.9001   -9170.6216    7357.8569    3853.6073    -11983.71    76.675157 
   99000    1198.3645   -119.28553    1.0843054   -118.20122   -1191.5482    4.2493598    4.2493598    4.2493598   -1191.5482    4869.4532   -15257.453    6813.3552    5733.3389    15129.814     5843.719     76.73094 
   99100    1067.3314   -119.16467   0.96574391   -118.19893   -4793.6686    4.2508264    4.2508264    4.2508264   -4793.6686    10096.091   -18107.392   -6369.7047   -4657.6985    5828.0418    13742.893    76.810414 
   99200    494.86521   -118.65124   0.44776444   -118.20347   -5558.8769    4.2494218    4.2494218    4.2494218   -5558.8769    11465.399    1908.4297   -30050.459   -1751.6024   -1758.9471   -4652.3326    76.734297 
   99300    965.88714   -119.07534   0.87395498   -118.20138   -3825.3049    4.2478318    4.2478318    4.2478318   -3825.3049    3320.2479    629.94206   -15426.105    4386.3546    1513.7761   -13201.745    76.648194 
   99400    1350.6152   -119.42219     1.222065   -118.20013   -4176.1468    4.2480381    4.2480381    4.2480381   -4176.1468   -6302.3314   -7527.8611    1301.7521     1701.449    3366.4053     12557.79    76.659365 
   99500     618.4767   -118.76708   0.55961072   -118.20747     2812.024    4.2482968    4.2482968    4.2482968     2812.024    21781.643   -6424.2077   -6921.3636   -8163.3706     868.0206    21235.746     76.67337 
   99600    585.66312   -118.73821    0.5299203   -118.20829    1394.2686     4.248795     4.248795     4.248795    1394.2686    17938.217   -755.52595   -12999.886   -1182.5442   -2261.1863   -11469.224    76.700349 
   99700    1293.4828   -119.37099    1.1703704   -118.20062   -2285.7579    4.2479992    4.2479992    4.2479992   -2285.7579   -3671.2757    1935.5777   -5121.5759    566.85465    4560.3899   -11542.673    76.657256 
   99800    965.42337   -119.07911   0.87353535   -118.20558   -3540.4332    4.2484539    4.2484539    4.2484539   -3540.4332    13834.453   -26610.963      2155.21   -2742.3337    4258.4704    27739.637    76.681877 
   99900    431.80958   -118.60124   0.39071038   -118.21053   -1948.1804    4.2470717    4.2470717    4.2470717   -1948.1804    27311.193   -15923.059   -17232.675   -3025.4767     259.8832    21722.903    76.607056 
  100000     1066.527   -119.16876   0.96501606   -118.20374   -2606.6482    4.2462891    4.2462891    4.2462891   -2606.6482    1132.5871    12870.671   -21823.203   -8175.1964     677.5324   -13342.248    76.564716 
Loop time of 222.117 on 1 procs for 100000 steps with 8 atoms

Pair  time (%) = 76.349 (34.3733)
Kspce time (%) = 53.1925 (23.948)
Neigh time (%) = 0 (0)
Comm  time (%) = 10.6813 (4.80888)
Outpt time (%) = 0.216335 (0.097397)
Other time (%) = 81.6779 (36.7725)

Nlocal:    8 ave 8 max 8 min
Histogram: 1 0 0 0 0 0 0 0 0 0
Nghost:    2189 ave 2189 max 2189 min
Histogram: 1 0 0 0 0 0 0 0 0 0
Neighs:    2472 ave 2472 max 2472 min
Histogram: 1 0 0 0 0 0 0 0 0 0

Total # of neighbors = 2472
Ave neighs/atom = 309
Neighbor list builds = 0
Dangerous builds = 0
unfix 20
unfix 21
print "seeds:7346510"
seeds:7346510
