LAMMPS (10 Feb 2015)
# ---- initialize simulations
clear
units metal
dimension 3
boundary p p p
atom_style charge
atom_modify map array
# ---- create atoms
read_data /Users/eugeneragasa/pyflamestk_git/pypospack/tests/tests_integration/workflow/WorkflowLammpsThermalExpansion/param_1902/MgO_NaCl_unit.npt.T1900/lammps.structure
  triclinic box = (0 0 0) to (4.2565 4.2565 4.2565) with tilt (0 0 0)
  1 by 1 by 1 MPI processor grid
  reading atoms ...
  8 atoms
# ---- define interatomic potential
include potential.mod
mass 1 24.305
mass 2 15.999

group Mg type 1
4 atoms in group Mg
group O type 2
4 atoms in group O

set group Mg charge 1.69754800024
  4 settings made for charge
set group O charge -1.69754800024
  4 settings made for charge

variable R_cut equal 10.0

pair_style buck/coul/long ${R_cut}
pair_style buck/coul/long 10
pair_coeff 1 1 0.0 0.5 0.0 ${R_cut}
pair_coeff 1 1 0.0 0.5 0.0 10
pair_coeff 1 2 1340.93810979 0.285979914483 0.0 ${R_cut}
pair_coeff 1 2 1340.93810979 0.285979914483 0.0 10
pair_coeff 2 2 11096.6994948 0.145827000496 3.24328494634 ${R_cut}
pair_coeff 2 2 11096.6994948 0.145827000496 3.24328494634 10

kspace_style pppm 1.0e-5

neighbor 1.0 bin
neigh_modify every 1 delay 0 check yes
# ---- define settings
compute eng all pe/atom
compute eatoms all reduce sum c_eng
# ---- run minimization
reset_timestep 0
fix 1 all box/relax iso 0.0 vmax 0.001
thermo 10
thermo_style custom step pe lx ly lz xy xz yz press pxx pyy pzz pxy pxz pyz c_eatoms
min_style cg
minimize 1e-25 1e-25 5000 10000
PPPM initialization ...
  G vector (1/distance) = 0.353134
  grid = 8 8 8
  stencil order = 5
  estimated absolute RMS force accuracy = 4.09436e-05
  estimated relative force accuracy = 2.84338e-06
  using double precision FFTs
  3d grid and FFT values/proc = 3375 512
Neighbor list info ...
  1 neighbor list requests
  update every 1 steps, delay 0 steps, check yes
  master list distance cutoff = 11
Memory usage per processor = 4.06549 Mbytes
Step PotEng Lx Ly Lz Xy Xz Yz Press Pxx Pyy Pzz Pxy Pxz Pyz eatoms 
       0   -117.43599       4.2565       4.2565       4.2565            0            0            0    33717.192    33717.192    33717.192    33717.192 -3.1023281e-11 -2.4163961e-10 -2.0934262e-10   -117.43599 
       8   -117.45138    4.2835821    4.2835821    4.2835821            0            0            0   -5.0124394   -5.0124394   -5.0124394   -5.0124394 6.8970478e-11 -1.4442567e-10 -9.765937e-11   -117.45138 
Loop time of 0.00846791 on 1 procs for 8 steps with 8 atoms

Minimization stats:
  Stopping criterion = linesearch alpha is zero
  Energy initial, next-to-last, final = 
        -117.435990229     -117.451383044     -117.451383044
  Force two-norm initial, final = 4.86878 0.0018005
  Force max component initial, final = 4.86878 0.000733039
  Final line search alpha, max atom move = 0.00390625 2.86343e-06
  Iterations, force evaluations = 8 25

Pair  time (%) = 0.00232935 (27.508)
Kspce time (%) = 0.00136352 (16.1021)
Neigh time (%) = 0 (0)
Comm  time (%) = 0.000259399 (3.06332)
Outpt time (%) = 0 (0)
Other time (%) = 0.00451565 (53.3266)

Nlocal:    8 ave 8 max 8 min
Histogram: 1 0 0 0 0 0 0 0 0 0
Nghost:    2189 ave 2189 max 2189 min
Histogram: 1 0 0 0 0 0 0 0 0 0
Neighs:    2344 ave 2344 max 2344 min
Histogram: 1 0 0 0 0 0 0 0 0 0

Total # of neighbors = 2344
Ave neighs/atom = 293
Neighbor list builds = 0
Dangerous builds = 0
unfix 1
# ---- define output variables ----
variable natoms equal "count(all)"
variable tot_energy equal "c_eatoms"
variable length_x equal "lx"
variable length_y equal "ly"
variable length_z equal "lz"
variable tilt_xy equal "xy"
variable tilt_xz equal "xz"
variable tilt_yz equal "yz"
variable tot_press equal "press"
variable press_xx equal "pxx"
variable press_yy equal "pyy"
variable press_zz equal "pzz"
variable press_xy equal "pxy"
variable press_xz equal "pxz"
variable press_yz equal "pyz"

# ---- output ----
print "pypospack:output_section:begin"
pypospack:output_section:begin
print "tot_energy = ${tot_energy}"
tot_energy = -117.45138304358
print "num_atoms = ${natoms}"
num_atoms = 8
print "xx = ${length_x}"
xx = 4.28358206284588
print "yy = ${length_y}"
yy = 4.28358206284588
print "zz = ${length_z}"
zz = 4.28358206284588
print "xy = ${tilt_xy}"
xy = 0
print "xz = ${tilt_xz}"
xz = 0
print "yz = ${tilt_yz}"
yz = 0
print "tot_press = ${tot_press}"
tot_press = -5.01243937142067
print "pxx = ${press_xx}"
pxx = -5.01243937108414
print "pyy = ${press_yy}"
pyy = -5.01243937158826
print "pzz = ${press_zz}"
pzz = -5.01243937158962
print "pxy = ${press_xy}"
pxy = 6.8970477610601e-11
print "pxz = ${press_xz}"
pxz = -1.44425666326158e-10
print "pyz = ${press_yz}"
pyz = -9.76593698696591e-11
print "pypospack:output_section:done"
pypospack:output_section:done
print "pypospack:lammps_sim:done"
pypospack:lammps_sim:done
#------------------------------------------------------------------------------
# RUN THERMOSTAT
# running using an NPT Nose-Hoover style thermostat
#------------------------------------------------------------------------------
variable tempdamp equal 0.1
variable pressdamp equal 1.0
# set initial velocities
velocity all create 1900 6787174 mom yes dist gaussian loop all
# fix for Nose-Hoover style thermostat
fix 20 all npt temp 1900 1900 0.1 aniso 0.0 0.0 1.0 drag 1.0 couple xyz
variable boxx equal lx
variable boxy equal ly
variable boxz equal lz
variable boxp equal press
variable boxt equal temp
# calculate averages every 10000 steps
reset_timestep 0
fix 21 all ave/time 10 10 100 v_boxx v_boxy v_boxz v_boxp v_boxt file lattice.out
thermo_style custom step temp pe ke etotal press lx ly lz press pxx pyy pzz pxy pxz pyz vol
thermo_modify flush yes
thermo 100
run 100000
PPPM initialization ...
  G vector (1/distance) = 0.352856
  grid = 8 8 8
  stencil order = 5
  estimated absolute RMS force accuracy = 4.14735e-05
  estimated relative force accuracy = 2.88018e-06
  using double precision FFTs
  3d grid and FFT values/proc = 3375 512
Memory usage per processor = 3.06549 Mbytes
Step Temp PotEng KinEng TotEng Press Lx Ly Lz Press Pxx Pyy Pzz Pxy Pxz Pyz Volume 
       0         1900   -117.45139    1.7191599   -115.73223    23356.238    4.2835821    4.2835821    4.2835821    23356.238    24617.982    18351.009    27099.724   -9603.0632   -10251.071    11017.563     78.59977 
     100    702.00367   -116.18651   0.63518767   -115.55132    27483.776    4.3253932    4.3253932    4.3253932    27483.776    21796.511     39545.47    21109.348    3666.0685    25392.015   -11142.034    80.923897 
     200    1563.4135   -116.49134    1.4146094   -115.07673   -46663.851      4.38598      4.38598      4.38598   -46663.851   -55743.676   -55963.979   -28283.898   -2969.0113   -2293.5721    5429.9248    84.372311 
     300    1710.8597   -116.18614    1.5480218   -114.63812   -42791.683    4.4213703    4.4213703    4.4213703   -42791.683   -58149.221    -5931.159   -64294.669    208.05263   -19564.078    4056.3474    86.431226 
     400    1378.9126   -115.52641    1.2476691   -114.27874   -58553.738    4.4169897    4.4169897    4.4169897   -58553.738   -73998.054   -9638.5508    -92024.61    -13357.75    38677.302   -1096.2036    86.174577 
     500    1801.0221   -115.66866    1.6296026   -114.03906    21552.478    4.3634351    4.3634351    4.3634351    21552.478    10168.121   -2580.8849    57070.197    20846.031     28842.39   -13130.657    83.077912 
     600    2322.8199   -116.07828    2.1017363   -113.97655    39611.062      4.35118      4.35118      4.35118    39611.062    13335.079    75467.803    30030.305   -21603.376   -14276.165    5806.6822    82.379879 
     700    2043.5803   -115.86777    1.8490744    -114.0187   -31855.974    4.4105818    4.4105818    4.4105818   -31855.974    -45507.36   -4632.4139   -45428.149   -4910.7934    24837.584    13349.281    85.800071 
     800    2171.5498   -115.87041    1.9648639   -113.90554   -16458.089    4.4283034    4.4283034    4.4283034   -16458.089   -27971.961   -10587.871   -10814.437    8096.9124   -4618.2564    6871.5744    86.838456 
     900    2559.3636   -116.16303     2.315766   -113.84727   -36618.575    4.4044745    4.4044745    4.4044745   -36618.575   -54042.011   -6655.6613   -49158.052    -15287.05    17103.237   -7694.5104    85.444143 
    1000    1411.7968   -115.14447    1.2774234   -113.86704    48786.966     4.385783     4.385783     4.385783    48786.966    61424.982    87439.095   -2503.1789   -9861.0964    19254.143    -26010.95    84.360941 
    1100    2147.3669   -115.86298    1.9429827      -113.92   -11803.269    4.3873672    4.3873672    4.3873672   -11803.269   -9140.0169    5432.7177   -31702.508    49635.383   -8761.3963   -7913.1188    84.452392 
    1200    1573.6595   -115.37576    1.4238802   -113.95188    3967.7353     4.395633     4.395633     4.395633    3967.7353   -7676.4039   -10717.549    30297.159    17723.073    20219.737    13728.763    84.930617 
    1300    2209.9043   -115.94581    1.9995678   -113.94624   -20704.675    4.4092206    4.4092206    4.4092206   -20704.675   -60650.725    34040.557   -35503.856   -1946.5166    2395.2087   -15750.634    85.720658 
    1400    2008.4425   -115.75385     1.817281   -113.93657   -21265.287    4.4020679    4.4020679    4.4020679   -21265.287   -52166.129   -24606.259    12976.528    11905.103    -14012.58    17322.397    85.304162 
    1500    1994.0903   -115.74219    1.8042948    -113.9379    8378.6212    4.3707357    4.3707357    4.3707357    8378.6212   -5898.8167    43792.262   -12757.582    19900.823     11157.59   -9476.0505    83.495609 
    1600    1531.5746   -115.36454    1.3858009   -113.97874    53019.633    4.3762263    4.3762263    4.3762263    53019.633    24522.315    113964.45    20572.133    1445.2131     -10890.9   -2170.2109    83.810668 
    1700    1094.3827   -115.00182   0.99022048   -114.01159     5845.367    4.4147155    4.4147155    4.4147155     5845.367   -89396.389    151354.18   -44421.692    12682.666   -13899.937   -4745.8645     86.04154 
    1800     2174.199   -115.92308     1.967261   -113.95582   -22507.161    4.4093103    4.4093103    4.4093103   -22507.161   -89318.506    78546.917   -56749.893    12450.655    3155.8782    13783.154    85.725887 
    1900    2055.1634   -115.76181     1.859555   -113.90225    33738.073    4.3678398    4.3678398    4.3678398    33738.073    27343.687    83477.078   -9606.5452   -28015.074    -10698.38   -7863.0311    83.329754 
    2000    1917.7784   -115.71667    1.7352462   -113.98142   -6978.6519    4.3802041    4.3802041    4.3802041   -6978.6519   -72938.888    68142.326   -16139.394     17292.07    -10676.48    7112.3811    84.039418 
    2100    1881.2556   -115.67779    1.7021996   -113.97559    6050.3013    4.4098982    4.4098982    4.4098982    6050.3013   -44904.406    70143.768   -7088.4579   -5059.0482   -5665.9583   -5032.8662    85.760184 
    2200    1252.6383   -115.05671    1.1334135   -113.92329    25141.025    4.4137824    4.4137824    4.4137824    25141.025   -21402.051    101739.29   -4914.1616   -15510.757    3353.1482    9207.2534    85.986991 
    2300    1863.7707   -115.56171    1.6863789   -113.87533     6393.432    4.4047033    4.4047033    4.4047033     6393.432   -54770.975    43460.695    30490.575   -12855.742   -5177.9861   -19221.943    85.457457 
    2400    1817.0516   -115.52146    1.6441065   -113.87735   -22319.644    4.3909874    4.3909874    4.3909874   -22319.644    -81547.51   -1475.7664    16064.345    18471.498   -33011.009    8212.3009    84.661617 
    2500    1553.1008   -115.32505    1.4052782   -113.91977   -7065.2324    4.3715835    4.3715835    4.3715835   -7065.2324   -34566.476   -15862.896    29233.674   -20978.713   -6087.1419     35443.72    83.544204 
    2600    1797.4792   -115.59076     1.626397   -113.96437    35902.666    4.3650993    4.3650993    4.3650993    35902.666    9046.1288    22581.187    76080.682    13720.356    11838.953   -11417.369    83.173006 
    2700    1632.4191   -115.50546    1.4770471   -114.02841      17072.1    4.3956112    4.3956112    4.3956112      17072.1   -39406.956    44662.348    45960.908    23282.046   -16962.701   -23401.765    84.929351 
    2800    2447.3666   -116.16282    2.2144288   -113.94839   -58216.852    4.4306826    4.4306826    4.4306826   -58216.852   -89167.083   -76333.899    -9149.574   -6000.6546     -21332.6   -1159.6564    86.978498 
    2900     1757.094   -115.46265    1.5898556   -113.87279   -12638.626    4.4120158    4.4120158    4.4120158   -12638.626   -6093.2772   -32779.959    957.36001    32028.658   -25420.269   -444.59948    85.883784 
    3000    2191.2318   -115.81728    1.9826726   -113.83461   -6352.2002    4.3624611    4.3624611    4.3624611   -6352.2002    41130.678   -47324.716   -12862.563    13753.636   -12079.629    25478.543    83.022286 
    3100    2148.1992   -115.86936    1.9437358   -113.92563    19319.547    4.3569326    4.3569326    4.3569326    19319.547    59917.422    18814.955   -20773.736   -27728.805    334.87896    8811.2916    82.707049 
    3200    1509.3791   -115.37376    1.3657179   -114.00804    2293.2981    4.3885795    4.3885795    4.3885795    2293.2981   -17833.734     8622.388     16091.24    33322.554    3767.9024    3751.3039    84.522419 
    3300    1982.8749   -115.77227    1.7941469   -113.97812   -43843.143    4.4113056    4.4113056    4.4113056   -43843.143   -44398.245   -54076.837   -33054.347    26098.097    9158.0794    8324.4921    85.842318 
    3400    1737.8217   -115.49635    1.5724176   -113.92393     14868.17    4.4039483    4.4039483    4.4039483     14868.17    57360.153     42583.23   -55338.874   -29780.128   -2243.7637    1359.7054    85.413525 
    3500    1990.8572   -115.70003    1.8013694   -113.89866   -41248.675    4.3842094    4.3842094    4.3842094   -41248.675    -38677.18   -98584.873     13516.03     47770.92    194.05523    1372.9567    84.270171 
    3600    1632.6503   -115.38131    1.4772563   -113.90406    53061.947    4.3677628    4.3677628    4.3677628    53061.947    30394.216    32939.987    95851.638    12553.272   -12220.751   -6476.6919    83.325346 
    3700     2079.737   -115.84502    1.8817898   -113.96323    -22727.41    4.3945594    4.3945594    4.3945594    -22727.41   -39420.565   -20364.096   -8397.5687   -2156.1718     12357.85   -1378.5525    84.868403 
    3800    1767.2614   -115.53616    1.5990553   -113.93711   -62114.611    4.4103897    4.4103897    4.4103897   -62114.611   -108494.86   -74679.416   -3169.5601    32220.304    15615.988   -16664.745    85.788861 
    3900     1803.126    -115.5199    1.6315063   -113.88839     13631.94    4.3832891    4.3832891    4.3832891     13631.94   -37134.562    31954.981    46075.402   -15247.029   -14010.209    18298.473    84.217115 
    4000    1808.2052   -115.55205    1.6361021   -113.91595   -625.35027    4.3657893    4.3657893    4.3657893   -625.35027   -53290.517    35440.586    15973.879    24496.419   -20599.806    4666.6976    83.212451 
    4100    2350.9533   -116.09573    2.1271919   -113.96854   -25980.704    4.3663175    4.3663175    4.3663175   -25980.704   -18932.288   -66870.055    7860.2316    35015.234   -3853.9134    14894.886    83.242659 
    4200    2303.1769   -116.05957    2.0839629    -113.9756    32532.152    4.3641809    4.3641809    4.3641809    32532.152    9559.4664    60413.367    27623.623   -10742.134   -1989.1379    6219.9105    83.120516 
    4300    1130.9271   -115.00968    1.0232866   -113.98639     4779.095     4.376266     4.376266     4.376266     4779.095    34356.032   -40984.394    20965.647    50350.503    15742.361   -2711.9073    83.812949 
    4400    2276.5943   -116.01323    2.0599103   -113.95332   -14220.386    4.3811662    4.3811662    4.3811662   -14220.386    10342.379   -18661.491   -34342.046    22016.759   -1270.7418   -16553.912    84.094807 
    4500    2169.4529   -115.90049    1.9629666   -113.93752    1626.6492    4.3866556    4.3866556    4.3866556    1626.6492    9093.2094    20429.726   -24642.988   -634.22193      3310.98     11494.28    84.411304 
    4600    1163.4447   -114.97749    1.0527092   -113.92478   -19592.268    4.3811223    4.3811223    4.3811223   -19592.268    -45156.97    5892.5089   -19512.342    35429.992    42044.091   -7066.0128    84.092283 
    4700     1903.895   -115.61733    1.7226842   -113.89465    24246.549    4.3613873    4.3613873    4.3613873    24246.549   -26233.801    69208.209     29765.24   -8180.8066    19963.131   -4829.2138    82.960995 
    4800    1891.9743   -115.64371    1.7118981   -113.93181    23654.852    4.3742755    4.3742755    4.3742755    23654.852    9548.7735    94882.579   -33466.796   -25952.358    -7835.028    26522.386    83.698637 
    4900    1622.8626   -115.41732    1.4684001   -113.94892   -25702.753    4.3929526    4.3929526    4.3929526   -25702.753   -63151.417   -43653.459    29696.616    30044.939    14789.019    -6895.918     84.77534 
    5000    1970.7603   -115.69064    1.7831854   -113.90745    19092.641    4.3917278    4.3917278    4.3917278    19092.641   -52587.514    23277.912    86587.527    2402.2162   -19986.853    11225.687    84.704456 
    5100    2478.6668   -116.13769    2.2427498   -113.89494   -17522.055    4.3769892    4.3769892    4.3769892   -17522.055   -22221.652    8411.9811   -38756.495    1666.3065   -2224.8755    13079.642    83.854508 
    5200    1760.6751   -115.51246    1.5930959   -113.91937    27260.042    4.3630842    4.3630842    4.3630842    27260.042    5619.9306   -1067.5021    77227.698    40795.332   -30899.094    1647.8843    83.057866 
    5300    2453.9532   -116.17027    2.2203884   -113.94988   -22504.288    4.3775123    4.3775123    4.3775123   -22504.288   -44069.204     -16126.1   -7317.5591    9733.7574    10448.941   -4170.0569    83.884578 
    5400    2216.5179   -115.94183    2.0055519   -113.93628   -17276.625    4.3826368    4.3826368    4.3826368   -17276.625    -47490.47    3356.8998   -7696.3052   -5607.3501   -7133.1512    21393.789    84.179518 
    5500    1517.2957    -115.3014    1.3728811   -113.92852   -28892.111    4.3800569    4.3800569    4.3800569   -28892.111   -48931.113    -19022.19    -18723.03    24302.422   -12350.995    496.16185    84.030948 
    5600    1765.4095   -115.52307    1.5973796   -113.92569     31365.42    4.3818173    4.3818173    4.3818173     31365.42    9924.0502    64253.722    19918.489   -8877.3255   -145.93204    7755.1743    84.132308 
    5700    1703.9009   -115.47323    1.5417254   -113.93151   -1819.1018    4.3889239    4.3889239    4.3889239   -1819.1018    9953.5283   -3520.7968   -11890.037   -16269.312   -2867.4356   -1672.0728    84.542318 
    5800    1709.6812   -115.45056    1.5469555   -113.90361   -16977.079     4.379882     4.379882     4.379882   -16977.079   -35425.962    42202.984   -57708.258    16154.065   -8978.3493    19244.287    84.020882 
    5900    2661.7412   -116.30191    2.4083994   -113.89351    -14803.07    4.3834133    4.3834133    4.3834133    -14803.07    -25328.76   -28045.073    8964.6229   -21339.605    3572.1171    6254.8694    84.224271 
    6000    1716.7156   -115.44223    1.5533203   -113.88891    10966.948    4.4000175    4.4000175    4.4000175    10966.948    -44126.83    34494.927    42532.748    3413.9902   -8245.6575    5172.8209    85.185014 
    6100     1291.054   -115.05106    1.1681728   -113.88289     44514.89    4.4180687    4.4180687    4.4180687     44514.89    56345.486    24884.038    52315.144     16901.98   -10200.193    30986.624    86.237743 
    6200    2209.1083   -115.83634    1.9988476   -113.83749   -27214.365      4.42419      4.42419      4.42419   -27214.365   -33492.697   -39247.829   -8902.5684   -569.36301    21445.354    9412.4184    86.596693 
    6300    961.89119   -114.73384   0.87033936    -113.8635    5743.3426    4.3702549    4.3702549    4.3702549    5743.3426    76512.429   -538.01541   -58744.386    36011.783   -25690.373    17479.563    83.468058 
    6400    1916.6973   -115.58675     1.734268   -113.85249    44726.551    4.3206412    4.3206412    4.3206412    44726.551    88494.374    46818.036   -1132.7561   -1054.7723   -12028.534    8671.6458    80.657473 
    6500    2570.0334   -116.30324    2.3254202   -113.97782    4634.4884    4.3547156    4.3547156    4.3547156    4634.4884    25239.896   -9232.7831   -2103.6476   -30860.835   -5814.0506   -6157.5901    82.580856 
    6600    1580.7527   -115.41037    1.4302983   -113.98007   -36440.473    4.4008001    4.4008001    4.4008001   -36440.473    10428.295    -39014.37   -80735.343    32244.099   -22086.561    2716.6603    85.230481 
    6700     1653.443   -115.43182      1.49607   -113.93575   -70985.681    4.3972823    4.3972823    4.3972823   -70985.681   -101966.53   -60255.021   -50735.488    9960.0805   -12761.527   -15973.834    85.026251 
    6800     2304.815   -115.96402    2.0854451   -113.87857    3324.0526    4.3533926    4.3533926    4.3533926    3324.0526    14531.547   -59641.171    55081.782   -49781.167    8002.0154    1905.9265    82.505616 
    6900    1700.1782   -115.46159     1.538357   -113.92323    53574.654    4.3461744    4.3461744    4.3461744    53574.654    174139.65   -16183.208    2767.5187   -21116.021    -14360.81    12449.703    82.095894 
    7000    2107.2501   -115.89078    1.9066842   -113.98409   -5347.6403    4.3887725    4.3887725    4.3887725   -5347.6403    76702.817   -32837.063   -59908.674   -4897.5164   -12614.595     1073.495    84.533568 
    7100    2180.1028   -115.90649    1.9726028   -113.93389   -51739.145     4.413531     4.413531     4.413531   -51739.145   -7830.8825   -74471.418   -72915.133   -38129.678    3013.7798   -4387.0445    85.972297 
    7200    1987.3436   -115.71989    1.7981902    -113.9217   -16174.826     4.379132     4.379132     4.379132   -16174.826    26986.117    -38265.93   -37244.666   -27706.056    -10088.62   -15575.077    83.977726 
    7300    1897.8064   -115.60006    1.7171751   -113.88289    67073.868     4.335949     4.335949     4.335949    67073.868    149237.21   -18955.535    70939.931    6532.7483   -61632.692   -695.62026    81.517809 
    7400    1700.4617   -115.51576    1.5386134   -113.97714    2565.3406    4.3643744    4.3643744    4.3643744    2565.3406    21179.044   -68187.159    54704.137   -38124.259   -4447.9489    5244.5423    83.131573 
    7500    2152.4003   -115.88194     1.947537   -113.93441   -6571.8737    4.3951232    4.3951232    4.3951232   -6571.8737   -16891.218    -46021.47    43197.067   -13137.329   -6783.6369   -7802.4697    84.901068 
    7600    1887.8626   -115.61559    1.7081778   -113.90741   -40402.771    4.4002281    4.4002281    4.4002281   -40402.771    -88990.17    -58800.73    26582.587   -7316.4065   -7311.8962   -1606.6546    85.197248 
    7700    1358.6646   -115.13658    1.2293483   -113.90723     -13125.3    4.3734068    4.3734068    4.3734068     -13125.3   -46993.864   -25083.272    32701.236   -23483.957    7043.5127    5985.4588    83.648782 
    7800    2569.9129   -116.20306    2.3253112   -113.87775    37489.989     4.341151     4.341151     4.341151    37489.989    63764.784   -11169.164    59874.349   -22098.884    24877.826   -17119.089    81.811562 
    7900    1966.5299   -115.75051    1.7793576   -113.97115   -37448.833    4.3786653    4.3786653    4.3786653   -37448.833   -36268.055   -40165.227   -35913.217   -262.91114    570.20482   -5836.5996    83.950878 
    8000    1440.1798   -115.22161     1.303105   -113.91851   -20933.124    4.4086172    4.4086172    4.4086172   -20933.124     43709.19   -70239.349   -36269.215   -12897.438   -1991.3195    13737.396    85.685465 
    8100    2232.0641   -115.87981    2.0196185   -113.86019    37022.988    4.3764576    4.3764576    4.3764576    37022.988    58441.192    56960.485   -4332.7125   -2064.9984     32795.92    777.82144    83.823963 
    8200    2063.2713   -115.73964    1.8668912   -113.87274     6147.955    4.3467576    4.3467576    4.3467576     6147.955    11545.848   -33891.377    40789.394   -27552.749    585.86285   -17482.296    82.128951 
    8300    1782.1027   -115.55831     1.612484   -113.94583    12622.841    4.3485592    4.3485592    4.3485592    12622.841      29385.3    -33198.47    41681.694   -2493.0728    29666.812    20770.535    82.231114 
    8400    2401.6927   -116.16394     2.173102   -113.99083   -9167.2701    4.3816707    4.3816707    4.3816707   -9167.2701   -55010.013    28394.611   -886.40806    8073.7986    1152.2947   -240.10477    84.123864 
    8500    1327.4441   -115.14782    1.2010993   -113.94672   -38414.754    4.4136427    4.4136427    4.4136427   -38414.754   -88870.675    -119093.3    92719.711   -22562.882   -3420.2036   -16356.183    85.978825 
    8600    2337.8958   -115.99278    2.1153773   -113.87741   -11367.004    4.4029769    4.4029769    4.4029769   -11367.004   -41117.113   -44367.955    51384.057   -7532.6516   -6519.1886   -16442.597    85.357016 
    8700    2248.6638   -115.89935    2.0346383   -113.86471    2718.2463      4.38575      4.38575      4.38575    2718.2463   -15227.613   -33801.147    57183.499   -1188.7972    11841.776   -13810.888    84.359038 
    8800    1836.9529   -115.55146    1.6621136   -113.88935   -27333.097    4.3895643    4.3895643    4.3895643   -27333.097   -54112.958    -68791.39    40905.057   -16673.294   -12365.447   -20976.469    84.579329 
    8900    2346.1485    -116.0177    2.1228445   -113.89486     5798.376    4.3731701    4.3731701    4.3731701     5798.376    -19651.61    -2895.726    39942.464    7039.5433    22262.891   -27347.809    83.635201 
    9000    1871.6605   -115.61416    1.6935178   -113.92065    -7286.204    4.3652447    4.3652447    4.3652447    -7286.204   -17979.139   -9062.9616    5183.4891    7989.1904   -5609.9739    3161.7781    83.181316 
    9100     2572.291   -116.25343     2.327463   -113.92597   -33734.839    4.3900355    4.3900355    4.3900355   -33734.839   -64511.802   -13230.674   -23462.041   -17507.425    2857.0433    9160.8142    84.606573 
    9200    1830.8915   -115.54552    1.6566291   -113.88889   -42708.224    4.4053299    4.4053299    4.4053299   -42708.224   -104455.46    11673.039   -35342.248     30297.49    -6486.043    -929.2857    85.493936 
    9300     1822.014   -115.50205    1.6485965   -113.85346   -34697.189    4.3871595    4.3871595    4.3871595   -34697.189   -59387.707   -31822.421   -12881.438    -9404.806   -729.39504   -4699.8712      84.4404 
    9400     2541.484   -116.14065    2.2995881   -113.84106    18803.462    4.3524104    4.3524104    4.3524104    18803.462   -3877.7118    44702.051    15586.048    15118.359   -21489.991   -21059.451    82.449786 
    9500    1658.0437   -115.41611    1.5002328   -113.91588   -38615.032    4.3585907    4.3585907    4.3585907   -38615.032   -66875.501   -20516.514   -28453.082    22813.321   -12265.019   -1315.1795    82.801512 
    9600    1864.1303   -115.61719    1.6867043   -113.93049   -15342.299    4.3723219    4.3723219    4.3723219   -15342.299   -48763.718   -5710.2372    8447.0582     8294.425    30283.313    11323.696    83.586546 
    9700    2327.5966   -116.03542    2.1060583   -113.92937    -14552.36    4.3756787    4.3756787    4.3756787    -14552.36    -31817.66   -9236.5268   -2602.8926   -6379.2815   -38835.868   -4311.3003     83.77921 
    9800    1035.8983   -114.87993   0.93730258   -113.94263   -5797.3341    4.3767718    4.3767718    4.3767718   -5797.3341   -16447.367    7444.5054   -8389.1402    26647.785   -10953.655   -2278.7784    83.842014 
    9900    2445.3858   -116.10927    2.2126365   -113.89664     -15805.3    4.3636832    4.3636832    4.3636832     -15805.3   -13816.195   -46687.965    13088.262    7123.7164    2648.6084     28421.53     83.09208 
   10000    2424.9726   -116.09705    2.1941662   -113.90288   -2887.2457    4.3640558    4.3640558    4.3640558   -2887.2457   -33805.663    38798.794   -13654.869    5475.2119   -773.19756   -3293.0707    83.113367 
   10100    1580.6883   -115.36036      1.43024   -113.93012   -31833.825    4.3798586    4.3798586    4.3798586   -31833.825   -68270.143    -14072.61   -13158.723    32714.225    5804.4796   -7271.4814    84.019534 
   10200    2569.8782   -116.23257    2.3252798   -113.90729    6995.5191    4.3767018    4.3767018    4.3767018    6995.5191    18923.839   -30371.485    32434.203     694.8438   -13322.105   -522.59945     83.83799 
   10300    1917.9863   -115.65832    1.7354343   -113.92289    20557.928    4.3683052    4.3683052    4.3683052    20557.928    26128.741      35126.6    418.44283    225.02899    3099.6253    10959.152    83.356395 
   10400    1656.2994   -115.42441    1.4986545   -113.92575   -18258.777     4.377309     4.377309     4.377309   -18258.777    -50304.38    -61419.18     56947.23    9990.6929    19084.526   -2928.7518    83.872894 
   10500    2213.4453    -115.8947    2.0027718   -113.89192    7062.7668    4.3802675    4.3802675    4.3802675    7062.7668   -21136.975    32177.907    10147.369    22413.826   -93.903161   -4146.2689    84.043068 
   10600    1699.2612   -115.43049    1.5375272   -113.89297   -20048.509    4.3976808    4.3976808    4.3976808   -20048.509   -76132.756    87312.529   -71325.299   -27831.945    -2440.556   -10905.161     85.04937 
   10700    1789.0151   -115.48463    1.6187385   -113.86589   -18502.717    4.4104134    4.4104134    4.4104134   -18502.717   -47607.145   -8970.9034    1069.8959    14195.297   -12707.226   -13229.729    85.790241 
   10800    1608.6031   -115.30124    1.4554979   -113.84574    5739.4137    4.3953172    4.3953172    4.3953172    5739.4137   -18955.835    32452.565     3721.511   -10890.907    15746.265   -7735.2463    84.912312 
   10900    1638.5285   -115.32799     1.482575   -113.84541    14242.356    4.3702206    4.3702206    4.3702206    14242.356   -55236.301   -14723.513    112686.88   -10656.915    -3796.086   -31551.433    83.466091 
   11000    2202.4713   -115.86869    1.9928423   -113.87585    8489.2394    4.3606515    4.3606515    4.3606515    8489.2394    10932.636   -78.048995    14613.132    28597.667    24902.894   -14928.747    82.919013 
   11100     1291.594   -115.10574    1.1686614   -113.93708   -29184.062    4.3712091    4.3712091    4.3712091   -29184.062   -67981.754    22638.779   -42209.212   -38464.266    25314.314   -11877.762     83.52274 
   11200     1754.151   -115.51714    1.5871927   -113.92995   -27968.444    4.3748188    4.3748188    4.3748188   -27968.444   -19805.681   -52884.144   -11215.508   -21061.404   -28194.908    1983.7376    83.729832 
   11300    2786.1001   -116.41929     2.520922   -113.89836   -9919.8419    4.3693294    4.3693294    4.3693294   -9919.8419    4314.2735   -41289.855    7216.0563    11167.231    10162.489    762.59032    83.415042 
   11400    1149.1073   -114.96375    1.0397364   -113.92402   -58090.064    4.3819681    4.3819681    4.3819681   -58090.064   -124180.12    4936.8877   -55026.962   -50291.923    28817.884   -2306.2517    84.140995 
   11500    1826.2014   -115.55838    1.6523854   -113.90599   -4743.7664    4.3511474    4.3511474    4.3511474   -4743.7664   -47674.584    43008.394   -9565.1091    -23552.32   -10561.945    663.12123    82.378028 
   11600    2356.9943   -116.03047     2.132658   -113.89781    22718.829    4.3260149    4.3260149    4.3260149    22718.829    32066.853    28272.707    7816.9272    32456.868   -6745.9816   -34004.538    80.958796 
   11700    1678.3925   -115.48507    1.5186448   -113.96643   -19002.135    4.3550202    4.3550202    4.3550202   -19002.135   -52781.206    30663.314   -34888.514   -25611.701    36080.597    -4767.462     82.59819 
   11800    2003.6637   -115.74956     1.812957   -113.93661   -36914.274    4.3796225    4.3796225    4.3796225   -36914.274   -51442.149   -28729.607   -30571.065   -39373.306    12625.812   -8397.2109    84.005945 
   11900     2091.391   -115.80039    1.8923345   -113.90805    1400.7565    4.3671731    4.3671731    4.3671731    1400.7565   -7718.1709   -49312.988    61233.428    31491.129   -14539.757    -19833.81    83.291601 
   12000    1348.4773   -115.13143    1.2201306    -113.9113    2948.2097    4.3477962    4.3477962    4.3477962    2948.2097    37814.762   -54305.858    25335.725   -37647.277    22423.255   -256.56663    82.187837 
   12100    1886.9445   -115.64982    1.7073471   -113.94247    11270.748    4.3538439    4.3538439    4.3538439    11270.748    5246.2741    9897.6059    18668.364   -13917.829    11543.379   -7883.2025    82.531278 
   12200    2171.3332   -115.90543    1.9646679   -113.94077   -13347.962    4.3754407    4.3754407    4.3754407   -13347.962    35084.978   -29976.453   -45152.412    11404.016    4683.9396    13867.933    83.765543 
   12300    1584.0802    -115.3794    1.4333091   -113.94609     -42614.2    4.3663787    4.3663787    4.3663787     -42614.2   -44124.161    -103879.1    20160.658   -49208.837    -17646.46    5562.1438    83.246156 
   12400    1494.5318   -115.29404    1.3522838   -113.94175    8490.2552    4.3276271    4.3276271    4.3276271    8490.2552    55852.826   -42320.719    11938.658   -34353.307    18109.465   -9972.7384    81.049343 
   12500    2521.5876   -116.24525    2.2815854   -113.96366    27944.629    4.3185998    4.3185998    4.3185998    27944.629    32204.061     52643.79    -1013.965   -3265.9969    19507.452    4491.7725    80.543198 
   12600    1952.5624   -115.77667    1.7667195   -114.00995   -4397.0762    4.3567589    4.3567589    4.3567589   -4397.0762    36934.124   -63168.207    13042.854    -9552.817   -27259.587   -3070.1508    82.697155 
   12700     1397.402    -115.2491    1.2643987    -113.9847   -38497.582    4.3820449    4.3820449    4.3820449   -38497.582   -54405.405   -77125.711     16038.37   -18851.614    12892.522   -170.71418    84.145416 
   12800     1998.109   -115.74048     1.807931   -113.93255   -44619.693    4.3765136    4.3765136    4.3765136   -44619.693    -54987.95    -26405.93   -52465.198    20695.082    18891.547   -20647.398    83.827175 
   12900    2354.2514   -116.03613    2.1301761   -113.90596     20451.21    4.3426235    4.3426235    4.3426235     20451.21    30118.547    37941.166   -6706.0845    -15296.19   -6247.9219    352.86386     81.89484 
   13000    1989.8372   -115.71463    1.8004465   -113.91418    42984.121    4.3208916    4.3208916    4.3208916    42984.121    3789.3586     34825.01    90337.994   -31936.927    24112.015   -15501.987    80.671497 
   13100    1492.0532   -115.33754    1.3500411    -113.9875    11262.499    4.3491446    4.3491446    4.3491446    11262.499    17409.537    41618.345   -25240.386    9575.1505    18710.019   -5685.6199    82.264324 
   13200     2566.345   -116.26097    2.3220829   -113.93888   -44267.763    4.3896551    4.3896551    4.3896551   -44267.763   -20422.981    -54172.06   -58208.248    5621.1513   -23360.605    9943.9307    84.584578 
   13300    2422.3949   -116.10379    2.1918338   -113.91196   -37436.137    4.3701258    4.3701258    4.3701258   -37436.137   -59763.479   -31671.529   -20873.404    -15942.22    55763.004   -16155.134    83.460661 
   13400    2040.2173   -115.73663    1.8460315    -113.8906   -571.24231    4.3169934    4.3169934    4.3169934   -571.24231     25006.19   -23773.312   -2946.6052    4078.4947    46610.394    8595.4308    80.453352 
   13500    1395.3446   -115.21612    1.2625371   -113.95358    51739.835    4.3196424    4.3196424    4.3196424    51739.835    52622.081    22855.442    79741.983    23812.981   -20860.453   -11030.101    80.601547 
   13600    2376.7279   -116.11816    2.1505133   -113.96764    -33810.57    4.3726366    4.3726366    4.3726366    -33810.57   -47953.695   -21841.597   -31636.417   -13707.821    5751.8969   -11417.186    83.604594 
   13700    1638.8316   -115.40021    1.4828492   -113.91736    -24306.67    4.3857518    4.3857518    4.3857518    -24306.67   -41105.493   -31626.361   -188.15468    28216.343    29697.976    6929.4021    84.359142 
   13800    1974.3889   -115.66807    1.7864686    -113.8816   -16618.761    4.3571407    4.3571407    4.3571407   -16618.761   -42005.309   -47247.096    39396.123    50812.521   -3156.1275   -27392.369    82.718899 
   13900    2412.8727   -116.06394    2.1832179   -113.88073    26848.906    4.3351935    4.3351935    4.3351935    26848.906    381.03806    68431.468    11734.212   -17027.029   -2882.8995   -27665.833    81.475207 
   14000    1211.7161   -115.04317    1.0963862   -113.94679    17446.501    4.3497688    4.3497688    4.3497688    17446.501   -47752.705   -9152.2435    109244.45    57491.174    35659.776   -23452.628    82.299754 
   14100    1853.9985   -115.61142    1.6775368   -113.93388   -11373.116    4.3776099    4.3776099    4.3776099   -11373.116   -3032.4879   -19391.818    -11695.04    24681.145   -7253.1285    9493.1326    83.890187 
   14200    2612.5225    -116.2477    2.3638653   -113.88383   -27503.235    4.3685756    4.3685756    4.3685756   -27503.235   -15635.118   -44351.325   -22523.262    6394.1606   -14754.215    10925.336    83.371877 
   14300    1715.8496   -115.44532    1.5525368   -113.89278   -25345.037    4.3423723    4.3423723    4.3423723   -25345.037   -39253.498   -27434.057   -9347.5571    64973.482   -6552.1833    -11136.01    81.880631 
   14400    1809.1884   -115.55083    1.6369916   -113.91384    11391.935    4.3391225    4.3391225    4.3391225    11391.935    990.01082   -16542.092    49727.885   -12245.249    10190.409    13470.669    81.696928 
   14500    1963.3279    -115.7079    1.7764604   -113.93144   -26915.603    4.3694901    4.3694901    4.3694901   -26915.603    5649.4495    -62512.51   -23883.748    31200.619   -24848.536    14693.559    83.424243 
   14600     1899.812   -115.61271    1.7189898   -113.89372   -60391.434    4.3871461    4.3871461    4.3871461   -60391.434   -57710.875   -71532.889   -51930.538    38156.255    8914.0074   -14237.092    84.439624 
   14700    2242.9576   -115.89496    2.0294752   -113.86549   -1673.0192    4.3604864    4.3604864    4.3604864   -1673.0192    45891.032   -21075.847   -29834.243   -17928.826   -18.122133    11142.415    82.909596 
   14800     2205.019   -115.86933    1.9951475   -113.87418    8497.4259    4.3288918    4.3288918    4.3288918    8497.4259    6691.0467    2018.7447    16782.486    56438.515   -10292.926     19855.52    81.120419 
   14900    2418.8985   -116.10133    2.1886702   -113.91266    19534.145    4.3199253    4.3199253    4.3199253    19534.145    8536.6452    35257.119     14808.67    12774.668    7900.5645   -14776.393    80.617388 
   15000    1558.5825   -115.38637    1.4102382   -113.97614    -4562.898     4.346409     4.346409     4.346409    -4562.898   -9429.6912   -9548.1554    5289.1526   -7357.8783    31300.599   -453.45275    82.109191 
   15100    2076.3937   -115.81737    1.8787647   -113.93861   -34889.641    4.3722143    4.3722143    4.3722143   -34889.641   -19936.925   -63530.248    -21201.75    50386.794    -6924.022    19005.375    83.580378 
   15200    2085.0808   -115.81219    1.8866249   -113.92557   -36534.905    4.3454697    4.3454697    4.3454697   -36534.905   -70587.261   -16733.285   -22284.169   -26974.961    31067.916   -3911.8931    82.055969 
   15300    1437.0541   -115.22385    1.3002768   -113.92357    37257.637    4.3023521    4.3023521    4.3023521    37257.637     -8377.99    84193.295    35957.606   -40938.754     26713.61   -15837.024     79.63754 
   15400     2001.799   -115.77745    1.8112698   -113.96618    44723.788    4.3212158    4.3212158    4.3212158    44723.788     27903.59    72629.378    33638.394    28409.998   -1246.4459     14815.36    80.689659 
   15500    1809.3123   -115.60169    1.6371038   -113.96458   -21938.664     4.352952     4.352952     4.352952   -21938.664   -70076.955    31980.429   -27719.466   -26020.066    13178.051    14920.466    82.480567 
   15600    1028.2133   -114.87867   0.93034898   -113.94832    5914.9717    4.3466642    4.3466642    4.3466642    5914.9717   -47811.282    30266.331    35289.865   -39802.077    3311.0209    13710.783    82.123657 
   15700    1916.5068   -115.65707    1.7340956   -113.92297    23675.201    4.3441496    4.3441496    4.3441496    23675.201    10822.476    30439.036    29764.092    41820.595   -12671.046     4749.543     81.98121 
   15800    1760.2608   -115.52844    1.5927209   -113.93572    2500.9269    4.3460525    4.3460525    4.3460525    2500.9269   -46827.583    16931.132    37399.232   -1949.6421    11425.382    595.32178    82.088989 
   15900    2166.1013   -115.88843    1.9599339    -113.9285    13032.153     4.337813     4.337813     4.337813    13032.153   -40165.958    19474.895    59787.523   -24053.665    15130.268   -5252.4061    81.622983 
   16000    1647.9238   -115.44606    1.4910761   -113.95498   -11952.075    4.3362569    4.3362569    4.3362569   -11952.075   -33154.148   -47196.379    44494.303     44795.94   -12275.464    11223.305    81.535177 
   16100    1812.8187    -115.6051    1.6402764   -113.96482   -12133.525    4.3410176    4.3410176    4.3410176   -12133.525    -1434.014    -27513.49   -7453.0717    2099.8481   -3331.1998   -2874.0311    81.804017 
   16200    2317.7979   -116.04548    2.0971922   -113.94829    -30662.76    4.3562669    4.3562669    4.3562669    -30662.76   -72853.557    13902.384   -33037.107    -7395.651    13183.729   -16069.663    82.669143 
   16300    2040.9075   -115.77239     1.846656   -113.92573   -47267.855    4.3607167    4.3607167    4.3607167   -47267.855   -76907.773    -47062.91   -17832.884    36676.495    3519.7204    21798.143    82.922733 
   16400    1887.2025   -115.61582    1.7075804   -113.90824   -14950.838    4.3485661    4.3485661    4.3485661   -14950.838    12230.026   -14738.408   -42344.134    -14458.07   -2994.6884    16448.127    82.231504 
   16500    1670.8203   -115.43599    1.5117933   -113.92419   -25974.386    4.3279598    4.3279598    4.3279598   -25974.386   -28993.623   -24490.144   -24439.393   -40725.388    30298.174    -11304.12    81.068038 
   16600    2131.5739   -115.86095    1.9286929   -113.93226    26350.582    4.3136868    4.3136868    4.3136868    26350.582   -2993.4797    42883.341    39161.885   -2810.5327    5511.1907    16009.329    80.268624 
   16700    1791.7813   -115.59368    1.6212414   -113.97244   -303.64743    4.3409311    4.3409311    4.3409311   -303.64743    15414.379    30446.634   -46771.956   -3382.4376    -4255.445    35920.791    81.799131 
   16800    1485.5921   -115.29643    1.3441949   -113.95223   -19462.023    4.3633905    4.3633905    4.3633905   -19462.023   -51294.244    29340.305   -36432.132   -25089.985    873.64094   -14540.786    83.075364 
   16900    1960.7898   -115.69427    1.7741638   -113.92011   -8945.4383    4.3495378    4.3495378    4.3495378   -8945.4383    8064.8542   -6661.0738   -28240.096   -6454.6967    12870.568    7055.3724    82.286641 
   17000    1647.8481   -115.40407    1.4910076   -113.91307   -2936.2127    4.3200743    4.3200743    4.3200743   -2936.2127    32736.111   -26798.702   -14746.047    27551.061   -4770.8941    58496.839    80.625727 
   17100    1997.2279   -115.74444    1.8071338   -113.93731    27541.337    4.3119025    4.3119025    4.3119025    27541.337    64764.949    13328.087    4530.9742   -23926.636   -7050.3532   -36863.621     80.16906 
   17200    1853.9246   -115.64978    1.6774699   -113.97231   -2478.6002    4.3451787    4.3451787    4.3451787   -2478.6002   -16678.033   -22795.024    32037.256    1715.1462   -5801.8129     22089.23    82.039487 
   17300    1061.0192   -114.89997   0.96003243   -113.93994   -30386.301    4.3733133    4.3733133    4.3733133   -30386.301   -10876.931   -61613.675   -18668.296    39729.484   -5895.2951    42675.287    83.643416 
   17400    2273.3347   -115.94249     2.056961   -113.88553    24761.495       4.3497       4.3497       4.3497    24761.495    21885.659    33072.114    19326.712    14525.438    2526.7172   -48247.687    82.295844 
   17500    2068.7274   -115.75651     1.871828   -113.88468   -15156.486    4.3342551    4.3342551    4.3342551   -15156.486     4598.104   -16680.079   -33387.483    2740.5816    -18592.47    49384.051    81.422305 
   17600    1288.4321   -115.10062    1.1658005   -113.93482   -34691.855    4.3343116    4.3343116    4.3343116   -34691.855   -15639.932   -38551.652   -49883.979     42949.68    6603.2948    53612.331    81.425493 
   17700    2352.8189   -116.06621      2.12888   -113.93733    35880.853    4.3290901    4.3290901    4.3290901    35880.853    47277.387    46022.504    14342.668    12252.397     19905.47   -39690.931    81.131567 
   17800    2170.0139    -115.9254    1.9634742   -113.96193   -6234.8925    4.3491864    4.3491864    4.3491864   -6234.8925   -7697.9386    9125.7227   -20132.462   -30340.303     -28368.9    23724.828    82.266698 
   17900    1134.2756   -114.98304    1.0263164   -113.95673    -15798.11    4.3561597    4.3561597    4.3561597    -15798.11     1177.127   -9309.5659    -39261.89    11547.824    4274.7067    31477.704    82.663042 
   18000    1952.0596   -115.69839    1.7662645   -113.93213    9122.6319    4.3449381    4.3449381    4.3449381    9122.6319    9144.9888   -757.18187    18980.089    15786.179    17382.603   -10386.249    82.025858 
   18100    1917.0251   -115.65597    1.7345646    -113.9214   -11218.519    4.3451809    4.3451809    4.3451809   -11218.519     -26466.1     -12992.7    5803.2425   -46584.934   -10664.297    7246.8493     82.03961 
   18200    1251.2195   -115.05604    1.1321297   -113.92391   -8787.1112      4.33756      4.33756      4.33756   -8787.1112    404.43828    21184.119    -47949.89   -3560.1654   -9022.0813    31635.959    81.608707 
   18300    2813.1395   -116.45509    2.5453878    -113.9097    7704.3412    4.3328521    4.3328521    4.3328521    7704.3412    -20785.17    59174.321   -15276.126    3882.0733    19176.945   -7258.5482    81.343263 
   18400    859.32612   -114.72605   0.77753633   -113.94852   -15627.263    4.3483721    4.3483721    4.3483721   -15627.263    11950.974   -17181.049   -41651.713    -28288.57   -21490.542    1253.5764    82.220497 
   18500    1487.0012   -115.27644    1.3454699   -113.93098   -14663.766    4.3508312    4.3508312    4.3508312   -14663.766    -5545.418    13418.568   -51864.449   -16614.347   -19819.616    16374.426    82.360067 
   18600    2839.5203   -116.46795    2.5692576    -113.8987    4440.2724     4.343972     4.343972     4.343972    4440.2724    36176.333    12429.656   -35285.173    22045.477    7015.7431   -1462.0202    81.971156 
   18700    1061.9486   -114.88087   0.96087338      -113.92   -21457.676    4.3478924    4.3478924    4.3478924   -21457.676    29682.106   -34929.112   -59126.022    -45782.83   -5143.0504    44690.992    82.193288 
   18800    2096.3153   -115.80642    1.8967901   -113.90963    1618.8004     4.340684     4.340684     4.340684    1618.8004    45950.216   -18120.697   -22973.118   -26986.317   -10404.222    4582.1525    81.785162 
   18900    2095.8033   -115.81544    1.8963269   -113.91911    16835.016    4.3295183    4.3295183    4.3295183    16835.016    82236.857    -15768.16    -15963.65    45144.528    15343.588   -1401.0957    81.155646 
   19000    1243.3308   -115.08809    1.1249918   -113.96309   -19819.931     4.342239     4.342239     4.342239   -19819.931    23309.243   -58755.828   -24013.208    363.27688    887.21558    29019.406    81.873089 
   19100    2890.3326   -116.53626    2.6152337   -113.92102   -12127.448    4.3550192    4.3550192    4.3550192   -12127.448    15592.045   -17123.559   -34850.831   -26017.216    4597.9825    -10414.25    82.598129 
   19200    1809.3933   -115.57276    1.6371771   -113.93558   -40415.864    4.3491245    4.3491245    4.3491245   -40415.864   -48910.439   -18959.172   -53377.981    19887.793    17754.033     3783.794    82.263184 
   19300    1534.8111   -115.31333    1.3887294    -113.9246    28111.223    4.3299558    4.3299558    4.3299558    28111.223    17516.636    45546.375    21270.656    11878.887    11501.517    37787.213    81.180252 
   19400    2407.3915   -116.09688    2.1782584   -113.91862     24746.24    4.3412868    4.3412868    4.3412868     24746.24    21247.138    32029.044    20962.538   -17749.997   -8967.4164   -2688.3855    81.819237 
   19500    1408.8012   -115.19662    1.2747129   -113.92191   -17713.619    4.3608851    4.3608851    4.3608851   -17713.619   -49981.904    27559.019   -30717.973    22461.341    2031.8267   -3335.8172    82.932344 
   19600    2010.8764   -115.71188    1.8194832   -113.89239    5920.6938    4.3538533    4.3538533    4.3538533    5920.6938    21478.826   -13661.893    9945.1475    23078.396    12167.971    26555.757    82.531812 
   19700    1409.9123   -115.17919    1.2757183   -113.90347    2949.7217    4.3424551    4.3424551    4.3424551    2949.7217   -402.63611    36763.051    -27511.25   -39500.243   -49223.835   -18060.053    81.885311 
   19800    1526.3695   -115.29638    1.3810912   -113.91529   -4135.6663     4.333116     4.333116     4.333116   -4135.6663   -20707.955    2612.6844    5688.2714   -7594.9863   -6597.9809    7019.5933    81.358129 
   19900    2430.5696    -116.1018    2.1992305   -113.90257    19066.163    4.3230282    4.3230282    4.3230282    19066.163    20769.091      22990.8    13438.599    15321.334    5.6035092    20036.749    80.791229 
   20000    1539.6971   -115.34273    1.3931503   -113.94958   -16208.638    4.3465257    4.3465257    4.3465257   -16208.638   -58928.005    16940.194   -6638.1034   -15112.339   -89083.011     -7900.77    82.115806 
   20100    2376.4882   -116.05482    2.1502965   -113.90453   -23699.182     4.371707     4.371707     4.371707   -23699.182   -2576.8453   -44697.401   -23823.299   -8829.9079    34891.475    -8939.761    83.551284 
   20200    1799.9891   -115.51016     1.628668    -113.8815   -28049.497    4.3671166    4.3671166    4.3671166   -28049.497    483.41015   -5741.3291   -78890.571    15008.851   -64702.391    6438.9272    83.288369 
   20300    2465.7628    -116.0892     2.231074   -113.85813    2794.2457    4.3409606    4.3409606    4.3409606    2794.2457    23605.014   -9335.5504   -5886.7261   -4295.1283   -26254.171   -2096.5788    81.800794 
   20400    2029.2595   -115.70155    1.8361166   -113.86543     6612.351    4.3305385    4.3305385    4.3305385     6612.351    18302.441    4209.2731   -2674.6611   -11396.482   -24489.457   -14335.703    81.213031 
   20500    1545.8906   -115.29609    1.3987543   -113.89733   -14450.659     4.339473     4.339473     4.339473   -14450.659   -6670.1477    17200.736   -53882.564   -547.82614   -59285.228   -5400.4957    81.716728 
   20600    2087.5713   -115.79765    1.8888783   -113.90878    4367.2435    4.3483624    4.3483624    4.3483624    4367.2435   -1053.7569   -36046.085    50201.573    26006.474    23588.422    9274.4421    82.219945 
   20700    1287.4803   -115.08308    1.1649392   -113.91814    9077.4764    4.3614868    4.3614868    4.3614868    9077.4764    25886.762      15531.1   -14185.432    8118.8578   -42081.564    1584.3696    82.966678 
   20800    2118.9605   -115.80774      1.91728   -113.89046   -25047.178    4.3647469    4.3647469    4.3647469   -25047.178   -70937.618    51555.229   -55759.146   -1753.3393   -16302.182   -7821.7027    83.152862 
   20900    1892.8484   -115.60113     1.712689   -113.88844    480.03911    4.3358425    4.3358425    4.3358425    480.03911    10958.423   -13045.151    3526.8453    34782.917    7995.9719    24099.869    81.511799 
   21000    1578.2722   -115.33822    1.4280538   -113.91016    6851.7026    4.3146013    4.3146013    4.3146013    6851.7026   -7841.1848    56321.072   -27924.779    8597.9747   -43186.257   -889.18484     80.31969 
   21100    2155.1143   -115.89853    1.9499927   -113.94854    12319.635    4.3365675    4.3365675    4.3365675    12319.635   -10304.119    49570.543   -2307.5208   -36599.427   -20568.364   -8653.5667      81.5527 
   21200    1582.9673    -115.3769    1.4323021    -113.9446   -5693.6624    4.3582982    4.3582982    4.3582982   -5693.6624    7228.4726   -17343.406   -6966.0537   -13384.313    7445.0429    31306.833    82.784843 
   21300    1678.4909   -115.43734    1.5187338    -113.9186    8534.0282    4.3650882    4.3650882    4.3650882    8534.0282   -21940.558    85177.393   -37634.751    15791.696   -10310.366    18894.676    83.172368 
   21400    2278.3556   -115.93789    2.0615041   -113.87638   -13153.446    4.3611968    4.3611968    4.3611968   -13153.446   -46490.794    51967.361   -44936.906     -35604.3    9452.9782   -850.49993    82.950129 
   21500    1042.3191   -114.82882    0.9431122   -113.88571    21176.971    4.3360083    4.3360083    4.3360083    21176.971    57155.702    46735.662    -40360.45   -31170.652    2350.8227    6713.8779    81.521153 
   21600    2407.3315   -116.05606    2.1782041   -113.87785    36522.455    4.3337428    4.3337428    4.3337428    36522.455    32334.328    66741.913    10491.125    12622.961   -20593.181   -2823.3412    81.393438 
   21700    1469.2098   -115.24354    1.3293719   -113.91417   -8127.8042     4.346776     4.346776     4.346776   -8127.8042    6696.2758   -17870.017   -13209.671   -67425.841      8826.15    9718.1812    82.129994 
   21800    1393.0506   -115.18947    1.2604615   -113.92901   -30095.448    4.3534445    4.3534445    4.3534445   -30095.448   -4544.0131   -26077.496   -59664.837   -28883.864    5050.8449    18776.233    82.508566 
   21900    2905.0213   -116.52873    2.6285243   -113.90021    27815.231     4.328518     4.328518     4.328518    27815.231    40008.131    22201.047    21236.514    8190.1463   -11087.099   -5437.4299     81.09941 
   22000    902.11002   -114.75935    0.8162481    -113.9431    13969.216    4.3306765    4.3306765    4.3306765    13969.216    21697.064    5583.1156    14627.468   -32313.787    24960.717   -6070.9355    81.220795 
   22100    2176.2871   -115.87854    1.9691503   -113.90939   -18077.845    4.3622607    4.3622607    4.3622607   -18077.845   -9171.9191     -37983.5   -7078.1148   -40312.844   -8339.4502    1840.9049    83.010849 
   22200    1704.6231   -115.43853    1.5423788   -113.89615    6546.9962    4.3536039    4.3536039    4.3536039    6546.9962   -32216.524   -8277.2348    60134.748    32866.557   -1643.6425    4803.9918    82.517629 
   22300    1471.2521   -115.23632    1.3312198    -113.9051   -30935.562    4.3411963    4.3411963    4.3411963   -30935.562   -63563.095   -29609.165    365.57337   -13594.023    33377.258    962.63139     81.81412 
   22400    2704.2474   -116.34331    2.4468599   -113.89645    47016.086    4.3189294    4.3189294    4.3189294    47016.086    14931.496    71659.207    54457.554   -26379.768    7579.8746   -8519.8405    80.561644 
   22500    1049.4291   -114.90747   0.94954548   -113.95793    6766.3128    4.3220995    4.3220995    4.3220995    6766.3128    5052.4113   -39999.836    55246.363    49684.514   -19736.104    1814.9283     80.73917 
   22600    2340.8387   -116.06096      2.11804   -113.94292   -18460.601     4.353844     4.353844     4.353844   -18460.601   -12707.605   -30236.868    -12437.33    2257.7872    1022.8633   -4526.3907    82.531284 
   22700      2185.18   -115.88162    1.9771968   -113.90443   -5490.9193    4.3611555    4.3611555    4.3611555   -5490.9193   -2892.4936    -3465.626   -10114.638   -6520.2401    -656.5457    5589.2089    82.947772 
   22800    1048.3146   -114.85452   0.94853707   -113.90598    12575.124    4.3554042    4.3554042    4.3554042    12575.124    2429.2416    22386.785    12909.347    25667.136   -355.20914   -4801.3399    82.620038 
   22900    2687.0045   -116.29703    2.4312582   -113.86578    8176.7322    4.3495179    4.3495179    4.3495179    8176.7322    23380.566     21395.93   -20246.299   -6428.9858   -8465.1887   -3232.3983    82.285511 
   23000    1333.8134   -115.10443    1.2068624   -113.89757   -20288.154    4.3388612    4.3388612    4.3388612   -20288.154    30570.173   -28576.571   -62858.064   -20351.167    25931.131     668.0331    81.682171 
   23100    2438.2614   -116.11603    2.2061901   -113.90984    21003.119     4.318982     4.318982     4.318982    21003.119    46221.662    22834.532   -6046.8385    29237.985   -11756.673   -4317.6579    80.564586 
   23200    1922.0561   -115.67388    1.7391167   -113.93476    26604.551    4.3256114    4.3256114    4.3256114    26604.551    22487.529    19238.924      38087.2   -12699.678    15571.846     11483.44    80.936141 
   23300    1107.4433   -114.96952    1.0020379   -113.96748   -51898.473    4.3527993    4.3527993    4.3527993   -51898.473   -45298.985    -61758.26   -48638.172   -21299.745    27132.145   -16784.146    82.471885 
   23400    2514.7497   -116.18342    2.2753984   -113.90803    24403.606    4.3563106    4.3563106    4.3563106    24403.606    22190.239    35239.268     15781.31    3425.2691   -17316.341    79.033067    82.671632 
   23500     1347.637   -115.12584    1.2193702   -113.90647    12172.104    4.3427768    4.3427768    4.3427768    12172.104     52160.26     27353.88   -42997.828    10060.725    31358.941    17000.758    81.903513 
   23600    1655.9577   -115.41368    1.4983453   -113.91533   -15200.573    4.3388531    4.3388531    4.3388531   -15200.573    8997.6524   -20260.115   -34339.256   -17832.361     14640.99   -16332.319    81.681715 
   23700    2319.4171   -116.00308    2.0986573   -113.90442    26563.828    4.3324658    4.3324658    4.3324658    26563.828     35655.69    36065.479    7970.3155    10967.818   -7782.5934    3518.6814     81.32151 
   23800    706.59504   -114.58383   0.63934204   -113.94448    9367.9174    4.3416013    4.3416013    4.3416013    9367.9174    34221.061     3948.041    -10065.35    41552.184    33094.692    4448.9709    81.837021 
   23900    2260.8317   -115.96903     2.045648   -113.92338    2511.6587    4.3531495    4.3531495    4.3531495    2511.6587    27874.674   -16802.657    -3537.041    -19955.41    17782.905    3686.9292    82.491793 
   24000    1828.1004   -115.56667    1.6541037   -113.91256    32398.511    4.3510365    4.3510365    4.3510365    32398.511    17798.474    58130.324    21266.735    24014.211   -7709.0867   -7187.5537    82.371727 
   24100    1356.5592    -115.1408    1.2274432   -113.91336   -33898.039    4.3550502    4.3550502    4.3550502   -33898.039   -55000.292    55717.067   -102410.89     30044.64    50896.891   -13001.848    82.599898 
   24200    2704.0657   -116.33687    2.4466955   -113.89018     5165.897    4.3436623    4.3436623    4.3436623     5165.897   -7529.2552     46811.94   -23784.994   -13565.105   -1761.9427   -7893.8997    81.953621 
   24300    1629.5868   -115.39729    1.4744844    -113.9228    2322.2298    4.3499566    4.3499566    4.3499566    2322.2298    -48695.76     65274.81    -9612.361    6198.7312     9862.252   -12590.547    82.310411 
   24400    2114.0341   -115.81423    1.9128225   -113.90141   -50585.448    4.3731942    4.3731942    4.3731942   -50585.448   -94403.262   -3139.7126    -54213.37    36693.203    47403.615     -2811.22    83.636586 
   24500    2576.3574   -116.21602    2.3311424   -113.88487   -2002.9838    4.3447742    4.3447742    4.3447742   -2002.9838    1531.2927    9898.3696   -17438.614   -23280.649   -8447.5158   -10929.696    82.016576 
   24600    1415.5776   -115.17341    1.2808444   -113.89256     29659.51    4.3156034    4.3156034    4.3156034     29659.51    2301.6472    90404.695   -3727.8128   -5073.5399    20725.939   -15131.699    80.375668 
   24700    2093.2362   -115.82992    1.8940041   -113.93591   -9836.8104    4.3286381    4.3286381    4.3286381   -9836.8104   -65549.839     55161.09   -19121.682    45076.342    43493.343    7519.9747    81.106159 
   24800    1809.3805   -115.58483    1.6371655   -113.94767     18018.01    4.3397787    4.3397787    4.3397787     18018.01   -27900.452     72637.63    9316.8541   -10269.865   -33733.913   -17898.407    81.734001 
   24900    1708.7959    -115.5074    1.5461544   -113.96125   -37322.255    4.3555178    4.3555178    4.3555178   -37322.255   -31389.658   -64881.658   -15695.448   -24134.616    17167.197   -35905.451    82.626506 
   25000    1986.6485   -115.72778    1.7975613   -113.93021   -13030.932    4.3556559    4.3556559    4.3556559   -13030.932   -16520.659     -49685.1    27112.963    24756.335    25353.191   -1741.8938    82.634361 
   25100    1515.0797   -115.29004    1.3708759   -113.91917    20524.979    4.3260323    4.3260323    4.3260323    20524.979   -29647.015    66680.889    24541.064    5581.4914   -50608.403     11179.93    80.959769 
   25200    1466.2208   -115.26165    1.3266674   -113.93499    4678.9794    4.3190349    4.3190349    4.3190349    4678.9794    7193.7447   -9830.3957    16673.589   -27643.187   -2043.4193   -16811.872    80.567545 
   25300    2519.3354   -116.22373    2.2795476   -113.94419   -1305.8523    4.3387498    4.3387498    4.3387498   -1305.8523    14856.034    -51265.67    32492.079    -4908.596   -1423.1755   -25900.959    81.675877 
   25400    1609.4848   -115.41064    1.4562957   -113.95435   -32173.126    4.3528391    4.3528391    4.3528391   -32173.126   -23103.626   -1471.2023    -71944.55    10579.575   -50522.801    32353.108    82.474152 
   25500    1828.8622   -115.58545     1.654793   -113.93066   -11966.593    4.3486344    4.3486344    4.3486344   -11966.593    33563.831   -12969.864   -56493.747   -20092.651   -28473.105    11888.806    82.235378 
   25600    2771.2488   -116.41619    2.5074842   -113.90871    15225.516    4.3464879    4.3464879    4.3464879    15225.516    61865.444   -23729.007    7540.1114    5033.1507    5544.8558   -9545.6033    82.113665 
   25700     1257.109   -115.07431    1.1374587   -113.93685   -29902.106    4.3448697    4.3448697    4.3448697   -29902.106   -53904.643    15092.752   -50894.427    23715.048   -59087.325    37915.631    82.021982 
   25800    2297.9797   -115.99436    2.0792604    -113.9151     27004.52    4.3217625    4.3217625    4.3217625     27004.52    64726.779    28862.093   -12575.313   -28482.898    13201.332    20913.423    80.720286 
   25900    2268.2447   -115.98342    2.0523555   -113.93106    25152.529    4.3280471    4.3280471    4.3280471    25152.529   -21963.025    8316.5577    89104.055    6326.3331   -15910.376   -11372.802    81.072943 
   26000    1320.8081   -115.14333    1.1950949   -113.94823   -38195.527    4.3490807    4.3490807    4.3490807   -38195.527   -74005.784   -2367.8279   -38212.969    37657.505    -84530.03   -4169.2422      82.2607 
   26100    2668.4328   -116.32093    2.4144541   -113.90648    21350.226     4.337018     4.337018     4.337018    21350.226    29615.828   -7055.8395    41490.689     56.03158    33054.821    7743.5256    81.578116 
   26200    1948.6458   -115.69059    1.7631756   -113.92742   -39708.421    4.3419719    4.3419719    4.3419719   -39708.421   -87490.891    20808.927   -52443.299    42.411557   -67403.865    -4987.219    81.857979 
   26300    1435.9633   -115.23276    1.2992898   -113.93347   -25735.424    4.3388045    4.3388045    4.3388045   -25735.424    -93785.24    42737.933   -26158.966    15360.167   -77510.042   -401.67293    81.678967 
   26400    2791.1126   -116.42954    2.5254573   -113.90409    12597.018    4.3268142    4.3268142    4.3268142    12597.018   -5542.6575   -6629.0274    49962.739   -9954.8231    27060.663    -816.6361    81.003677 
   26500    1012.0827   -114.85953    0.9157537   -113.94378   -64908.868     4.347753     4.347753     4.347753   -64908.868    -119838.7    34867.627   -109755.53   -17079.679   -128451.88   -6714.1174    82.185383 
   26600    2490.8471   -116.16469    2.2537708   -113.91092   -7454.3015    4.3385236    4.3385236    4.3385236   -7454.3015   -21759.463    1232.6741   -1836.1159    19366.491   -4045.4465    15875.065    81.663107 
   26700    1900.2729   -115.62242    1.7194069   -113.90301    19607.457    4.3289682    4.3289682    4.3289682    19607.457    36686.551    25425.181   -3289.3624   -1900.2707   -62816.313   -488.57515    81.124717 
   26800    1557.2701   -115.33044    1.4090507   -113.92139   -46406.039    4.3495328    4.3495328    4.3495328   -46406.039   -66861.755    -9150.564   -63205.797   -11717.657   -76114.423    23751.552    82.286358 
   26900    2533.8334   -116.18333    2.2926657   -113.89066    33373.237    4.3417491    4.3417491    4.3417491    33373.237    51099.243    37927.705    11092.762   -10113.685    21387.608    7317.0233     81.84538 
   27000    1312.6865   -115.10082    1.1877463   -113.91308    29094.799    4.3343434    4.3343434    4.3343434    29094.799     13741.28     38440.98    35102.137    10553.242   -109988.09   -1857.8235    81.427284 
   27100    2964.2873   -116.58224    2.6821495   -113.90009   -9544.4726    4.3430056    4.3430056    4.3430056   -9544.4726    22078.062   -45954.391   -4757.0887   -7041.1769    22323.702   -18116.601    81.916458 
   27200    918.18811   -114.75647   0.83079589   -113.92568    57234.873    4.3322405    4.3322405    4.3322405    57234.873    6310.5033    119299.49    46094.624   -19106.492   -79915.866    1196.4808    81.308826 
   27300    1904.5857   -115.65787    1.7233092   -113.93456    3282.2032    4.3495533    4.3495533    4.3495533    3282.2032   -15056.319    40358.772   -15455.844   -4414.1909   -31219.009    4655.8402     82.28752 
   27400    2347.5855   -116.01569    2.1241447   -113.89154   -9519.6391    4.3604226    4.3604226    4.3604226   -9519.6391   -19894.766   -4302.1488   -4362.0026     12035.57    3686.6585   -50.317817    82.905961 
   27500    1239.2657   -115.01674    1.1213136   -113.89542    393.78308    4.3368176    4.3368176    4.3368176    393.78308   -20679.914    53755.872   -31894.609   -3539.7022   -109976.86   -3576.6075    81.566807 
   27600     2487.123   -116.15188    2.2504012   -113.90148    25614.336    4.3354909    4.3354909    4.3354909    25614.336    7657.5024   -8618.3684    77803.875    5173.3815    24514.739     28461.08    81.491973 
   27700    1528.9223   -115.31435     1.383401   -113.93095   -32925.898    4.3512397    4.3512397    4.3512397   -32925.898   -77104.758    43390.139   -65063.075   -3619.6744   -74139.967   -5694.0613     82.38327 
   27800    1851.2252   -115.60347    1.6750274   -113.92845   -3056.3083    4.3394066    4.3394066    4.3394066   -3056.3083    -57369.29    59281.234   -11080.869    7948.3763    -60547.42    3452.3084     81.71298 
   27900    2266.9398   -115.97543    2.0511748   -113.92425    22851.599    4.3449112    4.3449112    4.3449112    22851.599   -4662.6524    34829.587    38387.863   -2234.0429    27201.823    -13746.79    82.024332 
   28000    1610.1943   -115.38336    1.4569377   -113.92642   -21476.789    4.3487941    4.3487941    4.3487941   -21476.789   -88832.225    33574.363   -9172.5031    1846.1875   -83464.344   -349.57679    82.244435 
   28100     2521.766   -116.17085    2.2817469    -113.8891    33635.646    4.3475416    4.3475416    4.3475416    33635.646    5909.3219    35430.559    59567.057   -18430.956    13071.393   -22822.517    82.173399 
   28200    1228.4241   -115.02727    1.1115039   -113.91577   -14995.106    4.3794671    4.3794671    4.3794671   -14995.106   -54004.213    25892.235   -16873.341   -565.26696   -39349.252   -28470.573    83.997004 
   28300    1985.4748   -115.66791    1.7964993   -113.87141   -56639.714    4.3778796    4.3778796    4.3778796   -56639.714   -93112.934   -10487.893   -66318.313    4013.1301   -70275.041    10915.492    83.905694 
   28400    2705.5848   -116.29984      2.44807   -113.85177    52367.326    4.3158957    4.3158957    4.3158957    52367.326     78146.49    12320.908    66634.579    6419.0757    33519.363   -18784.526    80.391996 
   28500    1349.6027   -115.13212    1.2211489   -113.91097   -6032.9419    4.3111602    4.3111602    4.3111602   -6032.9419   -33093.184    88153.846   -73159.488   -8633.2769   -92486.146   -11906.052    80.127664 
   28600    2344.9236   -116.06296    2.1217361   -113.94122   -36738.098    4.3527356    4.3527356    4.3527356   -36738.098   -47687.853    -1550.068   -60976.373   -11965.914   -40066.721    14830.673    82.468267 
   28700    2265.8385   -115.96995    2.0501783   -113.91977   -8452.1007    4.3766638    4.3766638    4.3766638   -8452.1007   -53642.504    33507.676    -5221.474   -11933.788   -5271.0445    2017.3513    83.835808 
   28800    1531.9863   -115.27008    1.3861734   -113.88391   -56652.774      4.39407      4.39407      4.39407   -56652.774   -54767.857   -17304.388   -97886.077     5932.572   -63446.118   -24564.331     84.84005 
   28900    2522.4805   -116.10583    2.2823933   -113.82344    26022.252    4.3727094    4.3727094    4.3727094    26022.252    20694.341    28614.173     28758.24    22980.422    28611.493   -7255.2667     83.60877 
   29000    1137.2195    -114.8611    1.0289801   -113.83212    23123.007    4.3585483    4.3585483    4.3585483    23123.007    6797.2072    49889.853    12681.961    16952.358    -40046.77   -32823.092    82.799094 
   29100    2127.7273   -115.77488    1.9252124   -113.84966    725.38296    4.3588818    4.3588818    4.3588818    725.38296   -6832.2797   -711.00322    9719.4318    6156.3975    2489.6457   -39138.218    82.818102 
   29200    2368.8588   -116.01932    2.1433932   -113.87593    22623.451    4.3378664    4.3378664    4.3378664    22623.451    11267.669    29054.449    27548.235   -16339.502    1529.7505   -12965.744    81.626002 
   29300    1386.5218   -115.19422    1.2545541   -113.93967    5816.6099    4.3380945    4.3380945    4.3380945    5816.6099    10729.482    77068.314   -70347.967   -5258.5068   -48143.278   -1840.2081    81.638876 
   29400    2360.9247   -116.06996    2.1362143   -113.93375   -37415.619    4.3529515    4.3529515    4.3529515   -37415.619    -17568.67   -65248.107   -29430.079    12432.657    8658.5711   -38934.679    82.480539 
   29500    1979.0219   -115.71604    1.7906606   -113.92538   -7529.0291    4.3517917    4.3517917    4.3517917   -7529.0291    31535.589   -39580.112   -14542.564    7399.2113   -20544.379   -6145.7542    82.414624 
   29600    1837.1903   -115.58422    1.6623284   -113.92189   -17816.918    4.3449587    4.3449587    4.3449587   -17816.918   -9922.4548    7673.5024   -51201.802   -8618.3012    -22927.18    14347.703    82.027025 
   29700    1486.8857   -115.27958    1.3453654   -113.93422    4544.7427    4.3318594    4.3318594    4.3318594    4544.7427    1284.2651    6667.3941     5682.569    17425.835     38011.53   -28402.182    81.287365 
   29800    1502.4656    -115.3198    1.3594625   -113.96033    17672.422     4.328589     4.328589     4.328589    17672.422    27991.207   -42669.234    67695.292     24688.48   -878.23216   -30252.647    81.103397 
   29900    2923.2099    -116.6032    2.6449817   -113.95822    11371.025    4.3349668    4.3349668    4.3349668    11371.025    23406.823    5077.0152    5629.2361   -378.63099   -4011.3586   -17553.568    81.462424 
   30000    1018.1846   -114.91013   0.92127486   -113.98886    25281.119    4.3523804    4.3523804    4.3523804    25281.119   -10405.183    14159.804    72088.737    33554.038    17347.522   -28994.545    82.448076 
   30100    1993.0698   -115.72206    1.8033714   -113.91869   -11103.156    4.3785051    4.3785051    4.3785051   -11103.156    -43357.04    23731.718   -13684.145   -5194.7814   -14879.064   -14477.652    83.941663 
   30200    2458.0405   -116.08551    2.2240867   -113.86143   -17222.253    4.3736088    4.3736088    4.3736088   -17222.253   -61250.696    41039.264   -31455.328    3731.1196     7142.457    18907.853    83.660374 
   30300    1352.8748   -115.08694    1.2241095   -113.86283   -3896.7979    4.3489134    4.3489134    4.3489134   -3896.7979   -28636.834    19354.711   -2408.2709    52348.635    44580.309   -5935.7863    82.251207 
   30400    2746.4686    -116.3639    2.4850625   -113.87884     29155.23    4.3152635    4.3152635    4.3152635     29155.23    80.657527    52373.676    35011.355   -16267.468   -9262.2582    16143.713    80.356673 
   30500    2352.5926   -116.05973    2.1286752   -113.93106    21255.038     4.299087     4.299087     4.299087    21255.038    4901.4743    28011.028     30852.61    38145.174   -18815.917   -4635.1227    79.456367 
   30600    1124.6013   -115.02417    1.0175629   -114.00661    -19263.81    4.3343706    4.3343706    4.3343706    -19263.81   -24732.267   -17859.861   -15199.301    70365.889    31141.159   -13524.144    81.428817 
   30700    2071.5915   -115.83843    1.8744195   -113.96401    -28761.01    4.3509746    4.3509746    4.3509746    -28761.01   -50334.421   -15616.763   -20331.847   -23545.534    5725.3184   -508.39135    82.368213 
   30800    1756.5464   -115.53289    1.5893601   -113.94353    29414.334    4.3385245    4.3385245    4.3385245    29414.334    33558.155    36785.731    17899.117    -36147.47   -186.93542    20830.998    81.663156 
   30900    2081.4417    -115.8143    1.8833322   -113.93097    26873.955    4.3405011    4.3405011    4.3405011    26873.955     68479.53    26234.451   -14092.116    43175.787    4814.3539    3191.2806    81.774824 
   31000    2071.1066   -115.81311    1.8739808   -113.93913   -4242.4392    4.3344994    4.3344994    4.3344994   -4242.4392    1431.0426    8294.1093   -22452.469   -16870.262   -1767.1876   -27132.963    81.436074 
   31100    1046.8053   -114.90697   0.94717144    -113.9598    1837.7479    4.3182301    4.3182301    4.3182301    1837.7479      76982.6   -74843.599    3374.2417   -51503.525   -7765.5987    18696.659    80.522519 
   31200    2536.9555   -116.26119    2.2954907    -113.9657     23221.74    4.3302957    4.3302957    4.3302957     23221.74    34343.265    18782.038    16539.918    18478.752    -898.9949    19223.291    81.199372 
   31300    2202.2182   -115.94616    1.9926133   -113.95355   -23074.264    4.3562176    4.3562176    4.3562176   -23074.264   -55501.075   -3651.6237   -10070.095   -14466.768    7444.0152    -26206.79    82.666337 
   31400     1324.822   -115.16368    1.1987268   -113.96495   -3765.6095    4.3309184    4.3309184    4.3309184   -3765.6095    27948.716   -11857.051   -27388.493   -58359.062    8228.9631    4765.7825    81.234406 
   31500    1909.8743   -115.66718    1.7280944   -113.93908     34660.11    4.3056237    4.3056237    4.3056237     34660.11    37073.368     25796.52    41110.442    8395.2856    -878.1146    16197.322    79.819356 
   31600    2023.9453   -115.79551    1.8313083    -113.9642   -2300.1968    4.3215178    4.3215178    4.3215178   -2300.1968   -33655.567   -8227.2604    34982.237    79838.004   -1214.1887   -10542.467    80.706578 
   31700    2710.5162   -116.41434     2.452532   -113.96181    14772.292    4.3285702    4.3285702    4.3285702    14772.292     20707.36    23019.353    590.16483   -19597.421   -10556.139    6371.7416    81.102341 
   31800    1662.2964   -115.48766    1.5040807   -113.98358    4573.0282    4.3437529    4.3437529    4.3437529    4573.0282    11711.234   -52511.681    54519.532    1442.9742     11182.34    15120.537    81.958752 
   31900    1272.7184   -115.11996    1.1515824   -113.96838   -27173.634     4.344803     4.344803     4.344803   -27173.634    -38372.11   -90381.816    47233.025    71420.129    17377.333   -16599.994    82.018206 
   32000    2676.6053   -116.35465    2.4218487    -113.9328    15396.772    4.3206195    4.3206195    4.3206195    15396.772     29612.13     28832.81   -12254.623   -5894.8398   -22153.192   -27840.868     80.65626 
   32100    2219.3146   -115.95725    2.0080825   -113.94916    25007.271    4.3223729    4.3223729    4.3223729    25007.271    11832.116   -9584.0595    72773.757    13713.326   -21102.961    12877.115    80.754491 
   32200    1461.2176   -115.28882    1.3221404   -113.96668    4203.7554    4.3369318    4.3369318    4.3369318    4203.7554    4674.3358   -53812.816    61749.746    52971.201   -6968.7214    25535.959    81.573251 
   32300     1914.191   -115.68764    1.7320003   -113.95564    23040.101    4.3436524    4.3436524    4.3436524    23040.101    26731.948    32734.943    9653.4137    -7574.903     4364.794   -32889.146    81.953064 
   32400    1918.5869   -115.66938    1.7359777    -113.9334    7200.4655    4.3527915    4.3527915    4.3527915    7200.4655     9309.879   -23712.609    36004.126    81.958019   -15638.432   -4640.7093    82.471446 
   32500    1496.7402   -115.28682     1.354282   -113.93254    18757.528    4.3398385    4.3398385    4.3398385    18757.528    50748.261   -27703.481    33227.804    49257.824   -13355.489    45651.062    81.737379 
   32600    2393.7886   -116.07762    2.1659503   -113.91167    17862.661    4.3302962    4.3302962    4.3302962    17862.661    43203.035    8168.3905    2216.5594   -2556.5199    3313.1586   -8919.6993    81.199397 
   32700     2626.887   -116.30798    2.3768626   -113.93112   -7055.7273     4.322142     4.322142     4.322142   -7055.7273    14741.973   -36372.438     463.2838   -601.31187    -1711.354   -5195.6869    80.741552 
   32800    809.22065   -114.71173   0.73219985   -113.97953    33582.006    4.3102615    4.3102615    4.3102615    33582.006    93026.135   -49456.712    57176.596    28341.143   -1145.0914    67252.842    80.077563 
   32900    1681.3959   -115.52544    1.5213624   -114.00407   -5656.8666    4.3350897    4.3350897    4.3350897   -5656.8666     8618.254   -26015.868    427.01457    14223.288   -2958.5109   -453.94777    81.469355 
   33000    2585.9907    -116.2989    2.3398588   -113.95904   -16069.972    4.3477939    4.3477939    4.3477939   -16069.972   -2421.2198    -31999.68   -13789.016   -22481.976    8752.2452   -46320.509    82.187702 
   33100    1466.4631   -115.27183    1.3268867   -113.94494    25295.206    4.3349655    4.3349655    4.3349655    25295.206   -3891.1577    52702.641    27074.134    43457.954    6165.9676    33965.546     81.46235 
   33200    2021.1142    -115.7774    1.8287466   -113.94866   -19986.767    4.3310381    4.3310381    4.3310381   -19986.767   -27403.754   -35472.626    2916.0784    51600.869   -5007.9387    41171.477     81.24114 
   33300    2721.1644   -116.40728    2.4621668   -113.94511    37866.404    4.3128614    4.3128614    4.3128614    37866.404    5156.4549    58418.858      50023.9   -20067.835    8885.7943   -28764.853    80.222559 
   33400    1950.3794   -115.74686    1.7647443   -113.98212   -17490.388     4.324421     4.324421     4.324421   -17490.388   -35061.498   -30659.952    13250.285    58109.491    5508.5126   -19457.677    80.869339 
   33500    1551.4652   -115.37231    1.4037983   -113.96852    -52640.34    4.3481793    4.3481793    4.3481793    -52640.34     -50379.3   -86493.036   -21048.684    25676.612    3560.9903    26564.056    82.209562 
   33600     2217.779    -115.9442    2.0066931   -113.93751   -18723.677    4.3464437    4.3464437    4.3464437   -18723.677   -34968.914   -18280.816   -2921.3002   -57863.869    4115.9411    3684.4789    82.111159 
   33700    2077.7889   -115.80768    1.8800271   -113.92766   -10569.195      4.34809      4.34809      4.34809   -10569.195   -33953.702   -19782.605    22028.721     32611.63    16566.526    -11533.95    82.204496 
   33800    1532.6214   -115.31008     1.386748   -113.92333     -405.161    4.3352442    4.3352442    4.3352442     -405.161   -12018.018   -10508.574    21311.109    21357.065   -5405.6885    27527.552    81.478064 
   33900     1458.585   -115.24111    1.3197584   -113.92135    34519.473    4.3258963    4.3258963    4.3258963    34519.473      28638.1    16974.716    57945.603   -50876.587   -8365.8669    18894.932    80.952134 
   34000    2074.9334   -115.80154    1.8774433   -113.92409   -8680.4016    4.3426276    4.3426276    4.3426276   -8680.4016    8547.1359   -29473.966   -5114.3742    22066.509   -22870.018   -42497.299     81.89507 
   34100    1794.8461   -115.54663    1.6240145   -113.92261     4900.121    4.3390358    4.3390358    4.3390358     4900.121    24017.819   -5276.4943   -4040.9618    12654.252    11430.057    46832.228    81.692031 
   34200    1809.1905   -115.56041    1.6369936   -113.92342     23147.41    4.3403658    4.3403658    4.3403658     23147.41    12314.706    26838.598    30288.926   -20379.086    1201.7438    14065.015    81.767175 
   34300    1813.7074   -115.55921    1.6410806   -113.91813   -17359.193    4.3478275    4.3478275    4.3478275   -17359.193    42966.613   -21206.728   -73837.463    11450.752   -8519.7492   -74843.632    82.189607 
   34400    2234.0183   -115.92771    2.0213867   -113.90633    25906.962    4.3238126    4.3238126    4.3238126    25906.962     92000.02    926.35861   -15205.492    3898.3959    5979.7292     39303.96    80.835215 
   34500    1753.5506   -115.50852    1.5866494   -113.92187    35194.884    4.3208958    4.3208958    4.3208958    35194.884    99711.291   -1965.8437    7839.2038   -11731.836     -2419.75   -17947.197    80.671734 
   34600     1863.065   -115.61649    1.6857403   -113.93075   -7748.2307    4.3359057    4.3359057    4.3359057   -7748.2307    94209.178   -42452.628   -75001.242    2136.8686    1686.6581   -79053.363    81.515364 
   34700    2580.8859   -116.24579    2.3352398   -113.91055    29544.857    4.3379151    4.3379151    4.3379151    29544.857    62328.785    47655.624   -21349.839   -4302.8439    3814.6605    34948.306    81.628751 
   34800    905.71558   -114.76965   0.81951049   -113.95014   -22701.476    4.3439395    4.3439395    4.3439395   -22701.476    117681.13   -61354.726   -124430.83    3691.6923    21192.333   -81712.575    81.969314 
   34900    1899.3164   -115.65867    1.7185414   -113.94013   -26766.536    4.3320126    4.3320126    4.3320126   -26766.536    23636.103   -50988.856   -52946.855   -47833.678    578.48991    -10612.32    81.295991 
   35000    2156.4199   -115.88169    1.9511741   -113.93051    38886.723    4.3095249    4.3095249    4.3095249    38886.723    86727.661    15607.185    14325.322   -24772.939   -1644.4845   -8759.4082     80.03652 
   35100    1835.2907   -115.62111    1.6606096    -113.9605    2392.0605    4.3328645    4.3328645    4.3328645    2392.0605    66469.556   -16803.194    -42490.18   -194.20465    13937.103   -56857.405    81.343962 
   35200    1722.3092    -115.4973    1.5583816   -113.93892   -19281.753    4.3523311    4.3523311    4.3523311   -19281.753   -9258.0546     -12472.3   -36114.903    -6589.363    26774.573     38624.77    82.445274 
   35300    1788.6839   -115.54231    1.6184388   -113.92387    9074.2871    4.3402216    4.3402216    4.3402216    9074.2871    25835.077    29765.772   -28377.987   -15830.697   -30761.282    -2836.948    81.759029 
   35400    2364.7588   -116.04184    2.1396834   -113.90216    5226.7169    4.3337866    4.3337866    4.3337866    5226.7169    17501.569    58649.138   -60470.556    1390.3538    13245.932   -20463.143    81.395908 
   35500     1692.888   -115.45847    1.5317607   -113.92671   -25295.755    4.3317164    4.3317164    4.3317164   -25295.755   -37458.164   -97.319317   -38331.783   -3155.1153    52208.023    31221.539    81.279319 
   35600    1412.0172   -115.23629    1.2776229   -113.95867   -22691.532    4.3201443    4.3201443    4.3201443   -22691.532   -58409.302   -871.56604   -8793.7266   -26631.642   -60089.049    21092.432    80.629647 
   35700    2572.9202   -116.29766    2.3280323   -113.96962     17449.74    4.3203496    4.3203496    4.3203496     17449.74     31292.93    24768.657   -3712.3663   -2142.1992   -23803.525   -10001.306    80.641143 
   35800    2345.5785   -116.09801    2.1223287   -113.97568    -8884.998    4.3404605    4.3404605    4.3404605    -8884.998   -37459.207   -2168.5421    12972.755    5263.9858    42000.664   -4101.2446     81.77253 
   35900    1413.0629   -115.24242     1.278569   -113.96385   -23161.331    4.3484919    4.3484919    4.3484919   -23161.331   -71901.909    32299.376   -29881.458   -15909.872   -38408.522     24013.03    82.227293 
   36000    2304.0105   -116.01471    2.0847171   -113.92999   -15109.181    4.3387192    4.3387192    4.3387192   -15109.181    -18629.94    51732.244   -78429.848    5126.4449   -34558.997   -33158.759    81.674151 
   36100    2296.0348   -115.99334    2.0775005   -113.91584   -3908.1785    4.3257338    4.3257338    4.3257338   -3908.1785   -10893.568     18294.35   -19125.318    16356.092    41539.414   -18160.238    80.943016 
   36200    1863.8459   -115.61539     1.686447   -113.92894    -3544.403    4.3279326    4.3279326    4.3279326    -3544.403   -66695.559    51157.733    4904.6176   -33068.832    -26266.55    22365.779    81.066509 
   36300    1885.6011   -115.64667    1.7061315   -113.94054   -24827.398    4.3431371    4.3431371    4.3431371   -24827.398    1813.2555   -4742.2103   -71553.239    5821.6349   -11247.377   -53825.328    81.923902 
   36400     1773.299    -115.5466    1.6045182   -113.94208   -33436.689    4.3325606    4.3325606    4.3325606   -33436.689    671.48089   -9733.4571    -91248.09    546.90696    14728.511   -58782.153    81.326845 
   36500    1580.8698   -115.37865    1.4304042   -113.94825   -7929.3929     4.311424     4.311424     4.311424   -7929.3929   -65637.679    44192.706   -2343.2063   -39131.749    -26298.43    21496.883    80.142375 
   36600    2161.8549   -115.92446    1.9560918   -113.96836   -3749.5355    4.3139457    4.3139457    4.3139457   -3749.5355    2380.2529    14168.941     -27797.8   -28130.466   -14349.727   -26021.342    80.283078 
   36700     2251.205    -116.0192    2.0369376   -113.98226   -12932.984     4.333145     4.333145     4.333145   -12932.984    3438.8925    23449.249   -65687.093    29290.021    14672.055   -38022.942    81.359761 
   36800     929.0395   -114.82923   0.84061446   -113.98862    2052.0606    4.3336059    4.3336059    4.3336059    2052.0606   -38793.278    69632.479   -24683.019   -27213.242   -2175.5152   -2647.3302    81.385727 
   36900     1391.215   -115.23673    1.2588005   -113.97793   -13376.097    4.3304678    4.3304678    4.3304678   -13376.097   -16486.868   -25878.029    2236.6043   -35359.878    -4538.167    38414.825    81.209051 
   37000    2578.5125   -116.27762    2.3330923   -113.94453   -3174.7817    4.3331723    4.3331723    4.3331723   -3174.7817   -10948.184    21606.107   -20182.268    23042.825    20061.831    14987.419    81.361301 
   37100    1835.2305   -115.60033    1.6605551   -113.93977   -14704.354     4.343887     4.343887     4.343887   -14704.354   -33533.467    2553.0171   -13132.613   -5648.8285   -16155.106   -3466.6936    81.966345 
   37200    1959.7732   -115.69366     1.773244   -113.92042   -14416.145    4.3477099    4.3477099    4.3477099   -14416.145    35276.014   -47153.908   -31370.541   -25859.413   -22129.164    47804.533    82.182938 
   37300    2065.3805   -115.78047    1.8687997   -113.91167   -15001.735    4.3370236    4.3370236    4.3370236   -15001.735   -32527.909    24093.779   -36571.073    21679.638    23649.958    11337.581     81.57843 
   37400     1262.637   -115.07166    1.1424605    -113.9292   -5582.1926    4.3164549    4.3164549    4.3164549   -5582.1926   -46385.861    57624.157   -27984.874    3545.6648    -19433.96   -17231.364    80.423251 
   37500    2837.3286   -116.50151    2.5672746   -113.93423    19008.341    4.3214696    4.3214696    4.3214696    19008.341    50297.031    23589.374   -16861.381   -9657.7826    3796.0103   -167.43677    80.703876 
   37600    2214.0272   -115.94811    2.0032983   -113.94481   -10693.677    4.3451374    4.3451374    4.3451374   -10693.677   -22058.631     11883.49    -21905.89    22413.036    2642.0297    103.90983    82.037143 
   37700    936.94922   -114.80058   0.84777134   -113.95281    3844.5668    4.3414552    4.3414552    4.3414552    3844.5668   -33188.631    99890.727   -55168.395    4586.6807   -13119.808   -3795.8705    81.828759 
   37800    2849.8752   -116.49535     2.578627   -113.91673   -3894.7937    4.3361576    4.3361576    4.3361576   -3894.7937    18125.062     14666.28   -44475.723   -9902.0504    2349.0463   -5135.9856    81.529575 
   37900    1284.5284   -115.09916    1.1622683   -113.93689   -25836.872    4.3341834    4.3341834    4.3341834   -25836.872   -23146.957   -59698.271    5334.6127     22016.51   -9006.2109    18135.988     81.41827 
   38000    1443.9441   -115.24826    1.3065109   -113.94175    11594.753     4.322953     4.322953     4.322953    11594.753    12057.901    50428.045   -27701.686    -5201.372   -3744.5897    -12718.27     80.78701 
   38100    2812.9406    -116.4751    2.5452078    -113.9299    11883.512    4.3343469    4.3343469    4.3343469    11883.512    7016.3386    52101.127   -23466.929   -484.80916    1126.0061   -19362.239    81.427483 
   38200     1426.291   -115.24617    1.2905381   -113.95563   -33437.686    4.3340708    4.3340708    4.3340708   -33437.686   -94196.071   -22326.652    16209.664    32151.763     8718.835    17379.089    81.411919 
   38300    1571.1829   -115.36358    1.4216393   -113.94194     28949.68    4.3088827    4.3088827    4.3088827     28949.68   -40294.463    108561.73    18581.771    3602.7791   -3845.9008    5193.9464    80.000739 
   38400    2178.4675   -115.92257    1.9711232   -113.95145    4082.2112    4.3209177    4.3209177    4.3209177    4082.2112    38017.539    6179.9601   -31950.866   -10373.966    4944.4681    -64296.14    80.672956 
   38500     1391.557   -115.21605      1.25911   -113.95694    4562.3558    4.3360541    4.3360541    4.3360541    4562.3558   -46793.828    79644.448   -19163.552    24334.942    10628.181   -18198.711    81.523734 
   38600    1900.6318   -115.66493    1.7197316    -113.9452   -19126.893    4.3435947    4.3435947    4.3435947   -19126.893   -77694.572    20322.008   -8.1149895   -7883.4873   -23084.977    15562.117    81.949796 
   38700     2495.949   -116.18743    2.2583871   -113.92904   -19036.138    4.3380981    4.3380981    4.3380981   -19036.138    4850.7353   -30518.785   -31440.364   -15233.224     7720.198    -22854.88     81.63908 
   38800    1759.6564   -115.53063    1.5921741   -113.93846    17103.329    4.3159848    4.3159848    4.3159848    17103.329   -38845.098    92894.391   -2739.3058    19635.144    21036.178   -25755.061    80.396978 
   38900    1749.8194   -115.53757    1.5832734    -113.9543    13002.224    4.3191612    4.3191612    4.3191612    13002.224   -4639.3698    15786.068    27859.973    29532.931   -9466.5614    34983.132    80.574615 
   39000    2230.6856    -115.9704    2.0183712   -113.95203    -1117.675     4.345158     4.345158     4.345158    -1117.675    6803.3575    27559.123   -37715.506   -28691.099     7304.583    37177.975    82.038312 
   39100    1913.3979   -115.66209    1.7312826   -113.93081   -9016.6392    4.3562708    4.3562708    4.3562708   -9016.6392   -22419.536    52201.668    -56832.05    23799.608    15707.551   -15134.138    82.669366 
   39200    1734.7355     -115.498    1.5696251   -113.92837   -13865.532    4.3368412    4.3368412    4.3368412   -13865.532   -20608.571   -25439.123    4451.0976    43587.153    -8916.811     40527.87    81.568139 
   39300    2199.5007    -115.9123    1.9901544   -113.92214    28870.231    4.3054474    4.3054474    4.3054474    28870.231    20212.134    22772.268    43626.292   -109.20196    13399.143    57796.023    79.809549 
   39400    1950.1672   -115.71163    1.7645522   -113.94707    17127.468    4.3033013    4.3033013    4.3033013    17127.468    3122.6464    24975.695    23284.063   -340.53954    26239.621    -16881.91    79.690266 
   39500    1621.5561   -115.43989     1.467218   -113.97267     204.4874    4.3339039    4.3339039    4.3339039     204.4874    10480.857   -46873.895      37006.5    54049.994   -14432.891   -4326.5109    81.402514 
   39600    2156.3952   -115.88311    1.9511517   -113.93196   -22300.912    4.3544846    4.3544846    4.3544846   -22300.912    -28114.42   -18092.672   -20695.645   -5783.2221    17214.537    14953.218    82.567719 
   39700    1048.7814    -114.8768   0.94895944   -113.92784   -13938.785    4.3368994    4.3368994    4.3368994   -13938.785   -55121.986    44801.106   -31495.476   -25587.161    32537.332    5060.5101    81.571422 
   39800    2312.2252   -115.99099      2.09215   -113.89884    28606.723    4.3119626    4.3119626    4.3119626    28606.723    85217.726   -3408.0276    4010.4704    16938.869   -26006.296   -34655.177    80.172412 
   39900    1935.6902   -115.67776    1.7514532   -113.92631    13977.041    4.3134495    4.3134495    4.3134495    13977.041    24180.281   -15364.678    33115.521   -15351.273    4100.4151   -16775.789    80.255382 
   40000    1359.5547   -115.18944    1.2301536   -113.95929    16645.451    4.3267615    4.3267615    4.3267615    16645.451   -14711.521    35862.264    28785.611   -28987.533    45892.506    11762.795     81.00072 
   40100     2242.675   -115.97014    2.0292195   -113.94092    7521.6694    4.3496447    4.3496447    4.3496447    7521.6694    87088.418    -38653.28    -25870.13    15053.028    9643.7167   -25073.171    82.292709 
   40200    1861.6105   -115.61657    1.6844243   -113.93214   -17991.713    4.3462083    4.3462083    4.3462083   -17991.713   -8352.9878   -47112.652    1490.5012   -5665.9185   -9979.1842   -25038.994     82.09782 
   40300    1225.8986   -115.03044    1.1092188   -113.92122    30639.883    4.3129492    4.3129492    4.3129492    30639.883   -9044.7743    77913.238    23051.186   -22597.795    66704.169    8427.1747    80.227459 
   40400    2214.1836   -115.92016    2.0034399   -113.91672    13703.212    4.3151487    4.3151487    4.3151487    13703.212    35489.562   -15379.738    20999.812     13425.94    10316.161   -10776.974    80.350261 
   40500    1589.4057   -115.37511    1.4381277   -113.93698   -36476.862    4.3347197    4.3347197    4.3347197   -36476.862   -36732.352   -75077.071    2378.8373    6445.0336   -13800.175   -20205.367    81.448493 
   40600    2192.2495   -115.90808    1.9835934   -113.92449   -19077.753    4.3428326    4.3428326    4.3428326   -19077.753   -65619.404    2363.0341    6023.1115   -19185.871    30544.601    1189.7969     81.90667 
   40700    1843.7198   -115.58573    1.6682364    -113.9175   -23768.483    4.3494006    4.3494006    4.3494006   -23768.483    68.320729   -36338.668   -35035.102    18927.339    10373.267    30880.058    82.278852 
   40800    1329.2044   -115.12836    1.2026921   -113.92567   -13644.784    4.3302245    4.3302245    4.3302245   -13644.784    -13595.36   -39722.159    12383.167    29901.803   -10959.426   -3974.4666    81.195365 
   40900    2810.1052   -116.44433    2.5426423   -113.90169    32239.256    4.3014056    4.3014056    4.3014056    32239.256   -17812.245    51543.289    62986.723    5500.8012   -42366.615   -10118.236    79.584994 
   41000    1861.8848   -115.63118    1.6846725    -113.9465    10555.045    4.3062966    4.3062966    4.3062966    10555.045    44587.383   -7438.2546   -5483.9917   -1690.0526    13128.546    57290.021    79.856782 
   41100    1717.8134   -115.52256    1.5543137   -113.96825   -16292.971    4.3299484    4.3299484    4.3299484   -16292.971   -19639.964   -66629.902    37390.953    24781.427   -9249.5582    27217.099    81.179833 
   41200     2602.943   -116.29675    2.3551975   -113.94155    2241.5964    4.3426046    4.3426046    4.3426046    2241.5964   -13120.456    19149.791     695.4543   -4719.5507   -42059.017   -13498.571    81.893768 
   41300    1260.1641   -115.08032     1.140223   -113.94009   -12276.943    4.3409638    4.3409638    4.3409638   -12276.943   -10799.387   -33165.828     7134.385   -8335.2978   -2885.7178    45709.553    81.800979 
   41400    1765.8193    -115.5279    1.5977504   -113.93015    3993.6544    4.3255572    4.3255572    4.3255572    3993.6544   -29272.966   -42380.628    83634.557    20408.904    14770.592   -14360.625    80.933103 
   41500    2920.5075    -116.5643    2.6425366   -113.92176    13117.005    4.3128541    4.3128541    4.3128541    13117.005    -11107.24     31731.87    18726.386    7727.4144     5177.629   -10400.669    80.222148 
   41600    1336.1593   -115.16988     1.208985   -113.96089    21554.533     4.307988     4.307988     4.307988    21554.533    43938.623   -25784.878    46509.854   -2470.1538   -10098.802    62176.614    79.950919 
   41700    1815.6059   -115.62038    1.6427984   -113.97758   -2740.0507     4.336669     4.336669     4.336669   -2740.0507   -39966.324   -37096.945    68843.117    3635.6315   -1863.0338    7365.4273    81.558423 
   41800    2582.9855   -116.25951    2.3371395   -113.92237    -33848.96    4.3590937    4.3590937    4.3590937    -33848.96   -45713.959   -39143.991   -16688.931    2351.2501     22863.53    2259.8172    82.830183 
   41900    1129.3808   -114.94144    1.0218875   -113.91955    3974.2787    4.3329187    4.3329187    4.3329187    3974.2787    17422.632   -67438.204    61938.408    420.30848     1564.239    68397.627    81.347013 
   42000    2446.1397   -116.10648    2.2133186   -113.89316    38441.165    4.3107874    4.3107874    4.3107874    38441.165    35914.501    8121.7772    71287.216   -11547.237    -2331.181   -11527.498    80.106881 
   42100    2229.1196   -115.93557    2.0169542   -113.91861    17117.895    4.3148321    4.3148321    4.3148321    17117.895    21723.083   -6383.4914    36014.094   -656.76847    12167.736    21816.133    80.332577 
   42200    1002.7392    -114.8677   0.90729948    -113.9604   -15613.046    4.3287741    4.3287741    4.3287741   -15613.046    13462.625   -52592.465   -7709.2965    14021.077    13195.555    67989.562    81.113806 
   42300    2561.6451   -116.24745    2.3178304   -113.92962    1449.4165     4.333671     4.333671     4.333671    1449.4165   -26390.016    31337.244   -598.97877    422.68744   -7919.7983    -14268.68    81.389392 
   42400    1726.4024   -115.49702    1.5620852   -113.93493    2165.1881    4.3293789    4.3293789    4.3293789    2165.1881    43670.139   -13235.721   -23938.854   -8666.8304   -36659.488     40806.46    81.147809 
   42500    1782.4162   -115.55146    1.6127676    -113.9387   -17005.072    4.3233939    4.3233939    4.3233939   -17005.072    24932.656   -60320.782   -15627.091   -11605.988    21614.354    54869.126    80.811729 
   42600    2704.0895   -116.35962     2.446717    -113.9129    34769.551    4.3143875    4.3143875    4.3143875    34769.551    34583.564    38734.689    30990.401    5456.9807   -9585.6798   -21346.459    80.307747 
   42700    1280.8075   -115.10881    1.1589015    -113.9499   -110.78643    4.3211372    4.3211372    4.3211372   -110.78643    28649.845   -20710.209   -8271.9953    2446.9041   -38197.417     61798.37    80.685252 
   42800    1878.2221   -115.64283    1.6994548   -113.94338   -5115.6184    4.3346599    4.3346599    4.3346599   -5115.6184    30356.577   -36380.297   -9323.1343   -12444.425    10001.961    40644.792    81.445121 
   42900    2646.9517   -116.30923    2.3950175   -113.91421    12636.253     4.335637     4.335637     4.335637    12636.253    4685.2953    2231.2061    30992.259    5924.0661     1044.919   -18884.027    81.500211 
   43000    936.53761   -114.78652   0.84739891   -113.93912   -11207.008    4.3396131    4.3396131    4.3396131   -11207.008    82776.993   -43709.305   -72688.712   -563.11698   -9188.7604    68613.803    81.724643 
   43100    2671.2867   -116.32615    2.4170363   -113.90911   -2491.1196    4.3257749    4.3257749    4.3257749   -2491.1196   -2456.7271   -23939.242     18922.61   -369.55343   -19889.342    13056.223    80.945323 
   43200    1858.5412   -115.59443    1.6816471   -113.91278    38184.628    4.3080722    4.3080722    4.3080722    38184.628    59815.978    24810.564    29927.341   -10325.331    20480.159   -19101.244    79.955605 
   43300    1641.2207   -115.42906     1.485011   -113.94405    -5827.914    4.3284626    4.3284626    4.3284626    -5827.914    70326.139    -31831.49   -55978.391   -8223.4033   -13913.613    35134.916    81.096294 
   43400    2572.4077   -116.23654    2.3275686   -113.90897   -15811.062    4.3466414    4.3466414    4.3466414   -15811.062   -33666.641   -59307.759    45541.215    25732.244   -6609.2182    4446.4488    82.122365 
   43500    1330.5062   -115.11837      1.20387    -113.9145   -6238.5892    4.3441248    4.3441248    4.3441248   -6238.5892    9866.0624   -3374.7817   -25207.048   -491.06796    17563.086   -32941.397    81.979803 
   43600    2525.1157   -116.16709    2.2847778   -113.88232   -5802.8544    4.3396577    4.3396577    4.3396577   -5802.8544    4975.8115    33195.438   -55579.812   -3311.8888     30897.89    2397.4734    81.727165 
   43700    1875.0913   -115.58501     1.696622   -113.88839    2808.2825    4.3247987    4.3247987    4.3247987    2808.2825   -62799.302    38067.003    33157.146    29167.122   -195.54804    7073.3572    80.890531 
   43800    1666.6332   -115.42697    1.5080048   -113.91897    9183.4318     4.323837     4.323837     4.323837    9183.4318   -12975.519    41006.944   -481.12913    10616.166   -13405.396   -23707.767    80.836581 
   43900    2813.1264   -116.46112    2.5453758   -113.91575    16832.422    4.3400216    4.3400216    4.3400216    16832.422    10610.909    56007.582   -16121.226    6770.5422    4063.7769   -6609.2741    81.747723 
   44000    1030.7198   -114.85335   0.93261693   -113.92073    2646.3764    4.3513219    4.3513219    4.3513219    2646.3764   -20648.868   -28062.997    56650.994    20106.225   -22854.183     21794.63    82.387939 
   44100    2421.8834   -116.07406     2.191371   -113.88269    -13286.01     4.347176     4.347176     4.347176    -13286.01   -40711.223   -10299.032    11152.226   -18943.858   -10338.315   -4849.9946    82.152665 
   44200     2581.991   -116.21837    2.3362397   -113.88213   -22561.619     4.334787     4.334787     4.334787   -22561.619   -34147.162   -10822.639   -22715.056    16120.325    17923.701    29892.065    81.452289 
   44300    976.80625   -114.80085   0.88383483   -113.91701   -1075.3775    4.3251895    4.3251895    4.3251895   -1075.3775   -58127.699   -18273.367    73174.933    19152.057    888.78311    37437.369    80.912465 
   44400    1701.7565   -115.48286     1.539785   -113.94308   -1321.1827    4.3338737    4.3338737    4.3338737   -1321.1827   -67516.812    20652.723    42900.541   -30179.586     5077.092   -17793.598    81.400817 
   44500    1975.4411   -115.73786    1.7874206   -113.95044   -6288.1858     4.327921     4.327921     4.327921   -6288.1858   -7121.6748    22811.058    -34553.94    -17605.74   -12363.405   -43240.483    81.065859 
   44600    2134.9155   -115.88765    1.9317164   -113.95593    18567.565    4.3040317    4.3040317    4.3040317    18567.565   -3667.3114    14332.173    45037.834    52693.901   -1940.9442    13039.193    79.730847 
   44700     1946.653    -115.7393    1.7613725   -113.97792   -15288.796     4.314003     4.314003     4.314003   -15288.796   -35998.496   -57712.144    47844.253    21927.865    1254.4432    6463.7296    80.286279 
   44800    1319.6011   -115.18525    1.1940028   -113.99124   -3762.5831    4.3252101    4.3252101    4.3252101   -3762.5831    34617.666   -8667.3507   -37238.065   -34725.461   -16383.694   -61687.802    80.913619 
   44900    2520.5671   -116.23803    2.2806621   -113.95737    232.12432    4.3426104    4.3426104    4.3426104    232.12432   -26138.005    16764.123    10070.255     22784.68    7952.8965   -3061.3142    81.894099 
   45000    2296.5284   -116.00693    2.0779472   -113.92899   -24872.331    4.3472455    4.3472455    4.3472455   -24872.331   -34581.445   -7781.4951   -32254.054    12596.737   -4931.7608   -12851.906    82.156608 
   45100     1242.039   -115.04698     1.123823   -113.92316    15716.344    4.3270941    4.3270941    4.3270941    15716.344    31090.041   -5181.0318    21240.021   -29776.574   -2585.4707   -64375.342    81.019397 
   45200    2491.3754   -116.16003    2.2542488   -113.90579   -12260.607    4.3278201    4.3278201    4.3278201   -12260.607     16718.93   -30822.606   -22678.145    6154.2993   -4859.6803    66124.866    81.060188 
   45300    1766.6147   -115.52288    1.5984701   -113.92441   -5069.3461    4.3236555    4.3236555    4.3236555   -5069.3461    38610.016   -42182.268   -11635.787   -5307.8825    3446.4452     3639.493    80.826401 
   45400    1347.8874   -115.16198    1.2195968   -113.94238    20041.492    4.3148728    4.3148728    4.3148728    20041.492    40328.273   -11889.109    31685.311   -13207.545   -8670.4583    -89238.61    80.334851 
   45500    2625.7633   -116.31588    2.3758458   -113.94003   -9836.2959    4.3361176    4.3361176    4.3361176   -9836.2959   -35134.703   -19154.355     24780.17   -13382.097   -7144.8489    41973.282    81.527315 
   45600    1816.2652   -115.59401    1.6433949   -113.95061    -3849.348    4.3278666    4.3278666    4.3278666    -3849.348    43357.328   -84268.125    29362.754    4519.5796    8845.9645   -55477.388    81.062801 
   45700     1576.086   -115.37688    1.4260758   -113.95081     8734.427    4.3120318    4.3120318    4.3120318     8734.427     49166.45   -56476.116    33512.947   -9762.3819   -5847.5289   -59497.044    80.176273 
   45800    1601.6095   -115.41945    1.4491699   -113.97028   -21501.577    4.3182856    4.3182856    4.3182856   -21501.577   -56536.557   -211.26495   -7756.9089   -24840.013   -3587.0005    52071.811    80.525623 
   45900     2225.878   -115.99382    2.0140212    -113.9798    1751.9217    4.3145331    4.3145331    4.3145331    1751.9217   -14227.283   -1638.0704    21121.118    5339.4675   -6201.6278    -26518.59    80.315877 
   46000    2681.9437   -116.40212     2.426679   -113.97544    19482.658    4.3270714    4.3270714    4.3270714    19482.658    41654.515   -39734.075    56527.534   -9711.4154    4788.9014   -12000.201    81.018127 
   46100    1184.4588   -115.06683    1.0717232    -113.9951   -23289.474    4.3323753    4.3323753    4.3323753   -23289.474   -22006.644   -82962.178      35100.4    -16483.89   -8545.1232    44100.722    81.316413 
   46200    1791.9868   -115.58288    1.6214273   -113.96145    35091.947    4.3206029    4.3206029    4.3206029    35091.947    17313.046    3578.5384    84384.256    1084.9366   -9511.9644    9467.9755    80.655328 
   46300     2051.968    -115.8075    1.8566638   -113.95083    12820.312    4.3304754    4.3304754    4.3304754    12820.312    76196.882   -51375.306     13639.36   -948.27505     976.3096   -44700.302    81.209481 
   46400    1614.2027   -115.40167    1.4605645   -113.94111   -26219.728    4.3430608    4.3430608    4.3430608   -26219.728   -36863.511   -79303.226    37507.553   -10610.682    909.53586   -4417.9416    81.919581 
   46500    2611.0319   -116.26893    2.3625165   -113.90641    3822.9827    4.3296931    4.3296931    4.3296931    3822.9827   -831.39399   -20576.879     32877.22    25637.534    5095.3924   -5539.2656    81.165477 
   46600    2185.7345   -115.89455    1.9776985   -113.91685   -13482.137    4.3290051    4.3290051    4.3290051   -13482.137    30718.427   -44648.357   -26516.482   -23520.986   -7610.5473   -57398.852    81.126791 
   46700    1585.4699   -115.37098    1.4345665   -113.93642   -35851.462    4.3355223    4.3355223    4.3355223   -35851.462   -57876.343   -56579.734    6901.6922   -51781.403   -5605.6778   -6391.9459    81.493742 
   46800    2488.7385   -116.17248    2.2518629   -113.92062    17890.925    4.3201437    4.3201437    4.3201437    17890.925    12809.949    46773.753   -5910.9263     37023.66    6681.5522    10395.603    80.629615 
   46900    1521.4565   -115.32376    1.3766459   -113.94711   -318.23431    4.3241028    4.3241028    4.3241028   -318.23431    14850.079   -22227.312    6422.5292   -45741.182    5019.1189   -15549.914    80.851488 
   47000    1035.6089   -114.89802   0.93704066   -113.96098   -46486.017    4.3353687    4.3353687    4.3353687   -46486.017    -63785.92   -84035.849    8363.7196   -97426.793    6599.7964    330.83964    81.485086 
   47100    2871.1131   -116.51837    2.5978435   -113.92053    2403.6235    4.3327223    4.3327223    4.3327223    2403.6235   -18743.744    77276.809   -51322.195    35444.427    1721.8397   -3184.6599    81.335955 
   47200    1348.1467   -115.15882    1.2198315   -113.93898   -34452.462    4.3485467    4.3485467    4.3485467   -34452.462   -55286.036   -41767.809   -6303.5398   -62114.114    2440.9347   -28091.973      82.2304 
   47300    1839.9476   -115.57576    1.6648232   -113.91093   -23364.272    4.3417033    4.3417033    4.3417033   -23364.272   -34504.979   -50201.587    14613.749   -46558.364   -1168.7821   -1140.9879    81.842792 
   47400    2261.0548   -115.93713    2.0458499   -113.89128   -12550.751    4.3357787    4.3357787    4.3357787   -12550.751   -2273.4792   -16290.605   -19088.169    37423.585   -12886.396    11446.655    81.508204 
   47500    1814.9232   -115.54621    1.6421807   -113.90403   -36680.937    4.3459554    4.3459554    4.3459554   -36680.937   -40828.673   -85657.388     16443.25   -22570.484    29592.107   -2391.2125    82.083489 
   47600     2537.961   -116.18889    2.2964004   -113.89249   -22195.212    4.3397545    4.3397545    4.3397545   -22195.212   -24910.549   -42267.393    592.30565   -25479.636   -6326.8539   -6730.7395    81.732633 
   47700    2116.4727    -115.8172    1.9150289   -113.90217   -21690.874    4.3264744    4.3264744    4.3264744   -21690.874   -46685.182    2239.0744   -20626.514    28581.389   -27620.834    19505.114    80.984595 
   47800    1951.9204   -115.69378    1.7661386   -113.92764    6647.6772    4.3322282    4.3322282    4.3322282    6647.6772   -18744.447    -43079.77    81767.248   -38031.283    14866.128    5177.5055    81.308131 
   47900    2915.0599   -116.54466    2.6376075   -113.90706   -801.16807    4.3394164    4.3394164    4.3394164   -801.16807   -37074.727    1146.3508    33524.872    7598.6582   -5161.2977   -10811.079    81.713532 
   48000    860.85983   -114.70375   0.77892407   -113.92482    33646.927    4.3242841    4.3242841    4.3242841    33646.927   -58618.673    47596.267    111963.19   -1446.1116    -20632.99    10833.013    80.861662 
   48100    2481.4069   -116.15907    2.2452291   -113.91384    6507.8904    4.3342388    4.3342388    4.3342388    6507.8904    7389.5311   -27044.253    39178.394   -38817.449    15970.948   -12691.969    81.421387 
   48200    1791.7272   -115.54875    1.6211925   -113.92755    -5736.236    4.3300768    4.3300768    4.3300768    -5736.236   -44317.275   -48818.725    75927.292    43391.045    2114.4313   -17866.898    81.187058 
   48300    1284.0613   -115.10304    1.1618457   -113.94119    4711.4677     4.310471     4.310471     4.310471    4711.4677   -16728.608    9834.6528    21028.358    33992.417   -29814.731    655.93769    80.089242 
   48400    2858.8883    -116.5266    2.5867822   -113.93982   -3774.7163    4.3335844    4.3335844    4.3335844   -3774.7163   -3039.7229   -11969.619    3685.1928   -13287.503   -15857.825   -4953.2557    81.384514 
   48500    1160.3998   -114.98185    1.0499542   -113.93189   -42461.212    4.3595085    4.3595085    4.3595085   -42461.212   -38596.437   -102302.11    13514.916    49730.163    7983.9737   -15113.604    82.853828 
   48600    2229.0305   -115.90878    2.0168736    -113.8919   -23747.653    4.3533793    4.3533793    4.3533793   -23747.653   -21307.599   -12136.008   -37799.353   -6170.4311   -16839.664   -11413.448    82.504856 
   48700    2078.5329   -115.75807    1.8807003   -113.87737    -21057.65      4.34227      4.34227      4.34227    -21057.65    5232.6997   -54606.234   -13799.415   -21889.619   -7858.9647    6731.4776    81.874839 
   48800    1670.5201   -115.41368    1.5115217   -113.90216   -17032.068    4.3316914    4.3316914    4.3316914   -17032.068   -13432.328   -62737.115     25073.24    25456.121    9232.5138   -7335.2774     81.27791 
   48900    2293.8219   -115.97108    2.0754983   -113.89558    35852.094    4.3180902    4.3180902    4.3180902    35852.094   -12260.531    58123.432    61693.382   -18696.709    27627.522   -6377.1041    80.514693 
   49000    1694.1388   -115.47899    1.5328924    -113.9461   -7152.7011    4.3376525    4.3376525    4.3376525   -7152.7011   -15158.805   -39522.456    33223.158   -26903.064   -9943.2999   -4011.9122    81.613928 
   49100    2565.7203   -116.22274    2.3215177   -113.90122   -33075.283    4.3604457    4.3604457    4.3604457   -33075.283   -35765.519   -37601.905   -25858.424    15923.573    20174.697   -3917.2481    82.907279 
   49200      1579.45   -115.31334    1.4291195   -113.88422   -5401.2434     4.350724     4.350724     4.350724   -5401.2434   -28365.417   -27485.783     39647.47   -26181.849    58199.345    10827.343    82.353982 
   49300    2490.5595   -116.12382    2.2535106   -113.87031   -13528.155    4.3373459    4.3373459    4.3373459   -13528.155   -16723.508   -60281.612    36420.656   -32354.038   -6505.6114    5654.7811    81.596621 
   49400     1963.743   -115.66519     1.776836   -113.88835   -12926.986    4.3330153    4.3330153    4.3330153   -12926.986   -5163.3583    31810.569   -65428.169    12383.746    48569.666   -24301.102    81.352454 
   49500    1461.7378   -115.22764     1.322611   -113.90503    10336.751    4.3340244    4.3340244    4.3340244    10336.751   -28018.028    40441.966    18586.313    -22405.44    46946.643   -7162.7026    81.409308 
   49600     2113.996   -115.81988     1.912788   -113.90709    7218.7759    4.3507054    4.3507054    4.3507054    7218.7759   -47587.621    50913.938    18330.011   -40527.324   -21895.426     -10161.6    82.352928 
   49700    1273.8986    -115.0641    1.1526502   -113.91145   -12476.331     4.353822     4.353822     4.353822   -12476.331   -86082.619    120261.62   -71607.997    16414.154    68492.608   -33057.777     82.53003 
   49800     1727.749   -115.45602    1.5633036   -113.89272    2210.7519    4.3341737    4.3341737    4.3341737    2210.7519   -48702.352    25939.006    29395.602    -21977.96    8932.4493    -25998.16    81.417718 
   49900    1730.4764   -115.46459    1.5657714   -113.89882    28152.207     4.317378     4.317378     4.317378    28152.207   -49051.878    31851.038    101657.46   -48091.554    7142.6502   -20893.918    80.474857 
   50000    1675.0607    -115.4436    1.5156302   -113.92797    5992.5696    4.3318657    4.3318657    4.3318657    5992.5696   -62385.681    84271.261    -3907.871    9118.2104    77996.442   -2866.5192    81.287721 
   50100    2298.5203   -115.98698    2.0797495   -113.90723   -510.87124    4.3534672    4.3534672    4.3534672   -510.87124    13764.847   -36817.614    21520.154   -15590.334   -26087.431   -22875.601    82.509856 
   50200    1090.2768   -114.88252   0.98650537   -113.89602   -6205.5884    4.3571021    4.3571021    4.3571021   -6205.5884   -49069.689    5704.0308    24748.893   -39733.565    53240.423   -4275.2618    82.716702 
   50300    2419.3206   -116.05762    2.1890521   -113.86857    27275.731    4.3370482    4.3370482    4.3370482    27275.731    9889.8747    46754.471    25182.847    8928.5781    24762.835    7542.6037    81.579821 
   50400     2118.395   -115.79463    1.9167683   -113.87786    43969.247    4.3187246    4.3187246    4.3187246    43969.247    68985.284    54407.048    8515.4103   -28621.742    4935.3917    -13534.11    80.550185 
   50500    876.58357     -114.727   0.79315124   -113.93385    -15148.59    4.3295699    4.3295699    4.3295699    -15148.59   -58389.451    72387.808   -59444.128   -41686.557    90790.963   -1546.1547    81.158549 
   50600     3357.159   -116.93405     3.037628   -113.89643   -13872.114    4.3460003    4.3460003    4.3460003   -13872.114   -16487.642   -8288.3339   -16840.367    13944.442   -28650.124    -855.4471    82.086031 
   50700    1524.5867    -115.2844    1.3794781   -113.90493   -22664.975    4.3597816    4.3597816    4.3597816   -22664.975   -65578.652    39436.998   -41853.271   -27746.889    54236.422    6632.2023      82.8694 
   50800    1384.9106   -115.15172    1.2530962   -113.89862    -25546.93    4.3531589    4.3531589    4.3531589    -25546.93   -49267.305    33183.554   -60557.038   -27972.142    37189.782   -20291.496     82.49233 
   50900    2712.6531   -116.34377    2.4544656    -113.8893    46572.225    4.3066598    4.3066598    4.3066598    46572.225    86623.754    12830.581     40262.34    15157.805    -14249.55   -14670.346    79.876994 
   51000    1415.9021   -115.20071     1.281138   -113.91957    48493.718    4.2851928    4.2851928    4.2851928    48493.718   -25420.733    56290.403    114611.49   -16927.399    88331.433    5128.4724     78.68847 
   51100    1721.4249   -115.52338    1.5575815   -113.96579   -18911.059    4.3222867    4.3222867    4.3222867   -18911.059   -37006.848   -27103.066    7376.7384   -39523.885    33444.005   -10627.532    80.749662 
   51200    2617.4852   -116.28904    2.3683556   -113.92069   -472.18823    4.3467622    4.3467622    4.3467622   -472.18823   -11319.697   -33462.088     43365.22    13889.029   -14989.353   -19856.225     82.12921 
   51300    1206.6651   -115.00602    1.0918159    -113.9142   -2921.2858    4.3529809    4.3529809    4.3529809   -2921.2858    -48978.13    4549.5137    35664.759   -27002.572    70660.361   -5232.8295    82.482209 
   51400     2294.943   -115.95859    2.0765127   -113.88208   -10446.166    4.3490749    4.3490749    4.3490749   -10446.166   -27369.484   -32442.474     28473.46   -51594.365   -12824.363    5974.1863    82.260372 
   51500    2270.1183   -115.93915    2.0540507    -113.8851    759.23516    4.3178357    4.3178357    4.3178357    759.23516   -36720.812    35631.533    3366.9851    6304.5795    54953.238   -2648.8856    80.500453 
   51600    1557.0396   -115.31895    1.4088421   -113.91011   -8262.9784    4.2984068    4.2984068    4.2984068   -8262.9784   -39359.857    41130.469   -26559.548    -17472.46    64617.662   -14477.825    79.418659 
   51700    2114.7354   -115.85368     1.913457   -113.94023   -2612.4383    4.3181975    4.3181975    4.3181975   -2612.4383   -8429.0009   -46035.535     46627.22   -40321.904   -32588.748    21228.003    80.520692 
   51800    1855.8703   -115.62186    1.6792304   -113.94263   -39118.621    4.3444117    4.3444117    4.3444117   -39118.621   -36674.307   -18820.701   -61860.856    6981.5745    74536.715    38473.096    81.996049 
   51900    2392.9343   -116.08272    2.1651773   -113.91754   -35882.922     4.352586     4.352586     4.352586   -35882.922   -52533.293   -26238.363   -28877.108   -9303.1546    9640.2842   -13316.954    82.459764 
   52000     1220.013   -115.02261    1.1038934   -113.91872   -62018.717    4.3442439    4.3442439    4.3442439   -62018.717   -62128.968   -73445.681   -50481.502   -48505.462   -24914.905    81.787328    81.986547 
   52100     2261.544   -115.93851    2.0462925   -113.89221    43.764623    4.3148007    4.3148007    4.3148007    43.764623    3122.3426    11924.045   -14915.094    8621.3968    33840.363    21856.225    80.330825 
   52200    2208.9761   -115.90665     1.998728   -113.90792     26655.85    4.3104288    4.3104288    4.3104288     26655.85   -16262.387    31026.525    65203.412   -3157.2247   -4781.0036   -4885.5151    80.086889 
   52300    943.18774   -114.81202   0.85341609   -113.95861   -22027.056     4.339041     4.339041     4.339041   -22027.056   -78508.985    8203.1898    4224.6265   -41355.255   -29756.383   -16937.494    81.692324 
   52400    2808.8469   -116.45822    2.5415037   -113.91672   -6679.4877    4.3493469    4.3493469    4.3493469   -6679.4877   -38212.641    22598.683   -4424.5042   -2136.3753   -1601.7289    -3590.584    82.275805 
   52500    1938.8215   -115.67379    1.7542864    -113.9195    8556.0692    4.3270372    4.3270372    4.3270372    8556.0692   -50567.205    57810.083     18425.33    4374.3208    21885.513     19174.83    81.016205 
   52600    1379.9955   -115.17488    1.2486489   -113.92623    8390.3138    4.3150479    4.3150479    4.3150479    8390.3138   -62267.566    36648.259    50790.249   -53948.866   -39854.748   -17236.503    80.344631 
   52700    2385.4743   -116.08511    2.1584272   -113.92668    33.522308    4.3135569    4.3135569    4.3135569    33.522308   -31471.914    48093.599   -16521.118    12668.199    32377.499    7919.3782    80.261377 
   52800    1697.4092    -115.4861    1.5358515   -113.95025    18371.555    4.3211429    4.3211429    4.3211429    18371.555   -12523.846    72215.542   -4577.0308   -1396.3525     45053.83    22104.853     80.68557 
   52900    2151.9715   -115.88639     1.947149   -113.93924   -19754.972    4.3477419    4.3477419    4.3477419   -19754.972   -60768.026   -20844.115    22347.224   -20069.025   -26089.676   -19368.556    82.184756 
   53000    840.33968   -114.71163     0.760357   -113.95128   -40228.627    4.3392493    4.3392493    4.3392493   -40228.627   -102427.37    30323.084   -48581.601   -5199.4524    88594.458    9307.4448    81.704094 
   53100    2110.3697   -115.84269    1.9095069   -113.93319    18180.624    4.2991547    4.2991547    4.2991547    18180.624    6015.2807    52699.344   -4172.7532    12674.236    13956.613    2823.2084    79.460118 
   53200    2606.4184   -116.28975    2.3583422   -113.93141    19507.848    4.3030664    4.3030664    4.3030664    19507.848   -33188.586    72167.086    19545.043   -3431.9944    22907.116    26635.869    79.677214 
   53300    1353.0822   -115.18899    1.2242972   -113.96469   -7953.4565    4.3282015    4.3282015    4.3282015   -7953.4565   -78386.032    101610.67   -47085.008   -1978.1502    87895.704   -12112.914    81.081619 
   53400    2164.9491    -115.8928    1.9588915    -113.9339    3301.2792    4.3480345    4.3480345    4.3480345    3301.2792   -45077.189    84696.872   -29715.845   -8056.6997   -50779.787   -8024.1052    82.201346 
   53500    1516.9989   -115.30157    1.3726125   -113.92896   -48753.776    4.3517749    4.3517749    4.3517749   -48753.776   -112525.82    36119.103   -69854.613     23220.86    71980.799   -4503.2145    82.413672 
   53600    1928.0411   -115.66363    1.7445321    -113.9191    3024.1695    4.3222437    4.3222437    4.3222437    3024.1695   -16226.854    58646.022    -33346.66     6842.647    43205.951    431.58577    80.747254 
   53700    2807.8891   -116.44457    2.5406371   -113.90393     45988.34    4.2954628    4.2954628    4.2954628     45988.34     20902.56    104506.14    12556.322   -14890.246    -38606.84    2915.8486    79.255588 
   53800    1056.9328    -114.9268   0.95633501   -113.97047   -5811.9742    4.3178048    4.3178048    4.3178048   -5811.9742   -8920.6367    32132.253   -40647.539    20359.893    100476.39   -6386.6466    80.498725 
   53900    1919.1879   -115.68606    1.7365216   -113.94954   -28608.342    4.3442359    4.3442359    4.3442359   -28608.342    -10595.22   -57588.453   -17641.352    23537.933    14817.956    8017.9644    81.986098 
   54000    2307.9746   -116.01201    2.0883039   -113.92371    3155.8477    4.3378496    4.3378496    4.3378496    3155.8477    20865.711   -14294.223     2896.055   -8237.8687   -676.64484    16434.865    81.625051 
   54100    1833.0468   -115.58797    1.6585792   -113.92939   -25782.693    4.3314823    4.3314823    4.3314823   -25782.693   -28282.613    29384.751   -78450.217    401.96678    93848.897   -19815.478    81.266142 
   54200    1874.5368   -115.63099    1.6961203   -113.93487    -28681.49    4.3256396    4.3256396    4.3256396    -28681.49    4824.3602   -59380.716   -31488.114    25482.788    575.09403   -2678.2298    80.937723 
   54300     1754.996   -115.53184    1.5879573   -113.94388   -7469.5605    4.3109765    4.3109765    4.3109765   -7469.5605    9609.2121   -29898.354   -2119.5395    -138.8631   -3697.8637    38876.097    80.117419 
   54400    2217.3705   -115.95921    2.0063234   -113.95289    6907.4731    4.3232519    4.3232519    4.3232519    6907.4731    4583.6024    55874.147    -39735.33   -17057.603    40783.943   -12714.876     80.80377 
   54500    1262.8176   -115.09708    1.1426239   -113.95446   -38708.433     4.349058     4.349058     4.349058   -38708.433    24570.572   -60604.419    -80091.45    14859.504     2105.655   -45764.618    82.259413 
   54600    1793.4168   -115.55585    1.6227212   -113.93313   -20393.579    4.3436925    4.3436925    4.3436925   -20393.579     21286.38   -13592.791   -68874.326    20357.855   -17249.563    42975.828    81.955332 
   54700    2262.9615   -115.96108    2.0475751    -113.9135   -2021.8607    4.3343667    4.3343667    4.3343667   -2021.8607    48825.916   -14460.708   -40430.791     -20036.4    225.84426   -19128.365    81.428598 
   54800    1642.7692   -115.41115    1.4864121   -113.92473   -10589.825    4.3291022    4.3291022    4.3291022   -10589.825    41360.516   -72181.395   -948.59481   -3723.2484    14888.771   -70187.662    81.132247 
   54900    2105.2184   -115.83413    1.9048458   -113.92929    22392.506     4.326347     4.326347     4.326347    22392.506    8010.4394    5233.9627    53933.117    23155.626   -14443.899    22399.666    80.977442 
   55000    1892.5563   -115.65483    1.7124247    -113.9424    12458.529     4.331492     4.331492     4.331492    12458.529    43488.852    -11613.06    5499.7966   -24182.178   -35684.973   -23517.419    81.266688 
   55100    1754.3518   -115.54206    1.5873744   -113.95469    -11977.66    4.3334408    4.3334408    4.3334408    -11977.66     50566.02   -90674.097    4175.0975    15886.788    8279.2104   -62352.867    81.376422 
   55200    2275.7687   -116.00646    2.0591634    -113.9473    13011.575    4.3168256    4.3168256    4.3168256    13011.575    2325.9077   -16193.695    52902.513    38024.424    5026.3632    923.60518    80.443974 
   55300    1942.5819    -115.7145    1.7576889   -113.95681     17040.31    4.3144626    4.3144626    4.3144626     17040.31    33722.027     24102.84   -6703.9355   -6211.1352   -49889.238   -25240.515    80.311941 
   55400    1665.8429   -115.47134    1.5072896   -113.96405   -39834.798    4.3457911    4.3457911    4.3457911   -39834.798    23441.787   -57491.134   -85455.048    16608.517    4036.1085   -65394.343    82.074177 
   55500    2700.8035    -116.3559    2.4437438   -113.91216   -23847.741    4.3463977    4.3463977    4.3463977   -23847.741   -34569.964   -37895.378    922.11929    39678.497    424.67384    27097.065    82.108553 
   55600    1560.2624   -115.31796    1.4117582    -113.9062    22165.488    4.3231585    4.3231585    4.3231585    22165.488     44205.04     5877.544    16413.881    15418.547   -39397.144   -46728.139    80.798532 
   55700    2095.3345   -115.81067    1.8959027   -113.91477   -8534.3208    4.3233043    4.3233043    4.3233043   -8534.3208    10067.084   -10273.201   -25396.846   -10198.815   -29260.391   -59724.218    80.806708 
   55800    2340.0165   -116.04965    2.1172961   -113.93235   -1857.0685    4.3234166    4.3234166    4.3234166   -1857.0685   -14476.081   -37335.262    46240.137    13288.487    16734.619    40061.051    80.813006 
   55900    1172.3127    -115.0215    1.0607332   -113.96077   -17605.272    4.3272045    4.3272045    4.3272045   -17605.272    24053.306   -51710.417   -25158.704     27961.15   -18074.056   -15796.215    81.025603 
   56000    1782.6662   -115.56001    1.6129938   -113.94701   -19554.414    4.3379248    4.3379248    4.3379248   -19554.414    11991.937   -890.97306   -69764.207   -11695.495   -38262.546   -37340.277    81.629295 
   56100    2085.6031   -115.81922    1.8870975   -113.93212   -10432.444    4.3417393    4.3417393    4.3417393   -10432.444   -15648.404   -14851.725   -797.20204    150.42877     15567.04    22492.638    81.844823 
   56200    1306.8614   -115.12324    1.1824756   -113.94076   -18487.203    4.3398988    4.3398988    4.3398988   -18487.203   -9827.8611   -42049.558   -3584.1908    30701.415   -2144.5344   -30933.693    81.740784 
   56300    2497.9961   -116.18918    2.2602394   -113.92894    31418.352    4.3183804    4.3183804    4.3183804    31418.352    32335.012    52186.562    9733.4832    3249.9955   -14059.348   -30998.565    80.530924 
   56400    2132.0392   -115.87911    1.9291138   -113.94999    27659.788     4.307437     4.307437     4.307437    27659.788   -15070.945     56780.26    41270.048   -30234.327    3433.6166    27675.849    79.920247 
   56500    766.16016   -114.67437   0.69323782   -113.98113   -10930.817     4.327825     4.327825     4.327825   -10930.817   -70797.719   -27285.411    65290.678    30161.743    26679.559   -35349.005    81.060461 
   56600    2286.3876   -116.01758    2.0687715   -113.94881    1071.3946    4.3397302    4.3397302    4.3397302    1071.3946   -45199.704    11233.349    37180.539    1900.1228    -27242.81    -4756.442    81.731258 
   56700    2023.3985   -115.77593    1.8308135   -113.94512    18648.214    4.3290487    4.3290487    4.3290487    18648.214   -14261.171    20144.613    50061.199   -6760.0111   -33488.341    15606.822    81.129239 
   56800    2114.0814    -115.8576    1.9128653   -113.94473    8374.8575    4.3138817    4.3138817    4.3138817    8374.8575   -25795.701   -34705.051    85625.325    27062.453    24221.994   -8435.5425    80.279504 
   56900    1097.5108   -114.96094   0.99305087   -113.96789    509.64709    4.3076271    4.3076271    4.3076271    509.64709   -55982.482    30375.556    27135.868     19194.44   -61551.817   -7749.6909    79.930827 
   57000    1891.8416    -115.6957    1.7117781   -113.98393    16021.288    4.3229007    4.3229007    4.3229007    16021.288   -9359.6332    58168.197   -744.70044   -16290.321   -6497.9136   -366.00018    80.784077 
   57100    2647.6607    -116.3436    2.3956591   -113.94794    -24373.49    4.3485859    4.3485859    4.3485859    -24373.49   -28874.907   -46883.706    2638.1433    7395.4571    13819.778    10532.302    82.232626 
   57200    934.72215   -114.79717   0.84575625   -113.95142   -42821.108    4.3405457    4.3405457    4.3405457   -42821.108   -41465.596   -11895.887   -75101.842    20301.353   -76786.311   -41248.174    81.777341 
   57300    1892.1531   -115.64453    1.7120599   -113.93247    14134.057    4.3127776    4.3127776    4.3127776    14134.057    39988.359    27007.954   -24594.142    14632.459   -694.96632   -9334.9407    80.217882 
   57400    2901.2909    -116.5556     2.625149   -113.93045     23727.62    4.3090846    4.3090846    4.3090846     23727.62    30224.881    9888.8503    31069.129   -6458.4036     8239.151    17148.984    80.011991 
   57500    828.54277   -114.73188   0.74968291    -113.9822    -14989.63    4.3207869    4.3207869    4.3207869    -14989.63   -4633.4229    39514.897   -79850.364   -6443.7651   -86646.158   -31549.266    80.665632 
   57600    1778.1705   -115.58951     1.608926   -113.98058   -24995.783    4.3309204    4.3309204    4.3309204   -24995.783   -16392.721    -18637.31   -39957.317    40817.044   -23571.092   -26767.565     81.23452 
   57700    2368.4863   -116.08551    2.1430562   -113.94246   -5240.1337    4.3444462    4.3444462    4.3444462   -5240.1337    2887.6204   -6307.9752   -12300.046   -1137.4539    11493.831    9142.5122       81.998 
   57800     1439.388   -115.22437    1.3023885   -113.92198   -22401.922     4.347921     4.347921     4.347921   -22401.922   -69835.099    36000.728   -33371.394    -17081.54   -83543.534   -9554.8126     82.19491 
   57900    2571.0019   -116.21328    2.3262965   -113.88698    18148.335    4.3328025    4.3328025    4.3328025    18148.335   -27616.709    30336.362    51725.351     26447.96    468.55818   -23280.844    81.340468 
   58000     1908.685   -115.63301    1.7270183   -113.90599    2409.4892    4.3231283    4.3231283    4.3231283    2409.4892   -46196.089    15113.716    38310.841   -16781.346   -23291.763   -5384.3141    80.796841 
   58100    611.28102   -114.51157   0.55309991   -113.95847    -31148.69    4.3263509    4.3263509    4.3263509    -31148.69   -93535.576    50012.682   -49923.176    -37504.34   -70126.368    14746.156    80.977661 
   58200    2746.7665   -116.42817     2.485332   -113.94284    5138.7012    4.3123455    4.3123455    4.3123455    5138.7012   -34201.152   -6243.4215    55860.677   -19569.096    31734.547   -22205.741    80.193774 
   58300    2003.2518   -115.77337    1.8125843   -113.96079   -11630.323    4.3179971    4.3179971    4.3179971   -11630.323   -50481.038    26655.656   -11065.586    27047.168   -65041.389    1722.2792    80.509482 
   58400    1403.5907    -115.2257    1.2699984    -113.9557   -35645.385    4.3362207    4.3362207    4.3362207   -35645.385   -68086.893    14463.029    -53312.29   -24307.127   -30615.107    9278.2868    81.533131 
   58500    1723.3331   -115.49168     1.559308   -113.93237    -1165.047    4.3316114    4.3316114    4.3316114    -1165.047   -41018.187    22894.999    14628.047    -3655.496    50898.512    2913.0985    81.273406 
   58600    1970.9068    -115.7129    1.7833179   -113.92958    -5568.278    4.3335177    4.3335177    4.3335177    -5568.278   -48891.215     13393.33    18793.051    41224.562   -32966.272   -7901.4547    81.380757 
   58700    2843.8443   -116.50263    2.5731701   -113.92946   -3632.1423    4.3203632    4.3203632    4.3203632   -3632.1423   -13662.139    9406.9906   -6641.2782    -31302.73   -4606.7231   -2349.1551    80.641906 
   58800    736.09239   -114.62707   0.66603186   -113.96104    29430.691    4.3023593    4.3023593    4.3023593    29430.691   -11101.833    57964.102    41429.803    -12831.76    34167.299    13466.196    79.637944 
   58900    2131.8804   -115.90406    1.9289702   -113.97509   -13162.444    4.3229214    4.3229214    4.3229214   -13162.444   -56955.185   -5774.4999    23242.353    30819.583    13652.869   -17485.926    80.785237 
   59000    2096.0604   -115.83818    1.8965595   -113.94162   -11636.132    4.3425041    4.3425041    4.3425041   -11636.132   -24225.673     10783.97   -21466.694   -2467.6108   -42551.635    8113.7975    81.888085 
   59100    1675.6297   -115.44105     1.516145   -113.92491    1295.6216    4.3364546    4.3364546    4.3364546    1295.6216    9373.4052   -27934.934    22448.394    -7481.617    8793.9083    13914.861     81.54633 
   59200    2889.3604   -116.51291     2.614354   -113.89855    11156.308    4.3275013    4.3275013    4.3275013    11156.308   -8205.8442     10043.79    31630.977    5793.8636    -684.3384   -14548.392    81.042277 
   59300    1570.6488   -115.35229     1.421156   -113.93113   -14220.769     4.319098     4.319098     4.319098   -14220.769   -16151.739    6569.0121   -33079.579   -3438.1191   -59243.599    5283.0139    80.571079 
   59400    1507.2511    -115.3064    1.3637925   -113.94261    23778.625    4.3143506    4.3143506    4.3143506    23778.625    48691.056   -46434.429    69079.249    -14631.93     2124.011    19881.595    80.305687 
   59500     2802.059   -116.46585    2.5353619   -113.93049   -11134.993    4.3299237    4.3299237    4.3299237   -11134.993   -20519.216    3433.8683    -16319.63   -66.751823    26238.321    1512.9315    81.178448 
   59600    942.29704   -114.80722   0.85261017   -113.95461   -11463.066     4.330109     4.330109     4.330109   -11463.066   -16661.663   -9617.4245   -8110.1103   -1302.4083     -30656.4   -271.40941     81.18887 
   59700    2433.5832   -116.13535    2.2019572   -113.93339    956.39542    4.3169882    4.3169882    4.3169882    956.39542    43022.345   -42849.714    2696.5546   -3645.0978   -33711.242    20884.332    80.453064 
   59800    2009.7566   -115.76013      1.81847   -113.94166    11586.504    4.3192404    4.3192404    4.3192404    11586.504    34251.298    23796.247   -23288.032    3491.4183    66322.193   -4944.5029    80.579046 
   59900    1090.5762   -114.93945   0.98677623   -113.95268    -16552.71    4.3236094    4.3236094    4.3236094    -16552.71   -36526.123    37284.127   -50416.134    1772.1796   -6446.8008    2828.9086    80.823815 
   60000    2561.7346   -116.24524    2.3179113   -113.92733    1322.2052    4.3338501    4.3338501    4.3338501    1322.2052    52847.759   -22438.451   -26442.692    4972.5389    -56082.42    71.495254    81.399486 
   60100    1568.3331    -115.3513    1.4190607   -113.93224    -5399.428     4.328156     4.328156     4.328156    -5399.428   -10001.664    21739.416   -27936.036   -1743.7982    86652.447   -7007.8781    81.079061 
   60200    1371.2644   -115.16874    1.2407489   -113.92799    22951.854    4.3198683    4.3198683    4.3198683    22951.854    23899.607    39277.481     5678.474    2934.4939   -10323.619   -6003.4414    80.614197 
   60300    2957.5265   -116.58423    2.6760321    -113.9082   -6980.1836    4.3280254    4.3280254    4.3280254   -6980.1836   -20361.614    3277.0697   -3856.0066   -293.78107   -32623.135    2823.1042     81.07172 
   60400     740.9523   -114.61946   0.67042921   -113.94903   -5046.5286    4.3262781    4.3262781    4.3262781   -5046.5286    -30246.57   -5840.9929    20947.977    4040.9874    95431.921   -9074.8638    80.973572 
   60500    2104.1257   -115.85151    1.9038572   -113.94765    8256.5345    4.3288884    4.3288884    4.3288884    8256.5345    3675.5409   -16109.723    37203.786   -11377.019    11922.097   -4434.3469    81.120231 
   60600    2956.7842    -116.6085    2.6753605   -113.93313    2691.3827    4.3198638    4.3198638    4.3198638    2691.3827   -18961.737    37278.451   -10242.566   -9612.1573   -24048.915    10452.648    80.613942 
   60700    1409.9867   -115.23135    1.2757856   -113.95557    12131.246    4.3096761    4.3096761    4.3096761    12131.246    35626.193    25625.021   -24857.477    21113.766    70820.765   -9541.2033    80.044941 
   60800    2332.7037   -116.06183    2.1106793   -113.95115    4649.9644     4.323292     4.323292     4.323292    4649.9644    78.788207   -5766.2151     19637.32   -10248.903    9739.4757   -6144.2411    80.806018 
   60900    1921.5395   -115.67753    1.7386493   -113.93888   -10659.616    4.3313636    4.3313636    4.3313636   -10659.616   -15785.665    44772.174   -60965.358   -4029.7071    -81305.39    4434.5531    81.259459 
   61000     1381.843   -115.18409    1.2503206   -113.93377    814.60334    4.3259307    4.3259307    4.3259307    814.60334    2288.3018    34926.578   -34771.069    11045.428    60151.099    664.60399    80.954066 
   61100    2335.1258   -116.03599    2.1128709   -113.92312    2933.1491     4.325266     4.325266     4.325266    2933.1491    13184.335   -15251.496    10866.609    23511.901    17400.455     4499.864    80.916755 
   61200    2056.8841   -115.79229     1.861112   -113.93118    8326.5653    4.3189121    4.3189121    4.3189121    8326.5653    12141.363    33759.786   -20921.452    2424.6972   -50582.695   -5780.7878    80.560676 
   61300    893.77407   -114.76512   0.80870556   -113.95641    3402.9938    4.3208756    4.3208756    4.3208756    3402.9938    -16968.05    90194.145   -63017.113   -6413.0953    84693.615   -5797.1656    80.670601 
   61400    2874.1051    -116.5161    2.6005507   -113.91555    12714.008    4.3298028    4.3298028    4.3298028    12714.008    74746.358   -6226.5866   -30377.748    5940.0113    4294.1559   -1792.4269    81.171648 
   61500    1550.5019   -115.32865    1.4029267   -113.92572   -14271.154    4.3362965    4.3362965    4.3362965   -14271.154    17891.966     37903.77   -98609.199   -2354.2016    33445.804    5052.3223    81.537409 
   61600    918.36624    -114.7642   0.83095707   -113.93324   -41155.736     4.336206     4.336206     4.336206   -41155.736   -87938.364    82834.387   -118363.23   -6404.2228    43207.502    1617.6017    81.532306 
   61700    3060.4671   -116.65449     2.769175   -113.88532    10020.922    4.3185235    4.3185235    4.3185235    10020.922    40188.969   -12472.964    2346.7605    6702.0469   -28630.618    11746.808    80.538933 
   61800    1460.9896   -115.23934    1.3219341    -113.9174   -16830.391    4.3224202    4.3224202    4.3224202   -16830.391   -16160.387    20557.775   -54888.561    4057.6395    94935.519    8667.3851    80.757143 
   61900    1742.8582   -115.50216    1.5769747   -113.92519   -27072.628    4.3259936    4.3259936    4.3259936   -27072.628   -54530.495    45056.525   -71743.913    254.39357   -15128.666   -4034.5103      80.9576 
   62000    2737.0952   -116.39585    2.4765813   -113.91927    11930.202    4.3181031    4.3181031    4.3181031    11930.202    27030.199    12036.098   -3275.6904    -986.5351   -34455.145   -18834.102    80.515413 
   62100    1287.5975   -115.12157    1.1650453   -113.95653    -49327.19    4.3309682    4.3309682    4.3309682    -49327.19   -68338.405   -16403.525    -63239.64    14495.018    89910.266   -9151.3759    81.237209 
   62200    2254.8508   -115.98255    2.0402364   -113.94232   -22100.564    4.3237816    4.3237816    4.3237816   -22100.564   -60744.023    10287.929   -15845.598   -3450.1597   -3234.6627    18573.315    80.833474 
   62300    2072.8282   -115.80444    1.8755385    -113.9289    24368.138     4.318591     4.318591     4.318591    24368.138    33199.938    41521.263   -1616.7885    2297.3484     12185.55    -23651.06    80.542706 
   62400    996.31551   -114.83536   0.90148721   -113.93387   -30388.907    4.3500703    4.3500703    4.3500703   -30388.907   -51721.397   -485.16553    -38960.16    1014.0056     76931.04   -12551.295    82.316868 
   62500    2875.3804    -116.4675    2.6017046    -113.8658   -16607.068    4.3538375    4.3538375    4.3538375   -16607.068    2456.7299   -37031.513   -15246.422   -19322.372   -40569.587    20722.201    82.530914 
   62600    1057.1587   -114.84405   0.95653937   -113.88751   -8181.7782    4.3273797    4.3273797    4.3273797   -8181.7782    1793.0153    1219.7148   -27558.065    18328.575    51248.381   -69629.459    81.035443 
   62700    1530.5839   -115.29805    1.3849045   -113.91315    2685.3567    4.3124554    4.3124554    4.3124554    2685.3567    5552.8702    57067.402   -54564.202    6995.8692    64708.365   -8016.6414    80.199904 
   62800    3061.2353   -116.68763      2.76987   -113.91776    20088.355    4.3092989    4.3092989    4.3092989    20088.355    33308.572    6339.2613    20617.231    -4092.705   -22887.077    10537.877    80.023926 
   62900    922.78066   -114.81416   0.83495133    -113.9792   -118.44942    4.3214606    4.3214606    4.3214606   -118.44942    45165.051    26101.732   -71622.132    3822.2709    63726.128   -48308.544     80.70337 
   63000    1700.8887   -115.49368    1.5389998   -113.95468   -10850.461    4.3427526    4.3427526    4.3427526   -10850.461   -2415.6175    32926.023   -63061.788    16335.984     53868.27   -8766.1953    81.902145 
   63100    2929.3157   -116.55884    2.6505064   -113.90834   -18319.275    4.3501628    4.3501628    4.3501628   -18319.275    357.98218   -23504.505   -31811.303   -11412.134   -22917.109   -502.13992    82.322118 
   63200    496.03627   -114.35485   0.44882404   -113.90603    -42627.99    4.3494897    4.3494897    4.3494897    -42627.99   -34624.058   -24998.021   -68261.891    11530.449    101308.75   -70931.782    82.283911 
   63300    2960.9547   -116.56968    2.6791341   -113.89055    7279.8402    4.3166625    4.3166625    4.3166625    7279.8402    29636.608   -2068.9587   -5728.1283   -20850.646   -11861.439   -405.50255    80.434853 
   63400    2155.0404   -115.84832    1.9499258   -113.89839    1004.2493     4.302657     4.302657     4.302657    1004.2493   -15269.509    25410.148    -7127.891    12185.028    36758.165   -7549.8172    79.654477 
   63500    719.72801   -114.60834   0.65122503   -113.95711   -45433.475    4.3207954    4.3207954    4.3207954   -45433.475   -9602.8232   -1294.4951   -125403.11    985.22689    91121.086   -69469.379    80.666106 
   63600    2997.2012   -116.64313    2.7119306    -113.9312    -2296.689    4.3342482    4.3342482    4.3342482    -2296.689    17328.168   -15382.074   -8836.1602    8870.0627   -19269.627   -7358.1094    81.421917 
   63700    1681.7214   -115.46587    1.5216569   -113.94421   -10582.243    4.3439143    4.3439143    4.3439143   -10582.243   -19169.391    61029.315   -73606.652    18616.273    46177.543   -2747.0579    81.967886 
   63800    1197.2645   -115.01247    1.0833101   -113.92916   -29731.291    4.3325695    4.3325695    4.3325695   -29731.291   -9994.2404    8616.8349   -87816.468    3025.2285    46166.067   -65205.001     81.32735 
   63900      3185.93   -116.75286    2.8826964   -113.87017    -5213.196    4.3277259    4.3277259    4.3277259    -5213.196    6211.2455   -12003.913     -9846.92    -17515.58   -20162.266    14803.497    81.054892 
   64000    974.05621   -114.78109   0.88134653   -113.89974   -51666.263    4.3524177    4.3524177    4.3524177   -51666.263   -62663.124   -35939.886   -56395.778    22834.804    80223.957   -19671.755      82.4502 
   64100    2044.5862   -115.73057    1.8499846   -113.88059   -35129.854    4.3465356    4.3465356    4.3465356   -35129.854   -1283.7955   -41326.647   -62779.119    2138.7845   -3805.3619   -37669.335    82.116366 
   64200     2670.942   -116.29401    2.4167245   -113.87729    1617.9302    4.3157751    4.3157751    4.3157751    1617.9302   -27542.677    50828.706   -18432.238    400.77152    4689.6899     8548.559    80.385259 
   64300    1309.1774    -115.1106    1.1845712   -113.92602   -27156.582    4.3157372    4.3157372    4.3157372   -27156.582   -54576.236    15873.771   -42767.282    24610.324    74465.777   -32106.784    80.383142 
   64400    2243.3725   -115.96995    2.0298506    -113.9401   -334.27632    4.3173047    4.3173047    4.3173047   -334.27632    30070.833   -28464.899   -2608.7631    8651.0478   -9547.8665   -57830.216     80.47076 
   64500    2133.4961   -115.88936    1.9304322   -113.95893   -11180.232    4.3393239    4.3393239    4.3393239   -11180.232   -36734.698    16565.868   -13371.867   -10242.665    19400.138    6532.9071    81.708307 
   64600    1480.2358   -115.27768    1.3393484   -113.93833   -49654.884    4.3510104    4.3510104    4.3510104   -49654.884   -61244.625    3307.6801   -91027.706    8946.0038     62163.22   -10635.297    82.370245 
   64700    2160.1224   -115.86567    1.9545241   -113.91115   -1335.1268    4.3154393    4.3154393    4.3154393   -1335.1268    55203.165   -45046.045     -14162.5    705.70166   -15512.255   -58060.504    80.366498 
   64800    1901.2612   -115.63976    1.7203011   -113.91946    237.01426     4.308292     4.308292     4.308292    237.01426    -32132.33    22473.055    10370.318   -36372.266    39145.174    14971.236    79.967847 
   64900    1593.3375   -115.38571    1.4416853   -113.94402   -36978.125    4.3318606    4.3318606    4.3318606   -36978.125    -85170.16    31400.057   -57164.272    8901.3919    66295.813   -8633.1681    81.287433 
   65000    2479.5114   -116.17293     2.243514   -113.92942   -26363.169    4.3390148    4.3390148    4.3390148   -26363.169    6810.4982   -39992.966   -45907.039    4105.9343    -13942.63    -22993.88    81.690847 
   65100    1250.6447   -115.08121    1.1316096    -113.9496   -16234.181    4.3372729    4.3372729    4.3372729   -16234.181   -23343.535     -11940.9   -13418.109   -52022.989    15125.627     19431.78    81.592498 
   65200    1369.2619   -115.19293    1.2389369     -113.954   -2700.3415    4.3318703    4.3318703    4.3318703   -2700.3415   -18134.894    47168.875   -37135.005    9982.8534    59536.923      19770.9    81.287979 
   65300    2827.3425   -116.48899    2.5582389   -113.93075    21079.673    4.3228995    4.3228995    4.3228995    21079.673    46706.795    14312.181    2220.0417    12637.203   -15790.432   -5436.3693    80.784009 
   65400    1763.9072    -115.5595    1.5960203   -113.96348    9922.0728    4.3207091    4.3207091    4.3207091    9922.0728   -33564.957    5409.5999    57921.576   -61004.386    6509.7587   -7658.8674    80.661277 
   65500    1415.8018   -115.25597    1.2810472   -113.97493      -3909.3    4.3273729    4.3273729    4.3273729      -3909.3   -16444.473    31609.445   -26892.872    16456.802    43829.133    23768.293    81.035063 
   65600    1860.3604   -115.65066    1.6832932   -113.96736   -19829.532    4.3345983    4.3345983    4.3345983   -19829.532    -20786.43   -14640.533   -24061.632   -598.18295    3106.4888    5988.4557    81.441652 
   65700    2539.3024   -116.24332    2.2976141    -113.9457   -21107.068    4.3343776    4.3343776    4.3343776   -21107.068   -46146.174   -1620.6953   -15554.334   -50769.177   -18722.348   -2249.6603    81.429212 
   65800    1615.1734   -115.41486    1.4614428   -113.95342    253.37409    4.3191453    4.3191453    4.3191453    253.37409   -15088.634    65102.149   -49253.393    16551.353    31095.426    9852.6556    80.573726 
   65900    1120.4606   -114.97477    1.0138163   -113.96096    4146.0001    4.3109806    4.3109806    4.3109806    4146.0001    63353.701   -22413.838   -28501.862    26483.439    29064.854    12634.126    80.117652 
   66000    2747.3037   -116.43422    2.4858181   -113.94841   -8883.8402    4.3302937    4.3302937    4.3302937   -8883.8402   -16743.609    16747.681   -26655.593    5246.5412   -37507.721   -15394.809    81.199258 
   66100    1775.3472     -115.552    1.6063714   -113.94562   -34478.767      4.34688      4.34688      4.34688   -34478.767   -33234.302    9098.3552   -79300.355    11776.937   -27826.565    7295.2018    82.135888 
   66200    1891.2329      -115.64    1.7112273   -113.92877   -7635.8089    4.3311075    4.3311075    4.3311075   -7635.8089    46597.672   -49085.186   -20419.913    28567.509    36024.411    31453.323    81.245047 
   66300    1923.6655   -115.66578     1.740573   -113.92521    8964.2618    4.3200745    4.3200745    4.3200745    8964.2618   -6024.1735    24018.527    8898.4324     6786.756   -58004.288      1965.82     80.62574 
   66400    2308.5531   -116.01999    2.0888273   -113.93116    14827.874    4.3175241    4.3175241    4.3175241    14827.874    14426.545    50339.362   -20282.285   -23154.435   -52642.829    -17643.05    80.483031 
   66500    1315.4913   -115.14956    1.1902842   -113.95927    15653.311    4.3209685    4.3209685    4.3209685    15653.311    24660.641   -34931.361    57230.654     19326.02    39343.514    33068.771    80.675802 
   66600    1763.9958   -115.57046    1.5961004   -113.97436   -33892.535    4.3328338    4.3328338    4.3328338   -33892.535   -25208.742   -53011.427   -23457.437    22505.133    18189.366    19582.407    81.342233 
   66700    3129.8606   -116.77861    2.8319636   -113.94665     3209.969    4.3303078    4.3303078    4.3303078     3209.969   -12028.566    -20724.31    42382.783   -21538.355   -21116.909   -3171.9284    81.200052 
   66800    1211.5544   -115.06935    1.0962399   -113.97311   -8482.1329    4.3246066    4.3246066    4.3246066   -8482.1329   -4018.9939   -37993.955    16566.551   -9877.4443    26790.432    27580.352    80.879753 
   66900    1592.4848   -115.40069    1.4409137   -113.95978   -8567.8266    4.3190711    4.3190711    4.3190711   -8567.8266   -19904.756   -13674.564    7875.8402    29566.565    38873.123   -847.90829    80.569573 
   67000    2447.4021   -116.15701    2.2144608   -113.94255    9710.1755    4.3202635    4.3202635    4.3202635    9710.1755   -7657.8272    564.60658    36223.747   -19980.134   -32674.379   -10593.724    80.636319 
   67100    1208.5538   -115.04879    1.0935248   -113.95527    -949.6853    4.3388832    4.3388832    4.3388832    -949.6853   -19148.104    -35027.18    51326.229   -17738.232   -2853.1008    23954.779    81.683411 
   67200    1935.2185   -115.67635    1.7510263   -113.92532   -17449.283    4.3485339    4.3485339    4.3485339   -17449.283   -34112.252    6685.9027     -24921.5    17093.052    44924.931    21820.404    82.229678 
   67300    1967.8623   -115.70509    1.7805632   -113.92453    6356.4601    4.3238311    4.3238311    4.3238311    6356.4601   -35540.463    30639.707    23970.137   -35579.397   -31707.692    -10463.75    80.836252 
   67400    989.38935   -114.83627   0.89522027   -113.94105    17407.813    4.3043746    4.3043746    4.3043746    17407.813   -9531.5172    19896.684    41858.271   -44639.799   -35341.222    26375.754    79.749908 
   67500    2271.0079   -116.00112    2.0548557   -113.94627    26828.534    4.3150434    4.3150434    4.3150434    26828.534    16654.719    82492.721   -18661.838    29738.886    16626.162    48012.914     80.34438 
   67600    2067.7968   -115.82166     1.870986   -113.95068    16340.101     4.335107     4.335107     4.335107    16340.101   -36353.463     66403.75    18970.017   -25190.075   -12074.256   -26982.593    81.470327 
   67700    1567.0942   -115.36281    1.4179398   -113.94487   -15680.245    4.3467175    4.3467175    4.3467175   -15680.245   -79919.285    32785.943    92.606804   -25320.743   -19547.604    12752.812    82.126675 
   67800    2518.0747   -116.17107    2.2784069   -113.89266     10870.87     4.352574     4.352574     4.352574     10870.87     4485.219    40678.299   -12550.908    27582.145    8473.9678    31804.336    82.459083 
   67900    1206.0899   -114.97366    1.0912955   -113.88237    -3338.678    4.3611085    4.3611085    4.3611085    -3338.678    14702.238    12301.213   -37019.485   -39433.889   -30115.247   -34763.309    82.945086 
   68000    2613.7494   -116.21952    2.3649754   -113.85454   -17818.707    4.3502526    4.3502526    4.3502526   -17818.707   -28872.037     16321.38   -40905.463    17827.235    9854.8851    1443.6676    82.327215 
   68100    2767.2985   -116.37235    2.5039098   -113.86844    29033.851    4.3107749    4.3107749    4.3107749    29033.851    41337.859     30249.09    15514.604    2678.5018   -3783.4996   -6117.0294    80.106181 
   68200    1323.8595   -115.13441    1.1978559   -113.93656   -18236.284    4.3051151    4.3051151    4.3051151   -18236.284   -19902.829   -15538.248   -19267.776   -51069.043   -29496.884   -44857.174    79.791073 
   68300    1290.9793   -115.15337    1.1681052   -113.98526   -47776.918    4.3201408    4.3201408    4.3201408   -47776.918   -53250.841   -21840.973   -68238.942   -1115.6107    9084.2752   -11191.349    80.629453 
   68400    2085.5471   -115.86959    1.8870469   -113.98255    -8723.672    4.3202135    4.3202135    4.3202135    -8723.672    20154.387   -2384.7667   -43940.637    6089.7906    10948.957    56614.068    80.633521 
   68500    1972.9084   -115.76938     1.785129   -113.98425   -11423.554    4.3376382    4.3376382    4.3376382   -11423.554    17611.666   -37211.859    -14670.47   -41057.584   -7416.5941    9994.1512    81.613118 
   68600    2496.6906    -116.2086    2.2590581   -113.94954   -26090.471    4.3491515    4.3491515    4.3491515   -26090.471   -28794.647   -3797.6652   -45679.101    10492.218   -6699.9813   -12036.735    82.264715 
   68700     1035.661   -114.89669   0.93708785   -113.95961   -13204.288    4.3245247    4.3245247    4.3245247   -13204.288    49191.953    7057.4248   -95862.243    -5426.622    24837.812    96965.864    80.875158 
   68800    1984.8631   -115.73163    1.7959459   -113.93568    30721.099     4.308046     4.308046     4.308046    30721.099    69472.004    25009.269   -2317.9757    -13678.93    6769.3328   -690.55993    79.954147 
   68900    2468.6694     -116.165     2.233704    -113.9313   -1161.9691    4.3243144    4.3243144    4.3243144   -1161.9691    2676.0029    27074.954   -33236.864    10598.495   -17691.383    3552.5796    80.863361 
   69000    1714.6065   -115.50771     1.551412    -113.9563   -13801.417    4.3283895    4.3283895    4.3283895   -13801.417    23765.548   -11749.126   -53420.671    8510.7351    19216.509    73151.171    81.092187 
   69100    1361.8555   -115.19775    1.2322355   -113.96551    15458.158    4.3209715    4.3209715    4.3209715    15458.158    1075.7696    47883.852   -2585.1471   -22917.433    37818.042   -3586.8931     80.67597 
   69200    2003.2408   -115.78008    1.8125744    -113.9675   -921.05663    4.3194347    4.3194347    4.3194347   -921.05663   -723.45467    3675.5533   -5715.2685   -31974.377   -35776.874   -20142.277    80.589922 
   69300    1776.8223   -115.58175    1.6077061   -113.97404    16965.796    4.3106409    4.3106409    4.3106409    16965.796    11714.875    33469.736     5712.778    11155.182   -5463.1508    28869.713    80.098712 
   69400    1054.9981   -114.94526   0.95458449   -113.99068    28438.148     4.314674     4.314674     4.314674    28438.148    7411.1545    76182.634    1720.6562   -12487.397     79117.85    36049.132    80.323747 
   69500    2946.1139   -116.62102    2.6657058   -113.95531    5646.1162    4.3344356    4.3344356    4.3344356    5646.1162   -1102.9408   -6881.4959    24922.785   -10605.801   -24086.622   -22346.935    81.432478 
   69600    2395.3114   -116.11721    2.1673281   -113.94988   -26635.358    4.3393604    4.3393604    4.3393604   -26635.358   -29521.902   -15340.201   -35043.971    1358.4635    39041.896    13162.294    81.710369 
   69700    1517.6591   -115.34764    1.3732099   -113.97443   -22513.546    4.3178179    4.3178179    4.3178179   -22513.546    1535.0771    6598.8421   -75674.558   -899.76194    71835.865     50674.97    80.499459 
   69800    1777.4747   -115.58445    1.6082965   -113.97615    40836.118    4.2910249    4.2910249    4.2910249    40836.118    82602.047   -3207.7675    43114.074   -12604.714   -12918.015   -17168.642    79.010191 
   69900    2357.9359   -116.12963      2.13351   -113.99612    19094.847    4.2990924    4.2990924    4.2990924    19094.847    33273.356    16435.117    7576.0683   -11407.864   -29213.499   -51557.519    79.456664 
   70000    1694.5222   -115.54479    1.5332393   -114.01155    24039.614    4.3124595    4.3124595    4.3124595    24039.614    19248.655     60054.93   -7184.7419    10626.742    20124.515    13481.084    80.200136 
   70100    1735.9192   -115.58869    1.5706961   -114.01799   -3565.4394    4.3336803    4.3336803    4.3336803   -3565.4394     42705.31   -9297.7025   -44103.925    4659.2399    41390.129    53776.702     81.38992 
   70200    2750.9221   -116.47465    2.4890921   -113.98556   -19978.734    4.3344945    4.3344945    4.3344945   -19978.734    13853.767   -21700.293   -52089.677   -1509.6426   -3836.0903    2301.0325    81.435799 
   70300    2733.0588   -116.46071    2.4729291   -113.98779    36004.868     4.293614     4.293614     4.293614    36004.868    53483.409    65494.805    -10963.61     3269.938   -34053.724    -11027.82    79.153295 
   70400    821.72541    -114.7585   0.74351442   -114.01498   -9221.0913    4.2863569    4.2863569    4.2863569   -9221.0913    29221.891    11832.176   -68717.341    1371.9872     45266.01    86325.466    78.752615 
   70500    858.88101   -114.81191   0.77713358   -114.03477   -32103.101    4.3085757    4.3085757    4.3085757   -32103.101    7115.6654   -14849.817   -88575.152    2838.8278    52095.144    14239.206    79.983643 
   70600    2323.7339   -116.11099    2.1025633   -114.00843     2117.373    4.3257617    4.3257617    4.3257617     2117.373    9155.7585    26555.734   -29359.374   -862.98941   -22159.764   -60109.899     80.94458 
   70700     2065.984   -115.85243    1.8693457   -113.98308   -27531.942    4.3385903    4.3385903    4.3385903   -27531.942   -16779.331   -25550.545   -40265.949    5890.1163   -7678.6407    30882.912     81.66687 
   70800     1489.432   -115.32658    1.3476694   -113.97891   -22892.104    4.3193207    4.3193207    4.3193207   -22892.104   -15040.502   -15893.118   -37742.691    10371.492    63593.663    46466.239    80.583541 
   70900    2389.1655   -116.11102    2.1617672   -113.94925     26241.06    4.2950599    4.2950599    4.2950599     26241.06    823.27702    61024.057    16875.848    7798.7161   -355.21773   -20706.769    79.233289 
   71000    1964.4997   -115.74606    1.7775207   -113.96854   -4114.4821     4.313367     4.313367     4.313367   -4114.4821   -49018.331    28631.673    8043.2118    -4484.889   -69701.013   -1186.0543    80.250775 
   71100     936.5291   -114.82678   0.84739121   -113.97939   -26745.254    4.3319578    4.3319578    4.3319578   -26745.254   -16306.507   -19618.142   -44311.114   -11767.009    33597.835    36893.728    81.292904 
   71200    2015.5281   -115.78584    1.8236922   -113.96215   -8997.4295    4.3290136    4.3290136    4.3290136   -8997.4295     3624.137   -28815.952   -1800.4735    3608.3124    35062.222   -703.16291    81.127268 
   71300    2353.3182   -116.07746    2.1293317   -113.94812    -11202.25    4.3226328    4.3226328    4.3226328    -11202.25   -30817.863   -38642.865    35853.977   -20678.649   -22004.369   -43662.771    80.769061 
   71400    2130.4085   -115.88569    1.9276384   -113.95805    12498.784    4.3054453    4.3054453    4.3054453    12498.784    10916.781   -4260.7208    30840.293   -18438.272    29567.311    37365.535    79.809431 
   71500    1608.7422   -115.42414    1.4556237   -113.96851    35601.939    4.3003475    4.3003475    4.3003475    35601.939     76595.54    10273.191    19937.088    14106.075    33123.932   -15137.352    79.526277 
   71600     1858.237   -115.66365    1.6813719   -113.98228   -18146.986    4.3260883    4.3260883    4.3260883   -18146.986    32996.416   -79180.122   -8257.2529   -17180.117    -6686.682   -64338.429    80.962916 
   71700    2779.7261    -116.4679    2.5151546   -113.95274    9622.3493    4.3276687    4.3276687    4.3276687    9622.3493    23528.583   -13334.269    18672.734   -14313.298   -7629.9883    20054.138    81.051679 
   71800     1033.426   -114.91024   0.93506552   -113.97518     11816.77    4.3130511    4.3130511    4.3130511     11816.77    39490.174    4475.6389   -8515.5037    11452.877    8991.7549   -56078.131    80.233147 
   71900    1782.8363    -115.5852    1.6131478   -113.97205   -19232.941    4.3212689    4.3212689    4.3212689   -19232.941     23577.71   -57744.484   -23532.048    607.51999    21421.347   -46413.002    80.692632 
   72000    2971.4109   -116.61804     2.688595   -113.92944    10995.984    4.3296259    4.3296259    4.3296259    10995.984    13613.205    29084.639   -9709.8912   -18096.494   -14524.279    15603.026    81.161699 
   72100    1032.5338   -114.87296   0.93425828   -113.93871   -13228.054    4.3399761    4.3399761    4.3399761   -13228.054    12946.517   -1514.2859   -51116.393    14682.005   -17.911704   -95012.975    81.745155 
   72200    2246.5341    -115.9366    2.0327112   -113.90388    -6469.877     4.338083     4.338083     4.338083    -6469.877   -2454.8831   -20455.298    3500.5502   -12464.008    9526.0629   -10009.601    81.638226 
   72300     1715.678   -115.45789    1.5523815   -113.90551    14728.245    4.3210487    4.3210487    4.3210487    14728.245    67505.485    -37313.32    13992.571   -29336.746   -7782.7238    10443.396    80.680297 
   72400    1367.5019   -115.16785    1.2373444    -113.9305   -2334.6888    4.3122612    4.3122612    4.3122612   -2334.6888    66980.211   -51294.357   -22689.921    148.94857    20605.802   -89994.925    80.189071 
   72500    2690.8996   -116.35256    2.4347825   -113.91778   -1343.3102    4.3226626    4.3226626    4.3226626   -1343.3102   -16.480026   -25626.526    21613.075    5250.6078    23854.597    12546.126     80.77073 
   72600    1290.9992   -115.10776    1.1681232   -113.93964   -17540.799    4.3307258    4.3307258    4.3307258   -17540.799    12840.026   -58613.696   -6848.7279   -27009.421   -29689.908   -15795.638     81.22357 
   72700    1532.5831   -115.33505    1.3867134   -113.94834    -10053.72     4.322809     4.322809     4.322809    -10053.72    41346.213   -36375.857   -35131.516   -6850.9613    7607.0756   -51252.114    80.778937 
   72800    2632.1705   -116.31406    2.3816432   -113.93242    16735.241    4.3151696    4.3151696    4.3151696    16735.241   -17186.124    14391.492    53000.356    52378.359    1726.4278    23137.584    80.351431 
   72900    1372.6131   -115.19575    1.2419692   -113.95378    3915.2934    4.3164681    4.3164681    4.3164681    3915.2934   -26791.977   -556.03453    39093.892    12213.763   -19443.926    -35472.04    80.423989 
   73000    2237.9059   -115.96269    2.0249043   -113.93778   -1024.2921    4.3290028    4.3290028    4.3290028   -1024.2921    27888.732   -9519.4523   -21442.156   -25442.071   -1274.7531   -64988.355    81.126658 
   73100    2490.9983    -116.1779    2.2539076   -113.92399   -8178.8247    4.3367307    4.3367307    4.3367307   -8178.8247   -75433.791    19675.695    31221.622    41323.062    4435.5339    24891.866    81.561906 
   73200    1313.9207   -115.12031    1.1888631   -113.93145   -34455.396    4.3329391    4.3329391    4.3329391   -34455.396   -42400.723   -69864.021    8898.5553    20648.412    3061.9305   -52592.281    81.348166 
   73300    2522.0855   -116.19263     2.282036   -113.91059    18194.109    4.3134355    4.3134355    4.3134355    18194.109    22810.247    39082.822   -7310.7415   -26020.445   -4524.0367   -27073.258    80.254598 
   73400    1744.0323   -115.50942    1.5780371   -113.93139    6500.5313    4.3160314    4.3160314    4.3160314    6500.5313   -22265.625    21375.724    20391.494    34815.114    5252.9095    51501.041    80.399582 
   73500    1415.0369    -115.2223    1.2803551   -113.94194   -16182.721    4.3299256    4.3299256    4.3299256   -16182.721   -42436.166   -28659.295    22547.299    35528.153    3787.5737   -44105.203    81.178554 
   73600    2819.7802   -116.45863    2.5513964   -113.90724    6413.7845    4.3330949    4.3330949    4.3330949    6413.7845   -3381.8745    39931.013   -17307.785   -20877.218   -10958.299    -194.5388    81.356937 
   73700    725.24873   -114.58917   0.65622029   -113.93295   -52385.915    4.3377601    4.3377601    4.3377601   -52385.915   -48885.674    -43741.02   -64531.051    33821.916    5114.9412    57235.681        81.62 
   73800    2376.8014   -116.06747    2.1505799   -113.91689   -5020.4662    4.3138545    4.3138545    4.3138545   -5020.4662   -10257.733   -21273.494    16469.829    26892.044    21538.326   -2176.9674    80.277986 
   73900    2029.1773   -115.75283    1.8360422   -113.91679    11660.366    4.3019442    4.3019442    4.3019442    11660.366    16073.513    36874.392   -17966.806   -17501.731   -31137.271   -4334.2112    79.614891 
   74000    974.29181   -114.82629    0.8815597   -113.94473   -26143.884    4.3225388    4.3225388    4.3225388   -26143.884    -12643.34   -10570.623   -55217.691    16418.622   -18959.514    64783.467    80.763792 
   74100     2567.436   -116.23835      2.32307   -113.91528   -13317.607    4.3268376    4.3268376    4.3268376   -13317.607   -7147.3405   -29686.481   -3118.9999    29904.311    17827.045   -3079.4103    81.004993 
   74200    1075.6146   -114.91415   0.97323871   -113.94091   -33600.767    4.3269629    4.3269629    4.3269629   -33600.767    4117.8731   -20455.884    -84464.29   -24103.975   -25415.515   -58008.618    81.012032 
   74300    2018.9271   -115.75837    1.8267676    -113.9316   -22263.716    4.3185339    4.3185339    4.3185339   -22263.716    1782.9148   -28015.979   -40558.083    9950.2671   -36966.137    39928.162    80.539511 
   74400    2294.7364   -115.99644    2.0763257   -113.92011    25960.004    4.3103702    4.3103702    4.3103702    25960.004    44001.638    36969.937    -3091.563    9170.2989     30885.21   -33329.708    80.083625 
   74500    613.74154   -114.51114   0.55532624   -113.95581   -17331.464    4.3267838    4.3267838    4.3267838   -17331.464   -6770.2986    33688.572   -78912.664   -9388.5889   -13180.018   -73476.843    81.001969 
   74600    2878.9925   -116.52156     2.604973   -113.91658   -8853.9976    4.3335911    4.3335911    4.3335911   -8853.9976   -8062.6484   -6726.0866   -11773.258    10549.889   -24625.875    22128.437    81.384894 
   74700    1854.4471   -115.60528    1.6779427   -113.92734   -12387.308    4.3253329    4.3253329    4.3253329   -12387.308    65249.705   -64913.495   -37498.134    4951.9105    6640.2802   -22838.857    80.920509 
   74800    1676.2667   -115.45469    1.5167213   -113.93796   -4224.6913    4.3053139    4.3053139    4.3053139   -4224.6913    44068.914   -9676.5997   -47066.388   -3850.1261    13066.208   -70794.707    79.802129 
   74900    3063.5322   -116.70083    2.7719483   -113.92888    24902.537    4.2989488    4.2989488    4.2989488    24902.537   -1293.3772    10486.984    65514.003   -2973.4615   -9641.1175    25618.307    79.448704 
   75000    1364.9315   -115.20329    1.2350187   -113.96828    -20169.65    4.3136291    4.3136291    4.3136291    -20169.65    90698.065   -96188.152   -55018.864    3508.4699    4233.6753    3465.4102    80.265407 
   75100    1476.1413   -115.29912    1.3356437   -113.96348   -3379.6515    4.3273475    4.3273475    4.3273475   -3379.6515    51966.523   -66082.668    3977.1906    3450.4291    6459.7204   -37850.489    81.033636 
   75200    2790.9487    -116.4526    2.5253091   -113.92729   -8289.2513    4.3348335    4.3348335    4.3348335   -8289.2513   -62311.669    -59210.45    96654.365   -23871.614   -9145.7495    4511.3522     81.45491 
   75300    1532.7717   -115.33404    1.3868841   -113.94716    1033.7816    4.3111972    4.3111972    4.3111972    1033.7816    48279.676   -74172.864    28994.533   -933.99481   -8248.4749   -32215.331    80.129725 
   75400    1629.9415   -115.41335    1.4748053   -113.93855    577.36774    4.2958786    4.2958786    4.2958786    577.36774     84739.73   -74644.201   -8363.4256   -542.92891    5108.1645   -29708.426    79.278606 
   75500    2246.4767   -115.98139    2.0326593   -113.94873    3766.8214    4.3051244    4.3051244    4.3051244    3766.8214   -25719.216   -36108.138    73127.817   -45346.167   -3377.4053    27409.229     79.79159 
   75600    1847.0719   -115.63191    1.6712695   -113.96064    4720.4143    4.3186294    4.3186294    4.3186294    4720.4143    22625.657    -29802.42    21338.006   -1037.8436    -5578.668   -46814.553    80.544854 
   75700    1098.9095   -114.95463   0.99431643   -113.96032   -11862.936    4.3330849    4.3330849    4.3330849   -11862.936    60201.733   -112167.17    16376.624    15145.488   -3352.8037   -32876.075    81.356374 
   75800    2440.2907    -116.1275    2.2080263   -113.91947   -16516.329    4.3325032    4.3325032    4.3325032   -16516.329   -9360.0339   -57201.525    17012.571   -4672.3567    2057.6413    39953.429    81.323613 
   75900    1310.8658   -115.11843     1.186099   -113.93233    2597.2027    4.3078777    4.3078777    4.3078777    2597.2027    29469.302   -3516.1025   -18161.592    -4899.393   -20503.796   -79870.388    79.944778 
   76000    1492.5281   -115.30102    1.3504708   -113.95055    6276.8755    4.3015934    4.3015934    4.3015934    6276.8755    57179.376   -8093.1157   -30255.633    24060.786   -6857.5456   -51551.018    79.595421 
   76100    3247.1457   -116.87098    2.9380856    -113.9329    11359.227    4.3139044    4.3139044    4.3139044    11359.227    18931.506   -236.68468     15382.86    17445.732   -7086.2567    22371.001    80.280772 
   76200     1432.391   -115.25979    1.2960575   -113.96374    2512.3894    4.3208767    4.3208767    4.3208767    2512.3894    85986.888   -33195.606   -45254.115   -5615.7871    3932.4017   -99868.034    80.670664 
   76300    2192.0881   -115.92611    1.9834474   -113.94266   -2024.7362     4.332094     4.332094     4.332094   -2024.7362    15144.345   -4894.2307   -16324.323    3122.3988     3218.193   -8592.3614    81.300573 
   76400    2481.3854   -116.17482    2.2452097   -113.92961    3019.8785    4.3230926    4.3230926    4.3230926    3019.8785    13739.433   -35480.019    30800.222    15014.985   -7277.1118   -15537.489    80.794839 
   76500    1213.5937    -115.0351    1.0980851   -113.93702    23068.123    4.3004508    4.3004508    4.3004508    23068.123    91051.701   -32903.737    11056.406    721.71462    4705.0184   -82324.137    79.532006 
   76600    2438.2891   -116.13944    2.2062152   -113.93322    12138.616    4.3063196    4.3063196    4.3063196    12138.616    8974.0784    12843.568    14598.202   -18126.194    6425.4212    44127.777    79.858065 
   76700    1705.7635   -115.48957    1.5434107   -113.94616   -7137.8932    4.3145202    4.3145202    4.3145202   -7137.8932    35948.554   -47096.445   -10265.789   -1468.3351   -6083.1971   -86666.533    80.315159 
   76800    1907.8334   -115.67742    1.7262478   -113.95117   -5756.8207    4.3249701    4.3249701    4.3249701   -5756.8207    37265.069   -14062.845   -40472.685    6289.6629   -3153.8958   -82924.591    80.900148 
   76900    2642.0568   -116.31526    2.3905885   -113.92467   -3152.5308    4.3310523    4.3310523    4.3310523   -3152.5308    25133.988   -21570.607   -13020.973   -8764.4702    1788.5962    47624.065    81.241941 
   77000    639.91585   -114.51857   0.57900931   -113.93956   -8954.5195    4.3172963    4.3172963    4.3172963   -8954.5195    116466.91   -65073.444   -78257.025   -10163.307     1805.888   -116310.05    80.470292 
   77100     2758.069   -116.39627    2.4955588   -113.90071    13631.795    4.3227142    4.3227142    4.3227142    13631.795    7174.8254    62584.352   -28863.794    16140.953    12080.877    22131.641    80.773623 
   77200    1545.2044   -115.29858    1.3981334   -113.90045   -14506.613    4.3322549    4.3322549    4.3322549   -14506.613    55877.901   -32798.938   -66598.802   -5442.7754     -1888.57   -83170.127    81.309634 
   77300    1554.3177   -115.29165    1.4063793   -113.88527    22304.309    4.3266663    4.3266663    4.3266663    22304.309    103592.32   -913.06615   -35766.329   -27449.211   -8539.0346   -55291.742    80.995374 
   77400    2330.9522   -115.98519    2.1090946    -113.8761    8928.8906    4.3364985    4.3364985    4.3364985    8928.8906    40578.597   -10151.434   -3640.4914   -1539.2645     13588.56     2080.866    81.548808 
   77500    1234.5751   -115.00605    1.1170695   -113.88898   -9366.8383     4.340109     4.340109     4.340109   -9366.8383    84569.115   -59695.596   -52974.033    4399.2842    8494.6246   -112214.23    81.752664 
   77600    2973.7847   -116.52963    2.6907429   -113.83889    23004.675    4.3307054    4.3307054    4.3307054    23004.675    32988.018    1252.5228    34773.485   -20803.973   -376.46865    31178.354    81.222418 
   77700    970.77414   -114.76214   0.87837684   -113.88376   -21742.739    4.3290732    4.3290732    4.3290732   -21742.739    68017.547     -98244.8   -35000.962   -9815.6342   -143.03839   -121917.61    81.130617 
   77800    3156.4799   -116.71438    2.8560494   -113.85833    2149.4662    4.3327602    4.3327602    4.3327602    2149.4662    13110.109    8561.2297    -15222.94    20694.326    19274.722    22874.422    81.338088 
   77900    1591.8659   -115.32228    1.4403537   -113.88193   -34336.079    4.3424383    4.3424383    4.3424383   -34336.079     36180.31   -78324.087    -60864.46   -15899.773     2892.787   -95859.513    81.884362 
   78000     2078.916   -115.75423    1.8810469   -113.87318   -18225.571    4.3427394    4.3427394    4.3427394   -18225.571    17790.143   -31428.785   -41038.071    -19187.36   -4656.1714   -16945.109    81.901396 
   78100    2327.2991   -115.97225    2.1057891   -113.86646    6192.7694    4.3350164    4.3350164    4.3350164    6192.7694    66919.186   -7905.4943   -40435.384     9886.347    3640.7009   -28273.929     81.46522 
   78200    1299.2367   -115.07729    1.1755766   -113.90171   -9747.2671    4.3302217    4.3302217    4.3302217   -9747.2671    61302.608   -23959.173   -66585.237    7885.5171   -351.94554   -94635.556    81.195205 
   78300    2251.3809   -115.92768    2.0370968   -113.89058    41326.596    4.3135989    4.3135989    4.3135989    41326.596    29270.858    36411.011    58297.918   -39920.361   -13777.005    32165.454    80.263722 
   78400    1226.0972   -115.02706    1.1093986   -113.91766    28708.828     4.321196     4.321196     4.321196    28708.828    97622.868   -29036.641    17540.257   -10569.201    -22986.15   -90758.768    80.688545 
   78500     2560.766   -116.20601    2.3170349   -113.88897    -23486.95    4.3526959    4.3526959    4.3526959    -23486.95   -18816.132   -36930.499   -14714.219    4356.6627    10707.749    4231.7054    82.466011 
   78600    1588.3312   -115.31475    1.4371554   -113.87759   -26848.074    4.3500937    4.3500937    4.3500937   -26848.074   -56752.034     -50800.2    27008.011   -51930.831   -13272.049   -5554.0454    82.318195 
   78700    1445.5984   -115.18951    1.3080078    -113.8815    30752.616    4.3207913    4.3207913    4.3207913    30752.616    27110.341    60548.079    4599.4269    11864.055   -4073.6922   -68474.434    80.665881 
   78800     2764.982   -116.39091    2.5018138    -113.8891     25550.95    4.3086765    4.3086765    4.3086765     25550.95   -12840.918    35261.724    54232.044    3284.8579    18804.879    34763.935    79.989255 
   78900    1525.0744   -115.31781    1.3799193   -113.93789     36253.42    4.3032083    4.3032083    4.3032083     36253.42    25400.759    45302.874    38056.626   -41124.807   -10179.347   -49268.319    79.685096 
   79000    1623.2341   -115.43616    1.4687364   -113.96743    20374.378    4.3277584    4.3277584    4.3277584    20374.378    96067.463    -3072.622   -31871.706   -857.93254   -24699.897   -64581.021    81.056722 
   79100    3016.5546   -116.63397     2.729442   -113.90453   -3733.6314      4.35101      4.35101      4.35101   -3733.6314   -10429.477     7102.352   -7873.7687    -243.9881    5926.6299    25994.522    82.370222 
   79200    669.20403   -114.52232   0.60550987   -113.91681     13738.13    4.3434461    4.3434461    4.3434461     13738.13    52264.521   -23128.864    12078.733   -46867.861   -17390.589   -79349.229    81.941387 
   79300    2372.0402   -116.03302    2.1462718   -113.88675   -6333.4305     4.338936     4.338936     4.338936   -6333.4305   -2333.6305   -19262.788    2596.1267    15482.472     1093.783   -9694.7052    81.686398 
   79400    2234.8063   -115.91586    2.0220997   -113.89376    17960.891    4.3188024    4.3188024    4.3188024    17960.891    5767.3902     16710.12    31405.163    14448.777    6153.2491    -4818.893    80.554538 
   79500    531.83448   -114.41906   0.48121501   -113.93784   -8088.2142    4.3160717    4.3160717    4.3160717   -8088.2142    2994.7666   -9395.6466   -17863.763    -49487.76   -34984.622   -85432.211    80.401836 
   79600    2759.5608   -116.43851    2.4969086    -113.9416   -15346.642    4.3243333    4.3243333    4.3243333   -15346.642    -17925.83   -17194.622   -10919.474     5718.008    7251.6199     27496.27    80.864418 
   79700     2065.618   -115.81684    1.8690146   -113.94783    20334.951     4.327042     4.327042     4.327042    20334.951    10540.116   -11362.926    61827.663    5758.2043   -7880.3342   -24833.197    81.016471 
   79800    905.29726   -114.78245   0.81913198   -113.96331   -22978.778    4.3416049    4.3416049    4.3416049   -22978.778    2284.0777   -62233.587   -8986.8248   -43962.722    -17352.86   -68654.912    81.837226 
   79900    3265.4345   -116.82908    2.9546337   -113.87445    -1299.971    4.3380223    4.3380223    4.3380223    -1299.971    -37195.08   -8882.8408    42178.008    5915.6057    11420.215    23165.889    81.634804 
   80000    987.04246    -114.7835   0.89309676    -113.8904    27628.143    4.3399207    4.3399207    4.3399207    27628.143    62868.104   -5714.4547    25730.779   -22486.319   -8922.8219    -89810.56    81.742023 
   80100    2095.1569   -115.74626     1.895742   -113.85051   -14628.445    4.3557062    4.3557062    4.3557062   -14628.445   -50392.312    8664.5038   -2157.5256   -30099.533   -3259.4746     17349.13    82.637225 
   80200    2156.1507   -115.80566    1.9509304   -113.85473   -997.70678     4.331444     4.331444     4.331444   -997.70678    25594.177   -10366.106   -18221.192    14362.102    10055.581   -45486.321    81.263985 
   80300    1213.5699    -114.9831    1.0980635   -113.88503    4477.0692    4.3125048    4.3125048    4.3125048    4477.0692    51331.854   -24800.352   -13100.294   -15434.869    -20443.45    -88412.73    80.202662 
   80400    2644.1259   -116.27581    2.3924607   -113.88335    5711.3778    4.3298371    4.3298371    4.3298371    5711.3778   -34219.003    28138.737    23214.399   -10074.248    3026.6766    32028.861    81.173575 
   80500    1144.4082   -114.93393    1.0354846   -113.89845   -8335.8716    4.3456289    4.3456289    4.3456289   -8335.8716    65288.479   -43514.679   -46781.414    13704.073   -1031.2645   -107259.02    82.064986 
   80600    2321.9747   -115.96509    2.1009715   -113.86411    8047.0724    4.3452433    4.3452433    4.3452433    8047.0724   -15023.118    22363.486     16800.85   -385.97712   -19239.907    18050.089    82.043143 
   80700    1538.4615   -115.26367    1.3920323   -113.87164   -31266.418    4.3403646    4.3403646    4.3403646   -31266.418    28245.725   -73560.579   -48484.399    -20800.53   -9911.8687   -63633.666    81.767108 
   80800    1748.5944   -115.47051     1.582165   -113.88834   -8132.9422    4.3114153    4.3114153    4.3114153   -8132.9422    48840.858   -53295.678   -19944.007   -1301.9744    3865.9981   -95168.178    80.141888 
   80900    3133.7077    -116.7213    2.8354446   -113.88585    32248.102    4.2981548    4.2981548    4.2981548    32248.102    3240.4422    47347.976    46155.888    6779.0342   -3079.6079    38726.234    79.404689 
   81000    756.13114   -114.63993   0.68416335   -113.95577   -22072.041    4.3143837    4.3143837    4.3143837   -22072.041    98369.678   -89767.531   -74818.271    5018.4745    2093.3796   -130456.65    80.307536 
   81100    2492.4464   -116.19422    2.2552179     -113.939      18049.2    4.3330262    4.3330262    4.3330262      18049.2    21042.616    23523.261    9581.7235   -20257.489   -4304.9705    10811.636    81.353072 
   81200    1854.2252   -115.59954     1.677742   -113.92179   -26575.741    4.3516424    4.3516424    4.3516424   -26575.741    40503.743   -46631.011   -73599.953   -412.12526    4839.1973   -58380.385    82.406143 
   81300    1807.5347   -115.53781    1.6354954   -113.90232   -11024.648    4.3251275    4.3251275    4.3251275   -11024.648    46712.565   -21586.248    -58200.26    23019.158    16908.551    -74074.54    80.908984 
   81400    2421.5478   -116.05126    2.1910673   -113.86019    39087.007    4.3003042    4.3003042    4.3003042    39087.007    19607.171    47034.736    50619.113   -32816.404    -7565.071    19899.629    79.523873 
   81500    1002.1575   -114.82232   0.90677317   -113.91554   -20190.527    4.3251175    4.3251175    4.3251175   -20190.527    94505.815     -78698.8   -76378.597   -11353.329    2988.6599   -112121.39    80.908424 
   81600    2528.5838   -116.17413    2.2879158   -113.88622   -24134.694    4.3409775    4.3409775    4.3409775   -24134.694   -1233.7222   -38623.743   -32546.616    9251.9382    7987.3219    8208.1779    81.801753 
   81700    1688.7887   -115.42556    1.5280515   -113.89751   -24948.764    4.3329699    4.3329699    4.3329699   -24948.764   -18096.497   -52474.502   -4275.2939   -20365.206    39.704167   -40156.063    81.349898 
   81800    1278.2721   -115.08337    1.1566075   -113.92676   -38009.297    4.3217009    4.3217009    4.3217009   -38009.297    29812.214   -84700.206     -59139.9   -20201.771    1725.4574   -99587.743    80.716834 
   81900    3015.0838   -116.62558    2.7281112   -113.89746    33020.653    4.3061141    4.3061141    4.3061141    33020.653    24009.584    41904.911    33147.463   -802.95127    9449.7662    47324.421    79.846632 
   82000    1252.2898   -115.07519    1.1330982   -113.94209   -15971.259    4.3303819    4.3303819    4.3303819   -15971.259    40781.869   -42931.705    -45763.94   -3313.9676    11492.178    -82956.66    81.204217 
   82100    2411.0376   -116.07226    2.1815575    -113.8907   -31933.822     4.351498     4.351498     4.351498   -31933.822   -21234.404   -68102.678   -6464.3844    -25847.48   -2270.4416   -10636.561    82.397943 
   82200    1899.6656   -115.60611    1.7188574   -113.88725   -457.70293    4.3314134    4.3314134    4.3314134   -457.70293    52023.264   -9055.1113   -44341.262   -9217.4298   -18278.562   -2251.7832    81.262261 
   82300    1797.8181   -115.51797    1.6267036   -113.89127    13624.123    4.3151895    4.3151895    4.3151895    13624.123    96963.313   -45339.375   -10751.569     7146.076   -1497.2452    -71709.51    80.352542 
   82400    2778.0944   -116.40971    2.5136782   -113.89603    17014.606    4.3062608    4.3062608    4.3062608    17014.606    7403.9375   -5048.3989     48688.28    13062.177     1418.578    16177.388    79.854791 
   82500    1426.3975   -115.23048    1.2906344   -113.93984    30277.222    4.3005162    4.3005162    4.3005162    30277.222    103739.08     11937.03   -24844.439   -12925.143    6668.2478    8892.9596    79.535638 
   82600    2513.4883   -116.21612    2.2742571   -113.94187    -15524.81    4.3291427    4.3291427    4.3291427    -15524.81      5609.96   -41100.584   -11083.807    14790.925    -16606.95   -15338.817    81.134528 
   82700    1813.5857   -115.56466    1.6409705   -113.92369   -12108.787    4.3393899    4.3393899    4.3393899   -12108.787   -11499.689   -25788.634    961.96291    52506.219    10830.467    6478.5924    81.712033 
   82800    1607.9591      -115.37    1.4549152   -113.91508    16241.883    4.3200711    4.3200711    4.3200711    16241.883    48373.776    28225.368   -27873.495   -5748.2733    14794.442    34030.628     80.62555 
   82900    2630.9226   -116.27949    2.3805141   -113.89898    12063.554    4.3124682    4.3124682    4.3124682    12063.554     -6579.32    22365.386    20404.596    17473.781   -9086.3263     2974.237    80.200617 
   83000    1448.7361   -115.24348    1.3108469   -113.93264   -4711.4195    4.3113385    4.3113385    4.3113385   -4711.4195    -11875.51    -16483.67    14224.921    42462.954    2384.1266   -18682.495    80.137604 
   83100    2252.8786   -115.96745    2.0384519     -113.929    13917.727    4.3179041    4.3179041    4.3179041    13917.727    28092.931    36744.031   -23083.782   -10086.261    10817.277     33365.99    80.504284 
   83200     1958.609   -115.69734    1.7721906   -113.92515   -30718.228    4.3374984    4.3374984    4.3374984   -30718.228   -66481.548   -27758.418    2085.2818    14765.243   -897.90587   -6616.7399    81.605231 
   83300    705.20577   -114.58722     0.638085   -113.94914    -34498.16    4.3256308    4.3256308    4.3256308    -34498.16   -61949.049   -76089.034    34543.602    23257.787   -3869.3275   -35875.514    80.937234 
   83400    2809.1514   -116.45105    2.5417792   -113.90928    28409.632    4.2977155    4.2977155    4.2977155    28409.632    37458.172    47303.128    467.59521   -12531.656    4042.8713    28071.121    79.380344 
   83500    1325.1919   -115.13967    1.1990615   -113.94061   -20556.652    4.3100547    4.3100547    4.3100547   -20556.652   -27968.618   -47268.264    13566.925    41949.532   -4147.3841     28587.02    80.066039 
   83600     1529.812   -115.31999     1.384206   -113.93579   -12044.572    4.3219489    4.3219489    4.3219489   -12044.572   -67742.032   -8956.3845      40564.7    16715.636    5992.9791   -20435.753     80.73073 
   83700    2532.4732   -116.20884    2.2914349    -113.9174    12760.535     4.328322     4.328322     4.328322    12760.535    20806.327    25613.111   -8137.8332    -30646.19    4720.5987    36271.441    81.088394 
   83800    1222.4126   -115.03764    1.1060646   -113.93157    -41732.99    4.3380652    4.3380652    4.3380652    -41732.99   -39105.571   -73737.846   -12355.554    57028.596    -3321.424    47628.365    81.637221 
   83900    2381.0887   -116.07616    2.1544591    -113.9217   -8405.4538    4.3182374    4.3182374    4.3182374   -8405.4538   -61243.857   -25737.607    61765.102    44189.057    16521.703    -19831.51    80.522927 
   84000    2703.7765   -116.35915    2.4464338   -113.91272    32046.706    4.2940417    4.2940417    4.2940417    32046.706    73852.048     8925.067    13363.003   -17704.784    6675.4346    59647.513    79.176951 
   84100    1026.3974   -114.88295    0.9287059   -113.95424    8355.5419    4.3038922    4.3038922    4.3038922    8355.5419    23927.442   -62732.137    63871.322    76454.906   -1304.3865    42812.182    79.723095 
   84200    2544.7067   -116.23774    2.3025041   -113.93524    2333.8791    4.3339812    4.3339812    4.3339812    2333.8791   -48266.988    9321.7693    45946.856    29527.225     8051.629   -36742.608    81.406872 
   84300     2031.388   -115.74959    1.8380426   -113.91155   -16760.825    4.3471552    4.3471552    4.3471552   -16760.825   -3099.5866   -15453.054   -31729.833   -27743.018    5105.4415    46419.568    82.151488 
   84400    902.33287   -114.72407   0.81644974   -113.90762   -633.59252    4.3333909    4.3333909    4.3333909   -633.59252   -19539.319   -43832.861    61471.402    78740.803   -8546.1389    34465.256    81.373614 
   84500    2812.1996   -116.42421    2.5445373   -113.87967    5914.6136    4.3196404    4.3196404    4.3196404    5914.6136   -19773.997     12573.18    24944.658    9971.7247    8560.4447   -23490.076    80.601439 
   84600    1188.1073   -114.99571    1.0750245   -113.92069    1976.3476    4.3023573    4.3023573    4.3023573    1976.3476    35944.883   -40915.635    10899.795   -3973.0949    9983.5116     37212.14    79.637834 
   84700    1582.6427   -115.37395    1.4320084   -113.94194    7736.6742    4.3060254    4.3060254    4.3060254    7736.6742    7437.1103   -65602.378    81375.291    57893.656   -1534.6849    34467.527    79.841698 
   84800    2429.0017   -116.12152    2.1978118   -113.92371   -22435.768    4.3345573    4.3345573    4.3345573   -22435.768   -9114.7579   -66857.452    8664.9069   -4819.3611     3172.519   -24484.577    81.439341 
   84900    608.44447   -114.47857   0.55053334   -113.92804   -29144.447    4.3384873    4.3384873    4.3384873   -29144.447    56929.744   -128403.22   -15959.863   -30562.459   -1032.1566     46505.92    81.661055 
   85000    3008.4761   -116.60821    2.7221324   -113.88608    17783.857    4.3248987    4.3248987    4.3248987    17783.857     21330.89   -20751.011    52771.692    7710.5275   -4912.9319   -5909.7013    80.896142 
   85100     1924.986   -115.64707    1.7417678    -113.9053   -14795.185    4.3209961    4.3209961    4.3209961   -14795.185   -5898.1015   -39205.191    717.73666    -1793.851   -6567.8568    24999.011    80.677352 
   85200    1663.5167   -115.42701    1.5051849   -113.92182   -15746.776    4.3104247    4.3104247    4.3104247   -15746.776    45524.956   -76122.762   -16642.522   -37820.387    2873.7656    57514.804    80.086659 
   85300    2601.9238   -116.27486    2.3542753   -113.92059    15329.757    4.3121678    4.3121678    4.3121678    15329.757   -3135.3818   -4804.7316    53929.384    22968.033    553.68315   -7905.8484     80.18386 
   85400    1531.9995   -115.33209    1.3861853   -113.94591   -35198.293     4.324308     4.324308     4.324308   -35198.293   -33009.776   -36750.327   -35834.776    39781.212    2417.9032    24886.172    80.862999 
   85500    1927.5472   -115.68467    1.7440853   -113.94059    733.01223    4.3223496    4.3223496    4.3223496    733.01223    60381.467   -38202.344   -19980.086   -9156.8179   -2865.8302    66517.851    80.753189 
   85600    2413.2779   -116.10515    2.1835845   -113.92157   -2712.6237     4.333031     4.333031     4.333031   -2712.6237   -28903.116    2177.5275    18587.718    6919.9163   -7578.0442   -12216.126    81.353343 
   85700    1159.5342   -114.95526    1.0491709   -113.90609    -11250.62    4.3435057    4.3435057    4.3435057    -11250.62   -15841.117   -14842.986   -3067.7573    34397.691   -20250.709    26275.582    81.944761 
   85800    2924.4906   -116.48145    2.6461406    -113.8353    8226.5428    4.3421398    4.3421398    4.3421398    8226.5428    24031.682     18853.97   -18206.024   -14067.269     5926.126    1517.1025    81.867474 
   85900    572.77759   -114.39247    0.5182612   -113.87421   -15879.146    4.3414703    4.3414703    4.3414703   -15879.146   -69932.359   -6487.1187    28782.039    33803.471   -12898.659   -10337.427    81.829613 
   86000    2385.4317    -116.0279    2.1583888   -113.86952   -3592.5158    4.3320827    4.3320827    4.3320827   -3592.5158   -27552.147    11813.993    4960.6071    19434.457   -19877.807   -1812.6883    81.299938 
   86100    2130.9144   -115.82783    1.9280961   -113.89973    17652.472    4.3076718    4.3076718    4.3076718    17652.472   -15251.887    79423.048   -11213.744   -8981.8303    49960.731    4836.7099    79.933312 
   86200    1067.2979   -114.91266   0.96571356   -113.94695    4207.3909    4.2996261    4.2996261    4.2996261    4207.3909   -32244.133   -11135.397    56001.703    47858.322    15053.853   -12490.019    79.486264 
   86300    2458.5108   -116.16821    2.2245122    -113.9437    10645.381     4.310531     4.310531     4.310531    10645.381    8774.5735   -9282.4995    32444.068    13167.043   -1122.4937   -6059.0033    80.092588 
   86400     1572.438   -115.38564    1.4227749   -113.96287   -18972.678    4.3313697    4.3313697    4.3313697   -18972.678    7774.4681    11115.374   -75807.877   -808.64876    11846.077    52702.857    81.259805 
   86500    1570.7856   -115.36287    1.4212798   -113.94159   -29463.718    4.3370113    4.3370113    4.3370113   -29463.718    -55082.74   -45689.601    12381.186    55689.297    28116.218    5236.0912    81.577741 
   86600    2353.3798    -116.0451    2.1293875   -113.91572    13878.411    4.3120644    4.3120644    4.3120644    13878.411    28568.714    5239.6525    7826.8656    5124.1649   -18236.792   -13968.751     80.17809 
   86700      1650.34   -115.41801    1.4932623   -113.92475   -9183.9195    4.3054515    4.3054515    4.3054515   -9183.9195    2711.1567    20126.106   -50389.021   -1833.9696   -15493.293    19080.377    79.809777 
   86800    1857.9572   -115.61592    1.6811188    -113.9348      6501.65    4.3155492    4.3155492    4.3155492      6501.65    23166.921   -22075.025    18413.054     59286.66    26369.645    18756.452    80.372638 
   86900    2071.8634   -115.80711    1.8746655   -113.93245   -15767.501    4.3259183    4.3259183    4.3259183   -15767.501    2262.9843   -32724.804   -16840.683    24249.549     -26861.8   -31384.437    80.953372 
   87000     1264.199   -115.09293    1.1438738   -113.94905   -23232.994    4.3261921    4.3261921    4.3261921   -23232.994    -16727.04    -10667.86   -42304.083    -16874.37   -25838.645   -9898.1259    80.968745 
   87100    2622.8536    -116.3046    2.3732131   -113.93139     13560.66    4.3106899    4.3106899    4.3106899     13560.66    6184.3985     12354.52    22143.063    6657.8474   -2583.8095    25900.754    80.101442 
   87200    1863.1513   -115.63373    1.6858185   -113.94791    2896.0579    4.3066016    4.3066016    4.3066016    2896.0579    62262.613   -28571.479    -25002.96     14093.63    8711.5147    -64277.45    79.873751 
   87300    1057.7247   -114.92053   0.95705157   -113.96348   -15373.899     4.317115     4.317115     4.317115   -15373.899   -39716.074    9893.0593   -16298.682   -18181.668   -37906.981    -26333.31    80.460154 
   87400    2801.0069    -116.4609    2.5344099   -113.92649   -6666.0319    4.3303299    4.3303299    4.3303299   -6666.0319   -11491.929    2808.2487   -11314.415   -2812.8753   -4766.4975    7170.3432    81.201292 
   87500    1204.5624   -115.01441    1.0899134    -113.9245   -34368.832    4.3395678    4.3395678    4.3395678   -34368.832    69674.123   -93548.603   -79232.015    4594.2353    5750.4605   -101014.54    81.722084 
   87600    2183.2989   -115.87257    1.9754948   -113.89708   -11589.247     4.327717     4.327717     4.327717   -11589.247   -7279.8249      7133.48   -34621.397   -3914.2475   -38752.267    30208.514    81.054395 
   87700    2100.8878    -115.8019    1.9009274   -113.90097   -15763.017    4.3156321    4.3156321    4.3156321   -15763.017      43960.5   -62685.516   -28564.034   -4945.3761    2164.2819   -61532.647    80.377271 
   87800    1473.4372   -115.25161    1.3331969   -113.91841   -6165.1428    4.3151626    4.3151626    4.3151626   -6165.1428    108801.95   -67116.775   -60180.608   -9210.9008     7043.307   -91412.902    80.351039 
   87900    2450.6399     -116.124    2.2173905   -113.90661    5459.5553    4.3249665    4.3249665    4.3249665    5459.5553   -3302.0168    25058.783   -5378.1003    5080.2338   -23543.716    35858.474     80.89995 
   88000    697.73292   -114.56707   0.63132341   -113.93575    -46999.19    4.3406809    4.3406809    4.3406809    -46999.19    44428.703   -65848.205   -119578.07   -4712.3085    -17226.02   -119742.53    81.784984 
   88100    2872.1229   -116.48903    2.5987572   -113.89027    5304.7504    4.3334522    4.3334522    4.3334522    5304.7504     24845.68    275.49115   -9206.9201   -24996.729   -9806.1656    32625.503    81.377068 
   88200    1596.1309   -115.33877    1.4442128   -113.89456   -6889.9941    4.3316089    4.3316089    4.3316089   -6889.9941    51517.816   -29937.992   -42249.807    8455.5161    1859.6741   -93432.528    81.273265 
   88300    1810.0391   -115.52067    1.6377614   -113.88291   -9191.9798    4.3388083    4.3388083    4.3388083   -9191.9798     16263.01    6110.2714   -49949.221    2135.7765   -29651.291   -48285.825    81.679182 
   88400    2406.2482    -116.0513     2.177224   -113.87408    9637.1321    4.3305113    4.3305113    4.3305113    9637.1321    66049.236    -12548.25   -24589.589    18092.666   -13636.997   -2268.9148    81.211502 
   88500    1172.1317   -114.95871    1.0605694   -113.89814     19621.71    4.3247525    4.3247525    4.3247525     19621.71    183498.31   -59458.697   -65174.486    16825.828     7121.989   -95763.632    80.887939 
   88600    2825.9853   -116.41457    2.5570109   -113.85756    24599.237    4.3317228    4.3317228    4.3317228    24599.237     43468.58    25543.689    4785.4432    20872.318    8818.5384    32870.648    81.279678 
   88700    839.82168   -114.66229    0.7598883    -113.9024    3172.2081    4.3397117    4.3397117    4.3397117    3172.2081    98090.077   -41850.259   -46723.194    3578.6196   -23599.136      -116422    81.730214 
   88800    3033.7817   -116.59942    2.7450294   -113.85439    -3511.798    4.3458058    4.3458058    4.3458058    -3511.798   -15720.865    2055.4726    3129.9981   -5281.1369   -12187.025    32266.002     82.07501 
   88900    1841.9936   -115.54286    1.6666745   -113.87618   -29207.267    4.3353986    4.3353986    4.3353986   -29207.267    48448.315   -53144.001   -82926.115   -1002.4294    9224.2559   -97616.275    81.486769 
   89000    1794.3057   -115.51402    1.6235255   -113.89049     3463.825    4.3133626    4.3133626    4.3133626     3463.825    30164.884    -13144.81   -6628.5991    2344.1578   -22697.213    -51721.88     80.25053 
   89100    2429.6224   -116.09649    2.1983734   -113.89812    15700.531    4.3049157    4.3049157    4.3049157    15700.531    41309.195    37328.015   -31535.618    1052.8391    -34025.19   -1652.0787    79.779987 
   89200    1098.4905   -114.93419   0.99393731   -113.94025   -10524.943    4.3222671    4.3222671    4.3222671   -10524.943    101778.47   -91571.727   -41781.577    4338.2865   -3627.0943   -119790.77    80.748561 
   89300    2982.9483    -116.5946    2.6990343   -113.89557   -15630.194    4.3410751    4.3410751    4.3410751   -15630.194    13054.881   -31767.673    -28177.79     5365.043    -6758.914    54800.597    81.807268 
   89400    1092.0469    -114.9051   0.98810698   -113.91699    -18595.96    4.3372363    4.3372363    4.3372363    -18595.96    12842.355   -35778.447   -32851.786   -8709.7835   -9304.4231   -75883.612    81.590434 
   89500    1943.5772   -115.67195    1.7585895   -113.91336    -9799.173    4.3155002    4.3155002    4.3155002    -9799.173    16853.238   -43291.913   -2958.8437   -2511.4981   -5593.8458   -67819.296    80.369899 
   89600      2499.19   -116.16023    2.2613196   -113.89891      20599.7    4.3009478    4.3009478    4.3009478      20599.7    38587.845    -20881.34    44092.594   -8465.7654    1917.3873    46432.948    79.559586 
   89700    966.70754   -114.81759   0.87469729   -113.94289   -13526.763    4.3131658    4.3131658    4.3131658   -13526.763      80963.7    -84412.12   -37131.869    6319.3848    10073.664   -85431.751    80.239543 
   89800    2641.1103   -116.32139    2.3897321   -113.93165   -10500.917     4.326673     4.326673     4.326673   -10500.917   -12514.427   -40117.327    21129.005    -12694.32   -21958.178   -12456.952    80.995747 
   89900    2118.1575   -115.85157    1.9165534   -113.93502   -10097.495    4.3277669    4.3277669    4.3277669   -10097.495   -4080.4508   -41742.579    15530.546   -26815.115   -1017.4423   -21942.628    81.057197 
   90000     1053.866   -114.89599   0.95356011   -113.94243   -19406.554    4.3233135    4.3233135    4.3233135   -19406.554    69809.583   -75348.618   -52680.626   -7124.2737    11571.816    -73158.55    80.807224 
   90100    2963.6049    -116.5961     2.681532   -113.91457    16976.781    4.3155438    4.3155438    4.3155438    16976.781    25132.267    5956.0789    19841.996    13583.865   -8141.5959    43803.132    80.372337 
   90200    1425.4387    -115.2354    1.2897669   -113.94563    11509.057    4.3144468    4.3144468    4.3144468    11509.057    68097.417   -36770.916    3200.6711    15625.633   -10977.558   -74820.279    80.311058 
   90300    1904.7399   -115.67238    1.7234486   -113.94893   -6845.5771    4.3290795    4.3290795    4.3290795   -6845.5771     11050.81   -4168.5219    -27419.02   -15274.423    3147.9736   -52671.246    81.130973 
   90400    2779.2147   -116.42517    2.5146918   -113.91048   -9644.5179    4.3458661    4.3458661    4.3458661   -9644.5179    30798.459   -25996.329   -33735.684    536.56416   -4387.0355   -7647.5377    82.078425 
   90500    1072.6314   -114.87397   0.97053944   -113.90343   -32866.964    4.3513778    4.3513778    4.3513778   -32866.964   -6662.6352   -61726.323   -30211.935    24602.256   -8528.5358   -92051.558    82.391116 
   90600    2837.9006   -116.42116    2.5677921   -113.85337   -2273.9208    4.3403157    4.3403157    4.3403157   -2273.9208   -8313.8331    6299.1587   -4807.0881     2926.474   -5415.6462    27316.571    81.764346 
   90700    1352.7496   -115.09814    1.2239962   -113.87414   -16639.416    4.3242529    4.3242529    4.3242529   -16639.416    70184.986   -55962.071   -64141.164   -6438.5083   -455.86427      -106105    80.859909 
   90800    2405.3464   -116.05086     2.176408   -113.87445    7229.4459    4.3080314    4.3080314    4.3080314    7229.4459   -5264.3235   -4354.4157    31307.077    25194.929   -13739.588    5125.7879    79.953334 
   90900    1465.2214   -115.24212    1.3257632   -113.91636   -2232.6587    4.3213559    4.3213559    4.3213559   -2232.6587    36873.233   -29787.333   -13783.877    22523.625   -18295.432   -62191.494    80.697504 
   91000    1774.0248   -115.51528    1.6051749    -113.9101   -25391.876    4.3468772    4.3468772    4.3468772   -25391.876    49429.531   -74048.937   -51556.223    -4008.974    8167.1874   -91380.657    82.135727 
   91100    2932.3482   -116.52689    2.6532503   -113.87364   -6458.0864     4.347313     4.347313     4.347313   -6458.0864   -58120.717    14768.487    23977.971     9157.323    4573.6444    30237.601    82.160433 
   91200    454.43943   -114.33128   0.41118635    -113.9201   -9073.4182    4.3253198    4.3253198    4.3253198   -9073.4182    39308.745   -75160.577    8631.5776    7849.0161   -2678.6362   -125200.43    80.919777 
   91300    2656.7869   -116.29705    2.4039166   -113.89314     22614.04    4.3091633    4.3091633    4.3091633     22614.04    9841.6602    20154.541     37845.92    1438.6825   -298.29524    16949.063     80.01637 
   91400    1840.9742    -115.5738    1.6657521   -113.90805    -4683.551    4.3193821    4.3193821    4.3193821    -4683.551    37675.944   -34931.364   -16795.233   -4963.1844    4444.6695   -59014.731    80.586978 
   91500    1367.0537   -115.16095    1.2369389   -113.92401    -20765.79    4.3375905    4.3375905    4.3375905    -20765.79    3772.2469    -22585.64   -43483.978    12594.929    13647.464   -79109.875    81.610426 
   91600    2990.8726   -116.60396    2.7062044   -113.89775   -6552.8934    4.3341042    4.3341042    4.3341042   -6552.8934   -55324.656   -12454.133    48120.109    17417.826    15447.667    26895.445    81.413805 
   91700     1038.596   -114.87868   0.93974353   -113.93894   -7678.6183    4.3058943    4.3058943    4.3058943   -7678.6183    77709.139   -55463.503   -45281.491   -7271.9314   -3330.5692   -119664.55    79.834407 
   91800    2059.7979    -115.7924    1.8637484   -113.92865    30336.386    4.2933774    4.2933774    4.2933774    30336.386    36537.758   -7083.6069    61555.005    7814.3584    10209.205    15428.439    79.140212 
   91900    2222.2835   -115.94447    2.0107688    -113.9337    -7559.075    4.3200665    4.3200665    4.3200665    -7559.075    3899.3584   -27770.234    1193.6509     11192.15    3975.4336   -18620.403    80.625292 
   92000     1273.555   -115.08521    1.1523393   -113.93287   -20495.433    4.3352634    4.3352634    4.3352634   -20495.433    48050.324    -62675.57   -46861.053    4885.0406   -8702.5069   -123990.43    81.479144 
   92100    2756.5607   -116.38391    2.4941941   -113.88972    5099.6643    4.3329885    4.3329885    4.3329885    5099.6643   -25167.954    30626.481    9840.4655    8784.7414     2268.273    67563.386    81.350944 
   92200    763.17424    -114.6093   0.69053609   -113.91877    -17532.15    4.3222488    4.3222488    4.3222488    -17532.15    91400.886   -57551.197    -86446.14   -6971.6937   -4109.4447   -82922.441     80.74754 
   92300    2013.0958   -115.72787    1.8214913   -113.90637    16601.881    4.3089763    4.3089763    4.3089763    16601.881    33021.909    38410.447   -21626.711    15235.574   -3868.8728   -47608.029    80.005958 
   92400    2311.6548   -115.99605    2.0916338   -113.90442    7235.5861     4.322522     4.322522     4.322522    7235.5861    17952.989    34567.446   -30813.676     5865.618    1482.3983   -28645.317     80.76285 
   92500    667.25368   -114.52203   0.60374515   -113.91828   -36749.451    4.3376595    4.3376595    4.3376595   -36749.451    85748.557   -70838.784   -125158.12    -5000.859    3878.3365   -100977.83    81.614322 
   92600     2885.709   -116.47584    2.6110501   -113.86479   -11275.861    4.3371058    4.3371058    4.3371058   -11275.861   -25396.362    3642.0653   -12073.288   -13498.698   -5857.3944      68080.1    81.583068 
   92700    1355.4325   -115.10339    1.2264238   -113.87697    -34962.97     4.339468     4.339468     4.339468    -34962.97    41905.831   -66646.976   -80147.766   -2103.7856       1586.7   -127801.75    81.716447 
   92800     2432.205    -116.0669    2.2007102   -113.86619    2621.6596    4.3181637    4.3181637    4.3181637    2621.6596    24112.735   -25119.336    8871.5796    10273.154    5085.5097   -6409.6936    80.518801 
   92900    1857.0136   -115.56846    1.6802649    -113.8882    7435.1293    4.3001051    4.3001051    4.3001051    7435.1293    39417.267    -18289.86    1177.9809   -1223.8006   -194.09296   -4358.8773    79.512833 
   93000    1075.6533   -114.91348    0.9732737   -113.94021   -24321.003    4.3147527    4.3147527    4.3147527   -24321.003    63926.172   -60641.827   -76247.355   -6576.3554   -2005.7381   -108509.25    80.328144 
   93100    3021.3978   -116.63358    2.7338243   -113.89975    -564.5784    4.3315148    4.3315148    4.3315148    -564.5784    -42891.47    9071.0852     32126.65    14992.761    3450.9666    22375.768    81.267971 
   93200    670.40919   -114.51776   0.60660032   -113.91116   -25813.767    4.3487406    4.3487406    4.3487406   -25813.767    55746.692   -83142.148   -50045.843     17472.89    -3596.693   -100282.88    82.241402 
   93300     2624.994   -116.22073    2.3751498   -113.84558   -21955.509    4.3519695    4.3519695    4.3519695   -21955.509   -12612.764   -36909.327   -16344.436   -9933.5998   -4892.9288    35677.008    82.424728 
   93400    1332.6166   -115.07432    1.2057795   -113.86854   -30337.811       4.3297       4.3297       4.3297   -30337.811    7768.0825   -73379.258   -25402.258      13331.1    19015.842   -64281.542    81.165866 
   93500    1399.4548   -115.16107    1.2662561   -113.89481    5074.5241    4.3024553    4.3024553    4.3024553    5074.5241    21253.701    3851.7319   -9881.8607    18178.296   -6930.1919   -78832.624    79.643275 
   93600    3231.7807   -116.81371    2.9241831   -113.88952    30695.465    4.3032687    4.3032687    4.3032687    30695.465    19307.232    31206.858    41572.305   -13932.775   -1929.6595    28065.124    79.688451 
   93700    883.49056   -114.74611   0.79940082   -113.94671    9508.1081    4.3237093    4.3237093    4.3237093    9508.1081    116920.34   -39090.795    -49305.22    11527.169    23804.894   -103485.87    80.829419 
   93800    2677.6372   -116.32873    2.4227824   -113.90595    488.79463    4.3503513    4.3503513    4.3503513    488.79463   -12080.173    12186.421    1360.1367   -3013.9846    -8168.329    15755.478    82.332819 
   93900    1866.0427   -115.56251    1.6884347   -113.87408   -22730.914    4.3622658    4.3622658    4.3622658   -22730.914    45205.786   -49433.077    -63965.45    612.06892   -5375.0718   -57846.429    83.011137 
   94000    1720.2525   -115.38895    1.5565206   -113.83243    11686.225    4.3442432    4.3442432    4.3442432    11686.225    60650.232    10034.176   -35625.733    23891.085    27824.712   -34065.614    81.986507 
   94100    2277.8553    -115.8575    2.0610513   -113.79645   -5255.6434    4.3328959    4.3328959    4.3328959   -5255.6434    27580.526    5925.3833   -49272.839    14263.307   -963.01841    -41540.71    81.345731 
   94200    1352.5295   -115.06571    1.2237971   -113.84191    -25319.97    4.3224079    4.3224079    4.3224079    -25319.97    52410.389   -65779.802   -62590.496    1021.6255    2556.3413   -112650.51    80.756456 
   94300    2635.7979   -116.24457    2.3849253   -113.85964    25712.055    4.3112366    4.3112366    4.3112366    25712.055     5517.424    54358.525    17260.216    8039.7011     25515.46    42864.915    80.131926 
   94400    710.87428   -114.57152   0.64321399    -113.9283   -13264.609     4.321232     4.321232     4.321232   -13264.609    119302.94   -77445.651   -81651.114    6817.9615   -7288.8553   -132585.54    80.690565 
   94500    2654.5706   -116.29609    2.4019113   -113.89418   -263.69477    4.3344363    4.3344363    4.3344363   -263.69477    17128.279   -15012.615   -2906.7484   -9570.2132   -15541.056    8917.3887    81.432522 
   94600    1638.5277   -115.37835    1.4825743   -113.89578   -9012.5044    4.3367668    4.3367668    4.3367668   -9012.5044    28921.474    7913.0272   -63872.014    991.59736    11677.944    -74510.92     81.56394 
   94700    1445.1296   -115.20975    1.3075837   -113.90216   -25708.309    4.3286715    4.3286715    4.3286715   -25708.309    32813.197   -36653.661   -73284.463    2554.4197    1127.1978   -88053.844    81.108035 
   94800    2722.9672   -116.35068     2.463798   -113.88688    32579.514    4.3055461    4.3055461    4.3055461    32579.514    11617.241    31687.642    54433.658    14786.047   -7164.4037    28987.796    79.815039 
   94900    933.22455   -114.78038   0.84440118   -113.93598       6061.8    4.3050619    4.3050619    4.3050619       6061.8    95063.425   -65754.445    -11123.58   -577.52427   -9052.2161   -143527.27    79.788115 
   95000    2810.6455   -116.45828    2.5431311   -113.91514        -6430    4.3316632    4.3316632    4.3316632        -6430   -37924.654   -2952.7046    21587.359     9475.762    23435.719    7617.9416    81.276321 
   95100      1369.21    -115.1515      1.23889   -113.91261   -476.68928    4.3416833    4.3416833    4.3416833   -476.68928    39233.963   -11900.465   -28763.565    12111.047    24221.154   -78299.267     81.84166 
   95200     2109.254   -115.78564    1.9084974   -113.87715    915.74147    4.3417812    4.3417812    4.3417812    915.74147    4568.8812    37987.586   -39809.242    13105.948    -13713.68   -52440.237    81.847197 
   95300    2403.5064   -116.04879    2.1747431   -113.87405    21726.394      4.32244      4.32244      4.32244    21726.394     25011.22    62632.904   -22464.941   -8199.3801    8014.9702   -1171.1289    80.758253 
   95400    993.81878    -114.7957   0.89922812   -113.89647     10297.37    4.3102375    4.3102375    4.3102375     10297.37    52813.624    34421.332   -56342.847   -6093.4476    24852.964   -117338.97    80.076227 
   95500     3349.251   -116.91313    3.0304727   -113.88265    18028.847    4.3212764    4.3212764    4.3212764    18028.847   -31084.128    33769.288     51401.38   -2046.6431   -2961.8448    47930.683    80.693051 
   95600    1281.5573   -115.08905      1.15958   -113.92947   -7593.9325    4.3255692    4.3255692    4.3255692   -7593.9325    34439.192    -17207.71    -40013.28   -496.68516   -3050.1002   -102720.62    80.933773 
   95700    1549.0164   -115.33254    1.4015826   -113.93096   -7865.9495    4.3279682    4.3279682    4.3279682   -7865.9495    23522.622   -6419.9117   -40700.559    4120.3291    20695.593   -54336.035    81.068507 
   95800     2503.485    -116.1745    2.2652059   -113.90929    15800.257    4.3231618    4.3231618    4.3231618    15800.257    12845.124    56039.823   -21484.176    -1141.841   -782.39281    8693.7904     80.79872 
   95900    1040.4355   -114.87091   0.94140786   -113.92951      9728.98    4.3154628    4.3154628    4.3154628      9728.98    67491.119    3303.8224   -41608.001    17167.538   -11985.278   -118667.71    80.367808 
   96000    2489.5928    -116.1712    2.2526359   -113.91857    603.41576    4.3181069    4.3181069    4.3181069    603.41576   -23767.479    53168.257   -27590.531   -1386.9892     17897.77    30412.307    80.515623 
   96100     1721.499   -115.48995    1.5576484    -113.9323   -6956.4854    4.3179891    4.3179891    4.3179891   -6956.4854    40945.736   -17157.231   -44657.961    2125.8426    13215.717    -74122.71    80.509033 
   96200    1688.6765   -115.47291      1.52795   -113.94496   -10052.263     4.323256     4.323256     4.323256   -10052.263    45123.807   -43622.996     -31657.6   -298.03845   -11944.186   -98389.803    80.803999 
   96300    2909.9984   -116.55754    2.6330277   -113.92452    13967.053    4.3247449    4.3247449    4.3247449    13967.053    -30592.03    38327.686    34165.503   -5917.3606      5012.71    63612.194    80.887515 
   96400     1018.351   -114.87316   0.92142541   -113.95174    18729.812    4.3103026    4.3103026    4.3103026    18729.812    63079.988   -24884.435    17993.882    7096.1944    21787.838    -101519.4    80.079857 
   96500    2188.5554   -115.92985     1.980251    -113.9496    3910.8564    4.3196784    4.3196784    4.3196784    3910.8564     22551.54   -1504.2684   -9314.7019    -10547.37   -25337.331   -46026.466    80.603562 
   96600    2279.2931   -115.98164    2.0623523   -113.91929   -757.86018    4.3350633    4.3350633    4.3350633   -757.86018    52.531221    3228.8012    -5554.913    -1862.115     -27888.9   -6269.3141    81.467865 
   96700     1268.689   -115.06872    1.1479365   -113.92079   -25389.642     4.336844     4.336844     4.336844   -25389.642    53604.677   -87753.544    -42020.06   -3756.6658    16420.163   -116365.29    81.568296 
   96800    3114.3392   -116.70533    2.8179196   -113.88741    7373.8926    4.3310628    4.3310628    4.3310628    7373.8926   -19520.529    15078.195    26564.011   -8337.3257    8259.7013    28858.205    81.242529 
   96900    1120.6078   -114.93184    1.0139495   -113.91789    18769.999    4.3176304    4.3176304    4.3176304    18769.999    44579.716   -966.49224    12696.774    8022.3058   -20294.169   -100531.28    80.488973 
   97000    1579.9329    -115.3552    1.4295565   -113.92564    18840.712     4.321212     4.321212     4.321212    18840.712    62848.137    31013.259    -37339.26    8742.6348   -3340.6756    -49909.94    80.689445 
   97100    2505.2792   -116.16953    2.2668293    -113.9027    1934.4848    4.3316921    4.3316921    4.3316921    1934.4848    26551.761    -9320.445   -11427.862    13670.773    22631.345    5610.3683    81.277949 
   97200    945.50223   -114.77345   0.85551029   -113.91794   -7445.0673    4.3277093    4.3277093    4.3277093   -7445.0673    88106.398   -17798.285   -92643.314   -3174.8337   -14499.758   -117199.19    81.053962 
   97300    2796.3939   -116.40936    2.5302359   -113.87912   -5987.4708    4.3295915    4.3295915    4.3295915   -5987.4708   -39056.194    40277.759   -19183.977   -2407.7201   -42337.931    32105.646    81.159761 
   97400    1074.3729   -114.87708   0.97211516   -113.90497    -39917.43     4.332954     4.332954     4.332954    -39917.43    33636.008   -90708.613   -62679.684    5798.7702   -9146.6653   -115097.46    81.349005 
   97500    2423.6223   -116.08769    2.1929444   -113.89475    4161.5705    4.3223706    4.3223706    4.3223706    4161.5705    7109.0473    -14361.04    19736.705    705.60513    8177.2728   -20068.915    80.754363 
   97600    1903.5168   -115.63442     1.722342   -113.91208   -3807.6067    4.3296334    4.3296334    4.3296334   -3807.6067    40012.461   -23079.361    -28355.92    -10278.79   -31103.567   -35900.663    81.162117 
   97700    1176.4598   -114.96467    1.0644855   -113.90019    -26250.95    4.3414384    4.3414384    4.3414384    -26250.95    58510.414   -65518.407   -71744.857    11536.336   -25810.307   -94755.244    81.827812 
   97800    2984.0282    -116.5437    2.7000114   -113.84368   -16539.111    4.3448754    4.3448754    4.3448754   -16539.111   -53914.924   -30312.215    34609.805    1171.4785     11468.57    17260.458    82.022308 
   97900    1109.1857   -114.87432    1.0036146    -113.8707   -51016.552     4.350292     4.350292     4.350292   -51016.552    23811.429   -86096.244   -90764.841   -12032.858   -15242.264   -108984.63    82.329454 
   98000    2946.6082   -116.51276     2.666153   -113.84661    6844.0026    4.3261622    4.3261622    4.3261622    6844.0026    7714.0274    8542.2939    4275.6865   -7059.2772   -22719.069    36932.294    80.967063 
   98100    1570.0521   -115.30024    1.4206162   -113.87963   -3475.2201    4.3104262    4.3104262    4.3104262   -3475.2201     45092.36    -47593.38   -7924.6403   -6670.3859    5291.4232   -66320.989    80.086745 
   98200    1969.8828   -115.69434    1.7823914   -113.91194   -12810.223    4.3151784    4.3151784    4.3151784   -12810.223    27575.128   -20178.758   -45827.037   -17947.169   -12249.076   -72666.224    80.351922 
   98300    2378.9933   -116.06917    2.1525631    -113.9166    9694.4054    4.3282468    4.3282468    4.3282468    9694.4054   -11571.443    22580.606    18074.054    749.09837   -14316.489    28151.453    81.084164 
   98400    1070.2381   -114.89277   0.96837394   -113.92439   -12397.662    4.3517033    4.3517033    4.3517033   -12397.662    35101.916    -5558.833   -66736.069   -6371.2292   -14462.387    -58305.36    82.409604 
   98500    2913.6631   -116.51071    2.6363436   -113.87437   -23352.951    4.3448947    4.3448947    4.3448947   -23352.951   -44375.695   -5876.2251   -19806.932   -4527.5714    26146.864    12105.467      82.0234 
   98600    1090.7691   -114.87792   0.98695083   -113.89097    26126.448    4.3097143    4.3097143    4.3097143    26126.448   -25578.956    63276.599    40681.701   -2070.8744    21804.777   -17480.204    80.047068 
   98700    2310.8808   -115.99354    2.0909335    -113.9026    10403.544    4.3056434    4.3056434    4.3056434    10403.544    20300.647   -6324.1284    17234.113    1654.0204   -25290.111   -30885.409     79.82045 
   98800     2039.761   -115.77227    1.8456186   -113.92665    39387.455    4.3101179    4.3101179    4.3101179    39387.455   -37558.475    46026.522    109694.32   -1250.6748    38079.944    22701.194    80.069561 
   98900    1075.7361   -114.93389   0.97334864   -113.96054   -10093.467    4.3318244    4.3318244    4.3318244   -10093.467    -49392.24    61905.318   -42793.478   -12171.329    26010.151    4071.7216    81.285395 
   99000    2970.4756    -116.5943    2.6877488   -113.90655   -20721.324    4.3393997    4.3393997    4.3393997   -20721.324   -39754.319   -43319.188    20909.535    11179.442   -39550.383   -1420.3432    81.712588 
   99100    1058.5495   -114.89271    0.9577978   -113.93491   -10339.255    4.3112812    4.3112812    4.3112812   -10339.255   -37366.849   -12163.831    18512.914    34441.092    62384.034     -4962.87    80.134409 
   99200    1626.6108   -115.41822    1.4717917   -113.94643    4071.1709    4.2986306    4.2986306    4.2986306    4071.1709    -1699.027    26230.621   -12318.081   -15335.615    45531.073    21916.834    79.431061 
   99300     2853.512   -116.51915    2.5819176   -113.93723    30413.188    4.3130052    4.3130052    4.3130052    30413.188    38559.353   -17988.951    70669.161    10521.326   -19936.227   -3497.6415    80.230585 
   99400    735.18394   -114.63975   0.66520988   -113.97454      -2943.9    4.3321493    4.3321493    4.3321493      -2943.9   -39606.251   -16931.807    47706.358    32412.937    38401.139   -11803.584     81.30369 
   99500    2495.0584   -116.16625    2.2575813   -113.90867   -9258.1277    4.3439428    4.3439428    4.3439428   -9258.1277   -27504.746    -18693.94    18424.302   -11141.364    32066.104    18155.137    81.969501 
   99600    1663.0739   -115.39705    1.5047842   -113.89227   -26761.268    4.3421828    4.3421828    4.3421828   -26761.268   -34155.956   -29380.683   -16747.165    23933.429   -35315.042   -9907.1588    81.869911 
   99700    1033.1144   -114.83607   0.93478365   -113.90129   -24632.089    4.3271658    4.3271658    4.3271658   -24632.089   -77736.284    11782.741    -7942.723    19666.443    26570.454   -16637.522    81.023426 
   99800    2874.9631    -116.4765     2.601327   -113.87517    21945.219     4.309822     4.309822     4.309822    21945.219    29494.229    15288.843    21052.587   -10967.227    10723.669    15796.647    80.053071 
   99900    1022.3672   -114.85495    0.9250593   -113.92989    5015.5242    4.3192285    4.3192285    4.3192285    5015.5242   -44360.092    5430.9438    53975.721     19477.12   -25434.033    17246.159     80.57838 
  100000    2326.3509   -116.02752    2.1049312   -113.92259   -18662.767    4.3382971    4.3382971    4.3382971   -18662.767   -42653.443   -1908.5999   -11426.258    12028.762     26551.85   -8441.9981    81.650316 
Loop time of 22.22 on 1 procs for 100000 steps with 8 atoms

Pair  time (%) = 6.95428 (31.2974)
Kspce time (%) = 5.2786 (23.756)
Neigh time (%) = 0.260659 (1.17308)
Comm  time (%) = 1.08006 (4.86073)
Outpt time (%) = 0.0228949 (0.103037)
Other time (%) = 8.62354 (38.8098)

Nlocal:    8 ave 8 max 8 min
Histogram: 1 0 0 0 0 0 0 0 0 0
Nghost:    2056 ave 2056 max 2056 min
Histogram: 1 0 0 0 0 0 0 0 0 0
Neighs:    2151 ave 2151 max 2151 min
Histogram: 1 0 0 0 0 0 0 0 0 0

Total # of neighbors = 2151
Ave neighs/atom = 268.875
Neighbor list builds = 3109
Dangerous builds = 0
unfix 20
unfix 21
print "seeds:6787174"
seeds:6787174
