LAMMPS (10 Feb 2015)
# ---- initialize simulations
clear
units metal
dimension 3
boundary p p p
atom_style charge
atom_modify map array
# ---- create atoms
read_data /Users/eugeneragasa/pyflamestk_git/pypospack/tests/tests_integration/workflow/WorkflowLammpsThermalExpansion/param_5262/MgO_NaCl_unit.npt.T600/lammps.structure
  triclinic box = (0 0 0) to (4.2565 4.2565 4.2565) with tilt (0 0 0)
  1 by 1 by 1 MPI processor grid
  reading atoms ...
  8 atoms
# ---- define interatomic potential
include potential.mod
mass 1 24.305
mass 2 15.999

group Mg type 1
4 atoms in group Mg
group O type 2
4 atoms in group O

set group Mg charge 1.695400086
  4 settings made for charge
set group O charge -1.695400086
  4 settings made for charge

variable R_cut equal 10.0

pair_style buck/coul/long ${R_cut}
pair_style buck/coul/long 10
pair_coeff 1 1 0.0 0.5 0.0 ${R_cut}
pair_coeff 1 1 0.0 0.5 0.0 10
pair_coeff 1 2 1303.37543516 0.290482854228 0.0 ${R_cut}
pair_coeff 1 2 1303.37543516 0.290482854228 0.0 10
pair_coeff 2 2 9936.88636401 0.22003654812 26.9596347598 ${R_cut}
pair_coeff 2 2 9936.88636401 0.22003654812 26.9596347598 10

kspace_style pppm 1.0e-5

neighbor 1.0 bin
neigh_modify every 1 delay 0 check yes
# ---- define settings
compute eng all pe/atom
compute eatoms all reduce sum c_eng
# ---- run minimization
reset_timestep 0
fix 1 all box/relax iso 0.0 vmax 0.001
thermo 10
thermo_style custom step pe lx ly lz xy xz yz press pxx pyy pzz pxy pxz pyz c_eatoms
min_style cg
minimize 1e-25 1e-25 5000 10000
PPPM initialization ...
  G vector (1/distance) = 0.353118
  grid = 8 8 8
  stencil order = 5
  estimated absolute RMS force accuracy = 4.08652e-05
  estimated relative force accuracy = 2.83793e-06
  using double precision FFTs
  3d grid and FFT values/proc = 3375 512
Neighbor list info ...
  1 neighbor list requests
  update every 1 steps, delay 0 steps, check yes
  master list distance cutoff = 11
Memory usage per processor = 4.06549 Mbytes
Step PotEng Lx Ly Lz Xy Xz Yz Press Pxx Pyy Pzz Pxy Pxz Pyz eatoms 
       0   -115.99413       4.2565       4.2565       4.2565            0            0            0    97842.713    97842.713    97842.713    97842.713 -3.9648682e-11 -1.4130262e-10 -2.4072873e-11   -115.99413 
      10   -116.09248     4.299065     4.299065     4.299065            0            0            0    39915.456    39915.456    39915.456    39915.456 -6.718901e-11 1.6759609e-10 -1.4910019e-10   -116.09248 
      20   -116.11494    4.3319944    4.3319944    4.3319944            0            0            0    7.4200549    7.4200549    7.4200549    7.4200549 -9.9303313e-12 -1.50322e-10 -3.7717238e-11   -116.11494 
      22   -116.11494    4.3320008    4.3320008    4.3320008            0            0            0  0.022500426  0.022500427  0.022500425  0.022500427 -1.5011423e-10 -9.5142159e-11 1.463096e-10   -116.11494 
Loop time of 0.0146482 on 1 procs for 22 steps with 8 atoms

Minimization stats:
  Stopping criterion = linesearch alpha is zero
  Energy initial, next-to-last, final = 
        -115.994127563     -116.114943198     -116.114943198
  Force two-norm initial, final = 14.1285 3.9258e-05
  Force max component initial, final = 14.1285 8.20487e-06
  Final line search alpha, max atom move = 0.5 4.10243e-06
  Iterations, force evaluations = 22 41

Pair  time (%) = 0.00381923 (26.073)
Kspce time (%) = 0.00263333 (17.9772)
Neigh time (%) = 0 (0)
Comm  time (%) = 0.00048089 (3.28293)
Outpt time (%) = 6.58035e-05 (0.449226)
Other time (%) = 0.00764894 (52.2176)

Nlocal:    8 ave 8 max 8 min
Histogram: 1 0 0 0 0 0 0 0 0 0
Nghost:    2189 ave 2189 max 2189 min
Histogram: 1 0 0 0 0 0 0 0 0 0
Neighs:    2344 ave 2344 max 2344 min
Histogram: 1 0 0 0 0 0 0 0 0 0

Total # of neighbors = 2344
Ave neighs/atom = 293
Neighbor list builds = 0
Dangerous builds = 0
unfix 1
# ---- define output variables ----
variable natoms equal "count(all)"
variable tot_energy equal "c_eatoms"
variable length_x equal "lx"
variable length_y equal "ly"
variable length_z equal "lz"
variable tilt_xy equal "xy"
variable tilt_xz equal "xz"
variable tilt_yz equal "yz"
variable tot_press equal "press"
variable press_xx equal "pxx"
variable press_yy equal "pyy"
variable press_zz equal "pzz"
variable press_xy equal "pxy"
variable press_xz equal "pxz"
variable press_yz equal "pyz"

# ---- output ----
print "pypospack:output_section:begin"
pypospack:output_section:begin
print "tot_energy = ${tot_energy}"
tot_energy = -116.114943197766
print "num_atoms = ${natoms}"
num_atoms = 8
print "xx = ${length_x}"
xx = 4.33200077919323
print "yy = ${length_y}"
yy = 4.33200077919323
print "zz = ${length_z}"
zz = 4.33200077919323
print "xy = ${tilt_xy}"
xy = 0
print "xz = ${tilt_xz}"
xz = 0
print "yz = ${tilt_yz}"
yz = 0
print "tot_press = ${tot_press}"
tot_press = 0.0225004262556315
print "pxx = ${press_xx}"
pxx = 0.0225004265502418
print "pyy = ${press_yy}"
pyy = 0.0225004253807009
print "pzz = ${press_zz}"
pzz = 0.0225004268359518
print "pxy = ${press_xy}"
pxy = -1.50114228566484e-10
print "pxz = ${press_xz}"
pxz = -9.5142158828828e-11
print "pyz = ${press_yz}"
pyz = 1.46309599907844e-10
print "pypospack:output_section:done"
pypospack:output_section:done
print "pypospack:lammps_sim:done"
pypospack:lammps_sim:done
#------------------------------------------------------------------------------
# RUN THERMOSTAT
# running using an NPT Nose-Hoover style thermostat
#------------------------------------------------------------------------------
variable tempdamp equal 0.1
variable pressdamp equal 1.0
# set initial velocities
velocity all create 600 5911418 mom yes dist gaussian loop all
# fix for Nose-Hoover style thermostat
fix 20 all npt temp 600 600 0.1 aniso 0.0 0.0 1.0 drag 1.0 couple xyz
variable boxx equal lx
variable boxy equal ly
variable boxz equal lz
variable boxp equal press
variable boxt equal temp
# calculate averages every 10000 steps
reset_timestep 0
fix 21 all ave/time 10 10 100 v_boxx v_boxy v_boxz v_boxp v_boxt file lattice.out
thermo_style custom step temp pe ke etotal press lx ly lz press pxx pyy pzz pxy pxz pyz vol
thermo_modify flush yes
thermo 100
run 100000
PPPM initialization ...
  G vector (1/distance) = 0.352343
  grid = 8 8 8
  stencil order = 5
  estimated absolute RMS force accuracy = 4.23631e-05
  estimated relative force accuracy = 2.94196e-06
  using double precision FFTs
  3d grid and FFT values/proc = 3375 512
Memory usage per processor = 3.06549 Mbytes
Step Temp PotEng KinEng TotEng Press Lx Ly Lz Press Pxx Pyy Pzz Pxy Pxz Pyz Volume 
       0          600   -116.11495   0.54289261   -115.57206    7130.9197    4.3320008    4.3320008    4.3320008    7130.9197    6849.1694    2889.1199     11654.47   -42.210298     514.4195   -372.24987    81.295326 
     100    202.94139   -115.67965   0.18362564   -115.49602   -1517.6337    4.3624333    4.3624333    4.3624333   -1517.6337    1909.6671   -19969.722    13507.153   -26.490023   -397.05805   -1837.8404    83.020701 
     200     553.1806   -115.85139   0.50052943   -115.35087   -5875.6804    4.3566817    4.3566817    4.3566817   -5875.6804    -18914.25   -23121.618    24408.827   -236.99982    1817.3316   -568.40836    82.692763 
     300    478.58656   -115.66238   0.43303518   -115.22935    15790.306     4.352909     4.352909     4.352909    15790.306    17580.842   -7620.6124    37410.688   -173.74358   -2095.1883    3212.7506     82.47812 
     400    648.64602   -115.71087   0.58690855   -115.12397   -20414.594    4.3771312    4.3771312    4.3771312   -20414.594   -26649.673    -35045.08    450.97156   -497.04106     -3308.23    670.03365    83.862671 
     500    555.98763   -115.55801   0.50306929   -115.05494    11882.526    4.3578676    4.3578676    4.3578676    11882.526    18998.518   -4145.3016    20794.361    1207.0402    6291.2496    3239.3268    82.760309 
     600    755.46236   -115.71136   0.68355822    -115.0278   -7008.4576     4.369962     4.369962     4.369962   -7008.4576   -16579.094   -28254.539     23808.26   -205.74395    -126.7354   -4981.3175    83.451273 
     700    393.25563   -115.37791   0.35582596   -115.02209    1102.8838    4.3749524    4.3749524    4.3749524    1102.8838   -230.41103   -21205.762    24744.824    1439.9741    -2993.558   -2685.6509      83.7375 
     800     574.0432   -115.53867   0.51940635   -115.01926    11020.324    4.3579866    4.3579866    4.3579866    11020.324    6838.7316    -13641.38    39863.619    305.80586    211.98243   -8333.0377    82.767089 
     900    697.36289   -115.65352   0.63098859   -115.02253   -11556.784    4.3762631    4.3762631    4.3762631   -11556.784   -2128.8333   -23207.317   -9334.2033    1253.6224    2912.9969     915.5801    83.812782 
    1000    533.88948   -115.50879   0.48307442   -115.02572   -2372.2213    4.3664698    4.3664698    4.3664698   -2372.2213    5418.6273   -7801.5367   -4733.7546   -1063.1412    777.65912   -830.10417    83.251369 
    1100     562.0804   -115.53464   0.50858216   -115.02605    824.52762    4.3639134    4.3639134    4.3639134    824.52762   -13000.262   -11577.266    27051.111   -1007.8247   -1987.8408     4926.968    83.105234 
    1200    290.88727   -115.29004   0.26320092   -115.02683     9359.185    4.3758605    4.3758605    4.3758605     9359.185   -174.29872   -19208.768    47460.622    383.61612    674.48014    4303.4732    83.789657 
    1300    739.53655   -115.69377   0.66914821   -115.02463   -7890.0538     4.362593     4.362593     4.362593   -7890.0538   -14623.847    2692.4268   -11738.741   -1388.9146   -917.61064    4749.7095    83.029818 
    1400    474.30445   -115.46132   0.42916063   -115.03216   -4861.3122    4.3718314    4.3718314    4.3718314   -4861.3122    10853.208    -7989.126   -17448.019    -604.0971   -615.55611   -1265.0436    83.558418 
    1500    620.71365    -115.5927   0.56163476   -115.03106     3740.015    4.3669235    4.3669235    4.3669235     3740.015   -15959.046   -732.50268    27911.594    1030.3142   -887.90375   -9395.3224    83.277323 
    1600    439.67619   -115.42897   0.39782825   -115.03115    10003.905    4.3676182    4.3676182    4.3676182    10003.905     2453.671   -3686.4124    31244.457    1813.1488    4171.4866   -2411.7746    83.317075 
    1700    640.58517   -115.61058   0.57961492   -115.03096   -9895.1651    4.3716711    4.3716711    4.3716711   -9895.1651   -17249.614   -22093.128    9657.2475    4542.2468   -6052.5828   -3986.2338    83.549228 
    1800    581.95459    -115.5555   0.52656474   -115.02894     13246.33    4.3600885    4.3600885    4.3600885     13246.33    3418.1631    1100.1487    35220.678    1500.6998    5178.2392    5795.8319    82.886901 
    1900    808.79674   -115.75856   0.73181629   -115.02674   -21596.759    4.3809363    4.3809363    4.3809363   -21596.759   -10677.147   -34771.335   -19341.794    1509.9699    4156.5585   -4213.9942     84.08157 
    2000    680.72048   -115.63765   0.61593019   -115.02171   -3588.2978    4.3641531    4.3641531    4.3641531   -3588.2978   -11913.035   -21879.848     23027.99    5167.9007   -6193.0539    9440.0696    83.118928 
    2100    548.59803   -115.51925   0.49638303   -115.02286    19299.009    4.3578365    4.3578365    4.3578365    19299.009    27233.013   -11045.249    41709.262   -2277.5155   -3309.1729    931.10016    82.758534 
    2200    732.94232    -115.6875   0.66318161   -115.02431   -23322.899     4.387341     4.387341     4.387341   -23322.899   -40604.697   -39497.845    10133.847    1137.0418    23.235573   -649.75408    84.450879 
    2300     547.8801   -115.51534   0.49573343   -115.01961    21934.617    4.3517632    4.3517632    4.3517632    21934.617     31152.21   -3734.0665    38385.709   -3134.9437   -700.83262   -6226.0903    82.413008 
    2400    802.73893   -115.75457   0.72633505   -115.02824   -15719.737     4.372469     4.372469     4.372469   -15719.737   -17158.539   -17033.872   -12966.799    1629.0906   -312.97395   -3392.2292    83.594982 
    2500    573.17198   -115.54703   0.51861805   -115.02842   -12811.562    4.3769072    4.3769072    4.3769072   -12811.562   -4408.7032   -14177.945   -19848.036   -5420.2277    8102.2643   -4145.6041      83.8498 
    2600    403.84825   -115.39047   0.36541038   -115.02506    26635.433    4.3510071    4.3510071    4.3510071    26635.433    21047.337     1521.069    57337.895    6211.9735    66.754245    8441.0013     82.37006 
    2700    627.58797   -115.59841   0.56785478   -115.03055   -21865.448    4.3807085    4.3807085    4.3807085   -21865.448   -36413.148   -26218.692   -2964.5042   -1188.8146   -7264.4758    668.37956    84.068457 
    2800    257.21079   -115.25972   0.23272973   -115.02699    21286.431    4.3601989    4.3601989    4.3601989    21286.431    38330.493    10514.363    15014.437    3292.7886    4446.1495    1381.7925    82.893199 
    2900    797.62152   -115.74838   0.72170472   -115.02667   -17703.505    4.3678665    4.3678665    4.3678665   -17703.505    -19363.25   -18128.247   -15619.018    -950.3113   -1737.4577    2047.5523     83.33128 
    3000    356.48359   -115.34654   0.32255385   -115.02399    3336.1506    4.3722332    4.3722332    4.3722332    3336.1506    9646.7854   -5234.6373    5596.3037    1698.9378    1487.0666   -5238.0222    83.581462 
    3100    607.69615   -115.57048   0.54985624   -115.02062    4869.2046    4.3566007    4.3566007    4.3566007    4869.2046    12865.203    2250.3726   -507.96198    3247.7808   -7.4491571    1888.5517    82.688146 
    3200     654.3076   -115.61803   0.59203127     -115.026   -14171.309    4.3739357    4.3739357    4.3739357   -14171.309   -13700.715   -23700.147   -5113.0669    -2689.305    550.45022   -8301.2854    83.679136 
    3300    315.31675   -115.31004   0.28530522   -115.02474    20922.258    4.3637198    4.3637198    4.3637198    20922.258    22683.409   -7957.8314    48041.196    -1707.598   -587.15484   -1158.5775    83.094172 
    3400    832.11832    -115.7777   0.75291815   -115.02478   -9791.4127    4.3657988    4.3657988    4.3657988   -9791.4127    -9788.299   -20398.937    812.99784     1493.144   -2744.2817   -3227.1815    83.212993 
    3500    631.93846   -115.60125    0.5717912   -115.02946   -8193.4533    4.3699361    4.3699361    4.3699361   -8193.4533    2226.7118   -23085.572   -3721.4999    -512.9348    4553.8993    2035.1622    83.449793 
    3600    622.34248     -115.592   0.56310855   -115.02889    6779.9353    4.3600038    4.3600038    4.3600038    6779.9353    19739.987   -8675.0223    9274.8409   -2771.1285    2789.5535    4218.8074    82.882071 
    3700    695.37051   -115.65818   0.62918585     -115.029   -10505.426    4.3719493    4.3719493    4.3719493   -10505.426   -19114.365   -30303.464     17901.55     2905.141   -771.46096    898.69998    83.565181 
    3800    442.09877   -115.42767   0.40002026   -115.02765    14454.803    4.3607768    4.3607768    4.3607768    14454.803    23751.068    -6847.551     26460.89   -631.74058   -8228.9708    4438.5145    82.926167 
    3900    742.37592   -115.70359   0.67171734   -115.03188   -8138.5187    4.3662775    4.3662775    4.3662775   -8138.5187   -3638.7526   -24206.551    3429.7479   -3630.7886    3845.7697    -150.5058    83.240368 
    4000    510.81133   -115.49033   0.46219283   -115.02814   -4201.7222    4.3718508    4.3718508    4.3718508   -4201.7222    1563.4524   -23068.372    8899.7529   -2195.1467   -5070.9557    512.36853     83.55953 
    4100    840.10676    -115.7786   0.76014625   -115.01846   -2604.9016    4.3571443    4.3571443    4.3571443   -2604.9016    7244.1219   -12074.115   -2984.7116    126.51174   -1019.3891   -3701.2961    82.719105 
    4200    557.28777   -115.52934   0.50424569    -115.0251   -3222.0762    4.3724282    4.3724282    4.3724282   -3222.0762    -15767.18   -20579.826    26680.777   -2763.1502   -2042.9994    1275.0811    83.592642 
    4300    558.61129   -115.52749   0.50544323   -115.02205     3899.206    4.3640051    4.3640051    4.3640051     3899.206    23842.364   -19929.272    7784.5261   -2981.6312   -3348.6025    -4540.305    83.110473 
    4400    710.06982   -115.66217   0.64248609   -115.01969      -1969.2    4.3631861    4.3631861    4.3631861      -1969.2   -2561.2324   -14607.605    11261.237    831.43947   -3944.8309    4594.9482    83.063689 
    4500     420.1258   -115.40245   0.38013865   -115.02231    2422.1038    4.3747034    4.3747034    4.3747034    2422.1038    15933.622   -20559.441    11892.131   -2461.9228   -1103.0993   -2684.3872    83.723204 
    4600    896.61915   -115.82937   0.81127985   -115.01809   -2932.9901    4.3558698    4.3558698    4.3558698   -2932.9901    1387.5107   -11623.229    1436.7475   -2631.3033       1564.4    3568.3496    82.646537 
    4700    557.82955   -115.53232    0.5047359   -115.02758   -6753.2388    4.3709365    4.3709365    4.3709365   -6753.2388    5835.8588   -16044.701   -10050.874    4216.7195    1761.9571     2614.398    83.507116 
    4800    504.72762   -115.48619   0.45668816   -115.02951     1255.413    4.3668941    4.3668941    4.3668941     1255.413     27820.61    -19326.42   -4727.9519   -183.77888   -5328.4488   -1157.3442    83.275641 
    4900    617.87853   -115.58923   0.55906948   -115.03016    12429.696    4.3576256    4.3576256    4.3576256    12429.696   -1790.2631   -14918.241    53997.592   -2825.9335   -1669.3224    1924.4031    82.746521 
    5000    466.33291   -115.45323   0.42194782   -115.03128   -9180.2481      4.37623      4.37623      4.37623   -9180.2481    14129.266   -29243.419   -12426.592   -514.40582   -4119.1942   -7025.6042    83.810884 
    5100     594.9444   -115.56284    0.5383182   -115.02452     1555.705    4.3582628    4.3582628    4.3582628     1555.705    22112.911   -11071.917   -6373.8791    1059.0967   -5596.2733    3782.4332    82.782827 
    5200     780.8178    -115.7364   0.70650036    -115.0299   -4940.4978    4.3644307    4.3644307    4.3644307   -4940.4978   -4474.7805   -21158.629    10811.917   -1189.5962    3283.8036   -3053.6264    83.134793 
    5300    582.22685   -115.55643   0.52681109   -115.02962   -12713.114    4.3761789    4.3761789    4.3761789   -12713.114    5643.5539   -22708.851   -21074.046    204.63894    2514.1449   -366.85583    83.807946 
    5400    430.84544    -115.4168   0.38983801   -115.02696    10086.719    4.3563229    4.3563229    4.3563229    10086.719    22946.746    -6927.828    14241.239   -1005.2944   -9022.6306    2424.6165     82.67233 
    5500    764.54886   -115.72015   0.69177987   -115.02837   -8970.8862    4.3676711    4.3676711    4.3676711   -8970.8862    495.45753   -31083.187    3675.0713    341.62106   -6866.2478   -1062.2196    83.320097 
    5600    368.15204   -115.36019   0.33311171   -115.02708    7728.6792    4.3727165    4.3727165    4.3727165    7728.6792    18076.508   -24413.382    29522.912   -636.82323    3143.4585    2617.7493    83.609181 
    5700     716.9113   -115.67125   0.64867641   -115.02258    613.26437    4.3579834    4.3579834    4.3579834    613.26437    4614.0078   -7628.5998     4854.385    1185.6659   -4411.1649    3923.6566    82.766904 
    5800    694.27276    -115.6563   0.62819259   -115.02811   -11266.824    4.3709299    4.3709299    4.3709299   -11266.824    5449.3739    -33176.23    -6073.615    2425.8234   -2676.3877   -164.40106    83.506736 
    5900    633.04436   -115.60155   0.57279184   -115.02876    158.93746    4.3637048    4.3637048    4.3637048    158.93746    13376.771   -10532.825   -2367.1329   -1013.1919   -3009.2249    1350.3492    83.093313 
    6000    690.60749   -115.65486   0.62487617   -115.02999   -2890.1662    4.3624797    4.3624797    4.3624797   -2890.1662    10484.326   -9069.4831   -10085.342   -3946.5913   -5457.4677    1285.6777    83.023349 
    6100    535.56349   -115.51514    0.4845891   -115.03055   -3222.4474    4.3699307    4.3699307    4.3699307   -3222.4474   -7267.4977   -15584.267    13184.422    779.57392   -3240.5925   -2075.7441    83.449482 
    6200    555.66004   -115.53112   0.50277288   -115.02834    9279.4364    4.3596182    4.3596182    4.3596182    9279.4364    25848.108   -7884.2335    9874.4344    2495.5503    3887.4255    2346.7152    82.860084 
    6300    491.37384   -115.47544   0.44460538   -115.03083     5621.392    4.3675877    4.3675877    4.3675877     5621.392    11113.432   -13134.524    18885.267   -825.35732   -4059.1719    -6562.972    83.315328 
    6400    635.05902   -115.60471   0.57461474    -115.0301   -9017.4544     4.368777     4.368777     4.368777   -9017.4544   -5411.8402   -26354.258     4713.735   -1088.1398   -875.41102   -251.85098    83.383408 
    6500    413.38684   -115.40127    0.3740411   -115.02723    13334.891    4.3609812    4.3609812    4.3609812    13334.891    29288.344   -4378.6446    15094.973    83.838262     1455.844   -4950.7692    82.937823 
    6600    781.97477   -115.73395    0.7075472   -115.02641   -10327.647    4.3665733    4.3665733    4.3665733   -10327.647    2776.4928   -16136.569   -17622.864    861.40694     -2697.41    -4763.833    83.257288 
    6700    559.54365   -115.53545   0.50628686   -115.02916   -8741.2904    4.3677966    4.3677966    4.3677966   -8741.2904    1746.0479   -8993.5395   -18976.379   -524.42658   -825.07437    4978.0806    83.327281 
    6800    376.47317   -115.36926   0.34064084   -115.02862    10518.404    4.3639202    4.3639202    4.3639202    10518.404    30449.831   -11460.182    12565.561   -3584.0846   -3029.2204   -3585.6394    83.105624 
    6900    784.27024   -115.73253   0.70962419    -115.0229   -5594.4885    4.3653923    4.3653923    4.3653923   -5594.4885    -6483.528   -18855.008    8555.0699   -1151.4392    4238.8446    6763.6038    83.189753 
    7000    367.37688   -115.35689   0.33241032   -115.02448    8611.4358    4.3670055    4.3670055    4.3670055    8611.4358    25067.938   -19435.261    20201.631   -1358.8754   -3086.5344    1635.0231    83.282015 
    7100    658.58059   -115.61927   0.59589756   -115.02337   -10360.395    4.3680585    4.3680585    4.3680585   -10360.395   -6242.6103   -20238.824   -4599.7492   -3292.9881    2873.6621    339.19855    83.342275 
    7200    691.23045   -115.64729   0.62543983   -115.02185    10613.882    4.3591357    4.3591357    4.3591357    10613.882    20054.867   -16412.508    28199.288   -63.248126   -2660.3161    5337.3858    82.832576 
    7300    552.12172   -115.52965   0.49957134   -115.03008   -3954.7775    4.3698683    4.3698683    4.3698683   -3954.7775    16156.721   -15793.925   -12227.128    1241.8619   -697.03619   -2610.4095     83.44591 
    7400    702.55559   -115.66705   0.63568707   -115.03136   -11116.463    4.3627346    4.3627346    4.3627346   -11116.463   -7895.3486   -14796.786   -10657.255   -1807.3488   -9199.9301   -1314.4049    83.037903 
    7500    656.61928   -115.62551   0.59412292   -115.03139    10397.664    4.3583439    4.3583439    4.3583439    10397.664    14503.265   -8569.0926    25258.821   -3.4081737    10514.033   -4331.2901    82.787448 
    7600     545.9402    -115.5246   0.49397817   -115.03063    -9892.888    4.3770458    4.3770458    4.3770458    -9892.888   -4341.9634   -25936.522    599.82145   -2566.6083   -5635.7522    995.50365    83.857763 
    7700    615.73859    -115.5797   0.55713322   -115.02256    7266.1448    4.3556263    4.3556263    4.3556263    7266.1448   -7932.7537   -712.92491    30444.113    876.29556    2811.7684   -993.42565    82.632681 
    7800    486.03197   -115.46572   0.43977194   -115.02595    10887.929    4.3677292    4.3677292    4.3677292    10887.929    29763.678   -13227.954    16128.063     560.6212   -3772.7109    -892.8879    83.323425 
    7900      723.054   -115.67865   0.65423446   -115.02442   -17227.066    4.3716962    4.3716962    4.3716962   -17227.066   -22455.878   -26528.328   -2696.9932   -1413.4555   -1699.5132   -2661.6078    83.550667 
    8000     670.5957   -115.62988   0.60676908   -115.02312   -1147.0821    4.3539226    4.3539226    4.3539226   -1147.0821   -794.53961   -13081.971    10435.264   -5833.9429    -1432.218    2099.3248    82.535749 
    8100    440.71173   -115.42652   0.39876523   -115.02775    973.17706    4.3739227    4.3739227    4.3739227    973.17706    14377.777    -23942.41    12484.165     1518.764   -3774.7531    1365.3142    83.678387 
    8200    623.04223   -115.58798    0.5637417   -115.02424    4138.2371    4.3605979    4.3605979    4.3605979    4138.2371     1267.161   -5208.8362    16356.387    618.34551    1778.3453     1278.193    82.915958 
    8300    456.66888   -115.44291    0.4132036   -115.02971     197.7439    4.3669489    4.3669489    4.3669489     197.7439    15984.787   -23009.793    7618.2379   -15.229963    73.660905    3956.5972    83.278773 
    8400    558.88427   -115.53076   0.50569023   -115.02507   -12932.709    4.3706236    4.3706236    4.3706236   -12932.709   -28464.569   -23721.205    13387.647   -2891.2102   -654.04463   -4235.2416    83.489185 
    8500    565.78455   -115.53133   0.51193375    -115.0194    22167.094    4.3470995    4.3470995    4.3470995    22167.094    53114.654    9669.6959    3716.9314    2966.0459    1369.0627    2273.0562    82.148331 
    8600    752.52637    -115.7039   0.68090167     -115.023   -32415.167    4.3854239    4.3854239    4.3854239   -32415.167   -37984.544   -34183.086   -25077.872    -5389.709    461.67076   -3151.2522    84.340223 
    8700    530.63169   -115.50107   0.48012671   -115.02094    15777.869    4.3517958    4.3517958    4.3517958    15777.869     34338.13   -3708.1128     16703.59   -1406.1866   -2221.9968    -837.4519    82.414861 
    8800    668.92982   -115.63226   0.60526176     -115.027    7866.9579    4.3575081    4.3575081    4.3575081    7866.9579    1670.1599     709.6794    21221.034   -260.20821   -6003.3085   -661.04716    82.739827 
    8900    498.46389   -115.47223   0.45102061   -115.02121   -14333.041     4.384475     4.384475     4.384475   -14333.041   -925.13798   -37835.069   -4238.9166   -3799.3196    5327.3468   -2627.7593    84.285483 
    9000    725.35477   -115.66332   0.65631624     -115.007    27969.088    4.3370101    4.3370101    4.3370101    27969.088     43599.25     8900.401    31407.613   -1446.3598   -6946.8391    1022.0724    81.577673 
    9100    620.29759    -115.5863   0.56125829   -115.02504   -15467.976    4.3788255    4.3788255    4.3788255   -15467.976   -12956.624   -25656.229   -7791.0745   -2729.8897    -1939.024    1064.2116    83.960091 
    9200    596.36545   -115.56332   0.53960399   -115.02372   -1802.7885    4.3634993    4.3634993    4.3634993   -1802.7885    14874.457   -4592.8415   -15689.981    3289.8053     3789.584     2088.253     83.08158 
    9300    883.88593   -115.81803   0.79975856   -115.01827    1653.5859    4.3459029    4.3459029    4.3459029    1653.5859    3591.5276   -10117.983    11487.213   -5575.7437    3844.0203    948.27702    82.080512 
    9400    378.29499   -115.36543   0.34228926   -115.02314   -14505.528    4.3834826    4.3834826    4.3834826   -14505.528    8256.3323   -29462.117   -22310.798    1015.7387   -8459.1584   -71.534317    84.228263 
    9500    653.93521   -115.61075   0.59169432   -115.01905    2898.9482    4.3514488    4.3514488    4.3514488    2898.9482     11098.78   -10395.311    7993.3754    -2064.446    855.92062    2248.1316    82.395146 
    9600    572.74553   -115.54237   0.51823219   -115.02413    3371.1694    4.3610695    4.3610695    4.3610695    3371.1694   -8049.1719   -7919.4579    26082.138   -562.95414    1218.6397    1556.1016    82.942864 
    9700    358.31595   -115.35136    0.3242118   -115.02715    5331.9404    4.3717982    4.3717982    4.3717982    5331.9404        45620   -25678.678    -3945.501   -1535.0401   -14405.099   -3202.9502    83.556517 
    9800     364.1871   -115.36405   0.32952414   -115.03452    13627.556    4.3523071    4.3523071    4.3523071    13627.556    17555.962    -4818.019    28144.726    2532.6314   -3317.9887    2445.4213    82.443913 
    9900    863.44206   -115.82119   0.78126052   -115.03993   -18036.498    4.3692902    4.3692902    4.3692902   -18036.498   -11477.211   -32052.064   -10580.218   -4802.4875    5681.2494   -2369.0623    83.412795 
   10000    456.24706   -115.44503   0.41282193   -115.03221    3168.1133    4.3672584    4.3672584    4.3672584    3168.1133     20156.59   -11271.484    619.23382    1883.0577   -3757.9433   -2670.8148    83.296484 
   10100    628.78234   -115.59495   0.56893547   -115.02601    2376.6806    4.3509666    4.3509666    4.3509666    2376.6806    10924.609    5708.5063   -9503.0735   -4554.3468   -3837.7839    3124.5934    82.367758 
   10200    842.01846   -115.79081     0.761876   -115.02893    -27138.15    4.3763756    4.3763756    4.3763756    -27138.15   -19949.799   -34345.946   -27118.705    3211.4599     -1701.68   -5336.7455     83.81925 
   10300    369.29273   -115.35956   0.33414382   -115.02542     32192.01     4.356697     4.356697     4.356697     32192.01    59986.971    4634.3683    31954.692   -2243.9439   -6158.5908    -2493.816    82.693635 
   10400    705.45214   -115.66323   0.63830792   -115.02492   -10039.984    4.3671308    4.3671308    4.3671308   -10039.984   -16227.499   -23381.668     9489.215    370.39286   -8435.5234   -3894.2879    83.289182 
   10500    373.74482    -115.3609   0.33817217   -115.02273    4990.5928    4.3695216    4.3695216    4.3695216    4990.5928    12478.535   -18466.209    20959.453    427.19099    2686.5765   -1064.3096    83.426047 
   10600    706.24985    -115.6573    0.6390297   -115.01827    12610.678     4.355316     4.355316     4.355316    12610.678    28331.412   -9210.8681     18711.49   -2262.3777    8431.6654    453.17818    82.615019 
   10700    633.83538   -115.59641   0.57350757    -115.0229   -17606.958    4.3762879    4.3762879    4.3762879   -17606.958   -8140.2903   -26244.897   -18435.688    2233.1174   -9482.3012    414.43671    83.814212 
   10800    603.36043   -115.56768    0.5459332   -115.02175    6368.5801    4.3518092    4.3518092    4.3518092    6368.5801    27072.649   -3496.8928   -4470.0154   -3793.1141   -6712.7377    3017.2314    82.415624 
   10900    805.18092   -115.75712   0.72854462   -115.02857    -20463.77    4.3737584    4.3737584    4.3737584    -20463.77   -16300.842   -32225.815   -12864.654   -358.18239    1691.5087    3684.0618    83.668961 
   11000    454.63466   -115.43965     0.411363   -115.02829    593.88763    4.3658873    4.3658873    4.3658873    593.88763    9813.9865    -16206.39    8174.0667   -773.50753   -4978.6642    4221.8405    83.218055 
   11100    570.34362   -115.53767   0.51605889   -115.02161     19796.55    4.3488565    4.3488565    4.3488565     19796.55    27614.162   -4108.3757    35883.863   -1663.3324   -6741.8878    4816.9295     82.24798 
   11200    706.65595     -115.664   0.63939715   -115.02461   -23665.575    4.3824667    4.3824667    4.3824667   -23665.575   -23143.133   -44993.832   -2859.7586   -1432.1321    10772.711   -276.02689    84.169718 
   11300    515.44297   -115.48972   0.46638364   -115.02334    30745.867    4.3437148    4.3437148    4.3437148    30745.867    62260.903   -2933.5627    32910.261      1959.29    1111.2399   -1079.3146    81.956593 
   11400    831.21905    -115.7858   0.75210447    -115.0337   -32754.486    4.3756643    4.3756643    4.3756643   -32754.486     -28429.3   -33126.384   -36707.773   -2997.0293   -15091.466   -1147.6466    83.778387 
   11500    548.64703   -115.52432   0.49642736    -115.0279    1886.2095    4.3598165    4.3598165    4.3598165    1886.2095     17408.07   -8878.7698    -2870.672    3384.5657    -10301.47   -3328.0922    82.871389 
   11600     762.2942    -115.7141   0.68973981   -115.02436    2188.2292    4.3524679    4.3524679    4.3524679    2188.2292    8319.8843   -9933.2542    8178.0574    5034.2185    4883.8574   -2861.4181    82.453051 
   11700    605.35383   -115.57034   0.54773686   -115.02261   -30942.622    4.3830986    4.3830986    4.3830986   -30942.622   -34293.012   -39870.677   -18664.177   -1131.3299   -1323.5338   -2909.1916     84.20613 
   11800    411.16896   -115.38632   0.37203432   -115.01429    34842.909    4.3422992    4.3422992    4.3422992    34842.909    64315.233    9528.0922    30685.402    2199.9117   -6935.5204   -449.22021    81.876492 
   11900    724.85896   -115.67574   0.65586762   -115.01987   -18366.204    4.3752826    4.3752826    4.3752826   -18366.204   -19630.801   -35174.244   -293.56603   -4652.6965    8869.6232    662.46379    83.756465 
   12000    547.57985   -115.51482   0.49546176   -115.01936   -806.06487    4.3608531    4.3608531    4.3608531   -806.06487    11990.123   -12144.265   -2264.0527   -1968.9702    1157.7575   -834.72464    82.930519 
   12100    648.58244   -115.60879   0.58685102   -115.02194     2602.988    4.3520536    4.3520536    4.3520536     2602.988    24802.194   -3225.4091   -13767.821   -2346.1013   -16267.378    7375.7414    82.429506 
   12200    558.51146     -115.526    0.5053529   -115.02064   -14413.483    4.3761717    4.3761717    4.3761717   -14413.483   -1213.5434   -30351.684   -11675.222     2708.205   -4323.9669    56.363393    83.807536 
   12300    706.17103   -115.65174   0.63895839   -115.01278    12959.978    4.3469325    4.3469325    4.3469325    12959.978    37843.359   -949.22267    1985.7985    1069.7425    3238.2734    5498.9196    82.138865 
   12400     587.8635   -115.55343   0.53191125   -115.02151   -26184.186    4.3740107    4.3740107    4.3740107   -26184.186   -24992.407   -23608.197   -29951.954    2114.7057   -6683.8478    1494.2038     83.68344 
   12500    437.92729   -115.41702   0.39624581   -115.02077    7127.6605    4.3555969    4.3555969    4.3555969    7127.6605    23851.046   -4285.4837    1817.4193    5549.7551   -6511.1882   -1819.6253    82.631007 
   12600    650.38142   -115.61155   0.58847878   -115.02307     10730.83    4.3560163    4.3560163    4.3560163     10730.83    22933.432   -10350.083     19609.14     5103.856    3724.3745   -301.90703     82.65488 
   12700    785.21114   -115.73773   0.71047554   -115.02726   -19052.635    4.3676275    4.3676275    4.3676275   -19052.635   -11652.726    -24878.59   -20626.589   -6174.4044   -7881.3814   -2379.4614    83.317604 
   12800     321.8517   -115.32061   0.29121818   -115.02939    30408.144    4.3468987    4.3468987    4.3468987    30408.144    79793.225    5304.6156    6126.5915    5856.0784   -7949.8785   -748.18741    82.136949 
   12900    778.01654   -115.73299   0.70396571   -115.02903   -24749.579    4.3748099    4.3748099    4.3748099   -24749.579   -20970.144   -32847.948   -20430.645    2524.1013    4109.6011   -5753.6063    83.729318 
   13000    879.42611   -115.81961   0.79572322   -115.02388    16348.159    4.3416877    4.3416877    4.3416877    16348.159    32213.596    8.2376266    16822.642    -3082.374   -3149.4853   -2615.7141    81.841909 
   13100    509.64725    -115.5005   0.46113955   -115.03937   -11104.972    4.3678959    4.3678959    4.3678959   -11104.972    2040.9059   -17628.991   -17726.831    965.12769   -10711.131    1084.2891    83.332967 
   13200    707.13163   -115.67129   0.63982756   -115.03146   -4119.0755    4.3566481    4.3566481    4.3566481   -4119.0755    3095.8947   -13380.694   -2072.4275    9446.4807    6205.3296   -1760.8809    82.690846 
   13300    711.60684   -115.67013   0.64387682   -115.02625    15203.882    4.3511978    4.3511978    4.3511978    15203.882    40785.289   -5800.2653    10626.623   -986.63511   -2926.2238    4251.0823    82.380888 
   13400    731.43933   -115.68625   0.66182167   -115.02442   -10195.719    4.3684067    4.3684067    4.3684067   -10195.719   -658.64142    -14969.37   -14959.146    -2167.292   -5510.8712    454.23359    83.362205 
   13500    593.31639   -115.55896   0.53684514   -115.02211    17990.692    4.3492778    4.3492778    4.3492778    17990.692    16371.132   -928.54201    38529.486      9571.35   -5946.2394   -1044.8167    82.271886 
   13600    568.17436    -115.5395    0.5140961   -115.02541   -4961.2884    4.3661153    4.3661153    4.3661153   -4961.2884    12607.242   -29501.345    2010.2377    3224.3444     7462.995    758.41128    83.231094 
   13700    614.91565   -115.57877    0.5563886   -115.02239    9761.0539    4.3502574    4.3502574    4.3502574    9761.0539    12200.847    2501.1885    14581.126   -1715.9263    3837.6202    2890.2586    82.327486 
   13800    646.47003   -115.61369   0.58493967   -115.02875   -16728.612     4.365794     4.365794     4.365794   -16728.612   -8386.0929   -24761.467   -17038.276    1526.6191   -10287.588    1157.5754    83.212721 
   13900    431.34682   -115.41415   0.39029166   -115.02386    3495.3632    4.3593251    4.3593251    4.3593251    3495.3632    9916.2943    -15055.28    15625.075     9741.386    2902.5739   -2893.2391    82.843376 
   14000    811.57987   -115.75321   0.73433452   -115.01888   -123.97194    4.3483591    4.3483591    4.3483591   -123.97194    14493.491    -7860.171    -7005.236   -6432.1542     -5271.06   -2973.2164     82.21976 
   14100    478.22529   -115.45761   0.43270829    -115.0249   -22014.057    4.3738314    4.3738314    4.3738314   -22014.057   -10573.507   -27272.293   -28196.372    5247.9551   -99.493142   -790.37842     83.67315 
   14200    467.71656   -115.44484   0.42319977   -115.02164    21967.169    4.3429977    4.3429977    4.3429977    21967.169    39109.171    -10074.04    36866.377    5486.7205    1295.0303   -1975.3323    81.916011 
   14300    484.44564   -115.46609   0.43833659   -115.02775   -1571.7769    4.3683458    4.3683458    4.3683458   -1571.7769    15352.113   -19896.626   -170.81826   -3077.2904    6071.5935   -1924.3399    83.358717 
   14400    551.79228   -115.52478   0.49927325   -115.02551   -2250.3473    4.3555842    4.3555842    4.3555842   -2250.3473    3333.1583   -14019.607    3935.4072    313.73861    8058.6072    3453.6477    82.630283 
   14500    648.27393   -115.61579   0.58657187   -115.02922   -6546.6798    4.3502118    4.3502118    4.3502118   -6546.6798    -8040.161   -11430.309   -169.56943    7355.0019   -9076.3019   -3740.0123    82.324897 
   14600    374.35127   -115.36534   0.33872089   -115.02662   -13422.895    4.3700825    4.3700825    4.3700825   -13422.895   -12301.732   -37107.766    9140.8118    2343.1579    3384.5193    620.32476    83.458179 
   14700    742.22666   -115.68998   0.67158228    -115.0184    6207.1314    4.3404552    4.3404552    4.3404552    6207.1314    6543.9604    10242.448    1834.9858   -9166.0785   -2379.0139     1886.663    81.772226 
   14800    501.75432   -115.47873   0.45399785   -115.02473   -26225.949    4.3763069    4.3763069    4.3763069   -26225.949   -15521.585   -38155.342    -25000.92    8841.7383    4139.1914     1378.368    83.815303 
   14900    566.91837   -115.53642   0.51295966   -115.02346    16163.832    4.3444304    4.3444304    4.3444304    16163.832    11094.736   -4828.3222     42225.08    1858.2822    2189.0383    1180.0931    81.997109 
   15000    603.63889   -115.57407   0.54618515   -115.02789    4471.9612    4.3553615    4.3553615    4.3553615    4471.9612    14634.611   -18939.804    17721.077   -2682.4539    11576.697    -5556.622     82.61761 
   15100    440.87542   -115.42346   0.39891335   -115.02454   -11576.404    4.3703491    4.3703491    4.3703491   -11576.404   -10524.608   -23798.528   -406.07535   -2718.6038    11947.346    6127.1857    83.473455 
   15200    865.01998   -115.79971   0.78268826   -115.01702    11923.234    4.3383003    4.3383003    4.3383003    11923.234    15830.946    31.280933    19907.474    8313.7442   -6460.4924   -3230.5866    81.650497 
   15300    623.70949   -115.58448   0.56434545   -115.02014    -20057.85     4.377593     4.377593     4.377593    -20057.85   -22064.169   -31991.669   -6117.7116   -4555.7172    664.41684   -1051.0209    83.889219 
   15400    765.12906   -115.71152   0.69230485   -115.01921    773.78712     4.345415     4.345415     4.345415    773.78712   -3668.6986   -3118.3902    9108.4502   -1976.6291   -271.75845    2783.8052    82.052872 
   15500    666.20066   -115.63154   0.60279236   -115.02874   -3876.4037     4.359113     4.359113     4.359113   -3876.4037   -7122.5762   -19102.112    14595.477    6963.5158    6402.8895   -635.65609     82.83128 
   15600    636.48226   -115.59639   0.57590252   -115.02048   -9574.5505    4.3707683    4.3707683    4.3707683   -9574.5505    -15168.24   -35045.658    21490.246   -4939.8978    2819.1801   -1095.7999    83.497475 
   15700    623.39199   -115.57748   0.56405817   -115.01342    18166.966    4.3429805    4.3429805    4.3429805    18166.966    29324.861   -2536.4906    27712.527    1186.7949    16789.581    5606.0709    81.915037 
   15800    519.05954   -115.48953   0.46965598   -115.01987   -8450.6762    4.3728241    4.3728241    4.3728241   -8450.6762    9800.8952   -25648.069   -9504.8553    1455.4577    6278.7476     6671.138     83.61535 
   15900    842.54981   -115.77779   0.76235677   -115.01543    1168.2368    4.3519667    4.3519667    4.3519667    1168.2368    22091.304   -18532.314   -54.279722   -3147.9066   -7386.2794   -481.25878    82.424569 
   16000    564.17016   -115.53212   0.51047302   -115.02164   -1184.1592    4.3563837    4.3563837    4.3563837   -1184.1592    5701.8423   -16201.135     6946.815    -5999.328    335.77173    1784.1316    82.675793 
   16100     610.4006   -115.57399   0.55230329   -115.02168   -10478.625    4.3670551    4.3670551    4.3670551   -10478.625   -18044.586   -23549.065    10157.776   -240.54326    -2719.511    2435.7878     83.28485 
   16200    700.50881   -115.65241   0.63383509   -115.01858    8184.3142    4.3549389    4.3549389    4.3549389    8184.3142   -2647.2731   -4198.6931    31398.909   -1005.5482    2065.5705   -1103.0348    82.593565 
   16300    609.13751   -115.57195   0.55116042   -115.02079   -9287.3371    4.3598273    4.3598273    4.3598273   -9287.3371   -11120.637    -19084.63    2343.2556   -4353.8459    4780.7106    42.815702     82.87201 
   16400    556.77858   -115.52756   0.50378496   -115.02377   -1124.9688    4.3570491    4.3570491    4.3570491   -1124.9688    11095.811   -4447.0695   -10023.648    1577.9891    14720.236    6117.4296    82.713681 
   16500    567.80831   -115.53754   0.51376489   -115.02377    5779.9216    4.3629785    4.3629785    4.3629785    5779.9216    24890.997   -17904.754    10353.521    6656.5788   -3037.2692   -4790.1659    83.051831 
   16600     643.0188   -115.60467   0.58181693   -115.02285    15293.364    4.3458739    4.3458739    4.3458739    15293.364    32639.748    2962.2089    10278.134    2347.5777   -6297.6129   -3501.4174    82.078866 
   16700    486.46166   -115.47224   0.44016073   -115.03207   -11372.743    4.3671283    4.3671283    4.3671283   -11372.743   -6402.3416   -20939.015   -6776.8733   -796.30519    752.90352    14212.102    83.289041 
   16800    620.95844   -115.58369   0.56185625   -115.02184   -6305.4274    4.3632118    4.3632118    4.3632118   -6305.4274   -13376.139   -9899.9993    4359.8558    6870.1447    2436.9256   -1918.7159    83.065157 
   16900    833.38461   -115.76717   0.75406391   -115.01311     18239.76     4.337761     4.337761     4.337761     18239.76    19246.959    6667.4316    28804.889   -2337.7458    1896.6638    1088.6114    81.620049 
   17000    434.66661   -115.41471   0.39329548   -115.02142   -27433.418    4.3781798    4.3781798    4.3781798   -27433.418   -23879.735   -31422.686   -26997.832   -879.07268    5506.4607    7445.1909    83.922959 
   17100    612.37275   -115.57222   0.55408773   -115.01813   -4304.8837    4.3497711    4.3497711    4.3497711   -4304.8837     5052.399   -5097.3612   -12869.689    198.99526    17510.275    5094.6706    82.299884 
   17200    412.29262   -115.39586   0.37305103   -115.02281    32191.343    4.3480784    4.3480784    4.3480784    32191.343      39981.6    9598.3197    46994.111   -4121.1122    -7426.157   -3235.4963    82.203841 
   17300    554.05889   -115.52356   0.50132412   -115.02224   -22627.094    4.3747806    4.3747806    4.3747806   -22627.094    4009.4889    -39333.24   -32557.532   -3059.2589   -1286.5254    3206.9231    83.727637 
   17400    281.60496   -115.27183   0.25480209   -115.01703     18674.81    4.3420569    4.3420569    4.3420569     18674.81    30328.361    4603.1555    21092.914    -4895.818    4868.8371    4720.6055    81.862787 
   17500     688.5587    -115.6455   0.62302238   -115.02247   -8025.3686    4.3629339    4.3629339    4.3629339   -8025.3686   -7180.8951   -18229.738    1334.5273    2888.8911    2476.6489   -7281.5112    83.049286 
   17600    548.84903   -115.51775   0.49661014   -115.02114   -389.99309    4.3601859    4.3601859    4.3601859   -389.99309   -1709.5713   -9742.0384     10281.63   -5141.1923    940.33332    7647.3549    82.892459 
   17700    437.43973   -115.41646   0.39580466   -115.02065    4532.8711    4.3454562    4.3454562    4.3454562    4532.8711    8884.0942   -9149.0865    13863.606    430.39967    2798.6272    13001.258    82.055201 
   17800    693.85363   -115.64915   0.62781334   -115.02134   -22780.296    4.3676028    4.3676028    4.3676028   -22780.296   -20624.696   -28677.035   -19039.159    1664.8588    15645.331   -2182.1542    83.316189 
   17900     479.6415   -115.45707   0.43398971   -115.02308    17238.911     4.346638     4.346638     4.346638    17238.911    43385.321   -8088.6324    16420.046    2330.5917   -6603.7929    5105.0924    82.122168 
   18000    546.25688   -115.52079    0.4942647   -115.02652   -9390.2075    4.3566543    4.3566543    4.3566543   -9390.2075    13255.828   -26693.161   -14733.289   -1952.3862    4497.7759    8553.7937    82.691199 
   18100    501.49901   -115.47688   0.45376685   -115.02312   -7092.9886    4.3625864    4.3625864    4.3625864   -7092.9886   -4619.4483     -19150.4    2490.8828   -1593.0508    8465.1406    -1423.056    83.029442 
   18200    841.09959   -115.77958   0.76104458   -115.01853    8090.4054    4.3425019    4.3425019    4.3425019    8090.4054    25098.987   -5382.5402    4554.7692     1710.239    675.09219     1886.175    81.887961 
   18300    558.30084    -115.5296   0.50516234   -115.02444   -15126.601    4.3669584    4.3669584    4.3669584   -15126.601   -7513.5399   -37139.398   -726.86379   -4165.7097   -1305.5751    12934.175    83.279317 
   18400    687.91837   -115.64638     0.622443   -115.02393    4470.9567    4.3478539    4.3478539    4.3478539    4470.9567    15868.414   -4059.9072    1604.3632   -3527.3051    4618.9742    1683.1336    82.191105 
   18500    721.75022   -115.67942   0.65305476   -115.02636    7502.3698    4.3548412    4.3548412    4.3548412    7502.3698     16406.23   -6951.2449    13052.124   -1354.4503    9812.6566   -773.21738    82.588003 
   18600      592.978    -115.5616   0.53653896   -115.02507    -3935.309     4.361833     4.361833     4.361833    -3935.309    30957.853     -26799.3    -15964.48    3531.9691   -3554.8238    15381.374    82.986434 
   18700    655.66148   -115.61387   0.59325628   -115.02061    11866.539    4.3426824    4.3426824    4.3426824    11866.539    22040.555   -916.77686    14475.841   -699.06396    8167.5986    4535.4887    81.898174 
   18800    790.68729   -115.73653   0.71543048    -115.0211    -16540.93    4.3677991    4.3677991    4.3677991    -16540.93   -24011.193   -18485.584   -7126.0119    492.64098    6280.7702   -5087.8699    83.327425 
   18900    572.63226   -115.54228    0.5181297   -115.02415    7835.9034    4.3485864    4.3485864    4.3485864    7835.9034    33383.118   -13581.399    3705.9921    -2546.917   -1783.9619    10219.907    82.232652 
   19000    554.12455   -115.52798   0.50138354   -115.02659    4444.7407    4.3503605    4.3503605    4.3503605    4444.7407    27064.544   -17362.176    3631.8546   -394.21257   -6902.4005    7299.6671    82.333342 
   19100    603.12083   -115.56733    0.5457164   -115.02161   -10771.865    4.3672563    4.3672563    4.3672563   -10771.865    15230.825   -28363.256   -19183.164   -4651.9312    7933.1398   -4231.8979    83.296365 
   19200    438.05083   -115.41725    0.3963576   -115.02089    10208.639    4.3457101    4.3457101    4.3457101    10208.639     39007.33   -16260.287     7878.875   -842.64567   -153.13207    9911.2844    82.069591 
   19300    713.85058   -115.66951   0.64590701    -115.0236   -15801.821    4.3570106    4.3570106    4.3570106   -15801.821    4415.4496   -36352.337   -15468.577   -3139.6112    4743.8644       7255.1    82.711493 
   19400    525.43049   -115.49958   0.47542055   -115.02416      -365.88     4.360559     4.360559     4.360559      -365.88    9299.1076   -20102.938    9706.1904    -1118.724    2843.4794   -3650.6758    82.913742 
   19500    621.54996   -115.58573   0.56239146   -115.02334    5152.3498     4.345727     4.345727     4.345727    5152.3498    29499.069   -18728.179    4686.1595     1605.797    2970.7337    11612.956    82.070547 
   19600    371.42043   -115.36405   0.33606901   -115.02798    3567.5961    4.3616654    4.3616654    4.3616654    3567.5961    24104.826   -36693.434    23291.396    2217.9945   -5791.9119    6824.2085    82.976869 
   19700    611.35346   -115.57496   0.55316545    -115.0218    5122.6152    4.3567814    4.3567814    4.3567814    5122.6152    35773.396   -24675.644    4270.0937    214.91016   -9005.0931   -4304.9056    82.698439 
   19800    625.94811   -115.58936     0.566371   -115.02299    5718.8606    4.3478688    4.3478688    4.3478688    5718.8606     14098.86   -12678.211    15735.933    2511.1417    5574.4065    6822.6023    82.191951 
   19900    458.44143   -115.44127   0.41480744   -115.02647   -10326.418    4.3617151    4.3617151    4.3617151   -10326.418    4940.7244   -28522.153   -7397.8242     1384.671     867.4393    10618.276    82.979705 
   20000    891.04993   -115.82905    0.8062407   -115.02281    -6373.843    4.3511475    4.3511475    4.3511475    -6373.843    2478.3512   -14365.104   -7234.7763   -6294.4679    6546.4405   -9053.2499    82.378033 
   20100    650.54302   -115.61492   0.58862499   -115.02629   -1336.6091    4.3570911    4.3570911    4.3570911   -1336.6091    5253.4878   -16341.588    7078.2731    2228.3807   -2392.3913    5172.2555    82.716074 
   20200    616.66595   -115.58462   0.55797231   -115.02665   -3927.1333    4.3557851    4.3557851    4.3557851   -3927.1333    20534.056   -17205.613   -15109.843   -1658.3299    3133.1674    13316.715    82.641716 
   20300     498.8221   -115.47635   0.45134472     -115.025    11322.393    4.3566723    4.3566723    4.3566723    11322.393    25254.844   -14165.842    22878.176   -420.97544   -7853.3536   -9048.7834    82.692224 
   20400    747.46229   -115.69774   0.67631958   -115.02142    6157.1126    4.3557146    4.3557146    4.3557146    6157.1126    23372.599   -15316.153    10414.892   -5127.7635   -8468.1124   -6116.7799    82.637704 
   20500    626.58156   -115.59239   0.56694417   -115.02544     3647.826    4.3531049    4.3531049    4.3531049     3647.826    10548.697   -11817.973    12212.754     2982.576    3501.1508    9206.5096    82.489259 
   20600    565.46006   -115.53645   0.51164015   -115.02481   -11215.811    4.3622992    4.3622992    4.3622992   -11215.811   -6268.2413   -23553.858   -3825.3332    -34.56697    7052.8301   -1410.6992    83.013044 
   20700    898.23886   -115.83159    0.8127454   -115.01884   -4891.2273    4.3527707    4.3527707    4.3527707   -4891.2273   -363.42163   -17810.056    3499.7955   -207.34344     5917.019   -3843.4784    82.470259 
   20800    568.52383   -115.53713   0.51441231   -115.02272    575.33255    4.3590096    4.3590096    4.3590096    575.33255   -1143.6514   -19954.909    22824.558    2735.3577   -1924.4446     10037.66    82.825387 
   20900    509.74616   -115.48483   0.46122904    -115.0236   -2855.6023    4.3560175    4.3560175    4.3560175   -2855.6023    8863.8834   -25790.079     8359.389     2624.349    4626.7378   -792.95699    82.654947 
   21000    445.05417    -115.4255   0.40269437   -115.02281    442.18834    4.3589719    4.3589719    4.3589719    442.18834    20253.498   -33364.686    14437.753    3129.9749   -7814.2778   -7082.8953    82.823236 
   21100    477.26521   -115.45416   0.43183959   -115.02233    7140.4557    4.3542536    4.3542536    4.3542536    7140.4557    40293.811   -25743.931    6871.4873   -193.57625    -7299.031    6553.1482    82.554576 
   21200     472.0583   -115.45287   0.42712827   -115.02574   -2044.4085    4.3547939    4.3547939    4.3547939   -2044.4085    26019.956   -25182.066   -6971.1158    958.14603    4837.3296   -1713.0936    82.585314 
   21300     497.7095    -115.4745   0.45033802   -115.02416   -9906.3254    4.3607361    4.3607361    4.3607361   -9906.3254    6275.9163   -28148.408   -7846.4849   -3035.8247    13155.302   -6895.9767    82.923845 
   21400    790.06458   -115.73454   0.71486703   -115.01967   -8244.0653    4.3539561    4.3539561    4.3539561   -8244.0653   -277.73075   -21405.861   -3048.6044    1857.4082   -1572.7982    3400.9688    82.537659 
   21500    545.99295   -115.51539    0.4940259   -115.02136   -5252.6048    4.3588742    4.3588742    4.3588742   -5252.6048   -1088.6068     -25733.8    11064.592   -3176.6397   -2501.0751   -1554.9462    82.817672 
   21600    620.68434   -115.58451   0.56160823   -115.02291   -917.56159    4.3529542    4.3529542    4.3529542   -917.56159    23709.663   -16143.296   -10319.051   -772.73001    6837.9516   -10996.352    82.480691 
   21700    700.74041   -115.65816   0.63404465   -115.02412    5444.3473    4.3553656    4.3553656    4.3553656    5444.3473     21313.45   -11850.941    6870.5333   -1763.3797   -6339.8481    5563.0538    82.617844 
   21800    695.29909   -115.65305   0.62912123   -115.02393    1731.2679     4.356878     4.356878     4.356878    1731.2679    30896.367   -20250.627   -5451.9356    883.61879   -1595.8944    3609.1043    82.703942 
   21900    546.99578   -115.51974   0.49493327   -115.02481    2863.2037    4.3550549    4.3550549    4.3550549    2863.2037    10854.725   -16626.666    14361.552    513.27453    7433.5607   -14061.669    82.600162 
   22000    866.03037   -115.80531   0.78360248   -115.02171    -1777.072    4.3520935    4.3520935    4.3520935    -1777.072   -1159.0581   -9395.0468    5222.8887   -39.696354    8084.7966    2012.1318    82.431773 
   22100    733.73813   -115.68838   0.66390168   -115.02447   -7636.0991    4.3593974    4.3593974    4.3593974   -7636.0991     4596.615    -23910.52   -3594.3924    4998.7228   -5522.7562    3591.0938    82.847496 
   22200    511.69654   -115.49116   0.46299378   -115.02817   -4982.1995    4.3531838    4.3531838    4.3531838   -4982.1995    13632.546   -24955.711   -3623.4331    1152.6007   -1345.1052    -16796.98    82.493745 
   22300    645.30892    -115.6102   0.58388907   -115.02631    6392.3592    4.3507289    4.3507289    4.3507289    6392.3592    36831.287   -12307.639   -5346.5711   -1389.7887    7643.4442   -4609.0509    82.354257 
   22400    507.84371   -115.48421   0.45950766   -115.02471   -6473.8863    4.3640218    4.3640218    4.3640218   -6473.8863    14349.493   -32393.606    -1377.546   -2576.1476   -850.75232    4039.4435    83.111424 
   22500    521.85678   -115.49485   0.47218698   -115.02266   -4962.1936    4.3459498    4.3459498    4.3459498   -4962.1936    28789.877   -34253.477   -9422.9813    837.94705   -2601.3668   -14589.128     82.08317 
   22600    526.64843   -115.50174   0.47652257   -115.02521   -5205.4891    4.3608011    4.3608011    4.3608011   -5205.4891    4362.7778   -31046.294    11067.049   -1759.7415    1458.9307   -4302.3357    82.927551 
   22700    824.05468   -115.76789   0.74562199   -115.02226   -8144.0245    4.3551805    4.3551805    4.3551805   -8144.0245   -2077.0402   -24173.887    1818.8537    1535.5052    1896.1179    4756.0129    82.607312 
   22800    361.97106   -115.35513   0.32751903   -115.02761      2828.05     4.350893     4.350893     4.350893      2828.05    25780.706   -32231.823    14935.267   -3552.0922   -4935.0445    -12698.34    82.363579 
   22900    435.63027    -115.4215   0.39416742   -115.02733   -8245.1063    4.3612685    4.3612685    4.3612685   -8245.1063    27983.555    -40991.74   -11727.134    382.83058    3117.4754   -6669.5112     82.95422 
   23000    749.52036   -115.69841   0.67818177   -115.02023     8902.373    4.3465622    4.3465622    4.3465622     8902.373    25359.738   -15635.559    16982.941   -4332.6563   -889.08051    1159.2955    82.117875 
   23100     316.7776   -115.31389   0.28662703   -115.02726   -4191.0894    4.3624619    4.3624619    4.3624619   -4191.0894    30379.375   -37807.502   -5145.1418    3090.1472    1779.9734   -12273.744    83.022335 
   23200    718.43629   -115.67259   0.65005625   -115.02253   -8344.9248    4.3489365    4.3489365    4.3489365   -8344.9248     6646.206   -20155.987   -11524.993    2199.7006   -8445.0005   -8221.7963    82.252517 
   23300    760.35627   -115.71072   0.68798633   -115.02273   -2232.7278    4.3571551    4.3571551    4.3571551   -2232.7278   -3355.6889   -14283.513    10941.018    1140.8086   -1365.7461    2889.2314    82.719721 
   23400    777.19201   -115.72664   0.70321967   -115.02342   -17780.403    4.3584357    4.3584357    4.3584357   -17780.403   -1289.5892   -33518.819     -18532.8    414.28129   -760.08989   -14793.468     82.79268 
   23500    493.58036   -115.47289   0.44660189   -115.02629    16847.604    4.3435105    4.3435105    4.3435105    16847.604    27764.179   -10976.455    33755.089    2082.5435    1648.5728   -8647.1648    81.945033 
   23600    742.18942   -115.69665   0.67154859    -115.0251   -5803.3589    4.3663385    4.3663385    4.3663385   -5803.3589     7508.823   -24348.328   -570.57191    841.82016    2226.3879    8274.4396    83.243856 
   23700    632.30758    -115.5953   0.57212519   -115.02318    10756.701    4.3502498    4.3502498    4.3502498    10756.701    41080.479   -17665.662    8855.2848   -71.462391    229.69196   -11778.658    82.327056 
   23800    494.48453   -115.47293   0.44741999   -115.02551    1828.0246    4.3551427    4.3551427    4.3551427    1828.0246    25206.497   -25864.784    6142.3603   -191.27255   -4587.5598   -12123.982    82.605157 
   23900    710.78053   -115.66386   0.64312916   -115.02073   -3575.6924    4.3571213    4.3571213    4.3571213   -3575.6924    6619.0346   -27902.808    10556.696    452.42926   -11637.636    7577.6877    82.717798 
   24000    587.08477   -115.55305   0.53120664   -115.02185     738.9969    4.3537376    4.3537376    4.3537376     738.9969   -737.81722   -25867.305    28822.113   -616.14413     934.4258   -6420.7401    82.525231 
   24100    559.69993    -115.5304   0.50642825   -115.02398   -15386.522    4.3597465    4.3597465    4.3597465   -15386.522   -2930.1754   -42083.345   -1146.0446   -517.84602   -268.93524   -15717.831      82.8674 
   24200    620.18958   -115.58342   0.56116057   -115.02226    2504.8084    4.3488104    4.3488104    4.3488104    2504.8084    1023.1873   -14059.126    20550.364       620.55    1700.3853    8727.1484    82.245362 
   24300    556.46616   -115.52815   0.50350227   -115.02464   -6918.1569    4.3596921    4.3596921    4.3596921   -6918.1569   -354.26263   -34342.344    13942.136    -3599.818   -5069.6627    -3383.434    82.864296 
   24400    617.42967   -115.58332   0.55866334   -115.02466   -7963.8883    4.3527899    4.3527899    4.3527899   -7963.8883    8674.3177   -38561.016    5995.0339    612.58753    3092.7971   -13723.599    82.471351 
   24500    370.65829   -115.36119   0.33537941   -115.02581    10969.782     4.350712     4.350712     4.350712    10969.782    23569.081   -21976.001    31316.264    175.86336   -5137.5284    6930.4087    82.353302 
   24600    676.32434   -115.63632   0.61195248   -115.02437   -9249.3644    4.3592601    4.3592601    4.3592601   -9249.3644    2325.8565   -27520.955   -2552.9951    -4103.071   -6720.4891    5980.4384    82.839667 
   24700      576.514   -115.54595   0.52164198   -115.02431    2568.7805    4.3519729    4.3519729    4.3519729    2568.7805    6285.8315   -20263.302    21683.812   -292.22058     826.1402   -12867.138     82.42492 
   24800    520.40859   -115.49652   0.47087663   -115.02565   -1558.0608    4.3520114    4.3520114    4.3520114   -1558.0608    20514.746   -28154.443    2965.5141    2419.6564   -754.49142    730.95306    82.427113 
   24900    696.40262   -115.65534   0.63011973   -115.02522    -7557.732    4.3551463    4.3551463    4.3551463    -7557.732    -7785.299    -19848.94    4961.0429    1810.6277   -1696.1351    13689.741    82.605366 
   25000    568.23237    -115.5388   0.51414859   -115.02465    2335.9253    4.3553416    4.3553416    4.3553416    2335.9253    -10861.84    -8709.768    26579.384   -4755.5697   -5243.9124   -8027.9411    82.616479 
   25100    808.41506   -115.75512   0.73147093   -115.02365   -3324.4529    4.3486181    4.3486181    4.3486181   -3324.4529    2508.1393   -12925.916    444.41801   -454.51225    1677.5572    -2313.964    82.234452 
   25200     609.0264   -115.58096   0.55105988    -115.0299   -9607.2002    4.3609163    4.3609163    4.3609163   -9607.2002   -15588.454   -23563.306    10330.159    433.87221   -1237.9496    15925.279    82.934123 
   25300    620.89242   -115.58957   0.56179651   -115.02777    18923.078    4.3432477    4.3432477    4.3432477    18923.078    5266.8298    5589.0122    45913.392   -4378.3548   -1660.5164   -459.34482    81.930158 
   25400    721.71326   -115.68163   0.65302132   -115.02861   -4320.4595    4.3587937    4.3587937    4.3587937   -4320.4595    2935.1914   -22270.627    6374.0566   -390.02089   -1792.4951   -7049.0973    82.813084 
   25500    537.70029   -115.51565   0.48652253   -115.02912   -7740.6376    4.3559603    4.3559603    4.3559603   -7740.6376    5949.5493   -24914.444   -4257.0182    -4277.986    1106.7516    11538.873    82.651692 
   25600    611.51272   -115.57801   0.55330956    -115.0247    21135.785    4.3386383    4.3386383    4.3386383    21135.785    35882.091    6941.7163    20583.549    -3661.495   -8728.8206    4094.3204    81.669584 
   25700    540.77257   -115.51077   0.48930238   -115.02147   -14354.525    4.3735515    4.3735515    4.3735515   -14354.525   -13317.343   -41981.763     12235.53   -805.29617   -1526.4951   -7601.9152    83.657084 
   25800    505.45766   -115.47825   0.45734872    -115.0209    12033.825    4.3368727    4.3368727    4.3368727    12033.825    25439.502   -13376.556    24038.529    1833.0949    904.97353    10555.039    81.569917 
   25900    636.84747   -115.60705   0.57623297   -115.03081   -12709.989    4.3570085    4.3570085    4.3570085   -12709.989   -170.89798   -28640.531   -9318.5397   -4297.3475    2651.9386    10353.128    82.711371 
   26000     593.3416   -115.55909   0.53686795   -115.02223   -10733.982    4.3663508    4.3663508    4.3663508   -10733.982   -12712.996   -27553.068     8064.119   -802.29937    -4158.321   -2825.2437    83.244563 
   26100    696.40108   -115.64319   0.63011833   -115.01307    15616.583    4.3312359    4.3312359    4.3312359    15616.583    24859.135   -3214.0919    25204.707    2880.7258   -2152.2371    4942.0859    81.252271 
   26200    415.47357   -115.40233   0.37592922    -115.0264    -16867.08    4.3715257    4.3715257    4.3715257    -16867.08   -5532.2957   -51829.245    6760.3025   -382.60743   -1994.3921    12810.116    83.540895 
   26300    574.90617   -115.54368   0.52018718   -115.02349    4390.9196    4.3522945    4.3522945    4.3522945    4390.9196    8546.4185   -21524.694    26151.034   -2716.8071   -14712.823   -5466.9336    82.443199 
   26400      602.465   -115.56603   0.54512299   -115.02091    15368.762    4.3412826    4.3412826    4.3412826    15368.762    38818.926   -4807.0071    12094.366   -2971.8692   -4850.9165    2416.0505       81.819 
   26500    489.44296   -115.46377   0.44285828   -115.02091   -18464.199    4.3760377    4.3760377    4.3760377   -18464.199    18865.644   -49847.957   -24410.285   -202.02177    4194.5629    12952.892    83.799837 
   26600     745.2879   -115.68984   0.67435215   -115.01549    10264.289    4.3429573    4.3429573    4.3429573    10264.289    21681.635    -10098.11    19209.341   -6076.2069    5035.1267    -2273.862    81.913725 
   26700    584.64169   -115.55344   0.52899609   -115.02444    6505.6242    4.3525154    4.3525154    4.3525154    6505.6242   -571.04641   -14674.428    34762.347   -2532.6694    549.15487    4405.8904    82.455752 
   26800    619.07977   -115.58126   0.56015639   -115.02111   -14119.876    4.3720783    4.3720783    4.3720783   -14119.876   -13029.721   -38540.355    9210.4472   -3173.8273   -578.59224    13594.396    83.572576 
   26900    894.65329   -115.82388    0.8095011   -115.01438    7420.2903    4.3408616    4.3408616    4.3408616    7420.2903    145.85786   -613.81601    22728.829   -2621.1583   -6556.2838    611.54102    81.795199 
   27000    722.37777   -115.67715   0.65362259   -115.02353   -4574.6304    4.3571403    4.3571403    4.3571403   -4574.6304   -5970.4103   -9191.2134    1437.7326   -734.18246   -12579.178    5060.4644    82.718876 
   27100    648.90754   -115.61105   0.58714518    -115.0239   -16668.671    4.3683147    4.3683147    4.3683147   -16668.671   -1406.9444   -33214.505   -15384.564   -124.06085   -667.65305    13457.745    83.356939 
   27200    733.54761   -115.68204   0.66372929   -115.01831    22530.527    4.3362635    4.3362635    4.3362635    22530.527     23763.72   -808.41206    44636.272   -765.50828    3654.4507   -4920.4995    81.535548 
   27300     457.7888   -115.44239   0.41421693   -115.02817    5902.3279    4.3625924    4.3625924    4.3625924    5902.3279    8774.3003   -23951.531    32884.214   -1133.3917     3950.881   -3373.7744    83.029788 
   27400    474.36449   -115.45883   0.42921496   -115.02961   -13270.149    4.3590184    4.3590184    4.3590184   -13270.149    -6230.048   -24714.857   -8865.5405    3417.7146   -5089.5686     10471.76    82.825889 
   27500    588.93723   -115.55591   0.53288278   -115.02302    18046.658    4.3354891    4.3354891    4.3354891    18046.658    28794.731    5258.5987    20086.644    695.00766   -1377.1538    5500.8726    81.491875 
   27600    706.65954   -115.66191    0.6394004   -115.02251   -19864.789    4.3698833    4.3698833    4.3698833   -19864.789   -19071.246   -38758.924   -1764.1977   -3578.8717   -2123.3461   -4268.6578    83.446768 
   27700    386.21174   -115.37836    0.3494525    -115.0289   -2190.0573    4.3459586    4.3459586    4.3459586   -2190.0573   -7865.5008   -18540.836    19836.165    -249.6602   -13580.355    13435.225     82.08367 
   27800    335.24196   -115.33513   0.30333397    -115.0318    11841.834    4.3449737    4.3449737    4.3449737    11841.834    1980.0849   -8393.3785    41938.796    3426.1219    5061.6566    11769.899    82.027876 
   27900    754.45191   -115.70176   0.68264394   -115.01911   -22306.473     4.372244     4.372244     4.372244   -22306.473   -22015.247   -35666.409   -9237.7642   -1773.3143    3056.5371   -4433.5712    83.582081 
   28000    526.04787   -115.49371   0.47597917   -115.01773    12587.025    4.3365607    4.3365607    4.3365607    12587.025    22108.815    3161.4692    12490.791   -6052.0906   -3859.1233    4864.4195    81.552314 
   28100     310.7051   -115.31072    0.2811325   -115.02958    -10868.72    4.3607134    4.3607134    4.3607134    -10868.72   -6084.6421    -28318.83    1797.3122    2982.9477   -9789.2181    10279.395    82.922544 
   28200    645.98252   -115.60995   0.58449856   -115.02545   -1407.4522    4.3572033    4.3572033    4.3572033   -1407.4522    1802.4078   -26020.741    19995.977   -3277.9189   -1353.5485   -7100.1509    82.722464 
   28300    597.05562   -115.56348   0.54022847   -115.02325    22967.558    4.3412465    4.3412465    4.3412465    22967.558    13523.646    7365.4074    48013.622   -1332.2708   -7408.4673   -781.01528    81.816962 
   28400    453.96204   -115.43854   0.41075439   -115.02778   -19443.433    4.3685841    4.3685841    4.3685841   -19443.433    -12891.97   -28495.969    -16942.36    1288.7834   -12203.427    13219.184    83.372361 
   28500    788.76225   -115.73482   0.71368866   -115.02113    1408.2662     4.345272     4.345272     4.345272    1408.2662    13356.809   -7469.0566   -1662.9539   -1913.6339    4120.6634    2465.9891    82.044771 
   28600    842.09135   -115.78684   0.76194195   -115.02489    3651.3424     4.351625     4.351625     4.351625    3651.3424   -2231.9382   -7751.3654    20937.331    2721.6431    3407.6651    -1941.421    82.405157 
   28700    574.59211   -115.54737   0.51990301   -115.02747   -1742.8456    4.3585602    4.3585602    4.3585602   -1742.8456   -10095.138   -13106.165    17972.767    2312.5427     -3615.19    12909.382    82.799773 
   28800    568.94649   -115.53977   0.51479474   -115.02497    4915.7933    4.3532557    4.3532557    4.3532557    4915.7933     4842.589   -15641.051    25545.841    5804.8995   -6519.8049    9155.1428    82.497831 
   28900    912.16132   -115.84502   0.82534273   -115.01967   -2527.7637    4.3558369    4.3558369    4.3558369   -2527.7637     3815.091   -12410.836     1012.454   -316.93265    2888.8612   -9454.0136    82.644665 
   29000    769.76834   -115.71864   0.69650257   -115.02214    7440.5551    4.3450762    4.3450762    4.3450762    7440.5551    24125.344   -1684.9939   -118.68448     663.0057    -11140.15    3185.4289    82.033677 
   29100    334.06718   -115.33329   0.30227101   -115.03102   -8746.1381    4.3632898    4.3632898    4.3632898   -8746.1381     10678.35   -30406.533   -6510.2305    6735.1754   -2087.4113    8814.2525    83.069611 
   29200    776.69789   -115.72902   0.70277257   -115.02625    6094.6869    4.3446886    4.3446886    4.3446886    6094.6869    14814.673   -13655.194    17124.582   -240.29849    4646.7108   -4617.4393    82.011726 
   29300    731.93419   -115.69246   0.66226944   -115.03019     6216.552    4.3530665    4.3530665    4.3530665     6216.552    13306.431   -12786.848    18130.073   -4566.3366    3350.5261   -521.63322    82.487075 
   29400    491.66394   -115.47323   0.44486787   -115.02836   -23388.248    4.3635488    4.3635488    4.3635488   -23388.248   -20782.458   -28986.835   -20395.452    2170.8467   -12114.108    14757.553    83.084404 
   29500    701.39589   -115.65411   0.63463774   -115.01948    6174.5975    4.3353404    4.3353404    4.3353404    6174.5975    15083.486   -3649.6025    7089.9086    -1069.995   -4742.7377    1661.8896    81.483486 
   29600    770.37261    -115.7197   0.69704933   -115.02265   -10448.381    4.3652236    4.3652236    4.3652236   -10448.381   -8673.4496   -32993.128    10321.435   -67.615001    4336.1855   -2832.4692    83.180108 
   29700    579.23012    -115.5517   0.52409958    -115.0276   -1429.5993    4.3482392    4.3482392    4.3482392   -1429.5993    2266.4891   -10007.721    3452.4343   -1243.7114   -12330.752    7691.2757    82.212959 
   29800     292.2327   -115.29347   0.26441829   -115.02905    8390.7291     4.346574     4.346574     4.346574    8390.7291    12511.997   -4494.2955    17154.485    3565.7476    1132.2624    3852.7402    82.118545 
   29900    715.50884    -115.6681   0.64740744   -115.02069   -15981.887    4.3651374    4.3651374    4.3651374   -15981.887   -9738.5025   -30278.667   -7928.4908    1299.6251    4002.1992   -5475.2501    83.175183 
   30000    586.98947   -115.54957   0.53112041   -115.01845     13840.53    4.3394543    4.3394543    4.3394543     13840.53    20127.763    3477.4175    17916.409    -296.0586   -3324.4205    2847.1144    81.715671 
   30100    248.81456   -115.25209   0.22513264   -115.02695   -10827.326    4.3588124    4.3588124    4.3588124   -10827.326   -15830.618   -7436.8234    -9214.536    8296.6733   -13588.731    13574.533    82.814145 
   30200    630.07241   -115.59507   0.57010276   -115.02497   -4620.7902    4.3491106    4.3491106    4.3491106   -4620.7902   -13647.212    -9184.873    8969.7147   -151.54949   -1741.9888   -2277.3963    82.262399 
   30300    527.39055   -115.50183   0.47719405   -115.02464    7649.0879    4.3509999    4.3509999    4.3509999    7649.0879   -9594.0285   -1161.4936    33702.786   -3818.3081    289.44725    4005.6883     82.36965 
   30400    567.50671   -115.53967     0.513492   -115.02617   -12460.536    4.3549386    4.3549386    4.3549386   -12460.536   -18754.274   -2115.1637   -16512.171    958.59062   -16245.934    7276.0632    82.593548 
   30500    508.88653   -115.48559   0.46045122   -115.02514     6674.194    4.3465227    4.3465227    4.3465227     6674.194   -4915.9554    4035.8775     20902.66    3107.5425    3318.1644     2322.931    82.115634 
   30600     671.1065   -115.63093   0.60723127    -115.0237   -8247.8237    4.3570407    4.3570407    4.3570407   -8247.8237   -20052.327   -17126.577    12435.433   -5251.2005   -709.19458   -3419.0219    82.713202 
   30700    651.79998   -115.61372   0.58976232   -115.02396    8373.4382    4.3423031    4.3423031    4.3423031    8373.4382    3782.6416    2852.6962    18484.977   -5449.9125   -4418.9809    3109.4961    81.876715 
   30800    469.05994   -115.45216   0.42441529   -115.02774   -1253.4666    4.3578547    4.3578547    4.3578547   -1253.4666    1719.8442   -15304.922    9824.6776    5104.6094    -9794.062    6863.9187    82.759571 
   30900    802.33593   -115.74951   0.72597041   -115.02354   -8018.7166    4.3509434    4.3509434    4.3509434   -8018.7166   -3760.5228   -21853.334    1557.7074   -4195.2248    5102.6754   -3829.0877    82.366442 
   31000    655.78009   -115.61764   0.59336361   -115.02428    8648.8444    4.3445976    4.3445976    4.3445976    8648.8444    6504.0052    128.64201    19313.886   -2942.4822    -2903.269    3730.2303    82.006573 
   31100    709.16296   -115.66526   0.64166555    -115.0236   -10265.804    4.3601123    4.3601123    4.3601123   -10265.804    3398.7634   -21315.231   -12880.945    3853.7331   -11748.644    4777.5721     82.88826 
   31200    592.77867   -115.55961    0.5363586   -115.02325    12349.668    4.3447422    4.3447422    4.3447422    12349.668    10072.419   -7756.4654     34733.05    2200.1745    3555.2426   -922.48606    82.014765 
   31300    600.94964   -115.56867   0.54375186   -115.02492   -2202.1165    4.3539919    4.3539919    4.3539919   -2202.1165    -1375.997   -15776.353    10546.001   -7060.0595   -6854.1275   -4686.2926    82.539696 
   31400    765.07177    -115.7158   0.69225301   -115.02355   -2390.6069    4.3506041    4.3506041    4.3506041   -2390.6069    11047.988   -2426.6237   -15793.185   -3756.9787   -2659.6492    1777.5353    82.347173 
   31500    520.35031   -115.49753    0.4708239    -115.0267    7490.5374    4.3504501    4.3504501    4.3504501    7490.5374    9004.4528   -4442.0199    17909.179     1301.503   -1795.3249     4279.661     82.33843 
   31600    562.57503   -115.53536   0.50902971   -115.02633   -10703.573     4.354958     4.354958     4.354958   -10703.573   -9447.6287   -23886.388     1223.297    -11194.85    7470.2195   -933.83128    82.594649 
   31700    582.99843   -115.55167   0.52750923   -115.02416    3909.5295    4.3498091    4.3498091    4.3498091    3909.5295    6319.3435   -4823.6944    10232.939   -5519.4072   -6149.6792     4996.073    82.302037 
   31800    567.70804   -115.53733   0.51367416   -115.02366   -1425.0562    4.3537786    4.3537786    4.3537786   -1425.0562   -12040.271   -5665.1388    13430.241    4342.6513   -8561.2747    5511.3729     82.52756 
   31900     435.9906   -115.42074   0.39449345   -115.02624   -201.40966    4.3467647    4.3467647    4.3467647   -201.40966    -7891.638   -17892.337    25179.746   -2220.3697    4051.7086     2624.532    82.129354 
   32000    411.44243   -115.40079   0.37228175   -115.02851    -4993.342    4.3582779    4.3582779    4.3582779    -4993.342      16123.2    -26138.76   -4964.4661   -3952.0537   -7996.6899   -767.90487    82.783684 
   32100      803.726   -115.75041   0.72722818   -115.02318    4320.5141    4.3462617    4.3462617    4.3462617    4320.5141    22540.113   -2016.9404   -7561.6304    5715.1118    3361.3083    1307.4512    82.100842 
   32200    456.67279   -115.44242   0.41320713   -115.02922   -186.38226    4.3535685    4.3535685    4.3535685   -186.38226    8022.8016   -19262.693    10680.745   -2993.5744    1021.6314   -3200.7342    82.515615 
   32300    468.98892   -115.45262   0.42435103   -115.02827   -21168.801     4.360622     4.360622     4.360622   -21168.801   -25604.412   -39035.691    1133.7013   -10659.497    10722.889    -5344.665     82.91733 
   32400     787.2753   -115.73216   0.71234324   -115.01982    16137.201    4.3395612    4.3395612    4.3395612    16137.201    22736.467   -2036.2412    27711.376   -1973.7214   -3655.7591   -3756.4803    81.721714 
   32500    606.74114    -115.5728   0.54899214   -115.02381   -5465.1078    4.3650109    4.3650109    4.3650109   -5465.1078   -2465.5527   -33183.458    19253.688   -6118.2702   -7962.4992   -787.66692    83.167953 
   32600    289.57538   -115.28921   0.26201389    -115.0272    9139.1519    4.3505172    4.3505172    4.3505172    9139.1519    22674.889    -30989.15    35731.717   -12786.683   -4421.8059   -4743.8149    82.342238 
   32700    532.10288   -115.50707   0.48145787   -115.02561    13302.271    4.3501433    4.3501433    4.3501433    13302.271    41027.144   -24097.895    22977.564    283.15687   -7065.0133   -2037.0699    82.321012 
   32800    862.89896   -115.80121   0.78076911   -115.02044   -4500.7761    4.3623967    4.3623967    4.3623967   -4500.7761    8791.2993   -30875.344    8581.7169       60.332   -4037.0694    181.32827    83.018614 
   32900    618.62441   -115.58503   0.55974436   -115.02529   -7820.1749    4.3493026    4.3493026    4.3493026   -7820.1749   -16344.581   -30806.639    23690.695   -11697.579    4457.2394   -2018.0355    82.273292 
   33000    651.01062   -115.61586   0.58904809   -115.02681   -4018.5983    4.3504781    4.3504781    4.3504781   -4018.5983    5200.8953   -21615.738    4359.0475    4714.6359    14657.199   -8.1731644    82.340018 
   33100    908.75021   -115.84581   0.82225629   -115.02355   -11702.907    4.3647472    4.3647472    4.3647472   -11702.907     15486.51   -30434.891   -20160.339      5599.57    2547.5643    1083.8044    83.152875 
   33200    731.85397   -115.68494   0.66219685   -115.02275    12638.404    4.3420197    4.3420197    4.3420197    12638.404    40430.881   -10320.603    7804.9332   -7256.7377   -2950.9194    1847.3554    81.860687 
   33300    500.26287   -115.48164   0.45264836   -115.02899    -9493.074    4.3588023    4.3588023    4.3588023    -9493.074   -1899.9629   -32864.067    6284.8079   -17.579938   -1503.4293    1526.2511    82.813572 
   33400    687.17876   -115.64669   0.62177379   -115.02492   -10943.457    4.3572835    4.3572835    4.3572835   -10943.457   -14458.262   -21378.407    3006.2991     7452.881   -1953.7668    2951.6358    82.727036 
   33500    718.25893   -115.67089   0.64989577     -115.021    17946.538    4.3384427    4.3384427    4.3384427    17946.538     32078.58   -5729.6289    27490.664   -11613.266   -2136.3343    5254.5777    81.658535 
   33600    338.09777   -115.33185   0.30591797   -115.02593   -9136.3672    4.3669571    4.3669571    4.3669571   -9136.3672   -2159.1261   -40857.418    15607.443   -3098.1058    9196.7203   -1027.7429    83.279246 
   33700    404.20387   -115.38974   0.36573215   -115.02401    9422.2355    4.3448629    4.3448629    4.3448629    9422.2355    34048.566   -15936.643    10154.784    8163.9669    11806.053    591.43309    82.021597 
   33800    609.93276   -115.57547   0.55187998   -115.02359    5671.7534    4.3488477    4.3488477    4.3488477    5671.7534     36127.67   -13595.515   -5516.8956   -207.25992    1421.6055    3264.9957    82.247478 
   33900    632.91111   -115.59662   0.57267127   -115.02395   -17247.512    4.3599403    4.3599403    4.3599403   -17247.512    -15549.08   -30302.907   -5890.5486   -1345.3366   -4934.9169   -3987.2472     82.87845 
   34000     476.9496   -115.45648   0.43155402   -115.02492   -1383.1337    4.3427084    4.3427084    4.3427084   -1383.1337    4007.3424   -15167.601    7010.8575    13668.909   -544.96166    265.24019    81.899642 
   34100    470.02948   -115.45272   0.42529256   -115.02742   -5167.5703    4.3552917    4.3552917    4.3552917   -5167.5703    29691.166   -17281.588   -27912.288     2803.747    1910.6194    3926.0253    82.613634 
   34200    684.34764   -115.64344   0.61921213   -115.02423   -1508.5137    4.3506032    4.3506032    4.3506032   -1508.5137    21936.435   -15665.477   -10796.499   -891.63886   -11114.651   -448.76579    82.347119 
   34300    441.03102   -115.42564   0.39905413   -115.02658    239.02176    4.3499335    4.3499335    4.3499335    239.02176      11919.2   -21528.744     10326.61    5427.8495    10573.581   -3227.7734      82.3091 
   34400    596.23898   -115.56529   0.53948956   -115.02581   -8919.6576    4.3517348    4.3517348    4.3517348   -8919.6576   -119.64143   -23719.456   -2919.8754    4243.8679    1563.7256    5224.2579    82.411393 
   34500    723.46304   -115.67865   0.65460456   -115.02405    3685.2036    4.3488305    4.3488305    4.3488305    3685.2036    15684.548   -4231.6427   -397.29418   -3653.7403   -3806.5675    5591.9513    82.246503 
   34600    651.26559    -115.6155   0.58927879   -115.02622    669.02772     4.352092     4.352092     4.352092    669.02772    18567.263   -18569.863    2009.6831    2360.0723   -8871.7628   -4432.6018    82.431688 
   34700    563.89202   -115.53917   0.51022135   -115.02895    6236.9603    4.3443456    4.3443456    4.3443456    6236.9603    22567.839   -23490.957    19633.999    13136.872   -973.93524    3352.4687    81.992306 
   34800    650.41318   -115.61828   0.58850752   -115.02978   -4664.5578    4.3546753    4.3546753    4.3546753   -4664.5578    17719.004   -21458.787   -10253.891   -1765.0669      1142.99    9738.2722    82.578564 
   34900    907.76889   -115.84625   0.82136837   -115.02488   -1815.8581    4.3483806    4.3483806    4.3483806   -1815.8581    3720.4851   -5324.8939   -3843.1656    1977.6542   -8982.5426   -262.16303    82.220983 
   35000    750.89169   -115.70572   0.67942258   -115.02629   -411.24161    4.3458939    4.3458939    4.3458939   -411.24161    7681.1745    -20196.29    11281.391    9774.9232    6181.4908    1448.9639    82.080002 
   35100    446.45316   -115.43369    0.4039602   -115.02973   -5051.9123    4.3554175    4.3554175    4.3554175   -5051.9123    24501.741   -26869.922   -12787.556    1039.4494   -4241.3677    9911.9068    82.620798 
   35200    763.06808   -115.71601   0.69044003   -115.02557    7958.3797    4.3445158    4.3445158    4.3445158    7958.3797    27710.456   -5660.6502    1825.3337   -7862.5144   -2645.6236    518.39749    82.001945 
   35300    742.47237   -115.69706    0.6718046   -115.02526    2302.0633    4.3524727    4.3524727    4.3524727    2302.0633    26054.795   -12211.576   -6937.0292     5208.687   -4760.1189   -782.95491    82.453322 
   35400    522.14895   -115.50107   0.47245134   -115.02862   -8753.9556    4.3509534    4.3509534    4.3509534   -8753.9556     13215.12   -23353.325   -16123.661    1356.8261    3885.9354    7144.5045    82.367009 
   35500    553.94388   -115.52946   0.50122006   -115.02824   -1685.9318    4.3451008    4.3451008    4.3451008   -1685.9318    9503.3138   -4161.7831   -10399.326   -1570.0014   -8083.6393    2424.8315    82.035075 
   35600    542.97819   -115.51778   0.49129808   -115.02648    6550.2703    4.3532791    4.3532791    4.3532791    6550.2703    40448.484   -5468.8881   -15328.785   -312.64868   -2731.7576   -2995.3098     82.49916 
   35700    529.66708   -115.50707    0.4792539   -115.02781   -3117.0501    4.3475621    4.3475621    4.3475621   -3117.0501    22600.714   -14475.836   -17476.029    7991.4384    1987.3917    5995.7899    82.174557 
   35800    470.08122   -115.45438   0.42533936   -115.02904   -13450.219    4.3473983    4.3473983    4.3473983   -13450.219   -4262.5939   -18862.443   -17225.619   -1104.9378   -2067.9493    6818.6657    82.165274 
   35900    459.79523    -115.4453   0.41603238   -115.02927   -2222.4409     4.352698     4.352698     4.352698   -2222.4409    9516.4059    4638.5167   -20822.245   -11858.671   -8499.9083    -3037.043     82.46613 
   36000    682.95962   -115.64535   0.61795622   -115.02739   -1748.3849     4.345652     4.345652     4.345652   -1748.3849    21783.259   -11724.149   -15304.265    3945.0435   -6269.9572    5375.7468    82.066294 
   36100    469.55661    -115.4528   0.42486468   -115.02793    5191.7144     4.346355     4.346355     4.346355    5191.7144    38130.059   -15231.853   -7323.0633    -1594.031    3472.8903    4834.3079     82.10613 
   36200    517.47873   -115.49657   0.46822563   -115.02834   -12360.689    4.3570132    4.3570132    4.3570132   -12360.689    2476.2598   -18561.011   -20997.317   -6884.2013   -12926.469    -1429.491    82.711639 
   36300    581.32382   -115.55329   0.52599401    -115.0273    3787.9439    4.3417313    4.3417313    4.3417313    3787.9439    12903.412    7006.4041   -8545.9847   -1100.3526    1389.9591    3989.4215    81.844373 
   36400    654.63325   -115.62092   0.59232592   -115.02859    2551.2714    4.3477411    4.3477411    4.3477411    2551.2714    32124.829   -19442.969   -5028.0458   -373.94281    1563.1679    3416.2958    82.184709 
   36500    710.47552    -115.6702   0.64285318   -115.02735   -11571.449    4.3572549    4.3572549    4.3572549   -11571.449    4735.4301   -22253.712   -17196.065   -3960.5345    -3214.118   -1354.3337    82.725403 
   36600    429.23789   -115.41631   0.38838346   -115.02792    15094.667     4.337902     4.337902     4.337902    15094.667    36030.764      9246.83    6.4081137   -9572.8499   -8871.7347    1021.2527    81.628011 
   36700    617.63238    -115.5882   0.55884676   -115.02935   -8375.7079    4.3559216    4.3559216    4.3559216   -8375.7079    6377.1027    -13287.89   -18216.337   -410.62439    5730.6495    5751.1281    82.649485 
   36800    871.30543    -115.8115   0.78837546   -115.02312   -5340.5829    4.3519452    4.3519452    4.3519452   -5340.5829    1910.7127   -9436.8852   -8495.5761    4572.3728   -3921.4771    559.61039    82.423346 
   36900    621.90864   -115.58717   0.56271601   -115.02445    11459.513    4.3398257    4.3398257    4.3398257    11459.513    29379.896    5133.8783   -135.23554   -4669.5354   -11649.841    2123.5682    81.736655 
   37000     441.9943   -115.43046   0.39992573   -115.03053   -9547.4717    4.3590713    4.3590713    4.3590713   -9547.4717    6629.1908   -13325.213   -21946.393    4434.2953    1698.2936     3314.931    82.828902 
   37100     673.0547   -115.63366   0.60899404   -115.02467    10278.662    4.3447448    4.3447448    4.3447448    10278.662    33379.593    878.24928   -3421.8548    3363.3755    5945.3649   -3107.1711     82.01491 
   37200    813.27484    -115.7595   0.73586817   -115.02363    -1827.131    4.3489924    4.3489924    4.3489924    -1827.131    11958.185   -6432.8512   -11006.727   -2159.9829   -8134.5726   -742.44857     82.25569 
   37300    654.23822   -115.61891   0.59196849   -115.02694   -17229.394    4.3546434    4.3546434    4.3546434   -17229.394   -15074.139   -11531.087   -25082.958    -9274.312   -5316.8703    2937.6169    82.576749 
   37400    555.45202   -115.53061   0.50258466   -115.02802    7909.9392    4.3437348    4.3437348    4.3437348    7909.9392    26544.684   -6720.4596    3905.5928    1852.2944    11311.722    327.67758    81.957728 
   37500    797.71606   -115.74767   0.72179026   -115.02588   -8795.3288    4.3549278    4.3549278    4.3549278   -8795.3288    11733.312   -21788.971   -16330.328    11139.525    -7566.954   -2692.3661    82.592933 
   37600    675.44359     -115.637   0.61115555   -115.02585    12593.655    4.3421039    4.3421039    4.3421039    12593.655    41441.863    5837.3204   -9498.2181    366.19468   -6497.8027   -831.56225    81.865446 
   37700    603.01574    -115.5753   0.54562132   -115.02968   -13042.452     4.358131     4.358131     4.358131   -13042.452   -609.89495    -16266.84   -22250.623    4650.9599    5697.8262    1668.5922    82.775316 
   37800    650.44539   -115.61686   0.58853666   -115.02833   -1541.1756    4.3448751    4.3448751    4.3448751   -1541.1756   -3689.3184   -5645.6312    4711.4229    14823.072    2180.7185    1400.0995     82.02229 
   37900    700.38861   -115.66172   0.63372634   -115.02799    5953.9671    4.3465295    4.3465295    4.3465295    5953.9671    20364.752    4450.6318   -6953.4829    325.04949   -5483.0524     2463.918     82.11602 
   38000    504.25864   -115.48342   0.45626382   -115.02716    1180.0487    4.3590934    4.3590934    4.3590934    1180.0487    31752.061    35.459631   -28247.374   -7832.1197    5010.2545    2681.8976    82.830166 
   38100    435.10322   -115.41867   0.39369054   -115.02498    17379.668    4.3389949    4.3389949    4.3389949    17379.668    37531.274    6722.1446    7885.5847    1847.4515    8429.7111    1270.9304    81.689721 
   38200    539.90861   -115.51335   0.48852066   -115.02483   -12298.303    4.3585392    4.3585392    4.3585392   -12298.303   -16522.634    -14158.51   -6213.7655    6593.4709   -1259.8341    2679.3074    82.798577 
   38300    697.52468   -115.65289   0.63113499   -115.02175    3750.5844    4.3465325    4.3465325    4.3465325    3750.5844    9989.6759    11053.655   -9791.5779    1734.4984   -415.97874    4104.7265    82.116192 
   38400     452.9469    -115.4363   0.40983588   -115.02646    2627.4574    4.3499011    4.3499011    4.3499011    2627.4574     21583.91   -4124.0461   -9577.4917    8135.6393    7111.0225   -59.972536    82.307263 
   38500    380.90054   -115.37216   0.34464682   -115.02752   -2400.7978    4.3521877    4.3521877    4.3521877   -2400.7978    14252.936   -22001.743    546.41316    15686.981   -3770.7039   -1807.2596    82.437128 
   38600    619.46876    -115.5862   0.56050835   -115.02569    832.19971    4.3466859    4.3466859    4.3466859    832.19971    20580.369   -12836.199   -5247.5706   -3897.0042   -4475.6781    1671.7376    82.124885 
   38700    573.04709   -115.54439   0.51850505   -115.02589   -10579.863     4.353601     4.353601     4.353601   -10579.863    230.59936   -9530.7487   -22439.441   -1524.7655    12885.778   -1551.5879    82.517466 
   38800     508.0756    -115.4859   0.45971748   -115.02618    -1434.482    4.3444822    4.3444822    4.3444822    -1434.482   -5910.1018   -3828.6395    5435.2952    9259.5025     6201.393   -2568.5517    82.000038 
   38900    559.72134   -115.53295   0.50644763    -115.0265    -11888.01    4.3570196    4.3570196    4.3570196    -11888.01    4741.3024   -28323.534   -12081.799   -141.46407   -641.93793    1640.1916    82.712006 
   39000    426.37262    -115.4114    0.3857909   -115.02561    16735.079    4.3419522    4.3419522    4.3419522    16735.079     56812.64    2182.5139   -8789.9178   -1501.8382    8526.3619   -3237.8752    81.856869 
   39100    554.87309   -115.53054   0.50206083   -115.02848   -5615.7279    4.3523888    4.3523888    4.3523888   -5615.7279    -5550.913    2718.5585   -14014.829    8470.7488    10725.337   -804.70838    82.448558 
   39200    656.00421   -115.61801   0.59356639   -115.02444   -8451.1972    4.3534947    4.3534947    4.3534947   -8451.1972   -14765.253   -4495.3074   -6093.0318    9299.0274   -4754.4642   -181.87614    82.511421 
   39300    562.80773   -115.53314   0.50924026    -115.0239    16342.646    4.3374791    4.3374791    4.3374791    16342.646    42108.576    5369.5993    1549.7632   -10104.287    5454.6344    166.86035    81.604139 
   39400    578.13628   -115.54985   0.52310985   -115.02674   -11930.833    4.3610199    4.3610199    4.3610199   -11930.833    8634.2856     -12606.4   -31820.385    -2494.564    7493.2624   -1373.4871    82.940031 
   39500    653.45444   -115.61505   0.59125931   -115.02379    12952.749    4.3418671    4.3418671    4.3418671    12952.749    36965.776    129.53502    1762.9353     11675.01   -2413.7221   -2220.4854    81.852052 
   39600    691.98737   -115.65268   0.62612471   -115.02656   -3907.2993    4.3473973    4.3473973    4.3473973   -3907.2993    12371.102    -15974.89   -8118.1109   -2493.4875   -1572.5334    7180.7957    82.165215 
   39700    666.79616   -115.63107   0.60333118   -115.02774   -13650.922    4.3535309    4.3535309    4.3535309   -13650.922   -9084.4261   -7601.2119   -24267.128   -4376.8533    15120.705   -944.48254    82.513479 
   39800    767.47129    -115.7197   0.69442415   -115.02528    3083.0397    4.3480518    4.3480518    4.3480518    3083.0397    28028.286    -7764.856   -11014.311    5229.6918    7136.4347    153.07952    82.202333 
   39900    669.68179   -115.63252   0.60594215   -115.02658   -275.96937     4.350113     4.350113     4.350113   -275.96937    25267.237   -12126.155    -13968.99   -2756.2698   -5081.0598    5182.3485     82.31929 
   40000    497.04865   -115.47924   0.44974006    -115.0295    4195.7931    4.3438173    4.3438173    4.3438173    4195.7931    28507.075   -3007.1363    -12912.56   -9874.5379    9515.5657     524.3314    81.962398 
   40100    641.21737      -115.61   0.58018695   -115.02982   -9487.2547    4.3568278    4.3568278    4.3568278   -9487.2547   -6073.9976    4468.8436    -26856.61   -4383.5767    8003.4726   -1339.9698    82.701079 
   40200    885.26299   -115.82528   0.80100456   -115.02427    1788.2819    4.3439116    4.3439116    4.3439116    1788.2819    8074.8776    8431.4285    -11141.46    5300.1554   -3249.4917    2595.9561    81.967734 
   40300    474.39466   -115.45928   0.42924226   -115.03004   -3633.0235    4.3535255    4.3535255    4.3535255   -3633.0235    10519.126   -4873.4416   -16544.755   -4596.3028     2941.001     5025.569    82.513173 
   40400    436.16415   -115.42405   0.39465048    -115.0294    2417.7403    4.3530582    4.3530582    4.3530582    2417.7403    28687.842   -2669.7257   -18764.896    12.065656    12185.335   -4137.3408    82.486602 
   40500    778.19169   -115.72891   0.70412419   -115.02478    13171.152    4.3414896    4.3414896    4.3414896    13171.152    42189.633    6130.9304   -8807.1056    3081.3475   -4166.2742    1319.4452    81.830706 
   40600    683.93743   -115.64585   0.61884096   -115.02701   -14017.893    4.3600509    4.3600509    4.3600509   -14017.893   -5641.8675   -22039.819   -14371.993   -7117.3316   -250.30188    5572.1723    82.884761 
   40700    626.81464   -115.59222   0.56715506   -115.02507    -3765.138    4.3466499    4.3466499    4.3466499    -3765.138   -192.93698   -13607.271    2504.7943   -11556.523    9151.4653   -3212.0057    82.122843 
   40800    706.20408   -115.66404    0.6389883   -115.02505    2247.1017    4.3491547    4.3491547    4.3491547    2247.1017     11527.03    7131.7562   -11917.482   -3891.2871    4790.4214   -4210.1119    82.264897 
   40900    641.96077   -115.60676   0.58085959    -115.0259    3756.2628    4.3523063    4.3523063    4.3523063    3756.2628     30118.21   -13575.472   -5273.9497    6199.2813   -6241.4019    8632.7876    82.443869 
   41000    477.43834   -115.45982   0.43199625   -115.02782    9758.2479    4.3470314    4.3470314    4.3470314    9758.2479     36266.17   -6179.1614   -812.26513   -6104.0272    3564.1248    3226.1511    82.144471 
   41100    498.99586   -115.47908   0.45150194   -115.02758   -4832.1208    4.3529919    4.3529919    4.3529919   -4832.1208     3227.936   -1592.8078   -16131.491    1145.3113    6715.7133    -8145.792    82.482835 
   41200    640.79302   -115.60595   0.57980299   -115.02615    5450.1562    4.3403486    4.3403486    4.3403486    5450.1562    10363.209    6427.8351   -440.57585    959.06555   -4614.9966    2463.7869    81.766206 
   41300    609.36074   -115.58039    0.5513624   -115.02903   -11048.138    4.3574788    4.3574788    4.3574788   -11048.138    3819.9946   -14279.653   -22684.756   -814.22685   -4141.1936    8440.1396    82.738158 
   41400    555.87484   -115.53324   0.50296724   -115.03027    4844.5737    4.3414129    4.3414129    4.3414129    4844.5737    23725.628    -5592.682    -3599.225   -15526.864    6231.6641   -3333.1181     81.82637 
   41500    410.40557   -115.40377   0.37134359   -115.03242    2676.3873    4.3465684    4.3465684    4.3465684    2676.3873    33999.511    -10798.03   -15172.319   -396.78171    473.58803    -1976.628    82.118223 
   41600    597.59514   -115.56688   0.54071664   -115.02616   -18480.397    4.3586881    4.3586881    4.3586881   -18480.397    462.61123   -20384.168   -35519.633     1025.238   -12838.393    7693.0071    82.807061 
   41700    642.22703   -115.60302   0.58110051   -115.02191    16830.745    4.3343751    4.3343751    4.3343751    16830.745    39088.651    7039.4532    4364.1318   -3719.0914    3188.2452   -1946.2418    81.429072 
   41800    561.47652   -115.53436   0.50803575   -115.02632   -22299.472     4.357224     4.357224     4.357224   -22299.472   -15756.214   -25956.148   -25186.053   -4638.6151    2166.6346   -4808.9883    82.723642 
   41900    365.06814   -115.35955   0.33032132   -115.02923    67.915548    4.3432898    4.3432898    4.3432898    67.915548    21006.901    3857.4357    -24660.59    1831.2288   -10715.371    9364.3865    81.932543 
   42000    463.23796   -115.44964   0.41914744   -115.03049     4896.142    4.3501329    4.3501329    4.3501329     4896.142    38560.866    185.97099   -24058.411   -2335.3201   -10356.922    3785.1728    82.320418 
   42100    746.62585   -115.70209   0.67556276   -115.02652     1001.413    4.3466962    4.3466962    4.3466962     1001.413    19832.802   -8161.1779   -8667.3849   -13612.992    5390.1286   -6235.5922    82.125471 
   42200    402.84865   -115.39642   0.36450593   -115.03191   -6281.4128    4.3465044    4.3465044    4.3465044   -6281.4128   -4756.3749    11327.979   -25415.842    2404.7258   -10344.129    3520.5273    82.114599 
   42300     424.3819   -115.41645   0.38398966   -115.03246   -9331.4699    4.3506441    4.3506441    4.3506441   -9331.4699    2933.0045    3800.0436   -34727.458    2567.5689   -14616.485    8200.8284    82.349442 
   42400    753.75611   -115.70786   0.68201437   -115.02585     17221.39    4.3387392    4.3387392    4.3387392     17221.39    41625.718    8651.9774    1386.4739    2861.1786    2006.9403   -1943.4328    81.675281 
   42500    548.05973   -115.52499   0.49589596    -115.0291   -10793.731    4.3582842    4.3582842    4.3582842   -10793.731    1789.2326   -8875.5292   -25294.895   -1576.4141   -2638.0839     608.6981    82.784046 
   42600    389.08365   -115.38282   0.35205106   -115.03076    1988.0076    4.3380662    4.3380662    4.3380662    1988.0076    15280.935    6612.2455   -15929.158    8302.9438   -14931.011    8831.5344     81.63728 
   42700    672.28689   -115.63931    0.6082993   -115.03101   -348.72605    4.3486792    4.3486792    4.3486792   -348.72605    12617.303    1153.4952   -14816.977   -2166.8281   -1689.6229    454.61771    82.237918 
   42800    825.90494   -115.77256   0.74729615   -115.02526   -9979.3568    4.3553486    4.3553486    4.3553486   -9979.3568   -5058.9025   -10392.375   -14486.793   -5576.5837    4562.5867    970.28601    82.616873 
   42900    487.23945   -115.46674   0.44086449   -115.02588    11479.559    4.3332117    4.3332117    4.3332117    11479.559    31330.049    3215.3027   -106.67467    2640.3246   -12230.026    8177.4534    81.363518 
   43000     411.9871   -115.40224   0.37277459   -115.02946   -10657.993    4.3591025    4.3591025    4.3591025   -10657.993    12667.118   -11494.444   -33146.654    1323.4998   -1093.8453    3228.1556    82.830686 
   43100    914.81088    -115.8502   0.82774011   -115.02246    4107.5138    4.3429031    4.3429031    4.3429031    4107.5138    12556.002    3495.5249   -3728.9851      4788.08    9831.7346   -2480.6041    81.910658 
   43200    762.24012   -115.71523   0.68969088   -115.02554   -2395.8956    4.3454775    4.3454775    4.3454775   -2395.8956    5895.0726   -6761.3886   -6321.3706    2987.3426   -8294.8876    3860.9878    82.056409 
   43300    483.51264    -115.4678    0.4374924   -115.03031   -8258.5857    4.3512479    4.3512479    4.3512479   -8258.5857    8229.0063   -4674.3682   -28330.395    4113.5652   -13860.408    5813.8808    82.383733 
   43400    601.64909   -115.57525   0.54438474   -115.03086     10262.45     4.341142     4.341142     4.341142     10262.45    25142.059    20600.673   -14955.383   -5340.2114    13771.704    -3788.169    81.811052 
   43500    855.38541   -115.80071    0.7739707   -115.02673    844.62248    4.3500189    4.3500189    4.3500189    844.62248    24671.546   -4561.9527   -17575.726    583.73864    3614.2477   -1539.0615    82.313945 
   43600    642.58568    -115.6096   0.58142503   -115.02818   -172.74944    4.3468799    4.3468799    4.3468799   -172.74944    11588.918    8269.0266   -20376.193    2388.4476   -8744.1489    3992.9341    82.135882 
   43700    461.38608    -115.4467   0.41747182   -115.02922   -9715.6349    4.3492446    4.3492446    4.3492446   -9715.6349   -12518.712    15092.362   -31720.555    2822.6116    8749.0319    2384.4002        82.27 
   43800    693.51697   -115.65434   0.62750873   -115.02683    7561.9241    4.3421038    4.3421038    4.3421038    7561.9241    28635.551    8496.6487   -14446.427    697.06973    9748.3759   -2213.3302    81.865442 
   43900    698.88633    -115.6595   0.63236704   -115.02713    3029.0214      4.35043      4.35043      4.35043    3029.0214    28453.444    957.50103   -20323.881    887.15375   -9840.6833     755.3666    82.337285 
   44000    445.67878   -115.43158   0.40325952   -115.02832   -4543.3576    4.3503564    4.3503564    4.3503564   -4543.3576    15132.632    951.60147   -29714.306    7438.8248   -395.17613    4287.6114    82.333111 
   44100    573.07016   -115.54388   0.51852592   -115.02535   -313.52204    4.3444398    4.3444398    4.3444398   -313.52204    9993.6673    3687.0675   -14621.301   -3549.6651    13369.267   -2444.7824     81.99764 
   44200    780.05053   -115.72857   0.70580611   -115.02276   -4930.9108    4.3512941    4.3512941    4.3512941   -4930.9108    12330.087   -13985.194   -13137.626   -4830.3076   -2902.1793   -4277.5847     82.38636 
   44300    638.31801   -115.60323   0.57756355   -115.02567   -124.73256    4.3443793    4.3443793    4.3443793   -124.73256    11772.828    415.65275   -12562.678   -4126.3672   -1216.8608    2463.8355    81.994212 
   44400    366.81788   -115.36188   0.33190452   -115.02998   -2020.7007    4.3504907    4.3504907    4.3504907   -2020.7007    22000.171   -830.68296   -27231.591    6666.4627    12756.155   -4390.1185    82.340736 
   44500     611.1233   -115.58013   0.55295721   -115.02717    1.3810567    4.3472427    4.3472427    4.3472427    1.3810567    18439.073   -4473.2747   -13961.655   -2723.3379    5222.5691   -7586.3054    82.156449 
   44600    721.74509   -115.67669   0.65305012   -115.02364    4833.9914     4.346124     4.346124     4.346124    4833.9914    10977.594    5611.2685   -2086.8886     930.5953   -5911.5015   -1013.9646    82.093038 
   44700    578.00879    -115.5491    0.5229945    -115.0261   -15944.491     4.354256     4.354256     4.354256   -15944.491   -24388.532     4560.143   -28005.085     4457.242    7270.7465   -1154.5193    82.554714 
   44800    390.65439   -115.37974    0.3534723   -115.02627    14606.648    4.3380681    4.3380681    4.3380681    14606.648    24771.291    26181.328   -7132.6763   -5739.0408    5109.6445    -9958.561    81.637388 
   44900     621.8312   -115.58812   0.56264594   -115.02548   -6271.9222     4.355202     4.355202     4.355202   -6271.9222    3495.8473   -13099.781   -9211.8331   -8564.8803   -3067.4501   -5009.0756    82.608532 
   45000    609.61916   -115.57591   0.55159623   -115.02432    6229.5912    4.3427964    4.3427964    4.3427964    6229.5912    12950.332    12254.333   -6515.8921   -8922.2215    4785.4833     5652.366    81.904622 
   45100    435.36862   -115.42326   0.39393068   -115.02933   -2163.1759    4.3460709    4.3460709    4.3460709   -2163.1759   -3177.2562    18571.773   -21884.044    3789.9884    13319.688    -5435.518    82.090033 
   45200    574.33438   -115.54551   0.51966982   -115.02584   -14555.589    4.3531493    4.3531493    4.3531493   -14555.589   -14021.967   -18856.539   -10788.262   -9822.0623   -991.16498   -6672.2789    82.491782 
   45300    719.72329   -115.67367   0.65122075   -115.02245    7291.1823    4.3360827    4.3360827    4.3360827    7291.1823    7989.1642    4944.9951    8939.3876   -3417.8604    174.52189    1934.5001    81.525352 
   45400    594.05256   -115.56407   0.53751124   -115.02655   -9680.5364      4.35356      4.35356      4.35356   -9680.5364    2890.0997   -5594.9751   -26336.734    4731.9016    10780.781   -2693.9976     82.51513 
   45500    387.53529   -115.38002   0.35065007   -115.02937    4864.8142    4.3446513    4.3446513    4.3446513    4864.8142    27644.296   -1555.0249   -11494.829   -11230.468    118.49456   -10258.991    82.009617 
   45600    672.16112    -115.6342   0.60818551   -115.02601    779.65147    4.3448107    4.3448107    4.3448107    779.65147    14351.408     -8595.79    -3416.664   -7077.7951   -2675.6071    1528.4124    82.018644 
   45700    745.20586   -115.69774   0.67427792   -115.02346   -3941.0773    4.3515259    4.3515259    4.3515259   -3941.0773    5832.4726   -2779.0953   -14876.609   -4565.1645     4377.264    813.79783    82.399528 
   45800    459.44762   -115.44233   0.41571786   -115.02661    8081.5715    4.3421383    4.3421383    4.3421383    8081.5715     27713.31    10919.772   -14388.368    4011.9153    4414.3791   -13738.754    81.867393 
   45900    427.10649   -115.41512   0.38645492   -115.02866   -4667.0455    4.3493094    4.3493094    4.3493094   -4667.0455    9775.6587    -5328.647   -18448.148   -10670.792   -4904.9989   -1325.9711    82.273678 
   46000    684.32082   -115.64386   0.61918786   -115.02467    586.34248    4.3454916    4.3454916    4.3454916    586.34248    14547.286   -10200.732   -2587.5265    654.88416    1827.8879    6711.7657    82.057208 
   46100    560.77533   -115.53341   0.50740131   -115.02601    1500.1789    4.3456445    4.3456445    4.3456445    1500.1789    26345.444   -5028.5341   -16816.374    3151.9967    4338.0807   -8080.3113    82.065874 
   46200    429.96784   -115.41812   0.38904394   -115.02908   -9483.3811    4.3456898    4.3456898    4.3456898   -9483.3811   -634.81896   -6116.8701   -21698.454   -10738.551   -2292.0341   -7503.2301    82.068436 
   46300    509.48337   -115.48995   0.46099126   -115.02896    -4649.145    4.3473315    4.3473315    4.3473315    -4649.145    7222.2586   -15534.453   -5635.2411   -9650.0271    -2618.199    9875.4037    82.161482 
   46400    819.31929   -115.76495   0.74133732   -115.02361   -6639.0855    4.3474939    4.3474939    4.3474939   -6639.0855    9097.9607   -15167.766   -13847.451   -2475.9416     5702.778   -2478.5481    82.170693 
   46500    514.07749   -115.49263   0.46514811   -115.02748    6546.7762    4.3405747    4.3405747    4.3405747    6546.7762    29212.753    1019.1434   -10591.567   -346.66758    -3383.093   -12290.907    81.778983 
   46600    343.11999   -115.34244   0.31046218   -115.03197   -7729.0471    4.3515665    4.3515665    4.3515665   -7729.0471    9795.8973   -14748.786   -18234.252   -12514.208   -6745.2626    8987.3388    82.401832 
   46700    737.22185   -115.69537   0.66705382   -115.02832    317.15633    4.3417603    4.3417603    4.3417603    317.15633    16461.296   -5500.7706   -10009.057    3822.4118   -1295.1296    6764.5414    81.846015 
   46800    757.71608   -115.71238   0.68559744   -115.02678    7585.0503    4.3439048    4.3439048    4.3439048    7585.0503    29045.144    479.53964   -6769.5322    1855.2587   -269.13809   -12945.898    81.967353 
   46900    572.40245   -115.54738   0.51792177   -115.02946   -19614.091    4.3541201    4.3541201    4.3541201   -19614.091   -10107.238   -20816.227   -27918.808   -10715.672   -684.43203     3442.449    82.546986 
   47000    503.73795   -115.48494   0.45579268   -115.02915    6867.5798    4.3364843    4.3364843    4.3364843    6867.5798    20529.818    5904.2511   -5831.3292   -8450.1408   -4111.1182     17609.93    81.548006 
   47100    927.03706   -115.86458   0.83880262   -115.02578     -3419.06    4.3508098    4.3508098    4.3508098     -3419.06    11118.535   -5613.9248    -15761.79    444.85986    4780.2087   -5108.5536    82.358855 
   47200    732.81186   -115.69179   0.66306357   -115.02872    5857.9201    4.3447468    4.3447468    4.3447468    5857.9201    28623.311   -127.63079    -10921.92    258.40272   -4447.5579   -3914.2524    82.015024 
   47300    404.33521   -115.39788     0.365851   -115.03203    670.29697    4.3439151    4.3439151    4.3439151    670.29697    12482.589    3923.1067   -14394.805   -16022.837   -4824.1114    17029.574    81.967935 
   47400    807.08061   -115.75647    0.7302635   -115.02621   -8603.7874    4.3518897    4.3518897    4.3518897   -8603.7874    -338.4651    -6498.369   -18974.528    1932.7178    -132.3094    2530.3122    82.420195 
   47500    951.90288   -115.88327   0.86130173   -115.02197     14499.36    4.3390918    4.3390918    4.3390918     14499.36    24274.195    14518.848    4705.0356    3754.4059    1718.3088   -5856.7472    81.695193 
   47600    569.42946   -115.54565   0.51523175   -115.03042   -10796.131    4.3512039    4.3512039    4.3512039   -10796.131   -3278.8738   -8342.8294   -20766.691   -5441.9286   -2886.9276    12922.282    82.381237 
   47700    475.74997   -115.46185   0.43046857   -115.03138   -746.05835    4.3443849    4.3443849    4.3443849   -746.05835    15674.696   -6285.2759   -11627.595   -11353.995   -5470.5534    7831.2343    81.994532 
   47800    860.46583   -115.80444   0.77856757   -115.02587    6185.6715    4.3449658    4.3449658    4.3449658    6185.6715    14743.591    3617.1594     196.2636    -289.2539    4490.2024   -4310.0811    82.027429 
   47900    654.71544   -115.62052   0.59240028   -115.02812   -942.80041    4.3500748    4.3500748    4.3500748   -942.80041    16784.773   -4838.7033   -14774.471    4489.9215   -2799.3482    6887.6108    82.317123 
   48000    347.24089   -115.34533   0.31419085   -115.03114   -2117.2952    4.3427973    4.3427973    4.3427973   -2117.2952    1548.0717    1019.0423   -8918.9995   -16210.938   -1456.9095    14438.359     81.90467 
   48100    632.25033   -115.60062   0.57207338   -115.02855   -5676.1959    4.3493188    4.3493188    4.3493188   -5676.1959   -12583.443    5294.6808   -9739.8254   -2866.7825    693.40287    593.67051    82.274213 
   48200     843.8688   -115.78754   0.76355022   -115.02399   -64.431462    4.3460414    4.3460414    4.3460414   -64.431462     7145.315    687.41902   -8026.0284    4041.3172    1066.8961     177.4807    82.088362 
   48300    485.19323   -115.46824   0.43901303   -115.02923    1854.5303     4.344495     4.344495     4.344495    1854.5303    2966.2646     5823.715   -3226.3886   -860.70434   -7069.0741    12350.091    82.000762 
   48400    483.43311   -115.46698   0.43742044   -115.02956   -3240.4979    4.3492904    4.3492904    4.3492904   -3240.4979    3772.5516   -2160.5059    -11333.54   -7859.5276   -2029.2502    2404.4921    82.272597 
   48500    777.65484   -115.72921   0.70363844   -115.02557    4058.8454     4.344305     4.344305     4.344305    4058.8454    19288.422   -207.59838   -6904.2876   -24.862218    5812.1418   -5745.2487    81.990006 
   48600    621.27773   -115.59028   0.56214515   -115.02813    12052.264    4.3439492    4.3439492    4.3439492    12052.264    12473.428    21438.444    2244.9198    3983.9278   -2662.7101    3712.5934    81.969864 
   48700    513.14553   -115.49287   0.46430485   -115.02857    -5960.352    4.3538031    4.3538031    4.3538031    -5960.352   -713.19627    4411.1069   -21578.967   -10737.644   -4064.4187    7669.6569    82.528957 
   48800    591.24136   -115.56005   0.53496761   -115.02509    2807.4431    4.3421699    4.3421699    4.3421699    2807.4431    5876.0869    11700.605    -9154.363     1254.939     2735.816   -6287.6771    81.869182 
   48900    784.51314   -115.73387   0.70984398   -115.02403   -1410.8372    4.3434502    4.3434502    4.3434502   -1410.8372   -4151.0578   -2395.4293    2313.9757    2845.4483    4452.6423   -3405.0445    81.941619 
   49000    610.77015     -115.579   0.55263767   -115.02636   -10344.204    4.3535262    4.3535262    4.3535262   -10344.204   -13158.688   -2009.9191   -15864.006    -1326.723   -2306.0869    12486.708    82.513212 
   49100    489.99569   -115.47028   0.44335839   -115.02692    6020.3833    4.3379126    4.3379126    4.3379126    6020.3833     4724.474    15291.775   -1955.0991   -3106.9009   -345.70179     -3633.58     81.62861 
   49200    533.82191   -115.51023   0.48301328   -115.02722   -4278.1186    4.3532533    4.3532533    4.3532533   -4278.1186   -7727.5773    8176.3182   -13283.097    5564.4094    2308.3964   -12109.629    82.497696 
   49300    619.81771   -115.58476   0.56082409   -115.02394    4033.0552    4.3473919    4.3473919    4.3473919    4033.0552    -6069.585    18506.948   -338.19759    873.31108   -793.61838    3797.7334    82.164907 
   49400    520.53838   -115.49527   0.47099406   -115.02428    10458.985    4.3370753    4.3370753    4.3370753    10458.985    4996.3383    18918.521    7462.0957    -12912.53   -4723.8043    2731.3771    81.581352 
   49500    316.53593   -115.31506   0.28640836   -115.02865   -10006.544    4.3556075    4.3556075    4.3556075   -10006.544   -15040.984    6858.3246   -21836.972    819.97538    67.048083   -15239.177    82.631609 
   49600     657.4499   -115.61962   0.59487449   -115.02475    5091.7762    4.3404198    4.3404198    4.3404198    5091.7762    1004.8261    9274.5597    4995.9427    2878.8058   -1301.7723   -6573.0208     81.77023 
   49700     617.9008   -115.58524   0.55908963   -115.02615    2918.2839    4.3473924    4.3473924    4.3473924    2918.2839   -15115.069     17147.94    6721.9805    380.23762   -2703.8829    7029.6658    82.164935 
   49800    413.93736   -115.40233   0.37453922   -115.02779   -18029.212    4.3530652    4.3530652    4.3530652   -18029.212    -25948.66   -3907.6318   -24231.344   -3584.3406   -1607.0904   -13057.111    82.486999 
   49900    474.56998   -115.45569   0.42940089   -115.02629    4655.0431    4.3347183    4.3347183    4.3347183    4655.0431     4955.143    14734.575   -5724.5882    8811.9247    5975.2484   -12050.245    81.448417 
   50000    753.94827   -115.70703   0.68218824   -115.02484   -7166.9834    4.3535667    4.3535667    4.3535667   -7166.9834   -16252.341    2082.6033   -7331.2126    2165.7413    1655.3742    2377.2735    82.515516 
   50100    667.76572   -115.63201   0.60420846   -115.02781   -6444.7515    4.3444613    4.3444613    4.3444613   -6444.7515   -9785.4735     4330.297   -13879.078   -11890.618   -6433.3383   -8934.0087    81.998859 
   50200    365.77748   -115.36091   0.33096315   -115.02995     585.0718    4.3401703    4.3401703    4.3401703     585.0718    6794.9706    11875.733   -16915.488    3330.8922    828.63637   -17146.848    81.756127 
   50300     673.3047   -115.63516   0.60922024   -115.02594   -8058.2258    4.3545226    4.3545226    4.3545226   -8058.2258   -8987.9451   -513.34694   -14673.385    3422.4793    3577.1319    2018.3265    82.569876 
   50400    657.66826   -115.61842   0.59507206   -115.02334    17883.364    4.3395562    4.3395562    4.3395562    17883.364    9371.7859    33881.533    10396.772   -27.277051   -1194.9849    2807.0078    81.721427 
   50500    501.52138   -115.48098   0.45378708   -115.02719   -2267.1388    4.3454985    4.3454985    4.3454985   -2267.1388    5646.8131    1764.9989   -14213.228    -3213.238   -5324.4211   -15140.228      82.0576 
   50600     460.3912   -115.44516   0.41657163   -115.02859   -4584.9742    4.3484114    4.3484114    4.3484114   -4584.9742   -6201.7771    6315.4391   -13868.585    8389.2146     3816.351   -3057.6111    82.222728 
   50700    588.45148   -115.55911   0.53244327   -115.02667    9585.9214       4.3412       4.3412       4.3412    9585.9214    6833.7552     13714.11     8209.899    6843.3007    1144.9654    6995.0635    81.814331 
   50800     659.0222   -115.62278   0.59629714   -115.02648   -7487.8032    4.3479965    4.3479965    4.3479965   -7487.8032   -5882.6837   -5385.5637   -11195.162   -15716.661   -3906.9574   -6129.5629    82.199194 
   50900    455.75104   -115.43948   0.41237312   -115.02711    -8545.204     4.347491     4.347491     4.347491    -8545.204   -4085.4419    -1984.994   -19565.176    3815.0765    739.94702   -12405.079    82.170527 
   51000      503.449   -115.48221   0.45553123   -115.02668   -8103.2454    4.3440968    4.3440968    4.3440968   -8103.2454   -5036.1085   -9483.1951   -9790.4327    6117.1936    2635.7953    8502.9385    81.978222 
   51100    567.74346   -115.53975   0.51370622   -115.02604    1952.6283    4.3437829    4.3437829    4.3437829    1952.6283     98.30344    6733.1392   -973.55772   -2055.4856    2099.4519    5917.0948    81.960448 
   51200    625.22648   -115.59172   0.56571806     -115.026   -6598.0484    4.3479651    4.3479651    4.3479651   -6598.0484   -1993.2336   -4794.1061   -13006.805   -2405.0733   -6702.5935   -8831.7309    82.197413 
   51300    484.26605   -115.46645    0.4381741   -115.02828   -3030.6805    4.3430523    4.3430523    4.3430523   -3030.6805    4892.2961   -5311.9125    -8672.425    8353.5749    3175.9363    3960.0939    81.919103 
   51400    376.43247   -115.37022   0.34060401   -115.02962    9561.9114    4.3439093    4.3439093    4.3439093    9561.9114   -249.46617     15743.38     13191.82    6079.3155    3645.2925    10913.024    81.967603 
   51500    701.09284   -115.66042   0.63436354   -115.02606   -3093.3862    4.3485345    4.3485345    4.3485345   -3093.3862    -3835.038   -1930.3357   -3514.7849   -12933.091   -4763.3334    1291.1789    82.229708 
   51600    551.68842   -115.52537   0.49917928   -115.02619    10604.763    4.3393004    4.3393004    4.3393004    10604.763    14565.286    15999.863    1249.1405    4345.8268    -5828.922   -6021.6543    81.706978 
   51700    469.74621   -115.45508   0.42503624   -115.03005    -9216.781    4.3498633    4.3498633    4.3498633    -9216.781   -15490.941   -8120.8811   -4038.5208    6375.6182    994.04487    8098.5362    82.305116 
   51800    497.53581   -115.47953   0.45018086   -115.02935     4118.203    4.3419032    4.3419032    4.3419032     4118.203    3728.2364    9117.9291   -491.55647   -5568.8975    5396.2554    10473.896    81.854096 
   51900    778.14211    -115.7307   0.70407934   -115.02662   -4189.6991    4.3434448    4.3434448    4.3434448   -4189.6991   -11423.575    9433.2389   -10578.761    340.38804   -13013.578   -6754.3965    81.941315 
   52000     628.8199   -115.59635   0.56896946   -115.02738   -12479.667    4.3499965    4.3499965    4.3499965   -12479.667   -15555.089   -6836.2594   -15047.651    7779.5055    1351.0171    5572.7322    82.312675 
   52100    517.72378    -115.4972   0.46844736   -115.02875    4071.3828    4.3380496    4.3380496    4.3380496    4071.3828    2231.2945    8905.2424    1077.6115    1715.3733      6463.67    12500.309    81.636341 
   52200    720.35804   -115.67909   0.65179509   -115.02729   -9117.8996    4.3501045    4.3501045    4.3501045   -9117.8996   -16321.551    776.86682   -11809.015   -13463.337   -7437.5988    2897.5469    82.318808 
   52300    748.64094   -115.70338   0.67738605     -115.026    5506.8891    4.3427769    4.3427769    4.3427769    5506.8891   -4304.0581    14648.899    6175.8262    2365.9914   -6851.7206    -1150.647    81.903519 
   52400    681.76935   -115.64527   0.61687923    -115.0284    3825.6785    4.3423918    4.3423918    4.3423918    3825.6785     9880.354    3381.4111   -1784.7295    6567.6798    3009.3476    6273.3265    81.881731 
   52500     526.6955   -115.50681   0.47656516   -115.03025    1757.5022    4.3484676    4.3484676    4.3484676    1757.5022   -7505.8142    4465.0987     8313.222   -6326.9469    1527.6386    6353.1762    82.225916 
   52600    762.94191   -115.71749   0.69032588   -115.02716    6711.7609    4.3407783    4.3407783    4.3407783    6711.7609    999.21132    11927.315    7208.7563   -4208.5404   -13989.489   -8537.4988    81.790492 
   52700    808.86198   -115.75847   0.73187531   -115.02659   -1300.8804    4.3489786    4.3489786    4.3489786   -1300.8804    3066.4178    4523.5364   -11492.596    2456.5722    1823.3773     9117.044    82.254906 
   52800    716.83595   -115.67654   0.64860824   -115.02793   -581.81885    4.3425589    4.3425589    4.3425589   -581.81885   -2645.0999   -1055.7841    1955.4274    7040.0126    6852.1779    8512.9606    81.891183 
   52900    638.59481   -115.60719     0.577814   -115.02937   -3269.5608    4.3435734    4.3435734    4.3435734   -3269.5608   -6912.2856   -1149.9907   -1746.4063   -8815.9792   -9136.6962   -4932.8309    81.948589 
   53000    782.32875   -115.73544   0.70786749   -115.02758   -7065.3257    4.3505988    4.3505988    4.3505988   -7065.3257   -17659.763    4880.2628   -8416.4772     -6955.77   -9709.1739    4088.7864    82.346875 
   53100    839.65971   -115.78433   0.75974176   -115.02459    9068.5471    4.3387409    4.3387409    4.3387409    9068.5471    7092.1328    7991.7375    12121.771     4781.615     6291.565    6577.4729    81.675375 
   53200     596.3881   -115.56851   0.53962448   -115.02889   -2867.2773     4.348621     4.348621     4.348621   -2867.2773   -12834.421    1370.0238    2862.5655   -4814.7937    213.96747   -836.86116    82.234619 
   53300      538.844   -115.51747   0.48755737   -115.02991    1319.4185    4.3459566    4.3459566    4.3459566    1319.4185   -17560.914    14381.065    7138.1046   -7044.6253   -17847.122    -10518.12    82.083554 
   53400    820.96025   -115.76984   0.74282209   -115.02702    12072.091    4.3397156    4.3397156    4.3397156    12072.091    5295.1838    17760.051    13161.038   -1478.2548   -3648.7787    9756.2827    81.730434 
   53500    826.47731   -115.77411   0.74781404   -115.02629   -6124.8715    4.3524353    4.3524353    4.3524353   -6124.8715   -7127.3965   -4466.5462   -6780.6719   -2.6525376   -505.46372    6810.9165    82.451201 
   53600    489.42339   -115.47145   0.44284057   -115.02861   -2147.7777    4.3437781    4.3437781    4.3437781   -2147.7777   -13950.321    2257.6859    5249.3023   -7657.9774   -12545.141   -7069.4177     81.96018 
   53700     722.8346   -115.68128   0.65403593   -115.02725   -3325.2147    4.3448273    4.3448273    4.3448273   -3325.2147   -11139.844    2782.0525   -1617.8527    -3070.177   -4790.3858    4602.1065    82.019581 
   53800     901.9431   -115.83999   0.81609707   -115.02389    -1965.833    4.3484564    4.3484564    4.3484564    -1965.833    2880.1978   -3576.3563   -5201.3406    3777.3165    2365.4129    9655.1546     82.22528 
   53900    603.93741   -115.57576   0.54645526   -115.02931   -232.83008     4.341567     4.341567     4.341567   -232.83008   -11124.162    4936.8708    5488.8006   -5158.3704   -5833.1235   -2301.6819    81.835084 
   54000    356.46871   -115.35486   0.32254038   -115.03231   -3008.4561    4.3516067    4.3516067    4.3516067   -3008.4561   -12701.461   -41.631455     3717.724   -7502.3506   -13188.417    -11299.18    82.404115 
   54100    779.40873   -115.72853    0.7052254   -115.02331    2954.3575    4.3475681    4.3475681    4.3475681    2954.3575   -1831.3822    7213.6943    3480.7604    2666.6171    4675.7376    4265.8408    82.174898 
   54200    622.62013   -115.58645   0.56335978   -115.02309    7846.6885     4.342184     4.342184     4.342184    7846.6885    12013.219    9540.7407    1986.1055   -5080.7542   -3918.5491    -941.7314    81.869976 
   54300     352.9075   -115.34983   0.31931812   -115.03051   -6512.6354    4.3489014    4.3489014    4.3489014   -6512.6354   -9829.2917   -6931.2436   -2777.3707   -7703.6294   -15250.387   -7653.5218    82.250526 
   54400    564.11913   -115.53804   0.51042685   -115.02761    4354.2053    4.3447502    4.3447502    4.3447502    4354.2053    4430.6824    614.82113    8017.1124   -2420.8959   -3874.2811   -494.72574    82.015219 
   54500    784.48881   -115.73347   0.70982196   -115.02365   -2148.8557     4.347341     4.347341     4.347341   -2148.8557    7294.1722   -737.98765   -13002.752    1306.1399    7966.0475    3291.5183    82.162022 
   54600    475.48185   -115.45807   0.43022597   -115.02784   -11871.713    4.3477247    4.3477247    4.3477247   -11871.713   -11201.087   -7675.1956   -16738.856   -8191.6111   -2532.2997   -2591.2463    82.183777 
   54700    415.08953   -115.40253   0.37558173   -115.02695     178.3733    4.3443053    4.3443053    4.3443053     178.3733    2034.4169   -3628.4376    2129.1406   -6702.5712   -12381.157   -7262.7792    81.990025 
   54800    793.15398    -115.7409   0.71766239   -115.02324   -4953.4537    4.3460339    4.3460339    4.3460339   -4953.4537   -3542.6787   -693.47799   -10624.204    8486.6449    12520.879    5461.2137    82.087936 
   54900    518.54454   -115.49542   0.46918999   -115.02623   -1671.7228    4.3440755    4.3440755    4.3440755   -1671.7228    7867.6972   -373.65326   -12509.212   -6133.5737    4686.1783   -3240.7892    81.977012 
   55000    373.16961   -115.36812    0.3376517   -115.03047   -6745.8292    4.3480455    4.3480455    4.3480455   -6745.8292    -4500.252   -9326.3035   -6410.9321   -7591.6599   -14343.235   -8525.9186    82.201974 
   55100    521.70988   -115.49745   0.47205407   -115.02539     8806.091    4.3450516    4.3450516    4.3450516     8806.091    12802.284    7972.3204    5643.6685   -107.08212   -2322.4626   -699.96826    82.032287 
   55200    655.41703   -115.61585    0.5930351   -115.02282    192.78668    4.3436261    4.3436261    4.3436261    192.78668    634.61884    7158.7613   -7215.0201   -3394.1931    9023.3295   -2518.2431    81.951576 
   55300    376.40074   -115.36874    0.3405753   -115.02816   -7963.9691    4.3482432    4.3482432    4.3482432   -7963.9691   -7539.9204   -3511.5573   -12840.429   -8192.0996   -6912.0346   -6927.8558    82.213185 
   55400     396.8686     -115.387   0.35909505   -115.02791    5604.1418    4.3435296    4.3435296    4.3435296    5604.1418    3912.1937    16714.099    -3813.867   -5818.1747    -11525.21   -10261.527    81.946113 
   55500    671.72062   -115.63296   0.60778693   -115.02517    1581.6505    4.3454256    4.3454256    4.3454256    1581.6505   -1686.1291    9360.6277   -2929.5472    7582.9513    16094.277    3847.1786    82.053468 
   55600    539.29135   -115.51257   0.48796215    -115.0246   -6944.1809     4.349409     4.349409     4.349409   -6944.1809   -10169.494    5279.2432   -15942.292   -2715.1768    1351.0429   -4022.1631    82.279331 
   55700    455.09466   -115.43684   0.41177921   -115.02506   -7566.2653    4.3463161    4.3463161    4.3463161   -7566.2653    -8598.996     2057.597   -16157.397   -3936.1792   -13635.918   -6989.1928    82.103926 
   55800    577.55657   -115.54657   0.52258532   -115.02398    4143.5825    4.3425043    4.3425043    4.3425043    4143.5825    7540.4694    2124.3769    2765.9013    2272.3159    8859.9978    3226.5566    81.888097 
   55900    676.97573   -115.63646   0.61254187   -115.02392   -6955.3388    4.3490693    4.3490693    4.3490693   -6955.3388   -8122.4481   -3980.6329   -8762.9353    1196.6682    7795.4716    163.59697    82.260051 
   56000    443.56326   -115.42848   0.40134536   -115.02714   -4964.8234    4.3461523    4.3461523    4.3461523   -4964.8234   -8169.5465    3980.4401   -10705.364   -8136.5332   -13531.637   -7416.9507    82.094645 
   56100    402.95998   -115.39142   0.36460666   -115.02681    5646.1769    4.3447091    4.3447091    4.3447091    5646.1769   -8881.3915    25136.996     682.9259   -7614.5447   -6025.5462   -6054.5024     82.01289 
   56200    541.72527   -115.51326   0.49016441    -115.0231    168.38229    4.3521054    4.3521054    4.3521054    168.38229   -7573.1617      14557.8   -6479.4913    3608.6436    13038.372    3208.3669    82.432451 
   56300    522.93514   -115.49623   0.47316271   -115.02307    3118.9498    4.3394059    4.3394059    4.3394059    3118.9498   -5427.9157    15076.696   -291.93101    3357.3874   -5760.7446    -11680.07    81.712939 
   56400    378.08916   -115.37055   0.34210302   -115.02844   -4738.0564       4.3481       4.3481       4.3481   -4738.0564   -17666.542    10299.796   -6847.4241   -7635.4443   -9112.2698   -6544.3023    82.205066 
   56500    679.38214   -115.63858   0.61471924   -115.02386   -11180.437    4.3499717    4.3499717    4.3499717   -11180.437   -19810.032   -8120.2017   -5611.0777    1771.7325    10602.395    1964.9463    82.311269 
   56600    605.63279   -115.57004   0.54798928   -115.02205    2521.1337    4.3410439    4.3410439    4.3410439    2521.1337    717.49285    3219.1343     3626.774    9758.3132   -2426.8812   -843.32351    81.805506 
   56700     461.3799   -115.44319   0.41746623   -115.02572   -8964.0714    4.3511148    4.3511148    4.3511148   -8964.0714   -17486.919    5698.8546    -15104.15   -6882.4095   -9185.1092   -5890.7788    82.376175 
   56800    536.74431   -115.51053   0.48565754   -115.02487    6633.8967    4.3426556    4.3426556    4.3426556    6633.8967   -7966.8667    31466.856    -3598.299   -6500.8265    5054.9783    2708.6262    81.896657 
   56900    603.06296   -115.57073   0.54566404   -115.02507    2401.8468    4.3454476    4.3454476    4.3454476    2401.8468   -2272.5558    10261.499   -783.40304    6230.6095    3115.8915    3263.9926    82.054716 
   57000     570.5139   -115.54282   0.51621297    -115.0266   -3510.6285    4.3479606    4.3479606    4.3479606   -3510.6285   -2350.4748    2124.8001   -10306.211    8067.5625   -11276.109   -7136.0356    82.197159 
   57100    653.14944   -115.61633   0.59098334   -115.02535    -477.4398     4.345408     4.345408     4.345408    -477.4398    583.97332    7606.2419   -9622.5346   -7596.0176   -5205.4252   -2567.2053    82.052476 
   57200    795.58283   -115.74321   0.71986007   -115.02335   -5841.3986    4.3461317    4.3461317    4.3461317   -5841.3986   -8712.8126   -5547.0903   -3264.2929    7633.1531    6248.3422   -1494.1227    82.093479 
   57300    598.46075   -115.56763   0.54149986   -115.02613   -2002.0559    4.3470583    4.3470583    4.3470583   -2002.0559   -12962.553    11629.821   -4673.4347    16729.955   -9023.2425    874.04688    82.145995 
   57400    618.68734   -115.58558   0.55980131   -115.02578      3907.14    4.3465432    4.3465432    4.3465432      3907.14   -4249.1369     29555.41   -13584.853   -9041.1997   -7320.3814   -7160.8933      82.1168 
   57500    802.47219    -115.7492   0.72609371   -115.02311    2704.9263    4.3456966    4.3456966    4.3456966    2704.9263   -3393.8145    15316.775   -3808.1813    880.74696    3347.3227    5463.8426    82.068824 
   57600    674.30451     -115.636   0.61012489   -115.02588   -2377.6723    4.3466703    4.3466703    4.3466703   -2377.6723   -12296.692    3159.4443     2004.231    13638.703   -6183.4226    2397.1573    82.123999 
   57700    704.72096    -115.6634   0.63764634   -115.02575   -1679.0518    4.3455571    4.3455571    4.3455571   -1679.0518   -1760.0221    5874.5863   -9151.7195     1864.321   -6753.6508   -2956.7405     82.06092 
   57800    839.77051   -115.78371   0.75984201   -115.02387    184.47378    4.3467259    4.3467259    4.3467259    184.47378   -2172.0671    12192.206   -9466.7178   -8521.6508    1400.8494   -5832.1101    82.127151 
   57900    603.41455   -115.57215   0.54598216   -115.02617     6824.879    4.3456312    4.3456312    4.3456312     6824.879   -7461.3114    20266.994    7668.9541    18598.599   -581.68413   -2840.0597    82.065116 
   58000    619.02875   -115.58635   0.56011022   -115.02624     -311.661    4.3464111    4.3464111    4.3464111     -311.661   -17378.103    24343.212   -7900.0915    15158.224   -9426.6213     -1035.34    82.109309 
   58100    738.39233   -115.69164    0.6681129   -115.02353    1649.4873     4.344865     4.344865     4.344865    1649.4873   -3296.3935    20029.993   -11785.137    -9370.918   -870.10188   -11516.328    82.021716 
   58200    697.79813   -115.65782   0.63138241   -115.02644   -3967.7903    4.3445659    4.3445659    4.3445659   -3967.7903   -12727.373   -4578.5175    5402.5201    12369.033    4389.0643    1287.9042     82.00478 
   58300    539.13595   -115.51608   0.48782154   -115.02826   -5941.6216    4.3482787    4.3482787    4.3482787   -5941.6216   -18895.289    349.39131    721.03318    18759.517   -7103.9159    1882.4979    82.215199 
   58400    668.70274   -115.63063   0.60505629   -115.02557    140.11107    4.3441273    4.3441273    4.3441273    140.11107   -11649.595    21529.928   -9459.9998   -5120.5654   -3105.1762   -7686.0031    81.979949 
   58500    629.57464   -115.59438   0.56965237   -115.02473   -2622.9766    4.3460676    4.3460676    4.3460676   -2622.9766   -17063.807    11247.134   -2052.2572    4047.6209     324.4197    -4037.489    82.089842 
   58600      382.473   -115.37409   0.34606961   -115.02802   -1658.5636    4.3475729    4.3475729    4.3475729   -1658.5636   -28348.753     12357.44    11015.623    21540.529   -3730.9133    157.21213     82.17517 
   58700    589.03518   -115.55888   0.53297141    -115.0259    3641.2084    4.3397656    4.3397656    4.3397656    3641.2084   -4043.6011    7874.7728    7092.4534    2471.3745   -5347.6079    837.34552    81.733259 
   58800    656.88798   -115.61898   0.59436605   -115.02462   -8893.1935    4.3517836    4.3517836    4.3517836   -8893.1935   -20353.295   -2000.5601   -4325.7249   -891.79873     2756.073   -5617.1119    82.414166 
   58900    434.28228   -115.41863   0.39294774   -115.02568   -6900.0209    4.3474556    4.3474556    4.3474556   -6900.0209    -30242.86    81.547538    9461.2497    19343.526    337.04115   -653.67938    82.168518 
   59000    400.39929   -115.38705   0.36228969   -115.02476    12862.653    4.3371498    4.3371498    4.3371498    12862.653   -8313.0288    23665.684    23235.304    8266.9569    -6828.851    6215.0755    81.585551 
   59100    567.36708   -115.53724   0.51336566   -115.02388   -8006.1501    4.3537564    4.3537564    4.3537564   -8006.1501   -14643.896    5338.2211   -14712.776   -8935.1698    2422.0942   -6644.9011    82.526301 
   59200    482.92769   -115.46176   0.43696312    -115.0248    1778.4224    4.3411947    4.3411947    4.3411947    1778.4224   -13356.765    4841.1492    13850.883    15627.929     4279.731    -5280.908    81.814031 
   59300    564.21916   -115.53703   0.51051736   -115.02652   -8711.9784    4.3439992    4.3439992    4.3439992   -8711.9784   -24338.853   -11827.983    10030.902    14557.682   -5670.5169    2185.4425    81.972694 
   59400    602.02729   -115.56957   0.54472694   -115.02484   -8565.9832    4.3509949    4.3509949    4.3509949   -8565.9832   -13549.183   -5563.8086   -6584.9584   -8238.6227   -3786.3474   -1490.1385    82.369363 
   59500      611.055   -115.57769    0.5528954   -115.02479    1796.0125    4.3407067    4.3407067    4.3407067    1796.0125   -2808.2701    5505.7964    2690.5112    5766.4896    7618.1831   -2449.9755    81.786444 
   59600    581.63392   -115.55321    0.5262746   -115.02693    2990.2844    4.3454713    4.3454713    4.3454713    2990.2844   -14222.532    12617.512    10575.873    12256.058   -1988.4876    -4009.289     82.05606 
   59700    627.97656   -115.59389   0.56820639   -115.02568   -1172.7676    4.3496932    4.3496932    4.3496932   -1172.7676   -19221.864    13378.866    2324.6943   -3029.0494   -3565.8074    6397.3173    82.295459 
   59800    609.13014   -115.57607   0.55115375   -115.02492    3330.6904     4.343115     4.343115     4.343115    3330.6904   -5796.7258    10563.604    5225.1926   -3737.7893    8538.8827   -2307.0833    81.922651 
   59900    706.31179   -115.66343   0.63908575   -115.02435   -627.60062    4.3465781    4.3465781    4.3465781   -627.60062   -10513.365   -1409.2864    10039.849    12979.936    1712.9913   -3722.9248    82.118774 
   60000    791.65628   -115.73999   0.71630724   -115.02368   -4281.0523    4.3473767    4.3473767    4.3473767   -4281.0523   -9141.9235   -9023.3707    5322.1372    979.31293   -3713.2983    580.79779    82.164048 
   60100    623.59433   -115.59076   0.56424126   -115.02652   -4949.1721    4.3443145    4.3443145    4.3443145   -4949.1721   -15236.704    8748.3732   -8359.1853   -8970.1824    4842.4804   -1567.5453    81.990546 
   60200     542.1868   -115.51789   0.49058201   -115.02731   -4465.5855    4.3477679    4.3477679    4.3477679   -4465.5855    -11129.15    9836.3977   -12104.004    6237.8418    10322.289   -3594.8175    82.186227 
   60300    695.08817   -115.65281   0.62893038   -115.02388    1239.7037      4.34686      4.34686      4.34686    1239.7037   -10434.775    13729.212    424.67468    7430.9819   -8168.5879   -7910.9876    82.134751 
   60400    510.84026   -115.48758     0.462219   -115.02536    3735.1748    4.3455017    4.3455017    4.3455017    3735.1748   -10177.462    24282.098   -2899.1121   -9651.1964    1800.1527    5807.2208    82.057781 
   60500    462.67644   -115.44584   0.41863937    -115.0272   -1111.9366    4.3436796    4.3436796    4.3436796   -1111.9366   -10201.512    10953.446   -4087.7439   -2539.6524     14966.08   -3660.7161    81.954602 
   60600     577.9644   -115.54882   0.52295433   -115.02586   -2823.7706     4.348961     4.348961     4.348961   -2823.7706   -7399.0765   -7962.9926    6890.7573    7004.7295   -2344.8833    -2249.812    82.253907 
   60700    696.09983   -115.65383   0.62984575   -115.02399   -315.52732    4.3437736    4.3437736    4.3437736   -315.52732   -16224.378    4307.3442    10970.452   -328.87507    3068.0251     769.2192    81.959924 
   60800    462.17694   -115.44572   0.41818741   -115.02753    4196.3448    4.3446494    4.3446494    4.3446494    4196.3448   -1482.6697    12368.148    1703.5564    -6401.481    10556.262   -2765.3887    82.009507 
   60900    535.67335   -115.51132    0.4846885   -115.02663   -7599.4511    4.3505405    4.3505405    4.3505405   -7599.4511   -13454.373   -1408.4112   -7935.5687    3022.6834    2530.8697    -4192.507    82.343561 
   61000    657.93101   -115.61857   0.59530981   -115.02326    8789.9836    4.3384227    4.3384227    4.3384227    8789.9836   -2275.7389    15457.389      13188.3    6089.7338   -1345.6109   -6167.7679    81.657407 
   61100    582.33967   -115.55414   0.52691317   -115.02722   -3698.8743    4.3501178    4.3501178    4.3501178   -3698.8743   -26108.261    19106.856   -4095.2181   -6199.1309    5992.6274    4454.3897    82.319562 
   61200    530.63769   -115.50755   0.48013213   -115.02742    1101.2556    4.3448885    4.3448885    4.3448885    1101.2556   -5556.8915    7880.5558     980.1025   -2124.6431    7071.9216   -5398.5914    82.023049 
   61300    739.79661   -115.69446   0.66938352   -115.02508    127.33971    4.3409953    4.3409953    4.3409953    127.33971    1083.4173   -10354.799    9653.4006    3447.6826   -4209.3453   -525.10219    81.802759 
   61400    732.69892   -115.68781   0.66296138   -115.02485   -8580.6018    4.3515978    4.3515978    4.3515978   -8580.6018    -18973.69   -3812.3842   -2955.7307   -654.36984    9762.9438    111.29653    82.403613 
   61500    755.78488   -115.70846   0.68385004   -115.02461     450.8724    4.3401308    4.3401308    4.3401308     450.8724   -15081.952    6645.0848    9789.4841   -7606.3346    11913.932   -3344.0058    81.753897 
   61600    581.46586   -115.55288   0.52612253   -115.02675   -1547.8267    4.3473742    4.3473742    4.3473742   -1547.8267    4710.1799   -5325.3673   -4028.2926   -943.01913   -8454.3362   -6913.0675    82.163903 
   61700    761.29758   -115.71386   0.68883805   -115.02503   -2018.8992    4.3450758    4.3450758    4.3450758   -2018.8992   -2721.8711   -3129.2766   -205.54987    3879.4523    5413.9925   -3298.1812    82.033654 
   61800    683.35571   -115.64409   0.61831461   -115.02577    6925.0387    4.3446098    4.3446098    4.3446098    6925.0387   -13320.379    22398.973    11696.523   -2346.7236    7347.3752    4065.0436    82.007267 
   61900    633.40894   -115.60063   0.57312172   -115.02751   -4897.9111    4.3453798    4.3453798    4.3453798   -4897.9111   -5117.9194   -4692.5896   -4883.2245   -1319.2724   -4454.2765   -10106.122    82.050875 
   62000    550.00707   -115.52549   0.49765795   -115.02783    1935.2423    4.3427667    4.3427667    4.3427667    1935.2423    16198.161   -10783.711    391.27628    163.04528   -549.46831    2990.7494     81.90294 
   62100    731.75442   -115.68724   0.66210678   -115.02513   -5379.1781    4.3504018    4.3504018    4.3504018   -5379.1781   -8155.5201   -4386.3649   -3595.6493     1177.921    1696.8406    6270.9866    82.335684 
   62200    676.96807   -115.63726   0.61253494   -115.02473    6818.7188    4.3379635    4.3379635    4.3379635    6818.7188    2332.6322    8733.0863     9390.438   -3530.2837    282.91316   -5871.5168    81.631482 
   62300    350.39708   -115.34599   0.31704664   -115.02894   -7580.3201    4.3501974    4.3501974    4.3501974   -7580.3201    4325.2131   -5969.5297   -21096.644   -1869.8917   -5915.5774   -1474.6593    82.324082 
   62400    574.07509   -115.54639    0.5194352   -115.02695    -4390.778    4.3450764    4.3450764    4.3450764    -4390.778    4890.6174   -6475.8355   -11587.116   -911.25875    3792.2821    3951.9958    82.033692 
   62500    640.29846   -115.60392    0.5793555   -115.02457    16419.648    4.3387663    4.3387663    4.3387663    16419.648    4817.4281    31513.481    12928.034   -2984.9742    2702.4084    3643.4773    81.676812 
   62600     456.0151   -115.44014   0.41261204   -115.02752   -13969.039    4.3541801    4.3541801    4.3541801   -13969.039   -8506.1961    -11305.15   -22095.772   -2485.0262   -10716.297   -7747.7826    82.550399 
   62700    388.79985   -115.37889   0.35179428   -115.02709    2185.1095    4.3381199    4.3381199    4.3381199    2185.1095    18974.785   -8068.9118   -4350.5451     2235.534    3808.3528    4298.9257    81.640311 
   62800     768.2042   -115.71995   0.69508731   -115.02486   -909.24951    4.3469205    4.3469205    4.3469205   -909.24951   -6262.5751     2392.861    1141.9656    1443.7951   -3855.5909    6025.3482    82.138185 
   62900    690.13099    -115.6499   0.62444502   -115.02546    106.16213    4.3475368    4.3475368    4.3475368    106.16213   -5687.6356    3850.3027    2155.8193   -1345.2793   -9071.2338   -6358.7827    82.173123 
   63000     314.3058   -115.31417   0.28439049   -115.02978    913.80923    4.3404348    4.3404348    4.3404348    913.80923    13725.946   -4248.0299   -6736.4882    47.542294    94.467493    995.20588    81.771077 
   63100    608.84484   -115.57981   0.55089561   -115.02891   -8910.9687     4.350562     4.350562     4.350562   -8910.9687   -4655.5497   -14885.175   -7192.1817    1387.6376   -936.09227     6416.931    82.344783 
   63200    854.50643   -115.79637   0.77317537    -115.0232       9981.4    4.3420047    4.3420047    4.3420047       9981.4   -8414.3944    18825.987    19532.607    379.64267     2982.981    1357.9424    81.859833 
   63300    560.52848   -115.53652   0.50717795   -115.02934   -5291.5178    4.3450451    4.3450451    4.3450451   -5291.5178    6815.6396   -22400.867   -289.32582   -4965.8151   -5420.7763   -884.34835    82.031918 
   63400    469.90433   -115.45614   0.42517931   -115.03096   -11880.791    4.3481839    4.3481839    4.3481839   -11880.791    4517.1842    -34469.26   -5690.2986    822.98071    1431.6682    6499.4346    82.209823 
   63500    841.92334   -115.78725   0.76178993   -115.02546    4894.0719     4.343772     4.343772     4.343772    4894.0719   -1502.7451   -1051.1733    17236.134    1003.8966    3982.2517    1678.6232    81.959832 
   63600    832.15138   -115.77795   0.75294806     -115.025    946.00015    4.3455174    4.3455174    4.3455174    946.00015   -5041.2856    -1545.331    9424.6171    1473.6724   -4874.3159   -675.26314    82.058672 
   63700    315.17007   -115.31632    0.2851725   -115.03114   -286.54036    4.3460207    4.3460207    4.3460207   -286.54036    18005.131   -16811.758   -2052.9935    15.429682    2520.6687    7613.7536    82.087185 
   63800    585.57924   -115.55886   0.52984441   -115.02901   -3641.7973    4.3462607    4.3462607    4.3462607   -3641.7973     629.3789   -12350.843    796.07191    5209.6818   -1234.8367    2050.8483    82.100787 
   63900    768.31693   -115.71855   0.69518931   -115.02336    9953.7445    4.3445025    4.3445025    4.3445025    9953.7445    -806.4763    15303.898    15363.812    6301.0957    1962.9912   -485.37995    82.001191 
   64000     579.9178   -115.55257   0.52472181   -115.02785   -6218.0809    4.3467537    4.3467537    4.3467537   -6218.0809    13008.669   -26012.862     -5650.05    -1634.881   -695.71456    3779.4585    82.128728 
   64100    319.40057   -115.31916   0.28900035   -115.03016   -6988.8826    4.3464928    4.3464928    4.3464928   -6988.8826    16256.557   -20019.257   -17203.948    1466.5186    1261.1488   -3549.1337    82.113941 
   64200    643.72787   -115.60813    0.5824585   -115.02567    415.20635    4.3445525    4.3445525    4.3445525    415.20635   -4132.4947    5617.8863   -239.77258    3489.1742     8358.828   -580.67866    82.004024 
   64300    622.98664   -115.58865    0.5636914   -115.02496     1171.747    4.3464427    4.3464427    4.3464427     1171.747    6328.5907    3837.5255   -6650.8751   -119.99567   -3576.1629    437.92167    82.111103 
   64400    305.63724    -115.3049     0.276547   -115.02835   -228.45289     4.344919     4.344919     4.344919   -228.45289    18166.187   -7753.7461     -11097.8   -3754.3124    3946.1468    3225.5719    82.024778 
   64500    439.96333   -115.42612   0.39808807   -115.02804   -6011.8719    4.3470306    4.3470306    4.3470306   -6011.8719   -8590.3014   -4168.7157   -5276.5985    6118.3626    6722.0878    568.83429    82.144427 
   64600    624.97532   -115.58985    0.5654908   -115.02436    3787.9883    4.3443221    4.3443221    4.3443221    3787.9883   -3699.5073    12577.793    2485.6793    5786.0678    1355.6255   -1568.8348    81.990975 
   64700    646.02705   -115.60951   0.58453886   -115.02497   -4376.7437    4.3457003    4.3457003    4.3457003   -4376.7437     8188.571    -16581.97   -4736.8321   -1665.9339   -1917.6608    5484.3228    82.069031 
   64800    403.45041   -115.39282   0.36505041   -115.02777   -6875.6633     4.348367     4.348367     4.348367   -6875.6633   -1928.5789   -7952.4121   -10745.999    4819.8599    2918.2172   -1513.0629     82.22021 
   64900    645.74988    -115.6102   0.58428806   -115.02591   -35.810314    4.3410666    4.3410666    4.3410666   -35.810314   -5819.0454    4637.2727    1074.3417    6751.5865    7051.0224   -278.82918    81.806788 
   65000    701.85443   -115.65971   0.63505264   -115.02466    591.26685    4.3496034    4.3496034    4.3496034    591.26685    -3411.808    4509.9871    675.62143    1839.7652   -6258.2126    706.13483    82.290362 
   65100    622.17239   -115.58929   0.56295465   -115.02633    491.73959    4.3443301    4.3443301    4.3443301    491.73959    6034.7342   -5501.4491    941.93362   -3140.0874     2031.702   -2227.0512     81.99143 
   65200    501.61709   -115.48283   0.45387368   -115.02896    3737.3567     4.341699     4.341699     4.341699    3737.3567    532.89163    4987.3342    5691.8443    5685.0748    8479.8788    677.08919    81.842544 
   65300    722.51687   -115.68059   0.65374845   -115.02684   -3474.7401    4.3505131    4.3505131    4.3505131   -3474.7401   -17562.057    871.81942    6266.0168    5115.3706   -3100.4589   -2834.1804    82.342004 
   65400    905.53323   -115.84285    0.8193455    -115.0235      5363.58    4.3402381    4.3402381    4.3402381      5363.58    12578.312   -6226.0004    9738.4287   -2255.0484    818.68845    2791.0898     81.75996 
   65500    557.61005   -115.53355   0.50453729   -115.02902   -3082.6325    4.3474749    4.3474749    4.3474749   -3082.6325   -2772.5462   -5195.3409   -1280.0103    3720.7631    3539.5591   -4502.2826    82.169613 
   65600    639.48918   -115.60705   0.57862325   -115.02842   -8471.3789    4.3471328    4.3471328    4.3471328   -8471.3789   -26996.487   -8692.4831    10274.834    10789.013   -2166.2494    2517.0121    82.150218 
   65700    838.25678   -115.78276   0.75847235   -115.02429     10993.85    4.3406528    4.3406528    4.3406528     10993.85   -3399.1114    16496.578    19884.084    2922.7889   -3623.8868   -823.85839    81.783398 
   65800    828.94306   -115.77656    0.7500451   -115.02652   -3578.2934    4.3468499    4.3468499    4.3468499   -3578.2934   -9891.4269   -7122.1565    6278.7033   -4553.6289    5147.4588   -6257.0109    82.134181 
   65900    360.40055   -115.35841   0.32609799   -115.03231   -1836.1094    4.3460083    4.3460083    4.3460083   -1836.1094   -20192.935    3012.5418    11672.065    8567.4627    3374.9571    2331.1625    82.086483 
   66000    729.53223   -115.68857    0.6600961   -115.02847   -2623.1848     4.345009     4.345009     4.345009   -2623.1848   -12727.176    3665.9381    1191.6835    5017.8277   -11531.819   -2815.9667    82.029871 
   66100    940.03721   -115.87415   0.85056542   -115.02359    4596.5884    4.3445983    4.3445983    4.3445983    4596.5884    347.33484    1950.2785    11492.152   -4473.4825    2502.7524     3490.112    82.006614 
   66200    461.33134   -115.44813   0.41742229   -115.03071   -8800.2799    4.3485651    4.3485651    4.3485651   -8800.2799   -18139.543   -3904.0028   -4357.2942    6083.9435    4238.8851   -2388.2724    82.231444 
   66300    429.25287   -115.41994   0.38839701   -115.03154   -5088.4635    4.3418971    4.3418971    4.3418971   -5088.4635   -8597.2011     4519.951    -11188.14    9988.8798   -7444.0354    1643.8901    81.853748 
   66400    780.85205   -115.73401   0.70653134   -115.02747    6025.7429    4.3458226    4.3458226    4.3458226    6025.7429   -3213.9743    15679.373    5611.8301   -1424.2147   -753.50782    1397.2243    82.075962 
   66500    689.21479   -115.65173   0.62361602   -115.02811   -2016.9479    4.3483405    4.3483405    4.3483405   -2016.9479   -13708.553    406.29929    7251.4103    -3677.349    827.17802   -1701.2445    82.218706 
   66600    314.15857   -115.31489   0.28425728   -115.03064    3244.6685    4.3411129    4.3411129    4.3411129    3244.6685   -4849.5725    21082.794    -6499.216     10584.87   -1450.7921    1812.1086    81.809407 
   66700    662.72305   -115.62598   0.59964575   -115.02634   -9244.3392    4.3503736    4.3503736    4.3503736   -9244.3392   -6811.6485   -8023.2297    -12898.14   -428.29036    -5705.702    94.773657    82.334083 
   66800    772.39777   -115.72189   0.69888174   -115.02301    7993.1451    4.3423735    4.3423735    4.3423735    7993.1451     7036.317   -832.42449    17775.543   -8634.6986    1698.9666    4059.4606    81.880696 
   66900    620.05724   -115.58854   0.56104082    -115.0275   -1160.2403    4.3431954    4.3431954    4.3431954   -1160.2403   -4975.1493    58.232428    1436.1959    6920.4973     1947.945   -5100.5616    81.927198 
   67000    468.75711   -115.45294   0.42414128    -115.0288   -8096.9541     4.349504     4.349504     4.349504   -8096.9541   -8297.0216   -10778.741      -5215.1    9170.6853   -6126.8088    756.06624    82.284723 
   67100    651.60105   -115.61483   0.58958233   -115.02525    4699.7824    4.3420333    4.3420333    4.3420333    4699.7824    8827.2174   -2304.5137    7576.6434   -6210.7177    2596.6694    4109.8526    81.861453 
   67200    631.61825   -115.59713   0.57150146   -115.02563    4312.7255    4.3460967    4.3460967    4.3460967    4312.7255   -5269.4761   -2122.8676     20330.52    1416.9157   -478.83659     844.7617    82.091494 
   67300     489.3145   -115.47007   0.44274205   -115.02733     336.7361    4.3455993    4.3455993    4.3455993     336.7361   -12659.763    5915.5029    7754.4682    12483.033   -3238.0934    3756.2395     82.06331 
   67400    510.44456   -115.48906   0.46186096    -115.0272   -6424.9002    4.3445111    4.3445111    4.3445111   -6424.9002    3277.8522   -10198.169   -12354.384     -3616.67   -2815.4623     2163.459    82.001674 
   67500    613.28739   -115.58069   0.55491532   -115.02578   -4167.4259    4.3455786    4.3455786    4.3455786   -4167.4259   -6013.1129   -20436.953    13947.788   -1909.3001   -1027.9534    1044.6126     82.06214 
   67600    610.90697   -115.57841   0.55276146   -115.02565   -1538.5967    4.3460867    4.3460867    4.3460867   -1538.5967   -8120.4425   -11017.384    14522.037    11546.559   -1964.4479   -924.02546    82.090928 
   67700    568.73717   -115.54041   0.51460534    -115.0258   -4531.3475    4.3437963    4.3437963    4.3437963   -4531.3475   -118.42304   -5739.0278   -7736.5917    2589.4017   -2567.0778    767.04376     81.96121 
   67800    522.10621    -115.4995   0.47241267   -115.02709   -4710.2257    4.3443579    4.3443579    4.3443579   -4710.2257   -754.54484   -20005.174    6629.0413   -5060.5824     1948.103   -746.04191    81.993001 
   67900    477.26832    -115.4594    0.4318424   -115.02755   -421.00792    4.3484425    4.3484425    4.3484425   -421.00792    -13584.64   -14942.149    27263.765    8049.8451    1075.5517   -1892.9428     82.22449 
   68000    594.19913   -115.56315   0.53764386   -115.02551    11142.113    4.3402009    4.3402009    4.3402009    11142.113    7920.4175    10121.084    15384.838    9753.8845   -2617.6734    4405.6046    81.757859 
   68100    581.75885   -115.55279   0.52638763    -115.0264    1632.0239    4.3459548    4.3459548    4.3459548    1632.0239    1549.1281   -13160.483    16507.427   -6468.7115   -3408.7406    4006.6686    82.083454 
   68200    461.99731   -115.44621   0.41802488   -115.02818   -8983.9398    4.3481376    4.3481376    4.3481376   -8983.9398   -5684.1922   -30420.567    9152.9401    7092.2072   -260.60996   -972.06201    82.207198 
   68300    554.97374   -115.52992    0.5021519   -115.02777    7328.7523    4.3382947    4.3382947    4.3382947    7328.7523    7765.2709    -13884.79    28105.776    13741.715   -5042.8294   -3703.3661    81.650182 
   68400     782.3922   -115.73323    0.7079249    -115.0253   -2097.6783    4.3488321    4.3488321    4.3488321   -2097.6783    2945.4338   -13347.108    4108.6392   -1700.9756   -4234.1749    3910.7278    82.246595 
   68500    616.17985   -115.58479   0.55753248   -115.02726   -7267.5642    4.3460469    4.3460469    4.3460469   -7267.5642    9202.4723   -27072.342   -3932.8226    4186.2051     2127.936    690.00561    82.088671 
   68600    444.48042   -115.43188   0.40217523   -115.02971   -3388.0388    4.3393628    4.3393628    4.3393628   -3388.0388   -1655.8546    -24081.78    15573.518    15548.354    1799.7076   -4032.3401    81.710504 
   68700    664.09639   -115.62872   0.60088837   -115.02783   -2017.7816    4.3494725    4.3494725    4.3494725   -2017.7816   -110.65261   -6718.7027    776.01067    1189.1948   -2398.0999    813.35575    82.282932 
   68800     794.8032   -115.74413   0.71915463   -115.02497    1324.1494      4.34494      4.34494      4.34494    1324.1494    13381.367   -3853.2077   -5555.7107   -5348.0329   -2568.5741    2173.8607    82.025966 
   68900    467.51521   -115.45219   0.42301758   -115.02917    1836.6935    4.3401966    4.3401966    4.3401966    1836.6935    12079.628   -16380.856    9811.3082    15560.665    1974.2802    573.56754    81.757616 
   69000    551.44691   -115.52829   0.49896075   -115.02933    -9414.256    4.3501228    4.3501228    4.3501228    -9414.256   -10254.894   -22472.309    4484.4348    5164.5286   -4150.2864     661.9589    82.319846 
   69100    742.67338   -115.69771   0.67198649   -115.02572    4977.5426    4.3437525    4.3437525    4.3437525    4977.5426    17222.862    626.50712   -2916.7416   -9668.0136   -5988.9215    1765.7485    81.958732 
   69200    756.94116   -115.71066   0.68489627   -115.02577    5043.4861    4.3395619    4.3395619    4.3395619    5043.4861    15711.654   -7000.8535    6419.6581    10363.977    66.798749    -1844.578     81.72175 
   69300    461.15503   -115.44677   0.41726276    -115.0295   -8746.2687     4.352569     4.352569     4.352569   -8746.2687   -1375.7238   -25136.742    273.66021    6451.9058    875.52273   -3309.8732    82.458798 
   69400    552.00432   -115.52731   0.49946511   -115.02785   -534.65387     4.341695     4.341695     4.341695   -534.65387    5097.0932   -2886.0514   -3815.0034   -11139.622   -4400.9862   -540.86498    81.842322 
   69500    770.59079   -115.72168   0.69724674   -115.02444    4353.9136    4.3402549    4.3402549    4.3402549    4353.9136    10831.109    12823.853   -10593.221   -2279.8934   -261.88842   -1376.6919    81.760907 
   69600     560.6623   -115.53369   0.50729903   -115.02639   -5081.6174    4.3535881    4.3535881    4.3535881   -5081.6174     4246.597   -8500.5203   -10990.929    5938.2451    3298.8694   -1866.6034    82.516728 
   69700    483.96079   -115.46608   0.43789789   -115.02818    1757.4347    4.3365283    4.3365283    4.3365283    1757.4347    3737.5698     -883.496    2418.2303   -6680.9362   -7863.2473   -938.69386    81.550486 
   69800    516.71818   -115.49619   0.46753747   -115.02865   -673.95233    4.3457062    4.3457062    4.3457062   -673.95233    9384.6807    5847.4467   -17253.984   -7783.2385   -2148.7543    1393.0569     82.06937 
   69900    757.50788   -115.70907   0.68540905   -115.02366   -6157.6857    4.3508718    4.3508718    4.3508718   -6157.6857    12573.336    -9074.853    -21971.54    9417.4887    4943.6521    819.82357    82.362376 
   70000    520.86665   -115.49631   0.47129109   -115.02502    11577.046    4.3367013    4.3367013    4.3367013    11577.046     27721.31   -2129.9752    9139.8044   -5224.1674   -1209.9215   -351.37563    81.560247 
   70100     446.7184   -115.43221   0.40420019   -115.02801    -8131.793    4.3480722    4.3480722    4.3480722    -8131.793    18.237615   -15699.538   -8714.0783   -14442.768   -4601.6921     2560.164    82.203488 
   70200    602.68068   -115.57131   0.54531815   -115.02599   -3727.0083    4.3459416    4.3459416    4.3459416   -3727.0083    13627.767   -5392.8068   -19415.986    2125.8433    4892.3974   -323.96658    82.082704 
   70300    664.06297   -115.62548   0.60085813   -115.02462    4633.7675    4.3415559    4.3415559    4.3415559    4633.7675    21439.271   -5341.8197   -2196.1486   -3338.1955     7060.287   -545.59877    81.834455 
   70400     525.0809   -115.50233   0.47510423   -115.02723   -1141.0239    4.3455495    4.3455495    4.3455495   -1141.0239      2178.69   -11036.419    5434.6574   -11823.097   -8853.1279   -1511.7621    82.060492 
   70500    390.78748   -115.38243   0.35359272   -115.02884   -4379.1222    4.3454763    4.3454763    4.3454763   -4379.1222    2978.7218    -4801.172   -11314.916    -2043.895    6344.2453   -2144.2999    82.056342 
   70600    595.66306   -115.56637   0.53896845    -115.0274    -3345.552    4.3429883    4.3429883    4.3429883    -3345.552    3414.1847    1546.0809   -14996.922    4590.2589    12614.994    -2165.383    81.915481 
   70700    733.22169   -115.68831    0.6634344   -115.02487    3122.8261    4.3444714    4.3444714    4.3444714    3122.8261    12707.405   -7632.4897    4293.5626   -5030.0416   -3091.9741   -2131.7183    81.999429 
   70800    485.23742   -115.46737   0.43905302   -115.02832   -776.74986      4.34621      4.34621      4.34621   -776.74986    657.28585   -313.70326   -2673.8322   -10618.211    1134.4141    328.79149    82.097915 
   70900    417.46615   -115.40771   0.37773215   -115.02998   -3727.6634    4.3417261    4.3417261    4.3417261   -3727.6634    135.08302    8618.5991   -19936.672    4401.1863    11093.928   -2252.2823    81.844078 
   71000    747.36961   -115.70304   0.67623573   -115.02681   -509.52207    4.3463083    4.3463083    4.3463083   -509.52207    16162.338   -11783.577   -5907.3272   -2844.0936    3536.1304    -1132.573    82.103486 
   71100    844.29114   -115.78959   0.76393237   -115.02566    2781.3829    4.3440069    4.3440069    4.3440069    2781.3829    11823.521   -4566.7674    1087.3953   -8550.0342   -2763.7513    582.94401    81.973128 
   71200    369.12904   -115.36643   0.33399571   -115.03244   -6.6272722    4.3408954    4.3408954    4.3408954   -6.6272722    5910.8018    9481.8798   -15412.563    3500.7096    12512.027    2437.2653     81.79711 
   71300    498.00795    -115.4836   0.45060806     -115.033   -10742.028     4.348795     4.348795     4.348795   -10742.028   -5184.3087   -13567.387   -13474.387    5075.8531    5192.8189    741.28107    82.244489 
   71400    928.29896   -115.86426   0.83994441   -115.02431    4149.2758    4.3427323    4.3427323    4.3427323    4149.2758    19893.813   -12140.721     4694.736    3044.5973   -2863.0675   -408.61755    81.900996 
   71500    637.78735   -115.60582   0.57708339   -115.02874    3944.9401    4.3414994    4.3414994    4.3414994    3944.9401    10607.572    8881.2884     -7654.04   -2439.5445    12634.381    1441.2663    81.831261 
   71600    314.81267   -115.31851   0.28484912   -115.03366   -9335.5388    4.3481424    4.3481424    4.3481424   -9335.5388   -3625.6173   -3891.5922   -20489.407    5329.5343    6615.3779   -2313.6058     82.20747 
   71700    643.14655    -115.6116   0.58193251   -115.02967    2258.4293     4.343041     4.343041     4.343041    2258.4293    14623.256   -6604.6188   -1243.3498    6334.8052    -8508.367   -1085.2298     81.91846 
   71800    877.09844   -115.81871    0.7936171    -115.0251    5014.9188    4.3419617    4.3419617    4.3419617    5014.9188    16277.354    2091.1872   -3323.7847   -6306.4422    4408.7832   -5.7638736    81.857404 
   71900    416.10039   -115.40705   0.37649638   -115.03056   -2144.7118    4.3485294    4.3485294    4.3485294   -2144.7118    10969.228    11169.741   -28573.104    4392.1962    10173.724   -716.95735    82.229423 
   72000    460.56192   -115.44733    0.4167261    -115.0306   -7352.6153    4.3421325    4.3421325    4.3421325   -7352.6153    -10102.56    8314.3228   -20269.609    7451.7844   -9467.6524   -1911.1433    81.867062 
   72100    670.83008   -115.63427   0.60698116   -115.02729    5355.5094    4.3427413    4.3427413    4.3427413    5355.5094     13703.33    2370.6525   -7.4543917   -354.22808   -707.95891    1120.8165    81.901506 
   72200    705.41881   -115.66361   0.63827776   -115.02533   -8302.0776    4.3512346    4.3512346    4.3512346   -8302.0776    1006.1807    2497.2895   -28409.703   -2247.3191    6129.7157    4129.1875    82.382977 
   72300    429.47055   -115.41694   0.38859398   -115.02834    4023.0221    4.3367629    4.3367629    4.3367629    4023.0221     5561.945    25330.662    -18823.54      5288.88   -4037.4157   -644.22415    81.563722 
   72400    466.78496   -115.45264   0.42235684   -115.03028   -5175.8752    4.3482515    4.3482515    4.3482515   -5175.8752    2160.7105   -8177.1085   -9511.2276    6122.3145   -8176.0172    3448.9378    82.213655 
   72500    698.95077   -115.65819   0.63242535   -115.02577   -4153.3735    4.3478945    4.3478945    4.3478945   -4153.3735    5613.5277   -12047.839   -6025.8094   -11188.912    1070.7504    6653.5865    82.193408 
   72600    643.22318   -115.60599   0.58200185   -115.02398    13526.912    4.3352363    4.3352363    4.3352363    13526.912    26574.433     19404.42   -5398.1175    1340.6811    1142.6549   -860.46012    81.477616 
   72700    553.13518   -115.52752   0.50048834   -115.02703   -15679.187    4.3549261    4.3549261    4.3549261   -15679.187   -9511.4131   -17464.704   -20061.445    4727.8353   -9641.2618   -2850.0248    82.592836 
   72800    497.35149   -115.47639   0.45001408   -115.02638       5018.9    4.3418181    4.3418181    4.3418181       5018.9    13054.934   -8008.6533     10010.42   -10222.417    3214.0459    3583.8151    81.849284 
   72900    790.98866   -115.73962   0.71570316   -115.02392    6603.6359     4.338819     4.338819     4.338819    6603.6359    20131.464    2095.5107   -2416.0671   -1689.0208    526.00983    2730.0206    81.679789 
   73000    701.02444   -115.65964   0.63430165   -115.02534   -6019.6514    4.3525376    4.3525376    4.3525376   -6019.6514    5033.0295   -4554.6811   -18537.302    5239.1751   -4555.9066   -4999.4854    82.457012 
   73100    438.55097   -115.42571   0.39681013    -115.0289    2058.6811    4.3406584    4.3406584    4.3406584    2058.6811    2535.2588   -732.06401    4372.8485   -3946.9864   -2894.9026    1495.5155    81.783711 
   73200    648.97245    -115.6157   0.58720391    -115.0285   -1361.7905    4.3434872    4.3434872    4.3434872   -1361.7905     5679.995   -11274.915    1509.5483   -15003.452   -793.33635    4105.3077    81.943714 
   73300    814.57951   -115.76105   0.73704866     -115.024    882.81929    4.3493336    4.3493336    4.3493336    882.81929    13640.628   -5836.5548   -5155.6154     3299.071   -468.09524   -2228.1134    82.275051 
   73400    666.91743   -115.63006   0.60344091   -115.02662   -4103.5588    4.3418524    4.3418524    4.3418524   -4103.5588    572.74517   -12997.716    114.29487    -3591.449   -8594.7745    813.86994    81.851221 
   73500    387.78079   -115.38217   0.35087221    -115.0313    2594.6014     4.342887     4.342887     4.342887    2594.6014    16127.974   -22780.603    14436.433   -18056.479    2632.5574    8079.5412    81.909749 
   73600    796.19434   -115.74752   0.72041337    -115.0271   -4802.8002    4.3481323    4.3481323    4.3481323   -4802.8002     5945.692   -23298.514    2944.4213    1771.0718    973.83568    -1134.641    82.206896 
   73700    768.72344   -115.72078   0.69555712   -115.02522    471.50059    4.3428313    4.3428313    4.3428313    471.50059    15289.838    -14159.72    284.38413    112.04298   -2887.1268   -8866.0952    81.906598 
   73800    485.52264   -115.46892   0.43931109   -115.02961    35.021381     4.343287     4.343287     4.343287    35.021381    2919.2712   -19303.295    16489.088   -12466.193   -507.94267    4083.5975    81.932384 
   73900    522.70606   -115.50128   0.47295543   -115.02832   -5151.6197    4.3481417    4.3481417    4.3481417   -5151.6197   -1743.8628   -19046.218    5335.2215   -6233.7853    2761.5531    2930.7517    82.207431 
   74000    673.65927   -115.63501   0.60954106   -115.02547    2058.6766    4.3421223    4.3421223    4.3421223    2058.6766    14479.882   -5143.5909   -3160.2615    2750.3895    4372.4142   -9687.2913    81.866488 
   74100    627.33735   -115.59456   0.56762802   -115.02693   -1412.3875    4.3433482    4.3433482    4.3433482   -1412.3875    428.33763   -10094.572    5429.0719   -13003.879   -10602.028    -4839.875    81.935848 
   74200    362.02482   -115.35675   0.32756767   -115.02919    733.03125    4.3483166    4.3483166    4.3483166    733.03125    14000.089   -14184.293    2383.2979   -12263.375   -209.15892    3210.7057    82.217348 
   74300     504.5046   -115.48365   0.45648636   -115.02716   -3546.0813    4.3438993    4.3438993    4.3438993   -3546.0813    13366.362   -13599.234   -10405.372    7124.3741    4505.8104    -6077.546    81.967039 
   74400    647.89462   -115.61095   0.58622867   -115.02472   -161.32437    4.3415005    4.3415005    4.3415005   -161.32437     5116.135   -8604.1163    3004.0082   -1707.6047    2133.0678   -6449.7992    81.831322 
   74500    600.35359   -115.56964   0.54321254   -115.02642   -3954.6553    4.3492822    4.3492822    4.3492822   -3954.6553    1066.7346   -15781.701    2851.0003   -9130.6361    -70.28269    3441.4961    82.272132 
   74600    408.36922   -115.39772   0.36950105   -115.02822   -3200.3205     4.344597     4.344597     4.344597   -3200.3205    12052.662   -14987.837   -6665.7866     4022.198    3335.0609   -719.07921    82.006542 
   74700    501.42775   -115.48081   0.45370237   -115.02711   -392.56544    4.3424415    4.3424415    4.3424415   -392.56544    8893.6043   -10490.281    418.98081    7097.9722    8991.0271   -6070.1014    81.884542 
   74800    720.01481   -115.67532   0.65148453   -115.02383   -3432.0556    4.3509069    4.3509069    4.3509069   -3432.0556    4645.8525   -10373.372   -4568.6474   -9947.1072   -7585.8729    1624.7604    82.364369 
   74900    506.99386   -115.48611    0.4587387   -115.02737    5898.7177    4.3409711    4.3409711    4.3409711    5898.7177    21328.947   -12.135721   -3620.6582   -6404.3054   -1060.8919    1293.2062    81.801388 
   75000    389.71628   -115.38432   0.35262348    -115.0317   -3279.6591    4.3428299    4.3428299    4.3428299   -3279.6591   -1891.3647   -5056.7969   -2890.8156    9996.1087    3192.2857   -6925.4241    81.906515 
   75100    724.37025   -115.68221   0.65542542   -115.02679    -8236.975    4.3543172    4.3543172    4.3543172    -8236.975    -8190.861    -6346.245   -10173.819    2026.3558    612.30197   -3086.6264    82.558195 
   75200    814.60911   -115.76071   0.73707544   -115.02363    6287.5951    4.3411637    4.3411637    4.3411637    6287.5951    12832.189    5029.3268    1001.2699   -5686.8888   -3836.1571    303.29285    81.812276 
   75300    456.69471   -115.44215   0.41322697   -115.02892    477.60453    4.3422378    4.3422378    4.3422378    477.60453    10786.212   -10844.271    1490.8726    10647.213    3518.7784   -7228.3584    81.873018 
   75400    502.27869   -115.48634   0.45447231   -115.03187   -5444.6909    4.3527646    4.3527646    4.3527646   -5444.6909    17813.299   -23342.196   -10805.175    12889.008    10285.511    -5212.281    82.469916 
   75500    949.76437   -115.88507   0.85936676   -115.02571    16434.924    4.3354144    4.3354144    4.3354144    16434.924    32298.193    5951.8576     11054.72    -1953.962   -4241.5102    971.86156    81.487659 
   75600    750.44612   -115.71048   0.67901942   -115.03146   -3953.6558    4.3506181    4.3506181    4.3506181   -3953.6558    7172.1733   -17962.308   -1070.8325    77.274062     1521.567   -3156.3959    82.347965 
   75700    464.47186   -115.44986    0.4202639    -115.0296   -13291.263     4.353363     4.353363     4.353363   -13291.263    1569.1745   -28434.651   -13008.314    10204.588    7474.7626   -1319.3521     82.50393 
   75800    881.35502   -115.81891   0.79746854   -115.02144    11419.711    4.3318404    4.3318404    4.3318404    11419.711    20876.256    3230.3879    10152.488    2157.6733   -33.980618     1978.316    81.286297 
   75900    894.08985   -115.83293   0.80899129   -115.02394   -6254.0705    4.3522051    4.3522051    4.3522051   -6254.0705    5409.7841   -12894.524   -11277.471   -3819.3794   -11499.446    952.96872    82.438115 
   76000    450.34544   -115.43936   0.40748202   -115.03188   -4649.4328    4.3454093    4.3454093    4.3454093   -4649.4328    11924.565   -16164.242   -9708.6213    11554.702    7582.1281   -1611.7261    82.052549 
   76100    420.67724   -115.41225   0.38063761   -115.03162    2751.2249    4.3386266    4.3386266    4.3386266    2751.2249    14826.301   -12571.671    5999.0447    4022.8492    10605.485    2010.0544    81.668924 
   76200     736.3106   -115.69079   0.66622931   -115.02456   -6324.7683     4.352896     4.352896     4.352896   -6324.7683   -13821.988   -9250.6765    4098.3594   -5682.7904   -7046.1392    2325.8848    82.477384 
   76300    649.33148   -115.61375   0.58752877   -115.02622   -1182.1647    4.3399509    4.3399509    4.3399509   -1182.1647   -9310.7885    1983.6998    3780.5947    8782.7797    4854.8764   -4756.8128    81.743728 
   76400    207.25867   -115.22009     0.187532   -115.03256    2573.9914    4.3396374    4.3396374    4.3396374    2573.9914    1234.0973   -9833.2494    16321.126    9066.3842    6710.6199   -2562.8251    81.726019 
   76500    417.23863   -115.40815   0.37752628   -115.03062   -8584.8319    4.3528637    4.3528637    4.3528637   -8584.8319   -8942.0747   -19554.835    2742.4143    -7835.758    3409.8829    554.56899    82.475549 
   76600    667.89721   -115.62889   0.60432743   -115.02457    9032.1825    4.3397391    4.3397391    4.3397391    9032.1825    5816.5798    7512.8243    13767.143   -4545.0166     -8744.78    665.67399    81.731764 
   76700    469.58285   -115.45355   0.42488843   -115.02866     4961.223    4.3405943    4.3405943    4.3405943     4961.223    8956.6868   -2310.3695    8237.3518    10938.741    5827.4475   -2155.0936    81.780091 
   76800    300.69654   -115.30364   0.27207655   -115.03156   -16353.573    4.3520385    4.3520385    4.3520385   -16353.573   -12125.771    -29042.03    -7892.917   -4118.9517    10355.098     2630.982    82.428647 
   76900    598.72217   -115.57027    0.5417364   -115.02853    4587.9804    4.3364707    4.3364707    4.3364707    4587.9804     7432.355   -8619.6002    14951.187   -11885.641   -5372.9771    6270.1021    81.547235 
   77000     893.3431   -115.83402   0.80831561   -115.02571   -3009.1647    4.3466863    4.3466863    4.3466863   -3009.1647    562.83256   -7798.3781   -1791.9485    6632.2851    7767.9971   -630.39333     82.12491 
   77100    471.45161   -115.45776   0.42657933   -115.03118   -2345.2167    4.3468087    4.3468087    4.3468087   -2345.2167    10168.708   -21638.097    4433.7385    2396.0341    3498.0647    1080.5268    82.131845 
   77200    445.30765   -115.43473   0.40292372    -115.0318   -2376.6124    4.3386612    4.3386612    4.3386612   -2376.6124    10324.455   -27821.243     10366.95   -13521.754    2668.6289    6695.5789    81.670878 
   77300    832.84985    -115.7817   0.75358004   -115.02812   -1506.6192    4.3469365    4.3469365    4.3469365   -1506.6192    6075.7421   -16392.265    5796.6651   -4593.4702   -2758.9649    326.03565    82.139089 
   77400    835.81444   -115.78296   0.75626247    -115.0267    8297.0673    4.3432827    4.3432827    4.3432827    8297.0673    13383.459    937.54755    10570.195    695.23319    1735.7897   -3298.2392    81.932139 
   77500    485.31982   -115.47093   0.43912757    -115.0318   -5404.1205    4.3443768    4.3443768    4.3443768   -5404.1205   -4625.9311    -22284.24     10697.81   -11856.173    7555.9073    3220.7697    81.994073 
   77600    514.08556   -115.49646   0.46515542   -115.03131    2011.6663    4.3420088    4.3420088    4.3420088    2011.6663    12340.255   -18112.676     11807.42   -6980.4848   -5695.8604    4404.9984    81.860065 
   77700    892.16006   -115.83316   0.80724517   -115.02591   -1434.1349    4.3470412    4.3470412    4.3470412   -1434.1349    4823.5652   -3103.8141   -6022.1558    3558.9836     11969.92   -1293.0956    82.145028 
   77800    641.10086   -115.60878   0.58008153    -115.0287    3992.2047    4.3420883    4.3420883    4.3420883    3992.2047    2329.3823   -4232.0896    13879.321   -7901.8109    4122.8696   -115.35837    81.864561 
   77900    434.58735   -115.42423   0.39322377   -115.03101   -3417.8022      4.34234      4.34234      4.34234   -3417.8022    5135.9547   -21806.882    6417.5203   -10405.685   -3015.8326    7772.4554    81.878802 
   78000    544.26702   -115.52067   0.49246423    -115.0282   -10617.855    4.3503797    4.3503797    4.3503797   -10617.855    11265.934   -23639.132   -19480.366    5681.6985   -667.53538   -273.34248    82.334432 
   78100    680.81557   -115.64053   0.61601624   -115.02451    7257.3672     4.337132     4.337132     4.337132    7257.3672    6038.1914    7094.8119    8639.0983    -1945.666    1026.6255   -2306.5049     81.58455 
   78200    526.54456   -115.50386   0.47642858   -115.02743   -6448.3337    4.3482848    4.3482848    4.3482848   -6448.3337   -14502.895   -12487.266    7645.1605   -11066.017    7483.1169    2120.2929    82.215547 
   78300    325.06025   -115.32312   0.29412135     -115.029      -5740.6    4.3469164    4.3469164    4.3469164      -5740.6    12501.617   -19670.583   -10052.834   -878.14657   -5901.9539    513.10586     82.13795 
   78400    538.86351   -115.51448   0.48757503   -115.02691    5159.1415    4.3368414    4.3368414    4.3368414    5159.1415    12375.113    4600.0286   -1497.7172    3799.5519    7976.4431   -6782.3004    81.568153 
   78500    654.98248   -115.61823   0.59264192   -115.02559   -5496.0759    4.3509923    4.3509923    4.3509923   -5496.0759   -17790.846    465.57099    837.04758   -5199.6731    7524.2755    -1751.536    82.369219 
   78600    585.42061    -115.5568   0.52970087    -115.0271    444.18037    4.3414963    4.3414963    4.3414963    444.18037    9490.6003    -6523.189   -1634.8702   -6810.7312   -2947.4693    8675.7802    81.831086 
   78700     483.6574   -115.46756   0.43762338   -115.02993   -103.36516    4.3429854    4.3429854    4.3429854   -103.36516    16308.263   -15085.979   -1532.3799    7165.5972    1489.6587     -5422.33    81.915317 
   78800    708.51143   -115.66847   0.64107603   -115.02739   -1884.0541    4.3483211    4.3483211    4.3483211   -1884.0541   -7777.6027   -10823.542    12948.982     3319.831    242.12987    -2657.018    82.217604 
   78900    831.71706   -115.77701   0.75255508   -115.02446    9463.9178    4.3393755    4.3393755    4.3393755    9463.9178    8920.9383    -6656.493    26127.308   -4512.4352     2443.686    4172.6015    81.711219 
   79000    608.12691   -115.57946     0.550246   -115.02922   -5886.9665    4.3484577    4.3484577    4.3484577   -5886.9665   -2728.0718   -26516.611    11583.783   -2189.2393   -1275.3684   -2522.3302    82.225353 
   79100    629.79161   -115.59945   0.56984868   -115.02961   -1159.2462    4.3419512    4.3419512    4.3419512   -1159.2462    748.50663   -15730.492    11504.247    4822.4312    6959.7606   -10832.404    81.856807 
   79200    892.42066   -115.83397   0.80748097   -115.02649   -544.83228    4.3451693    4.3451693    4.3451693   -544.83228   -10323.148    814.09215    7874.5593   -1868.2711    1037.3107   -1328.9517     82.03895 
   79300    787.40968   -115.73907   0.71246483   -115.02661   -2385.4227    4.3477048    4.3477048    4.3477048   -2385.4227   -9617.2106   -11071.771    13532.714   -5982.6214   -5804.8818    5318.5611    82.182652 
   79400    500.53619   -115.48276   0.45289567   -115.02986    4942.0235    4.3386245    4.3386245    4.3386245    4942.0235    5369.0013   -12871.315    22328.385    4493.0859    5511.3126     -7486.62    81.668803 
   79500     589.1087   -115.56147   0.53303793   -115.02843   -6087.2361    4.3512252    4.3512252    4.3512252   -6087.2361   -9846.9271   -11224.221    2809.4395    3603.7807    3883.0565   -1505.6094    82.382447 
   79600    775.43469   -115.72536    0.7016296   -115.02373    7201.8221    4.3411523    4.3411523    4.3411523    7201.8221   -6620.6354    6860.2301    21365.872   -1922.3297    -7341.812    1918.7598    81.811632 
   79700    568.28598   -115.54221    0.5141971   -115.02801    710.41921    4.3422937    4.3422937    4.3422937    710.41921    6679.5276   -11628.523    7080.2531    1340.8815   -4710.2536   -7536.7697     81.87618 
   79800    410.69977    -115.4007   0.37160978   -115.02909   -11769.424    4.3492217    4.3492217    4.3492217   -11769.424    3799.4807   -23992.658   -15115.095     6947.916    6883.9733   -7169.9569    82.268702 
   79900    645.24921   -115.60891   0.58383505   -115.02508    451.74697    4.3426276    4.3426276    4.3426276    451.74697    -8694.723    2220.2158    7829.7481    1608.5681   -989.28627    39.256821    81.895073 
   80000    572.18609   -115.54385   0.51772599   -115.02612    8451.2812    4.3430183    4.3430183    4.3430183    8451.2812    7003.8046   -3613.2292    21963.268   -3387.1681   -5245.1982   -1362.9766    81.917179 
   80100    424.17987   -115.41329   0.38380686   -115.02948   -1018.7032    4.3440371    4.3440371    4.3440371   -1018.7032    8071.2006   -15904.191    4776.8808    2174.9086    1845.1892    -7096.105    81.974838 
   80200    401.60077   -115.39381   0.36337682   -115.03043   -12570.733    4.3475695    4.3475695    4.3475695   -12570.733    -12413.89   -7509.0108   -17789.298     3521.375    6153.2673    3373.1166    82.174981 
   80300    627.45301    -115.5947   0.56773267   -115.02696    5360.3542    4.3396802    4.3396802    4.3396802    5360.3542   -3406.9915    14794.265     4693.789   -1924.7575    -7623.432    1866.8607    81.728432 
   80400     637.8012    -115.6027   0.57709593    -115.0256   -4599.2428    4.3489524    4.3489524    4.3489524   -4599.2428   -5395.1586   -8962.1359    559.56597   -784.60464   -7003.6434    -7637.591    82.253423 
   80500    432.30846   -115.41973   0.39116178   -115.02857   -1728.2999    4.3423938    4.3423938    4.3423938   -1728.2999   -1403.5486   -10316.048    6534.6966     4328.695    6975.8833   -3356.9733    81.881843 
   80600     515.0997   -115.49632   0.46607304   -115.03025    2125.9633    4.3416426    4.3416426    4.3416426    2125.9633   -6695.2708    6173.4947     6899.666    2082.0113   -6956.8511    4101.6089    81.839356 
   80700     723.6893   -115.68074   0.65480928   -115.02593   -597.25842    4.3498395    4.3498395    4.3498395   -597.25842   -14684.351   -3752.9079    16645.484   -1662.3601   -3880.0805   -2425.6404    82.303765 
   80800    773.35843   -115.72467   0.69975096   -115.02492    5730.5591    4.3380911    4.3380911    4.3380911    5730.5591    5271.3085   -6228.8987    18149.267    4315.6315    2327.7897    -5237.252    81.638685 
   80900    579.60214   -115.55419    0.5244362   -115.02976   -11343.501    4.3485524    4.3485524    4.3485524   -11343.501   -8221.6185   -14184.955   -11623.928    5005.3071   -2069.2359    6468.0555    82.230726 
   81000    567.61968   -115.54294   0.51359422   -115.02934     3386.475    4.3441302    4.3441302    4.3441302     3386.475    -5776.374    1062.9389     14872.86   -1630.5629   -7744.7986    7400.6446    81.980111 
   81100    866.78521   -115.81011   0.78428548   -115.02582    6062.7771    4.3396197    4.3396197    4.3396197    6062.7771   -5257.0165    -7596.248    31041.596    2527.8088   -4601.4763    94.542598    81.725015 
   81200    690.35535   -115.65259   0.62464803   -115.02794   -1023.1622    4.3484951    4.3484951    4.3484951   -1023.1622    -10011.99   -19408.741    26351.245    4346.7543    2991.5375    1538.6696    82.227477 
   81300    506.01452   -115.48799   0.45785257   -115.03014    -5530.895    4.3431465    4.3431465    4.3431465    -5530.895   -15197.832   -1656.2667    261.41309     410.0699   -13811.594    5246.1095    81.924434 
   81400    583.90781   -115.55739   0.52833206   -115.02906   -334.66289    4.3408103    4.3408103    4.3408103   -334.66289   -5156.7824   -1497.0854    5649.8792   -1371.9219   -749.23275   -132.26836    81.792299 
   81500    798.53493   -115.74878   0.72253119   -115.02625   -4095.3603    4.3481644    4.3481644    4.3481644   -4095.3603   -18183.728    -19573.37    25471.017    2588.2291    4371.5046     -3346.76    82.208718 
   81600    649.54543   -115.61583   0.58772235   -115.02811   -1035.7494    4.3410036    4.3410036    4.3410036   -1035.7494   -19891.003   -135.35045    16919.106    840.69666    -3809.253    2189.4103    81.803227 
   81700    363.32953   -115.36024    0.3287482   -115.03149   -243.94203    4.3429638    4.3429638    4.3429638   -243.94203   -12430.613     118.9783    11579.808    -2525.922   -7002.2521    4176.5228    81.914096 
   81800    564.75503   -115.53898   0.51100222   -115.02798   -6072.5656    4.3500638    4.3500638    4.3500638   -6072.5656   -15257.973   -21964.187    19004.464    2163.7181    3837.3516   -3319.0674    82.316499 
   81900    755.98653   -115.70735    0.6840325   -115.02331    6922.9377    4.3371088    4.3371088    4.3371088    6922.9377   -7849.0872    3151.5575    25466.343    1370.0932   -4217.3155   -143.92537    81.583242 
   82000    578.54685    -115.5508   0.52348135   -115.02731   -9575.8304    4.3468212    4.3468212    4.3468212   -9575.8304   -25632.559    -230.6863   -2864.2456   -607.68947   -9894.6583    5251.9935    82.132556 
   82100    398.26858    -115.3901   0.36036178   -115.02974   -1774.2333    4.3461042    4.3461042    4.3461042   -1774.2333   -7743.9169   -10177.142    12598.359    2255.2222    1158.6772   -1645.2442    82.091918 
   82200    563.51063   -115.53732   0.50987626   -115.02744    11761.607    4.3384791    4.3384791    4.3384791    11761.607    11746.847   -8115.2329    31653.206    3414.4336    2268.8827   -7443.2913    81.660595 
   82300    598.01957    -115.5677   0.54110068    -115.0266    383.16935    4.3462763    4.3462763    4.3462763    383.16935   -13415.886   -562.40226    15127.796    734.71888   -4670.5507   -4042.4909    82.101669 
   82400    483.64063   -115.46631   0.43760821    -115.0287   -6050.1967    4.3450942    4.3450942    4.3450942   -6050.1967   -15331.088    4736.6309   -7556.1331    355.02489   -7786.5722    953.39069    82.034701 
   82500    432.56937   -115.41927   0.39139786   -115.02788    2746.8236     4.340965     4.340965     4.340965    2746.8236    14136.957   -7760.1624    1863.6758    4600.9565    7654.5454   -8385.4406    81.801044 
   82600    571.84615   -115.54356   0.51741841   -115.02614   -4195.7718     4.345558     4.345558     4.345558   -4195.7718   -4343.8943   -9393.5863     1150.165    1893.3787    -7980.834   -4288.0898    82.060968 
   82700    472.75922    -115.4549   0.42776248   -115.02713   -6423.5739    4.3450943    4.3450943    4.3450943   -6423.5739   -17419.193    11051.656   -12903.184   -1297.4152   -11254.281    5126.6679    82.034705 
   82800    463.77119   -115.44718   0.41962992   -115.02755    -1340.841    4.3407065    4.3407065    4.3407065    -1340.841   -7361.4484    253.75346    3085.1719    927.91658     10588.18   -4004.1968    81.786431 
   82900    416.33572   -115.40431   0.37670931    -115.0276   -572.89019    4.3477935    4.3477935    4.3477935   -572.89019    6348.3123   -18788.732    10721.749    1819.7883   -1561.5846   -3924.8444    82.187684 
   83000     509.4488   -115.48788   0.46095998   -115.02692   -6225.0499    4.3434043    4.3434043    4.3434043   -6225.0499    -5006.727    1148.4512   -14816.874   -1262.4932    -4551.438    1237.4613    81.939021 
   83100    511.88358   -115.48987   0.46316302   -115.02671   -2604.2523    4.3420404    4.3420404    4.3420404   -2604.2523   -9284.2769    7390.2053   -5918.6854    681.28954    3683.4277   -736.96847    81.861857 
   83200     536.9519   -115.51268   0.48584536   -115.02683    124.24674    4.3476762    4.3476762    4.3476762    124.24674    441.85137   -13728.941     13659.83    2833.4169    5410.2903    -5886.672    82.181029 
   83300    539.23558   -115.51482   0.48791169   -115.02691    8445.1758    4.3388004    4.3388004    4.3388004    8445.1758    15779.898   -7841.3227    17396.952    232.71876    -9813.402   -1741.4379    81.678738 
   83400     445.9138   -115.43281   0.40347218   -115.02934   -4544.3116    4.3474028    4.3474028    4.3474028   -4544.3116   -16267.973    -776.0131    3411.0508   -918.05637   -3083.5009    6338.2069    82.165526 
   83500    644.62035   -115.61074   0.58326604   -115.02747   -3903.8888    4.3439799    4.3439799    4.3439799   -3903.8888   -14237.167   -1065.1035    3590.6042    2191.9816    15730.918   -3506.2673    81.971599 
   83600    754.00734    -115.7079   0.68224169   -115.02566    6290.3443    4.3384907    4.3384907    4.3384907    6290.3443    8620.3091   -5897.2675    16147.991    3981.2286   -2673.5332    -1631.303    81.661249 
   83700    607.45035   -115.57804   0.54963384   -115.02841   -14090.632    4.3511261    4.3511261    4.3511261   -14090.632   -20429.541   -14495.034    -7347.322   -483.15507   -2742.0322    7909.0912     82.37682 
   83800    510.33165   -115.49222   0.46175881   -115.03046    930.54104    4.3394051    4.3394051    4.3394051    930.54104   -22976.225    13311.244    12456.605      -390.53    14379.864   -633.58084    81.712893 
   83900    823.09839   -115.77188   0.74475672   -115.02713    4044.1067    4.3431087    4.3431087    4.3431087    4044.1067   -12338.757   -3845.1162    28316.193    2801.5283    3584.4192    80.804046    81.922293 
   84000    819.43261   -115.76753   0.74143985   -115.02609   -3430.6038    4.3505679    4.3505679    4.3505679   -3430.6038   -8285.6556   -16153.762    14147.606    537.38823   -8107.4291    2339.4558    82.345117 
   84100    564.62879   -115.54046   0.51088799   -115.02958     665.1391    4.3361868    4.3361868    4.3361868     665.1391   -12048.925    12994.013    1050.3296   -1133.2952    9270.3953    1874.5461     81.53122 
   84200    614.45779   -115.58781   0.55597432   -115.03183   -865.50582     4.346567     4.346567     4.346567   -865.50582   -21456.329    2995.7242    15864.087    1515.2063    13221.895    1069.4032    82.118144 
   84300    960.29664   -115.89432   0.86889658   -115.02543      1465.61    4.3483269    4.3483269    4.3483269      1465.61   -9819.9279    -17916.42    32133.178    3744.6738   -397.02679   -577.81608    82.217934 
   84400    638.67401    -115.6069   0.57788566   -115.02901    13674.966    4.3349705    4.3349705    4.3349705    13674.966    2454.0217    10629.312    27941.563   -1729.8911    6382.5646     6833.887    81.462632 
   84500    484.47079   -115.47085   0.43835935   -115.03249   -12875.425    4.3495679    4.3495679    4.3495679   -12875.425   -31952.467    1555.0427   -8228.8497   -194.16117    13498.963   -2672.7467    82.288351 
   84600    769.88276   -115.72434    0.6966061   -115.02773    -1838.177    4.3450289    4.3450289    4.3450289    -1838.177   -10746.087   -5188.3615    10419.917      5513.63   -3678.6264   -2967.7491    82.030999 
   84700    882.07213   -115.82308    0.7981174   -115.02496    9598.3547    4.3366429    4.3366429    4.3366429    9598.3547    389.65339    961.98293    27443.428    1478.1431   -1478.1242    6029.9101    81.556954 
   84800    450.22469   -115.43798   0.40737276   -115.03061   -7213.6361    4.3503223    4.3503223    4.3503223   -7213.6361   -25574.853    2052.1076    1881.8374   -578.80293    14694.774   -438.07957    82.331172 
   84900     408.6036    -115.4009   0.36971312   -115.03119   -5552.9676    4.3434249    4.3434249    4.3434249   -5552.9676    -20227.43    3353.5177     215.0095    4476.0344   -1629.1591    487.08798    81.940184 
   85000    732.05638   -115.68903      0.66238   -115.02665    8186.9584    4.3373764    4.3373764    4.3373764    8186.9584    5582.0079    2128.1884    16850.679    3541.9539   -3604.4954   -6575.8002    81.598342 
   85100    666.23184   -115.62968   0.60282057   -115.02686   -7174.6126    4.3504568    4.3504568    4.3504568   -7174.6126   -15422.408   -350.40668   -5751.0231   -2234.2506    12915.847    1911.4356    82.338809 
   85200    336.60262   -115.33665   0.30456512   -115.03208   -7350.6476    4.3404985    4.3404985    4.3404985   -7350.6476   -13488.429    12675.528   -21239.041    2202.3059    864.44481     2648.144    81.774674 
   85300     384.7482   -115.38088   0.34812826   -115.03275    3398.8242    4.3401455    4.3401455    4.3401455    3398.8242   -1389.9793    2388.5712    9197.8808    4555.0876   -11680.809   -7893.1871    81.754727 
   85400    651.95431   -115.61595   0.58990196   -115.02605     -377.562    4.3515189    4.3515189    4.3515189     -377.562   -6248.7567   -7773.8359    12889.907   -3026.3346     700.9692    148.93811    82.399131 
   85500    583.26856    -115.5539   0.52775365   -115.02615    8941.1467    4.3354547    4.3354547    4.3354547    8941.1467   -4775.3609    17505.489    14093.312   -1698.5342    4753.5973   -633.62021    81.489933 
   85600    330.61818   -115.33153   0.29915028   -115.03238   -12946.879    4.3470883    4.3470883    4.3470883   -12946.879   -23274.623    3061.0654    -18627.08    4415.5806   -7313.4707   -3144.0412    82.147698 
   85700    527.42241   -115.50646   0.47722288   -115.02923   -1345.2337    4.3466585    4.3466585    4.3466585   -1345.2337    -7721.139   -5215.3979    8900.8358   -2686.3907    -5491.262   -5335.8632    82.123332 
   85800    855.69005   -115.79836   0.77424634   -115.02411    10781.529    4.3366854    4.3366854    4.3366854    10781.529    241.31304    6388.8497    25714.425   -4210.1804    6773.7684    966.86731    81.559348 
   85900    530.40253   -115.50972   0.47991935    -115.0298   -4034.9854    4.3476229    4.3476229    4.3476229   -4034.9854   -20763.355    4621.1411    4037.2572    4606.7928   -4262.7882    949.46121    82.178009 
   86000    312.14727    -115.3153   0.28243741   -115.03287    -7222.524    4.3458175    4.3458175    4.3458175    -7222.524   -20397.411   -6116.7933    4846.6321    4.5708431   -10364.268   -6438.1045    82.075674 
   86100     641.7746   -115.61032   0.58069114   -115.02963    8560.4395    4.3383162    4.3383162    4.3383162    8560.4395      6720.04    -7163.354    26124.633   -6798.9225    2564.7377   -1151.4675    81.651396 
   86200    911.94328   -115.85078   0.82514544   -115.02564   -2194.1644    4.3459818    4.3459818    4.3459818   -2194.1644   -6800.1359   -7024.2582     7241.901    1177.8563   -6429.6105     1206.879    82.084985 
   86300    394.58811   -115.39056   0.35703162   -115.03353   -7242.5631    4.3454655    4.3454655    4.3454655   -7242.5631   -12229.779   -3935.4599   -5562.4507    3036.2943   -9159.5588   -7352.8504    82.055731 
   86400    349.98476   -115.35128   0.31667357    -115.0346    384.65508    4.3376964    4.3376964    4.3376964    384.65508   -4259.8403   -11356.292    16770.097   -7249.5404   -1794.8345   -7889.6607    81.616403 
   86500    734.48525   -115.69356   0.66457769   -115.02899   -386.51196    4.3486153    4.3486153    4.3486153   -386.51196    1635.6234    -17977.02    15181.861   -4223.8358     5871.612    5102.5789    82.234292 
   86600    722.87903   -115.68178   0.65407613   -115.02771     2377.723    4.3418954    4.3418954    4.3418954     2377.723   -3852.4446    -5962.271    16947.885    5013.7054   -132.29535   -1952.8664    81.853655 
   86700     238.3908   -115.24971   0.21570101   -115.03401   -250.21634     4.341065     4.341065     4.341065   -250.21634   -9190.6704   -7455.0818    15895.103   -2669.4409   -8860.2652   -4677.9904    81.806697 
   86800     438.9567   -115.42911   0.39717724   -115.03193   -10969.269     4.347484     4.347484     4.347484   -10969.269   -16407.218   -17836.229    1335.6397    -7331.877    8199.9676   -268.78438    82.170132 
   86900    766.23381   -115.71887   0.69330446   -115.02557    1394.8084    4.3411172    4.3411172    4.3411172    1394.8084     1325.606   -8530.1055    11388.925    1937.0905    4651.5599    232.66743    81.809651 
   87000     622.7473    -115.5919   0.56347485   -115.02843   -6091.6645     4.343741     4.343741     4.343741   -6091.6645   -8824.2432   -17346.571    7895.8206    1343.6008   -8397.4024   -3233.3724    81.958076 
   87100    314.32169   -115.31732   0.28440487   -115.03292   -3425.0822    4.3417124    4.3417124    4.3417124   -3425.0822   -13169.037   -1630.4035     4524.194   -6723.0049    3262.8855    -7146.836    81.843302 
   87200    502.44541   -115.48747   0.45462317   -115.03285   -6259.2154    4.3468572    4.3468572    4.3468572   -6259.2154   -16588.711    -1958.868   -230.06734   -1707.1195    12747.688    4046.5504    82.134593 
   87300    841.36469   -115.78723   0.76128445   -115.02595    5793.4522    4.3395201    4.3395201    4.3395201    5793.4522    3129.3882   -3396.9275    17647.896    1859.3773     3352.877   -1809.3626    81.719391 
   87400     557.7822    -115.5351   0.50469305   -115.03041    5397.7046    4.3433746    4.3433746    4.3433746    5397.7046   -7078.0728    7240.9586    16030.228   -6902.3614   -788.91778   -3715.9327    81.937339 
   87500    353.04786   -115.35342   0.31944512   -115.03398   -10115.072    4.3477956    4.3477956    4.3477956   -10115.072   -28830.246     9721.237   -11236.207   -4204.2525    14957.691    3298.2888      82.1878 
   87600    698.81709   -115.66272   0.63230439   -115.03042    9331.4872    4.3338831    4.3338831    4.3338831    9331.4872    3262.6935    14954.613    9777.1551    3133.1994    7084.7848   -579.71602    81.401345 
   87700    990.76895   -115.92351   0.89646857   -115.02704   -6432.4571    4.3505899    4.3505899    4.3505899   -6432.4571    -13709.46   -8710.0017    3122.0903   -3701.7885   -6444.5818    1539.9998    82.346368 
   87800     530.1182   -115.51336   0.47966209   -115.03369     2597.648    4.3413135    4.3413135    4.3413135     2597.648   -10773.146    18847.145   -281.05436   -6766.6559     10248.11   -6016.6819    81.820751 
   87900    513.89517   -115.49874   0.46498315   -115.03376    -873.0763    4.3377361    4.3377361    4.3377361    -873.0763   -16643.345    15801.021   -1776.9046   -101.60856    9169.5297    2678.2456    81.618647 
   88000    856.93108   -115.80345   0.77536925   -115.02808   -4678.2865    4.3512687    4.3512687    4.3512687   -4678.2865   -14024.257   -1210.7026    1200.1005    2968.2427   -6942.5589    4598.9995    82.384916 
   88100    922.98364    -115.8615   0.83513499   -115.02637    9767.1601    4.3360643    4.3360643    4.3360643    9767.1601    1879.8065      9872.74    17548.934   -6464.1937    7482.9254   -4540.7729    81.524314 
   88200    464.57751   -115.45375   0.42035949   -115.03339   -700.05551    4.3439584    4.3439584    4.3439584   -700.05551   -17458.152     15689.69   -331.70497   -5256.2689    14829.415    3376.0536    81.970386 
   88300    606.89192   -115.58075   0.54912856   -115.03162   -4976.0023    4.3463972    4.3463972    4.3463972   -4976.0023   -16320.855    7060.5643   -5667.7162    2854.1289   -3637.5109    1456.0735    82.108521 
   88400    883.46368   -115.82529   0.79937651   -115.02591    7331.8259    4.3392308    4.3392308    4.3392308    7331.8259    2818.4855    7366.8589    11810.133    -1312.469   -5910.2719    5227.5794    81.703049 
   88500    769.58104   -115.72456    0.6963331   -115.02823   -883.68806    4.3438498    4.3438498    4.3438498   -883.68806   -16771.524    5045.9731    9074.4867   -3676.9746    10534.298   -944.15158    81.964237 
   88600    472.18444   -115.45901    0.4272424   -115.03177   -1957.8726    4.3434711    4.3434711    4.3434711   -1957.8726   -14505.102    11413.696   -2782.2109   -2863.4758    3443.8638    1039.3451    81.942803 
   88700    618.24535   -115.58984   0.55940139   -115.03044   -3922.2787    4.3434261    4.3434261    4.3434261   -3922.2787   -15224.755    6367.7344   -2909.8158    969.48038   -14117.652    7023.1371    81.940256 
   88800    826.54149   -115.77483   0.74787211   -115.02696    3816.4913    4.3398264    4.3398264    4.3398264    3816.4913    -9153.528    939.59405    19663.408   -2708.1799    6427.6319   -4804.5334    81.736693 
   88900    635.31516   -115.60365   0.57484651   -115.02881   -4924.4186    4.3468643    4.3468643    4.3468643   -4924.4186   -16165.104    3655.0528   -2263.2045   -1205.3562    7953.3362    2243.6854    82.134995 
   89000    464.77521   -115.45146   0.42053838   -115.03092   -5027.9754    4.3413914    4.3413914    4.3413914   -5027.9754   -10619.635    3902.9817   -8367.2725    3004.4432   -15184.331    2945.2031    81.825156 
   89100    580.11744   -115.55482   0.52490245   -115.02992    5142.0655    4.3401956    4.3401956    4.3401956    5142.0655     18.55827    2585.3451    12822.293   -2400.5835   -3510.3125   -2717.4539    81.757557 
   89200    761.99498   -115.71518   0.68946907   -115.02571   -6688.0991    4.3492287    4.3492287    4.3492287   -6688.0991   -11382.877   -12989.317    4307.8965   -3020.7767    3470.0597   -667.71334    82.269099 
   89300    519.00065   -115.49794    0.4696027   -115.02834    7914.2756    4.3354552    4.3354552    4.3354552    7914.2756    415.18156    9284.2969    14043.348   -525.12584   -7995.2073    1304.2367     81.48996 
   89400    460.76625   -115.44825   0.41691098   -115.03134   -8254.8572    4.3460022    4.3460022    4.3460022   -8254.8572   -8979.8931   -15618.826   -165.85205    4377.0638   -9339.9124    3454.3739    82.086141 
   89500    528.25967    -115.5069   0.47798045   -115.02892    1044.3769    4.3449735    4.3449735    4.3449735    1044.3769    6321.4158   -12333.135    9144.8497   -2265.4086    2348.0783   -5849.0148    82.027864 
   89600    744.20192   -115.69883   0.67336954   -115.02546    3557.1615    4.3367487    4.3367487    4.3367487    3557.1615   -4042.9191   -3394.4595    18108.863    -4887.979    842.19041   -2586.4903    81.562923 
   89700    490.59128   -115.47209    0.4438973   -115.02819   -9827.3121    4.3497059    4.3497059    4.3497059   -9827.3121   -8531.6294   -18786.112   -2164.1951     1313.732   -11158.162    3041.9506    82.296179 
   89800    456.03676   -115.44158   0.41263165   -115.02895   -1677.6396    4.3391607    4.3391607    4.3391607   -1677.6396    12163.915    -20845.25    3648.4161    867.35333   -267.91191   -7631.5764    81.699086 
   89900    527.51727    -115.5064   0.47730871   -115.02909    3095.5126    4.3418615    4.3418615    4.3418615    3095.5126    1942.8817   -12225.765    19569.421   -4275.4386    788.65731   -3469.0064    81.851736 
   90000    701.88342   -115.66162   0.63507887   -115.02654   -2304.6792    4.3452167    4.3452167    4.3452167   -2304.6792    -5646.885   -17141.073     15873.92    -4484.997   -8939.1739    3620.4977     82.04164 
   90100    492.68294    -115.4745   0.44578987   -115.02871    1727.2903    4.3410635    4.3410635    4.3410635    1727.2903    12505.155   -18300.499    10977.214    2292.5532   -3276.4498   -3162.2378    81.806616 
   90200    413.13039   -115.40429   0.37380906   -115.03048   -4806.3876    4.3445934    4.3445934    4.3445934   -4806.3876    7991.5366   -29201.113    6790.4138   -2148.3565    1165.2428   -5269.9205    82.006335 
   90300    598.92732   -115.57006   0.54192203   -115.02814     5761.459    4.3401559    4.3401559    4.3401559     5761.459    4752.5922   -8049.8121    20581.597   -5572.0639   -3733.6133   -892.24095    81.755314 
   90400    757.95591   -115.71241   0.68581443    -115.0266   -3663.4106    4.3453647    4.3453647    4.3453647   -3663.4106   -360.24117    -14162.13     3532.139    485.25431   -7292.8631   -1095.4631     82.05002 
   90500     547.7161    -115.5251   0.49558504   -115.02951   -617.21477    4.3413466    4.3413466    4.3413466   -617.21477    17319.716   -26241.951    7070.5904   -3035.9341    1713.3421   -8175.1216    81.822618 
   90600    478.52092   -115.46424   0.43297578   -115.03127   -787.64125    4.3428767    4.3428767    4.3428767   -787.64125     7198.561   -20266.423    10704.938   -3545.7815    2605.3796   -731.76875    81.909167 
   90700    755.30731   -115.71126   0.68341792   -115.02784   -2576.9939    4.3452405    4.3452405    4.3452405   -2576.9939   -1674.6536   -9551.9209    3495.5927    1394.4396   -8072.9281     6761.495    82.042987 
   90800    799.08451   -115.74921   0.72302846   -115.02618    6527.1255    4.3382547    4.3382547    4.3382547    6527.1255     14358.44   -6503.8485    11726.785    1496.0214   -3692.6459   -7742.0186    81.647922 
   90900    642.26727   -115.61108   0.58113692   -115.02994   -8694.3368    4.3469263    4.3469263    4.3469263   -8694.3368     11771.55   -29225.329   -8629.2306   -6085.1058    2636.8702   -2750.7286     82.13851 
   91000    531.20567   -115.51169   0.48064606   -115.03105    5232.5205    4.3408212    4.3408212    4.3408212    5232.5205    19947.307   -10866.027    6616.2814   -4645.6664   -4408.6868    6746.9585    81.792918 
   91100    883.03878   -115.82659   0.79899204   -115.02759    835.85931    4.3419643    4.3419643    4.3419643    835.85931    4934.9055   -6445.0478    4017.7202    7670.1593   -6713.2807   -1874.9299    81.857553 
   91200    807.14756   -115.75772   0.73032407    -115.0274    1691.2753    4.3452365    4.3452365    4.3452365    1691.2753    21529.577   -9289.5069   -7166.2446   -393.59572    260.50317   -3086.2082    82.042759 
   91300    670.10339   -115.63663   0.60632363   -115.03031   -1482.1267    4.3392849    4.3392849    4.3392849   -1482.1267     17757.22   -19544.974   -2658.6265   -8230.6261    3580.1527    3530.5091    81.706102 
   91400    575.52196   -115.55257   0.52074437   -115.03183   -2904.9446    4.3447233    4.3447233    4.3447233   -2904.9446   -5889.3858   -13659.403    10833.955    3498.2184   -4122.9424    4120.2272    82.013693 
   91500    910.29055   -115.85027   0.82365002   -115.02662   -506.70067    4.3428581    4.3428581    4.3428581   -506.70067    3004.7911   -6617.5398    2092.6467    6717.5497   -2682.0892   -3512.8784    81.908114 
   91600    799.01147   -115.75003   0.72296237   -115.02707    1082.5259     4.342589     4.342589     4.342589    1082.5259    14393.914   -7685.3609   -3460.9756   -5544.3487    630.40291    3501.6614    81.892889 
   91700    505.62708   -115.48943   0.45750201   -115.03193   -2454.7079     4.341754     4.341754     4.341754   -2454.7079     1238.864   -23554.451    14951.463    2073.7151   -4169.8519    6670.8566    81.845659 
   91800     532.9205    -115.5143   0.48219767    -115.0321    48.561769    4.3440942    4.3440942    4.3440942    48.561769    4792.1483   -15915.874    11269.411    9129.4614   -6111.0762   -2259.4411    81.978071 
   91900    873.35722   -115.81697   0.79023196   -115.02674    3246.3849     4.342108     4.342108     4.342108    3246.3849    15071.678   -5577.7205    245.19676    887.14081   -3522.2951     2238.835    81.865676 
   92000     656.9125   -115.62492   0.59438823   -115.03053    4186.0778    4.3421089    4.3421089    4.3421089    4186.0778    9914.6644   -8418.0192    11061.588   -540.18084     3743.963    4633.6224     81.86573 
   92100    382.14957   -115.37748   0.34577696    -115.0317   -9628.5275     4.347396     4.347396     4.347396   -9628.5275   -2690.0495   -32520.216    6324.6825    11087.044   -6615.6691    2129.0458    82.165141 
   92200    642.34027   -115.60911   0.58120297   -115.02791    3563.2464    4.3368524    4.3368524    4.3368524    3563.2464    8016.6933   -10032.924    12705.969    5212.6696   -4653.6538   -2329.8573    81.568771 
   92300    799.74538   -115.75061   0.72362643   -115.02698    262.20421    4.3458717    4.3458717    4.3458717    262.20421    13003.098   -8813.6533   -3402.8316   -5756.7235    7740.7422    1118.5632    82.078746 
   92400    438.68939   -115.42789   0.39693538   -115.03096   -1989.9585    4.3451661    4.3451661    4.3451661   -1989.9585    14873.062   -21999.213    1156.2759    11393.939   -3437.9693    3899.0825    82.038769 
   92500     379.3203   -115.37441   0.34321698   -115.03119    1585.7574    4.3361317    4.3361317    4.3361317    1585.7574    7824.6063   -21728.439    18661.105    9577.3636   -6449.9763   -2416.5786    81.528116 
   92600    715.85476   -115.67443   0.64772043   -115.02671   -8821.6305    4.3493032    4.3493032    4.3493032   -8821.6305    654.90818   -21729.709   -5390.0907   -4381.0273   -698.18419    2581.4388    82.273327 
   92700    656.87382   -115.62035   0.59435323   -115.02599    550.31309    4.3430796    4.3430796    4.3430796    550.31309    7060.6951   -11860.751    6450.9947    6725.4764    4466.5762    2588.9345    81.920647 
   92800    459.13897   -115.44487   0.41543858   -115.02943    1940.7437    4.3363606    4.3363606    4.3363606    1940.7437    1257.5977   -18227.396    22792.029    8576.3131   -4593.3814   -63.254828    81.541028 
   92900    485.65714    -115.4695   0.43943278   -115.03007   -7114.3452    4.3489255    4.3489255    4.3489255   -7114.3452   -113.39605   -25011.653    3782.0133   -1754.3891   -2892.7461   -1215.0818    82.251892 
   93000    702.41977   -115.66251   0.63556417   -115.02695     -205.601    4.3428589    4.3428589    4.3428589     -205.601    10086.474   -9551.2035   -1152.0737   -3887.7305     17417.26    1191.8892    81.908158 
   93100    611.72977   -115.58108   0.55350595   -115.02758    11443.829    4.3379026    4.3379026    4.3379026    11443.829    13889.154   -4050.4744    24492.808    6787.6279    1002.4697    3776.7817    81.628045 
   93200    547.03779   -115.52294   0.49497129   -115.02797   -9957.2546    4.3496756    4.3496756    4.3496756   -9957.2546   -1922.9737   -23800.529   -4148.2617    3760.5485   -9184.8742   -3203.0661    82.294463 
   93300    543.05286   -115.51894   0.49136564   -115.02757   -2844.9472    4.3394734    4.3394734    4.3394734   -2844.9472   -471.61353    1895.7909   -9959.0188   -6290.6689    4888.0216   -1004.7797    81.716752 
   93400    713.55217   -115.67343     0.645637    -115.0278    1092.9297    4.3416604    4.3416604    4.3416604    1092.9297     4822.408   -403.22827   -1140.3905    4876.8839    10613.101     216.3807    81.840365 
   93500    682.70323   -115.64428   0.61772423   -115.02656   -302.43013    4.3468821    4.3468821    4.3468821   -302.43013     11606.41   -11843.839   -669.86156    4361.8231   -3614.1344   -928.20376    82.136005 
   93600    413.84057    -115.4039   0.37445164   -115.02945    -1569.843    4.3394618    4.3394618    4.3394618    -1569.843    6463.3396    623.01871   -11795.887   -5679.1373   -183.46276   -1749.9892    81.716095 
   93700    444.44424   -115.43257   0.40214249   -115.03043    -6441.226    4.3458676    4.3458676    4.3458676    -6441.226    2851.1696    1753.6558   -23928.504   -1771.6198    20633.388     379.1356    82.078513 
   93800    723.14061   -115.67977   0.65431282   -115.02546    8238.7017    4.3427326    4.3427326    4.3427326    8238.7017    22226.098   -3685.5125    6175.5191    1878.3689    3463.1783    1796.1428    81.901011 
   93900    631.44993   -115.59931   0.57134917   -115.02796   -2184.6981    4.3413589    4.3413589    4.3413589   -2184.6981     6330.109   -2707.6129    -10176.59   -1479.2713   -3101.2192   -3727.3748    81.823316 
   94000    271.34527   -115.27831    0.2455189   -115.03279   -11229.989     4.343992     4.343992     4.343992   -11229.989    -5757.944    6529.0363   -34461.059   -7031.1554    14363.013     633.9683    81.972285 
   94100    576.75476   -115.55254   0.52185983   -115.03068   -2509.8746    4.3455024    4.3455024    4.3455024   -2509.8746    9395.9152     1111.662   -18037.201   -953.18657    2396.2276    3773.9327     82.05782 
   94200     812.1724    -115.7599   0.73487066   -115.02502    9473.2398    4.3400088    4.3400088    4.3400088    9473.2398    21903.697   -1183.2844    7699.3068    1931.1821   -2432.8559    1954.6676    81.747004 
   94300    432.79802   -115.42224   0.39160474   -115.03064   -1769.4103    4.3424715    4.3424715    4.3424715   -1769.4103    9174.2035    5925.7184   -20408.153   -6442.6517    11838.285   -2641.8969    81.886242 
   94400     276.3028   -115.28308   0.25000458   -115.03307   -10809.355    4.3492668    4.3492668    4.3492668   -10809.355   -5630.8834    1948.3077    -28745.49   -1481.9899    9875.4186     2025.597    82.271259 
   94500    707.19468    -115.6663   0.63988461   -115.02641    14979.159    4.3354189    4.3354189    4.3354189    14979.159    21990.105    4778.8872    18168.484    4102.0824    -2456.976    5328.9797    81.487915 
   94600    751.06017     -115.706   0.67957503   -115.02642   -2276.5046    4.3460294    4.3460294    4.3460294   -2276.5046    1116.6712   -3744.7083   -4201.4767   -201.97372    3481.5549    -1649.456     82.08768 
   94700     409.3192   -115.40176   0.37036062    -115.0314   -9895.4023    4.3449983    4.3449983    4.3449983   -9895.4023   -13240.716    7166.1359   -23611.626   -3773.7223    14524.565   -884.23029    82.029269 
   94800    555.25384   -115.53356   0.50240535   -115.03115    2629.3259    4.3374907    4.3374907    4.3374907    2629.3259    8233.5127    3248.5531   -3594.0882    188.68837   -5830.6758     4533.133    81.604794 
   94900    757.14384   -115.71134   0.68507966   -115.02627   -1671.8056    4.3497688    4.3497688    4.3497688   -1671.8056     256.6357   -14462.793    9190.7402    6475.2796   -1318.1523    4734.3097    82.299752 
   95000    681.99358   -115.64335   0.61708212   -115.02627    2013.5411    4.3397522    4.3397522    4.3397522    2013.5411    4464.3635    6166.1857    -4589.926   -2412.8785    21118.192   -1275.5955      81.7325 
   95100    470.98461   -115.45629   0.42615678   -115.03014   -2338.2993    4.3425631    4.3425631    4.3425631   -2338.2993    860.70342   -2059.6596   -5815.9417    -2701.572    3900.0969    4254.5766     81.89142 
   95200    625.07321    -115.5948   0.56557938   -115.02922   -2314.0163    4.3446512    4.3446512    4.3446512   -2314.0163     2215.729   -15712.236     6554.458    9920.6767   -9169.5172     6858.354    82.009613 
   95300    821.20407   -115.76934    0.7430427   -115.02629    2830.7671    4.3408995    4.3408995    4.3408995    2830.7671    2038.4125   -1691.9937    8145.8825    2817.7433    6946.5965   -70.535095     81.79734 
   95400    759.11685   -115.71394   0.68686488   -115.02708   -6658.5062    4.3462517    4.3462517    4.3462517   -6658.5062     -6978.04   -3431.7722   -9565.7063   -3319.9493    9281.7724    224.53953    82.100278 
   95500    578.22686   -115.55214   0.52319182   -115.02894   -1151.5836    4.3411424    4.3411424    4.3411424   -1151.5836    7203.3986     -9838.58   -819.56933    6532.2892   -13043.651    6058.8396    81.811072 
   95600    707.11754   -115.66842   0.63981481   -115.02861   -1451.8374    4.3447597    4.3447597    4.3447597   -1451.8374    262.77611   -13425.926    8807.6379    7833.0363   -4426.7207    2353.3222    82.015755 
   95700    932.07445   -115.86877   0.84336055   -115.02541    5321.7812    4.3414867    4.3414867    4.3414867    5321.7812    10463.131   -3292.9932    8795.2055    465.53488    14601.792   -4030.3613    81.830543 
   95800    622.71577   -115.59418   0.56344632   -115.03073    4044.3547    4.3431463    4.3431463    4.3431463    4044.3547    9820.7526   -7325.3432    9637.6545    663.62121   -1872.3456    3143.6007    81.924422 
   95900    519.72356    -115.5028    0.4702568   -115.03255   -6822.0428    4.3457309    4.3457309    4.3457309   -6822.0428   -9165.1237   -22182.154    10881.149    13757.895   -7987.4546    7060.2453    82.070768 
   96000    878.83843   -115.82176   0.79519148   -115.02657    7448.0532    4.3394698    4.3394698    4.3394698    7448.0532    11064.143    -4579.214    15859.231    1163.1848    578.02181    257.82322    81.716545 
   96100    934.00553   -115.87143   0.84510783   -115.02633   -4363.5616    4.3472804    4.3472804    4.3472804   -4363.5616    2651.1685    -10229.02    -5512.833    -4181.802   -888.49176   -3917.5455    82.158587 
   96200    482.63954   -115.46917    0.4367024   -115.03247    1872.5997    4.3392924    4.3392924    4.3392924    1872.5997      5223.47   -7729.9934    8124.3224    13272.771   -9367.3386    6839.1796    81.706529 
   96300    654.87488   -115.62515   0.59254456   -115.03261   -3499.8067    4.3448186    4.3448186    4.3448186   -3499.8067    10853.737    -19180.08   -2173.0762    3176.4257    -4502.517    5565.5817    82.019092 
   96400     962.1595   -115.89576   0.87058214   -115.02518    3091.6872    4.3446715    4.3446715    4.3446715    3091.6872    20155.321   -5722.6142   -5157.6453   -2539.6135    5514.7505   -7463.7747    82.010761 
   96500    634.98863   -115.60375   0.57455106    -115.0292    5948.8608     4.339436     4.339436     4.339436    5948.8608    18608.074   -5356.5116    4595.0201    7400.0573    -5171.613   -1585.3757    81.714636 
   96600    442.84352   -115.43286   0.40069413   -115.03217   -10275.399    4.3477011    4.3477011    4.3477011   -10275.399    -9778.439   -17973.797   -3073.9599    11151.549   -8822.5771    8210.7962    82.182439 
   96700    739.51681   -115.69722   0.66913035   -115.02809    7032.4363    4.3372064    4.3372064    4.3372064    7032.4363    18401.816   -5264.4451    7959.9383   -1772.6292      816.588   -1786.7181     81.58875 
   96800    799.15695   -115.75083     0.723094   -115.02773   -4761.8526    4.3464008    4.3464008    4.3464008   -4761.8526     8527.058   -15411.197   -7401.4189   -2963.1906   -960.14489   -9668.1664    82.108724 
   96900    469.29764   -115.45557   0.42463037   -115.03094   -3135.3176    4.3433448    4.3433448    4.3433448   -3135.3176   -622.24721   -7737.3481   -1046.3574    11456.356   -15616.254     4196.458    81.935653 
   97000    522.85329    -115.5023   0.47308865   -115.02921    1829.2816    4.3399005    4.3399005    4.3399005    1829.2816    10667.289   -6473.9496    1294.5055   -1714.3398    -4177.231     3925.317    81.740884 
   97100    691.90236   -115.65199   0.62604779   -115.02594   -5102.9549    4.3466033    4.3466033    4.3466033   -5102.9549    16856.522   -15217.863   -16947.523   -6471.0925    5704.5215   -10714.214    82.120205 
   97200    651.75822   -115.61667   0.58972454   -115.02694    1639.7331    4.3376269    4.3376269    4.3376269    1639.7331    5915.7407    6327.5521   -7324.0935    6522.1041   -4822.1792   -2402.7246    81.612481 
   97300    501.57194   -115.48336   0.45383283   -115.02953   -4635.0101    4.3464351    4.3464351    4.3464351   -4635.0101   -7826.0163   -6339.7332    260.71929    7915.8487   -8470.1654    8569.3893     82.11067 
   97400    543.01207   -115.51892   0.49132873   -115.02759    2287.1825    4.3423845    4.3423845    4.3423845    2287.1825    12703.242   -8041.0814    2199.3869    -4328.457    4727.8688   -5538.3761    81.881321 
   97500    615.43128   -115.58287   0.55685516   -115.02602     1652.947    4.3415565    4.3415565    4.3415565     1652.947    6817.1967    922.93824   -2781.2941   -3202.3318    3491.8986   -9908.8366    81.834489 
   97600    614.34765   -115.58247   0.55587467    -115.0266   -1785.0617    4.3439674    4.3439674    4.3439674   -1785.0617    -5557.173    -1046.386    1248.3738    7459.5855   -13878.776     3098.243    81.970896 
   97700    469.54695   -115.45408   0.42485595   -115.02922     5926.043    4.3409175    4.3409175    4.3409175     5926.043    5732.0694   -2656.0011    14702.061    1559.7756   -1312.6898    1690.1323     81.79836 
   97800    459.21878   -115.44535    0.4155108   -115.02984   -3963.2352    4.3443179    4.3443179    4.3443179   -3963.2352    8695.5101   -9361.6989   -11223.517   -9879.8726    7304.8701   -12117.775    81.990739 
   97900    594.89617    -115.5653   0.53827456   -115.02702   -157.48747    4.3406209    4.3406209    4.3406209   -157.48747    -3468.307    3993.4846   -997.63996   -3521.7447   -6485.3684   -4024.5544    81.781592 
   98000    605.96268    -115.5747   0.54828777   -115.02641   -7632.2765    4.3468614    4.3468614    4.3468614   -7632.2765   -19610.153   -1785.1032   -1501.5737    7389.7176   -5637.7037    5988.4384    82.134836 
   98100    392.27139   -115.38427    0.3549354   -115.02933    547.28306    4.3382311    4.3382311    4.3382311    547.28306   -576.56173    -6419.869    8638.2799   -4456.2908    4028.0326   -10556.225    81.646589 
   98200    418.92535   -115.40965   0.37905246    -115.0306   -5290.4401    4.3437308    4.3437308    4.3437308   -5290.4401   -6145.1624    -10141.97    415.81151    -8298.191    1894.1324   -8237.5953      81.9575 
   98300    643.64239   -115.60964   0.58238116   -115.02725   -7744.5866     4.345911     4.345911     4.345911   -7744.5866   -23303.982    3923.2776   -3853.0559    2823.9312   -16076.761    1427.5379    82.080971 
   98400    534.33323   -115.51108   0.48347593    -115.0276    9165.9316    4.3350835    4.3350835    4.3350835    9165.9316     1076.673    2438.4389    23982.683    2713.6603   -673.93817   -2603.8401       81.469 
   98500    332.55467   -115.33119   0.30090245   -115.03028   -15196.602     4.351278     4.351278     4.351278   -15196.602   -10793.613   -28252.787    -6543.406    -9174.202    5566.3829   -11864.078    82.385444 
   98600    481.72247   -115.46471   0.43587262   -115.02884     1803.713    4.3360992    4.3360992    4.3360992     1803.713   -3490.5173    7502.7493    1398.9069     -6256.33   -9240.1307   -1511.7009    81.526282 
   98700    660.73779   -115.62562   0.59784944   -115.02777    3420.5269     4.342127     4.342127     4.342127    3420.5269   -3035.4129    8852.9651    4444.0284    4722.9449   -5494.3486    4740.9678    81.866751 
   98800    470.70068   -115.45531   0.42589987   -115.02941   -7958.0753    4.3483078    4.3483078    4.3483078   -7958.0753   -12083.781   -22996.084    11205.639   -6329.7591    4746.0412   -10536.822    82.216848 
   98900    327.43022   -115.32535   0.29626575   -115.02909    5331.6216    4.3331828    4.3331828    4.3331828    5331.6216    1783.9486    4620.1201    9590.7961   -9312.4689    1464.3107   -4277.5698     81.36189 
   99000    577.17199   -115.54962   0.52223734   -115.02738   -11037.276    4.3507398    4.3507398    4.3507398   -11037.276   -15750.988   -3931.1747   -13429.665    2223.8192   -13570.574    3343.1806    82.354879 
   99100    646.04048   -115.61005   0.58455101   -115.02549    8862.9154    4.3382442    4.3382442    4.3382442    8862.9154   -2392.7471    7520.2068    21461.286    1551.4467   -430.00323    1140.5872    81.647329 
   99200    481.46868   -115.46399   0.43564298   -115.02835    -1560.621    4.3401505    4.3401505    4.3401505    -1560.621   -4400.7509   -8788.7658    8507.6537   -7257.0769    4436.8502   -5335.2341    81.755008 
   99300    422.07686   -115.41189   0.38190401   -115.02999   -12507.144    4.3473967    4.3473967    4.3473967   -12507.144   -5340.5864    -15673.32   -16507.527   -2223.5699   -9228.1767    184.55284    82.165183 
   99400    573.08743   -115.54619   0.51854155   -115.02765    9191.0519    4.3378313    4.3378313    4.3378313    9191.0519    8059.1377    12610.002    6904.0165    6539.6503   -5508.2634     10092.79    81.624019 
   99500    690.34985   -115.65024   0.62464305   -115.02559   -1505.4588    4.3459709    4.3459709    4.3459709   -1505.4588   -910.92376   -15892.663    12287.211   -6806.7792    1132.0846   -7297.5527    82.084363 
   99600    493.59138    -115.4746   0.44661185   -115.02799    2560.4063    4.3391158    4.3391158    4.3391158    2560.4063    9463.0501   -8409.7433    6627.9121   -8908.1575   -1129.3221     -3326.08    81.696548 
   99700    426.73762   -115.41748   0.38612117   -115.03136    -7200.784     4.344691     4.344691     4.344691    -7200.784    1422.9491   -7512.0415    -15513.26    3093.9062   -11180.909     8124.344    82.011862 
   99800    643.87504   -115.61132   0.58259167   -115.02873    4688.2126    4.3415392    4.3415392    4.3415392    4688.2126    6812.4948    398.89828    6853.2446     1611.969    891.44136    4539.1634    81.833509 
   99900    804.71582   -115.75425   0.72812379   -115.02613    4372.6713    4.3395815    4.3395815    4.3395815    4372.6713    3728.2075   -7717.0167    17106.823   -6344.4872    3017.8657    98.571651    81.722857 
  100000    510.60571   -115.49244   0.46200677   -115.03044    -13404.24    4.3485293    4.3485293    4.3485293    -13404.24   -6960.2322   -14112.247   -19140.241   -2836.2978   -12028.543    6112.6058    82.229415 
Loop time of 21.4114 on 1 procs for 100000 steps with 8 atoms

Pair  time (%) = 6.54248 (30.5561)
Kspce time (%) = 5.24989 (24.5191)
Neigh time (%) = 0 (0)
Comm  time (%) = 1.04686 (4.88926)
Outpt time (%) = 0.0193775 (0.0905007)
Other time (%) = 8.55279 (39.945)

Nlocal:    8 ave 8 max 8 min
Histogram: 1 0 0 0 0 0 0 0 0 0
Nghost:    2189 ave 2189 max 2189 min
Histogram: 1 0 0 0 0 0 0 0 0 0
Neighs:    2056 ave 2056 max 2056 min
Histogram: 1 0 0 0 0 0 0 0 0 0

Total # of neighbors = 2056
Ave neighs/atom = 257
Neighbor list builds = 0
Dangerous builds = 0
unfix 20
unfix 21
print "seeds:5911418"
seeds:5911418
