LAMMPS (10 Feb 2015)
# ---- initialize simulations
clear
units metal
dimension 3
boundary p p p
atom_style charge
atom_modify map array
# ---- create atoms
read_data /Users/eugeneragasa/pyflamestk_git/pypospack/tests/tests_integration/workflow/WorkflowLammpsThermalExpansion/MgO_NaCl_unit.npt.T800/lammps.structure
  triclinic box = (0 0 0) to (4.2565 4.2565 4.2565) with tilt (0 0 0)
  1 by 1 by 1 MPI processor grid
  reading atoms ...
  8 atoms
# ---- define interatomic potential
include potential.mod
mass 1 24.305
mass 2 15.999

group Mg type 1
4 atoms in group Mg
group O type 2
4 atoms in group O

set group Mg charge 2.0
  4 settings made for charge
set group O charge -2.0
  4 settings made for charge

variable R_cut equal 10.0

pair_style buck/coul/long ${R_cut}
pair_style buck/coul/long 10
pair_coeff 1 1 0.0 0.5 0.0 ${R_cut}
pair_coeff 1 1 0.0 0.5 0.0 10
pair_coeff 1 2 1279.69 0.29969 0.0 ${R_cut}
pair_coeff 1 2 1279.69 0.29969 0.0 10
pair_coeff 2 2 9547.96 0.21916 32.0 ${R_cut}
pair_coeff 2 2 9547.96 0.21916 32.0 10

kspace_style pppm 1.0e-5

neighbor 1.0 bin
neigh_modify every 1 delay 0 check yes
# ---- define settings
compute eng all pe/atom
compute eatoms all reduce sum c_eng
# ---- run minimization
reset_timestep 0
fix 1 all box/relax iso 0.0 vmax 0.001
thermo 10
thermo_style custom step pe lx ly lz xy xz yz press pxx pyy pzz pxy pxz pyz c_eatoms
min_style cg
minimize 1e-25 1e-25 5000 10000
PPPM initialization ...
  G vector (1/distance) = 0.354854
  grid = 8 8 8
  stencil order = 5
  estimated absolute RMS force accuracy = 5.34408e-05
  estimated relative force accuracy = 3.71126e-06
  using double precision FFTs
  3d grid and FFT values/proc = 3375 512
Neighbor list info ...
  1 neighbor list requests
  update every 1 steps, delay 0 steps, check yes
  master list distance cutoff = 11
Memory usage per processor = 4.06549 Mbytes
Step PotEng Lx Ly Lz Xy Xz Yz Press Pxx Pyy Pzz Pxy Pxz Pyz eatoms 
       0    -164.6599       4.2565       4.2565       4.2565            0            0            0   -75586.685   -75586.685   -75586.685   -75586.685 9.4798587e-11 1.6226154e-10 -3.4446142e-11    -164.6599 
      10   -164.72135     4.213935     4.213935     4.213935            0            0            0   -8637.4527   -8637.4527   -8637.4527   -8637.4527 -1.5549588e-10 2.0227431e-10 -1.1495762e-10   -164.72135 
      15   -164.72214      4.20883      4.20883      4.20883            0            0            0    5.5876567    5.5876567    5.5876567    5.5876567 2.0554645e-10 4.244052e-10 1.3955449e-10   -164.72214 
Loop time of 0.0696521 on 1 procs for 15 steps with 8 atoms

Minimization stats:
  Stopping criterion = linesearch alpha is zero
  Energy initial, next-to-last, final = 
        -164.659901251     -164.722138416     -164.722138416
  Force two-norm initial, final = 10.9148 0.000791362
  Force max component initial, final = 10.9148 0.000788889
  Final line search alpha, max atom move = 0.015625 1.23264e-05
  Iterations, force evaluations = 15 55

Pair  time (%) = 0.0201964 (28.9962)
Kspce time (%) = 0.00984359 (14.1325)
Neigh time (%) = 0 (0)
Comm  time (%) = 0.00318408 (4.57141)
Outpt time (%) = 3.40939e-05 (0.0489488)
Other time (%) = 0.0363939 (52.251)

Nlocal:    8 ave 8 max 8 min
Histogram: 1 0 0 0 0 0 0 0 0 0
Nghost:    2189 ave 2189 max 2189 min
Histogram: 1 0 0 0 0 0 0 0 0 0
Neighs:    2344 ave 2344 max 2344 min
Histogram: 1 0 0 0 0 0 0 0 0 0

Total # of neighbors = 2344
Ave neighs/atom = 293
Neighbor list builds = 0
Dangerous builds = 0
unfix 1
# ---- define output variables ----
variable natoms equal "count(all)"
variable tot_energy equal "c_eatoms"
variable length_x equal "lx"
variable length_y equal "ly"
variable length_z equal "lz"
variable tilt_xy equal "xy"
variable tilt_xz equal "xz"
variable tilt_yz equal "yz"
variable tot_press equal "press"
variable press_xx equal "pxx"
variable press_yy equal "pyy"
variable press_zz equal "pzz"
variable press_xy equal "pxy"
variable press_xz equal "pxz"
variable press_yz equal "pyz"

# ---- output ----
print "pypospack:output_section:begin"
pypospack:output_section:begin
print "tot_energy = ${tot_energy}"
tot_energy = -164.722138415744
print "num_atoms = ${natoms}"
num_atoms = 8
print "xx = ${length_x}"
xx = 4.20883001371435
print "yy = ${length_y}"
yy = 4.20883001371435
print "zz = ${length_z}"
zz = 4.20883001371435
print "xy = ${tilt_xy}"
xy = 0
print "xz = ${tilt_xz}"
xz = 0
print "yz = ${tilt_yz}"
yz = 0
print "tot_press = ${tot_press}"
tot_press = 5.58765665687492
print "pxx = ${press_xx}"
pxx = 5.58765665651822
print "pyy = ${press_yy}"
pyy = 5.58765665647238
print "pzz = ${press_zz}"
pzz = 5.58765665763416
print "pxy = ${press_xy}"
pxy = 2.0554645346851e-10
print "pxz = ${press_xz}"
pxz = 4.24405202668874e-10
print "pyz = ${press_yz}"
pyz = 1.39554488680613e-10
print "pypospack:output_section:done"
pypospack:output_section:done
print "pypospack:lammps_sim:done"
pypospack:lammps_sim:done
#------------------------------------------------------------------------------
# RUN THERMOSTAT
# running using an NPT Nose-Hoover style thermostat
#------------------------------------------------------------------------------
variable tempdamp equal 0.1
variable pressdamp equal 1.0
# set initial velocities
velocity all create 800 9454282 mom yes dist gaussian loop all
# fix for Nose-Hoover style thermostat
fix 20 all npt temp 800 800 0.1 aniso 0.0 0.0 1.0 drag 1.0 couple xyz
variable boxx equal lx
variable boxy equal ly
variable boxz equal lz
variable boxp equal press
variable boxt equal temp
# calculate averages every 10000 steps
reset_timestep 0
fix 21 all ave/time 10 10 100 v_boxx v_boxy v_boxz v_boxp v_boxt file lattice.out
thermo_style custom step temp pe ke etotal press lx ly lz press pxx pyy pzz pxy pxz pyz vol
thermo_modify flush yes
thermo 100
run 100000
PPPM initialization ...
  G vector (1/distance) = 0.355405
  grid = 8 8 8
  stencil order = 5
  estimated absolute RMS force accuracy = 5.20839e-05
  estimated relative force accuracy = 3.61703e-06
  using double precision FFTs
  3d grid and FFT values/proc = 3375 512
Memory usage per processor = 3.06549 Mbytes
Step Temp PotEng KinEng TotEng Press Lx Ly Lz Press Pxx Pyy Pzz Pxy Pxz Pyz Volume 
       0          800   -164.72213   0.72385681   -163.99828    10376.699      4.20883      4.20883      4.20883    10376.699    6506.6718    12445.546    12177.878   -4286.1142   -4337.9075    4334.2841    74.556267 
     100    551.50048   -164.39313   0.49900922   -163.89412   -14356.489    4.2383512    4.2383512    4.2383512   -14356.489   -20223.308   -9015.1485   -13831.011    3150.6115    4262.6349    -2957.081    76.136133 
     200    308.85742   -163.98664   0.27946068   -163.70718    18253.968    4.2280433    4.2280433    4.2280433    18253.968    16564.918    36599.696    1597.2902    9978.4244    885.56861    4251.9351    75.581984 
     300    681.61737   -164.15147   0.61674172   -163.53473    10593.942    4.2336196    4.2336196    4.2336196    10593.942   -538.90635    20839.507    11481.224   -1791.8908   -6347.8736    14326.488    75.881427 
     400    865.79341   -164.17713   0.78338807   -163.39375   -44933.951    4.2516928    4.2516928    4.2516928   -44933.951   -46710.039   -35046.282   -53045.532   -4272.0941   -8483.7454    39.079624    76.857388 
     500    536.07179   -163.78682   0.48504902   -163.30177    35781.914    4.2216661    4.2216661    4.2216661    35781.914    65853.939    34106.154    7385.6486    11119.162   -3174.5515   -3633.6098    75.240494 
     600    485.43324   -163.71832    0.4392302   -163.27909   -11749.163    4.2590334    4.2590334    4.2590334   -11749.163   -7309.8469   -6094.2909   -21843.351    1842.6676    -4887.119    4446.3467    77.256165 
     700    824.14117   -164.00706   0.74570025   -163.26136   -29131.626    4.2389627    4.2389627    4.2389627   -29131.626   -30746.092   -36226.387   -20422.398    1334.9484   -18574.201    6568.0631    76.169092 
     800    831.08866    -164.0082   0.75198648   -163.25622    23436.491    4.2239017    4.2239017    4.2239017    23436.491    42807.425    8030.7647    19471.284   -1761.1693   -539.49282   -2867.3253     75.36009 
     900    475.26371   -163.68366   0.43002859   -163.25363   -32020.748    4.2697532    4.2697532    4.2697532   -32020.748   -19349.929   -29607.431   -47104.883     5680.477   -435.32925   -10916.571    77.840985 
    1000      755.183   -163.93014   0.68330545   -163.24683    34025.479    4.2142317    4.2142317    4.2142317    34025.479    37180.675    5002.3391    59893.423     10630.73    6493.3585   -4150.9201    74.843698 
    1100    1068.5809   -164.23506   0.96687447   -163.26819   -3781.2964    4.2389177    4.2389177    4.2389177   -3781.2964    27636.261   -32697.443   -6282.7079     4606.591    214.78883   -3317.8755    76.166665 
    1200    832.74731   -164.00992   0.75348726   -163.25643    -19110.27    4.2583553    4.2583553    4.2583553    -19110.27   -18480.757   -18142.589   -20707.462    1446.1973    14862.379   -14206.036     77.21927 
    1300    662.56658   -163.83997   0.59950416   -163.24046    51408.148    4.2159774    4.2159774    4.2159774    51408.148    21582.524    55679.169    76962.749    17397.127    11328.743   -3980.8084    74.936745 
    1400    922.39167   -164.08867   0.83459937   -163.25407   -26937.408    4.2538003    4.2538003    4.2538003   -26937.408   -29718.639   -28638.356   -22455.231    6520.8967   -4997.2329   -4476.0843    76.971735 
    1500    998.24584   -164.16028   0.90323381   -163.25705   -8426.3707    4.2363063    4.2363063    4.2363063   -8426.3707   -13920.499   -5503.1328   -5855.4805   -764.18621   -3525.3336    1224.6768    76.025986 
    1600     585.1692   -163.79168   0.52947339   -163.26221    23028.479    4.2265501    4.2265501    4.2265501    23028.479    8347.2642    24805.008    35933.165    8139.0958   -3325.5164    2513.3259    75.501932 
    1700    394.84535   -163.62163   0.35726437   -163.26437   -10565.159    4.2516232    4.2516232    4.2516232   -10565.159   -33933.092    10154.004   -7916.3888    6117.6616   -6617.7976   -4104.2576    76.853616 
    1800    703.60723   -163.89774   0.63663861   -163.26111    9771.9961    4.2323752    4.2323752    4.2323752    9771.9961   -12038.371    47043.129   -5688.7701    3623.2534   -20701.172    11450.355    75.814534 
    1900    711.78711   -163.90758   0.64403994   -163.26354   -21734.411    4.2410682    4.2410682    4.2410682   -21734.411   -48428.611   -13724.027   -3050.5939   -3668.0907   -15148.871     10810.48    76.282647 
    2000    566.06775   -163.77637   0.51218999   -163.26418    3316.7919    4.2364345    4.2364345    4.2364345    3316.7919   -3670.8236   -4332.8893    17954.089    5274.8639    -12543.11    1734.6962    76.032887 
    2100    667.96969   -163.87086   0.60439301   -163.26647    3585.8769    4.2366206    4.2366206    4.2366206    3585.8769    -1680.312    38879.671   -26441.729    12318.932   -12443.249   -3655.0267    76.042907 
    2200    923.07585    -164.0979   0.83521843   -163.26268   -14804.087    4.2433912    4.2433912    4.2433912   -14804.087   -37754.924   -13475.858    6818.5219   -7537.3243    -14166.23    5130.6046    76.408066 
    2300    1065.5976   -164.22249   0.96417506   -163.25832    -2641.438    4.2364457    4.2364457    4.2364457    -2641.438   -12144.425    -3512.541    7732.6521   -7142.0883   -5652.3802    2791.0844     76.03349 
    2400    1031.3235   -164.19546   0.93316315    -163.2623    -4181.503    4.2362277    4.2362277    4.2362277    -4181.503   -5875.9707   -3738.4415   -2930.0966   -1764.8286   -331.79718    -10278.82    76.021756 
    2500    1091.2229   -164.25143   0.98736145   -163.26407    3145.9725    4.2327357    4.2327357    4.2327357    3145.9725   -6642.6834    12937.151    3143.4497   -3007.2803    5671.0838   -2260.7471    75.833913 
    2600    1012.0202   -164.18327   0.91569716   -163.26757    10762.112    4.2323142    4.2323142    4.2323142    10762.112   -7692.2183    4404.9936     35573.56   -2443.3937    4717.8067   -12072.152    75.811256 
    2700    1054.2561   -164.22154   0.95391304   -163.26762   -12227.799    4.2404028    4.2404028    4.2404028   -12227.799   -22808.464   -26008.037    12133.103   -5216.3825     11184.53     9229.842    76.246752 
    2800    1079.2645   -164.23907    0.9765412   -163.26253   -7161.6962    4.2414812    4.2414812    4.2414812   -7161.6962   -18913.444    4800.2574   -7371.9023   -114.98029    6518.9504   -2897.7759    76.304937 
    2900    815.38928   -164.00085   0.73778136   -163.26307    16274.787    4.2253269    4.2253269    4.2253269    16274.787    6075.4792    12317.189    30431.693    9659.0929    4996.7254     3606.487    75.436397 
    3000    875.14824   -164.06051   0.79185252   -163.26865   -9466.7925    4.2383413    4.2383413    4.2383413   -9466.7925   -18258.246    23011.747   -33153.878   -6135.6522   -79.602502      4200.24    76.135603 
    3100    1033.4609   -164.19891   0.93509718   -163.26381   -24083.541    4.2478989    4.2478989    4.2478989   -24083.541   -46229.211    -27027.73    1006.3166    9479.0994     2572.986    14521.979    76.651828 
    3200    828.47388    -164.0112   0.74962058   -163.26158    11969.328    4.2194699    4.2194699    4.2194699    11969.328    1277.1213    39482.937   -4852.0756   -4787.3806    992.02359   -4094.9539    75.123133 
    3300    713.08052   -163.92109   0.64521024   -163.27588   -6812.6981    4.2405864    4.2405864    4.2405864   -6812.6981   -24513.671    27465.495   -23389.918   -1718.7339   -12719.454   -2958.4853    76.256655 
    3400    817.01332   -164.00437   0.73925082   -163.26512   -24956.626    4.2496097    4.2496097    4.2496097   -24956.626   -50365.359   -20830.523   -3673.9945     5215.057   -10940.727    4735.6408    76.744479 
    3500    580.34715   -163.78273   0.52511029   -163.25762    25577.577    4.2216722    4.2216722    4.2216722    25577.577    14296.232     76000.37   -13563.869   -10137.706    -563.6565    3413.8641    75.240822 
    3600    627.51491   -163.83266   0.56778867   -163.26487   -19128.244    4.2440234    4.2440234    4.2440234   -19128.244   -22957.909   -11622.084   -22804.737    -10987.19   -24337.884    4059.6128    76.442225 
    3700    636.17709   -163.83695    0.5756264   -163.26133    2051.9668    4.2379205    4.2379205    4.2379205    2051.9668   -28621.266    8022.2666      26754.9   -4604.8975   -18872.502   -4458.8603    76.112927 
    3800    485.13457   -163.70249   0.43895996   -163.26353    8019.9197    4.2320019    4.2320019    4.2320019    8019.9197   -2262.2243    39030.745   -12708.762    -9798.397   -4402.2869      4505.28     75.79448 
    3900    366.49552   -163.59973   0.33161284   -163.26812    7263.2857    4.2393356    4.2393356    4.2393356    7263.2857   -21893.189      27146.7    16536.346   -7822.5021   -17491.229   -1786.7006    76.189197 
    4000    606.39613   -163.81713   0.54867997   -163.26845    13210.204    4.2254888    4.2254888    4.2254888    13210.204    7209.7899     14201.72    18219.101   -8192.2242   -550.38807    13982.549    75.445069 
    4100    786.22655   -163.98249    0.7113943   -163.27109   -2409.3201    4.2344934    4.2344934    4.2344934   -2409.3201   -21782.286    17614.649   -3060.3236   -1069.2785   -9223.9107    1018.8427    75.928424 
    4200    699.90074   -163.90006   0.63328489   -163.26678   -9832.2073    4.2452677    4.2452677    4.2452677   -9832.2073   -13826.472    4020.6295    -19690.78    4060.4651   -3730.1613    3731.7503    76.509477 
    4300    655.90934   -163.85408   0.59348056    -163.2606    18521.096     4.221044     4.221044     4.221044    18521.096    37423.552    22678.424   -4538.6874    3812.3893    10308.247    11429.328    75.207239 
    4400    788.50804   -163.97942   0.71345864   -163.26596    1178.2362    4.2365731    4.2365731    4.2365731    1178.2362   -5111.5726    34956.575   -26310.294    8789.4947   -5224.4761   -4343.3501     76.04035 
    4500    896.85678   -164.07669   0.81149486    -163.2652   -12580.447    4.2419564    4.2419564    4.2419564   -12580.447   -8587.9451   -13723.535    -15429.86    6541.6819    3177.7517     -8168.25    76.330585 
    4600    743.15061   -163.93611   0.67241829   -163.26369    13569.279    4.2315887    4.2315887    4.2315887    13569.279    12476.784    18836.737    9394.3147    13372.246    2809.4341    850.42872    75.772276 
    4700    938.49437   -164.11312   0.84916942   -163.26395   -7924.2988    4.2367326    4.2367326    4.2367326   -7924.2988    2397.9638   -3038.1207   -23132.739   -467.70313    6539.7659   -10369.999    76.048939 
    4800    1001.5222   -164.16791   0.90619835   -163.26171   -5146.9999    4.2365448    4.2365448    4.2365448   -5146.9999   -13962.904    15439.938   -16918.034    1944.7154   -1494.6758     -16173.4    76.038829 
    4900    682.13353    -163.8796   0.61720875   -163.26239    8181.0998    4.2402725    4.2402725    4.2402725    8181.0998   -16388.897    19287.015    21645.181    9977.5375   -1275.1242    1400.5628     76.23972 
    5000    1007.6382   -164.17309   0.91173226   -163.26135   -3016.1228    4.2334941    4.2334941    4.2334941   -3016.1228    5057.5672    9012.6132   -23118.549   -6817.4133    8058.8428    -17066.97     75.87468 
    5100    1197.3505   -164.34542    1.0833879   -163.26203    -15142.65    4.2389411    4.2389411    4.2389411    -15142.65   -32004.889   -8655.3699   -4767.6908   -7017.1804   -2200.3004   -1791.5635    76.167927 
    5200    833.17777    -164.0164   0.75387675   -163.26252   -4686.6259    4.2421047    4.2421047    4.2421047   -4686.6259   -24801.191    12435.128   -1693.8144   -2871.2626   -5258.0877    6612.2034    76.338595 
    5300    978.24647   -164.14313   0.88513796   -163.25799        11523    4.2313264    4.2313264    4.2313264        11523    7085.8734    32417.486   -4934.3587   -5005.7096    2194.4876   -9.7776113    75.758187 
    5400    981.02404   -164.14993   0.88765117   -163.26228    343.26333    4.2330487    4.2330487    4.2330487    343.26333   -23472.069    14708.488    9793.3712    -19270.62    -1853.457   -1683.2521    75.850733 
    5500    756.33992   -163.95046   0.68435225   -163.26611   -1426.6324    4.2410801    4.2410801    4.2410801   -1426.6324   -16710.214     48117.18   -35686.863    1095.9275   -10219.029     12198.37    76.283291 
    5600    1039.0537   -164.20306   0.94015765    -163.2629    -5567.558    4.2324097    4.2324097    4.2324097    -5567.558     3460.168   -2273.3328   -17889.509   -160.70955    -6625.076    13475.552    75.816391 
    5700    778.73495   -163.97635   0.70461574   -163.27173   -2833.5079    4.2353825    4.2353825    4.2353825   -2833.5079   -41178.724    32402.102    276.09869    6395.0816    901.94578     3495.854    75.976258 
    5800    772.84554   -163.97112   0.69928688   -163.27183   -14727.718    4.2363661    4.2363661    4.2363661   -14727.718   -7862.4048   -3990.2168   -32330.533    10677.306   -13705.046   -4413.2019    76.029207 
    5900    606.95034   -163.82293   0.54918142   -163.27375    695.89088    4.2392875    4.2392875    4.2392875    695.89088   -17050.603    36405.008   -17266.732    1371.5137   -4240.8542    2730.1102    76.186606 
    6000    401.33435   -163.63529   0.36313575   -163.27215   -10863.814    4.2389046    4.2389046    4.2389046   -10863.814   -48413.391    27460.497   -11638.549    28786.072   -3916.6877   -6622.5032     76.16596 
    6100    474.35303   -163.70011   0.42920459    -163.2709    25145.811    4.2242227    4.2242227    4.2242227    25145.811    30556.198    54213.897   -9332.6629    14369.869    -11969.85   -7511.3406    75.377275 
    6200    460.14261   -163.68761   0.41634671   -163.27126   -33996.439    4.2547062    4.2547062    4.2547062   -33996.439   -52285.213   -17621.822   -32082.282    15621.854    4206.1713   -2726.2005    77.020924 
    6300    657.15961   -163.85889   0.59461182   -163.26427    8159.4047    4.2236317    4.2236317    4.2236317    8159.4047   -23171.326    21002.934    26646.606    18013.408   -958.03055   -7060.0638    75.345638 
    6400    633.46167   -163.84669   0.57316943   -163.27352   -6824.1511    4.2323868    4.2323868    4.2323868   -6824.1511    569.78868    3333.1108   -24375.353    8042.0199   -8050.9113   -12165.939    75.815157 
    6500    518.26589   -163.73529   0.46893787   -163.26635   -20767.391    4.2490393    4.2490393    4.2490393   -20767.391   -43254.829   -18331.139    -716.2038    8744.2354    5936.1291   -7597.7797     76.71358 
    6600    825.29225   -163.99977   0.74674177   -163.25303    22050.955    4.2135496    4.2135496    4.2135496    22050.955    3689.0111    45040.302     17423.55    2356.7357    167.90524    8742.0798    74.807361 
    6700    822.15071   -164.00965   0.74389924   -163.26575   -15351.515    4.2417946    4.2417946    4.2417946   -15351.515   -24233.971    13474.436    -35295.01   -14513.827    5775.2166   -8451.2163    76.321853 
    6800    627.71907   -163.83127    0.5679734    -163.2633    25623.145    4.2298214    4.2298214    4.2298214    25623.145   -9253.9433    43487.658    42635.719   -19047.138   -802.38253   -3810.8458    75.677383 
    6900    778.24321   -163.96901   0.70417081   -163.26484   -3904.4007    4.2385036    4.2385036    4.2385036   -3904.4007   -28627.338    22123.981   -5209.8444   -15575.958   -2620.9261   -1067.3577     76.14435 
    7000    896.07742   -164.07721   0.81078969   -163.26642    5863.2388    4.2311464    4.2311464    4.2311464    5863.2388   -11474.571    31642.536   -2578.2485   -13348.108    7225.1534    4293.7337    75.748521 
    7100    864.69336    -164.0527   0.78239272   -163.27031    11663.937    4.2230966    4.2230966    4.2230966    11663.937   -1267.0199    20675.398    15583.432    -14067.63   -315.88186   -3296.4932    75.317004 
    7200    600.11272   -163.80748    0.5429946   -163.26448   -14330.576    4.2570631    4.2570631    4.2570631   -14330.576   -41599.182     14321.99   -15714.535   -8105.9762   -4037.4253   -1918.3927    77.148994 
    7300    754.89713   -163.94006   0.68304678   -163.25702    30624.153    4.2113341    4.2113341    4.2113341    30624.153    26175.395    43511.724    22185.341    3752.9895    761.38466   -5757.7755    74.689419 
    7400    898.21134   -164.08335   0.81272049   -163.27063   -7731.2987    4.2336346    4.2336346    4.2336346   -7731.2987   -10461.019    11986.549   -24719.426    1143.9326   -34.467538   -14826.301    75.882233 
    7500    850.20896    -164.0305   0.76928693   -163.26121   -29002.564    4.2520184    4.2520184    4.2520184   -29002.564   -44454.582   -36954.832   -5598.2776    6897.6755    73.753412   -8730.7669    76.875049 
    7600    999.11742   -164.14787   0.90402244   -163.24385     31285.16    4.2029563    4.2029563    4.2029563     31285.16    35848.456    29089.553    28917.472    13692.893   -3258.1626   -28558.283    74.244558 
    7700    1094.7838   -164.25096   0.99058342   -163.26038   -26798.616    4.2429846    4.2429846    4.2429846   -26798.616    -27800.45   -21174.583   -31420.816    7316.4689    3668.4528   -2083.2787    76.386104 
    7800    961.53765    -164.1304   0.87001947   -163.26039   -6289.3768    4.2344728    4.2344728    4.2344728   -6289.3768   -20824.842   -7241.6227    9198.3345    9044.5228     5174.037   -8513.7576    75.927315 
    7900    909.13818    -164.0789   0.82260733    -163.2563    16014.493    4.2158297    4.2158297    4.2158297    16014.493    29557.524    20301.407   -1815.4504    5995.4818    4758.3113    3585.2247     74.92887 
    8000    898.82334   -164.07539   0.81327425   -163.26211   -12989.344    4.2385387    4.2385387    4.2385387   -12989.344   -34077.999   -13151.726     8261.693   -9193.2756    3616.6666    3654.6134    76.146239 
    8100    897.79882   -164.07752   0.81234724   -163.26517   -4123.4381    4.2282539    4.2282539    4.2282539   -4123.4381   -19735.467    15230.973   -7865.8208    -5878.845    12239.515    5378.5981    75.593279 
    8200    821.17052   -164.01047   0.74301234   -163.26746    2080.8006     4.227845     4.227845     4.227845    2080.8006    4670.4506   -2833.8532    4405.8044   -19261.463    -4842.996    11494.749    75.571347 
    8300    682.68313   -163.88644   0.61770604   -163.26874    880.81348    4.2307285    4.2307285    4.2307285    880.81348   -35821.697    3923.4193    34540.718   -20762.321    1827.9835   -1012.4963    75.726076 
    8400    682.26175   -163.88608   0.61732477   -163.26876   -129.70501    4.2334166    4.2334166    4.2334166   -129.70501   -7342.3946   -12554.544    19507.824    -24239.12   -1187.3464   -1427.7275    75.870514 
    8500    741.75036   -163.93961   0.67115132   -163.26846   -364.28123    4.2270515    4.2270515    4.2270515   -364.28123    1359.0593    -19621.46    17169.557   -30037.191   -1034.4114   -12450.496    75.528805 
    8600    588.94584   -163.80364   0.53289058   -163.27075   -1024.1656    4.2257782    4.2257782    4.2257782   -1024.1656   -19097.816   -10561.349    26586.668   -26459.358    891.58905   -15810.595    75.460571 
    8700    497.75716   -163.72025   0.45038114   -163.26987   -846.60149    4.2416973    4.2416973    4.2416973   -846.60149    17993.593   -39896.126    19362.729   -22208.729   -4548.8904   -12891.808    76.316601 
    8800    552.71068    -163.7682   0.50010424    -163.2681   -8120.8689    4.2246446    4.2246446    4.2246446   -8120.8689    5360.6659   -25331.699   -4391.5734   -13611.066    12178.275   -25513.293    75.399862 
    8900    628.68803   -163.83765   0.56885014    -163.2688    14208.723    4.2228626    4.2228626    4.2228626    14208.723    7947.9443    -12974.15    47652.374   -20326.884    491.57846   -12853.187    75.304487 
    9000    682.06809   -163.88474   0.61714954   -163.26759   -13848.712    4.2441847    4.2441847    4.2441847   -13848.712    7615.5028   -22772.942   -26388.697    365.87684    7930.8526   -6773.6438     76.45094 
    9100    823.27948   -164.00784   0.74492057   -163.26292    807.81538    4.2242311    4.2242311    4.2242311    807.81538    5488.2206    14346.246    -17411.02    2031.2782    10676.203   -17153.549    75.377722 
    9200     920.4189   -164.09668   0.83281436   -163.26387    17845.857    4.2238527    4.2238527    4.2238527    17845.857   -2155.6784    24368.069     31325.18    489.28466    4537.8485    1132.4021    75.357467 
    9300    1030.3993   -164.19515   0.93232696   -163.26283   -12567.249    4.2395094    4.2395094    4.2395094   -12567.249   -29201.494    16960.706   -25460.958     10965.29    15532.162    7047.1214    76.198569 
    9400    1147.4865   -164.29709    1.0382699   -163.25882   -6158.4151    4.2323974    4.2323974    4.2323974   -6158.4151   -7573.4854    9546.5395   -20448.299    4918.4602   -1164.3041   -508.35798     75.81573 
    9500    1113.5273   -164.26783    1.0075429   -163.26029    9888.0425     4.222639     4.222639     4.222639    9888.0425   -2537.0246    30347.079    1854.0729    14086.555    9848.8172    5985.1823    75.292527 
    9600    1094.9927   -164.25665   0.99077244   -163.26588   -4846.4485    4.2324919    4.2324919    4.2324919   -4846.4485   -12885.216   -4991.2612    3337.1311   -6504.7042   -4536.8039    3116.4706     75.82081 
    9700    1039.3197   -164.20808   0.94039827   -163.26768   -6823.8306    4.2361617    4.2361617    4.2361617   -6823.8306    8863.9657     -9473.23   -19862.227   -5006.0058   -3531.4464    9110.5427    76.018201 
    9800    900.02436   -164.08084   0.81436096   -163.26648    2914.1155    4.2193224    4.2193224    4.2193224    2914.1155      11136.9    4400.0951   -6794.6486   -9144.6904   -4108.9466   -10028.019    75.115255 
    9900    733.98728   -163.93637   0.66412712   -163.27224   -10230.964    4.2337463    4.2337463    4.2337463   -10230.964   -21543.835   -17837.946    8688.8902       -30979   -10100.119   -3350.0316     75.88824 
   10000    612.89325   -163.82532   0.55455869   -163.27076   -18899.485    4.2362215    4.2362215    4.2362215   -18899.485   -17666.534   -23036.627   -15995.295   -12453.458    1825.3827   -14399.159     76.02142 
   10100    605.15691   -163.81447   0.54755869   -163.26691   -333.38206    4.2175751    4.2175751    4.2175751   -333.38206   -6792.2722    3682.4759    2109.6501   -33313.655   -7767.2618   -23302.745     75.02197 
   10200    583.44545   -163.80136   0.52791371   -163.27344   -22553.349    4.2405737    4.2405737    4.2405737   -22553.349   -40512.177   -18903.976   -8243.8953   -16733.598    2438.8104   -16586.121    76.255972 
   10300    517.80037   -163.73915   0.46851666   -163.27063   -6143.4388     4.230748     4.230748     4.230748   -6143.4388   -3569.4026   -1862.3941    -12998.52   -10340.704    3945.2902   -29705.418    75.727124 
   10400    703.73887   -163.90369   0.63675772   -163.26694    10734.926    4.2198708    4.2198708    4.2198708    10734.926    7755.3786    25451.773   -1002.3733   -11370.515    3699.5378   -12402.172    75.144548 
   10500    714.56021   -163.91611   0.64654909   -163.26956    -7783.449    4.2380148    4.2380148    4.2380148    -7783.449   -10723.765   -5104.3888    -7522.193    7010.0195    7367.6199   -18021.379    76.118009 
   10600    748.17032   -163.94113   0.67696022   -163.26417    7691.8466    4.2322821    4.2322821    4.2322821    7691.8466    9347.3222    22956.821   -9228.6031   -1662.3862   -1700.4772   -8305.4959    75.809533 
   10700    934.71589   -164.10779   0.84575058   -163.26204    6979.3957    4.2259711    4.2259711    4.2259711    6979.3957     8072.584     20510.55   -7644.9473    2504.6783    9222.1554    3551.2303    75.470905 
   10800    981.58623   -164.15297   0.88815985   -163.26481    12613.186    4.2237869    4.2237869    4.2237869    12613.186    7323.3303    29103.253    1412.9753    6674.8431   -6543.3143    3597.7474    75.353946 
   10900    1001.7174   -164.17524   0.90637491   -163.26887   -3718.8149     4.240419     4.240419     4.240419   -3718.8149     4381.411   -6411.9187    -9125.937    2971.6945    -7320.394    14462.483    76.247626 
   11000    1130.5034    -164.2916    1.0229032   -163.26869   -9532.9784      4.23089      4.23089      4.23089   -9532.9784   -17720.494      8185.57   -19064.011    4899.7073    1337.7774     4750.078    75.734753 
   11100    912.36675   -164.09265   0.82552861   -163.26712    7340.8353    4.2145408    4.2145408    4.2145408    7340.8353    689.86093    17752.899    3579.7457   -3189.1199   -14798.077    17665.895    74.860164 
   11200    760.87667   -163.95932    0.6884572   -163.27087    -20761.05    4.2488278    4.2488278    4.2488278    -20761.05   -27348.619   -24991.353   -9943.1795     -3942.92   -3805.7618    1685.1418    76.702123 
   11300    803.24048   -163.98968   0.72678886   -163.26289   -17109.789    4.2345973    4.2345973    4.2345973   -17109.789    -42821.71    5707.4104   -14215.067   -9433.3068   -13288.848    4292.1403     75.93401 
   11400    662.47419   -163.85448   0.59942057   -163.25506    8242.8085    4.2109888    4.2109888    4.2109888    8242.8085   -16675.905    24572.556    16831.774   -19641.959   -11780.174   -1690.0989     74.67105 
   11500    601.10615   -163.80896   0.54389348   -163.26507   -6612.9708    4.2442454    4.2442454    4.2442454   -6612.9708   -17070.223   -3885.3079    1116.6186   -10929.984    -9064.039   -10864.018    76.454219 
   11600    745.75192   -163.93527   0.67477201    -163.2605   -15687.947    4.2368842    4.2368842    4.2368842   -15687.947    -13417.48   -7871.8366   -25774.524   -18244.285    -20161.23   -3334.8732    76.057105 
   11700    648.38368    -163.8479   0.58667118   -163.26123    20926.399     4.217553     4.217553     4.217553    20926.399    4448.9167    42091.808    16238.471   -12812.234   -9103.4828   -18953.502    75.020794 
   11800    653.75611   -163.86271   0.59153227   -163.27118   -3482.1744    4.2353959    4.2353959    4.2353959   -3482.1744   -1258.1496   -3888.2929   -5300.0807    5047.0029   -10307.007   -5501.7271    75.976982 
   11900    707.25197   -163.90755   0.63993644   -163.26761   -13004.431    4.2405166    4.2405166    4.2405166   -13004.431   -10461.569     2973.139   -31524.864    1468.0022   -6579.5576   -12131.951     76.25289 
   12000    748.92684    -163.9416   0.67764474   -163.26395    11361.482    4.2230498    4.2230498    4.2230498    11361.482    -16862.34    37814.273    13132.511    20930.263   -2256.4383   -11094.593    75.314505 
   12100    856.84386   -164.04341   0.77529033   -163.26812   -7759.5234    4.2324502    4.2324502    4.2324502   -7759.5234   -12201.892    -4113.154   -6963.5238    18410.541   -3216.1314   -1829.4071    75.818566 
   12200    711.33252   -163.91287   0.64362861   -163.26924   -2639.0376    4.2387386    4.2387386    4.2387386   -2639.0376   -4035.4323    9451.5743   -13333.255    21099.959    6070.9316      5479.67    76.157016 
   12300    774.71236   -163.96572   0.70097603   -163.26474    12712.849    4.2193729    4.2193729    4.2193729    12712.849    5180.6686    7126.4336    25831.446    28530.463    389.84728    4344.0944    75.117948 
   12400    693.24149   -163.89812   0.62725947   -163.27086    7937.9444    4.2362005    4.2362005    4.2362005    7937.9444   -7587.7344    43360.461   -11958.894    10027.346    4601.7232     5199.399    76.020289 
   12500     646.7584   -163.85501    0.5852006   -163.26981   -7721.1273    4.2282592    4.2282592    4.2282592   -7721.1273   -7532.9578   -22487.782    6857.3583   -5353.1179    6713.7701    6358.3605    75.593562 
   12600    733.63757   -163.92997   0.66381069   -163.26616    27714.978    4.2210522    4.2210522    4.2210522    27714.978    17162.011    34153.859    31829.062   -9049.1927    1845.4403    161.29366    75.207674 
   12700    818.35357   -164.00597   0.74046351    -163.2655   -21215.918    4.2424885    4.2424885    4.2424885   -21215.918   -44694.877    4017.6231   -22970.501    -17146.21    2808.7275   -2144.1113    76.359314 
   12800    940.86243   -164.11231    0.8513121     -163.261    11647.395    4.2185636    4.2185636    4.2185636    11647.395   -10054.855    30756.929    14240.112    -25782.96   -3008.2288   -8987.5227    75.074734 
   12900    1026.6075   -164.19685   0.92889605   -163.26795   -4316.1073    4.2354549    4.2354549    4.2354549   -4316.1073   -10801.252    1217.0096     -3364.08   -23280.755    3870.9351    1264.4715    75.980155 
   13000    850.99092   -164.03581   0.76999446   -163.26582    -13106.82     4.235241     4.235241     4.235241    -13106.82   -33617.899    22306.495   -28009.056   -16910.063   -6311.5081   -1330.6863    75.968646 
   13100    815.53356   -164.00009   0.73791191   -163.26218    30250.664    4.2175429    4.2175429    4.2175429    30250.664    34925.885    41814.219     14011.89      -5389.9   -3579.9121   -4881.4763    75.020252 
   13200    751.81078   -163.94583   0.68025419   -163.26558   -16309.974    4.2449457    4.2449457    4.2449457   -16309.974   -18808.571   -8703.3294    -21418.02    3534.2701    1193.1934    8836.3147    76.492073 
   13300    656.68283   -163.86151   0.59418042   -163.26733    13637.434    4.2242135    4.2242135    4.2242135    13637.434     6067.397    37429.757    -2584.853    15616.642   -9176.1784    14895.081    75.376779 
   13400    828.68381   -164.01757   0.74981053   -163.26776    1132.9048    4.2230948    4.2230948    4.2230948    1132.9048    6500.7523   -7947.9075    4845.8695    26589.519   -1250.5899    7066.9693    75.316912 
   13500    567.50201   -163.78169   0.51348775    -163.2682   -15792.225    4.2426672    4.2426672    4.2426672   -15792.225   -40111.237    2360.5959    -9626.034    34700.233   -874.98286     7765.671    76.368964 
   13600    600.73874   -163.80903   0.54356103   -163.26547    9147.0561    4.2242578    4.2242578    4.2242578    9147.0561   -7518.8032    19132.191    15827.781    31009.017      337.141    8393.9492    75.379152 
   13700     657.0231   -163.85989   0.59448831   -163.26541   -11933.783    4.2325637    4.2325637    4.2325637   -11933.783   -40863.859   -21614.298    26676.808    28043.969    303.93006    4500.0887    75.824667 
   13800    514.02232   -163.72844    0.4650982   -163.26335   -7144.2845    4.2377964    4.2377964    4.2377964   -7144.2845   -33317.189   -12140.372    24024.708     33679.75    4575.9855   -4605.4722    76.106239 
   13900    739.16056   -163.92959   0.66880801   -163.26078    5505.6428    4.2237099    4.2237099    4.2237099    5505.6428   -11771.664    12223.137    16065.455    18234.285    4317.5261   -2036.5963    75.349826 
   14000    925.91386   -164.10075   0.83778631   -163.26296   -15072.677    4.2313893    4.2313893    4.2313893   -15072.677    -37574.92   -15597.573     7954.463     21876.27    -2746.684   -2693.4036     75.76157 
   14100     830.4875   -164.01556   0.75144254   -163.26412    6012.0009    4.2342643    4.2342643    4.2342643    6012.0009   -9560.3706    24229.426    3366.9469    12124.165    10037.194   -12268.723    75.916098 
   14200    945.18571   -164.11754    0.8552239   -163.26231   -567.70484    4.2299263    4.2299263    4.2299263   -567.70484   -2980.3396   -4394.4363    5671.6613    7427.0593    6194.0271    4152.8059    75.683008 
   14300    1063.1183    -164.2226   0.96193182   -163.26067   -13097.934    4.2317358    4.2317358    4.2317358   -13097.934   -17446.731    4633.9697   -26481.041    2864.4705   -7383.6408    1478.7785    75.780181 
   14400    874.39107    -164.0539   0.79116741   -163.26273    2609.7227    4.2320084    4.2320084    4.2320084    2609.7227    5069.6906    22070.744   -19311.266   -3497.7815   -5869.6067    7213.7781    75.794825 
   14500    738.02382   -163.93249   0.66777946   -163.26471   -5289.3929    4.2334977    4.2334977    4.2334977   -5289.3929    5312.0167   -8169.8462   -13010.349   -1417.4744    5847.5124    13570.096    75.874873 
   14600    729.21306   -163.92429    0.6598073   -163.26448    10510.774    4.2314459    4.2314459    4.2314459    10510.774    39612.557    31488.257   -39568.491   -13247.314   -5792.6675    15694.141    75.764607 
   14700     867.1097   -164.04805   0.78457908   -163.26347   -10811.085    4.2330436    4.2330436    4.2330436   -10811.085    3982.3783   -17020.646   -19394.987   -10075.533   -8625.9029    11118.557    75.850464 
   14800    858.93604   -164.04134   0.77718338   -163.26416   -1076.1458    4.2307709    4.2307709    4.2307709   -1076.1458    10603.978    2748.5995   -16581.015   -5109.4058   -498.22467    21383.575    75.728354 
   14900    681.60654   -163.88221   0.61673192   -163.26547     6641.161     4.231123     4.231123     4.231123     6641.161     49928.12   -2062.1692   -27942.468   -6021.8167    7779.8987    18205.528    75.747263 
   15000    781.34399   -163.97124   0.70697646   -163.26426    -11069.43      4.23689      4.23689      4.23689    -11069.43   -1961.1765   -26554.002   -4693.1114    8248.5413    822.17425    3998.9589    76.057414 
   15100    876.61665   -164.05629   0.79318116   -163.26311    7029.5632    4.2253314    4.2253314    4.2253314    7029.5632   -5168.4929    28058.795   -1801.6121    3233.3169   -1356.1137    9050.1442    75.436639 
   15200    773.36793    -163.9659   0.69975956   -163.26614   -13720.021     4.230863     4.230863     4.230863   -13720.021    588.12679   -30350.455   -11397.735     18913.61    12889.428    8580.3485    75.733303 
   15300    747.30136   -163.94224   0.67617398   -163.26607    11008.419    4.2366724    4.2366724    4.2366724    11008.419    331.01507    25774.619    6919.6231    19519.439    7020.6772   -6573.1044    76.045701 
   15400    877.17425   -164.05657    0.7936857   -163.26289   -7292.7409    4.2287852    4.2287852    4.2287852   -7292.7409     -9126.35    1641.4478    -14393.32     7795.677    -58.14305   -10054.581    75.621779 
   15500    795.85483   -163.98462   0.72010617   -163.26451   -8232.3491    4.2306056    4.2306056    4.2306056   -8232.3491   -15384.787   -3352.4529    -5959.807     29996.95   -2949.5394   -5628.5389    75.719482 
   15600     590.8738   -163.80199   0.53463503   -163.26736    13114.661    4.2272307    4.2272307    4.2272307    13114.661   -4944.1568    31676.704    12611.436    12324.505    -5456.691   -7909.0123    75.538411 
   15700     628.9603   -163.83671    0.5690965   -163.26761   -9228.1054    4.2336335    4.2336335    4.2336335   -9228.1054    1609.6842     -15937.8     -13356.2    11815.811   -9919.4767   -11440.045    75.882174 
   15800    868.66082   -164.05255   0.78598256   -163.26656   -2524.2796     4.228951     4.228951     4.228951   -2524.2796    3169.2759    2342.0841   -13084.199    8968.6573   -13272.753   -3213.1422     75.63067 
   15900    812.37419   -164.00168   0.73505324   -163.26663    2211.5171     4.226029     4.226029     4.226029    2211.5171    36310.514   -9180.7346   -20495.228    2702.0418   -9158.4761    4837.2529    75.474007 
   16000    888.10032   -164.06904   0.80357183   -163.26547   -12635.919    4.2383557    4.2383557    4.2383557   -12635.919   -1287.6125   -30350.707   -6269.4359    7555.0705   -6975.6356   -4614.4876    76.136379 
   16100     1057.565   -164.21995   0.95690702   -163.26304    2917.4896    4.2248177    4.2248177    4.2248177    2917.4896     9583.849    3856.9741   -4688.3543   -11503.363   -2610.7914    1933.1472    75.409127 
   16200    961.61583    -164.1354   0.87009021   -163.26531    10.504526    4.2294445    4.2294445    4.2294445    10.504526    32784.026   -15706.321   -17046.192    149.55806    4436.3088     6384.622    75.657154 
   16300    849.51874   -164.03291   0.76866241   -163.26425   -2454.6575    4.2386415    4.2386415    4.2386415   -2454.6575    4899.9415    2542.7493   -14806.663   -5226.8661    13427.161   -2807.3686    76.151779 
   16400    834.38218   -164.01631   0.75496653   -163.26134    8568.3573    4.2239925    4.2239925    4.2239925    8568.3573    13378.346    16871.443   -4544.7172   -8267.1119    7664.8097    16217.071    75.364949 
   16500    801.08671   -163.98993   0.72484009   -163.26509    3354.0306    4.2306703    4.2306703    4.2306703    3354.0306   -6335.6105    8526.8224    7870.8798    4677.9037    9406.6576   -180.59022    75.722956 
   16600    808.09306   -163.99769   0.73117958   -163.26651   -7978.6049    4.2352169    4.2352169    4.2352169   -7978.6049   -2151.0798    6463.2383   -28247.973   -5027.0717    16877.832     -723.421    75.967351 
   16700    798.06605   -163.98575   0.72210693   -163.26365    124.74434    4.2263525    4.2263525    4.2263525    124.74434   -9177.6324    26845.037   -17293.172    10376.941    7678.6061    7001.6249    75.491345 
   16800    692.38783   -163.89288   0.62648706   -163.26639   -2664.7822    4.2306691    4.2306691    4.2306691   -2664.7822   -13695.435   -12428.441     18129.53    8575.4093    1940.9898    1497.4856    75.722889 
   16900    632.25047    -163.8376   0.57207351   -163.26552   -16872.592    4.2385436    4.2385436    4.2385436   -16872.592   -25927.006   -9423.8369   -15266.934    7766.7897    7397.9971   -2678.3739    76.146506 
   17000    450.09466   -163.67155    0.4072551    -163.2643    10942.503    4.2300405    4.2300405    4.2300405    10942.503   -10865.927    47734.221    -4040.786    21164.511   -206.88452   -8809.4774    75.689143 
   17100     375.6554   -163.60398    0.3399009   -163.26408    4260.4739     4.226907     4.226907     4.226907    4260.4739   -414.51776   -13358.374    26554.314    12343.641   -4173.3805    4660.3138     75.52106 
   17200    510.57497   -163.72641   0.46197896   -163.26443   -7063.8697    4.2344478    4.2344478    4.2344478   -7063.8697   -37853.543    26408.847   -9746.9132    15206.133    855.54931    -7975.893    75.925972 
   17300    568.97401   -163.78205   0.51481964   -163.26723    338.27491    4.2307763    4.2307763    4.2307763    338.27491   -6860.7229    3701.4513    4174.0963    6624.8638   -1701.3138   -5376.6188    75.728646 
   17400    619.29738   -163.82666   0.56035328    -163.2663    5300.5101    4.2256966    4.2256966    4.2256966    5300.5101   -13793.912    -8942.042    38637.484    26118.976    1716.6603   -892.57505    75.456199 
   17500    880.70132   -164.06308   0.79687707    -163.2662   -609.05182    4.2317303    4.2317303    4.2317303   -609.05182   -27227.507    25815.541   -415.18926    9065.9892   -258.50644    3383.5298    75.779887 
   17600    955.91996   -164.13007   0.86493647   -163.26514    -9330.935    4.2332373    4.2332373    4.2332373    -9330.935   -12258.048   -7125.9455   -8608.8112   -4086.5121    3647.0743    7472.9196    75.860871 
   17700    858.15208   -164.03973   0.77647404   -163.26326    16323.934    4.2218597    4.2218597    4.2218597    16323.934    18791.387    10078.004    20102.411    20381.108    6910.3841   -2104.1493    75.250845 
   17800    919.29132   -164.09946   0.83179411   -163.26767   -4406.8763    4.2343632    4.2343632    4.2343632   -4406.8763    17510.533   -7724.8155   -23006.347   -4168.2352    2117.9426    15028.791    75.921419 
   17900     997.7923   -164.16918   0.90282344   -163.26635   -14730.072    4.2330827    4.2330827    4.2330827   -14730.072   -16670.057    1199.4567   -28719.614    3935.9447    3476.0166    9091.4512     75.85256 
   18000    857.34081   -164.04033   0.77573998   -163.26459     12169.72    4.2214316    4.2214316    4.2214316     12169.72    33372.197    10888.232   -7751.2697   -1225.2075   -4106.3979    1481.4361    75.227959 
   18100    824.05988   -164.01101    0.7456267   -163.26538   -13707.869    4.2385698    4.2385698    4.2385698   -13707.869    9944.2292   -10503.353   -40564.483   -6078.7811   -2836.0271     12304.13    76.147913 
   18200     949.1606   -164.12193   0.85882045   -163.26311   -2487.7594    4.2234106    4.2234106    4.2234106   -2487.7594   -14671.355    13006.728   -5798.6509   -13631.465    2772.3552    923.28805    75.333807 
   18300    876.81847   -164.06141   0.79336378   -163.26804    5165.3102    4.2295951    4.2295951    4.2295951    5165.3102    7212.1557    22608.047   -14324.272   -8523.3808   -6319.7032    5898.4238    75.665233 
   18400    824.59057   -164.01131   0.74610687    -163.2652   -20062.905     4.235818     4.235818     4.235818   -20062.905   -21315.283   -18700.988   -20172.444   -3875.4747   -2943.7539   -3412.5128      75.9997 
   18500     806.6688   -163.99232   0.72989088   -163.26243    14087.511    4.2250828    4.2250828    4.2250828    14087.511   -14310.234    31937.279    24635.486   -14994.353   -2735.3391   -4956.3112    75.423325 
   18600    731.60522   -163.92671   0.66197178   -163.26474   -4258.2299    4.2335434    4.2335434    4.2335434   -4258.2299   -21089.799   -1477.4978    9792.6073    94.292855    1840.4979    4681.0901    75.877333 
   18700    675.50758   -163.87683   0.61121345   -163.26562    2836.4408     4.228214     4.228214     4.228214    2836.4408   -975.18056   -5113.4306    14597.934    9936.0698    607.31862   -13741.336    75.591139 
   18800    744.55165   -163.94105   0.67368598   -163.26736    974.95257     4.231073     4.231073     4.231073    974.95257   -6954.4815    6864.4589    3014.8804     7109.331     49.95494   -1720.6791    75.744577 
   18900    810.05794   -163.99927   0.73295745   -163.26631   -10330.826    4.2256663    4.2256663    4.2256663   -10330.826    -19803.76   -15875.934    4687.2151    29141.227    7990.6656    1948.1026     75.45458 
   19000    829.01371   -164.02005   0.75010903   -163.26994   -643.62226    4.2320455    4.2320455    4.2320455   -643.62226    17045.018   -7670.2774   -11305.608    18940.327   -2266.8089   -6954.1073    75.796821 
   19100    1018.5149   -164.18981   0.92157366   -163.26824   -18203.471    4.2313928    4.2313928    4.2313928   -18203.471   -19166.332   -12543.877   -22900.203    20144.368   -9679.2707    12684.305    75.761756 
   19200    976.61158   -164.15125   0.88365868   -163.26759    9903.1254    4.2264098    4.2264098    4.2264098    9903.1254    35433.733    -4632.779   -1091.5776    16534.694   -3999.1723   -5048.0862    75.494413 
   19300    916.81635     -164.097    0.8295547   -163.26744   -13801.791    4.2379465    4.2379465    4.2379465   -13801.791   -11240.401   -4009.4241   -26155.547    3212.8457   -17107.891    11282.097    76.114324 
   19400    1014.3037   -164.18034   0.91776331   -163.26258    6255.4223    4.2210449    4.2210449    4.2210449    6255.4223   -413.79724    19672.054   -491.98984    1801.6062   -12050.611    2324.4989    75.207287 
   19500    837.06797   -164.02618   0.75739669   -163.26878   -3322.9319     4.236426     4.236426     4.236426   -3322.9319    2608.7609   -1813.3821   -10764.175   -13079.494   -13046.713   -1449.9422    76.032429 
   19600    711.42139    -163.9116   0.64370902    -163.2679    -3596.319    4.2303367    4.2303367    4.2303367    -3596.319   -7920.5365    10685.679   -13554.099   -10635.056   -19321.132    8961.2369    75.705044 
   19700    855.78932   -164.03854   0.77433616   -163.26421    29667.165    4.2154496    4.2154496    4.2154496    29667.165    32800.531    47943.322    8257.6408   -14466.018   -4868.6153   -7078.7034    74.908606 
   19800    850.84848   -164.03619   0.76986558   -163.26633   -27731.889    4.2427821    4.2427821    4.2427821   -27731.889   -25270.163   -41619.529   -16305.976   -11551.058   -781.91334    963.52942     76.37517 
   19900    882.13226   -164.06048    0.7981718    -163.2623    13822.767     4.224001     4.224001     4.224001    13822.767    7089.9299    10558.013    23820.358   -2786.4234    7230.5202   -7472.5633    75.365403 
   20000    898.46074   -164.07758   0.81294616   -163.26463    -14026.24    4.2297161    4.2297161    4.2297161    -14026.24   -9191.2627   -21014.288    -11873.17   -3004.7867    4183.9052   -9635.8554    75.671731 
   20100    836.75404   -164.02356   0.75711264   -163.26644   -3687.9098    4.2273036    4.2273036    4.2273036   -3687.9098    16441.799   -29389.661    1884.1328    22050.168    10964.418    435.84668    75.542318 
   20200    783.87159   -163.98027   0.70926349   -163.27101    13320.256     4.229363     4.229363     4.229363    13320.256    1336.8831    13130.811    25493.074    16723.296    6647.8702   -12344.089     75.65278 
   20300    795.73212    -163.9834   0.71999515   -163.26341   -32628.165    4.2453456    4.2453456    4.2453456   -32628.165   -30524.581   -50120.473   -17239.442    18960.915    552.30588   -2803.8219    76.513689 
   20400    764.59706   -163.94921   0.69182349   -163.25739    32481.882    4.2090754    4.2090754    4.2090754    32481.882    37632.134    19524.886    40288.624    29812.259   -2108.8266   -316.46367    74.569307 
   20500    669.37751   -163.87705   0.60566684   -163.27139   -11314.485    4.2349938    4.2349938    4.2349938   -11314.485   -20455.186    3.0937212   -13491.362    21362.873   -13549.873    900.35772    75.955345 
   20600     600.9509   -163.80437     0.543753   -163.26062   -16749.041    4.2433813    4.2433813    4.2433813   -16749.041    -4019.025   -18543.397   -27684.701    20717.432    -10042.68   -2815.1096    76.407534 
   20700    712.38655   -163.89504   0.64458232   -163.25046    27548.577      4.20965      4.20965      4.20965    27548.577    10892.103    28128.649     43624.98    3644.9287   -19631.611    1666.5428    74.599851 
   20800    786.82686   -163.97557   0.71193748   -163.26363   -20346.037    4.2372861    4.2372861    4.2372861   -20346.037   -2910.9127    -19875.15   -38252.049    6733.4957   -23682.524    13903.211    76.078751 
   20900    850.58442   -164.03088   0.76962666   -163.26125   -8539.2776    4.2385534    4.2385534    4.2385534   -8539.2776   -19185.361    27157.001   -33589.472    1305.2007   -12408.198   -1921.5693    76.147032 
   21000    864.96718   -164.04205   0.78264048   -163.25941    20276.529    4.2203411    4.2203411    4.2203411    20276.529     19201.08      14571.1    27057.407   -15298.933   -18964.322    1798.1238    75.169672 
   21100    824.19865   -164.00949   0.74575226   -163.26374   -12593.806     4.239003     4.239003     4.239003   -12593.806    12957.218     -14272.4   -36466.235   -2940.2192   -15809.988    6691.0807    76.171268 
   21200    853.03352   -164.03299   0.77184265   -163.26115   -6536.5714    4.2367597    4.2367597    4.2367597   -6536.5714   -25906.509     3623.908     2672.887   -5792.1844   -3573.3086   -822.35708    76.050399 
   21300    824.08353   -164.00386   0.74564809   -163.25821    13522.033    4.2164764    4.2164764    4.2164764    13522.033    12922.702    18080.216    9563.1806   -1709.7095    5047.3033    -2890.997    74.963355 
   21400    711.68071   -163.91008   0.64394366   -163.26614   -11329.504    4.2355121    4.2355121    4.2355121   -11329.504   -11121.356    -4988.126   -17879.029    1139.0863    2127.3887   -7683.4973    75.983236 
   21500    721.98853   -163.91724    0.6532704   -163.26397   -185.35851    4.2392215    4.2392215    4.2392215   -185.35851   -10182.503    3667.2461    5959.1809    4051.0487    15858.759   -6879.5847    76.183044 
   21600    843.98311   -164.02242   0.76365366   -163.25876   -1601.8297    4.2155759    4.2155759    4.2155759   -1601.8297    99.911609   -8076.9368    3171.5361    19376.073    22169.578   -10459.855    74.915339 
   21700    562.04062   -163.77766   0.50854616   -163.26912    827.54054    4.2327503    4.2327503    4.2327503    827.54054     30349.81   -28658.806    791.61789    9358.9675    8969.6722   -18969.188    75.834693 
   21800    514.31176   -163.73247   0.46536009   -163.26711   -8568.3974    4.2356512    4.2356512    4.2356512   -8568.3974   -8685.6274   -5538.4076   -11481.157    16224.002      5637.69   -2971.3171    75.990721 
   21900    820.97064   -164.00438   0.74283148   -163.26155    1617.6802    4.2209706    4.2209706    4.2209706    1617.6802    16592.175   -27100.483    15361.349    17353.549    1968.2813    -13820.33    75.203314 
   22000    806.92013   -163.99462   0.73011829    -163.2645   -13323.664    4.2348976    4.2348976    4.2348976   -13323.664    4422.9997   -36855.266   -7538.7244    8811.9721    -5074.287   -15752.771    75.950169 
   22100    742.86077    -163.9365   0.67215603   -163.26434    17616.944    4.2288278    4.2288278    4.2288278    17616.944    12803.764    20525.454    19521.613    7181.0635   -20913.862   -5173.2422    75.624065 
   22200    1026.8208   -164.19262   0.92908905   -163.26353   -1171.1357    4.2300726    4.2300726    4.2300726   -1171.1357    1371.4979   -19296.528    14411.623    7839.1419   -5289.6575   -3973.1981    75.690866 
   22300    1044.5523   -164.20616   0.94513285   -163.26103   -18446.506    4.2359257    4.2359257    4.2359257   -18446.506   -17227.795   -19233.304    -18878.42     2002.919   -11652.221    5211.5574    76.005498 
   22400    722.24911   -163.91509   0.65350618   -163.26159    25467.433    4.2237431    4.2237431    4.2237431    25467.433    24951.147    32898.431    18552.721   -4364.5202   -15344.488   -3427.0846    75.351599 
   22500    777.18346   -163.96682   0.70321193   -163.26361   -18915.719    4.2394257    4.2394257    4.2394257   -18915.719   -30897.399   -18325.905   -7523.8529   -8329.1217   -3913.7166    9620.1583    76.194054 
   22600    903.92777   -164.07992   0.81789284   -163.26203   -5055.2063    4.2285927    4.2285927    4.2285927   -5055.2063   -22040.705    4537.2429    2337.8431   -1984.2528    6536.5528    7372.9686     75.61145 
   22700     720.1103   -163.91521   0.65157093   -163.26364    13340.289    4.2215331    4.2215331    4.2215331    13340.289    1739.4853     22541.14    15740.241   -7650.3619    9220.8262    2969.8433    75.233386 
   22800    721.69113   -163.91668    0.6530013   -163.26368   -11364.888    4.2445328    4.2445328    4.2445328   -11364.888   -14042.257   -18872.326   -1180.0815   -11467.457    6342.4018    2370.7104    76.469751 
   22900    869.73065   -164.04655   0.78695057    -163.2596    9077.6656    4.2248011    4.2248011    4.2248011    9077.6656   -8357.4645    40821.304   -5230.8422   -7175.4924    17876.728   -3183.3128    75.408241 
   23000    891.99632    -164.0688   0.80709701    -163.2617   -1182.0751    4.2301432    4.2301432    4.2301432   -1182.0751   -15970.549    9919.6979    2504.6261    8663.1643    14395.148    5264.9956    75.694655 
   23100    742.28181   -163.93191   0.67163218   -163.26027    -12432.67    4.2426028    4.2426028    4.2426028    -12432.67   -22609.779   -15001.888    313.65597     11693.39    6900.2038   -7650.3818    76.365487 
   23200    683.27132   -163.87626   0.61823825   -163.25802    26790.808    4.2157866    4.2157866    4.2157866    26790.808     11409.04    45716.879    23246.506    7716.0792    7461.3141   -3805.9614    74.926571 
   23300    888.27049   -164.06933    0.8037258   -163.26561   -11439.649    4.2347313    4.2347313    4.2347313   -11439.649    -22900.74   -13565.724     2147.517     23743.96    845.85429    3113.0598    75.941223 
   23400    844.62245   -164.02367   0.76423214   -163.25944   -16125.985    4.2401863    4.2401863    4.2401863   -16125.985   -27028.573    -6484.202   -14865.179    24145.265    4362.9176    2033.8531    76.235073 
   23500    678.18147   -163.86814   0.61363284   -163.25451    13839.293    4.2189726    4.2189726    4.2189726    13839.293    15023.391     10449.89    16044.597     19908.79   -5453.6273    5710.6173    75.096574 
   23600    758.35712   -163.94494   0.68617746   -163.25876   -1215.3742    4.2302197    4.2302197    4.2302197   -1215.3742   -10018.894   -7333.1519    13705.923    18479.488   -11346.172    4665.8161     75.69876 
   23700    974.39697   -164.13968   0.88165486   -163.25802   -15225.424    4.2337119    4.2337119    4.2337119   -15225.424   -23425.751   -10323.157   -11927.363    15614.388   -6620.0705    6333.1382    75.886393 
   23800    885.26905   -164.06206   0.80101004   -163.26105     984.4694    4.2290535    4.2290535    4.2290535     984.4694   -6872.7921   -4337.4632    14163.663    7416.2841   -15217.445    7798.0468    75.636169 
   23900    769.02781   -163.95806   0.69583252   -163.26223    17797.669    4.2258471    4.2258471    4.2258471    17797.669    4669.0683    54630.939   -5906.9992   -7535.4399   -3527.3344   -391.90829    75.464263 
   24000    1018.3342   -164.18613   0.92141018   -163.26472   -9697.0778    4.2341565    4.2341565    4.2341565   -9697.0778   -9681.0611   -14296.801   -5113.3716    -2241.239   -8834.8167    8564.2909    75.910301 
   24100    1037.7416   -164.20322    0.9389704   -163.26425   -2419.1028    4.2291089    4.2291089    4.2291089   -2419.1028   -18813.458    3733.8166    7822.3331   -2884.7999   -1583.7363   -7376.7719    75.639145 
   24200    818.72946   -164.00639   0.74080362   -163.26559    11012.717    4.2204304    4.2204304    4.2204304    11012.717   -2853.4555    47261.213   -11369.608   -9957.2573    7849.9286   -5047.2028    75.174446 
   24300    767.36131   -163.96045   0.69432464   -163.26612   -9242.1774    4.2415294    4.2415294    4.2415294   -9242.1774   -16380.627   -9887.8452     -1458.06   -1526.5757    12440.099   -1033.6435    76.307536 
   24400    826.14438   -164.00931   0.74751279    -163.2618   -972.12759    4.2254881    4.2254881    4.2254881   -972.12759   -2158.4202   -64.898608   -693.06397    2735.0225    28258.177    3197.9532    75.445034 
   24500    653.14905   -163.85504   0.59098298   -163.26406   -2978.8913    4.2211755    4.2211755    4.2211755   -2978.8913   -21239.837    15945.732   -3642.5695     14812.85    35790.349   -2961.7809    75.214267 
   24600    456.59249   -163.68077   0.41313448   -163.26764   -10519.804    4.2363233    4.2363233    4.2363233   -10519.804   -25498.888    1200.9022    -7261.425    11222.927    29442.916    2455.8653    76.026902 
   24700    339.65304   -163.57533   0.30732521     -163.268    2630.7451    4.2281232    4.2281232    4.2281232    2630.7451    16707.836    1516.3244   -10331.925     13869.23    36935.137    13576.329    75.586267 
   24800    338.17247   -163.57598   0.30598556      -163.27   -8756.5526    4.2278908    4.2278908    4.2278908   -8756.5526   -31699.236    10321.038   -4891.4599    15333.195    39232.624    6188.1506    75.573807 
   24900    451.77871   -163.67865   0.40877887   -163.26987   -7238.2898    4.2327274    4.2327274    4.2327274   -7238.2898   -6892.1301   -2345.5159   -12477.223    10396.015    28534.541    2893.4751    75.833464 
   25000    536.80065   -163.75441   0.48570851    -163.2687   -9633.6457    4.2306527    4.2306527    4.2306527   -9633.6457    -15125.19   -5941.0225   -7834.7247    9074.2672    28699.582    3877.8497     75.72201 
   25100    657.09027   -163.86296   0.59454909   -163.26841    11160.667    4.2232859    4.2232859    4.2232859    11160.667   -21246.542    33951.009    20777.535    1015.9391     28970.92    8840.5905    75.327137 
   25200    971.07447   -164.14888   0.87864859   -163.27023   -10622.041    4.2346587    4.2346587    4.2346587   -10622.041   -2317.9265   -14793.902   -14754.293   -476.49484    10107.525    -535.8459    75.937317 
   25300     1086.348   -164.24699   0.98295053   -163.26404   -11810.405    4.2346819    4.2346819    4.2346819   -11810.405   -14935.232   -14731.312   -5764.6714   -6269.6097    13290.947   -8196.1927    75.938563 
   25400    1109.6126   -164.26223    1.0040008   -163.25823    24918.309    4.2180683    4.2180683    4.2180683    24918.309    9448.0551    20872.364    44434.508   -9782.8072    3010.3948     2652.482    75.048293 
   25500    1190.8905   -164.34015    1.0775427    -163.2626    -5200.117      4.23502      4.23502      4.23502    -5200.117   -15176.575    227.74591   -651.52158   -3165.8993   -7661.0957   -1535.3092    75.956752 
   25600    1167.4532   -164.31935    1.0563362   -163.26301    3423.8868    4.2318002    4.2318002    4.2318002    3423.8868    15357.947   -7287.9119    2201.6251   -10119.586   -7859.9422   -3298.2067    75.783639 
   25700    1016.7831   -164.18437   0.92000672   -163.26436    15843.582     4.220377     4.220377     4.220377    15843.582    -3062.473   -4365.1821    54958.401    665.53655    -13168.91    340.09407    75.171592 
   25800    965.73289   -164.14283   0.87381541   -163.26901   -9928.1486     4.233815     4.233815     4.233815   -9928.1486   -11588.013   -18623.848     427.4151    6222.0918   -6929.9001     11710.97    75.891937 
   25900    833.67059    -164.0241   0.75432267   -163.26977    3012.3133     4.225362     4.225362     4.225362    3012.3133    4738.6433   -8799.4151    13097.712    17030.909   -7798.4804    2246.5001    75.438279 
   26000    592.48642   -163.80885   0.53609417   -163.27275   -5049.0282    4.2269938    4.2269938    4.2269938   -5049.0282   -28016.596   -5344.0387     18213.55    20094.175    9980.9553    7914.8207    75.525714 
   26100     489.3616   -163.71378   0.44278466     -163.271   -1561.9934    4.2314842    4.2314842    4.2314842   -1561.9934    1688.0092   -21428.377    15054.388    21269.424    11363.008    9359.9457    75.766667 
   26200     473.0806   -163.69591   0.42805326   -163.26786   -4706.6342      4.23225      4.23225      4.23225   -4706.6342   -36001.511    29930.607   -8048.9989    28135.748    12890.734    244.22109    75.807811 
   26300    568.36108   -163.78012   0.51426505   -163.26586    -10003.35    4.2270537    4.2270537    4.2270537    -10003.35   -36225.202    -3271.189    9486.3428    26456.108    19687.461     623.9588    75.528925 
   26400    514.43243   -163.73248   0.46546928   -163.26701    9999.7402    4.2285012    4.2285012    4.2285012    9999.7402   -975.61071    -10363.45    41338.281    21843.705     24168.72     521.3194    75.606539 
   26500    511.93293   -163.72936   0.46320767   -163.26615   -8225.0268    4.2383657    4.2383657    4.2383657   -8225.0268   -41786.357    25406.262   -8294.9851    11422.755    24078.645   -3419.6886    76.136917 
   26600    757.77875   -163.94942   0.68565414   -163.26377   -3181.6051       4.2221       4.2221       4.2221   -3181.6051   -16193.954    13690.565   -7041.4261      14932.3     20258.38   -12375.791    75.263698 
   26700    865.10037   -164.04833   0.78276099   -163.26556    1601.9029    4.2263068    4.2263068    4.2263068    1601.9029   -17734.511    3740.1422    18800.078    10529.151    17480.287     2814.816    75.488891 
   26800    851.25724   -164.03344   0.77023544   -163.26321   -21366.798    4.2399698    4.2399698    4.2399698   -21366.798   -31640.688   -9060.5645   -23399.142   -4864.7325    22483.831    3036.5628    76.223396 
   26900    969.38879   -164.13717   0.87712335   -163.26004    18517.481    4.2187411    4.2187411    4.2187411    18517.481    18349.165    41624.833   -4421.5554   -6272.7064    3113.7884   -3360.8105    75.084212 
   27000    1030.5238   -164.19649   0.93243963   -163.26405   -3188.1851    4.2264992    4.2264992    4.2264992   -3188.1851   -6575.0252   -11917.348    8927.8182   -12958.811    1101.7796    11674.708    75.499203 
   27100    871.29876    -164.0536   0.78836943   -163.26524    631.17721    4.2351403    4.2351403    4.2351403    631.17721   -994.97262    17204.103   -14315.599   -11581.154    2340.6162    11520.676    75.963225 
   27200    843.53794   -164.02676   0.76325085   -163.26351    8067.6114    4.2239547    4.2239547    4.2239547    8067.6114     25433.76    14018.272   -15249.198   -13779.534   -2918.6474    19331.753    75.362928 
   27300    846.76095   -164.02979    0.7661671   -163.26362   -4564.4225       4.2282       4.2282       4.2282   -4564.4225     2176.743   -4215.4532   -11654.557   -1338.0025   -5663.6346     8586.885    75.590384 
   27400    714.39978   -163.90869   0.64640394   -163.26228   -6979.5774    4.2338792    4.2338792    4.2338792   -6979.5774   -25537.093    10220.941   -5622.5802     10096.09    -8124.419    17881.452    75.895387 
   27500     780.5766   -163.97035   0.70628211   -163.26406    2392.6354    4.2220809    4.2220809    4.2220809    2392.6354    20465.335   -11167.087   -2120.3425    6899.6481   -538.68635    19114.052    75.262674 
   27600    860.89575   -164.04641   0.77895656   -163.26745    14320.351     4.222506     4.222506     4.222506    14320.351     13557.96    27908.395    1494.6964    17626.404    1628.4688    5864.0376    75.285412 
   27700    923.90278   -164.09982   0.83596665   -163.26385   -20084.797    4.2430514    4.2430514    4.2430514   -20084.797   -31828.613   -14683.522   -13742.255    21083.188    1169.6033    5903.1267     76.38971 
   27800    1040.8684   -164.20294   0.94179961   -163.26114    7250.5363    4.2221326    4.2221326    4.2221326    7250.5363    14361.835    12144.603   -4754.8297    5298.9343    7561.3482     4032.563     75.26544 
   27900     888.5765    -164.0669   0.80400269    -163.2629    7164.7142    4.2207661    4.2207661    4.2207661    7164.7142    6870.4337    6456.7113    8166.9974    107.94369    14926.535   -963.75985    75.192384 
   28000    713.05548   -163.90786   0.64518758   -163.26267   -4707.4486     4.243391     4.243391     4.243391   -4707.4486   -7209.6891    11696.522   -18609.179    423.98148    15421.464   -12962.068    76.408057 
   28100    815.34491   -163.99582   0.73774121   -163.25808   -4618.1733    4.2273008    4.2273008    4.2273008   -4618.1733   -23797.578    8241.6126    1701.4454   -13627.719    10211.087   -3567.2082    75.542171 
   28200    841.50927   -164.02054   0.76141527   -163.25912   -2935.6755    4.2243984    4.2243984    4.2243984   -2935.6755    -28135.76    16227.446    3101.2878   -15689.156     15011.81   -8831.6691    75.386681 
   28300    604.35903   -163.80849   0.54683676   -163.26165   -5378.9217     4.237014     4.237014     4.237014   -5378.9217   -7301.4169    3811.2018    -12646.55    -12666.49    14419.225   -9175.1214    76.064096 
   28400    539.80759   -163.74947   0.48842925   -163.26104    3157.3502    4.2294741    4.2294741    4.2294741    3157.3502   -27959.579    10129.357    27302.272    -11063.13     14664.83   -7825.8489     75.65874 
   28500    795.06681   -163.97902   0.71939316   -163.25963   -1307.5697    4.2212108    4.2212108    4.2212108   -1307.5697   -22797.322    34829.821   -15955.207   -11339.742    14656.853    -1610.907    75.216152 
   28600    757.79813   -163.95082   0.68567167   -163.26515   -13432.797    4.2314983    4.2314983    4.2314983   -13432.797   -19937.589    4065.8521   -24426.655   -4332.0533    8314.7654    6727.4725    75.767423 
   28700    625.58293   -163.83152   0.56604058   -163.26547    2453.8045     4.232748     4.232748     4.232748    2453.8045   -10484.087    15674.922    2170.5783    4885.8946     12502.07    2999.0435    75.834573 
   28800    782.48408   -163.97113   0.70800804   -163.26312    9502.9712    4.2210324    4.2210324    4.2210324    9502.9712    16889.522    27481.904   -15862.512    2355.9022    159.86861    20136.566     75.20662 
   28900    889.93865   -164.07151    0.8052352   -163.26627   -69.263434    4.2272408    4.2272408    4.2272408   -69.263434   -5569.1727    14263.843   -8902.4611    6505.9766   -2866.5417    20846.521    75.538954 
   29000    878.56855   -164.06111   0.79494729   -163.26616   -3646.1629    4.2318898    4.2318898    4.2318898   -3646.1629    2453.0935   -1142.5853   -12248.997    8270.9423    2959.5584    21322.627    75.788454 
   29100    872.48359   -164.05293   0.78944149   -163.26349     5728.499    4.2286212    4.2286212    4.2286212     5728.499    23507.542    4546.3617   -10868.407    10960.192   -6431.5955    21614.495    75.612978 
   29200    851.11378    -164.0336   0.77010564   -163.26349    5103.4543    4.2253772    4.2253772    4.2253772    5103.4543    9973.2811    11263.945   -5926.8632   -487.36935   -5847.3732    19193.137    75.439091 
   29300    825.52128   -164.01147     0.746949   -163.26452    -582.6085    4.2302698    4.2302698    4.2302698    -582.6085    -14822.62    7449.4597    5625.3347   -3752.6604   -5910.8952    12494.543    75.701451 
   29400    845.92039   -164.02719   0.76540654   -163.26178   -12654.252    4.2341119    4.2341119    4.2341119   -12654.252   -14108.493   -11870.282    -11983.98    3850.2005    2018.9129    7568.7513    75.907902 
   29500    703.34435   -163.90041   0.63640075   -163.26401    14937.254     4.218659     4.218659     4.218659    14937.254    17398.768     26402.15    1010.8422   -18169.288    4258.9494    8710.5272    75.079827 
   29600    627.59265    -163.8392   0.56785902   -163.27134    4774.2943    4.2338344    4.2338344    4.2338344    4774.2943   -15872.045    23685.493    6509.4345   -10541.075    4585.1645   -12183.983    75.892977 
   29700    795.98653   -163.98557   0.72022534   -163.26534   -23707.352    4.2381376    4.2381376    4.2381376   -23707.352   -12592.186   -21971.692   -36558.176   -11952.455    7790.0062    -15030.77    76.124626 
   29800    624.95741   -163.82901    0.5654746   -163.26353    13943.121    4.2127363    4.2127363    4.2127363    13943.121    9683.4901     34977.43   -2831.5566   -12535.881    8865.4933    -25641.36    74.764049 
   29900    463.46299   -163.69043   0.41935105   -163.27108   -744.64031    4.2289543    4.2289543    4.2289543   -744.64031    922.64064    7901.4134   -11057.975   -16158.488    11509.109   -25756.922    75.630851 
   30000    569.09292   -163.78083   0.51492723    -163.2659   -21080.126    4.2411567    4.2411567    4.2411567   -21080.126     492.1007   -10259.058   -53473.422   -1607.6857    11138.594   -23440.258    76.287427 
   30100    739.07774   -163.93284   0.66873307   -163.26411   -3733.0607    4.2178516    4.2178516    4.2178516   -3733.0607     1203.795    6889.6921   -19292.669    633.96721    14044.657   -26414.277    75.036728 
   30200    825.69298   -164.01467   0.74710436   -163.26757    15099.594    4.2210947    4.2210947    4.2210947    15099.594     34610.61    18223.214   -7535.0436   -5132.9647    7406.1593   -15586.289     75.20995 
   30300    1026.5844    -164.1934   0.92887516   -163.26452   -28297.487     4.244418     4.244418     4.244418   -28297.487    480.69135   -30343.533   -55029.619    8227.6907    5561.4454   -13645.074     76.46355 
   30400    1235.7846   -164.38066    1.1181638   -163.26249    11254.697    4.2167166    4.2167166    4.2167166    11254.697    26107.015    10762.359   -3105.2821    2884.2379   -5342.8074   -6141.3505    74.976167 
   30500    1241.9547   -164.38902    1.1237467   -163.26527     9102.195    4.2208351    4.2208351    4.2208351     9102.195    20243.179    9766.7637   -2703.3574    6999.7431    4291.2768    149.45457    75.196072 
   30600    1212.0069   -164.35489    1.0966494   -163.25824   -25375.933    4.2435748    4.2435748    4.2435748   -25375.933   -4501.6435   -31822.905   -39803.251   -5499.2642   -8432.0147    1553.6228    76.417988 
   30700    1234.5933    -164.3729    1.1170859   -163.25581    19027.663    4.2155825    4.2155825    4.2155825    19027.663    26920.192    16039.398    14123.398    7621.2221   -1884.6093    7561.0399     74.91569 
   30800    1095.4206    -164.2538   0.99115958   -163.26264   -841.52808    4.2228584    4.2228584    4.2228584   -841.52808    -10783.64   -2175.0759    10434.131   -15840.251   -2844.9867    9366.1808     75.30426 
   30900    893.01045   -164.07241   0.80801462    -163.2644   -7110.5622    4.2341415    4.2341415    4.2341415   -7110.5622    1056.8595    -4482.573   -17905.973   -14726.911    8471.3768    6383.0857    75.909497 
   31000    868.91178   -164.05007   0.78620964   -163.26386    2979.4369    4.2248616    4.2248616    4.2248616    2979.4369    23099.168     -8878.36   -5282.4973   -14643.565    2769.5278    2900.8051    75.411479 
   31100    832.97472    -164.0189   0.75369303   -163.26521   -6294.4664     4.223041     4.223041     4.223041   -6294.4664    -7636.519   -5873.9496   -5372.9307   -22664.592    13078.169   -3457.2872     75.31403 
   31200    651.01002   -163.85656   0.58904754   -163.26751    5157.3232    4.2314498    4.2314498    4.2314498    5157.3232    19670.374    12073.928   -16272.332   -20132.873    9960.6368    -5599.385    75.764815 
   31300     703.7342   -163.89892    0.6367535   -163.26217    -6706.531    4.2336215    4.2336215    4.2336215    -6706.531     20538.13   -24037.776   -16619.947   -13867.871    17980.627   -11968.532    75.881532 
   31400    792.36061   -163.97747   0.71694453   -163.26053    2333.4868    4.2206952    4.2206952    4.2206952    2333.4868   -4211.0926    10129.845     1081.708   -2383.3048    8700.4149   -14442.411    75.188597 
   31500    622.68105    -163.8291    0.5634149   -163.26569   -5927.4219    4.2331313    4.2331313    4.2331313   -5927.4219    22514.879   -13340.754   -26956.391   -1153.1684     11860.97   -22463.473    75.855175 
   31600    531.58964   -163.74705   0.48099348   -163.26606   -745.26617    4.2280893    4.2280893    4.2280893   -745.26617    14927.885   -20585.436    3421.7526    8846.4254    9517.3725   -22699.345    75.584448 
   31700     550.8528   -163.76487   0.49842319   -163.26644    2078.9444    4.2226263    4.2226263    4.2226263    2078.9444    8468.5708    -8181.198    5949.4603    16136.457     -257.414   -17151.326    75.291844 
   31800    490.86038   -163.71133   0.44414079   -163.26719   -9160.9129    4.2306943    4.2306943    4.2306943   -9160.9129    32154.927   -44517.457   -15120.209    17235.546    2388.9483    -23429.35    75.724243 
   31900    455.42262   -163.67824   0.41207595   -163.26616    1613.7446    4.2315539    4.2315539    4.2315539    1613.7446    25978.884    -39476.97     18339.32    6121.3332   -4707.6665   -10918.874    75.770409 
   32000    650.77864   -163.85326   0.58883819   -163.26442   -3429.3418    4.2252447    4.2252447    4.2252447   -3429.3418    20126.464   -24433.785   -5980.7046    8852.7776   -853.12355   -4652.6808    75.431994 
   32100    880.24945    -164.0612    0.7964682   -163.26474   -286.19545    4.2218775    4.2218775    4.2218775   -286.19545    23670.738    -26369.42    1840.0952    4343.1651   -8506.0992   -8086.3528    75.251799 
   32200     886.7202   -164.06812   0.80232307   -163.26579    -7502.744    4.2373498    4.2373498    4.2373498    -7502.744    16553.728   -41345.022    2283.0623   -1216.6973   -3548.8456   -3242.5427     76.08218 
   32300    901.38306   -164.07864   0.81559033   -163.26305    6841.3667    4.2252922    4.2252922    4.2252922    6841.3667     25583.05   -12719.841    7660.8917    -9640.111    4184.8798    11992.678     75.43454 
   32400    1050.9117   -164.21121   0.95088697   -163.26032    5908.9011    4.2197211    4.2197211    4.2197211    5908.9011    5557.0586    4221.1622    7948.4825   -6490.0548   -1555.8697    5449.0422    75.136551 
   32500    1098.9135   -164.25588   0.99432004   -163.26156   -10897.461    4.2346433    4.2346433    4.2346433   -10897.461   -23824.835   -23210.804    14343.256   -4878.5256    5481.5637    1818.2615    75.936486 
   32600    900.44471   -164.07917   0.81474129   -163.26443    7514.5771    4.2225603    4.2225603    4.2225603    7514.5771   -6811.3161    6688.6229    22666.424   -13554.748    11000.348    13653.618    75.288313 
   32700    771.10298   -163.96524   0.69771018   -163.26753    11350.948    4.2253231    4.2253231    4.2253231    11350.948    4257.9886    17104.873    12689.981     -3926.88    18758.624    1431.7808    75.436196 
   32800     798.7384   -163.98644   0.72271529   -163.26373   -12428.503    4.2353387    4.2353387    4.2353387   -12428.503   -24584.642   -24542.914    11842.047   -502.75204    8606.2301   -2716.5779    75.973901 
   32900    698.27964    -163.8927   0.63181809   -163.26088   -8228.6115    4.2296953    4.2296953    4.2296953   -8228.6115   -8674.1234    -20411.71    4399.9993    5175.9652    12508.202   -5850.2812    75.670613 
   33000    456.52459   -163.67619   0.41307305   -163.26311    9415.9552    4.2237452    4.2237452    4.2237452    9415.9552    21237.762   -18267.489    25277.593    6627.3933     20496.92   -5693.4493    75.351713 
   33100    603.50395   -163.81079   0.54606306   -163.26473   -2220.0337    4.2288824    4.2288824    4.2288824   -2220.0337    24998.573   -36307.701    4649.0268    11970.307    14079.975   -12815.013    75.626992 
   33200    765.51479   -163.95343   0.69265387   -163.26078   -21632.062    4.2390659    4.2390659    4.2390659   -21632.062   -19765.153   -33956.197   -11174.836     14755.85    3756.9268   -19731.988    76.174657 
   33300     758.2922   -163.94559   0.68611872   -163.25947    10262.978    4.2176276    4.2176276    4.2176276    10262.978    37964.885   -10288.734    3112.7843    12920.957    3893.9554   -15966.626    75.024773 
   33400    769.53493   -163.96087   0.69629138   -163.26458     7072.886    4.2255067    4.2255067    4.2255067     7072.886    43610.697   -18806.068   -3585.9715    6965.5125    5943.8495   -19353.582    75.446031 
   33500    958.89268   -164.13014   0.86762625   -163.26251   -7290.9309    4.2373985    4.2373985    4.2373985   -7290.9309   -6996.7105   -4442.3904   -10433.692    1769.9072   -5238.2283   -11860.365    76.084803 
   33600    1136.4224    -164.2899    1.0282589   -163.26165    9203.4942    4.2151936    4.2151936    4.2151936    9203.4942    27487.493    -5521.165    5644.1543   -453.27311   -6935.1696   -16387.742    74.894959 
   33700    1018.9022   -164.18952   0.92192412   -163.26759    2944.5641    4.2305097    4.2305097    4.2305097    2944.5641    11079.267   -6123.3014    3877.7266   -12160.261   -1630.8425   -2129.0153    75.714328 
   33800    927.93449   -164.10024   0.83961463   -163.26063   -2413.8726    4.2393075    4.2393075    4.2393075   -2413.8726    -4120.861   -9566.3685    6445.6117   -16499.679    2067.1049    8842.9786    76.187684 
   33900    906.77681   -164.07667   0.82047071    -163.2562    6418.9152    4.2216911    4.2216911    4.2216911    6418.9152    5366.4375    -20379.15    34269.458   -20376.245   -2533.9325    5145.4759    75.241832 
   34000    858.58716   -164.03782    0.7768677   -163.26095    218.99817    4.2221345    4.2221345    4.2221345    218.99817    1118.2696   -13136.245     12674.97    -13918.26    1178.7057     4812.481    75.265544 
   34100    609.02009     -163.816   0.55105418   -163.26495   -8253.3915     4.239951     4.239951     4.239951   -8253.3915   -1372.4298   -43398.615     20010.87   -17035.348    11449.394    6424.9676    76.222379 
   34200    461.70417   -163.68041   0.41775963   -163.26265    8093.8998    4.2278049    4.2278049    4.2278049    8093.8998   -7480.9707   -2769.8467    34532.517   -23811.884    7345.5737    15680.086    75.569196 
   34300    533.13806    -163.7436   0.48239452    -163.2612    6227.2961     4.227115     4.227115     4.227115    6227.2961    -20592.71    7976.9015    31297.696   -9669.5401    1770.4779    3678.9642    75.532207 
   34400    636.10934   -163.83507    0.5755651    -163.2595   -22554.955    4.2376318    4.2376318    4.2376318   -22554.955    -22307.34   -40449.044   -4908.4825   -12674.612    16209.305   -5697.6119    76.097374 
   34500    592.10839    -163.7973   0.53575211   -163.26155    6788.1426    4.2216727    4.2216727    4.2216727    6788.1426   -20357.431    -1274.196    41996.055   -8042.8708    7955.6898   -1214.1838    75.240846 
   34600    556.06089   -163.76888   0.50313558   -163.26574    1149.7841    4.2296861    4.2296861    4.2296861    1149.7841   -40525.421    35045.231    8929.5429   -6443.1811    12488.162    4035.4672     75.67012 
   34700     671.8069   -163.87158     0.607865   -163.26371    115.14713    4.2299135    4.2299135    4.2299135    115.14713   -14559.882    17333.843   -2428.5191    5.3815875    8713.9709   -6527.8868    75.682326 
   34800    702.38114   -163.89769   0.63552921   -163.26216   -13979.854     4.233007     4.233007     4.233007   -13979.854   -41090.784   -12949.231    12100.454    2201.7628    3963.0353   -6012.6288    75.848493 
   34900    550.53405    -163.7628   0.49813478   -163.26467    1660.8798    4.2238514    4.2238514    4.2238514    1660.8798   -31413.744    42744.952   -6348.5686   -2466.0616    1920.6098    5894.6643    75.357396 
   35000    583.39529   -163.79638   0.52786832   -163.26852    17835.714    4.2252247    4.2252247    4.2252247    17835.714   -13059.707    56897.238    9669.6104    3421.1267    4752.7597    6730.7676    75.430925 
   35100      857.943   -164.03726   0.77628486   -163.26098    -35173.22    4.2438338    4.2438338    4.2438338    -35173.22    -49916.09   -25595.934   -30007.636    8440.4042   -979.32283    1391.5198     76.43198 
   35200    836.58669   -164.01295   0.75696122   -163.25599    8593.7554    4.2175677    4.2175677    4.2175677    8593.7554   -13789.183    23738.875    15831.575    5685.9805    1543.8218     8217.539    75.021579 
   35300    669.88386   -163.86809   0.60612499   -163.26197    15793.213    4.2285692    4.2285692    4.2285692    15793.213   -9797.3591    52592.558    4584.4412   -1173.2077    7858.9488    13869.941    75.610187 
   35400    874.91977   -164.04894   0.79164579    -163.2573    -9361.408    4.2394505    4.2394505    4.2394505    -9361.408    -16815.27    874.57319   -12143.527   -710.54421    1946.3292    7502.8972    76.195394 
   35500    1158.9281   -164.29914    1.0486225   -163.25051   -9338.4726    4.2269302    4.2269302    4.2269302   -9338.4726    -17317.73   -7531.8336   -3165.8547    7289.8499    65.908774    -4456.087    75.522305 
   35600    1087.9677   -164.23598   0.98441604   -163.25157    3278.6561    4.2272544    4.2272544    4.2272544    3278.6561   -7990.2936     20001.33   -2175.0679     1067.019    927.17351   -2327.5675    75.539681 
   35700    988.05689   -164.14916   0.89401464   -163.25515    10366.721    4.2284391    4.2284391    4.2284391    10366.721    5168.0845    10842.621    15089.457   -7292.1325    3045.1586   -61.983461    75.603209 
   35800    1132.8721   -164.28023    1.0250465   -163.25518   -10672.047    4.2366178    4.2366178    4.2366178   -10672.047   -3903.9804   -10117.873   -17994.287   -1565.5321    469.65335   -12929.661    76.042758 
   35900    1221.1404   -164.35765    1.1049135   -163.25274    3076.6166    4.2237721    4.2237721    4.2237721    3076.6166    15254.403    -2442.806   -3581.7474    6545.2309   -3356.6221   -19527.377    75.353155 
   36000    1001.1209    -164.1618   0.90583523   -163.25597    10527.232    4.2265037    4.2265037    4.2265037    10527.232   -1037.4989    31377.213    1241.9812   -711.96511   -4441.2719   -9039.0332    75.499448 
   36100    1047.9287   -164.20389   0.94818792    -163.2557   -14470.047    4.2389207    4.2389207    4.2389207   -14470.047   -14099.768   -15063.979   -14246.394   -5768.3059   -779.15781    -9514.958    76.166827 
   36200    1158.6371   -164.30278    1.0483592   -163.25442    8885.0544     4.220951     4.220951     4.220951    8885.0544    19142.233   -7930.1649    15443.095    541.49756   -6192.1728   -9440.3175    75.202269 
   36300    1070.0027   -164.22702   0.96816096   -163.25886    4794.0223    4.2290278    4.2290278    4.2290278    4794.0223   -1375.7463    30804.786   -15046.973    7788.6923   -5762.9258    -2956.634    75.634791 
   36400    1117.2489   -164.26691    1.0109103   -163.25599    -12624.35    4.2357535    4.2357535    4.2357535    -12624.35   -29445.779    3003.2731   -11430.545   -1202.8976    -11351.73    10890.123    75.996226 
   36500     1102.538   -164.25175   0.99759951   -163.25416    13648.481      4.21847      4.21847      4.21847    13648.481   -3.5196479    11565.034    29383.928    402.90286   -2441.5063    2450.0887    75.069738 
   36600    957.13152   -164.12813   0.86603272   -163.26209    908.65515    4.2267922    4.2267922    4.2267922    908.65515    6340.2135    17418.811   -21033.059    9639.1792    2283.0514    6102.9152    75.514909 
   36700    895.18529   -164.07134   0.80998247   -163.26135   -8691.7646    4.2372039    4.2372039    4.2372039   -8691.7646   -34872.055    22954.084   -14157.323    4241.4157   -1464.8782    5792.1143     76.07432 
   36800     917.1006   -164.08734   0.82981189   -163.25753    414.77592    4.2278667    4.2278667    4.2278667    414.77592    -21442.07    10072.826    12613.572   -8988.6429    9794.2753    7121.5811    75.572512 
   36900    780.68916   -163.96665   0.70638396   -163.26027    -956.4674    4.2274886    4.2274886    4.2274886    -956.4674    10961.351    3648.2361   -17478.989   -5536.0388    12841.525    -3299.982    75.552236 
   37000    527.62713   -163.74182   0.47740812   -163.26441    3868.8269      4.23147      4.23147      4.23147    3868.8269   -19514.321    45910.149   -14789.348    167.38016     8028.407   -6133.5751    75.765902 
   37100    618.65454   -163.82237   0.55977163    -163.2626       -471.7    4.2306742    4.2306742    4.2306742       -471.7   -3590.7763    17678.268   -15502.592   -7963.2759    11040.256   -6258.8155    75.723161 
   37200    553.81248   -163.76456   0.50110117   -163.26346   -15594.963    4.2316096    4.2316096    4.2316096   -15594.963   -23929.993    12235.318   -35090.214   -7503.1199    21801.792   -11738.726    75.773404 
   37300     277.3298   -163.51708   0.25093384   -163.26615    11427.293    4.2202337    4.2202337    4.2202337    11427.293    13719.191    30940.505   -10377.817    4326.0575    19102.939   -18167.956    75.163934 
   37400    365.23362   -163.59942   0.33047105   -163.26895   -3610.6852    4.2323888    4.2323888    4.2323888   -3610.6852    19374.159    3945.4347    -34151.65     2805.204    14090.148   -16049.459    75.815268 
   37500    438.43674   -163.66087   0.39670678   -163.26416   -16295.635     4.234091     4.234091     4.234091   -16295.635   -19545.564    13596.623   -42937.965    -2187.747    16154.212   -9259.7114    75.906779 
   37600    370.53733   -163.59671   0.33526996   -163.26144    7477.6562    4.2165125    4.2165125    4.2165125    7477.6562    15177.541     22925.99   -15670.562    3901.0359     7165.345   -13176.418     74.96528 
   37700    296.54464   -163.53436   0.26831982   -163.26604   -1459.2853     4.234591     4.234591     4.234591   -1459.2853    21775.189    15456.292   -41609.337    10435.461    3942.6132   -10501.309    75.933675 
   37800    399.44604   -163.62147   0.36142717   -163.26004   -10102.731    4.2357093    4.2357093    4.2357093   -10102.731    3350.8976   -7889.5077   -25769.584    1077.0285    3509.9741   -1918.9562    75.993849 
   37900    510.89017   -163.71688   0.46226416   -163.25461   -4381.1915    4.2220914    4.2220914    4.2220914   -4381.1915    -9431.151    11694.452   -15406.875    80.640756   -6748.2666   -5850.9739    75.263238 
   38000    449.74827   -163.66556   0.40694168   -163.25861   -9193.3164    4.2303225    4.2303225    4.2303225   -9193.3164   -1718.7534    15466.124    -41327.32    9631.1517   -10819.529   -9318.6972    75.704282 
   38100    384.74465   -163.61062   0.34812504    -163.2625    3986.3688    4.2275681    4.2275681    4.2275681    3986.3688     18606.07    3156.3052   -9803.2691    2485.5917   -14035.799      4573.61      75.5565 
   38200    602.24799   -163.80791   0.54492664   -163.26298   -6188.7279    4.2272706    4.2272706    4.2272706   -6188.7279   -8637.2888    13665.225    -23594.12   -4984.9502   -21671.031   -2108.0539    75.540553 
   38300    707.72875   -163.90161   0.64036785   -163.26124   -12529.478    4.2308509    4.2308509    4.2308509   -12529.478   -20838.735    13240.539   -29990.237   -3508.3448   -23039.679     4878.289    75.732651 
   38400    561.48046   -163.77017   0.50803932   -163.26213    8592.6891    4.2262959    4.2262959    4.2262959    8592.6891    27925.092    12060.572   -14207.597    5608.0347   -15514.788     6376.569     75.48831 
   38500    719.71892   -163.91474    0.6512168   -163.26353    2890.0942    4.2291316    4.2291316    4.2291316    2890.0942    13671.376    1671.3511   -6672.4449   -2701.9415   -16055.155    3199.2175     75.64036 
   38600    1007.1309   -164.17114   0.91127322   -163.25986   -16712.191    4.2313404    4.2313404    4.2313404   -16712.191   -23891.648   -12694.227   -13550.699   -3228.0001   -10954.761    9488.1997    75.758943 
   38700    916.21179   -164.08798   0.82900768   -163.25897     6601.859    4.2268094    4.2268094    4.2268094     6601.859     20564.03    4697.6868   -5456.1401   -352.74646    3114.0407    4546.1251    75.515831 
   38800    958.98965   -164.12728   0.86771399   -163.25957    6178.8361    4.2292491    4.2292491    4.2292491    6178.8361    16607.341    -3276.201    5205.3681    9793.0966    8285.8497    2880.3985    75.646664 
   38900    1155.2975   -164.30346    1.0453374   -163.25812   -7241.8406    4.2300498    4.2300498    4.2300498   -7241.8406   -6701.4373   -7351.5458   -7672.5387   -1682.0297    3702.8388    9428.9228    75.689638 
   39000    1223.7925   -164.36446    1.1073132   -163.25715    5883.6124    4.2237906    4.2237906    4.2237906    5883.6124      330.023    -3092.738    20413.552    1100.8175    10938.093     8312.382    75.354142 
   39100    1205.7791   -164.34993    1.0910143   -163.25891    5087.3164    4.2279635    4.2279635    4.2279635    5087.3164    20639.914   -4579.1769   -798.78757    4006.8898    11964.595   -2380.8314    75.577705 
   39200    1234.9962   -164.37396    1.1174505    -163.2565   -2726.1036    4.2322006    4.2322006    4.2322006   -2726.1036    665.44221    5507.8439   -14351.597    8262.4961    2615.9671    6170.3278    75.805154 
   39300    1251.5953   -164.38598    1.1324698   -163.25351     2937.382    4.2272153    4.2272153    4.2272153     2937.382   -17128.535    8918.8419    17021.839   -6603.0418    1344.0527   -1482.4001    75.537586 
   39400    1267.6691   -164.40061    1.1470137   -163.25359   -3340.0553    4.2306546    4.2306546    4.2306546   -3340.0553     4053.145   -9401.3599   -4671.9511   -6418.5191    2595.6688   -1606.3421    75.722113 
   39500     1206.621    -164.3475     1.091776   -163.25572    5552.7262     4.226999     4.226999     4.226999    5552.7262    7107.1993    16139.282   -6588.3027    3366.9416   -7061.7803    -6879.623    75.525991 
   39600    1065.4426   -164.22256   0.96403487   -163.25853    10920.287    4.2271847    4.2271847    4.2271847    10920.287    -19867.53    39544.016    13084.375    3349.2645   -13327.013    5545.3903    75.535948 
   39700    1128.5947   -164.27887    1.0211762   -163.25769   -8914.1445    4.2339119    4.2339119    4.2339119   -8914.1445   -31096.128   -5079.2592    9432.9533   -5974.5743   -7145.0361   -6493.0192    75.897149 
   39800     1127.075   -164.27685    1.0198011   -163.25705   -6260.3901     4.230195     4.230195     4.230195   -6260.3901    -25466.53    11071.326   -4385.9668   -5796.5544   -5170.0309   -9073.7353    75.697437 
   39900     812.5663   -163.99375   0.73522706   -163.25853    6373.4665    4.2231225    4.2231225    4.2231225    6373.4665    666.20012    24035.892   -5581.6926    4760.5316   -11598.503   -3058.3385    75.318391 
   40000    657.17384   -163.85439    0.5946247   -163.25976    4489.9267    4.2337386    4.2337386    4.2337386    4489.9267   -2750.0712    30154.865   -13935.014    6183.5033   -10242.478    2563.4899    75.887829 
   40100    788.03505   -163.96819   0.71303067   -163.25516   -3767.5868    4.2338474    4.2338474    4.2338474   -3767.5868   -16187.835    7543.9109   -2658.8364   -638.24446   -7453.6384   -3888.8624    75.893676 
   40200    744.76483     -163.931   0.67387887   -163.25713   -4380.5065    4.2193886    4.2193886    4.2193886   -4380.5065   -11985.303    13481.738   -14637.954   -4468.7636    1809.8594    -276.8973    75.118788 
   40300    458.65151   -163.68132   0.41499752   -163.26632   -7644.8989    4.2300501    4.2300501    4.2300501   -7644.8989   -19997.524    28381.132   -31318.304    3738.7143   -1703.7748    6694.8708    75.689658 
   40400    360.34019   -163.59113   0.32604338   -163.26508   -3676.2581    4.2343019    4.2343019    4.2343019   -3676.2581    2351.9759   -6587.4422    -6793.308    5944.2051   -5149.3975    8439.4885    75.918125 
   40500     458.6003   -163.67686   0.41495119   -163.26191   -2616.6881    4.2256798    4.2256798    4.2256798   -2616.6881    22132.702    8269.6388   -38252.405   -3006.6684    4123.4007    3543.1185    75.455304 
   40600    431.79923   -163.65409   0.39070101   -163.26339   -9182.6447    4.2315792    4.2315792    4.2315792   -9182.6447   -16324.368     10992.08   -22215.646   -6475.8871    7822.4302    12916.761    75.771768 
   40700    416.20363    -163.6415   0.37658979   -163.26491   -7909.3228    4.2322475    4.2322475    4.2322475   -7909.3228   -11415.464    1632.9293   -13945.434     1542.383   -3234.6319    13078.766    75.807674 
   40800    464.38088   -163.68388   0.42018158    -163.2637    2004.6386    4.2243186    4.2243186    4.2243186    2004.6386    38934.097    11413.474   -44333.655    2062.7954    3357.4329    12906.682    75.382408 
   40900       425.27   -163.64821   0.38479323   -163.26341   -791.02463    4.2336063    4.2336063    4.2336063   -791.02463    14006.494   -13764.457   -2615.1108   -2855.2023    11727.509    21503.005    75.880713 
   41000    389.63253   -163.61225    0.3525477    -163.2597   -11082.837    4.2357583    4.2357583    4.2357583   -11082.837    -13089.59    3259.0534   -23417.976   -3694.4804    6621.2188    23951.157    75.996486 
   41100    535.06998   -163.74095   0.48414256   -163.25681    1826.7227    4.2197125    4.2197125    4.2197125    1826.7227    7975.3389    15549.773   -18044.943    3567.2001    1795.5819      28614.2     75.13609 
   41200    631.37423   -163.83193   0.57128067   -163.26065   -5839.1752    4.2277187    4.2277187    4.2277187   -5839.1752    22643.371   -21086.001   -19074.895    6071.1564    2837.5412    25566.737    75.564576 
   41300    559.37999   -163.76712   0.50613877   -163.26098    7850.4264    4.2364294    4.2364294    4.2364294    7850.4264     15321.53    16410.471   -8180.7217   -3826.8102     9133.796     28974.78    76.032615 
   41400     665.1227   -163.85892   0.60181699    -163.2571    7254.5293    4.2284845    4.2284845    4.2284845    7254.5293    12037.614    613.50109    9112.4734   -39.296531    4531.6258     35616.58    75.605648 
   41500    970.66136   -164.13227    0.8782748     -163.254   -7016.9161    4.2246276    4.2246276    4.2246276   -7016.9161    8694.8195   -8038.0692   -21707.499    2284.0154    -4444.006    26448.853    75.398949 
   41600    998.66887   -164.15909   0.90361658   -163.25547    4062.1467    4.2293913    4.2293913    4.2293913    4062.1467   -3043.4514     3822.921     11406.97    3034.0006   -5598.8299    16235.409    75.654298 
   41700    851.57193   -164.02572   0.77052018    -163.2552   -18303.907    4.2361951    4.2361951    4.2361951   -18303.907   -25725.827   -7323.2886   -21862.605   -7487.2162   -823.59619    20480.907    76.020001 
   41800    870.33738   -164.04164   0.78749955   -163.25414    22749.881    4.2199928    4.2199928    4.2199928    22749.881    16523.893    34621.735    17104.013   -16073.065    1235.9158    10569.922    75.151061 
   41900    1020.4428   -164.18301   0.92331805   -163.25969   -5056.5219    4.2326522    4.2326522    4.2326522   -5056.5219    10343.935   -20144.338   -5369.1628   -2952.9095   -4063.4128   -7117.3626    75.829423 
   42000    1000.5466   -164.16142   0.90531555    -163.2561    -17752.98    4.2359192    4.2359192    4.2359192    -17752.98   -16549.198   -13690.551   -23019.192     906.5189   -3387.4875    -9362.793    76.005149 
   42100    931.24961   -164.09576   0.84261422   -163.25315    19850.734    4.2191247    4.2191247    4.2191247    19850.734   -3991.1031    31945.439    31597.864   -2591.1153    4683.4883   -7405.2693    75.104695 
   42200    944.79158   -164.11261   0.85486728   -163.25775   -9767.3088    4.2348884    4.2348884    4.2348884   -9767.3088     658.1836   -13620.321   -16339.789    -8983.143    13096.639   -20045.219    75.949672 
   42300    941.28621   -164.10656   0.85169555   -163.25487   -1488.8128    4.2341645    4.2341645    4.2341645   -1488.8128    18023.587   -9589.5128   -12900.513    6693.9728    2275.8318   -21313.812     75.91073 
   42400    1006.6128   -164.16346   0.91080438   -163.25266     5688.376    4.2256064    4.2256064    4.2256064     5688.376   -3796.7659    23829.971   -2968.0769    11349.856    70.272639    -17827.56    75.451369 
   42500    1086.3968   -164.23612   0.98299466   -163.25312   -1925.5927     4.230414     4.230414     4.230414   -1925.5927   -12992.015    6865.2505    349.98635   -1453.2622    6315.8469   -12911.033     75.70919 
   42600    1132.7451   -164.27786    1.0249316   -163.25293   -4378.1441    4.2364602    4.2364602    4.2364602   -4378.1441    1347.3733   -15303.875    822.06965    2156.0028    8501.1692   -19984.414    76.034269 
   42700    1145.4276    -164.2912     1.036407   -163.25479    5710.4991    4.2253012    4.2253012    4.2253012    5710.4991    21965.436   -13211.244     8377.305    9248.1098   -534.90778   -14675.085    75.435021 
   42800    1149.2755   -164.29697    1.0398887   -163.25708    17246.928    4.2189193    4.2189193    4.2189193    17246.928    6257.0238    16437.523    29046.238    5539.3554    324.41315   -3071.3584    75.093725 
   42900    1195.5345   -164.33572    1.0817447   -163.25397   -35143.208    4.2485951    4.2485951    4.2485951   -35143.208   -44231.128   -33108.582   -28089.915   -5104.2266    5027.0974   -5317.7519    76.689524 
   43000    1198.8678   -164.33862    1.0847608   -163.25386    12146.788     4.222251     4.222251     4.222251    12146.788    29678.572   -7611.8632    14373.656   -7350.8763    6.4689566   -8073.3329    75.271772 
   43100     1055.186   -164.20981   0.95475445   -163.25506    18030.213    4.2136745    4.2136745    4.2136745    18030.213    31489.941    9122.1251    13478.572    1004.0966   -7461.3943   -1590.3071    74.814012 
   43200    955.71258   -164.12098   0.86474883   -163.25624   -21571.895      4.24391      4.24391      4.24391   -21571.895   -34884.993   -22280.427   -7550.2647   -868.73754   -5072.4876    7156.0545    76.436095 
   43300    926.07773   -164.09346   0.83793459   -163.25553    8550.8798    4.2223864    4.2223864    4.2223864    8550.8798    837.28348    12283.897    12531.459    -7176.713    5491.5129    2077.7328    75.279014 
   43400    831.22791   -164.01062   0.75211248   -163.25851    -3014.202    4.2237631    4.2237631    4.2237631    -3014.202    27919.625   -28057.684   -8904.5469   -4758.6954    4486.2654    9424.0967    75.352674 
   43500    581.96926   -163.78569   0.52657801   -163.25911   -4031.9803    4.2367899    4.2367899    4.2367899   -4031.9803    7712.6079    -10626.49   -9182.0589    7996.0487    2073.6464     17041.06    76.052026 
   43600     413.0005   -163.63113   0.37369153   -163.25744    14560.344    4.2298294    4.2298294    4.2298294    14560.344    11466.664    29902.101    2312.2669    14251.429    3568.4233    23880.595     75.67781 
   43700    618.61076    -163.8162   0.55973201   -163.25647   -3211.7991    4.2257247    4.2257247    4.2257247   -3211.7991    19802.695   -23937.072   -5501.0201    5239.6867    3212.0399    29539.983    75.457709 
   43800    659.32304   -163.85667   0.59656934    -163.2601    -15473.26    4.2314354    4.2314354    4.2314354    -15473.26   -7118.9802   -21990.924   -17309.875    3028.0684    6269.7645     32753.43    75.764044 
   43900    505.39624   -163.71812   0.45729314   -163.26082   -1805.8664    4.2344558    4.2344558    4.2344558   -1805.8664   -7617.1348   -8058.4318    10257.967    8359.3704    3044.1984    41294.667      75.9264 
   44000    463.73364   -163.67634   0.41959594   -163.25675    6193.5655     4.226799     4.226799     4.226799    6193.5655     43208.22   -12091.199   -12536.324    14120.183   -2131.2261    45109.453    75.515273 
   44100    493.92903   -163.70245   0.44691737   -163.25554    11.025999    4.2297663    4.2297663    4.2297663    11.025999    50557.776   -36997.498   -13527.199    2270.6721   -5207.7628    36270.664    75.674426 
   44200    593.07125     -163.792   0.53662333   -163.25538   -6224.7535    4.2322768    4.2322768    4.2322768   -6224.7535     15889.83   -15776.096   -18787.995   -1386.0158   -849.09757    39297.763    75.809249 
   44300    644.05696   -163.84001   0.58275627   -163.25725   -5719.9599    4.2230545    4.2230545    4.2230545   -5719.9599    5709.9199   -7941.3015   -14928.498    4117.5036   -3412.7024    47471.404    75.314753 
   44400    578.46258   -163.78566    0.5234051   -163.26226    -503.9797    4.2303326    4.2303326    4.2303326    -503.9797    23016.293   -10108.455   -14419.778    611.33539   -13108.169    38882.781    75.704824 
   44500     532.8396   -163.74299   0.48212447   -163.26087    3594.1767     4.231846     4.231846     4.231846    3594.1767    46930.078   -8698.9455   -27448.602   -6033.3199   -9597.9226    32406.133    75.786103 
   44600    590.06955   -163.79155   0.53390733   -163.25764   -572.27473    4.2224521    4.2224521    4.2224521   -572.27473     26276.29   -13958.315     -14034.8   -6645.3453   -2320.7157    35955.542    75.282526 
   44700    568.94668   -163.77464   0.51479492   -163.25985   -1618.5855    4.2264061    4.2264061    4.2264061   -1618.5855    1479.7698    14808.246   -21143.773      1722.74   -6450.1224    26972.401    75.494215 
   44800    512.14273     -163.725    0.4633975    -163.2616    1301.7065     4.231156     4.231156     4.231156    1301.7065    33588.645   -12932.707   -16750.818    1606.2955   -6189.2677    17762.577    75.749036 
   44900    543.83805   -163.75092    0.4920761   -163.25884   -2009.3342    4.2307305    4.2307305    4.2307305   -2009.3342    44860.312   -26012.177   -24876.137    1402.3202   -780.69779    15885.344    75.726184 
   45000    660.77805   -163.85457   0.59788587   -163.25668   -1964.1647    4.2238735    4.2238735    4.2238735   -1964.1647    3926.1777    11274.882   -21093.554    503.36655    7424.1753    6650.1863     75.35858 
   45100    626.92205    -163.8266   0.56725225   -163.25935   -3573.1496    4.2290338    4.2290338    4.2290338   -3573.1496    12185.679   -15710.009   -7195.1189    9729.4502   -981.74062   -1369.3633    75.635113 
   45200    489.20047   -163.70338   0.44263887   -163.26074   -4053.4045    4.2336451    4.2336451    4.2336451   -4053.4045    31648.267   -10925.841   -32882.639    2632.2163     2335.849   -8705.0192      75.8828 
   45300    534.51133    -163.7426   0.48363708   -163.25896   -530.88436    4.2238776    4.2238776    4.2238776   -530.88436    38125.108    -9840.603   -29877.158    4432.9665    9959.1906   -12240.708    75.358802 
   45400    689.88828   -163.88351   0.62422542   -163.25929   -3990.2342    4.2268786    4.2268786    4.2268786   -3990.2342    5866.8687   -12718.548   -5119.0236    4500.1012      3038.51   -13571.354    75.519536 
   45500    684.09154   -163.87824    0.6189804   -163.25926   -2628.6158    4.2336541    4.2336541    4.2336541   -2628.6158    19910.957   -7149.4349    -20647.37    664.06996    466.98693   -16186.277    75.883283 
   45600    723.10437   -163.91393   0.65428003   -163.25965    4161.5854    4.2249902    4.2249902    4.2249902    4161.5854    36726.575   -3763.2358   -20478.583   -12041.594    400.43267   -21684.683    75.418366 
   45700    979.51377   -164.14553   0.88628465   -163.25924    3466.9643    4.2226151    4.2226151    4.2226151    3466.9643     7250.887    5714.9641   -2564.9581   -11483.251     2600.301   -14954.045    75.291245 
   45800    990.15708   -164.15459   0.89591494   -163.25868   -14174.399    4.2340194    4.2340194    4.2340194   -14174.399    1332.5179   -20738.403   -23117.312   -9725.6727   -4798.3753   -16087.301    75.902929 
   45900    831.30024   -164.01052   0.75217792   -163.25834    11529.061    4.2262443    4.2262443    4.2262443    11529.061    37039.546    16825.023   -19277.386   -15384.335   -8673.2067   -18609.409    75.485545 
   46000    1018.6195   -164.17907   0.92166829    -163.2574    9940.6901    4.2227982    4.2227982    4.2227982    9940.6901    10118.713     13469.55    6233.8071   -14813.771    39.098816   -8735.6216     75.30104 
   46100    1300.2884   -164.43299    1.1765282   -163.25647   -18468.314    4.2334689    4.2334689    4.2334689   -18468.314    -22782.97   -9158.6677   -23463.304   -315.83207   -1974.0778   -3703.7992    75.873327 
   46200     1185.208   -164.32832    1.0724011   -163.25592    9967.3712    4.2234201    4.2234201    4.2234201    9967.3712    23541.356    15481.439   -9120.6809   -1703.0476    -3490.906    1567.0311    75.334318 
   46300     1007.535    -164.1678   0.91163885   -163.25616    15629.761    4.2275831    4.2275831    4.2275831    15629.761    24517.943    15308.541    7062.7984   -10881.407   -7186.0722   -1458.6161    75.557305 
   46400    1108.2567   -164.25427     1.002774   -163.25149   -7208.3383     4.235277     4.235277     4.235277   -7208.3383      -458.48      4184.59   -25351.125    2848.9352   -2640.6448    7595.8723    75.970581 
   46500    1181.1206   -164.31609    1.0687027   -163.24738   -8985.7353    4.2258556    4.2258556    4.2258556   -8985.7353   -3117.6501   -1997.3843   -21842.171    7631.7532    2629.8687      15911.6    75.464721 
   46600    1021.2814   -164.17471   0.92407691   -163.25063    11745.199    4.2223581    4.2223581    4.2223581    11745.199     40726.26   -4019.9472   -1470.7173    5536.5048    380.30632    16467.435    75.277503 
   46700    995.06914   -164.15513   0.90035947   -163.25477   -1951.0287    4.2332584    4.2332584    4.2332584   -1951.0287    15595.479   -3266.0599   -18182.505   -605.72587   -716.19101    18977.052    75.862009 
   46800    1098.8032   -164.24978   0.99422026   -163.25556   -87.971739    4.2288459    4.2288459    4.2288459   -87.971739    3025.4612   -1099.6323   -2189.7441    6733.8023    2938.1286    15786.625    75.625031 
   46900    1123.4614    -164.2729    1.0165315   -163.25636    6921.4583    4.2173312    4.2173312    4.2173312    6921.4583    21059.401   -4556.5196     4261.493    7852.0309    7240.2367    20181.899    75.008954 
   47000    863.51906   -164.04559   0.78133019   -163.26426   -9450.9779    4.2310069    4.2310069    4.2310069   -9450.9779   -203.26488   -6586.7768   -21562.892   -8231.9988    4778.9974    8462.4476    75.741028 
   47100    606.48838   -163.81499   0.54876343   -163.26623    6961.8975    4.2286114    4.2286114    4.2286114    6961.8975    16550.103   -2413.5966    6749.1864   -8688.7007   -5037.4792   -3298.7466    75.612451 
   47200    621.52622   -163.82708   0.56236999   -163.26471    4033.4481    4.2204482    4.2204482    4.2204482    4033.4481    5450.7971   -4169.0495    10818.597   -12240.725   -5256.4031   -9233.3967    75.175395 
   47300    718.22205   -163.91533    0.6498624   -163.26547   -20752.539    4.2354901    4.2354901    4.2354901   -20752.539   -22565.246   -25441.153   -14251.219   -8457.7038    998.92486   -6420.9751    75.982053 
   47400    548.23736   -163.75776   0.49605669    -163.2617   -1907.8906    4.2329583    4.2329583    4.2329583   -1907.8906   -3992.5846   -7942.1146    6211.0274     -13844.7   -4975.1286   -11708.519    75.845878 
   47500     282.7917   -163.51365   0.25587587   -163.25777    12955.806    4.2229713    4.2229713    4.2229713    12955.806    13822.554   -4054.7859    29099.649   -10832.237   -9989.8647   -23769.422      75.3103 
   47600     314.1084   -163.54148   0.28421188   -163.25727   -3151.0809    4.2311113    4.2311113    4.2311113   -3151.0809   -6931.1205   -6893.2797    4371.1576   -14810.256   -10728.486   -20009.171    75.746637 
   47700    387.27571   -163.60558    0.3504152   -163.25516   -14155.514    4.2357874    4.2357874    4.2357874   -14155.514   -8211.0807   -21454.867   -12800.594   -11194.171   -6064.2546    -16424.85     75.99805 
   47800    327.58923   -163.55515   0.29640962   -163.25874    -9788.012    4.2211852    4.2211852    4.2211852    -9788.012   -11876.525   -16197.373   -1290.1381   -6539.2133   -15626.283   -20420.395    75.214787 
   47900     309.3922   -163.54659   0.27994457   -163.26664    4906.0303    4.2194481    4.2194481    4.2194481    4906.0303   -5041.5125   -4423.4017    24183.005   -16535.443   -22517.543   -20016.862    75.121969 
   48000    455.72912    -163.6825   0.41235329   -163.27014   -9638.7849    4.2348738    4.2348738    4.2348738   -9638.7849   -7148.5997   -3081.1171   -18686.638   -10296.981   -12700.835   -12001.767    75.948888 
   48100     681.8997   -163.88536   0.61699718   -163.26837   -5527.8993     4.221486     4.221486     4.221486   -5527.8993   -11310.772    -5994.287    721.36113    1219.0858   -10849.931    4863.1468    75.230867 
   48200    725.60589   -163.92368   0.65654346   -163.26714    7858.4046    4.2204068    4.2204068    4.2204068    7858.4046    5797.4089    8897.5322    8880.2726   -145.85402   -10638.757    8459.2909    75.173183 
   48300    650.66312   -163.85493   0.58873367    -163.2662   -5249.4193    4.2350363    4.2350363    4.2350363   -5249.4193    6540.9237    4089.9442   -26379.126   -5343.0698   -3529.2531    16931.168    75.957632 
   48400    763.28955   -163.95037   0.69064042   -163.25973   -1203.2594    4.2258924    4.2258924    4.2258924   -1203.2594    10343.732   -463.38845   -13490.122   -752.77295   -2372.6187      21911.1    75.466689 
   48500    984.02357   -164.14519   0.89036521   -163.25482    -1766.583    4.2234882    4.2234882    4.2234882    -1766.583    1893.1948    9481.4781   -16674.422    6667.4453    4548.5957    25914.225    75.337961 
   48600    940.77107   -164.10584   0.85122944   -163.25461   -8319.3031    4.2315226    4.2315226    4.2315226   -8319.3031    -7335.083    3580.6775   -21203.504    2498.7295    5696.6201    20688.491    75.768727 
   48700    850.28523   -164.02396   0.76935595   -163.25461    9447.8515    4.2279042    4.2279042    4.2279042    9447.8515    28199.706    6900.3745   -6756.5261   -3893.2235    7348.8634    15841.949    75.574524 
   48800    926.89316   -164.09458   0.83867241   -163.25591    5860.2864    4.2238612    4.2238612    4.2238612    5860.2864    33716.139    5495.2638   -21630.543    1795.9889    14218.017    16265.779    75.357921 
   48900    1050.3179   -164.20763    0.9503497   -163.25728   -6176.3228    4.2253338    4.2253338    4.2253338   -6176.3228   -4402.3266     -9294.58    -4832.062    5798.2792    15873.246    11020.647    75.436766 
   49000    984.47177   -164.15038   0.89077074   -163.25961   -2837.4246    4.2313178    4.2313178    4.2313178   -2837.4246     12994.34   -2982.7405   -18523.873   -2954.0418    11886.488    6295.3182    75.757728 
   49100    1014.9941   -164.17723     0.918388   -163.25884     4336.177    4.2220381    4.2220381    4.2220381     4336.177    18853.908    3981.3099   -9826.6874    -7080.029    10623.965   -1994.7123    75.260386 
   49200    1178.8763   -164.32497     1.066672    -163.2583    4862.4554    4.2216641    4.2216641    4.2216641    4862.4554    8385.5608    1224.3603    4977.4451   -3662.9041    2915.2824    4005.7004    75.240387 
   49300    1171.8566   -164.31755    1.0603205   -163.25723   -13574.382    4.2342326    4.2342326    4.2342326   -13574.382   -15357.682   -16564.002   -8801.4618   -2630.6528   -6104.3115   -7517.2645    75.914397 
   49400    1044.9055   -164.19999   0.94545243   -163.25453    5230.5446     4.223373     4.223373     4.223373    5230.5446    641.53241    6660.3393    8389.7622   -10773.236   -12430.655    -6050.665    75.331794 
   49500    1039.8862   -164.19705   0.94091089   -163.25614    12503.175     4.221335     4.221335     4.221335    12503.175    16384.968    20401.728    722.82759   -13064.918   -14010.199   -7991.5087    75.222791 
   49600    1161.5695   -164.30969    1.0510125   -163.25868    -11840.29    4.2294891    4.2294891    4.2294891    -11840.29   -22142.515   -10743.709   -2634.6458   -1993.4728   -15421.195    -1156.167    75.659544 
   49700     1125.593   -164.27984    1.0184602   -163.26138    1847.9751    4.2277406    4.2277406    4.2277406    1847.9751   -10889.967    14081.468    2352.4248   -367.97889   -16353.872   -4466.8285    75.565749 
   49800    994.21234   -164.16091   0.89958422   -163.26133    8361.0464    4.2249688    4.2249688    4.2249688    8361.0464    19873.637    10876.005   -5666.5029   -2000.1736   -12220.379   -1605.4889    75.417222 
   49900    876.88789   -164.05547   0.79342659   -163.26204    -1399.301    4.2269368    4.2269368    4.2269368    -1399.301   -2227.7611    8583.5341   -10553.676    -2963.012   -1422.0804     12652.63    75.522656 
   50000    762.26315   -163.95346   0.68971172   -163.26374   -4661.0785    4.2279007    4.2279007    4.2279007   -4661.0785   -21907.663     15805.47   -7881.0422    8101.3806    3534.8776    8162.1755    75.574335 
   50100    690.53964   -163.88854   0.62481478   -163.26372   -6887.8871    4.2235745    4.2235745    4.2235745   -6887.8871   -1092.6731   -647.40035   -18923.588    1551.1123    8708.7294    11307.518    75.342578 
   50200    472.95237   -163.69413   0.42793724   -163.26619   -2871.7578    4.2309974    4.2309974    4.2309974   -2871.7578    10275.054    5162.8442   -24053.172   -4085.7299    17634.496    15154.848    75.740518 
   50300    342.20461   -163.57372   0.30963393   -163.26409    5016.0923    4.2299679    4.2299679    4.2299679    5016.0923   -1789.6277    22880.935   -6043.0303    -484.6682    34293.225    14819.827    75.685244 
   50400     432.7854   -163.65335   0.39159333   -163.26176    1447.4098    4.2175592    4.2175592    4.2175592    1447.4098    6853.3396    15414.178   -17925.288    2348.0379    30297.707    14718.517    75.021126 
   50500    428.14494   -163.65278   0.38739454   -163.26539   -15401.772    4.2338316    4.2338316    4.2338316   -15401.772    -13374.79   -2046.4398   -30784.086    3882.8044    28159.349    10942.967    75.892831 
   50600    269.40579   -163.50983   0.24376402   -163.26607     -3377.47    4.2264764    4.2264764    4.2264764     -3377.47   -16700.515    33304.318   -26736.212    -2534.373    36683.303    13964.004    75.497982 
   50700    256.41454   -163.49682   0.23200926   -163.26481    6351.4856    4.2169752    4.2169752    4.2169752    6351.4856    16745.941    22659.809   -20351.293    -2042.023    41086.391    12807.131    74.989965 
   50800    459.57509   -163.68134    0.4158332   -163.26551   -10260.097    4.2348277    4.2348277    4.2348277   -10260.097   -2430.4201   -6076.4949   -22273.375   -1489.8757    24243.772    7305.4064    75.946409 
   50900    625.64058   -163.82753   0.56609274   -163.26144   -8562.5163    4.2273244    4.2273244    4.2273244   -8562.5163   -31718.451    31882.313    -25851.41    1119.6209    18941.908    3235.1206    75.543437 
   51000    665.67758   -163.86185   0.60231906   -163.25953     1027.731    4.2187802    4.2187802    4.2187802     1027.731   -11672.512    16627.189   -1871.4839    2801.8852    18806.124    2117.3775    75.086301 
   51100    663.20726   -163.86394   0.60008387   -163.26385    11763.797    4.2279725    4.2279725    4.2279725    11763.797    10963.217     20913.82    3414.3543   -2402.7465    4647.9428    1577.8512    75.578187 
   51200    743.37622   -163.93349   0.67262242   -163.26087   -14255.309     4.234995     4.234995     4.234995   -14255.309   -28902.757     6707.833   -20571.004    -654.1109    880.08713    -7617.711     75.95541 
   51300     874.8379   -164.04807   0.79157172   -163.25649    87.953007    4.2206521    4.2206521    4.2206521    87.953007   -10507.535    6123.5965    4647.7975     5459.804    -10242.84   -5625.4658    75.186292 
   51400    910.44151   -164.08057   0.82378661   -163.25678    4969.2448    4.2206423    4.2206423    4.2206423    4969.2448   -2914.1883    5606.7477    12215.175   -5014.2755   -11482.717   -3329.2977     75.18577 
   51500    908.00637   -164.07973   0.82158325   -163.25815   -7881.3742    4.2337737    4.2337737    4.2337737   -7881.3742   -4194.9819   -16123.458   -3325.6829   -7560.4869   -13118.619   -5029.9495    75.889713 
   51600    1006.6004   -164.16624   0.91079322   -163.25545     2773.131    4.2251033    4.2251033    4.2251033     2773.131   -4865.6226    4381.4933    8803.5223   -4779.9681   -18811.674   -7019.1956    75.424421 
   51700    1050.4039   -164.20595   0.95042748   -163.25552    1264.6272    4.2241761    4.2241761    4.2241761    1264.6272    4091.7385   -8636.4238     8338.567    4212.7143    -11261.38   -6738.4509     75.37478 
   51800    1036.6536   -164.19451   0.93798592   -163.25652   -7233.3046    4.2288858    4.2288858    4.2288858   -7233.3046    5735.3049   -23927.662   -3507.5565   -7621.5024   -10879.277    3741.5099    75.627174 
   51900    1102.3935   -164.25488   0.99746877   -163.25741    3926.7147    4.2220369    4.2220369    4.2220369    3926.7147   -2234.2991    12384.563    1629.8804   -5304.1494    -7011.987    -2344.131     75.26032 
   52000    1132.0338   -164.28421    1.0242879   -163.25992    7356.4194    4.2259084    4.2259084    4.2259084    7356.4194    20933.499    4910.3434   -3774.5847    2043.1283    375.95287    2317.7755     75.46755 
   52100    1241.4017   -164.38173    1.1232464   -163.25848   -4879.3386    4.2303305    4.2303305    4.2303305   -4879.3386    13734.596   -17852.765   -10519.846    782.55621    9409.8012    3333.7745    75.704709 
   52200    1434.9398   -164.55426    1.2983637    -163.2559    2852.2688    4.2233641    4.2233641    4.2233641    2852.2688    11885.381   -3577.7943    249.21947   -1998.7016    3221.6462    2189.5297    75.331321 
   52300    1374.3967   -164.50027     1.243583   -163.25668    5377.6879    4.2232483    4.2232483    4.2232483    5377.6879      16463.1   -80.393167   -249.64276    4591.5631    8796.5737    5092.5657    75.325121 
   52400    1215.0829   -164.35628    1.0994325   -163.25684    1241.6389    4.2315348    4.2315348    4.2315348    1241.6389    21550.475   -5706.7203   -12118.838    6304.9524     9224.679   -2768.4305    75.769383 
   52500    1255.6581   -164.39068    1.1361458   -163.25454   -807.46605    4.2284181    4.2284181    4.2284181   -807.46605    8207.5697   -6638.3301   -3991.6378    614.92614    2392.9422    3921.2597    75.602085 
   52600    1185.2094   -164.33013    1.0724024   -163.25772     3829.421     4.219264     4.219264     4.219264     3829.421    18614.662    -7188.595    62.195918   -5026.4261    3769.9118   -4744.1018    75.112133 
   52700    1028.1714   -164.19352   0.93031106   -163.26321   -1642.9702    4.2282719    4.2282719    4.2282719   -1642.9702    4988.1248   -1433.1297   -8483.9058    2530.2239   -1546.7338   -3105.2713    75.594241 
   52800     999.6762   -164.16456   0.90452804   -163.26003   -4267.1401    4.2339391    4.2339391    4.2339391   -4267.1401     -3685.38   -5220.9286   -3895.1116   -467.85305    919.15964   -8746.5512    75.898608 
   52900    931.64115   -164.10098   0.84296849   -163.25801    10148.735     4.219235     4.219235     4.219235    10148.735    10724.869   -1425.6776    21147.015   -8457.0256   -1794.1396    -7228.868    75.110584 
   53000     827.8781   -164.01068    0.7490815    -163.2616   -545.78675    4.2231737    4.2231737    4.2231737   -545.78675    6770.2718   -8502.0455    94.413443    368.74587   -12193.879   -3817.3473    75.321131 
   53100    766.72963   -163.95503   0.69375308   -163.26128   -13953.819    4.2334689    4.2334689    4.2334689   -13953.819   -8351.4423   -18394.132   -15115.883   -2798.7828   -7451.9076   -7691.4103    75.873328 
   53200    612.19922   -163.81422   0.55393072   -163.26029    2578.6586    4.2226343    4.2226343    4.2226343    2578.6586    -15883.73    2046.3206    21573.385   -2253.1489   -16128.329   -3899.2532    75.292274 
   53300    535.96002   -163.74607   0.48494789   -163.26112    3786.5983    4.2241594    4.2241594    4.2241594    3786.5983    17991.962    880.01158   -7512.1783   -5979.5625   -19058.431    -5716.652    75.373882 
   53400    735.57708   -163.92754    0.6655656   -163.26197   -16709.536    4.2284751    4.2284751    4.2284751   -16709.536   -29556.028   -23139.977    2567.3948    3242.3036   -12112.884    427.37992    75.605143 
   53500    609.50747    -163.8167   0.55149517   -163.26521   -2272.0973    4.2254168    4.2254168    4.2254168   -2272.0973   -9021.5997   -5635.1229    7840.4307   -621.47696   -10872.338    2193.0808    75.441213 
   53600    413.28481   -163.64119   0.37394878   -163.26724   -3042.1724    4.2258113    4.2258113    4.2258113   -3042.1724     404.5164    11065.933   -20596.966   -4841.5558   -554.96244     7254.964    75.462346 
   53700    463.24892   -163.68513   0.41915736   -163.26597   -2340.0088    4.2226402    4.2226402    4.2226402   -2340.0088   -28336.776    12680.751    8635.9989   -3397.8193    1038.8152     8895.246    75.292588 
   53800    464.48304   -163.68582   0.42027402   -163.26555   -6114.1368    4.2292523    4.2292523    4.2292523   -6114.1368    2684.2025    11179.842   -32206.455    4136.4441    7905.8251    7254.9855    75.646837 
   53900    446.11495   -163.66618   0.40365418   -163.26252   -4097.9161    4.2286671    4.2286671    4.2286671   -4097.9161   -3444.0833    10818.747   -19668.412   -1958.4176    13730.377    9712.2618    75.615444 
   54000    435.63944   -163.65465   0.39417572   -163.26047     7244.157    4.2215872    4.2215872    4.2215872     7244.157    5239.3165    25745.907   -9252.7521   -5425.6083    15624.369    1711.5319    75.236275 
   54100    476.47019   -163.69206   0.43112024   -163.26094   -8578.6862    4.2276352    4.2276352    4.2276352   -8578.6862   -11725.049    28052.716   -42063.725     1318.446    22374.078    8287.8746    75.560101 
   54200     479.4354   -163.69404   0.43380323   -163.26024   -5994.2642     4.229591     4.229591     4.229591   -5994.2642   -4821.1256    8495.4588   -21657.126     1891.546    16021.376   -2118.0361    75.665017 
   54300     359.3299   -163.58593   0.32512924    -163.2608   -2519.6353    4.2267497    4.2267497    4.2267497   -2519.6353    15556.809    18442.545    -41558.26   -5496.6909    16998.582   -8549.5325    75.512629 
   54400    385.63278   -163.61107   0.34892864   -163.26214   -2057.6274    4.2224382    4.2224382    4.2224382   -2057.6274   -1581.2538     34605.17   -39196.798    580.79489    20786.633   -7273.9818    75.281785 
   54500    622.09048   -163.82657   0.56288054   -163.26369   -6912.2088    4.2251078    4.2251078    4.2251078   -6912.2088   -5680.7952    6346.7282   -21402.559    5446.2886    8541.4787    -21939.78    75.424666 
   54600    672.29941   -163.87221   0.60831064    -163.2639   -6869.2133    4.2297872    4.2297872    4.2297872   -6869.2133   -8352.2254    19587.626    -31843.04    935.66274    5724.3257   -18742.544    75.675546 
   54700    676.74927   -163.87573   0.61233696    -163.2634    936.36496    4.2232627    4.2232627    4.2232627    936.36496    3747.7003    13520.663   -14459.268   -6617.2262    2645.3081    -18281.27    75.325891 
   54800    847.71143   -164.02936   0.76702711   -163.26234    7343.6019    4.2209643    4.2209643    4.2209643    7343.6019    18200.248    10289.834    -6459.276   -4217.2839     850.3997   -14108.709    75.202977 
   54900    964.25911   -164.13341   0.87248191   -163.26092   -12863.583    4.2316911    4.2316911    4.2316911   -12863.583   -25241.941    934.62405   -14283.433    2740.3296   -8679.0213   -16332.441     75.77778 
   55000     939.9295   -164.10766   0.85046797   -163.25719   -8142.6019    4.2273843    4.2273843    4.2273843   -8142.6019   -25273.963    16602.872   -15756.715   -6241.3025   -8740.1522   -670.31278    75.546647 
   55100     1008.019   -164.16707   0.91207673   -163.25499    14093.926    4.2185791    4.2185791    4.2185791    14093.926    14574.358    13830.153    13877.267   -62.655428   -7991.9712   -4143.8734    75.075562 
   55200    1155.1025   -164.30374     1.045161   -163.25858   -5895.6876    4.2275956    4.2275956    4.2275956   -5895.6876   -18048.041   -11436.483     11797.46   -1367.1591   -8231.0855    4539.7985    75.557976 
   55300     1211.934   -164.35554    1.0965834   -163.25895   -203.90955     4.225376     4.225376     4.225376   -203.90955   -15140.046    11390.161    3138.1565    4372.6913   -5393.0841    2332.9406    75.439029 
   55400    1157.6093   -164.30609    1.0474292   -163.25866    9023.0771    4.2252641    4.2252641    4.2252641    9023.0771    7179.5337    6869.0702    13020.627   -7586.2122   -1441.4563    10401.898    75.433033 
   55500    1140.7671   -164.28833    1.0321901   -163.25614   -8892.7661    4.2278984    4.2278984    4.2278984   -8892.7661   -10563.549   -17852.702    1737.9527   -1814.5113    1942.5028    2366.1251    75.574211 
   55600    1107.2199   -164.25797    1.0018358   -163.25614    7528.5687    4.2222411    4.2222411    4.2222411    7528.5687    4973.7471    5743.3398    11868.619    4015.1284    4006.7736   -255.62775    75.271241 
   55700    1053.6542   -164.21194   0.95336847   -163.25857     4745.556    4.2234648    4.2234648    4.2234648     4745.556    -5898.164    23842.329   -3707.4966   -4321.4094    7034.2033   -2841.0502    75.336709 
   55800    1126.1921   -164.27731    1.0190023   -163.25831   -12526.639    4.2323472    4.2323472    4.2323472   -12526.639   -15602.427   -15477.458   -6500.0323    2525.1755    7253.4631   -4888.2882    75.813029 
   55900    1145.2192   -164.29334    1.0362184   -163.25712    4784.5795    4.2262897    4.2262897    4.2262897    4784.5795    11282.956    1349.0593    1721.7231    271.26259    7048.7457   -8332.9373    75.487978 
   56000    1055.5429   -164.21163   0.95507741   -163.25655    11631.534    4.2157671    4.2157671    4.2157671    11631.534    12501.335      32189.9   -9796.6341    5090.5552    3935.6786   -12955.085    74.925531 
   56100    1096.6315   -164.25122   0.99225521   -163.25897   -12092.881    4.2328086    4.2328086    4.2328086   -12092.881   -15777.476   -5631.5337   -14869.634   -4350.6742    3277.0999   -7480.3505     75.83783 
   56200    1031.6972   -164.19015   0.93350128   -163.25665   -4728.1255    4.2310033    4.2310033    4.2310033   -4728.1255   -4437.9563    5648.5331   -15394.953   -2282.1129   -8.1921898   -12408.681    75.740834 
   56300    924.64074   -164.09106   0.83663437   -163.25443    10900.611    4.2163025    4.2163025    4.2163025    10900.611     19869.45    21631.536    -8799.153    1847.7484   -474.43322     -8897.15    74.954082 
   56400    948.33297    -164.1161    0.8580716   -163.25803   -3155.8623    4.2291832    4.2291832    4.2291832   -3155.8623   -12186.105    17153.732   -14435.215   -8175.1188   -5744.7409    2646.3141    75.643132 
   56500    944.18867   -164.11473   0.85432175   -163.26041   -6441.4536    4.2276945    4.2276945    4.2276945   -6441.4536   -12936.372   -4120.3575   -2267.6317   -9092.4437   -9411.2203    6003.5338    75.563276 
   56600    728.29669   -163.92469   0.65897815   -163.26571    4108.2318    4.2193123    4.2193123    4.2193123    4108.2318    15567.797    7415.3352   -10658.437   -7863.5741   -12753.235    11244.499    75.114715 
   56700    578.04998   -163.79128   0.52303177   -163.26825    -859.9427    4.2256499    4.2256499    4.2256499    -859.9427   -10155.984    14659.027   -7082.8715   -1924.5486   -15972.521    14697.749    75.453698 
   56800    564.06529    -163.7769   0.51037813   -163.26652    -6964.775     4.227389     4.227389     4.227389    -6964.775   -13921.302   -15061.757    8088.7333   -5185.5165   -15754.727    14353.475    75.546897 
   56900    495.09135   -163.71428   0.44796906   -163.26631   -7930.5902     4.224118     4.224118     4.224118   -7930.5902   -6716.3452   -5893.0918   -11182.334    1141.1458   -13730.178    3836.2922    75.371666 
   57000    402.52395   -163.63076   0.36421213   -163.26655    3925.1034    4.2244404    4.2244404    4.2244404    3925.1034   -20907.574    15740.626    16942.257    12612.279   -12258.556    6460.2488    75.388927 
   57100     446.9704   -163.66819   0.40442821   -163.26376   -7128.9169    4.2311883    4.2311883    4.2311883   -7128.9169   -22404.831   -7427.6378    8445.7178    5368.3677   -5046.0248    855.43077    75.750772 
   57200    498.98725   -163.71181   0.45149415   -163.26031   -6737.2292    4.2233891    4.2233891    4.2233891   -6737.2292   -18062.848   -16502.735    14353.895    17309.622   -6861.3142    1072.0906    75.332659 
   57300    437.32457   -163.65726   0.39570046   -163.26156    6159.8768    4.2222974    4.2222974    4.2222974    6159.8768   -22525.377   -1765.3449    42770.352    24103.444    539.75751   -9062.5998    75.274253 
   57400    368.40364   -163.59585   0.33333935   -163.26251   -5061.5567    4.2324274    4.2324274    4.2324274   -5061.5567   -14107.808     2109.769   -3186.6313    25125.905    4135.6561   -2858.1955    75.817339 
   57500    379.94814   -163.60645   0.34378506   -163.26267    -2188.247    4.2236548    4.2236548    4.2236548    -2188.247   -12401.559   -16796.361    22633.179    29984.639    5052.5058   -2444.1793    75.346877 
   57600    372.21641   -163.60228   0.33678923   -163.26549   -1757.4953     4.220695     4.220695     4.220695   -1757.4953    -29622.84    -9818.509    34168.863    25403.088    11954.616   -5478.4324    75.188587 
   57700    442.14264    -163.6682   0.40005996   -163.26814    3221.9448    4.2248773    4.2248773    4.2248773    3221.9448    4958.8439   -1330.7388    6037.7294    28407.035    16603.648    -1823.717    75.412317 
   57800     645.4371   -163.85253   0.58400505   -163.26852   -8842.3625    4.2291864    4.2291864    4.2291864   -8842.3625   -32190.836   -8602.5099    14266.259    23706.873    10108.969    4169.6204    75.643301 
   57900    874.95554    -164.0582   0.79167816   -163.26652   -1463.0671    4.2210335    4.2210335    4.2210335   -1463.0671   -13414.892   -10400.866    19426.557    15430.783    16524.879    3121.3978    75.206678 
   58000    955.20603   -164.12979   0.86429049    -163.2655    2430.5749    4.2232257    4.2232257    4.2232257    2430.5749    4856.7004   -1444.9772    3880.0016    6683.3849      8611.54   -3567.0972    75.323913 
   58100    952.97458   -164.12555   0.86227143   -163.26328   -3251.2971    4.2303224    4.2303224    4.2303224   -3251.2971   -20380.128    14970.849    -4344.612     2337.729    5854.1515     1786.504    75.704273 
   58200    1148.3147   -164.29878    1.0390192   -163.25976    8653.6323     4.220478     4.220478     4.220478    8653.6323    16751.994    4076.4273     5132.476   -3404.3413    7426.0862    1212.9866    75.176988 
   58300    1284.4741   -164.42119    1.1622192   -163.25897   -8246.4567     4.228476     4.228476     4.228476   -8246.4567    2596.5211   -17481.102   -9854.7892   -8707.0885    -3394.366   -1465.3127    75.605192 
   58400    1273.5028   -164.40885    1.1522921   -163.25656    3291.2812    4.2281358    4.2281358    4.2281358    3291.2812    6701.3168    5155.5088    -1982.982   -7567.5393    4103.2821   -7573.9399    75.586942 
   58500    1253.4672   -164.38877    1.1341635   -163.25461    11387.079    4.2225033    4.2225033    4.2225033    11387.079    16898.265    19593.787   -2330.8148   -8184.0807    -8344.001    3149.6247    75.285266 
   58600    1341.0381    -164.4682    1.2133994    -163.2548   -5722.7416    4.2267579    4.2267579    4.2267579   -5722.7416    5245.6931   -14022.171   -8391.7472   -8555.6993   -2279.8536   -5567.6917    75.513071 
   58700    1298.4712   -164.43152     1.174884   -163.25664    -4171.533    4.2282527    4.2282527    4.2282527    -4171.533   -6010.1785   -4456.2038   -2048.2167   -9515.4043   -6304.0225   -2335.5283    75.593213 
   58800    1189.1146   -164.33356    1.0759358   -163.25762   -1923.9689    4.2286332    4.2286332    4.2286332   -1923.9689   -1994.7474    6412.0116   -10189.171    2588.5159   -6456.8946    -7397.589    75.613622 
   58900    1202.5217   -164.34762    1.0880669   -163.25955    11984.834    4.2162662    4.2162662    4.2162662    11984.834    12672.244    7551.1327    15731.123     7618.864    942.46965    4144.8401    74.952144 
   59000    1128.7816   -164.28893    1.0213453   -163.26759   -10942.892    4.2284632    4.2284632    4.2284632   -10942.892   -11709.254   -22150.813      1031.39    7524.7921     -4175.84    335.78469    75.604504 
   59100    844.10602   -164.03177   0.76376487     -163.268   -10011.028    4.2322063    4.2322063    4.2322063   -10011.028   -4044.6124   -32463.376    6474.9052    19694.958     6299.629    2401.6639    75.805461 
   59200     564.3823   -163.77683   0.51066497   -163.26617    16353.035    4.2108048    4.2108048    4.2108048    16353.035    2802.1299    17394.494    28862.482    28857.073    9809.1285     4551.272     74.66126 
   59300    527.78051   -163.74868    0.4775469   -163.27113   -16001.559    4.2292902    4.2292902    4.2292902   -16001.559   -16353.531   -33219.606    1568.4604    27240.465    8740.6836    4099.9738    75.648871 
   59400    514.90813   -163.73236   0.46589969   -163.26646   -10876.458    4.2311884    4.2311884    4.2311884   -10876.458   -30210.284   -30028.848    27609.757    25705.115    13885.992    2446.7975    75.750776 
   59500     421.3572    -163.6443   0.38125285   -163.26304    5200.7573    4.2191008    4.2191008    4.2191008    5200.7573    -20167.35    17988.821    17780.801    33293.672    18031.285    -4507.311    75.103421 
   59600    398.65466   -163.62622   0.36071111   -163.26551   -2062.4799    4.2278411    4.2278411    4.2278411   -2062.4799   -12285.391    4316.2789    1781.6725    32621.072    7373.3907    2951.8801    75.571141 
   59700    467.11974   -163.68663   0.42265976   -163.26397   -2159.0821     4.227072     4.227072     4.227072   -2159.0821   -36598.063   -7476.6941    37597.511    18629.411    10466.935   -526.28601    75.529905 
   59800    466.73749   -163.68507   0.42231389   -163.26276   -13283.075    4.2270004    4.2270004    4.2270004   -13283.075    -27217.37    -14543.71    1911.8546    17068.004    7122.9853    -1010.486    75.526064 
   59900    379.73205   -163.60726   0.34358954   -163.26367    5426.0011    4.2223402    4.2223402    4.2223402    5426.0011   -25162.002    25110.293    16329.712    11724.822    77.367042   -1728.9014    75.276543 
   60000    377.43891   -163.60651   0.34151466   -163.26499   -809.96118    4.2299261    4.2299261    4.2299261   -809.96118   -30094.189    10806.415     16857.89    7411.1064   -4755.9062     7867.828    75.682998 
   60100    507.32936   -163.72133   0.45904227   -163.26229   -12349.639    4.2286595    4.2286595    4.2286595   -12349.639   -27706.416   -1618.8796   -7723.6211   -2698.3979      -7280.1    248.00192    75.615035 
   60200    644.45391   -163.84348   0.58311544   -163.26037    3358.1643    4.2150577    4.2150577    4.2150577    3358.1643   -20210.428    4040.2616    26244.659    -9921.371   -13917.484    2281.9193    74.887714 
   60300    670.12327   -163.87145   0.60634162   -163.26511    -652.5301    4.2291405    4.2291405    4.2291405    -652.5301   -12986.977    6780.8281    4248.5583   -6797.8611   -16903.232    7307.7699    75.640838 
   60400    720.51571   -163.91627   0.65193776   -163.26433   -2678.3886    4.2288314    4.2288314    4.2288314   -2678.3886   -24384.069    14674.208    1674.6956   -15434.898   -18675.084    4938.7096    75.624258 
   60500    877.74797   -164.05485   0.79420481   -163.26065    3949.7066    4.2179892    4.2179892    4.2179892    3949.7066   -3745.1913    -1889.474    17483.785   -16896.311   -12863.739   -1602.9408    75.044074 
   60600    924.03951   -164.09768   0.83609037   -163.26159   -4052.2804    4.2284983    4.2284983    4.2284983   -4052.2804   -5285.9034   -6626.8737     -244.064     -10431.5   -14311.333   -10355.334    75.606384 
   60700    922.12311    -164.0946   0.83435637   -163.26025   -6284.9969    4.2276764    4.2276764    4.2276764   -6284.9969   -23927.486    -1973.994    7046.4896   -13805.602   -9160.6846   -926.94022    75.562307 
   60800    1022.0127   -164.18346   0.92473859   -163.25872     11248.25    4.2211568    4.2211568    4.2211568     11248.25    16209.392    6859.8124    10675.544   -9610.4757   -103.09708   -11212.751    75.213266 
   60900    1186.7269   -164.33189    1.0737754   -163.25812   -2608.3382    4.2273799    4.2273799    4.2273799   -2608.3382    15922.748   -14704.623   -9043.1391    -752.9846   -3076.8539    -10606.89    75.546411 
   61000    1171.5263   -164.31574    1.0600216   -163.25572   -9912.5077    4.2301226    4.2301226    4.2301226   -9912.5077    -8034.997   -21207.553   -494.97336    524.56553    2411.5287   -12602.609    75.693549 
   61100    1086.2536   -164.23749   0.98286505   -163.25463      12380.4    4.2201833    4.2201833    4.2201833      12380.4    16996.186   -486.11956    20631.132    4888.4016    6024.9561   -7054.7121    75.161242 
   61200    1145.2889   -164.29294    1.0362815   -163.25665   -311.21363    4.2235637    4.2235637    4.2235637   -311.21363     5838.899   -10422.641    3650.1014     6704.996     11300.21   -5853.7814    75.342001 
   61300    1178.8164   -164.32518    1.0666178   -163.25856   -8279.4948    4.2288982    4.2288982    4.2288982   -8279.4948    -3847.544   -16783.153   -4207.7877    8197.6097    8202.3046   -6274.4413    75.627841 
   61400    1132.5577   -164.28612     1.024762   -163.26136    11895.003    4.2179244    4.2179244    4.2179244    11895.003   -2886.8856    10630.343    27941.553    8746.0517    5419.6114    7475.2652    75.040615 
   61500    1028.2759   -164.19738   0.93040562   -163.26698    121.09717    4.2232251    4.2232251    4.2232251    121.09717   -13393.196    14776.521   -1020.0338    3573.7509     7580.513    6004.3992    75.323879 
   61600    932.83203    -164.1107   0.84404602   -163.26665   -6323.8609    4.2297944    4.2297944    4.2297944   -6323.8609   -8071.9704   -2257.1192   -8642.4929    -349.6778    -7236.807    2988.0043    75.675929 
   61700    794.73552    -163.9852    0.7190934   -163.26611   -397.33901    4.2217969    4.2217969    4.2217969   -397.33901   -20669.302   -1515.1558    20992.441   -4063.6004   -10816.814    2615.8061    75.247488 
   61800    637.25904   -163.84363   0.57660537   -163.26702   -639.17689    4.2203312    4.2203312    4.2203312   -639.17689    -10307.58    7738.8326    651.21663   -12524.603   -11439.057    707.75815    75.169142 
   61900     497.2227   -163.71648   0.44989755   -163.26658   -1913.0094    4.2323894    4.2323894    4.2323894   -1913.0094   -14576.856    3754.1271    5083.7003   -15890.267   -17389.772   -3695.3512      75.8153 
   62000    476.01442   -163.69001   0.43070785    -163.2593   -5209.1446    4.2318495    4.2318495    4.2318495   -5209.1446   -18167.767   -992.13062    3532.4636   -21963.988   -19925.287   -8466.5874    75.786292 
   62100    495.75904   -163.70456   0.44857319   -163.25598    7336.4412    4.2141734    4.2141734    4.2141734    7336.4412   -13257.276    11937.681    23328.918   -15799.763   -23664.829   -7077.8725    74.840591 
   62200    471.07729   -163.68917   0.42624063   -163.26293   -7103.1336    4.2278583    4.2278583    4.2278583   -7103.1336    -1113.993   -15831.734   -4363.6735   -23342.023   -16114.974   -6508.8943    75.572059 
   62300     453.4857   -163.67514   0.41032339   -163.26481    -6121.459    4.2288822    4.2288822    4.2288822    -6121.459   -15633.744    -850.6597   -1879.9732   -30045.183   -17027.116   -8475.7779    75.626982 
   62400    519.94241   -163.73551   0.47045482   -163.26506    2888.2014    4.2156844    4.2156844    4.2156844    2888.2014   -4575.3736   -2115.0006    15354.978   -16128.229   -12384.653   -2637.4044    74.921122 
   62500    560.72349   -163.77454   0.50735439   -163.26718   -6851.2932    4.2287332    4.2287332    4.2287332   -6851.2932    7549.3959   -25323.506   -2779.7693   -19538.331    68.116697     5373.368    75.618989 
   62600    549.76937   -163.76345   0.49744288   -163.26601   -4923.8192    4.2263966    4.2263966    4.2263966   -4923.8192   -13967.451    438.18574    -1242.192   -15545.186    3032.3071    12350.731    75.493704 
   62700    659.14659   -163.86097   0.59640969   -163.26456    899.10272    4.2187327    4.2187327    4.2187327    899.10272    22985.007   -16759.051   -3528.6474   -4897.8892    3919.3633    12035.234     75.08376 
   62800    718.30696   -163.91379   0.64993923   -163.26385    1708.0176    4.2281962    4.2281962    4.2281962    1708.0176    10343.366   -2393.3671   -2825.9457    2074.4238    8433.1105    17847.441    75.590182 
   62900    733.20578   -163.92236      0.66342   -163.25894   -12081.768     4.233248     4.233248     4.233248   -12081.768   -13808.266   -17292.784   -5144.2548    6480.3323    12211.298    19194.323    75.861447 
   63000    815.81495   -163.99341   0.73816651   -163.25524    9626.3524    4.2173561    4.2173561    4.2173561    9626.3524    35516.376    4660.3433   -11297.661    5042.8399    10475.941    18740.063    75.010286 
   63100    890.40736   -164.06334   0.80565929   -163.25768   -1893.9627    4.2213568    4.2213568    4.2213568   -1893.9627    3483.6959    1576.7022   -10742.286    13005.025    8277.2663    14474.381    75.223958 
   63200    835.04126   -164.01506   0.75556288    -163.2595    -9448.513    4.2314684    4.2314684    4.2314684    -9448.513   -13927.253   -2999.3745   -11418.911    12412.115    6101.0164     15317.05    75.765815 
   63300    894.99661    -164.0692   0.80981174   -163.25939    8558.0972    4.2195828    4.2195828    4.2195828    8558.0972    14627.126    19723.148   -8675.9824    12025.055    4317.4093    11799.099    75.129161 
   63400    1146.6811    -164.2983    1.0375412   -163.26076   -4927.0425    4.2208993    4.2208993    4.2208993   -4927.0425   -3190.5467    5032.4313   -16623.012    12651.884   -1307.3113    2178.0643    75.199505 
   63500    1213.8227   -164.35995    1.0982923   -163.26165    7643.9128    4.2241872    4.2241872    4.2241872    7643.9128    8518.5062    19804.781   -5391.5491    4029.6346    -2474.379   -212.06817    75.375373 
   63600    1197.9585   -164.34399    1.0839381   -163.26005   -5612.5868    4.2293876    4.2293876    4.2293876   -5612.5868   -17560.451    7679.3597   -6956.6688    2652.3845   -2101.2167   -738.15109    75.654097 
   63700    1315.6397     -164.448    1.1904185   -163.25758    9756.8531     4.219188     4.219188     4.219188    9756.8531   -1061.0744    19205.313    11126.321   -7515.7429   -3757.1496   -4368.5695    75.108073 
   63800    1314.8282   -164.44994    1.1896842   -163.26026    -478.0491    4.2229273    4.2229273    4.2229273    -478.0491   -4023.7001    9454.6043   -6865.0515   -9378.7524   -3270.4401    -11141.75    75.307947 
   63900    1234.0175   -164.37375    1.1165649   -163.25718   -14938.008    4.2359322    4.2359322    4.2359322   -14938.008   -19704.058    435.59479    -25545.56   -11030.058   -1655.9433   -4965.9189    76.005845 
   64000     1240.153   -164.37714    1.1221165   -163.25503    21171.122    4.2131145    4.2131145    4.2131145    21171.122    16129.731    31726.283    15657.353   -13986.663      493.965   -1217.3688    74.784187 
   64100    1086.9833   -164.24788    0.9835253   -163.26436   -3331.1974    4.2238095    4.2238095    4.2238095   -3331.1974    -2480.298   -5729.2311   -1784.0633   -7727.6027     4924.501    -1395.901    75.355155 
   64200    920.62775   -164.09714   0.83300334   -163.26414    -5078.869    4.2302172    4.2302172    4.2302172    -5078.869    11561.233   -5379.2655   -21418.575   -10208.589     6239.227    3680.5147    75.698625 
   64300    826.10658   -164.01017   0.74747859   -163.26269    410.60478    4.2202194    4.2202194    4.2202194    410.60478   -1705.7087    11374.775   -8437.2521    1193.0148    13424.481    10939.633    75.163168 
   64400    648.81034   -163.85221   0.58705723   -163.26515   -7680.1258    4.2247616    4.2247616    4.2247616   -7680.1258   -597.29681   -18493.663   -3949.4173    1028.2771    11893.714    18799.035    75.406122 
   64500    483.51846   -163.70324   0.43749767   -163.26574    6761.7131    4.2219436    4.2219436    4.2219436    6761.7131    15648.068   -1558.9738    6196.0446    6782.8665    8353.9291    15491.707    75.255332 
   64600    555.84808   -163.76803   0.50294302   -163.26508   -13150.765    4.2302376    4.2302376    4.2302376   -13150.765    -9786.015   -12309.575   -17356.707    13024.076    10346.067    21342.655    75.699724 
   64700    641.78693   -163.84522    0.5807023   -163.26452   -4924.3074    4.2210715    4.2210715    4.2210715   -4924.3074    15062.355   -23054.608   -6780.6694    17035.711    5053.9328    21187.528    75.208705 
   64800    473.22831   -163.69479   0.42818692    -163.2666    3903.0119    4.2232072    4.2232072    4.2232072    3903.0119     822.6907      9087.09    1799.2551    24079.196    2672.3189    11445.701    75.322923 
   64900    480.43984   -163.69963   0.43471207   -163.26492   -10904.897    4.2305178    4.2305178    4.2305178   -10904.897   -7844.4427   -19539.233   -5331.0152    17138.766   -470.87828    4615.7592    75.714766 
   65000    582.08032   -163.78944   0.52667851   -163.26276    5213.3504    4.2153932    4.2153932    4.2153932    5213.3504    7461.1392   -8104.0412    16282.953    20213.991   -8507.5102    6039.8685    74.905598 
   65100    498.84989   -163.71734   0.45136987   -163.26597   -9395.9418    4.2266227    4.2266227    4.2266227   -9395.9418   -27600.314    2384.6302   -2972.1417    13490.776   -14914.596   -7373.0556    75.505822 
   65200    469.89704   -163.69094   0.42517272   -163.26577   -1314.7909    4.2273476    4.2273476    4.2273476   -1314.7909   -7274.8869   -9711.6187    13042.133    8198.2663   -16515.822    -13891.35    75.544681 
   65300     645.9475   -163.84906   0.58446687   -163.26459    -31.12134    4.2191026    4.2191026    4.2191026    -31.12134   -14680.298   -4089.3456     18676.28    6584.7107   -19786.633   -6967.9016    75.103512 
   65400    759.55734   -163.95194   0.68726344   -163.26467   -6252.3114    4.2238421    4.2238421    4.2238421   -6252.3114   -9502.7165   -234.82493   -9019.3927   -1863.4016   -16826.887   -5619.2844    75.356899 
   65500    652.22322    -163.8547   0.59014528   -163.26455    2379.2112    4.2288874    4.2288874    4.2288874    2379.2112   -15858.461    6729.2995    16266.795   -5260.9893   -10738.355   -9696.3129    75.627258 
   65600    683.59523   -163.88125   0.61853133   -163.26272   -1953.0243    4.2244133    4.2244133    4.2244133   -1953.0243   -26550.689    18647.824    2043.7918   -7751.7777    -17770.63   -3004.8771    75.387476 
   65700    911.79508   -164.08442   0.82501135   -163.25941    3377.2155    4.2181515    4.2181515    4.2181515    3377.2155   -6164.3839    5982.3151    10313.715   -12473.522   -9501.6056    7289.9832    75.052734 
   65800    960.39121   -164.12778   0.86898215   -163.25879   -11196.708    4.2330916    4.2330916    4.2330916   -11196.708    -27632.23   -15787.479    9829.5853   -11733.746   -4929.1468    4690.1269    75.853042 
   65900    1020.5822   -164.18095    0.9234442   -163.25751    4817.0585      4.22221      4.22221      4.22221    4817.0585   -6898.2359    12269.783    9079.6287    -8263.955   -4355.7646    383.34304    75.269579 
   66000    1176.5478   -164.32148    1.0645652   -163.25692    10529.032    4.2172329    4.2172329    4.2172329    10529.032    -243.0651    13378.045    18452.117   -6591.5434      6237.47    2137.9951    75.003714 
   66100    1269.6151   -164.40703    1.1487744   -163.25825   -8494.8549    4.2295606    4.2295606    4.2295606   -8494.8549   -15435.665   -15699.986    5651.0866   -750.16352    6647.7016    2031.6593    75.663381 
   66200    1143.8371   -164.29449    1.0349678   -163.25952    2794.4081    4.2223609    4.2223609    4.2223609    2794.4081    1599.1104   -11839.523    18623.637    2150.6437    11434.982   -5348.6877    75.277652 
   66300      1086.81   -164.24352   0.98336856   -163.26015    5545.1668    4.2218151    4.2218151    4.2218151    5545.1668   -3166.7615    -6774.631    26576.893    5916.6182    7867.9534     -10673.4    75.248464 
   66400    1140.6634   -164.29399    1.0320962   -163.26189   -1261.2673    4.2241398    4.2241398    4.2241398   -1261.2673   -8338.9744   -7272.8688    11828.041    6128.3284    1443.7238   -7916.0088    75.372833 
   66500    1061.1471   -164.22371   0.96014822   -163.26357    6968.5858    4.2225142    4.2225142    4.2225142    6968.5858    5178.3002     -15264.1    30991.557    4636.2256   -3029.1826   -3719.5051     75.28585 
   66600    1130.5887   -164.28633    1.0229805   -163.26334   -5752.0211    4.2251675    4.2251675    4.2251675   -5752.0211   -12906.072   -18492.259    14142.268    5102.2605    -13352.55   -11403.522    75.427861 
   66700     1038.899   -164.20574   0.94001767   -163.26572   -445.62257    4.2249608    4.2249608    4.2249608   -445.62257   -21494.263   -1386.5084    21543.904    846.11171   -16703.984   -3709.3066    75.416789 
   66800     729.3974   -163.92772    0.6599741   -163.26774    8511.4034    4.2181326    4.2181326    4.2181326    8511.4034   -16370.104    22869.602    19034.712   -3560.5783   -16325.686    3619.0656    75.051725 
   66900    605.01327   -163.81691   0.54742872   -163.26949   -5952.8825    4.2286536    4.2286536    4.2286536   -5952.8825   -45233.208    9378.7856    17995.774   -4256.6531   -22303.454    2631.7786    75.614719 
   67000    518.15329    -163.7369   0.46883598   -163.26806   -8719.1301    4.2263154    4.2263154    4.2263154   -8719.1301   -40255.611    4684.3563    9413.8645   -4567.3772   -19333.191    1474.8424    75.489356 
   67100    390.39676   -163.62112    0.3532392   -163.26788     3111.791    4.2141875    4.2141875    4.2141875     3111.791   -24493.165    16589.371    17239.167   -5110.1797   -17836.227    2585.4278     74.84134 
   67200     426.8802   -163.65546   0.38625017   -163.26921   -9925.7288    4.2294376    4.2294376    4.2294376   -9925.7288   -45988.633    1797.0843    14414.362   -6829.0872    -18977.43    9246.2243    75.656781 
   67300    428.99736   -163.65341   0.38816582   -163.26525   -604.57704    4.2284306    4.2284306    4.2284306   -604.57704   -21008.373    13372.294    5822.3482   -6685.4432   -9179.2271     603.8978    75.602755 
   67400    423.61852   -163.64497   0.38329894   -163.26167    -202.8262    4.2193845    4.2193845    4.2193845    -202.8262   -32388.713    9371.0532    22409.181    -5269.209   -13811.109   -2335.5754    75.118568 
   67500    518.21803   -163.73104   0.46889457   -163.26214   -8116.1451    4.2227933    4.2227933    4.2227933   -8116.1451   -33734.688   -17475.672    26861.924   -1752.8251   -1291.8993    1788.4693    75.300777 
   67600    521.45218   -163.73536   0.47182089   -163.26354   -6008.1528    4.2269887    4.2269887    4.2269887   -6008.1528   -8540.8412   -27322.802    17839.185   -1810.8092     2307.275   -2562.5641    75.525439 
   67700    456.09703   -163.67789   0.41268618   -163.26521   -2485.0538     4.224598     4.224598     4.224598   -2485.0538   -22204.952   -26396.373    41146.164    3111.5525     3617.557    -10680.56    75.397364 
   67800    552.89287   -163.76671   0.50026909   -163.26644    5618.6292    4.2194511    4.2194511    4.2194511    5618.6292   -2744.6479   -8987.3443     28587.88    8340.6276     7159.662   -11676.808    75.122126 
   67900     704.4869   -163.90468   0.63743455   -163.26724   -3914.4939    4.2259678    4.2259678    4.2259678   -3914.4939    3686.3803   -31549.437    16119.575    7784.3016    5781.5983   -4525.6081    75.470729 
   68000    742.43392   -163.93553   0.67176981   -163.26376   -9340.2286    4.2269393    4.2269393    4.2269393   -9340.2286   -4030.3769   -41375.046    17384.737    10237.893    3924.8689   -3546.6053    75.522789 
   68100    753.77776   -163.94298   0.68203396   -163.26094    11585.727    4.2204254    4.2204254    4.2204254    11585.727    8189.7293   -5852.8733    32420.324    13404.729    5132.7328   -5092.1026    75.174177 
   68200    874.95934    -164.0526   0.79168159   -163.26092   -2916.6402    4.2270113    4.2270113    4.2270113   -2916.6402   -2887.5259   -7605.5747    1743.1802    12708.991     2504.133     4010.669    75.526653 
   68300    1038.0728   -164.19782   0.93927011   -163.25855   -4286.8296    4.2262357    4.2262357    4.2262357   -4286.8296    7959.2477   -15320.568   -5499.1685    10778.822   -2194.8996    11705.162    75.485082 
   68400    1078.5145   -164.23307   0.97586255   -163.25721   -2921.7999    4.2228011    4.2228011    4.2228011   -2921.7999    11816.207   -14345.586   -6236.0207     9320.798   -2241.4083    15635.105    75.301196 
   68500    1024.1134   -164.18504   0.92663934    -163.2584    5235.4421    4.2239483    4.2239483    4.2239483    5235.4421    16883.466    2681.0594   -3858.1996    5168.7636   -2918.2367    9657.2566    75.362584 
   68600    1112.6025   -164.26566    1.0067061   -163.25896    12.500197    4.2250759    4.2250759    4.2250759    12.500197    8168.1733   -3071.6778   -5058.9949   -1616.7828   -5797.8807    12463.308    75.422956 
   68700    1230.3224   -164.37196    1.1132216   -163.25874   -6194.0902    4.2231748    4.2231748    4.2231748   -6194.0902    8565.3687   -10828.106   -16319.534   -7295.3036   -2297.4103    12274.109    75.321189 
   68800    1178.0681   -164.32588    1.0659408   -163.25994    6396.2225    4.2220422    4.2220422    4.2220422    6396.2225    6246.9172    17120.951   -4179.2006   -10155.919   -415.84337    3546.0264    75.260606 
   68900    1183.6019   -164.33028    1.0709478   -163.25933   -858.16283    4.2288435    4.2288435    4.2288435   -858.16283   -5730.4388    7752.7977   -4596.8474   -11285.685    1677.5386    -6608.181    75.624905 
   69000    1269.6376   -164.40695    1.1487948   -163.25816    431.38973    4.2221413    4.2221413    4.2221413    431.38973    705.35605   -6516.4118    7105.2249   -10609.714     4360.692   -2038.8674    75.265903 
   69100    1195.1237   -164.34302     1.081373   -163.26165    6289.8735    4.2194194    4.2194194    4.2194194    6289.8735    7641.5026    12248.372   -1020.2543   -6544.7774    6675.1506   -2705.9139    75.120434 
   69200    1022.8906   -164.18804   0.92553294   -163.26251   -4432.0446     4.230655     4.230655     4.230655   -4432.0446   -7925.0462     3310.885   -8681.9727   -2989.3176    5276.7533   -7095.2105    75.722135 
   69300    958.09803   -164.12699   0.86690723   -163.26008   -920.57601    4.2255014    4.2255014    4.2255014   -920.57601   -16150.634   -766.98647    14155.893    4713.2566    3319.0047   -1893.9283    75.445742 
   69400    815.25982   -163.99928   0.73766422   -163.26162    8288.5621    4.2174958    4.2174958    4.2174958    8288.5621    7118.8087    8797.2281    8949.6494    11215.091     11520.04    5271.3267    75.017742 
   69500    640.46022   -163.84666   0.57950187   -163.26716   -1798.7976    4.2254938    4.2254938    4.2254938   -1798.7976   -8293.5793    11473.157   -8575.9709    21413.396    3468.0549    12590.583     75.44534 
   69600    629.67083   -163.83875    0.5697394   -163.26901     -6824.01    4.2279628    4.2279628    4.2279628     -6824.01   -5539.7817   -5701.9807   -9230.2676    27997.967    4870.1161    5420.0533    75.577666 
   69700    461.60559   -163.68848   0.41767044   -163.27081    282.72664    4.2178555    4.2178555    4.2178555    282.72664    17039.247   -6074.0586   -10117.008    32415.037   -1924.1406    12497.721    75.036935 
   69800    337.60826   -163.57904   0.30547505   -163.27357   -1838.0572    4.2179536    4.2179536    4.2179536   -1838.0572    7948.4863   -7288.8576   -6173.8004     29314.79   -4172.7474    15944.329    75.042172 
   69900    363.25879   -163.60004   0.32868418   -163.27135   -10078.869    4.2319872    4.2319872    4.2319872   -10078.869    548.37079   -11016.756   -19768.222    29225.083   -3067.8504    7519.8081    75.793689 
   70000    330.01907   -163.56686   0.29860819   -163.26825   -4599.7773    4.2214764    4.2214764    4.2214764   -4599.7773    8066.4073   -2771.0776   -19094.662    14647.121   -8087.0528    11219.874    75.230354 
   70100    420.49127   -163.64637   0.38046934    -163.2659    5451.6623    4.2157034    4.2157034    4.2157034    5451.6623    7468.5307    7329.8698    1556.5865    6953.4243     -1650.13    13460.827    74.922136 
   70200    537.01731   -163.75112   0.48590454   -163.26521   -11744.925    4.2320755    4.2320755    4.2320755   -11744.925    -9223.289   -13319.338   -12692.147   -5157.7688   -7484.8473     1896.642    75.798434 
   70300    498.62061   -163.71506   0.45116241    -163.2639   -312.66228    4.2219744    4.2219744    4.2219744   -312.66228    3685.5666   -4185.8117   -437.74176   -23733.876   -8113.2316    411.85967    75.256978 
   70400    545.57944   -163.75726   0.49365174   -163.26361    2540.8868    4.2183332    4.2183332    4.2183332    2540.8868   -6945.7517    7143.6999    7424.7122   -26744.661    -699.4554    589.03023    75.062436 
   70500    614.30575    -163.8202   0.55583675   -163.26436   -10850.948    4.2266303    4.2266303    4.2266303   -10850.948   -22292.597   -14814.306    4554.0577   -31874.055    487.95088   -1283.2267    75.506231 
   70600    494.33924   -163.71271   0.44728854   -163.26543    2733.9927    4.2247102    4.2247102    4.2247102    2733.9927   -23039.631    11818.577    19423.033   -33150.014    5780.3591   -5629.9496    75.403375 
   70700    470.60534   -163.69001   0.42581361    -163.2642    -193.1428    4.2227477    4.2227477    4.2227477    -193.1428   -30474.219    16366.164    13528.627   -36789.603    10539.861   -6839.7489    75.298343 
   70800    651.47162   -163.85214   0.58946522   -163.26268   -1050.5776    4.2228218    4.2228218    4.2228218   -1050.5776   -18396.768     1163.053    14081.983   -29035.831    13953.493   -2110.2709    75.302306 
   70900    757.90117   -163.94804   0.68576491   -163.26228   -6197.9067    4.2266762    4.2266762    4.2266762   -6197.9067   -29144.842   -1628.9146    12180.036   -20625.856    10949.699   -3547.0677     75.50869 
   71000    830.68223    -164.0145   0.75161874   -163.26288   -1304.4001     4.221637     4.221637     4.221637   -1304.4001   -17901.444    3220.6723    10767.571   -21391.854    14192.011    1898.3764    75.238939 
   71100    1002.3806   -164.17064   0.90697501   -163.26367    9187.9503    4.2189094    4.2189094    4.2189094    9187.9503    10327.494    3766.4555    13469.902   -8085.7689    7303.1472    5186.3424    75.093197 
   71200    1148.9415    -164.3034    1.0395865   -163.26381   -12779.659    4.2267649    4.2267649    4.2267649   -12779.659   -11157.285   -21844.155   -5337.5371    3230.0769    2974.3823    7662.2891    75.513446 
   71300    1135.4299   -164.28997    1.0273608   -163.26261    2862.5345    4.2217099    4.2217099    4.2217099    2862.5345    2215.7155    5011.4712    1360.4168    8733.1066    1682.1495    4951.7138    75.242838 
   71400    1102.2232   -164.25978   0.99731469   -163.26247    8345.9166    4.2211187    4.2211187    4.2211187    8345.9166    19588.757      7677.18   -2228.1873    10563.227   -10418.507    -3350.712    75.211233 
   71500    1223.0065   -164.36765    1.1066019   -163.26105   -6297.9744    4.2261392    4.2261392    4.2261392   -6297.9744    7107.3118   -10522.731   -15478.504    9943.6398   -3916.6842    2576.0822    75.479915 
   71600    1284.9628   -164.42261    1.1626613   -163.25995    1752.5648    4.2236725    4.2236725    4.2236725    1752.5648    13581.027   -2997.6188   -5325.7136    13041.206   -7025.2737      -5717.2    75.347824 
   71700    1152.9091   -164.30333    1.0431764   -163.26015     5688.984    4.2229479    4.2229479    4.2229479     5688.984    31268.029   -8210.2865   -5990.7902   -1715.1435   -5994.5027   -4132.7544     75.30905 
   71800    1065.0778   -164.22436   0.96370474   -163.26065    3040.1683    4.2241133    4.2241133    4.2241133    3040.1683    18303.091   -3145.2282   -6037.3581   -2414.4763    1160.6855   -11603.803    75.371415 
   71900    970.11643    -164.1399   0.87778174   -163.26212   -2493.9923    4.2237337    4.2237337    4.2237337   -2493.9923    10545.241   -7570.8525   -10456.365   -6346.8271    5117.2621   -7898.8338    75.351097 
   72000    794.83404   -163.98401   0.71918255   -163.26483   -601.37104    4.2200091    4.2200091    4.2200091   -601.37104    14207.695   -12540.226   -3471.5827   -14743.281    9273.9848    -10667.87    75.151933 
   72100    660.08783   -163.86403   0.59726134   -163.26677   -3432.2174    4.2259065    4.2259065    4.2259065   -3432.2174   -3879.7733    -4685.367   -1731.5118   -17204.293    10106.949   -9718.4719    75.467445 
   72200    615.55479   -163.82202   0.55696691   -163.26505    1005.1522    4.2267703    4.2267703    4.2267703    1005.1522    9116.2882   -6438.7537    337.92205   -18002.555    15723.241   -4645.3736    75.513732 
   72300    639.41116   -163.84192   0.57855265   -163.26337   -1202.9669     4.218197     4.218197     4.218197   -1202.9669   -6357.7037    -22960.88    25709.683   -18241.325    13051.469   -1448.2512    75.055166 
   72400    643.17985    -163.8468   0.58196264   -163.26483   -2635.7159    4.2235721    4.2235721    4.2235721   -2635.7159   -5021.7109   -20198.509    17313.072   -19898.239    12491.656    4554.1079    75.342448 
   72500    556.02174   -163.76714   0.50310016   -163.26404   -1839.4368    4.2267956    4.2267956    4.2267956   -1839.4368   -9121.4144   -9953.6462     13556.75   -11804.387    8993.3485    853.59128     75.51509 
   72600    522.45649   -163.73594   0.47272961   -163.26321   -1176.1175     4.220846     4.220846     4.220846   -1176.1175   -22997.774   -9657.2138    29126.635   -8318.1137    422.72737    4242.0701    75.196655 
   72700    594.61655   -163.80139   0.53802155   -163.26337    1182.3066    4.2206036    4.2206036    4.2206036    1182.3066    6958.9813   -12807.471    9395.4092   -3516.6304   -3322.0992    1324.2709      75.1837 
   72800    570.14983   -163.78123   0.51588355   -163.26535   -7937.6706    4.2247506    4.2247506    4.2247506   -7937.6706   -17308.736   -5675.0714   -829.20482    4674.6413   -15070.955   -775.94195    75.405537 
   72900    503.15045    -163.7211    0.4552611   -163.26584    2878.6643     4.224858     4.224858     4.224858    2878.6643   -16142.341    26139.207   -1360.8734    6708.6162   -19503.955   -6982.5739    75.411284 
   73000    593.55161   -163.80159   0.53705797   -163.26453   -1312.8501    4.2201006    4.2201006    4.2201006   -1312.8501   -4258.9354    9798.3876   -9478.0026    9196.2442   -23644.557    -9445.132    75.156825 
   73100    659.98611   -163.86145    0.5971693   -163.26428   -9471.2522    4.2245818    4.2245818    4.2245818   -9471.2522   -23921.378    4397.0627   -8889.4415    5122.5682   -33124.654   -4300.8185    75.396497 
   73200    560.71795   -163.77126   0.50734939   -163.26391   -2174.7576    4.2270425    4.2270425    4.2270425   -2174.7576   -16462.584    27266.674   -17328.363    6771.0814   -28098.416   -7616.3588    75.528322 
   73300    566.80705   -163.77559   0.51285893   -163.26273    -2725.387    4.2172201    4.2172201    4.2172201    -2725.387   -8538.2101    22340.331   -21978.281    1541.7086   -33996.128   -3174.4617    75.003032 
   73400    675.94417   -163.87563   0.61160849   -163.26402     877.5397    4.2222881    4.2222881    4.2222881     877.5397   -1689.7302    25138.712   -20816.363   -3337.9807    -25951.52    1142.8466    75.273755 
   73500     705.4338   -163.90076   0.63829132   -163.26247    -9617.031    4.2290796    4.2290796    4.2290796    -9617.031   -11613.648    4582.7887   -21820.234   -1556.4925   -21210.146    6272.8221    75.637574 
   73600    713.40734   -163.90662   0.64550595   -163.26112    -1559.263    4.2205532    4.2205532    4.2205532    -1559.263    4935.4627    9874.4473   -19487.699   -6430.9578   -18721.446    6128.4883    75.181008 
   73700    793.71218    -163.9798   0.71816746   -163.26163     8230.984    4.2190209    4.2190209    4.2190209     8230.984    919.60445      24995.7   -1222.3522    -5194.424   -6566.7187    7873.3581    75.099153 
   73800    861.83026   -164.04224   0.77980213   -163.26244   -13041.601    4.2265716    4.2265716    4.2265716   -13041.601    -18892.56   -20815.716    583.47173   -5036.2141   -7073.3423    9870.0903    75.503083 
   73900    816.98548   -164.00027   0.73922563   -163.26105    1477.6532     4.225414     4.225414     4.225414    1477.6532      12590.6   -5480.5491   -2677.0911    7161.1499    4778.6637    5027.8875    75.441063 
   74000    776.93776   -163.96283   0.70298961   -163.25984    1105.6424      4.22209      4.22209      4.22209    1105.6424   -13327.241    9118.9379    7525.2304    12312.457     4776.277    1460.5829    75.263163 
   74100    844.92035   -164.02459   0.76450169   -163.26009   -6529.1967    4.2226719    4.2226719    4.2226719   -6529.1967   -9214.1929   -19196.364    8822.9672    16163.204    7399.2452    202.19086    75.294284 
   74200    908.91193   -164.08342   0.82240262   -163.26102    1474.5752    4.2232124    4.2232124    4.2232124    1474.5752    7004.9918   -13995.074    11413.808    26748.309    9838.8521   -2854.0621      75.3232 
   74300     889.4877   -164.06621   0.80482717   -163.26138   -5195.9947    4.2243864    4.2243864    4.2243864   -5195.9947   -23485.934    -14313.51     22211.46    28460.358     7058.056   -4915.2257    75.386038 
   74400    853.52705   -164.03296   0.77228922   -163.26067    2331.1757     4.223214     4.223214     4.223214    2331.1757   -7615.6696   -7757.3881    22366.585    29096.927    5061.4615   -6998.1422    75.323285 
   74500    894.79606   -164.06978   0.80963028   -163.26015    -3314.136    4.2235118    4.2235118    4.2235118    -3314.136   -7349.5242   -18346.384    15753.501    26498.217    1183.8987    2835.0871    75.339221 
   74600     799.9074   -163.98435   0.72377303   -163.26058   -556.05682    4.2234033    4.2234033    4.2234033   -556.05682   -13750.922    2304.7949    9777.9561    25931.572    10.364872    1807.2108    75.333417 
   74700    785.73001   -163.97156   0.71094502   -163.26062    4643.4633    4.2225451    4.2225451    4.2225451    4643.4633     -869.221    10472.424    4327.1867     17086.97   -5717.6787    5628.5155    75.287503 
   74800    976.26093   -164.14363    0.8833414   -163.26029   -8321.3907    4.2254902    4.2254902    4.2254902   -8321.3907   -7095.4269   -12198.862   -5669.8833    11009.114   -7951.2751    5705.3075    75.445145 
   74900      1036.82   -164.19824   0.93813655    -163.2601    1911.2824     4.221506     4.221506     4.221506    1911.2824    815.18171    11985.813    -7067.148    4972.5468   -7929.7957    7506.1956    75.231935 
   75000    1037.4582   -164.19888   0.93871401   -163.26017    7543.9231    4.2211301    4.2211301    4.2211301    7543.9231    3855.4471    21915.554   -3139.2321   -7133.1398   -11868.131    3730.5388    75.211841 
   75100    1156.5527   -164.30575    1.0464732   -163.25928   -5452.9002    4.2274459    4.2274459    4.2274459   -5452.9002    -9782.359    8293.1361   -14869.478   -7081.9697   -7142.9774    -314.4834    75.549951 
   75200    1140.8181   -164.29128    1.0322362   -163.25905   -233.90859    4.2216207    4.2216207    4.2216207   -233.90859     2011.896    11837.279   -14550.901   -14256.355   -5957.5514   -333.12251    75.238068 
   75300    998.60329   -164.16326   0.90355725    -163.2597      7082.82    4.2228725    4.2228725    4.2228725      7082.82     45.55088    29201.077   -7998.1678   -17506.271    -4086.156   -1730.2945    75.305017 
   75400    1032.2079   -164.19282   0.93396336   -163.25886   -5799.2157    4.2277288    4.2277288    4.2277288   -5799.2157   -5521.8545    8871.5321   -20747.325   -13739.854    1313.0791   -4925.2103    75.565118 
   75500    984.96587   -164.15229   0.89121782   -163.26107    2499.4024    4.2200711    4.2200711    4.2200711    2499.4024     17162.83   -1553.8577   -8110.7655   -15840.089    6397.3031   -6774.7459    75.155249 
   75600    822.01249   -164.00792   0.74377417   -163.26415    6810.5469    4.2218127    4.2218127    4.2218127    6810.5469   -2990.3194     16895.48    6526.4802   -6937.9604    11451.942   -4184.9984    75.248333 
   75700    774.50817   -163.96383   0.70079127   -163.26304   -7934.9171    4.2301397    4.2301397    4.2301397   -7934.9171   -7044.6296   -5660.8536   -11099.268   -1652.5668    9728.2166   -2051.0443    75.694465 
   75800    739.19955   -163.93188   0.66884329   -163.26304     3730.726    4.2180486    4.2180486    4.2180486     3730.726    4004.1134   -3932.2003    11120.265    5743.0833    10845.063   -4672.5054     75.04724 
   75900    686.28739   -163.88617   0.62096725    -163.2652    5145.0181    4.2162727    4.2162727    4.2162727    5145.0181   -6206.3708   -806.21702    22447.642     20986.48    10945.293   -285.86478    74.952489 
   76000      612.421   -163.81816   0.55413139   -163.26403   -11153.691    4.2346151    4.2346151    4.2346151   -11153.691   -8848.5994   -15147.234   -9465.2395    29319.205    4723.4432     2805.638    75.934971 
   76100    646.28161   -163.84595   0.58476918   -163.26118    4054.5113     4.220715     4.220715     4.220715    4054.5113   -1707.1697   -5169.9153    19040.619    37645.629    2219.0563    2693.5493    75.189652 
   76200    655.66396   -163.85371   0.59325853   -163.26046    115.94863    4.2134209    4.2134209    4.2134209    115.94863   -15896.979   -18434.716     34679.54    51321.254   -1347.6099    1409.4129    74.800508 
   76300    536.34915   -163.74973   0.48529998   -163.26443   -6414.6225    4.2302617    4.2302617    4.2302617   -6414.6225   -19493.883   -4974.6618    5224.6777    54217.748   -2456.6102   -294.38646    75.701017 
   76400    512.41952   -163.72779   0.46364795   -163.26414    -4182.144    4.2253587    4.2253587    4.2253587    -4182.144   -16765.389   -13610.155    17829.111    55941.455   -5881.5018   -533.18768    75.438102 
   76500    512.21263   -163.72581   0.46346075   -163.26235   -2708.3266     4.217514     4.217514     4.217514   -2708.3266    -31926.64   -12805.881    36607.541    57269.858   -3253.3545   -2517.0743    75.018712 
   76600    394.74349   -163.62198    0.3571722   -163.26481    -5085.317    4.2258096    4.2258096    4.2258096    -5085.317   -19834.173   -9427.1648    14005.387    52482.388   -2464.5245    -7188.074    75.462252 
   76700    322.46704   -163.55693   0.29177496   -163.26515   -4102.2519    4.2280022    4.2280022    4.2280022   -4102.2519   -16402.556   -10503.711    14599.511    54067.164     4002.825   -4127.2968    75.579778 
   76800    359.15483   -163.58837   0.32497084    -163.2634   -1876.4761    4.2202305    4.2202305    4.2202305   -1876.4761   -27928.834   -14526.041    36825.447     53463.84    5987.9564   -4348.2838    75.163766 
   76900    399.43369   -163.62544     0.361416   -163.26402   -1885.9757     4.221611     4.221611     4.221611   -1885.9757   -14107.434   -7127.9807    15577.488    40566.089    6189.8368   -2615.9679    75.237548 
   77000    401.66356   -163.62853   0.36343363    -163.2651     -8879.71    4.2282922    4.2282922    4.2282922     -8879.71    -28333.72   -1377.9718    3072.5615    44563.635    11697.698   -257.80132    75.595333 
   77100    493.59542    -163.7125   0.44661551   -163.26589   -1259.6398    4.2196969    4.2196969    4.2196969   -1259.6398   -11969.302   -15466.479    23656.862    40398.193    11728.741    3565.3932    75.135257 
   77200    645.31807   -163.85019   0.58389735   -163.26629   -2405.8291     4.221004     4.221004     4.221004   -2405.8291   -4862.4708    2.1586032   -2357.1751    26811.335    10193.362     3838.331      75.2051 
   77300    654.17189   -163.85877   0.59190847   -163.26687   -4142.0023    4.2261285    4.2261285    4.2261285   -4142.0023    6793.8511   -8368.9971   -10850.861    19734.624   -197.70167    8863.9767    75.479338 
   77400    793.40012   -163.98363    0.7178851   -163.26574    1507.5212    4.2230123    4.2230123    4.2230123    1507.5212    8209.3767   -5434.0972    1747.2839    16292.119   -774.68265    6880.6319    75.312496 
   77500    1047.5806   -164.21093   0.94787295   -163.26306   -2586.0896    4.2223927    4.2223927    4.2223927   -2586.0896    1684.1326     7359.754   -16802.155    736.36185   -2312.4884    5960.4014    75.279351 
   77600    1187.4906   -164.33632    1.0744664   -163.26185     1896.672    4.2231261    4.2231261    4.2231261     1896.672    21967.303   -5233.0986   -11044.188   -5591.0973    -6160.109     3928.502    75.318584 
   77700     1235.954   -164.37908    1.1183172   -163.26077    3815.1291    4.2260042    4.2260042    4.2260042    3815.1291   -1074.9588    17093.027   -4572.6812   -6488.5548   -3338.2787    2356.5473     75.47268 
   77800    1354.6687   -164.48463    1.2257327    -163.2589    4955.3695    4.2203673    4.2203673    4.2203673    4955.3695    7201.9079    11047.089   -3382.8885   -17457.763     -3202.09    5342.7368    75.171074 
   77900    1367.6827   -164.49627     1.237508   -163.25877    1125.2841    4.2219969    4.2219969    4.2219969    1125.2841    7143.4328    6520.0099    -10287.59   -18287.707    5080.5274   -4761.7236    75.258181 
   78000    1252.2436     -164.392    1.1330563   -163.25894    451.46109    4.2248511    4.2248511    4.2248511    451.46109   -1530.9707    19977.322   -17091.968   -16665.838    4975.9861   -1313.6471    75.410916 
   78100    1263.5945   -164.40144    1.1433269   -163.25812    412.19453    4.2234916    4.2234916    4.2234916    412.19453   -6514.7623    24615.804   -16864.458   -16842.314    9208.4369    1430.5656    75.338142 
   78200    1257.6518   -164.39579    1.1379498   -163.25784    -1206.139    4.2230271    4.2230271    4.2230271    -1206.139    1283.4488    12105.958   -17007.824    -15276.11    9410.6182    4051.5872     75.31329 
   78300    1051.9243   -164.21215   0.95180325   -163.26035    7450.9759    4.2214358    4.2214358    4.2214358    7450.9759   -8412.9379    41823.776   -11057.911    -8898.025    12779.615    514.03379    75.228182 
   78400    1018.8065   -164.18251   0.92183752   -163.26067    1067.1271    4.2250746    4.2250746    4.2250746    1067.1271   -834.39053    16262.776   -12227.004   -3098.8733    13154.214    1714.8669    75.422884 
   78500     986.5294   -164.15251   0.89263253   -163.25988   -4327.5008    4.2246745    4.2246745    4.2246745   -4327.5008   -10546.334    2948.2946   -5384.4628   -241.68585    10240.837    5927.3442    75.401459 
   78600    803.42898   -163.98872   0.72695942   -163.26176    452.23465    4.2192827    4.2192827    4.2192827    452.23465   -8138.1006    14590.061    -5095.257    8078.1732    9460.5796    3171.3438    75.113131 
   78700    684.37555   -163.88355   0.61923738   -163.26431    623.39862    4.2244899    4.2244899    4.2244899    623.39862   -1587.3852    7309.3731    -3851.792    19507.745    4063.5375    2722.8136    75.391579 
   78800    682.27876   -163.88098   0.61734016   -163.26364   -5078.1402    4.2245036    4.2245036    4.2245036   -5078.1402   -21677.566    803.64153     5639.504    22778.387    3707.2279    122.11088     75.39231 
   78900    630.14513   -163.83439   0.57016856   -163.26422    359.85031     4.219865     4.219865     4.219865    359.85031   -9392.8093    292.58467    10179.776     30173.41   -3944.7293    2334.5008    75.144234 
   79000    538.74718   -163.75362   0.48746977   -163.26615   -2302.0115    4.2214179    4.2214179    4.2214179   -2302.0115   -20367.784   -9168.4799     22630.23    45775.132   -3526.7421   -2439.7496    75.227224 
   79100    491.32305   -163.71143   0.44455943   -163.26687   -3769.1757    4.2234593    4.2234593    4.2234593   -3769.1757   -13661.067   -20486.951    22840.491    46478.893   -5362.6256   -4598.3636    75.336414 
   79200    446.31453   -163.66952   0.40383477   -163.26569   -5201.7262    4.2252224    4.2252224    4.2252224   -5201.7262   -23308.247   -6070.2691    13773.337    53509.978   -2332.8919   -650.77479      75.4308 
   79300    340.15851   -163.57383   0.30778257   -163.26605   -1865.5711    4.2184754    4.2184754    4.2184754   -1865.5711   -12894.543   -28166.425    35464.255    65957.845    789.24095   -5954.5714    75.070025 
   79400    307.41885   -163.54618   0.27815903   -163.26802   -430.52098    4.2218924    4.2218924    4.2218924   -430.52098   -13904.372   -16607.419    29220.228    64952.228   -3484.4343   -355.82333    75.252596 
   79500    320.37837   -163.55651   0.28988509   -163.26662   -13501.736    4.2279452    4.2279452    4.2279452   -13501.736   -22883.435   -26479.335    8857.5617    63222.521    8073.5881   -2802.5463    75.576721 
   79600    259.31968   -163.50156    0.2346379   -163.26693    272.62238     4.219489     4.219489     4.219489    272.62238    1275.4251    -29893.93    29436.372    67928.721    390.69533   -199.68206    75.124152 
   79700    362.73023   -163.59619   0.32820593   -163.26799   -2970.8957    4.2173286    4.2173286    4.2173286   -2970.8957   -29640.221    -9684.228    30411.762    64066.939    6061.5521    294.53702    75.008818 
   79800    444.05924   -163.67122   0.40179413   -163.26943   -5404.8321    4.2271363    4.2271363    4.2271363   -5404.8321    10252.426   -41764.784    15297.862    53790.635    3551.6176     1519.327    75.533354 
   79900    501.58411   -163.72257   0.45384384   -163.26872   -7157.5938    4.2237966    4.2237966    4.2237966   -7157.5938   -29941.272   -18420.512    26889.003    54014.353    1795.6971    3103.6296    75.354462 
   80000    594.22747   -163.80304   0.53766951   -163.26537    9557.8861    4.2133202    4.2133202    4.2133202    9557.8861     8416.691   -11911.928    32168.895    49427.129    3060.9907   -2667.3968    74.795142 
   80100    670.70946   -163.87207   0.60687201    -163.2652   -8265.8432    4.2291641    4.2291641    4.2291641   -8265.8432   -9141.0936   -18308.817    2652.3806     36368.73   -2049.4866    2980.8166    75.642106 
   80200    730.64892   -163.92309    0.6611065   -163.26199   -3117.0225      4.22442      4.22442      4.22442   -3117.0225   -13798.737   -3867.0936    8314.7634    31417.504   -1089.6447    107.46216    75.387835 
   80300    778.60216    -163.9625    0.7044956   -163.25801    7154.6634    4.2155705    4.2155705    4.2155705    7154.6634    9854.8168   -1584.2462     13193.42    23011.942   -2414.0091      817.982    74.915051 
   80400    913.71328   -164.08625   0.82674698    -163.2595   -2304.6365    4.2266735    4.2266735    4.2266735   -2304.6365   -14511.869    13864.412   -6266.4524    9090.4483    759.70917   -2232.8823    75.508545 
   80500    1020.0018   -164.18291   0.92291906   -163.25999   -3414.2513    4.2228116    4.2228116    4.2228116   -3414.2513   -9086.4315   -490.04824   -666.27408    2749.2494    982.02121   -1745.5918    75.301756 
   80600    1022.2745    -164.1849   0.92497541   -163.25992    9710.7035    4.2199392    4.2199392    4.2199392    9710.7035    655.91581     34628.45   -6152.2553   -4340.8706    3455.6106    486.78651    75.148199 
   80700    1166.8409   -164.31588    1.0557822    -163.2601    -7426.264    4.2244801    4.2244801    4.2244801    -7426.264   -6516.9815    3400.6655   -19162.476   -11341.194    4427.0441    -3911.596    75.391053 
   80800    1133.2049    -164.2853    1.0253476   -163.25995    5552.1335    4.2205654    4.2205654    4.2205654    5552.1335    1048.4197    34470.657   -18862.676   -17699.351    8897.2016   -2010.7135    75.181661 
   80900    1171.4817   -164.31856    1.0599812   -163.25858   -3033.2303    4.2253163    4.2253163    4.2253163   -3033.2303     895.3438    22522.607   -32517.642   -16086.987    11088.967    1604.7778    75.435828 
   81000    1199.0373   -164.34346    1.0849142   -163.25854    900.13021    4.2221609    4.2221609    4.2221609    900.13021     6824.351    19549.158   -23673.119   -21034.008    5851.9413    2676.5936    75.266956 
   81100    1230.8571   -164.37219    1.1137053   -163.25849    13748.858     4.216508     4.216508     4.216508    13748.858    16877.319    33545.157   -9175.9032    -20781.44    10834.535   -193.49533    74.965043 
   81200    1308.1124   -164.44247    1.1836076   -163.25886   -7286.4852    4.2304708    4.2304708    4.2304708   -7286.4852   -6464.4874    6740.1385   -22135.107   -14073.348    5214.4324    3940.7879     75.71224 
   81300    1301.6099   -164.43566     1.177724   -163.25793    8382.4846    4.2185115    4.2185115    4.2185115    8382.4846    18046.266    7717.7793   -616.59187   -10321.399    6944.8499    2028.9356    75.071951 
   81400    1246.7823   -164.38697    1.1281148   -163.25886    3965.8968    4.2189477    4.2189477    4.2189477    3965.8968    13314.196    5333.4156   -6749.9216   -3804.6937    1349.8335    2548.7553     75.09524 
   81500    1110.9305   -164.26443    1.0051933   -163.25924   -9628.5495    4.2297569    4.2297569    4.2297569   -9628.5495   -5872.6088   -1971.2247   -21041.815    3985.4593   -2635.8918   -90.578816    75.673921 
   81600    951.54975   -164.12104   0.86098221   -163.26006    10006.493    4.2189163    4.2189163    4.2189163    10006.493    30919.695   -3947.1658    3046.9506    9884.1674    873.60967   -907.00507    75.093569 
   81700    943.33123   -164.11537   0.85354592   -163.26182   -4301.3526    4.2224209    4.2224209    4.2224209   -4301.3526   -8018.2653    -9715.677    4829.8846    20001.906    -1754.393   -54.830549     75.28086 
   81800    827.10175   -164.01261   0.74837905   -163.26423    -1597.054    4.2270245    4.2270245    4.2270245    -1597.054    7333.7278    -13332.17    1207.2807    23199.072   -1047.2558   -3068.9834    75.527361 
   81900    736.59955    -163.9319   0.66649075   -163.26541    2484.7216    4.2190903    4.2190903    4.2190903    2484.7216   -11230.449   -2596.2624    21280.877    36381.294    901.50518   -436.93352    75.102856 
   82000    664.26992   -163.86911   0.60104538   -163.26806   -1744.9417    4.2205373    4.2205373    4.2205373   -1744.9417   -14005.783   -11383.186    20154.145    43957.849    6808.3673   -94.688064    75.180156 
   82100    496.34856   -163.71735    0.4491066   -163.26825   -9054.1097    4.2285793    4.2285793    4.2285793   -9054.1097   -21088.805   -4648.2378   -1425.2863    46099.058    5274.2129    1645.4569    75.610733 
   82200    354.41075   -163.58905    0.3206783   -163.26837   -3030.6713    4.2185812    4.2185812    4.2185812   -3030.6713   -29732.647    735.72349     19904.91    58993.958    8229.0542    1139.3225    75.075673 
   82300    210.03811   -163.46053    0.1900469   -163.27048   -2996.0738    4.2186847    4.2186847    4.2186847   -2996.0738   -25991.454   -10707.402    27710.634    59244.949    3910.4138    6517.5891    75.081198 
   82400    143.73901   -163.40029   0.13005807   -163.27023   -10085.332    4.2281221    4.2281221    4.2281221   -10085.332   -43087.182    5696.1567     7135.028    57997.788    6415.7936   -271.29931     75.58621 
   82500    147.70972   -163.40288   0.13365086   -163.26923   -1376.7478    4.2208117    4.2208117    4.2208117   -1376.7478   -30094.555   -3015.6525    28979.964    61343.818     4391.152    3524.1684    75.194823 
   82600     259.9235   -163.50404   0.23518424   -163.26885   -3644.2013    4.2180244    4.2180244    4.2180244   -3644.2013   -43789.938   -4121.4957     36978.83    62638.068   -739.65957     189.1462    75.045949 
   82700    409.53114   -163.63991   0.37055238   -163.26936    -6173.144    4.2241402    4.2241402    4.2241402    -6173.144   -31272.507   -4565.9283    17319.003    55977.261   -839.50931   -740.69563    75.372857 
   82800    436.65821   -163.66354   0.39509752   -163.26844   -5565.3769    4.2262039    4.2262039    4.2262039   -5565.3769   -31880.435   -4824.3425    20008.647    56686.454   -4727.0118   -1326.4668    75.483382 
   82900    499.27857   -163.71898   0.45175775   -163.26722   -902.10253    4.2169235    4.2169235    4.2169235   -902.10253   -27869.267   -6583.7267    31746.686    55500.855   -4434.8671   -5925.7464    74.987207 
   83000    574.97638   -163.78652   0.52025071   -163.26627    4767.8044    4.2208117    4.2208117    4.2208117    4767.8044    -3066.131     3538.778    13830.766    41370.179   -4887.0865    510.83805    75.194823 
   83100    628.68084   -163.83208   0.56884364   -163.26323   -12310.093    4.2311352    4.2311352    4.2311352   -12310.093   -23890.735   -15763.969    2724.4237    37903.952    -3876.597    -2549.534    75.747921 
   83200    742.21462   -163.93158   0.67157138   -163.26001    5025.4025    4.2166311    4.2166311    4.2166311    5025.4025    1508.7837    -8716.477    22283.901    33446.315   -3955.9888   -1031.5828    74.971606 
   83300    910.93818    -164.0842   0.82423601   -163.25996   -810.39613    4.2204691    4.2204691    4.2204691   -810.39613   -4920.4468   -5912.8933    8402.1517    18841.908    1147.1296   -6.5592562     75.17651 
   83400    990.78602   -164.15596   0.89648401   -163.25948    -5772.787    4.2285881    4.2285881    4.2285881    -5772.787   -5853.3542   -12256.284    791.27754     9588.882    3647.2506    2161.3153    75.611205 
   83500    1075.2746   -164.23142   0.97293105   -163.25848    169.26563     4.219486     4.219486     4.219486    169.26563    3021.3883   -7525.6697    5012.0783    6430.1427    4741.3148    1861.0455    75.123993 
   83600    1180.2724   -164.32654    1.0679352   -163.25861    3815.0318    4.2183757    4.2183757    4.2183757    3815.0318     5044.927   -825.27102    7225.4394   -6488.3842    10237.858   -1798.2229    75.064705 
   83700    1161.4905   -164.31038     1.050941   -163.25943     959.9659    4.2241292    4.2241292    4.2241292     959.9659    19988.072   -4977.1879   -12130.986    -10718.28    4831.1939    1099.7478     75.37227 
   83800    1113.5894   -164.26612    1.0075991   -163.25852   -5446.7508    4.2248362    4.2248362    4.2248362   -5446.7508    9418.3459   -4733.2511   -21025.347   -12327.475    6645.9875   -5548.0738    75.410118 
   83900    1150.9665   -164.29818    1.0414186   -163.25676    17020.269    4.2161022    4.2161022    4.2161022    17020.269    27265.207    17461.888    6333.7102   -17688.513   -60.586093   -350.17878    74.943399 
   84000    1184.2266   -164.33011    1.0715131    -163.2586    -2386.894    4.2237629    4.2237629    4.2237629    -2386.894    19163.687   -5313.3467   -21011.022   -20010.418    671.09782    -6702.759    75.352661 
   84100     1192.468   -164.33636    1.0789701   -163.25739   -195.82035     4.225608     4.225608     4.225608   -195.82035    15217.173   -2940.4992   -12864.135   -17415.117   -900.30699   -4287.8346    75.451455 
   84200    1189.6253   -164.33143     1.076398   -163.25504    16738.503    4.2178385    4.2178385    4.2178385    16738.503    26639.929    16534.259    7041.3217    -17418.49   -6658.9799   -2415.3567     75.03603 
   84300    1200.4321   -164.34189    1.0861762   -163.25571   -11713.133    4.2256346    4.2256346    4.2256346   -11713.133      8676.88   -16199.958   -27616.321   -16279.901   -584.01968   -8267.2782    75.452882 
   84400    1158.7084   -164.30529    1.0484237   -163.25687    6044.7335    4.2205122    4.2205122    4.2205122    6044.7335    17452.752    3349.1378   -2667.6895   -10988.903   -6117.8918    1433.2473    75.178818 
   84500    1102.2568   -164.25536   0.99734512   -163.25801       1595.7    4.2211701    4.2211701    4.2211701       1595.7    2980.8627    1717.6076    88.629596   -4156.8188    1717.9089   -4632.3179    75.213977 
   84600    1094.6768   -164.24909    0.9904866   -163.25861   -10588.619    4.2246595    4.2246595    4.2246595   -10588.619   -11716.113   -11585.436   -8464.3064   -26.962761    -1464.953    2372.4182    75.400658 
   84700    1037.8122   -164.19928   0.93903433   -163.26025    11296.281    4.2184171    4.2184171    4.2184171    11296.281    5867.2871    7337.0842    20684.473    6837.9096   -629.19377    463.93591    75.066911 
   84800    976.36624   -164.14622   0.88343669   -163.26278   -4502.5857    4.2231837    4.2231837    4.2231837   -4502.5857   -14983.648   -9825.9199    11301.811    20804.091    6363.3132    4338.6193    75.321666 
   84900    936.61896    -164.1107   0.84747252   -163.26323   -2377.7439    4.2225036    4.2225036    4.2225036   -2377.7439   -13313.604   -12178.761    18359.133    24797.032   -1023.2529    1026.3528    75.285281 
   85000    820.06789   -164.00601   0.74201466   -163.26399    4086.3285    4.2203084    4.2203084    4.2203084    4086.3285    2230.6421    -11560.72    21589.064    32223.793    5832.3897    -2832.513    75.167926 
   85100    661.55973   -163.86366   0.59859314   -163.26506   -8577.1689    4.2227245    4.2227245    4.2227245   -8577.1689   -23405.789   -16050.756    13725.039     46226.48   -3695.5376    2824.7672    75.297102 
   85200     569.8068   -163.78049   0.51557317   -163.26492   -3361.1004    4.2239056    4.2239056    4.2239056   -3361.1004   -17813.464    -9895.316    17625.479    45945.756     382.9106    -7884.602      75.3603 
   85300    523.37227   -163.73797   0.47355823   -163.26441    -5326.258    4.2220639    4.2220639    4.2220639    -5326.258    -20363.36   -13643.112    18027.698    48982.174    1657.3697   -1070.3853    75.261765 
   85400    470.12121   -163.69079   0.42537555   -163.26541   -3968.5758     4.219657     4.219657     4.219657   -3968.5758   -29793.677   -19587.414    37475.364     54940.28   -6414.9471   -6880.4958    75.133127 
   85500    429.71799   -163.65462   0.38881787    -163.2658    -4416.792     4.227186     4.227186     4.227186    -4416.792   -19604.705   -15853.397    22207.726    46848.599    435.07375   -7283.5714    75.536014 
   85600    397.54334   -163.62442   0.35970556   -163.26472   -4672.1438    4.2222088    4.2222088    4.2222088   -4672.1438   -23393.003   -11676.088    21052.659    46063.448   -5483.9978   -984.82049    75.269514 
   85700     333.1728   -163.56676   0.30146175    -163.2653   -3565.2124    4.2174123    4.2174123    4.2174123   -3565.2124   -33869.213    -23498.83    46672.406    42883.412    2084.4258   -7625.7665    75.013286 
   85800    281.82419   -163.52146   0.25500045   -163.26646   -6243.7143    4.2265283    4.2265283    4.2265283   -6243.7143   -31635.034   -7733.9685     20637.86    29177.763   -3001.6656    1253.6151    75.500764 
   85900     286.8022   -163.52472   0.25950466   -163.26521   -7126.7625    4.2234747    4.2234747    4.2234747   -7126.7625   -26488.663   -10359.917    15468.293    24213.556   -2106.7279    2993.6247    75.337239 
   86000    339.57815   -163.57185   0.30725745   -163.26459   -2051.8719    4.2189431    4.2189431    4.2189431   -2051.8719   -24678.295     -13072.5    31595.179    22526.682    2757.2334    2206.1655    75.094999 
   86100    492.08638   -163.71074    0.4452501   -163.26549   -188.02468    4.2227038    4.2227038    4.2227038   -188.02468   -21531.506   -3111.6155    24079.047    7771.3428    218.76531    9031.2619    75.295989 
   86200    644.13462   -163.84836   0.58282654   -163.26553   -10801.322     4.225225     4.225225     4.225225   -10801.322    -23124.37   -21536.308    12256.711    2995.3846     4130.003    5891.7673    75.430941 
   86300    679.30268   -163.87977   0.61464734   -163.26512    3834.1382    4.2195805    4.2195805    4.2195805    3834.1382    -2917.799   -6658.0327    21078.246    3695.0017   -2137.9621    12341.196    75.129036 
   86400    757.63063   -163.94956   0.68552012   -163.26404    2745.2973    4.2211345    4.2211345    4.2211345    2745.2973    2353.0086   -1393.9109    7276.7944   -4132.7057    1446.4299    9499.5592    75.212073 
   86500     921.9812   -164.09611   0.83422797   -163.26188   -10734.572    4.2262261    4.2262261    4.2262261   -10734.572    -16510.91   -6106.9181   -9585.8864   -7461.7282    841.37439    10581.984    75.484569 
   86600    1037.1999   -164.19892   0.93848026   -163.26044    4405.3846    4.2199459    4.2199459    4.2199459    4405.3846   -364.54725   -452.83562    14033.537   -8206.5974   -974.96021    6796.2131    75.148559 
   86700    1115.4299   -164.26879    1.0092644   -163.25953   -1296.3311    4.2207632    4.2207632    4.2207632   -1296.3311    6937.7762   -1871.2597   -8955.5099   -10578.379   -3906.6262    8622.4884    75.192231 
   86800    1244.3572    -164.3845    1.1259205   -163.25858     4474.651    4.2230854    4.2230854    4.2230854     4474.651    5442.8869   -1180.9936    9162.0598   -11750.087   -1266.9864    3732.3281    75.316409 
   86900    1357.3206   -164.48546    1.2281322   -163.25733   -1556.8943    4.2249263    4.2249263    4.2249263   -1556.8943   -4421.4971   -6259.6024    6010.4166   -9920.7512   -847.98659   -3161.4466    75.414944 
   87000    1398.0257   -164.52077    1.2649631   -163.25581   -209.29511    4.2202066    4.2202066    4.2202066   -209.29511   -9204.3596    -70.14052    8646.6148   -6048.2418   -1399.6033    4395.9584    75.162488 
   87100    1343.5629    -164.4721     1.215684   -163.25642    8758.9044    4.2195715    4.2195715    4.2195715    8758.9044    1094.4821    7831.6943    17350.537   -3071.0799    1022.1236   -7560.4387    75.128557 
   87200    1262.6866   -164.40023    1.1425054   -163.25772   -4457.0511    4.2272382    4.2272382    4.2272382   -4457.0511   -9767.1281   -6685.6976    3081.6724    1149.6285   -217.08588    1164.6631    75.538811 
   87300    1272.1156   -164.40848    1.1510369   -163.25744    180.06943    4.2197895    4.2197895    4.2197895    180.06943   -16402.833   -3168.9317    20111.973    8373.4331    3852.8025   -6078.0455      75.1402 
   87400    1246.6486   -164.38736    1.1279939   -163.25936    1355.7668    4.2214259    4.2214259    4.2214259    1355.7668   -3523.8772   -4190.7132    11781.891    12585.986   -946.54282    1034.9367    75.227654 
   87500    1135.5133    -164.2874    1.0274363   -163.25996   -4619.6588    4.2260245    4.2260245    4.2260245   -4619.6588   -7258.8421    -20434.61    13834.476    16232.957    6136.7962   -2781.3261    75.473768 
   87600    1024.5492   -164.18697   0.92703363   -163.25994    5077.0043     4.221327     4.221327     4.221327    5077.0043   -4804.0566   -10044.196    30079.266    21169.978   -753.87254     949.1622    75.222367 
   87700    914.34013   -164.08955   0.82731417   -163.26223    3218.5763    4.2191095    4.2191095    4.2191095    3218.5763    91.593646   -6842.1938    16406.329    19837.948    2210.4123    2009.0244    75.103883 
   87800    787.60822   -163.97746   0.71264446   -163.26482   -6594.5203    4.2234743    4.2234743    4.2234743   -6594.5203   -15655.416   -27314.835    23186.689    19986.573   -339.05795    2412.7882    75.337214 
   87900    644.00387    -163.8473   0.58270824   -163.26459   -4329.5874     4.226562     4.226562     4.226562   -4329.5874   -5845.4477   -16417.237    9273.9222    15212.395   -725.35123     8069.261    75.502568 
   88000     541.6507   -163.75399   0.49009694    -163.2639    7926.0307    4.2174039    4.2174039    4.2174039    7926.0307    16734.107   -16179.688    23223.673    10464.659    111.17138    5604.4105    75.012838 
   88100    526.39037   -163.74233   0.47628907   -163.26604   -4296.1895    4.2230262    4.2230262    4.2230262   -4296.1895   -4911.1824   -39852.865    31875.479    6936.0787   -5524.7048    10015.165    75.313238 
   88200    537.31374   -163.75192   0.48617276   -163.26575   -7322.1958    4.2265649    4.2265649    4.2265649   -7322.1958   -8323.7351   -17989.381    4346.5292   -2461.6385    2152.4134    8298.5304    75.502725 
   88300    431.92214   -163.65677   0.39081223   -163.26596    4296.5625    4.2169408    4.2169408    4.2169408    4296.5625    13400.596   -27375.633    26864.725   -11794.557   -381.82828    7302.9112    74.988129 
   88400     314.5459   -163.55247   0.28460774   -163.26786    -6134.612    4.2235722    4.2235722    4.2235722    -6134.612   -320.17177    -36554.39    18470.726   -17127.221   -2557.7632    4421.1376    75.342454 
   88500    276.10672   -163.51546   0.24982716   -163.26563   -5066.0055    4.2269098    4.2269098    4.2269098   -5066.0055   -12108.603     -6722.12    3632.7064   -21962.213    3678.7259    6595.3378    75.521212 
   88600    297.63288   -163.53352   0.26930448   -163.26421   -8046.6578    4.2201281    4.2201281    4.2201281   -8046.6578   -19968.384   -34303.664    30132.075   -27640.133    2162.3335    2813.8076    75.158293 
   88700    294.88293   -163.53217   0.26681627   -163.26536   -5778.4981    4.2189721    4.2189721    4.2189721   -5778.4981   -19411.893   -14490.016    16566.415    -28927.87    1401.0708    4062.1528    75.096548 
   88800    366.52762   -163.59828   0.33164189   -163.26663   -225.67293    4.2269437    4.2269437    4.2269437   -225.67293   -12500.811   -5383.9559    17207.748   -26377.009    696.54228    2318.6726    75.523027 
   88900     497.9217   -163.71518   0.45053002   -163.26465   -6239.4835    4.2232492    4.2232492    4.2232492   -6239.4835   -28553.541   -23724.923    33560.013   -29796.554   -3197.0321   -5366.7091    75.325173 
   89000     593.4465   -163.80008   0.53696286   -163.26312    89.373314    4.2165723    4.2165723    4.2165723    89.373314    -28918.66    11911.711     17275.07   -22976.439   -2749.0703    1827.4276     74.96847 
   89100     577.6661     -163.788   0.52268442   -163.26532    764.59678    4.2260069    4.2260069    4.2260069    764.59678    -10764.42   -1138.2264    14196.436   -15731.267   -9546.3236   -8400.5007    75.472827 
   89200    585.84935   -163.79446    0.5300888   -163.26437   -8770.7287    4.2239217    4.2239217    4.2239217   -8770.7287   -34112.383    4806.8621    2993.3343    -18446.95   -7324.1343    529.69022    75.361163 
   89300    716.71745   -163.91017   0.64850101   -163.26167   -2476.7589    4.2180393    4.2180393    4.2180393   -2476.7589    -25594.88    17075.317     1089.286   -7183.5392   -9594.9141   -1458.5876    75.046746 
   89400     832.3254   -164.01532   0.75310551   -163.26222   -2037.3903    4.2237444    4.2237444    4.2237444   -2037.3903    -10322.56    11191.802   -6981.4132   -2507.5378   -5069.6853   -1540.5437     75.35167 
   89500    933.61371   -164.10589    0.8447533   -163.26114   -6158.0885    4.2247317    4.2247317    4.2247317   -6158.0885   -20138.211    20315.191   -18651.245   -3729.0318   -6572.3016    3250.7962    75.404522 
   89600    1126.2193   -164.27796    1.0190269   -163.25893    2893.7975    4.2197741    4.2197741    4.2197741    2893.7975    -461.7396    17044.623   -7901.4911    6768.9949   -3036.2626   -5573.2943    75.139381 
   89700     1245.322   -164.38539    1.1267935    -163.2586    3745.8642    4.2209634    4.2209634    4.2209634    3745.8642    4915.9353    20890.558   -14568.901    6347.3526    66.556807    5944.7662    75.202927 
   89800    1198.3047   -164.34197    1.0842513   -163.25772   -5214.7504    4.2263715    4.2263715    4.2263715   -5214.7504   -2074.7728    13261.945   -26831.424    6949.6153   -3806.6178   -3580.8654     75.49236 
   89900    1184.1851   -164.32734    1.0714755   -163.25586    4980.6348    4.2202851    4.2202851    4.2202851    4980.6348     7345.646    20467.456   -12871.198    8312.1878     4914.553    2080.2201    75.166681 
   90000    1223.4575   -164.36342    1.1070101   -163.25641    8982.3851    4.2172936    4.2172936    4.2172936    8982.3851    23733.081    17390.835   -14176.761    8011.0606    4936.4936   -316.36384    75.006953 
   90100    1216.4695   -164.35926    1.1006872   -163.25857   -2483.4101    4.2252324    4.2252324    4.2252324   -2483.4101    9515.4137    4134.5209   -21100.165    1855.3568    4867.3324   -3270.3203    75.431338 
   90200    1298.1322   -164.43251    1.1745773   -163.25793   -2200.8097    4.2238704    4.2238704    4.2238704   -2200.8097    1155.0478      2916.63   -10674.107   -2130.4054    9071.8585    3884.6482    75.358416 
   90300    1381.3187   -164.50683    1.2498462   -163.25698    8943.1545    4.2175659    4.2175659    4.2175659    8943.1545    19784.636    8533.8963   -1489.0682     -4189.42    3522.6798   -5620.6597    75.021483 
   90400    1269.5346   -164.40817    1.1487016   -163.25947   -3004.1939    4.2232974    4.2232974    4.2232974   -3004.1939    1066.4246   -6915.9183    -3163.088   -15529.555    1130.9997    4467.2378    75.327751 
   90500    1126.9159   -164.27867    1.0196572   -163.25901   -2335.1734    4.2263783    4.2263783    4.2263783   -2335.1734    6632.5257   -11538.339   -2099.7075   -12442.985    -950.9532   -3123.1593    75.492727 
   90600    1049.1976   -164.20706     0.949336   -163.25773    8061.6823    4.2170302    4.2170302    4.2170302    8061.6823    5500.2951     18700.08   -15.327902   -15638.834   -6386.8726   -802.02681    74.992897 
   90700    924.23077   -164.09763   0.83626342   -163.26136   -5362.2032    4.2228288    4.2228288    4.2228288   -5362.2032    6789.1132   -10534.376   -12341.347   -18926.809   -4759.8329    987.64713    75.302678 
   90800    855.32507    -164.0363    0.7739161   -163.26238   -5783.4817    4.2261636    4.2261636    4.2261636   -5783.4817   -787.90051   -1268.8799   -15293.665   -16072.091   -13359.473   -2661.6856     75.48122 
   90900    841.87784   -164.02433   0.76174876   -163.26258    7582.3065    4.2184984    4.2184984    4.2184984    7582.3065    6335.4726    29287.789   -12876.342   -12809.852   -11529.092    3721.8705    75.071252 
   91000    782.29606   -163.97297   0.70783792   -163.26513   -5895.2383    4.2208328    4.2208328    4.2208328   -5895.2383   -738.30811    4831.5659   -21778.973   -5023.6034   -8129.1478   -2607.5399     75.19595 
   91100    657.88434   -163.86178   0.59526758   -163.26651   -5815.4996    4.2266048    4.2266048    4.2266048   -5815.4996   -12212.059    14738.737   -19973.176   -6521.4435   -8602.8805    4489.4636    75.504865 
   91200    444.72395   -163.66919   0.40239558    -163.2668   -397.80509    4.2219326    4.2219326    4.2219326   -397.80509   -815.91659    30029.899   -30407.397     4143.446    5007.3814    1676.7224    75.254745 
   91300    330.92188   -163.56653   0.29942507    -163.2671   -4100.7259    4.2148037    4.2148037    4.2148037   -4100.7259   -13733.036    20397.037   -18966.179    9360.4272    2840.5305    255.40412    74.874175 
   91400     332.4528   -163.56903   0.30081028   -163.26822    -11479.38    4.2301019    4.2301019    4.2301019    -11479.38    -6918.132    5440.6109   -32960.619    9753.1385    9688.4496    1548.0432    75.692436 
   91500    327.92424   -163.56272   0.29671274   -163.26601   -6435.0399    4.2239673    4.2239673    4.2239673   -6435.0399   -5574.7588    22126.313   -35856.674    14020.373    11564.423    481.16104    75.363599 
   91600    381.21091   -163.60847   0.34492764   -163.26354    5947.7121    4.2125909    4.2125909    4.2125909    5947.7121   -5178.7404    11023.778    11998.099     17059.29    11648.623    2143.3229    74.756312 
   91700    484.35165    -163.7029   0.43825156   -163.26464   -10051.989    4.2284109    4.2284109    4.2284109   -10051.989   -5784.8484   -3368.3038   -21002.814    10574.264    9706.9066   -3244.3316    75.601697 
   91800    451.63012    -163.6715   0.40864442   -163.26285    -7181.193    4.2244459    4.2244459    4.2244459    -7181.193   -13204.982    6262.1464   -14600.744    7391.1781    15221.889   -4613.4949    75.389224 
   91900    374.63255   -163.60109   0.33897541   -163.26211    242.71875    4.2172083    4.2172083    4.2172083    242.71875   -7865.4493   -18291.236    26884.841    877.51049    5417.4883   -5959.0765    75.002401 
   92000     403.0734   -163.62901   0.36470929    -163.2643   -4333.3347    4.2208549    4.2208549    4.2208549   -4333.3347    3481.6856   -2791.7161   -13689.974   -5653.5525    3697.5666   -3329.3068    75.197133 
   92100     496.3126   -163.71425   0.44907407   -163.26517   -7812.1138    4.2262708    4.2262708    4.2262708   -7812.1138   -5851.8152   -24702.789    7118.2629   -10638.719    1517.5677   -2682.7721    75.486966 
   92200    538.43465    -163.7514   0.48718699   -163.26421   -5687.4892    4.2222982    4.2222982    4.2222982   -5687.4892    2940.0942    -35598.77    15596.209   -16307.045    -6386.851   -2372.4941    75.274297 
   92300    580.29733   -163.78915   0.52506522   -163.26408    7543.3435     4.216135     4.216135     4.216135    7543.3435    17481.897   -856.49775    6004.6314   -14277.867    -2783.019    3449.4043    74.945149 
   92400    681.43767   -163.88235   0.61657913   -163.26577   -6842.6993    4.2275794    4.2275794    4.2275794   -6842.6993   -10315.442   -37276.591    27063.936   -13275.032   -9247.5239   -742.03812    75.557107 
   92500    714.61698   -163.91029   0.64660046   -163.26369   -3718.1093    4.2226094    4.2226094    4.2226094   -3718.1093   -2021.3102   -20444.287    11311.269   -11298.541   -4387.5378    4039.6477    75.290944 
   92600    714.03941   -163.90799   0.64607787   -163.26191    6308.7914     4.218263     4.218263     4.218263    6308.7914    5969.7573   -1622.5245    14579.141   -2010.2789   -1785.2445    2164.0963    75.058688 
   92700    793.91275   -163.98018   0.71834894   -163.26183   -3306.2043    4.2256159    4.2256159    4.2256159   -3306.2043   -15736.056   -20894.288    26711.731   -503.77562   -4427.2455    5527.2431     75.45188 
   92800    974.03436   -164.14183   0.88132676    -163.2605     1490.844    4.2208337    4.2208337    4.2208337     1490.844   -6815.6677    1594.7191    9693.4806    4429.5094     1541.391    7768.2661    75.195997 
   92900    1179.4505    -164.3273    1.0671916   -163.26011    1604.7105    4.2208936    4.2208936    4.2208936    1604.7105   -9925.1265   -1628.3744    16367.632    9370.9777   -155.48098    4482.1762      75.1992 
   93000    1326.0054   -164.46048    1.1997976   -163.26068    5842.0453    4.2214334    4.2214334    4.2214334    5842.0453   -4601.3126   -822.54961    22949.998    12027.169    3100.8626     3095.406    75.228055 
   93100    1383.7371   -164.51243    1.2520344    -163.2604    637.88037    4.2224607    4.2224607    4.2224607    637.88037   -10542.728    859.94421    11596.425    8769.8757   -861.17509    2028.1843     75.28299 
   93200    1314.9298    -164.4505    1.1897761   -163.26072    4278.9027    4.2198211    4.2198211    4.2198211    4278.9027    -13638.18    9211.7173    17263.171    8466.2265    1540.0597    789.73436    75.141892 
   93300     1246.732   -164.38844    1.1280693   -163.26037    1996.5204    4.2216309    4.2216309    4.2216309    1996.5204   -3160.6935    5713.2734    3436.9812    5030.4776    484.45538   -5322.9206    75.238612 
   93400    1199.3931   -164.34448    1.0852361   -163.25925   -6024.8665    4.2263454    4.2263454    4.2263454   -6024.8665   -13094.128   -3601.4683    -1379.003   -2857.3218   -3734.2259    1751.6755    75.490961 
   93500    1174.3462   -164.32139    1.0625731   -163.25882     12013.97    4.2174937    4.2174937    4.2174937     12013.97   -72.303276    26264.678    9849.5362   -7580.3575    707.12279   -6837.5059    75.017626 
   93600    1249.9174   -164.39038    1.1309516   -163.25942   -2237.1805    4.2249598    4.2249598    4.2249598   -2237.1805   -11309.866    1794.0371    2804.2869   -9071.6384   -2986.9799    3891.8356    75.416737 
   93700    1224.1001   -164.36747    1.1075915   -163.25988   -4036.3478    4.2264265    4.2264265    4.2264265   -4036.3478   -14482.943   -95.241419    2469.1409   -12138.778    171.60828   -2971.7228    75.495307 
   93800    1064.1481   -164.22366   0.96286353   -163.26079    13220.579    4.2146494    4.2146494    4.2146494    13220.579    9158.3281    12473.873    18029.535   -18286.297   -6104.5088    1310.4524    74.865953 
   93900    940.16745   -164.11468   0.85068327     -163.264   -8798.4278    4.2267372    4.2267372    4.2267372   -8798.4278   -14944.226   -17934.097    6483.0398   -9877.2032   -618.28294    2208.7835    75.511958 
   94000    727.19265   -163.92409   0.65797919   -163.26611   -4644.5012     4.224412     4.224412     4.224412   -4644.5012   -15896.054    2164.6835    -202.1333   -7654.4365    1519.9424    3343.3479    75.387409 
   94100    570.83863   -163.78405   0.51650679   -163.26755    5413.5099    4.2149211    4.2149211    4.2149211    5413.5099    6722.7495   -9646.3874    19164.168    69.063839    1177.9891     7345.626    74.880434 
   94200    534.46925   -163.75307   0.48359901   -163.26947    -10896.17    4.2265929    4.2265929    4.2265929    -10896.17    -17509.64   -16240.678    1061.8087    9000.6361    5031.2007    6378.1664    75.504228 
   94300    498.32463   -163.71797    0.4508946   -163.26708   -3224.7121     4.227364     4.227364     4.227364   -3224.7121   -10951.293   -7017.1932    8294.3494    9437.8327    5350.2734     8737.982    75.545559 
   94400    496.40795   -163.71348   0.44916035   -163.26432     1138.623    4.2171544    4.2171544    4.2171544     1138.623   -9488.3084   -17559.046    30463.223    23032.309    7107.4619    153.93263    74.999524 
   94500    406.73556   -163.63405   0.36802288   -163.26603   -6994.8926    4.2214131    4.2214131    4.2214131   -6994.8926   -19725.948   -12196.274    10937.543    24514.453    3235.8575    3109.5069    75.226969 
   94600    259.03418   -163.49991   0.23437957   -163.26553   -4265.3211    4.2292561    4.2292561    4.2292561   -4265.3211   -3458.1334   -18631.632    9293.8023     24456.32    6680.0223   -1343.3503    75.647043 
   94700    268.36595   -163.50685   0.24282315   -163.26403   -5672.4641    4.2182879    4.2182879    4.2182879   -5672.4641   -16303.636   -13335.722    12621.965    33253.146    1537.4319   -6425.7253    75.060014 
   94800    358.45957    -163.5898   0.32434175   -163.26546   -2469.7686    4.2166661    4.2166661    4.2166661   -2469.7686    -2977.215   -8528.4214    4096.3307     26000.45   -5529.3004   -1651.9411    74.973474 
   94900    376.64283   -163.60765   0.34079434   -163.26685   -8682.0113    4.2298179    4.2298179    4.2298179   -8682.0113   -13139.229   -5568.0029    -7338.802    21068.894   -9448.7298   -7043.4707    75.677195 
   95000    423.21298   -163.64929   0.38293199   -163.26636     -3652.68    4.2204361    4.2204361    4.2204361     -3652.68   -12991.244    2086.0423   -52.838614    21816.802   -17752.073   -3672.1908     75.17475 
   95100    518.24448   -163.73422   0.46891849    -163.2653    2753.9511    4.2153685    4.2153685    4.2153685    2753.9511   -6148.8966    3689.9709    10720.779    5749.3514   -16359.782   -3751.4996    74.904282 
   95200    509.74643   -163.72721   0.46122929   -163.26598   -7315.0612    4.2268801    4.2268801    4.2268801   -7315.0612   -33884.945    28292.343   -16352.581   -572.88442   -16971.635    -3192.693    75.519619 
   95300     507.2737   -163.72258    0.4589919   -163.26359   -5882.0023    4.2258193    4.2258193    4.2258193   -5882.0023   -7332.0658     6265.892   -16579.833    108.42064   -18981.958    3006.7997    75.462776 
   95400    656.54052   -163.85519   0.59405166   -163.26114    1687.5319    4.2150106    4.2150106    4.2150106    1687.5319   -12610.376    22916.444   -5243.4722   -15306.759   -12084.794   -131.67503    74.885202 
   95500    802.77546   -163.98897   0.72636811    -163.2626     -190.248    4.2217467    4.2217467    4.2217467     -190.248   -5730.3627    32639.072   -27479.453   -11808.465   -17162.281    6112.3273    75.244804 
   95600    853.97746   -164.03446   0.77269676   -163.26177   -9980.7365    4.2291679    4.2291679    4.2291679   -9980.7365   -2430.2769     1658.631   -29170.564   -12167.764    -9224.571    2558.6206    75.642308 
   95700    907.27305   -164.08152   0.82091972    -163.2606    4408.0064    4.2148909    4.2148909    4.2148909    4408.0064   -6869.7119    29913.023   -9819.2916   -12249.623    -3232.257    4326.5562    74.878823 
   95800     975.8083   -164.14468   0.88293185   -163.26175    7939.5127    4.2189138    4.2189138    4.2189138    7939.5127     20567.19    16286.883   -13035.535   -7515.4307    1368.3008     2473.443    75.093431 
   95900    1028.8303   -164.19149   0.93090724   -163.26059   -12051.613    4.2286848    4.2286848    4.2286848   -12051.613   -10954.884   -5391.9413   -19808.012   -1911.7638    4850.4385     -1046.66    75.616392 
   96000    1164.2482   -164.31208    1.0534362   -163.25864    8884.3565    4.2160247    4.2160247    4.2160247    8884.3565    20052.026    16113.187   -9512.1429   -353.89453    8270.9482     1302.823    74.939266 
   96100    1367.5725   -164.49637    1.2374084   -163.25896    2330.0033    4.2211582    4.2211582    4.2211582    2330.0033     21424.37   -197.43218   -14236.928    3685.0248     5662.352   -2872.3585    75.213342 
   96200    1465.6488   -164.58496    1.3261499   -163.25881   -2119.4835    4.2241803    4.2241803    4.2241803   -2119.4835    14965.441   -9752.3639   -11571.527    7623.3453    5843.6396    995.51564    75.375001 
   96300    1447.9468   -164.56838    1.3101327   -163.25824    7366.1633    4.2187717    4.2187717    4.2187717    7366.1633    26439.264    2411.2501   -6752.0244    726.41349    3444.4494   -4905.4234    75.085843 
   96400    1384.3262   -164.51154    1.2525674   -163.25897    2933.1434    4.2226531    4.2226531    4.2226531    2933.1434    15497.703    2181.7957   -8880.0686    6126.8256    1850.5684   -616.78812    75.293281 
   96500    1235.9541   -164.37816    1.1183172   -163.25984    4750.9297    4.2199043    4.2199043    4.2199043    4750.9297    14820.091     586.8469   -1154.1485   -1858.9696    -2446.655    528.96464    75.146337 
   96600    1075.3024   -164.23363   0.97295619   -163.26067   -1442.2673    4.2239843    4.2239843    4.2239843   -1442.2673    6091.5095   -362.36474   -10055.947   -2262.3352   -5079.7454    942.85306     75.36451 
   96700    1027.6435   -164.18991   0.92983348   -163.26008    8599.3179    4.2199201    4.2199201    4.2199201    8599.3179     21552.46    12279.113   -8033.6193    -8776.268   -6997.3181    3538.8626     75.14718 
   96800    1003.2462   -164.16874   0.90775821   -163.26099   -698.59569    4.2205302    4.2205302    4.2205302   -698.59569   -735.94326    14060.716    -15420.56     -8970.59   -11428.566    1738.5674    75.179776 
   96900    1009.8047   -164.17381    0.9136925   -163.26011   -5306.9137    4.2260485    4.2260485    4.2260485   -5306.9137   -121.80262    5384.3271   -21183.266   -9950.6718   -11759.911    4607.0908    75.475051 
   97000    1011.6949   -164.17513   0.91540279   -163.25972    5505.6023    4.2173944    4.2173944    4.2173944    5505.6023    2287.3927    24982.398   -10752.984   -12910.169    -10368.72     586.2575     75.01233 
   97100    871.69141   -164.05083   0.78872471    -163.2621   -6751.4375    4.2225682    4.2225682    4.2225682   -6751.4375    -16378.99    16463.482   -20338.805   -8128.9438   -9975.7808   -1185.7341    75.288739 
   97200    757.09602   -163.94669   0.68503639   -163.26166   -917.48229    4.2245643    4.2245643    4.2245643   -917.48229   -4602.5112    6810.2787   -4960.2144   -1873.3724   -9951.7864   -2848.5245    75.395559 
   97300    751.28321   -163.94163   0.67977683   -163.26186    -573.7277    4.2202119    4.2202119    4.2202119    -573.7277    965.94174    9615.0021   -12302.127   -647.79207   -4752.6502   -4632.7448    75.162771 
   97400    704.36224   -163.90093   0.63732176   -163.26361   -6878.9513    4.2213107    4.2213107    4.2213107   -6878.9513   -6500.4569   -1775.6452   -12360.752    10086.207   -12578.907   -7730.6769    75.221494 
   97500    623.66421   -163.82869   0.56430448   -163.26439    5329.2476    4.2233726    4.2233726    4.2233726    5329.2476    5462.8258   -5701.6162    16226.533    17326.452   -2739.0316   -5641.2659    75.331773 
   97600    597.65025   -163.80485    0.5407665   -163.26408    -6453.213    4.2225856    4.2225856    4.2225856    -6453.213     3019.833   -13924.217   -8455.2553    17099.141   -319.34212   -1158.2283    75.289671 
   97700    539.16663   -163.75283    0.4878493   -163.26498   -1036.2989    4.2181824    4.2181824    4.2181824   -1036.2989   -13510.127   -7228.0058    17629.236    24035.596    3965.0323   -5715.4537    75.054382 
   97800    410.00502    -163.6367   0.37098116   -163.26572   -3351.7249    4.2247479    4.2247479    4.2247479   -3351.7249   -9280.9338   -25781.337    25007.096    26800.819    4080.7427    2932.7033    75.405388 
   97900    393.60749   -163.62021   0.35614433   -163.26406    -5301.895    4.2222992    4.2222992    4.2222992    -5301.895   -1198.2257   -16517.562    1810.1031    20901.805    1621.4964    4896.1764    75.274353 
   98000    476.78537   -163.69504   0.43140542   -163.26364   -1705.3348    4.2205711    4.2205711    4.2205711   -1705.3348   -15823.751   -19315.501    30023.247    19246.095    3693.6935    5982.8982    75.181964 
   98100    496.50384   -163.71325   0.44924711   -163.26401   -5116.1992    4.2221647    4.2221647    4.2221647   -5116.1992   -7202.1938   -32335.788    24189.384    13666.427   -813.32865    10126.221    75.267154 
   98200    476.58666   -163.69532   0.43122563    -163.2641    1145.4247    4.2229013    4.2229013    4.2229013    1145.4247    5388.4331   -5569.8436    3617.6845    5185.8668   -1386.1725    7561.2947    75.306557 
   98300    508.28764   -163.72336   0.45990934   -163.26345   -4200.8086    4.2240025    4.2240025    4.2240025   -4200.8086    -16964.42   -27799.245     32161.24    411.23865   -1014.9325    9954.9247    75.365486 
   98400    495.13049   -163.70985   0.44800447   -163.26185    -3810.119    4.2175671    4.2175671    4.2175671    -3810.119   -21921.989   -9517.2995    20008.931   -7577.2473   -3419.2445    3166.0378    75.021543 
   98500    449.07908   -163.66991   0.40633619   -163.26357   -4471.7522    4.2251809    4.2251809    4.2251809   -4471.7522   -3889.1774   -5624.8949   -3901.1842   -10787.841     -28.8386    4077.8105    75.428581 
   98600    500.42801   -163.71625   0.45279778   -163.26346    -1640.025    4.2226003    4.2226003    4.2226003    -1640.025    -13102.58   -14774.822    22957.327   -13056.902   -702.74164   -1739.8998    75.290455 
   98700    626.73753   -163.82944   0.56708529   -163.26236    -5355.369    4.2194472    4.2194472    4.2194472    -5355.369   -4766.4888    996.46358   -12296.082   -13232.845    1780.1242   -4439.0971    75.121919 
   98800    665.58928   -163.86511   0.60223917   -163.26287   -3873.6044     4.225498     4.225498     4.225498   -3873.6044     9723.098    -2868.862   -18475.049   -11244.779    4309.7954   -4973.1176    75.445564 
   98900    665.42547   -163.86503   0.60209095   -163.26294    -581.6565    4.2189744    4.2189744    4.2189744    -581.6565   -11315.876     9490.136    80.770627   -7196.3085   -616.15572   -8823.4139    75.096667 
   99000    708.08307   -163.90366   0.64068844   -163.26297   -2189.6204    4.2207373    4.2207373    4.2207373   -2189.6204    7642.7062    13546.938   -27758.505   -4382.4905    3688.3944   -5196.6047    75.190847 
   99100    736.68233   -163.92937   0.66656565    -163.2628   -1224.6077    4.2241044    4.2241044    4.2241044   -1224.6077    435.53243    14812.423   -18921.779    1952.5173    924.42697    -7260.832    75.370942 
   99200    746.92026   -163.93771   0.67582915   -163.26188   -5965.6952      4.22083      4.22083      4.22083   -5965.6952   -14026.821    17623.147   -21493.411    5450.7486    119.98112    2360.8767    75.195801 
   99300    835.08727   -164.01648   0.75560451   -163.26088    5050.7868    4.2202418    4.2202418    4.2202418    5050.7868    26477.183    12941.585   -24266.408    6744.9486    483.68295   -3592.9831    75.164366 
   99400    951.95084   -164.12199   0.86134512   -163.26065   -3388.6568    4.2232032    4.2232032    4.2232032   -3388.6568    3247.8439    6071.0126   -19484.827    6381.8399    2642.5564     2325.469    75.322711 
   99500    1078.4594   -164.23577   0.97581273   -163.25996   -3022.9718    4.2226965    4.2226965    4.2226965   -3022.9718    10131.199    5297.0631   -24497.178    8297.9561    349.68895    4323.5276    75.295604 
   99600    1193.2927   -164.33938    1.0797163   -163.25966     5710.435    4.2200308    4.2200308    4.2200308     5710.435    15489.651    7349.8158   -5708.1622    549.87374    -294.8634    3765.0653    75.153092 
   99700    1234.9196    -164.3772    1.1173812   -163.25982    4050.6157    4.2218652    4.2218652    4.2218652    4050.6157    15456.402    -5468.253    2163.6978    2377.4525    353.75227    4723.6469    75.251143 
   99800    1319.7416   -164.45279    1.1941299   -163.25866   -4014.3198    4.2236644    4.2236644    4.2236644   -4014.3198    11077.239   -12683.772   -10436.425   -376.82003   -646.22307     2518.306    75.347387 
   99900    1356.3387    -164.4857    1.2272437   -163.25846    4695.6898    4.2206846    4.2206846    4.2206846    4695.6898    19873.865   -1844.6316   -3942.1636   -2384.8852   -320.30247    4275.8167    75.188028 
  100000    1331.1494   -164.46361    1.2044519   -163.25916    8819.6005    4.2191394    4.2191394    4.2191394    8819.6005    34510.655   -8254.0529    202.19977   -4242.0661     4050.962   -3083.7645    75.105478 
Loop time of 33.4454 on 1 procs for 100000 steps with 8 atoms

Pair  time (%) = 11.3311 (33.8793)
Kspce time (%) = 8.04093 (24.042)
Neigh time (%) = 0 (0)
Comm  time (%) = 1.60989 (4.81349)
Outpt time (%) = 0.0447443 (0.133783)
Other time (%) = 12.4188 (37.1315)

Nlocal:    8 ave 8 max 8 min
Histogram: 1 0 0 0 0 0 0 0 0 0
Nghost:    2189 ave 2189 max 2189 min
Histogram: 1 0 0 0 0 0 0 0 0 0
Neighs:    2472 ave 2472 max 2472 min
Histogram: 1 0 0 0 0 0 0 0 0 0

Total # of neighbors = 2472
Ave neighs/atom = 309
Neighbor list builds = 0
Dangerous builds = 0
unfix 20
unfix 21
print "seeds:9454282"
seeds:9454282
