LAMMPS (10 Feb 2015)
# ---- initialize simulations
clear
units metal
dimension 3
boundary p p p
atom_style charge
atom_modify map array
# ---- create atoms
read_data /Users/eugeneragasa/pyflamestk_git/pypospack/tests/tests_integration/workflow/WorkflowLammpsThermalExpansion/MgO_NaCl_unit.npt.T1900/lammps.structure
  triclinic box = (0 0 0) to (4.2565 4.2565 4.2565) with tilt (0 0 0)
  1 by 1 by 1 MPI processor grid
  reading atoms ...
  8 atoms
# ---- define interatomic potential
include potential.mod
mass 1 24.305
mass 2 15.999

group Mg type 1
4 atoms in group Mg
group O type 2
4 atoms in group O

set group Mg charge 2.0
  4 settings made for charge
set group O charge -2.0
  4 settings made for charge

variable R_cut equal 10.0

pair_style buck/coul/long ${R_cut}
pair_style buck/coul/long 10
pair_coeff 1 1 0.0 0.5 0.0 ${R_cut}
pair_coeff 1 1 0.0 0.5 0.0 10
pair_coeff 1 2 821.6 0.3242 0.0 ${R_cut}
pair_coeff 1 2 821.6 0.3242 0.0 10
pair_coeff 2 2 2274.0 0.149 27.88 ${R_cut}
pair_coeff 2 2 2274.0 0.149 27.88 10

kspace_style pppm 1.0e-5

neighbor 1.0 bin
neigh_modify every 1 delay 0 check yes
# ---- define settings
compute eng all pe/atom
compute eatoms all reduce sum c_eng
# ---- run minimization
reset_timestep 0
fix 1 all box/relax iso 0.0 vmax 0.001
thermo 10
thermo_style custom step pe lx ly lz xy xz yz press pxx pyy pzz pxy pxz pyz c_eatoms
min_style cg
minimize 1e-25 1e-25 5000 10000
PPPM initialization ...
  G vector (1/distance) = 0.354854
  grid = 8 8 8
  stencil order = 5
  estimated absolute RMS force accuracy = 5.34408e-05
  estimated relative force accuracy = 3.71126e-06
  using double precision FFTs
  3d grid and FFT values/proc = 3375 512
Neighbor list info ...
  1 neighbor list requests
  update every 1 steps, delay 0 steps, check yes
  master list distance cutoff = 11
Memory usage per processor = 4.06549 Mbytes
Step PotEng Lx Ly Lz Xy Xz Yz Press Pxx Pyy Pzz Pxy Pxz Pyz eatoms 
       0   -162.12848       4.2565       4.2565       4.2565            0            0            0    -64012.53    -64012.53    -64012.53    -64012.53 -3.8759874e-11 -1.4292379e-10 -3.6687737e-10   -162.12848 
      10   -162.17871     4.213935     4.213935     4.213935            0            0            0   -4821.7526   -4821.7526   -4821.7526   -4821.7526 8.9106085e-11 8.5332225e-11 -4.2335946e-10   -162.17871 
      14   -162.17896    4.2106915    4.2106915    4.2106915            0            0            0    -1.347652    -1.347652    -1.347652    -1.347652 2.5597609e-11 1.0162971e-11 2.8091283e-10   -162.17896 
Loop time of 0.0558519 on 1 procs for 14 steps with 8 atoms

Minimization stats:
  Stopping criterion = linesearch alpha is zero
  Energy initial, next-to-last, final = 
        -162.128476026     -162.178964554     -162.178964554
  Force two-norm initial, final = 9.24344 0.000276677
  Force max component initial, final = 9.24344 0.000190436
  Final line search alpha, max atom move = 0.125 2.38044e-05
  Iterations, force evaluations = 14 33

Pair  time (%) = 0.0135455 (24.2525)
Kspce time (%) = 0.00432134 (7.73713)
Neigh time (%) = 0 (0)
Comm  time (%) = 0.00110912 (1.98583)
Outpt time (%) = 8.70228e-05 (0.15581)
Other time (%) = 0.0367889 (65.8687)

Nlocal:    8 ave 8 max 8 min
Histogram: 1 0 0 0 0 0 0 0 0 0
Nghost:    2189 ave 2189 max 2189 min
Histogram: 1 0 0 0 0 0 0 0 0 0
Neighs:    2344 ave 2344 max 2344 min
Histogram: 1 0 0 0 0 0 0 0 0 0

Total # of neighbors = 2344
Ave neighs/atom = 293
Neighbor list builds = 0
Dangerous builds = 0
unfix 1
# ---- define output variables ----
variable natoms equal "count(all)"
variable tot_energy equal "c_eatoms"
variable length_x equal "lx"
variable length_y equal "ly"
variable length_z equal "lz"
variable tilt_xy equal "xy"
variable tilt_xz equal "xz"
variable tilt_yz equal "yz"
variable tot_press equal "press"
variable press_xx equal "pxx"
variable press_yy equal "pyy"
variable press_zz equal "pzz"
variable press_xy equal "pxy"
variable press_xz equal "pxz"
variable press_yz equal "pyz"

# ---- output ----
print "pypospack:output_section:begin"
pypospack:output_section:begin
print "tot_energy = ${tot_energy}"
tot_energy = -162.17896455406
print "num_atoms = ${natoms}"
num_atoms = 8
print "xx = ${length_x}"
xx = 4.21069146013408
print "yy = ${length_y}"
yy = 4.21069146013408
print "zz = ${length_z}"
zz = 4.21069146013408
print "xy = ${tilt_xy}"
xy = 0
print "xz = ${tilt_xz}"
xz = 0
print "yz = ${tilt_yz}"
yz = 0
print "tot_press = ${tot_press}"
tot_press = -1.34765197939399
print "pxx = ${press_xx}"
pxx = -1.34765197919426
print "pyy = ${press_yy}"
pyy = -1.3476519793348
print "pzz = ${press_zz}"
pzz = -1.34765197965291
print "pxy = ${press_xy}"
pxy = 2.55976090046832e-11
print "pxz = ${press_xz}"
pxz = 1.01629705561986e-11
print "pyz = ${press_yz}"
pyz = 2.80912827691917e-10
print "pypospack:output_section:done"
pypospack:output_section:done
print "pypospack:lammps_sim:done"
pypospack:lammps_sim:done
#------------------------------------------------------------------------------
# RUN THERMOSTAT
# running using an NPT Nose-Hoover style thermostat
#------------------------------------------------------------------------------
variable tempdamp equal 0.1
variable pressdamp equal 1.0
# set initial velocities
velocity all create 1900 7161578 mom yes dist gaussian loop all
# fix for Nose-Hoover style thermostat
fix 20 all npt temp 1900 1900 0.1 aniso 0.0 0.0 1.0 drag 1.0 couple xyz
variable boxx equal lx
variable boxy equal ly
variable boxz equal lz
variable boxp equal press
variable boxt equal temp
# calculate averages every 10000 steps
reset_timestep 0
fix 21 all ave/time 10 10 100 v_boxx v_boxy v_boxz v_boxp v_boxt file lattice.out
thermo_style custom step temp pe ke etotal press lx ly lz press pxx pyy pzz pxy pxz pyz vol
thermo_modify flush yes
thermo 100
run 100000
PPPM initialization ...
  G vector (1/distance) = 0.355384
  grid = 8 8 8
  stencil order = 5
  estimated absolute RMS force accuracy = 5.2136e-05
  estimated relative force accuracy = 3.62065e-06
  using double precision FFTs
  3d grid and FFT values/proc = 3375 512
Memory usage per processor = 3.06549 Mbytes
Step Temp PotEng KinEng TotEng Press Lx Ly Lz Press Pxx Pyy Pzz Pxy Pxz Pyz Volume 
       0         1900   -162.17896    1.7191599    -160.4598    24596.109    4.2106915    4.2106915    4.2106915    24596.109    25075.882    26636.302    22076.143   -7377.8949   -3680.9518    9452.0237    74.655234 
     100    1276.9259   -161.39543    1.1553894   -160.24004    27662.526    4.2398198    4.2398198    4.2398198    27662.526    24079.061    40776.991    18131.528   -5781.4922   -12030.327   -2917.2576    76.215307 
     200    1662.4996   -161.30117    1.5042646    -159.7969   -30829.091    4.2926915    4.2926915    4.2926915   -30829.091   -22773.021   -8264.2831   -61449.971    6119.2297   -9580.1413    805.15669    79.102288 
     300    1550.8443   -160.77128    1.4032365   -159.36805   -36032.651    4.3166655    4.3166655    4.3166655   -36032.651   -20069.868   -25461.133   -62566.953   -17320.124    7864.9553    20518.042    80.435022 
     400    1516.3101   -160.38655    1.3719893   -159.01456   -30710.844    4.2992027    4.2992027    4.2992027   -30710.844   -45984.433    -44114.49   -2033.6099   -12669.614       1594.9    15481.316     79.46278 
     500    1031.8454   -159.71484   0.93363536   -158.78121    45925.341    4.2774727    4.2774727    4.2774727    45925.341    53600.745    71199.287    12975.991    25738.872    27325.202    732.37489    78.263944 
     600    982.58578   -159.60154   0.88906426   -158.71247    43807.474    4.2918659    4.2918659    4.2918659    43807.474     64724.93     87827.82   -21130.328   -1285.5043    37528.257   -5054.0059    79.056656 
     700    2205.0352   -160.67977    1.9951622   -158.68461   -70666.433    4.3115237    4.3115237    4.3115237   -70666.433   -68793.371   -56848.761   -86357.165   -2022.3953    17019.997   -19214.487    80.147933 
     800    1680.4301   -160.18085    1.5204885   -158.66036    557.40302    4.2968061    4.2968061    4.2968061    557.40302    80024.288   -24995.498   -53356.581    -26360.58    1219.7056    10008.753    79.329965 
     900    2141.4426   -160.61032    1.9376222    -158.6727    23126.932    4.2828007    4.2828007    4.2828007    23126.932    84529.286    22704.821    -37853.31    7002.3362   -8351.5055    17380.088    78.556768 
    1000    2534.9103    -161.0078    2.2936401   -158.71416   -22795.799    4.2909045    4.2909045    4.2909045   -22795.799    46372.471   -50091.283   -64668.586     18477.04   -15285.387    20338.727    79.003539 
    1100    2053.6587   -160.57594    1.8581936   -158.71775    5696.0481    4.2997408    4.2997408    4.2997408    5696.0481     35803.42   -23537.215    4821.9396   -18340.277    11015.595   -1923.8274    79.492625 
    1200    1678.1525   -160.21516    1.5184276   -158.69673     32619.93    4.2974405    4.2974405    4.2974405     32619.93    32455.758   -19464.993    84869.026   -34068.942    12280.817    2888.5751    79.365107 
    1300    1923.5276   -160.43596    1.7404482   -158.69551   -4708.7307    4.3038789    4.3038789    4.3038789   -4708.7307   -35814.918    -24325.28    46014.006    20062.927    27792.452    10064.853    79.722359 
    1400    2213.6992   -160.68186    2.0030015   -158.67885    -33707.36    4.3036615    4.3036615    4.3036615    -33707.36   -32726.311   -34881.562   -33514.205    15206.691    17969.274   -17318.641    79.710276 
    1500    1267.5554    -159.8092    1.1469108   -158.66229    36076.539     4.275686     4.275686     4.275686    36076.539    87762.743   -4620.9209    25087.795   -32786.097   -6129.3769    3342.6686    78.165917 
    1600    1519.1866   -160.08181     1.374592   -158.70722    57944.556    4.2807566    4.2807566    4.2807566    57944.556    112824.03    66133.203   -5123.5699    34643.031    -21017.15   -10593.692     78.44434 
    1700    1775.7581   -160.36693    1.6067432   -158.76019   -46497.521    4.3424874    4.3424874    4.3424874   -46497.521   -44301.078   -53168.188   -42023.296   -3011.7875   -10455.397   -4129.9012     81.88714 
    1800    1987.0904    -160.4435    1.7979611   -158.64554   -63528.483    4.3459134    4.3459134    4.3459134   -63528.483   -31274.641   -82173.991   -77136.816   -27861.202    5766.1645   -1714.9111    82.081106 
    1900    1550.8649   -159.98165    1.4032551   -158.57839    67357.408    4.2712514    4.2712514    4.2712514    67357.408    103372.47      90701.5    7998.2567   -2343.3095    42127.835    5642.6603    77.922955 
    2000    2371.9511   -160.74646    2.1461912   -158.60027    56457.646     4.252825     4.252825     4.252825    56457.646    164657.63    7167.9538   -2452.6471    10925.494      15372.6   -5197.9793    76.918808 
    2100    1352.3427   -159.98551    1.2236281   -158.76188   -14406.245    4.3265727    4.3265727    4.3265727   -14406.245    60660.518   -9349.1591   -94530.093     26477.26    34517.047     7936.634    80.990114 
    2200    1022.4496   -159.56358   0.92513392   -158.63845   -16958.244    4.3577504    4.3577504    4.3577504   -16958.244    110850.88   -27349.544   -134376.07     29243.66    -12444.32    19630.709    82.753632 
    2300    1973.0853   -160.35154     1.785289   -158.56625     -3665.17    4.3163804    4.3163804    4.3163804     -3665.17    133650.39   -52896.168   -91749.728    27882.986   -25721.855    7622.4887    80.419085 
    2400    2012.4567   -160.41745    1.8209131   -158.59654   -6742.4299    4.2887981    4.2887981    4.2887981   -6742.4299    37810.006   -28561.604   -29475.691   -25613.273   -9848.5137   -18146.458     78.88725 
    2500    1759.8987   -160.27325    1.5923934   -158.68086    18849.612    4.2987938    4.2987938    4.2987938    18849.612    28478.844    32180.803   -4110.8103   -6750.5035   -1187.5554   -14429.604    79.440108 
    2600    1946.9147   -160.44801    1.7616093    -158.6864    19686.197    4.3117326    4.3117326    4.3117326    19686.197    58237.936    29194.778   -28374.123   -1387.4454    6202.0112    22838.289    80.159583 
    2700    1894.8699   -160.39445    1.7145181   -158.67993    11752.357     4.316481     4.316481     4.316481    11752.357    91129.372   -51245.875    -4626.427   -24394.727   -2232.4941   -6995.0672    80.424709 
    2800    1464.4694   -160.00076    1.3250827   -158.67568   -19446.847    4.3234337    4.3234337    4.3234337   -19446.847   -26164.598   -103344.66    71168.714    -20623.04   -7995.8794    2455.5306    80.813966 
    2900    1540.5089   -160.05667    1.3938848   -158.66279    -18738.68    4.2992927    4.2992927    4.2992927    -18738.68   -51820.015   -71483.284    67087.258   -32644.338   -6895.0951   -309.19563    79.467775 
    3000    2005.4174   -160.46974    1.8145438   -158.65519    30214.781    4.2590729    4.2590729    4.2590729    30214.781   -5923.3299   -6748.9666    103316.64   -3184.1306   -5091.7786   -26000.047    77.258315 
    3100    2225.9319   -160.73818      2.01407   -158.72411    47342.795    4.2715052    4.2715052    4.2715052    47342.795    11659.181    19989.706     110379.5   -12790.986   -13456.544   -5691.2385    77.936845 
    3200    1814.1904   -160.40246    1.6415176   -158.76094   -8893.2731    4.3403532    4.3403532    4.3403532   -8893.2731     4216.642   -38371.506    7475.0444     548.3965   -1710.1441   -25729.534    81.766461 
    3300    2344.6243   -160.73711    2.1214654   -158.61565   -103308.82    4.3761054    4.3761054    4.3761054   -103308.82   -75962.206   -107508.88   -126455.37   -21156.435   -7365.3675    6430.6186    83.803725 
    3400    1317.0846   -159.72959    1.1917258   -158.53786    17658.855    4.3375725    4.3375725    4.3375725    17658.855   -52005.815   -44540.927    149523.31   -6495.8408    23720.024   -2714.8878    81.609412 
    3500    1443.9638   -159.85054    1.3065288   -158.54401   -9692.4044    4.2894111    4.2894111    4.2894111   -9692.4044   -45776.488   -49421.952    66121.227    25343.572    20887.344    8989.5433    78.921079 
    3600    1370.3861    -159.8419    1.2399542   -158.60195    7986.3775    4.2605794    4.2605794    4.2605794    7986.3775    7084.4716    34397.017   -17522.356    26226.398    43020.108    19178.965    77.340325 
    3700    1884.5478   -160.37592    1.7051784   -158.67074   -34519.473    4.2691244    4.2691244    4.2691244   -34519.473   -20154.262   -24948.233   -58455.926    12971.561    33844.005    44446.226    77.806599 
    3800    1642.1858   -160.17791    1.4858842   -158.69202    8358.4772    4.2911854    4.2911854    4.2911854    8358.4772    28716.289   -7473.8482    3832.9906   -612.16751   -1129.6356    41663.506    79.019057 
    3900     1680.291   -160.20662    1.5203626   -158.68626    20546.062    4.3169335    4.3169335    4.3169335    20546.062    81213.264   -43452.337    23877.258    209.82623    15607.563    35386.546    80.450005 
    4000    1695.4677   -160.19443    1.5340948   -158.66034    -16029.72    4.3388502    4.3388502    4.3388502    -16029.72    44429.286   -110962.77    18444.324    3592.8134     27152.64    2260.0586    81.681548 
    4100    2587.6569   -160.95122    2.3413664   -158.60986    -63816.49    4.3262412    4.3262412    4.3262412    -63816.49   -42406.879   -114214.11    -34828.48   -26004.393    14450.206   -38734.544    80.971499 
    4200    2019.9136   -160.41732    1.8276603   -158.58966   -8335.9614    4.2903433    4.2903433    4.2903433   -8335.9614   -11467.673   -43416.062    29875.851   -28303.983   -6656.5159    8451.7317    78.972544 
    4300    1614.1063   -160.09353    1.4604773   -158.63306    38787.595    4.2742591    4.2742591    4.2742591    38787.595    12491.626    3889.5563    99981.602   -8127.8036   -8000.5175    4462.9685    78.087682 
    4400    1844.4606   -160.37349    1.6689067   -158.70459    11690.127    4.3003477    4.3003477    4.3003477    11690.127    836.06128    -24939.26    59173.581   -7136.7677    18274.706   -10733.498    79.526288 
    4500    2054.6309   -160.55477    1.8590732    -158.6957   -42486.473    4.3399254    4.3399254    4.3399254   -42486.473   -38977.857   -29484.651   -58996.911   -717.77058    18916.437    10148.789    81.742291 
    4600    1552.8811   -160.03632    1.4050794   -158.63124    19079.622    4.3356159    4.3356159    4.3356159    19079.622   -12417.858    7034.2095    62622.513   -6474.7631    -16502.66     -6057.75     81.49902 
    4700    2090.0765   -160.48095    1.8911451   -158.58981    47689.484    4.2897667    4.2897667    4.2897667    47689.484    89173.787    3506.9343     50387.73    21675.191   -49045.451   -10277.075    78.940709 
    4800    2626.8849   -160.95712    2.3768607   -158.58026    31494.589    4.2492784    4.2492784    4.2492784    31494.589    67704.797     30819.12   -4040.1489    9035.7454   -28472.112    1569.7433    76.726528 
    4900    2545.3879   -160.97763    2.3031204   -158.67451    7622.5117    4.2591687    4.2591687    4.2591687    7622.5117   -13835.952    35433.854    1269.6334    21575.838   -32395.715    1312.8007    77.263526 
    5000    1791.4135   -160.34109    1.6209086   -158.72018   -27298.591    4.3125609    4.3125609    4.3125609   -27298.591   -62087.639   -58509.121    38700.988    17700.519    3482.1222   -20165.984     80.20579 
    5100    1474.5544   -159.96142    1.3342078   -158.62721    14633.885     4.331524     4.331524     4.331524    14633.885    2252.6952   -21565.855    63214.816    -3597.118     5792.593   -34663.189    81.268486 
    5200    2232.1529    -160.5863    2.0196989    -158.5666    250.57298    4.3183289    4.3183289    4.3183289    250.57298    28682.866    -22204.67   -5726.4774   -1587.2428    7955.6226   -40380.362    80.528044 
    5300    1936.0707   -160.34759    1.7517975   -158.59579    23152.856    4.3082775    4.3082775    4.3082775    23152.856    52530.685     10513.63    6414.2548   -2187.3524    5262.6152   -38786.964    79.967037 
    5400    1544.4266   -160.03987    1.3974296   -158.64244    3475.5449    4.3090127    4.3090127    4.3090127    3475.5449   -28621.391    46807.729   -7759.7041   -2894.3237    18332.291   -16004.408    80.007985 
    5500    1342.3093   -159.87371    1.2145497   -158.65916    -27781.44    4.3003769    4.3003769    4.3003769    -27781.44   -38826.096   -31184.463    -13333.76    -10265.59    59625.405   -33651.043    79.527908 
    5600    1815.1527   -160.27813    1.6423883   -158.63574    7854.8659    4.2673324    4.2673324    4.2673324    7854.8659    33515.089   -2309.8199   -7640.6711   -27969.798    36102.042    3886.8852    77.708659 
    5700    2069.6275    -160.5597    1.8726424   -158.68706    35393.951    4.2825396    4.2825396    4.2825396    35393.951    18382.528    7226.6465    80572.679   -23946.735   -1753.3575   -2704.3593    78.542398 
    5800     2415.998   -160.87585    2.1860458   -158.68981   -69432.697    4.3457437    4.3457437    4.3457437   -69432.697   -63731.892   -129193.53   -15372.675   -368.89376   -32649.549   -10896.697    82.071494 
    5900    1399.2868   -159.82569    1.2661041   -158.55958   -8306.2014    4.3499871    4.3499871    4.3499871   -8306.2014    30368.568   -80867.106    25579.934     -19153.4     26644.31     7362.993    82.312144 
    6000    1397.3054   -159.75091    1.2643113    -158.4866    29729.397    4.3009074    4.3009074    4.3009074    29729.397     7988.802   -41633.524    122832.91    37360.404    24955.312   -25345.204    79.557342 
    6100    1925.5336   -160.24056    1.7422633    -158.4983    35658.156    4.2689034    4.2689034    4.2689034    35658.156    28948.698    7178.8525    70846.917    39370.442    10168.284   -6802.3621    77.794515 
    6200    2137.4363   -160.52289    1.9339973   -158.58889   -1703.1645     4.270304     4.270304     4.270304   -1703.1645   -21379.389   -28544.933    44814.828    34925.233    7252.8112   -13657.883    77.871114 
    6300    2018.9136   -160.47759    1.8267555   -158.65084    1111.7696    4.2763115    4.2763115    4.2763115    1111.7696    15273.686   -37528.977      25590.6    23436.073    8675.9164   -12444.687    78.200226 
    6400    2522.2662   -160.96963    2.2821994   -158.68743   -7504.4369    4.2967604    4.2967604    4.2967604   -7504.4369   -32412.804   -45979.444    55878.937   -2365.8268   -11194.015    5937.9395    79.327432 
    6500    2866.0617   -161.25669    2.5932728   -158.66342   -65966.436    4.3198931    4.3198931    4.3198931   -65966.436   -70896.395   -93317.243   -33685.671    4825.4357   -9557.1448    601.57436    80.615584 
    6600    2265.2701   -160.67674     2.049664   -158.62707   -47398.504    4.2972619    4.2972619    4.2972619   -47398.504   -62407.399    -54028.39   -25759.724    3162.0812   -10331.572    10958.952    79.355216 
    6700    1943.2066   -160.37616    1.7582542   -158.61791    5429.7841    4.2608139    4.2608139    4.2608139    5429.7841   -14529.114    6294.6575    24523.809      49451.8   -930.92577    21449.802    77.353098 
    6800    1681.3573   -160.18433    1.5213274   -158.66301    3875.1592    4.2529321    4.2529321    4.2529321    3875.1592    5899.3372   -25534.782    31260.923    84236.744    -1406.272    23021.469    76.924616 
    6900     1609.179    -160.1592     1.456019   -158.70318    9494.9627    4.2668706    4.2668706    4.2668706    9494.9627   -640.30441    -17878.42    47003.613    57026.965    5847.1947     8184.659    77.683433 
    7000    1998.3971   -160.51109    1.8081917    -158.7029    7360.4301     4.292382     4.292382     4.292382    7360.4301    30964.603    -5062.368   -3820.9444     15642.16    10584.311    7977.2244    79.085175 
    7100     1880.671   -160.38028    1.7016707   -158.67861   -606.08034    4.3166798    4.3166798    4.3166798   -606.08034    18426.315    3154.8011   -23399.358   -9649.6469    28357.365    4945.8508    80.435823 
    7200    1504.4474   -159.99071    1.3612556   -158.62945   -4945.2142    4.3169942    4.3169942    4.3169942   -4945.2142    6260.8914   -6159.0198   -14937.514   -7333.8458    40713.997   -12525.692    80.453397 
    7300    1916.7471   -160.33228    1.7343131   -158.59797    53598.871    4.2854371    4.2854371    4.2854371    53598.871    90975.674    44122.649    25698.292    19639.021    28252.137    167.24374    78.701928 
    7400    2291.3718   -160.69243    2.0732813   -158.61915    30666.896    4.2855954    4.2855954    4.2855954    30666.896    74773.881   -851.30374    18078.111   -5959.8871    -1039.552    24717.503    78.710653 
    7500    2293.8812   -160.74659    2.0755519   -158.67103   -29246.077    4.3227696    4.3227696    4.3227696   -29246.077   -38624.795   -67828.543    18715.107    -12513.92   -10018.714    9143.1999    80.776728 
    7600    2842.0848   -161.21483    2.5715781   -158.64325   -78037.305    4.3449918    4.3449918    4.3449918   -78037.305   -85438.305    -112820.6   -35853.012    14455.435   -14125.785   -9728.9583    82.028898 
    7700    2046.3704   -160.45353     1.851599   -158.60193   -54225.004    4.3312246    4.3312246    4.3312246   -54225.004   -2597.0817    -91068.63     -69009.3   -2921.2487   -19385.499   -3683.6109    81.251634 
    7800    1673.6637   -160.09704    1.5143661   -158.58268   -4365.0477    4.2980631    4.2980631    4.2980631   -4365.0477   -40567.457    49234.899   -21762.585   -16090.079   -28734.633   -8655.6857    79.399608 
    7900    1539.1616   -159.98819    1.3926658   -158.59553    28514.819    4.2716369    4.2716369    4.2716369    28514.819     28091.59    80270.334   -22817.468    4278.9522    18060.631   -23113.564    77.944054 
    8000    1763.6552   -160.25488    1.5957922   -158.65909    13495.162    4.2799733    4.2799733    4.2799733    13495.162    30606.719    25256.856   -15378.088    1061.9775    48538.931   -3406.2534    78.401286 
    8100    1784.7288   -160.30407    1.6148602   -158.68921   -11101.611    4.3107644    4.3107644    4.3107644   -11101.611    33084.742   -22762.008   -43627.568    1598.8884    52039.304    580.16905    80.105598 
    8200    1622.5608   -160.11373    1.4681271    -158.6456   -30572.351    4.3260529    4.3260529    4.3260529   -30572.351   -20773.733   -43139.177   -27804.144    11152.321    9141.7619   -1186.2032    80.960928 
    8300    2141.4794   -160.53462    1.9376556   -158.59697   -11069.297    4.3079917    4.3079917    4.3079917   -11069.297    1987.3647   -55638.417     20443.16    14920.362   -45374.879    22227.264    79.951123 
    8400    2613.0925   -160.93211     2.364381   -158.56773    4006.9153    4.2853193    4.2853193    4.2853193    4006.9153   -30121.345   -24199.544    66341.634    12884.058   -13552.583    2624.7639    78.695438 
    8500    2119.5469   -160.53512    1.9178106   -158.61731   -11108.806     4.293304     4.293304     4.293304   -11108.806   -69096.315   -37261.368    73031.266   -6691.7092    17807.282    27595.155    79.136149 
    8600    2010.1263   -160.46494    1.8188046   -158.64613    1325.2496    4.3034975    4.3034975    4.3034975    1325.2496   -45206.615    17846.393    31335.971   -5145.6414    29868.574    3864.2521    79.701164 
    8700    1761.5021   -160.23366    1.5938441   -158.63982    28594.026    4.3024908    4.3024908    4.3024908    28594.026   -33476.168    70139.723    49118.522   -5349.4522    28903.308   -6586.8849    79.645247 
    8800    1722.0534   -160.19263    1.5581501   -158.63447    25519.908    4.3049484    4.3049484    4.3049484    25519.908   -61580.866    70412.807    67727.784   -6796.7038    4952.1836   -2903.7845    79.781805 
    8900     1980.882   -160.41385    1.7923437   -158.62151    39704.846    4.2958388    4.2958388    4.2958388    39704.846   -8820.0382    109350.33    18584.244   -4871.2841   -4569.1035   -11771.045    79.276404 
    9000     2318.906   -160.70105    2.0981949   -158.60285   -10206.918    4.2819933    4.2819933    4.2819933   -10206.918   -57058.797    13687.203     12750.84    24471.962   -16916.804     18058.35    78.512343 
    9100    2225.6321   -160.64901    2.0137987   -158.63521    18301.752    4.2823915    4.2823915    4.2823915    18301.752    16080.826   -33906.568    72730.998    22642.261   -37222.788    947.64377    78.534253 
    9200    2398.0272   -160.84727    2.1697854   -158.67749   -6098.4975    4.3176642    4.3176642    4.3176642   -6098.4975    41670.049   -25306.461   -34659.081    13675.538   -27282.129   -32923.709    80.490863 
    9300    2466.0834   -160.83898    2.2313641   -158.60761   -86574.719    4.3484668    4.3484668    4.3484668   -86574.719    -94896.91   -117246.34   -47580.908   -7618.1414    7907.9281    14090.701    82.225872 
    9400    1313.8818   -159.74146    1.1888279   -158.55263    12896.394    4.3192254    4.3192254    4.3192254    12896.394    73699.352   -15152.383   -19857.787    1215.3253   -25503.002    58538.731    80.578208 
    9500     1990.164   -160.30147    1.8007422   -158.50072    26197.406    4.2719043    4.2719043    4.2719043    26197.406    84763.762    -63345.29    57173.745   -7286.0417    -11687.41    -294.2436    77.958692 
    9600    2683.0516   -160.99819    2.4276815   -158.57051   -8433.6569    4.2756266    4.2756266    4.2756266   -8433.6569   -42848.639   -65112.588    82660.256    -33124.31    5987.0439   -27056.446    78.162656 
    9700    1929.4162   -160.37575    1.7457763   -158.62998    -18943.77    4.2995466    4.2995466    4.2995466    -18943.77   -29380.221   -75922.173    48471.086   -32437.975   -2163.3595    2321.4069    79.481855 
    9800    1018.6867   -159.54404   0.92172911   -158.62231    36688.671    4.3006549    4.3006549    4.3006549    36688.671    44547.414   -5926.2479    71444.848   -17247.876    -2128.651    63206.168    79.543333 
    9900    1390.8414   -159.88109    1.2584625   -158.62263    54809.912    4.3022825    4.3022825    4.3022825    54809.912    33189.696    80089.297    51150.743   -27184.272    2132.8812    51698.523    79.633678 
   10000    1998.1129   -160.41806    1.8079346   -158.61013   -4503.2816    4.3093069    4.3093069    4.3093069   -4503.2816    9231.4717   -27342.445    4601.1287    -26740.88   -11909.788   -11659.775    80.024374 
   10100    2347.7983   -160.72132    2.1243373   -158.59699    3573.1252    4.2932688    4.2932688    4.2932688    3573.1252    16429.215   -38.006963   -5671.8324   -25538.447   -13838.843     2383.796    79.134207 
   10200    2575.0891   -160.96447    2.3299947   -158.63448    12700.915    4.2842657    4.2842657    4.2842657    12700.915    54545.049   -4589.8699   -11852.434   -1232.1344    2833.2388   -1888.9985    78.637406 
   10300    2274.2358   -160.72986    2.0577764   -158.67208     968.5081    4.2986108    4.2986108    4.2986108     968.5081    54064.188   -29834.929   -21323.735    5317.6783    11468.084   -26143.198    79.429964 
   10400    2288.4981   -160.72992    2.0706811   -158.65924   -3634.6114     4.306548     4.306548     4.306548   -3634.6114      13338.9    7420.1285   -31662.863    31336.292   -2456.4094   -4736.3188    79.870774 
   10500    2100.3443   -160.53425    1.9004357   -158.63381    21388.098    4.2977321    4.2977321    4.2977321    21388.098    48558.024    -9747.519    25353.787    39597.903   -14886.012    12906.191    79.381263 
   10600    1920.4513   -160.36607    1.7376647    -158.6284   -8971.1312    4.2966865    4.2966865    4.2966865   -8971.1312    48185.572   -51442.374   -23656.592    10853.736    11980.987    694.32108    79.323343 
   10700    2288.0982   -160.71914    2.0703193   -158.64882   -14830.705    4.3044071    4.3044071    4.3044071   -14830.705   -31240.659   -40061.368    26809.911    5670.7406   -5445.1297    8326.9593    79.751714 
   10800    2021.4364   -160.46956    1.8290381   -158.64052    18165.583    4.3007801    4.3007801    4.3007801    18165.583    100391.97   -6527.7385    -39367.48    24971.096   -4575.4544    20669.841    79.550282 
   10900    2720.2324   -161.09641    2.4613234   -158.63509   -18108.181     4.281872     4.281872     4.281872   -18108.181    13268.443   -23798.019   -43794.966   -2515.2306     12290.24     8184.851    78.505673 
   11000    2169.9611   -160.60583    1.9634264    -158.6424    33793.567    4.2571461    4.2571461    4.2571461    33793.567    79784.209    24215.029   -2618.5367   -16625.608   -5629.8997    358.54924    77.153506 
   11100    1930.2097   -160.45132    1.7464943   -158.70483    46758.655    4.2709752    4.2709752    4.2709752    46758.655    91304.261    26717.264     22254.44    -39111.54   -2164.0117   -1316.0619    77.907835 
   11200    1280.4805   -159.88038    1.1586057   -158.72178   -4640.7321    4.3257251    4.3257251    4.3257251   -4640.7321    103743.79   -45998.864    -71667.12   -26008.731    3264.8984    11432.545    80.942528 
   11300    1400.5072   -159.89571    1.2672083    -158.6285    11105.085    4.3405923    4.3405923    4.3405923    11105.085    143350.81   -29014.417   -81021.136    27471.946    5809.5271   -3886.9697    81.779977 
   11400    2206.6961   -160.57587     1.996665    -158.5792    12361.479    4.3100121    4.3100121    4.3100121    12361.479    41161.471    26303.816    -30380.85   -1420.3754   -31668.386    16571.775    80.063663 
   11500    1913.1061    -160.3219    1.7310186   -158.59088    27746.845    4.2950877    4.2950877    4.2950877    27746.845    67238.057     45108.83   -29106.351     7107.808   -9200.6137    6178.2761    79.234826 
   11600    1732.2194   -160.21586    1.5673485   -158.64851    8056.7397    4.3139289    4.3139289    4.3139289    8056.7397    81116.865   -48760.413   -8186.2322    1785.5724    -10759.36   -55505.748     80.28214 
   11700    1983.7668    -160.4102    1.7949539   -158.61525    -26251.37    4.3130255    4.3130255    4.3130255    -26251.37    49625.207   -79716.068    -48663.25    9499.4396   -6139.7982   -17899.265    80.231717 
   11800    2725.5398   -161.06527    2.4661257   -158.59915   -21695.465    4.3001994    4.3001994    4.3001994   -21695.465   -78862.142    -35101.67    48877.416    1911.0358   -13105.551    26382.405    79.518061 
   11900    1594.7403   -160.08211    1.4429545   -158.63915   -39783.628    4.3165088    4.3165088    4.3165088   -39783.628   -26281.538   -25393.974   -67675.373   -8853.1534    32808.818   -14806.453    80.426263 
   12000     1162.311   -159.65601    1.0516835   -158.60433   -12555.793    4.3034486    4.3034486    4.3034486   -12555.793   -9154.3321    12502.235   -41015.283   -5870.8178    17986.193   -18133.218    79.698447 
   12100    1721.9723   -160.12928    1.5580767    -158.5712    47510.776    4.2817938    4.2817938    4.2817938    47510.776   -10004.296    86753.081    65783.542   -10442.251   -5236.1464   -16376.577    78.501373 
   12200    1820.9324     -160.292    1.6476179   -158.64438    24471.483    4.3047942    4.3047942    4.3047942    24471.483    18462.664    74173.775   -19221.991    17475.449   -8769.2652   -11687.164    79.773231 
   12300    2355.1133   -160.74339    2.1309561   -158.61244   -44395.891    4.3153705    4.3153705    4.3153705   -44395.891   -87935.171     41429.07   -86681.573   -8689.2738   -20364.877    17835.614    80.362656 
   12400    2602.6824   -160.92035    2.3549617   -158.56539    34044.883     4.275142     4.275142     4.275142    34044.883    36648.433    72819.556   -7333.3404   -19894.763   -13032.048    4898.6417    78.136085 
   12500    1980.6452   -160.43064    1.7921294   -158.63852      39613.9    4.2774672    4.2774672    4.2774672      39613.9    45489.924    40103.113    33248.665   -15391.812     22933.85   -8148.7323    78.263646 
   12600    2428.9195   -160.86229    2.1977374   -158.66455   -83863.786    4.3243464    4.3243464    4.3243464   -83863.786   -75718.475   -77181.526   -98691.359    4415.1507   -16778.925   -45751.955    80.865157 
   12700    1511.1841   -159.97974    1.3673511   -158.61239    35803.104    4.3226057    4.3226057    4.3226057    35803.104    31502.832   -4300.5138    80206.993   -12375.285    24963.858    992.94686     80.76754 
   12800    1474.6782    -159.9067    1.3343198   -158.57238    20834.642    4.2948122    4.2948122    4.2948122    20834.642   -8614.8942    31821.555    39297.266    3615.5542     22292.34   -11678.594    79.219582 
   12900    2139.5311   -160.52643    1.9358927   -158.59053   -23088.445    4.2907255    4.2907255    4.2907255   -23088.445    39401.793   -43077.367   -65589.761    11816.363   -15174.787   -43878.467     78.99365 
   13000    1167.5903   -159.68479    1.0564602   -158.62833    53311.378     4.310586     4.310586     4.310586    53311.378    30161.255    76083.337    53689.543   -18434.924    8277.9427   -2113.0155    80.095654 
   13100    1936.4854   -160.34187    1.7521727    -158.5897   -39408.027    4.3257156    4.3257156    4.3257156   -39408.027   -75792.138   -53627.197    11195.253    29360.948    4938.3791   -16528.023    80.941991 
   13200     2345.897   -160.67883    2.1226169   -158.55621   -8844.8238    4.3139419    4.3139419    4.3139419   -8844.8238    19333.856   -21322.895   -24545.432    22342.585   -30681.096   -15826.666    80.282866 
   13300    1846.2757   -160.24836    1.6705491   -158.57781    21822.983    4.2957226    4.2957226    4.2957226    21822.983   -6928.8176    62443.126     9954.641    9542.9084    7471.0357    31538.214    79.269968 
   13400    1927.2676   -160.35096    1.7438322   -158.60713   -8189.8323     4.287546     4.287546     4.287546   -8189.8323   -8446.2018   -9243.1332   -6880.1617     21370.63   -24033.652   -7090.1296    78.818177 
   13500    1945.8971   -160.37791    1.7606886   -158.61722   -7441.5431    4.2846532    4.2846532    4.2846532   -7441.5431   -47035.985    33043.298   -8331.9424   -6585.0474   -6651.5081   -5385.6554    78.658746 
   13600    1296.8255     -159.813     1.173395    -158.6396    39376.414    4.2831892    4.2831892    4.2831892    39376.414    54605.786    71634.873    -8111.418   -51552.855    22890.028    8059.5634    78.578148 
   13700    1160.1647   -159.70311    1.0497414   -158.65337    16801.322    4.2950628    4.2950628    4.2950628    16801.322     72323.59    27115.202   -49034.826   -53003.839    6571.7743    -34336.39    79.233446 
   13800    1792.3936    -160.2267    1.6217954   -158.60491   -18578.741    4.3046399    4.3046399    4.3046399   -18578.741   -14680.682   -24457.643   -16597.897    7338.9272   -2228.6709   -37152.878    79.764655 
   13900    2431.3595    -160.7731    2.1999452   -158.57316   -44742.801    4.3021286    4.3021286    4.3021286   -44742.801    5280.6339   -82065.601   -57443.435    30930.228    11202.934   -23006.147    79.625132 
   14000     2287.715    -160.6513    2.0699726   -158.58133   -7071.3158    4.2868955    4.2868955    4.2868955   -7071.3158    41636.468    7984.8399   -70835.256    12172.067    1720.4651    2897.9754    78.782304 
   14100    1681.0949    -160.1366      1.52109   -158.61551    34510.709    4.2788875    4.2788875    4.2788875    34510.709    66231.697    23214.511     14085.92   -38005.927   -19776.825    13342.774     78.34163 
   14200    2134.3615   -160.56259    1.9312151   -158.63137   -15532.093    4.2899421    4.2899421    4.2899421   -15532.093    10653.165    5483.9488   -62733.392   -23398.377   -21248.796    2911.7668    78.950392 
   14300    2198.9623   -160.62231    1.9896673   -158.63264   -13066.057    4.3049482    4.3049482    4.3049482   -13066.057   -51451.813    -1955.776    14209.417    14914.514    12315.183    5900.1604    79.781792 
   14400     1974.882   -160.40939    1.7869148   -158.62248    -27354.65    4.3131463    4.3131463    4.3131463    -27354.65   -37844.384   -22423.164   -21796.402   -7961.7648   -14578.304   -37244.789    80.238455 
   14500    2057.3635   -160.45914    1.8615457   -158.59759    8959.7042    4.2973738    4.2973738    4.2973738    8959.7042    45913.787   -1736.2216   -17298.453   -9156.0525    13784.617   -10898.115    79.361416 
   14600    2386.3962   -160.73978    2.1592615   -158.58052    17709.368    4.2725844    4.2725844    4.2725844    17709.368    26980.828   -16343.757    42491.035    9523.9094    38619.241    17713.629    77.995931 
   14700    1874.6449   -160.33257    1.6962181   -158.63636    46718.911    4.2748982    4.2748982    4.2748982    46718.911    69810.416     29166.19    41180.126   -5940.1532    31176.415   -22880.657    78.122718 
   14800    1794.1974   -160.31304    1.6234275   -158.68961   -3433.3865    4.3140235    4.3140235    4.3140235   -3433.3865    32947.548    23828.773   -67076.481    25084.115   -2510.1473   -6035.3368    80.287425 
   14900    2542.1019   -160.93778    2.3001473   -158.63764   -67926.511    4.3370446    4.3370446    4.3370446   -67926.511   -76957.145   -67258.044   -59564.344   -4431.7441   -7621.5338    11956.493    81.579616 
   15000    2080.3696   -160.47619    1.8823621   -158.59382    20615.554    4.3176035    4.3176035    4.3176035    20615.554    44344.361   -4295.0767    21797.377    23390.203     27036.79   -13396.632    80.487468 
   15100     1979.349   -160.36383    1.7909566   -158.57287    32461.163    4.2888379    4.2888379    4.2888379    32461.163     66848.53   -15277.996    45812.955   -10584.562    9178.1876    12561.026    78.889446 
   15200    2531.6159   -160.89556    2.2906592    -158.6049    2408.8868    4.2855983    4.2855983    4.2855983    2408.8868    -11465.84    48885.452   -30192.952   -29121.859   -17437.141    14851.592    78.710812 
   15300    1543.8417   -160.07187    1.3969004   -158.67497     36011.86    4.3162159    4.3162159    4.3162159     36011.86     27421.82    74540.502    6073.2582   -12089.745   -32396.222   -18810.373    80.409892 
   15400    1569.3468   -160.05542     1.419978   -158.63544    -27551.57    4.3447243    4.3447243    4.3447243    -27551.57   -49623.013    -23311.34   -9720.3574    18731.311    6303.2175    1325.8124    82.013749 
   15500    2461.5088   -160.80683    2.2272249    -158.5796   -32574.362    4.3293215    4.3293215    4.3293215   -32574.362    38083.235   -62930.261    -72876.06     6241.399   -15229.531    8011.4699    81.144582 
   15600    2142.2066   -160.49862    1.9383135   -158.56031   -25721.672    4.3025784    4.3025784    4.3025784   -25721.672    18425.684   -33854.333   -61736.368   -23593.157    15337.375   -2714.7543    79.650111 
   15700    2098.8932   -160.53526    1.8991227   -158.63613   -43125.042    4.3073042    4.3073042    4.3073042   -43125.042   -23277.122   -58108.294    -47989.71   -32401.938    27004.518    4343.0475    79.912854 
   15800    1980.6082   -160.45913    1.7920959   -158.66704   -33529.512    4.3119676    4.3119676    4.3119676   -33529.512   -49634.409   -13694.772   -37259.354    -20441.52    20106.689    8574.8247    80.172693 
   15900    1216.6072   -159.75168    1.1008117   -158.65087     56151.16    4.2995313    4.2995313    4.2995313     56151.16    53494.281    59381.667    55577.533     -7944.34    4185.0794     7775.376    79.481003 
   16000    2431.8617   -160.83262    2.2003996   -158.63222    14100.732     4.290463     4.290463     4.290463    14100.732    32912.756    14297.853   -4908.4123    7936.9346   -10951.381   -4444.3687    78.979157 
   16100    2267.4698   -160.68284    2.0516543   -158.63118    28603.617    4.2781914    4.2781914    4.2781914    28603.617    25012.383    71585.669   -10787.201    2610.4228   -13478.462    12189.622      78.3034 
   16200    2110.7853   -160.56545    1.9098829   -158.65557   -47465.868    4.2980394    4.2980394    4.2980394   -47465.868   -62354.963   -39479.677   -40562.964    3336.0431    1101.8328   -18347.143    79.398294 
   16300    1805.3326    -160.2789    1.6335029    -158.6454   -32986.607     4.306067     4.306067     4.306067   -32986.607   -18005.726   -34495.407   -46458.687    16974.644    18918.339   -11234.868     79.84401 
   16400    1342.3452   -159.83257    1.2145821   -158.61799     22187.45    4.2840473    4.2840473    4.2840473     22187.45    26868.998     46689.73   -6996.3779    12550.927    18550.054   -7519.1979    78.625381 
   16500    1183.9085    -159.7216    1.0712253   -158.65038    47834.978    4.2715435    4.2715435    4.2715435    47834.978   -4613.1185    121300.18     26817.87    16310.065     9367.619    2020.8939    77.938944 
   16600    2018.6699   -160.50592     1.826535   -158.67938   -6806.3157    4.2687093    4.2687093    4.2687093   -6806.3157   -44735.237     26548.94   -2232.6499   -18452.955    20633.032    306.10103    77.783905 
   16700    1980.5443   -160.46482    1.7920381   -158.67278   -3254.2082     4.263861     4.263861     4.263861   -3254.2082   -27562.005   -21463.481    39262.862   -4779.1929    17091.175   -8162.2374    77.519169 
   16800    2365.1445   -160.83313    2.1400325   -158.69309   -685.07815    4.2873055    4.2873055    4.2873055   -685.07815   -11121.834    40944.201   -31877.602   -2636.5733   -6099.3239   -14217.445    78.804914 
   16900    2022.1689   -160.50544     1.829701   -158.67574   -6741.2197    4.3108963    4.3108963    4.3108963   -6741.2197   -50145.704    67541.133   -37619.088     1375.962   -10825.726    7733.1643    80.112953 
   17000    1232.2486   -159.76143    1.1149644   -158.64647    3728.9817    4.3023478    4.3023478    4.3023478    3728.9817   -25239.157   -7791.1806    44217.283    23547.742   -25414.063    28349.498    79.637304 
   17100    1327.2128   -159.82683      1.20089   -158.62594    54298.034     4.284447     4.284447     4.284447    54298.034    102885.28    41914.798    18094.019    4957.6092    4580.3316     29577.97    78.647392 
   17200    2023.0724   -160.46008    1.8305184   -158.62956    17086.079    4.2755842    4.2755842    4.2755842    17086.079    36627.244   -1005.0254    15636.018   -12736.552    5536.3944    10930.941    78.160331 
   17300    1538.3095   -160.03198    1.3918948   -158.64009    23321.811    4.2762531    4.2762531    4.2762531    23321.811    8667.1399   -3796.0564     65094.35   -2038.7306    -19570.38    3.6936706     78.19702 
   17400    1778.9512   -160.27829    1.6096324   -158.66866    10831.876    4.2988496    4.2988496    4.2988496    10831.876     17755.81   -32252.009    46991.827    8234.6088   -37253.609   -3696.0296    79.443204 
   17500    1943.5725   -160.40701    1.7585853   -158.64842   -24945.029    4.3226602    4.3226602    4.3226602   -24945.029    -63140.36   -75923.213    64228.487    19148.305   -30356.447   -1794.7444    80.770595 
   17600    2156.0623   -160.56621    1.9508505   -158.61536   -66639.045    4.3211262    4.3211262    4.3211262   -66639.045   -105780.81   -70673.801   -23462.523    3638.5721    14555.015    11072.572    80.684636 
   17700    1995.7964   -160.39969    1.8058386   -158.59385   -1762.7451    4.3026237    4.3026237    4.3026237   -1762.7451    -30615.98    20435.134    4892.6115   -12189.287    19769.861   -6593.0358    79.652626 
   17800    1298.3206   -159.76911    1.1747477   -158.59436    8975.7523    4.2927019    4.2927019    4.2927019    8975.7523   -66895.779   -554.94982    94377.986    3760.8487   -1873.7211    25509.889    79.102861 
   17900    1885.4576   -160.31919    1.7060016   -158.61319   -5015.7818    4.2908902    4.2908902    4.2908902   -5015.7818   -40792.444    869.51277    24875.586   -3907.6293    17305.264    1874.2764    79.002752 
   18000    2065.9439   -160.51069    1.8693095   -158.64138     16902.76    4.2871583    4.2871583    4.2871583     16902.76   -16142.352    48585.682    18264.951    12064.371    18336.474    7943.6074    78.796794 
   18100    1660.4657   -160.15784    1.5024242   -158.65542    11561.641    4.2931781    4.2931781    4.2931781    11561.641   -19126.062    24563.661    29247.324   -11405.884    9282.6505    13466.385    79.129192 
   18200    2593.8854    -160.9852     2.347002   -158.63819   -33617.679    4.2996381    4.2996381    4.2996381   -33617.679   -46984.591   -20832.441   -33036.005   -24681.453    4146.9997    11853.196    79.486929 
   18300    1874.8262    -160.3234    1.6963821   -158.62702    5450.0678    4.2957403    4.2957403    4.2957403    5450.0678    13313.442   -29741.152    32777.913    15170.149     17114.33   -12805.929    79.270947 
   18400    1428.5573   -159.93481    1.2925886   -158.64222   -1730.4285     4.295272     4.295272     4.295272   -1730.4285   -23704.493   -13888.346    32401.553    1450.6538    856.82101   -62315.435    79.245028 
   18500    1865.5745   -160.32198    1.6880111   -158.63397    5661.4114    4.2954215    4.2954215    4.2954215    5661.4114    33230.839    1696.6732   -17943.278   -25433.792   -25765.326   -33446.311    79.253301 
   18600    2087.3737    -160.5122    1.8886996    -158.6235   -39471.872    4.2920427    4.2920427    4.2920427   -39471.872   -36288.482   -8531.6222   -73595.512    1798.9432    11044.844    9850.0136    79.066426 
   18700    2656.5042   -161.02331    2.4036608   -158.61965   -31717.241    4.2856037    4.2856037    4.2856037   -31717.241    -75539.88    4963.9192   -24575.761    11351.852      5931.84     16748.31    78.711106 
   18800    2527.9621   -160.91402    2.2873532   -158.62667     6457.965    4.2775087    4.2775087    4.2775087     6457.965   -36909.176    38698.573    17584.499   -39339.523   -19320.709     10451.17    78.265923 
   18900    1365.6862   -159.88907    1.2357015   -158.65337   -11422.929    4.2817001    4.2817001    4.2817001   -11422.929    3074.8078   -59824.854     22481.26   -12680.809    5170.6377   -25195.454    78.496216 
   19000    1535.0139   -160.05833    1.3889128   -158.66941   -10135.843     4.284542     4.284542     4.284542   -10135.843    -27429.31    8064.3393   -11042.559   -991.54634    -7624.801   -45848.483    78.652622 
   19100    1656.3138   -160.17072    1.4986675   -158.67205    45432.829    4.2757998    4.2757998    4.2757998    45432.829    54095.884    63554.678    18647.924    1266.0475    -9741.504   -41331.947    78.172156 
   19200    1489.7823   -160.01984    1.3479863   -158.67185    22589.419    4.2863435    4.2863435    4.2863435    22589.419    36346.105   -20743.416    52165.569    7312.7459   -15189.213   -28045.073    78.751877 
   19300    2123.7505   -160.58146    1.9216141   -158.65985   -13880.697    4.3106537    4.3106537    4.3106537   -13880.697   -39088.804    2382.2418   -4935.5293    19788.282   -579.35976   -6790.1703    80.099426 
   19400    2154.0405   -160.57852    1.9490211    -158.6295    -964.3742    4.3026535    4.3026535    4.3026535    -964.3742   -11262.208   -783.47487      9152.56    6649.7922    11730.758    4154.3619    79.654281 
   19500    2573.0492   -160.92527     2.328149   -158.59712   -31904.661    4.2801115    4.2801115    4.2801115   -31904.661   -46129.636    -36057.53   -13526.816   -20373.876   -26425.029     24503.35     78.40888 
   19600    1831.2317   -160.30985    1.6569369   -158.65292    20306.121    4.2884253    4.2884253    4.2884253    20306.121    86777.336    18638.915   -44497.889    14256.799   -8592.0469   -9003.3743     78.86668 
   19700    1355.9221   -159.90165    1.2268668   -158.67478    17278.212     4.315826     4.315826     4.315826    17278.212    139762.37   -60242.935   -27684.803    12474.615    16950.274   -12546.951    80.388101 
   19800    1651.9389   -160.13737     1.494709   -158.64266   -2732.6081    4.3165113    4.3165113    4.3165113   -2732.6081    17326.977   -47722.263    22197.462   -3142.0313   -4576.6279   -10669.759    80.426403 
   19900    2324.4844   -160.71704    2.1032423    -158.6138   -32949.074    4.2963644    4.2963644    4.2963644   -32949.074   -9402.0175   -42333.574    -47111.63    16088.863   -22918.586     -8943.66    79.305506 
   20000    2140.0425   -160.56064    1.9363555   -158.62428   -15672.097    4.2881147    4.2881147    4.2881147   -15672.097   -10792.693    -59672.83    23449.233    734.16189   -29501.134   -6189.0002    78.849543 
   20100    2098.4857    -160.5583    1.8987539   -158.65955   -28360.758    4.2978863    4.2978863    4.2978863   -28360.758   -32208.116   -53051.319    177.16112    3649.2243   -6944.6466    23007.029     79.38981 
   20200    1712.3578   -160.21625    1.5493773   -158.66687    -21899.07    4.3083562    4.3083562    4.3083562    -21899.07   -33368.425   -78268.632    45939.847    8886.2844    21488.456    16909.404    79.971417 
   20300    2227.1773   -160.67248    2.0151968   -158.65728   -28360.088    4.2926768    4.2926768    4.2926768   -28360.088   -41305.252   -85765.531     41990.52    19201.738   -14480.391   -12167.234    79.101476 
   20400    2130.1153   -160.56946    1.9273731   -158.64209    21806.817    4.2508812    4.2508812    4.2508812    21806.817    40677.909   -23737.908     48480.45    18348.271   -10561.236   -41582.716    76.813386 
   20500    2368.0182   -160.80037    2.1426327   -158.65774    32390.658    4.2409371    4.2409371    4.2409371    32390.658      79999.1   -12812.669    29985.543    10039.667    33188.593   -30054.054    76.275574 
   20600    2437.6846   -160.91935    2.2056682   -158.71368   -7842.2804    4.2820834    4.2820834    4.2820834   -7842.2804   -12155.289   -41114.423    29742.871    433.05956   -11392.007   -10259.735    78.517299 
   20700    2158.8174   -160.62141    1.9533433   -158.66807   -31665.383    4.3038618    4.3038618    4.3038618   -31665.383   -37933.915   -63873.886    6811.6522   -25161.239   -3275.2144    11517.527    79.721406 
   20800    2238.9146   -160.66935     2.025817   -158.64353   -3997.4738    4.2848085    4.2848085    4.2848085   -3997.4738    6136.9683   -40756.912    22627.522   -17036.285    6683.7186    14570.058    78.667299 
   20900    1995.9996   -160.46389    1.8060224   -158.65787    34423.194    4.2605397    4.2605397    4.2605397    34423.194   -39199.943   -40892.904    183362.43   -8294.3179    5769.3295   -2020.4075    77.338161 
   21000    1490.3566    -160.0538    1.3485059   -158.70529    49562.622    4.2610357    4.2610357    4.2610357    49562.622   -47304.316   -8780.1194     204772.3    11965.458    13771.843   -14191.148    77.365177 
   21100    2279.7649   -160.80572    2.0627792   -158.74294   -36374.537    4.2934097    4.2934097    4.2934097   -36374.537   -59029.096   -91959.755    41865.239   -7519.8337     33864.31   -21653.337    79.141996 
   21200    2063.7883   -160.56858     1.867359   -158.70122   -9648.6316    4.3044517    4.3044517    4.3044517   -9648.6316   -27662.668   -62706.295    61423.069    6252.7522   -15457.939   -6421.1909    79.754194 
   21300      1713.29   -160.20622    1.5502208     -158.656    51144.144    4.2761487    4.2761487    4.2761487    51144.144    80862.055   -12609.785    85180.161   -9564.2885   -10251.299    6424.7121    78.191295 
   21400    2312.7466   -160.73935    2.0926217   -158.64673    28160.802    4.2654801    4.2654801    4.2654801    28160.802     29561.69     10373.63    44547.086    16581.046    4404.4813    16317.281    77.607513 
   21500    2907.1059   -161.30891    2.6304105   -158.67849   -26806.301    4.2811052    4.2811052    4.2811052   -26806.301   -46764.307   -51961.522    18306.925    1556.6952    5845.9909     11740.71    78.463506 
   21600    2088.6717    -160.5759     1.889874   -158.68603    -27936.55    4.2910516    4.2910516    4.2910516    -27936.55   -29546.122   -45570.952    -8692.576    6955.5377    12009.307    17513.398    79.011665 
   21700    2136.4884   -160.60973    1.9331396   -158.67659   -9369.6878    4.2805461    4.2805461    4.2805461   -9369.6878   -1730.1209   -6453.2635   -19925.679    4533.4423   -8688.7024    32315.146    78.432769 
   21800    2490.2338   -160.93335    2.2532159   -158.68014   -146.55161    4.2706836    4.2706836    4.2706836   -146.55161    10188.404   -32911.183    22283.124    1413.8461   -21893.257     52289.87     77.89188 
   21900    1635.1733   -160.17388    1.4795391   -158.69434   -7626.1203    4.2713929    4.2713929    4.2713929   -7626.1203    29625.916   -48559.316   -3944.9608   -11384.645    2535.5883    53532.813    77.930697 
   22000    1882.3665   -160.39204    1.7032047   -158.68883   -7201.4951    4.2732688    4.2732688    4.2732688   -7201.4951    35213.492   -38371.992   -18445.984   -16716.571    7515.2565    40652.469    78.033419 
   22100    2942.6861   -161.34366    2.6626042   -158.68105   -13125.108    4.2726463    4.2726463    4.2726463   -13125.108    7622.2771   -56772.414    9774.8128    10706.189   -12234.988     4031.631    77.999321 
   22200    2167.3256   -160.64264    1.9610417    -158.6816    -22647.29    4.2796238    4.2796238    4.2796238    -22647.29   -34522.939   -82690.106    49271.174    179.84112    8109.8399   -15916.078     78.38208 
   22300    1214.7157   -159.77172    1.0991003   -158.67262    925.38922    4.2874359    4.2874359    4.2874359    925.38922    42655.551   -70256.705    30377.322   -16367.087    2582.7499    2673.0503    78.812104 
   22400    1916.0472   -160.38207    1.7336797   -158.64839    23974.895    4.2832321    4.2832321    4.2832321    23974.895    117619.46   -67499.375    21804.602   -11491.587   -13874.613    12109.699    78.580508 
   22500     1631.783      -160.13    1.4764716   -158.65353    7889.8012    4.2818245    4.2818245    4.2818245    7889.8012    88561.131   -53089.514   -11802.214   -3329.1982   -1038.0334    15971.675    78.503063 
   22600    2181.5095   -160.64159    1.9738756   -158.66772   -29971.488    4.2887975    4.2887975    4.2887975   -29971.488    10843.631   -69695.687   -31062.408    9369.6822   -9762.1223    21616.539    78.887214 
   22700    1941.5882   -160.42685    1.7567898   -158.67006   -9219.6325     4.281997     4.281997     4.281997   -9219.6325    38983.759   -24935.421   -41707.236    19918.899    14049.677   -5863.2139    78.512547 
   22800    861.60467   -159.44272   0.77959801   -158.66312    27298.232    4.2637891    4.2637891    4.2637891    27298.232    52511.445    32941.893   -3558.6422   -4306.8418    39975.914   -19181.837    77.515247 
   22900    1355.4513   -159.89818    1.2264408   -158.67174    14938.065     4.265867     4.265867     4.265867    14938.065   -1761.6424    22122.131    24453.707   -6688.6636    34539.089   -25031.516    77.628634 
   23000    1624.6203   -160.15052    1.4699906   -158.68053    915.54398    4.2781503    4.2781503    4.2781503    915.54398    6170.3411   -19867.199    16443.489    -12194.47    30736.404    2349.2033    78.301148 
   23100    1302.4827   -159.84165    1.1785137   -158.66313   -20354.884     4.283188     4.283188     4.283188   -20354.884    31979.024   -39925.665    -53118.01     -16317.2   -1315.4442    12044.817    78.578078 
   23200    1672.2372   -160.17867    1.5130754    -158.6656    9662.7419    4.2838218    4.2838218    4.2838218    9662.7419    17611.773    11729.105   -352.65143   -14168.005   -10329.574   -10727.955    78.612966 
   23300    1447.3156   -159.98584    1.3095615   -158.67628   -2597.5485    4.2902326    4.2902326    4.2902326   -2597.5485   -47852.041    29896.357    10163.039   -11646.412    6599.3544    40.387575    78.966433 
   23400    1614.9628   -160.11872    1.4612523   -158.65747   -42721.332    4.2896198    4.2896198    4.2896198   -42721.332    -52021.41   -37325.307   -38817.278   -28390.338   -1750.7948    2838.3202    78.932599 
   23500    2469.0634   -160.89195    2.2340605   -158.65789   -28151.874    4.2902393    4.2902393    4.2902393   -28151.874   -39784.541   -73998.308    29327.227   -26860.607    2710.1155      12161.6    78.966802 
   23600    2004.4588   -160.47752    1.8136764   -158.66384    4655.4892    4.3038561    4.3038561    4.3038561    4655.4892    5841.0744    14004.451   -5879.0579    5633.3635    12465.162   -16898.989    79.721089 
   23700    1456.8069   -159.96391    1.3181495   -158.64577   -1313.6101    4.3036562    4.3036562    4.3036562   -1313.6101   -14626.161   -21986.187    32671.517   -18875.814    11308.052   -16445.502    79.709983 
   23800    2548.8773   -160.93526    2.3062778   -158.62898   -15804.084    4.2895205    4.2895205    4.2895205   -15804.084   -15176.564   -38912.307    6676.6187   -35651.744   -20565.065    14463.537    78.927118 
   23900    1184.8003   -159.70773    1.0720322    -158.6357    52468.377    4.2854791    4.2854791    4.2854791    52468.377    15972.652    78188.037    63244.441   -15203.533    5576.6266   -7431.4448    78.704245 
   24000    1381.4307   -159.87899    1.2499475   -158.62904    2395.1502    4.2999508    4.2999508    4.2999508    2395.1502    17097.563   -15983.824    6071.7111   -36040.939   -2111.5465   -18742.859     79.50427 
   24100    2566.8162   -160.93556    2.3225092   -158.61305   -46807.166    4.3035658    4.3035658    4.3035658   -46807.166   -58001.787   -50373.494   -32046.217   -36297.531   -7194.8471   -2314.0244    79.704958 
   24200    1361.6657   -159.87128    1.2320637   -158.63921    36981.497     4.291441     4.291441     4.291441    36981.497    79853.911   -14136.274    45226.855    -25205.41    2686.3756    3874.1325    79.033174 
   24300    2074.9117   -160.51932    1.8774237    -158.6419   -11248.859    4.2895805    4.2895805    4.2895805   -11248.859    47948.108   -23040.576   -58654.108    8441.1246   -3241.5917    2204.9366    78.930428 
   24400     2032.442   -160.48333    1.8389962   -158.64434    11808.803    4.2857267    4.2857267    4.2857267    11808.803     -43141.5    53984.336    24583.575    24607.671   -4795.8974   -2218.9749    78.717885 
   24500    1961.7199   -160.42539    1.7750054   -158.65039    9265.8893    4.2806568    4.2806568    4.2806568    9265.8893   -16843.653   -9252.0778    53893.398   -5258.6029   -9503.2467   -24593.677    78.438855 
   24600    1843.7624   -160.33984     1.668275   -158.67156    20779.124    4.2835792    4.2835792    4.2835792    20779.124   -9534.5449   -26269.714    98141.631   -13001.654   -15204.096   -18984.566    78.599615 
   24700    1979.2408   -160.46046    1.7908586    -158.6696   -12401.758    4.2929404    4.2929404    4.2929404   -12401.758   -50598.102   -954.28999    14347.119    25341.011     20219.99   -9161.3482    79.116047 
   24800    1610.1081   -160.10046    1.4568596    -158.6436   -8871.1517    4.2919143    4.2919143    4.2919143   -8871.1517    43446.846   -22962.163   -47098.138   -8436.8476    3596.3003   -15939.547     79.05933 
   24900    1938.3349   -160.39101    1.7538461   -158.63716    11905.683    4.2907713    4.2907713    4.2907713    11905.683   -22579.629    73516.702   -15220.024   -11479.817   -14402.236   -19685.186    78.996184 
   25000    1663.6726   -160.16681    1.5053259   -158.66148   -24121.687    4.3042061    4.3042061    4.3042061   -24121.687   -85220.347   -32480.354    45335.641   -19219.734    -21258.53   -14165.861    79.740539 
   25100    1863.3436    -160.3358    1.6859924   -158.64981   -33761.238     4.297333     4.297333     4.297333   -33761.238   -46085.137   -41759.953   -13438.626    10247.774   -17209.951    15463.603    79.359152 
   25200    1864.1083   -160.32227    1.6866844   -158.63559     30032.57    4.2767478    4.2767478    4.2767478     30032.57      46401.2    57203.924   -13507.414   -17377.177   -3926.5471    2823.0398    78.224162 
   25300    1784.4517   -160.27862    1.6146094   -158.66401    20926.527     4.281062     4.281062     4.281062    20926.527    69594.281    20730.697   -27545.397   -11832.163   -8153.8901   -11420.851    78.461127 
   25400    2333.0422   -160.78456    2.1109856   -158.67358   -47864.482    4.2890462    4.2890462    4.2890462   -47864.482   -20236.174   -50994.456   -72362.815    9751.6538    8575.9086   -16865.139    78.900938 
   25500    2101.6552    -160.5612    1.9016218   -158.65958    23467.116    4.2672805    4.2672805    4.2672805    23467.116    13402.541    50315.947    6682.8605    3185.1032    34325.404   -4267.6499    77.705826 
   25600    1731.0657   -160.23359    1.5663046   -158.66728    7668.1126    4.2668816    4.2668816    4.2668816    7668.1126   -2081.4848    94121.813    -69035.99   -8514.8339    31433.096   -1770.7099    77.684036 
   25700      1834.18   -160.33373    1.6596046   -158.67413   -2754.0449    4.2880144    4.2880144    4.2880144   -2754.0449    24795.048    44053.615   -77110.798   -14383.562    20410.383    7321.6756    78.844012 
   25800    1903.4853   -160.37951    1.7223135   -158.65719   -1400.1038    4.2998818    4.2998818    4.2998818   -1400.1038    15730.295   -11402.095   -8528.5112   -22930.886      -4450.2    17753.529    79.500445 
   25900    1653.8816   -160.14097    1.4964668    -158.6445   -1007.9798    4.2978279    4.2978279    4.2978279   -1007.9798   -21378.274    16702.493    1651.8425    4873.9259    6797.5965     1958.098    79.386577 
   26000    2298.8304   -160.72226      2.08003   -158.64223    16496.448    4.2850936    4.2850936    4.2850936    16496.448    2648.7007    7202.6429        39638   -3450.9697    8344.0296    15868.472    78.683003 
   26100    2198.9394   -160.63908    1.9896466   -158.64943   -16938.282    4.2823857    4.2823857    4.2823857   -16938.282   -43223.364    2592.3634   -10183.844    -209.5071   -21202.666    21269.324    78.533934 
   26200    2125.2114   -160.58424     1.922936    -158.6613   -15814.048    4.2857523    4.2857523    4.2857523   -15814.048   -29970.927    50223.146   -67694.364    5880.6862   -19822.963    19734.118    78.719295 
   26300    2035.6371   -160.50521    1.8418872   -158.66332   -2888.1778    4.2777187    4.2777187    4.2777187   -2888.1778    -50782.89    66620.178   -24501.821   -13742.367   -10678.981   -16978.645     78.27745 
   26400    1437.4618   -159.98484    1.3006456    -158.6842    23846.439    4.2710606    4.2710606    4.2710606    23846.439    8308.9916    63617.685   -387.35874   -6955.3636    -12147.72    6357.4339    77.912514 
   26500    1764.9733   -160.31699     1.596985      -158.72     26231.08    4.2928564    4.2928564    4.2928564     26231.08    23629.879    26226.351     28837.01    5862.7566   -18772.767   -7652.1132    79.111402 
   26600    1556.6386   -160.08227    1.4084793   -158.67379   -35409.001      4.31605      4.31605      4.31605   -35409.001    -70631.13   -14800.547   -20795.328    199.65808   -14366.696    7396.1031    80.400623 
   26700    1737.9568   -160.20303    1.5725398   -158.63049   -34427.262    4.2965015    4.2965015    4.2965015   -34427.262   -32494.059   -10088.896   -60698.831    5560.4974    24548.755    28643.929    79.313099 
   26800    1805.0631   -160.25647     1.633259   -158.62321    42605.484      4.26064      4.26064      4.26064    42605.484    61659.343    12484.149    53672.962    9242.4798    45118.898    -5181.236    77.343625 
   26900    1454.8662   -159.99487    1.3163935   -158.67848   -2926.4306    4.2685031    4.2685031    4.2685031   -2926.4306   -52807.242   -11244.692    55272.642     8242.433    50858.035   -9422.4579    77.772631 
   27000     1433.022   -159.98997    1.2966284   -158.69334   -20072.013    4.3008647    4.3008647    4.3008647   -20072.013   -65939.589    14702.153   -8978.6018    18221.747    16023.131   -17802.387    79.554976 
   27100    2386.0112   -160.80281    2.1589131    -158.6439   -46338.159    4.3088685    4.3088685    4.3088685   -46338.159    15144.131      -118823   -35335.612   -8071.0872    3019.9017    4562.2842    79.999949 
   27200    1719.2155   -160.18017    1.5555823   -158.62459    4817.4203    4.2921785    4.2921785    4.2921785    4817.4203    22557.783   -1237.2898   -6868.2322   -4802.0116   -14502.798    4949.8688     79.07393 
   27300    2449.0787   -160.85566    2.2159779   -158.63969     12724.96    4.2658125    4.2658125    4.2658125     12724.96   -5559.1207     55388.32   -11654.319   -29259.221   -8976.7312   -27439.763    77.625658 
   27400    2205.8418   -160.65199     1.995892   -158.65609    21054.704    4.2399306    4.2399306    4.2399306    21054.704   -18759.923    40278.077     41645.96    -14899.03   -12881.412   -6692.1396    76.221281 
   27500    1877.3678   -160.40347    1.6986819   -158.70479   -6080.7922    4.2587644    4.2587644    4.2587644   -6080.7922    3337.5353   -21687.813    107.90089   -20091.345   -45836.638     10070.13    77.241527 
   27600    2423.4761   -160.90098    2.1928121   -158.70816   -15756.659    4.2972478    4.2972478    4.2972478   -15756.659   -8167.6166   -1423.7142   -37678.646   -3310.4587   -30824.921   -1172.4364    79.354436 
   27700    1941.4197   -160.41393    1.7566373   -158.65729    -5799.242    4.2969901    4.2969901    4.2969901    -5799.242   -56810.667    6246.9527    33165.988   -19251.384   -20929.595   -15660.817    79.340159 
   27800    2096.1474   -160.53192    1.8966382   -158.63528   -27757.848    4.2808245    4.2808245    4.2808245   -27757.848   -69108.049   -49383.855    35218.359   -16047.323   -19163.658   -12516.191    78.448073 
   27900    2111.7896   -160.57198    1.9107916   -158.66118    27087.423    4.2792353    4.2792353    4.2792353    27087.423   -36290.775   -76.424877    117629.47    9398.2422   -13173.037    10396.432    78.360736 
   28000    1446.6952   -159.97537    1.3090002   -158.66637    18817.254    4.2799093    4.2799093    4.2799093    18817.254   -74348.889   -12604.292    143404.94    16996.795     -5326.88    9303.2332    78.397765 
   28100    1414.3651   -159.96582    1.2797472   -158.68607    39729.123    4.2889827    4.2889827    4.2889827    39729.123   -29071.408    23510.129    124748.65    6307.9603    981.59042    27043.449    78.897434 
   28200    1925.7393    -160.4352    1.7424494   -158.69275   -8181.4676    4.3059383    4.3059383    4.3059383   -8181.4676   -36427.274    1431.1938    10451.677    4464.4936    28611.986   -11319.476    79.836853 
   28300    720.63288   -159.31521   0.65204377   -158.66317   -41196.027    4.2995014    4.2995014    4.2995014   -41196.027   -76461.897    -18997.53   -28128.655   -3829.3826    41533.164    7975.2141    79.479346 
   28400    1811.5247   -160.28254    1.6391056   -158.64344    33867.692    4.2603124    4.2603124    4.2603124    33867.692    47809.557      57201.5   -3407.9802   -8323.2663    31957.292   -828.57828    77.325788 
   28500    1929.7604   -160.39676    1.7460878   -158.65068    58131.988    4.2534812    4.2534812    4.2534812    58131.988    -6997.955    119570.05     61823.87     -16627.2    1641.5524   -5770.5244    76.954419 
   28600    1613.4744   -160.16856    1.4599055   -158.70865   -10570.541    4.2976679    4.2976679    4.2976679   -10570.541   -69525.234    19912.365    17901.246   -13528.994   -4587.7329   -10588.679    79.377711 
   28700    2731.9018   -161.12627    2.4718822   -158.65438   -58480.052    4.3237541    4.3237541    4.3237541   -58480.052    -75042.72   -5762.4213   -94635.014     7555.821    1235.2625   -17860.109    80.831932 
   28800    1992.6124   -160.42959    1.8029576   -158.62663   -11280.462    4.2826263    4.2826263    4.2826263   -11280.462   -55429.565    19685.178    1902.9994    8350.5601   -6972.3391    13091.909    78.547168 
   28900     2238.084   -160.61612    2.0250655   -158.59106    26654.545    4.2414695    4.2414695    4.2414695    26654.545   -4576.0157    47406.214    37133.439    18186.838   -2555.3966    10761.114    76.304306 
   29000    2739.4974   -161.14761    2.4787548   -158.66886   -14911.842    4.2623756    4.2623756    4.2623756   -14911.842   -14226.955    8852.1045   -39360.674    14508.117    12310.722   -3353.1369    77.438182 
   29100    1857.4047   -160.36328    1.6806188   -158.68266   -40710.581    4.2985062    4.2985062    4.2985062   -40710.581   -66434.321    -19221.97   -36475.453    9457.0621    32551.627    5077.4397    79.424169 
   29200    1764.6492   -160.23946    1.5966917   -158.64277    -18550.01     4.295974     4.295974     4.295974    -18550.01   -39178.566   -10893.339   -5578.1243    -5194.846    26325.765   -23822.238    79.283889 
   29300    2345.4264   -160.75554    2.1221911   -158.63335   -6374.1248     4.281533     4.281533     4.281533   -6374.1248   -28437.001    36368.346   -27053.719   -6927.2848    31146.852    3726.1386    78.487027 
   29400    2006.5654   -160.48786    1.8155825   -158.67228   -45480.679    4.2939834    4.2939834    4.2939834   -45480.679   -93291.661   -302.93882   -42847.438    11226.169    4617.7038    20775.473    79.173724 
   29500    1665.8261   -160.17784    1.5072745   -158.67057    9078.1402    4.2915101    4.2915101    4.2915101    9078.1402     57504.92   -49798.431    19527.932   -7648.0344   -29943.721    4086.0954    79.036992 
   29600    2105.9046    -160.5398    1.9054667   -158.63433    25287.155    4.2617223    4.2617223    4.2617223    25287.155      41022.6    9462.2391    25376.627   -998.87303    8018.5427    11986.587    77.402582 
   29700    2202.6371   -160.64822    1.9929924   -158.65523        23639     4.265328     4.265328     4.265328        23639   -7037.2822    6593.7721     71360.51    2270.7598    1335.4617    21251.571    77.599211 
   29800    1770.7382   -160.29839    1.6022012   -158.69619    2942.0323    4.3046128    4.3046128    4.3046128    2942.0323      59332.3   -24602.103   -25904.099   -26716.888   -27029.807   -24811.127    79.763144 
   29900    1322.9766   -159.82749     1.197057   -158.63043   -32467.533    4.3127193    4.3127193    4.3127193   -32467.533   -75361.633   -37573.888    15532.921   -16155.847   -11446.302   -3263.8591    80.214629 
   30000    2780.5864   -161.09153     2.515933   -158.57559   -24996.548    4.2831631    4.2831631    4.2831631   -24996.548   -37078.323   -22522.932    -15388.39   -18047.436   -2229.6723    12150.328     78.57671 
   30100    1906.3997    -160.3295    1.7249505   -158.60455     41991.48    4.2685873    4.2685873    4.2685873     41991.48    46672.116    23157.129    56145.196   -26629.716    -22535.28   -11884.459    77.777235 
   30200    2176.1175   -160.63562    1.9689968   -158.66663    -24123.29    4.2956164    4.2956164    4.2956164    -24123.29   -30890.554    1642.2641    -43121.58   -16292.647    12636.667   -7109.1697     79.26409 
   30300    1966.8904   -160.42711    1.7796837   -158.64743    19906.903    4.3216709    4.3216709    4.3216709    19906.903   -40926.675    118263.82   -17616.433   -6765.2946    4687.4681    23112.657    80.715153 
   30400    1572.3346    -160.0098    1.4226814   -158.58711    1418.1895    4.3160434    4.3160434    4.3160434    1418.1895   -49679.439    82644.671   -28710.664    14209.484   -8726.3909    13955.575     80.40025 
   30500    2956.9969   -161.23524    2.6755529   -158.55969   -22208.858    4.3007355    4.3007355    4.3007355   -22208.858    5877.9291   -60225.658   -12278.845    4027.6816    11400.286   -16760.418    79.547806 
   30600      1547.69   -160.00346    1.4003824   -158.60307    20597.601    4.3040568    4.3040568    4.3040568    20597.601   -18152.495    21164.859     58780.44    7328.4748   -5440.5891    14696.795    79.732244 
   30700    1547.3598   -159.99721    1.4000836   -158.59712   -37397.407    4.3086969    4.3086969    4.3086969   -37397.407   -70428.482   -49760.224    7996.4839    9056.9795   -21081.206   -4986.1483    79.990392 
   30800    2194.0765   -160.56306    1.9852465   -158.57781    29409.844    4.2960676    4.2960676    4.2960676    29409.844    62434.689    40899.531   -15104.687   -14398.276    3456.2481    -2745.749     79.28907 
   30900    867.76432   -159.37436   0.78517139   -158.58919    51014.483    4.2908033    4.2908033    4.2908033    51014.483    96195.609    2751.4651    54096.374   -28422.554    37046.951    22663.011    78.997952 
   31000    1969.3461   -160.39487    1.7819057   -158.61297    -39723.85    4.2980373    4.2980373    4.2980373    -39723.85    3977.2359   -81214.803   -41933.983    21461.742    5400.8736   -12281.884    79.398179 
   31100    2024.8068    -160.4636    1.8320877   -158.63151    1459.6749    4.3001771    4.3001771    4.3001771    1459.6749   -21694.112    13817.272    12255.864    20107.013   -17767.583    17654.722    79.516821 
   31200    1120.2211   -159.63589    1.0135996   -158.62229   -5866.8618    4.2945567    4.2945567    4.2945567   -5866.8618   -66586.519   -36431.852    85417.786   -9036.1032   -107.61024    17478.595    79.205442 
   31300    2119.1877   -160.55378    1.9174856   -158.63629    29985.864    4.2941119    4.2941119    4.2941119    29985.864    34393.267   -31859.272    87423.597   -10671.408    20669.112   -16112.148    79.180836 
   31400    2716.5436   -161.09759    2.4579858    -158.6396   -67390.255    4.3140294    4.3140294    4.3140294   -67390.255   -81884.768   -60677.662   -59608.336    5950.0935   -14358.171    -21072.32    80.287752 
   31500    878.73896   -159.42216   0.79510148   -158.62706     18060.07    4.3269247    4.3269247    4.3269247     18060.07   -8032.6456    15154.616     47058.24   -24658.519    21858.849    15477.986    81.009886 
   31600    2623.6752     -160.949    2.3739565   -158.57505   -3948.0252    4.3062582    4.3062582    4.3062582   -3948.0252    -7086.593   -12005.635    7248.1524   -4676.6382    -763.7388    3244.0423    79.854646 
   31700    2119.4993   -160.46602    1.9177676   -158.54825   -6115.2963    4.2828481    4.2828481    4.2828481   -6115.2963   -42013.376    25854.111   -2186.6237   -1199.7575   -12710.217    4170.8162    78.559375 
   31800    1296.0038   -159.78074    1.1726514   -158.60808    59188.073    4.2926893    4.2926893    4.2926893    59188.073    10708.969    68182.783    98672.467   -9609.5996    34309.718    22589.162    79.102165 
   31900    2772.7788    -161.0876    2.5088686   -158.57873   -71633.302    4.3209289    4.3209289    4.3209289   -71633.302   -92540.226   -29294.162   -93065.518    24232.305    899.01456   -22554.618    80.673585 
   32000    876.11544   -159.34701   0.79272766   -158.55428    13571.245    4.3267373    4.3267373    4.3267373    13571.245    43947.732   -4147.7462    913.74815   -16345.825    14785.471    534.98561    80.999361 
   32100    2969.7243   -161.20341     2.687069   -158.51634   -43040.458     4.306268     4.306268     4.306268   -43040.458   -17468.605   -55769.646   -55883.122     14586.94   -12990.367   -17829.439    79.855192 
   32200    2040.1496   -160.39897    1.8459703     -158.553   -4655.3665    4.2857485    4.2857485    4.2857485   -4655.3665   -20904.131    38473.258   -31535.226    6929.6848   -23721.634    6095.3759    78.719087 
   32300    1730.0841   -160.19967    1.5654165   -158.63425   -29361.456    4.2962961    4.2962961    4.2962961   -29361.456   -60718.728   -27354.455   -11.185105   -594.91347   -14552.711    27922.963    79.301724 
   32400    1979.4585   -160.44222    1.7910557   -158.65116     18678.27     4.305623     4.305623     4.305623     18678.27    47034.432   -60885.285    69885.664    3468.9054    30125.867    3868.8851    79.819317 
   32500    1292.5705   -159.81711    1.1695449   -158.64756    6233.9503    4.3035421    4.3035421    4.3035421    6233.9503    28271.113   -40439.711    30870.448   -12413.757    11861.527   -10363.217    79.703644 
   32600    1905.8424   -160.35822    1.7244462   -158.63377   -8989.0542    4.3023989    4.3023989    4.3023989   -8989.0542   -48922.719   -30035.842    51991.398    7027.3451   -34441.841    14730.964     79.64014 
   32700     2086.773   -160.49374    1.8881561   -158.60559   -17491.887    4.2928257    4.2928257    4.2928257   -17491.887   -33392.152   -27757.639    8674.1284   -15.847392   -29202.316   -19371.437    79.109703 
   32800    1986.8576   -160.39359    1.7977505   -158.59584   -24261.379    4.2961883    4.2961883    4.2961883   -24261.379   -27615.446   -41029.517   -4139.1748   -19266.262    20665.545   -25298.042    79.295752 
   32900    1731.2821   -160.18271    1.5665004   -158.61621    20450.615    4.3119079    4.3119079    4.3119079    20450.615     34411.47   -14667.983    41608.358   -36520.754    36164.588     18087.17     80.16936 
   33000    1874.3626   -160.28372    1.6959627   -158.58775   -52406.706    4.3102437    4.3102437    4.3102437   -52406.706   -75342.357   -32983.875   -48893.886   -4618.1498   -9583.8563   -24174.696    80.076572 
   33100    1593.2321    -160.0185    1.4415899   -158.57691    70194.183     4.292524     4.292524     4.292524    70194.183    92833.693     109232.6    8516.2602   -19676.688    16713.116    13099.985    79.093025 
   33200    2114.1234   -160.49243    1.9129033   -158.57952    37566.337    4.2945705    4.2945705    4.2945705    37566.337    63558.965    67697.234   -18557.187   -11868.585   -573.78211    10036.974    79.206203 
   33300    2314.1399   -160.68954    2.0938824   -158.59566   -53486.468    4.3182471    4.3182471    4.3182471   -53486.468    -74855.88   -35544.131   -50059.393    8729.2607   -17539.795    -16542.04    80.523469 
   33400    1746.0821   -160.17493    1.5798918   -158.59504    14562.479    4.3246662    4.3246662    4.3246662    14562.479    52901.805   -35368.407    26154.039   -25478.282    6824.5481    8476.9975    80.883098 
   33500    1298.4438   -159.74068    1.1748593   -158.56582   -24176.399    4.2984209    4.2984209    4.2984209   -24176.399   -50155.398   -20485.206   -1888.5931   -22209.526   -21750.777   -19489.637     79.41944 
   33600    2496.5198     -160.818    2.2589036   -158.55909   -6606.6468    4.2741444    4.2741444    4.2741444   -6606.6468   -9112.1111    4329.8451   -15037.675    -7642.853   -14325.168   -15756.931    78.081397 
   33700    2235.7461   -160.63795    2.0229501     -158.615    20690.595    4.2797958    4.2797958    4.2797958    20690.595   -50401.169    98182.385     14290.57   -3296.4544   -12247.202    978.64597    78.391533 
   33800    1723.0976   -160.20223    1.5590949   -158.64313   -6762.7649    4.3071655    4.3071655    4.3071655   -6762.7649   -63972.019    39718.924    3964.8005    8695.5647    7532.5301    23656.048    79.905132 
   33900    2233.7405   -160.62845    2.0211353   -158.60731   -10091.635    4.3221157    4.3221157    4.3221157   -10091.635    3300.2804   -64528.643    30953.457   -17344.419   -22240.162    5247.5306    80.740077 
   34000    1492.1066   -159.93786    1.3500894   -158.58777   -15975.963    4.3065138    4.3065138    4.3065138   -15975.963   -96950.642   -18562.411    67585.163   -13429.734     17077.72   -40138.009    79.868869 
   34100    2196.1617   -160.57257    1.9871332   -158.58544   -21782.896    4.2873678    4.2873678    4.2873678   -21782.896   -3746.0706   -34690.703   -26911.915   -18636.545     34227.51    -4447.682     78.80835 
   34200     1836.131   -160.28454    1.6613699   -158.62317    11399.423    4.2904202    4.2904202    4.2904202    11399.423    74948.742   -54551.887    13801.414    879.08745    3973.0565    12141.108    78.976789 
   34300    741.33887   -159.33714   0.67077899   -158.66636    42481.341    4.3152931    4.3152931    4.3152931    42481.341    70109.187    -27465.48    84800.317   -19438.051   -27848.823   -7092.4353     80.35833 
   34400    3014.3713   -161.31769    2.7274665   -158.59022   -82536.493    4.3319294    4.3319294    4.3319294   -82536.493   -89798.652   -64420.789   -93390.037    22231.699    27407.939    36656.192    81.291305 
   34500    1055.3951   -159.51063   0.95494364   -158.55569    36795.872    4.3059301    4.3059301    4.3059301    36795.872   -16818.724    36912.823    90293.515   -8844.5504   -5819.5791   -19825.945    79.836396 
   34600    2050.8757   -160.38492    1.8556755   -158.52924   -22491.515    4.2862392    4.2862392    4.2862392   -22491.515   -55518.512   -61225.885    49269.851   -16887.552     24292.36    19277.525     78.74613 
   34700    1780.4559   -160.19212    1.6109939   -158.58112    9077.9193    4.2958825    4.2958825    4.2958825    9077.9193    9788.2464    44972.942    -27527.43   -47501.658     922.2123    7864.9866    79.278819 
   34800    1108.9417   -159.57357    1.0033938   -158.57017    4210.9742    4.3120378    4.3120378    4.3120378    4210.9742   -28226.204    98836.402   -57977.274   -38698.101     11898.55    3338.7036    80.176605 
   34900    2758.8048   -161.04068    2.4962246   -158.54445   -33329.521    4.3178918    4.3178918    4.3178918   -33329.521   -15138.764   -85016.205    166.40604    610.18331     29590.35    14064.984    80.503596 
   35000     1809.398   -160.19279    1.6371813   -158.55561   -476.09718    4.3136462    4.3136462    4.3136462   -476.09718   -9029.5176    8629.8091    -1028.583    254.20301   -19024.081    -14964.67    80.266359 
   35100    2771.9103   -161.07517    2.5080827   -158.56709   -46537.732    4.3051685    4.3051685    4.3051685   -46537.732   -59732.673   -59214.861   -20665.663    17177.566    10312.425    9087.3816    79.794043 
   35200    2392.7633   -160.76006    2.1650225   -158.59504   -13641.907    4.2979454    4.2979454    4.2979454   -13641.907    5982.9998   -23100.364   -23808.357   -8434.9684   -3885.4242        12011    79.393085 
   35300    1193.9037   -159.69302    1.0802692   -158.61275    25983.418    4.2920823    4.2920823    4.2920823    25983.418    38354.155    70849.481   -31253.382   -39533.092   -10373.047   -17640.526    79.068613 
   35400    2525.0344   -160.90424    2.2847042   -158.61953    5752.6516    4.2870799    4.2870799    4.2870799    5752.6516    58220.397   -25123.857   -15838.586   -17438.913    4538.8619    8409.6548    78.792472 
   35500    1967.4706   -160.41842    1.7802087   -158.63822   -45225.983    4.3022558    4.3022558    4.3022558   -45225.983   -52622.912   -12573.943   -70481.093   -22281.354    15234.701   -9464.5926    79.632193 
   35600    1642.3635   -160.10506     1.486045   -158.61901     6949.503    4.3102198    4.3102198    4.3102198     6949.503   -3127.7357    25484.073   -1507.8286   -32828.125   -9425.3667   -16464.299    80.075238 
   35700    3113.6101    -161.3741    2.8172599   -158.55684    -44286.03    4.2940984    4.2940984    4.2940984    -44286.03   -73512.543   -4678.9426   -54666.605   -3826.5248    11031.808    33106.282    79.180089 
   35800    1514.2082   -159.93203    1.3700874   -158.56194    33247.723    4.2851349    4.2851349    4.2851349    33247.723    38025.315   -39766.974    101484.83   -4932.6723   -32845.212   -5508.4795     78.68528 
   35900    1961.0926   -160.38898    1.7744378   -158.61454    41878.138    4.3020581    4.3020581    4.3020581    41878.138    46305.892   -26266.215    105594.74   -13296.086   -13446.903   -30129.729    79.621216 
   36000    2200.2204   -160.58986    1.9908057   -158.59906   -78851.729    4.3239851    4.3239851    4.3239851   -78851.729   -96296.642   -47300.364    -92958.18    432.18585    21893.244    2025.0684    80.844889 
   36100    1590.7902   -160.02305    1.4393804   -158.58367    20562.627    4.3189472    4.3189472    4.3189472    20562.627   -26537.745    24633.851    63591.776   -16564.934     1823.175   -37082.627     80.56264 
   36200    2226.0754   -160.58365    2.0141998   -158.56945    24655.832     4.306016     4.306016     4.306016    24655.832    13036.659    4724.9947    56205.841    16132.524   -7844.5252   -14158.415    79.841174 
   36300    1959.2585   -160.33643    1.7727782   -158.56366   -24985.913    4.3070292    4.3070292    4.3070292   -24985.913   -81882.133   -8994.8442     15919.24    21942.776    6059.5358   -12232.898     79.89755 
   36400    1492.7502   -159.94614    1.3506717   -158.59547     68361.67    4.3189071    4.3189071    4.3189071     68361.67    51163.598   -370.00362    154291.42    -13744.51   -30496.035   -36288.953    80.560395 
   36500    2011.8515    -160.3715    1.8203655   -158.55113   -71021.611    4.3322959    4.3322959    4.3322959   -71021.611   -89111.671   -36950.008   -87003.155    9754.5689    20855.352    15790.701    81.311945 
   36600    1058.1034   -159.50527   0.95739423   -158.54788    68966.463    4.3185076    4.3185076    4.3185076    68966.463    45777.197     143259.2    17862.991   -38382.217   -10742.404   -36262.034    80.538044 
   36700     2895.486   -161.12096    2.6198965   -158.50106   -53000.799    4.3051236    4.3051236    4.3051236   -53000.799   -41729.622   -56700.669   -60572.105    18718.502    24908.889    11906.968    79.791545 
   36800    941.54408   -159.42595   0.85192887   -158.57402    61626.622    4.3133015    4.3133015    4.3133015    61626.622    45073.979    50142.103    89663.784   -21509.163   -14507.289   -41512.716    80.247119 
   36900      2762.55   -161.02845    2.4996133   -158.52884   -95994.345    4.3475462    4.3475462    4.3475462   -95994.345   -96507.403   -117162.25   -74313.383    21868.769    16453.585    25929.979    82.173657 
   37000    1396.4991   -159.72415    1.2635818   -158.46057    8731.4772    4.3499323    4.3499323    4.3499323    8731.4772    43505.836    3203.0553    -20514.46   -22679.489   -16477.774     -4612.42    82.309031 
   37100    2923.4997   -161.04441    2.6452439   -158.39917   -33996.077     4.322534     4.322534     4.322534   -33996.077    -85898.17     22887.85   -38977.912    23030.977    31903.505    21723.327    80.763525 
   37200    826.40637   -159.25293   0.74774985   -158.50518    92778.731    4.3231408    4.3231408    4.3231408    92778.731    191138.12    17838.929    69359.139   -41764.357   -53982.176   -10860.371    80.797543 
   37300     2755.452   -161.01027    2.4931909   -158.51708    -90011.24     4.359905     4.359905     4.359905    -90011.24   -132718.19   -95154.366   -42161.165    9761.5352    11500.987    23115.369    82.876437 
   37400    1309.7687   -159.68073    1.1851063   -158.49562    1100.1241    4.3573338    4.3573338    4.3573338    1100.1241    5831.5585    30970.408   -33501.594   -11366.767   -5746.3455   -42336.286    82.729901 
   37500    2803.1199   -160.97878    2.5363218   -158.44246   -59432.939     4.307861     4.307861     4.307861   -59432.939   -49938.304   -35666.739   -92693.773    31238.447    18349.848   -29127.713    79.943849 
   37600    2028.6556   -160.31478    1.8355702   -158.47921    40679.581    4.2541705    4.2541705    4.2541705    40679.581    85099.556    88280.965   -51341.778   -8148.3699    395.11022    -41566.48    76.991837 
   37700    1781.3078   -160.26195    1.6117647   -158.65018    26254.366    4.2651914    4.2651914    4.2651914    26254.366    115840.18   -16457.649   -20619.439    -7752.216    18280.145   -18401.622    77.591752 
   37800    1582.7022   -160.18017    1.4320622   -158.74811    9244.3927    4.3314981    4.3314981    4.3314981    9244.3927    121709.87   -22108.847    -71867.84    -24008.02    5367.5207    -11190.68     81.26703 
   37900    2398.2276   -160.77607    2.1699668    -158.6061   -115687.67    4.3691961    4.3691961    4.3691961   -115687.67   -84253.489   -132070.96   -130738.55    7886.5273   -873.68899    -15956.35    83.407403 
   38000    1291.4299   -159.70205    1.1685129   -158.53353    -3866.544    4.3314489    4.3314489    4.3314489    -3866.544   -21880.607     55718.37   -45437.395   -21265.753    1862.5755    37255.675    81.264258 
   38100    1752.3448   -160.07504    1.5855584   -158.48948    33703.297    4.2638208    4.2638208    4.2638208    33703.297    71116.346    58784.758   -28791.213   -11145.237    5169.2755    9686.7674    77.516979 
   38200    2677.7569   -160.97266    2.4228907   -158.54977   -1975.6703    4.2597589    4.2597589    4.2597589   -1975.6703    460.75112   -32504.624    26116.862     31068.51   -25213.156   -11432.468    77.295649 
   38300    1900.6742   -160.42063      1.71977   -158.70086    6574.3203    4.3320074    4.3320074    4.3320074    6574.3203    7360.5987   -31525.348     43887.71   -784.96452    17877.539    4039.2159    81.295697 
   38400    2084.9262   -160.40683     1.886485   -158.52034   -103252.43    4.3762947    4.3762947    4.3762947   -103252.43    -113893.4   -137376.44    -58487.44    15099.489    965.44382   -13577.572    83.814598 
   38500    1217.5065   -159.54569    1.1016254   -158.44406     46690.14    4.3380734    4.3380734    4.3380734     46690.14   -308.10517    131060.82    9317.7043   -15212.485   -1221.8496    49856.237    81.637685 
   38600    2295.7406   -160.50767    2.0772344   -158.43044   -7491.2366     4.294162     4.294162     4.294162   -7491.2366    45620.892   -21495.404   -46599.198      26904.6   -29224.028   -5214.9854    79.183605 
   38700    1943.8072   -160.29245    1.7587976   -158.53365    17581.981     4.291227     4.291227     4.291227    17581.981    -74378.01   -14679.857    141803.81    22743.847   -5364.8441    828.24583    79.021354 
   38800     1584.359   -160.03343    1.4335614   -158.59987    40112.895    4.3102171    4.3102171    4.3102171    40112.895   -43377.676    4834.0831    158882.28    77.991629    14431.809    31556.415    80.075091 
   38900    2307.3566   -160.69494    2.0877447   -158.60719   -39561.933    4.3299172    4.3299172    4.3299172   -39561.933   -20556.368   -63744.955   -34384.476    7080.1967   -1356.9109   -2572.1977    81.178078 
   39000    1247.3828   -159.72066    1.1286582     -158.592    27576.967    4.3371534    4.3371534    4.3371534    27576.967    98283.932   -34539.411    18986.379   -8695.0531   -19461.247    15239.316    81.585757 
   39100    1756.1045    -160.1239    1.5889603   -158.53494   -26246.394    4.3146222    4.3146222    4.3146222   -26246.394   -59292.276   -14502.259   -4944.6459    8257.2638   -19570.189    22720.548    80.320857 
   39200    1002.1386   -159.45503   0.90675607   -158.54827    70850.794    4.2856634    4.2856634    4.2856634    70850.794    19128.511    130356.94    63066.927   -18889.614    5344.8091    47416.893    78.714396 
   39300    2704.0054   -161.01068    2.4466409   -158.56404   -35240.132     4.290774     4.290774     4.290774   -35240.132   -46371.838   -3544.0771    -55804.48    16149.834    -31660.95    5108.1061    78.996329 
   39400    2023.3468   -160.47652    1.8307667   -158.64576   -7014.5812    4.3255613    4.3255613    4.3255613   -7014.5812   -31547.694   -15892.541    26396.492    5050.1135     11558.01    9026.1917    80.933328 
   39500    1518.8251   -159.98216    1.3742649   -158.60789   -32204.454    4.3572498    4.3572498    4.3572498   -32204.454     9356.984   -86967.706   -19002.639   -5148.0016    2145.7206     5894.405    82.725117 
   39600    1985.0471   -160.33428    1.7961123   -158.53817    -66090.22    4.3330408    4.3330408    4.3330408    -66090.22   -64898.644   -11741.456   -121630.56    5045.0242   -44155.013    12496.092     81.35389 
   39700    1249.9631   -159.64624    1.1309929   -158.51525    62768.721    4.2727159    4.2727159    4.2727159    62768.721    52092.716    97766.625    38446.823   -14892.174   -11179.775    37352.743    78.003132 
   39800    1928.8134   -160.31926    1.7452309   -158.57403    17042.012    4.2602239    4.2602239    4.2602239    17042.012    30728.802    20280.306     116.9274    8970.9011    -14969.14   -6375.3661    77.320964 
   39900    2025.3093   -160.46972    1.8325424   -158.63718   -34761.723    4.2878348    4.2878348    4.2878348   -34761.723    149.58075    -44887.83   -59546.918    12177.978   -3373.7367   -10823.179    78.834103 
   40000    857.01877   -159.41827   0.77544859   -158.64282    33193.991    4.3091599    4.3091599    4.3091599    33193.991    31766.287    31568.113    36247.573   -10612.151    33784.322   -1018.4584    80.016185 
   40100    1677.3494   -160.12691     1.517701   -158.60921   -29313.892    4.3185399    4.3185399    4.3185399   -29313.892    9756.8082   -11514.397   -86184.089   -11920.423    4112.4456   -22201.331    80.539848 
   40200    2395.0031   -160.74941    2.1670492   -158.58236   -37381.756    4.3078224    4.3078224    4.3078224   -37381.756   -66398.227    9945.4113   -55692.451   -15862.485    -16056.26   -26495.869    79.941699 
   40300    1825.4168    -160.2376    1.6516755   -158.58593    47883.949    4.3008396    4.3008396    4.3008396    47883.949    812.55118    73715.341    69123.956   -23139.979    15397.029     33654.03    79.553582 
   40400    2248.6167   -160.62615    2.0345956   -158.59156   -32355.632    4.3165837    4.3165837    4.3165837   -32355.632   -43555.762    10989.085   -64500.218    1651.5953   -3246.8805    2704.6872    80.430451 
   40500    1808.0704   -160.22989    1.6359801   -158.59391    8719.4728    4.3293133    4.3293133    4.3293133    8719.4728    17390.381   -51826.075    60594.112   -12180.932    950.64057   -6566.2898    81.144118 
   40600     1914.291    -160.3137    1.7320907   -158.58161   -21895.287    4.3070612    4.3070612    4.3070612   -21895.287    35782.233   -45546.698   -55921.396    1598.3849    16712.055   -16813.032    79.899326 
   40700     2516.251   -160.81902    2.2767568   -158.54226    9859.7755    4.2560203    4.2560203    4.2560203    9859.7755    8846.0419    52529.843   -31796.559    26996.833   -989.01082   -18719.714    77.092315 
   40800    1676.7171   -160.13375    1.5171289   -158.61662    96509.046    4.2562812    4.2562812    4.2562812    96509.046    45909.549    106821.55    136796.04    -23109.65    6841.4127    16908.194    77.106493 
   40900    1259.7183   -159.80141    1.1398196    -158.6616    15358.904    4.3222307    4.3222307    4.3222307    15358.904    26823.629   -18174.392    37427.475    -32939.13    27013.695    6864.8241    80.746525 
   41000    1981.0771   -160.31996    1.7925202   -158.52744    -47913.91    4.3476805    4.3476805    4.3476805    -47913.91   -56172.497     -25077.3   -62491.935   -10137.593   -2506.0626    -18379.65    82.181272 
   41100    2395.4355   -160.65347    2.1674404   -158.48603   -18923.007    4.3029878    4.3029878    4.3029878   -18923.007    40381.216   -50861.667    -46288.57    6485.9371   -836.02709   -766.85791    79.672849 
   41200     2017.788   -160.31427     1.825737   -158.48854   -5272.4778    4.2637616    4.2637616    4.2637616   -5272.4778    12003.912    45458.964   -73280.309    16826.925   -20880.631    1150.6376     77.51375 
   41300    2142.6551    -160.5715    1.9387193   -158.63278    56940.766    4.2820075    4.2820075    4.2820075    56940.766   -33355.323    105769.87    98407.746   -10640.405    1240.8129     33447.02    78.513125 
   41400    1640.6764   -160.12566    1.4845185   -158.64114    11831.845    4.3204463    4.3204463    4.3204463    11831.845   -28193.686    55712.068    7977.1516   -6369.7782   -1019.7984     12636.84    80.646559 
   41500    1685.0226   -160.09668    1.5246438   -158.57204   -29174.355    4.3225086    4.3225086    4.3225086   -29174.355    26441.126   -17610.983    -96353.21   -10782.164   -23420.818   -8314.9494    80.762101 
   41600    2372.9649   -160.69848    2.1471085   -158.55137    44019.876    4.2944461    4.2944461    4.2944461    44019.876    33158.827    53934.195    44966.607   -36865.356   -134.48141    14503.495    79.199322 
   41700    1742.9074   -160.15233    1.5770192   -158.57531   -27844.729    4.2906464    4.2906464    4.2906464   -27844.729   -4586.2777    28523.263   -107471.17    6865.6436    354.42714   -6513.6819    78.989284 
   41800     2253.301   -160.65662    2.0388341   -158.61779   -31318.568    4.3011437    4.3011437    4.3011437   -31318.568   -86872.451   -49676.225    42592.973    1808.8668    13717.432    10652.182    79.570459 
   41900    1939.3901   -160.38639    1.7548009   -158.63159    30764.889    4.2826546    4.2826546    4.2826546    30764.889   -34117.115    43930.581    82481.201   -16312.249    13078.939    28314.089    78.548728 
   42000    1375.4708   -159.87801    1.2445549   -158.63346    28908.695    4.2732859    4.2732859    4.2732859    28908.695    54747.257    52713.165   -20734.337    13782.155   -15574.979    2931.9905    78.034355 
   42100    2837.6118   -161.23875    2.5675308   -158.67122    -46169.92    4.3095925    4.3095925    4.3095925    -46169.92   -17890.329   -73659.761    -46959.67    17193.447   -26784.715   -12868.811    80.040282 
   42200    1271.6806   -159.75834    1.1506433    -158.6077   -16603.887    4.3285387    4.3285387    4.3285387   -16603.887    22135.431    6687.3624   -78634.453   -8444.6729    12908.062    23619.632    81.100569 
   42300    2120.2616   -160.46234    1.9184573   -158.54388   -63170.269    4.2974179    4.2974179    4.2974179   -63170.269   -45458.393   -57106.631   -86945.783    7526.2362   -29365.626     11288.69    79.363859 
   42400    1833.9509   -160.21276    1.6593973   -158.55336    86918.867    4.2692943    4.2692943    4.2692943    86918.867    6138.0098    103713.29     150905.3   -22858.064    -6431.639    37714.718    77.815889 
   42500    985.47427    -159.5157   0.89167783   -158.62402    16995.572    4.2992097    4.2992097    4.2992097    16995.572   -39795.606    119576.91   -28794.585    1768.5835   -9555.5015    16606.769    79.463172 
   42600       2553.5   -160.91119    2.3104604   -158.60073   -58882.635    4.3355377    4.3355377    4.3355377   -58882.635   -67328.015   -102486.92   -6832.9635    11401.248    -15666.43   -2492.1984    81.494613 
   42700    1255.1759   -159.69416    1.1357095   -158.55845    8711.1606    4.3254571    4.3254571    4.3254571    8711.1606    39178.306     3181.995    -16226.82   -7263.8428    4155.6735    14321.901    80.927481 
   42800    2456.3728   -160.72711    2.2225777   -158.50453   -31844.094    4.2884973    4.2884973    4.2884973   -31844.094   -40282.169   -2691.6908   -52558.422    6704.1133   -20824.057    2769.6594    78.870651 
   42900    1852.6435   -160.24262    1.6763108   -158.56631    78800.573    4.2798896    4.2798896    4.2798896    78800.573    97100.077    85917.992     53383.65   -23982.652    16318.822    28873.195    78.396686 
   43000    1150.5166   -159.66018    1.0410116   -158.61916   -11164.469    4.3095554    4.3095554    4.3095554   -11164.469   -20722.256    103187.51   -115958.66   -8374.1624      -9150.3    9999.0995    80.038214 
   43100    2092.4351   -160.48761    1.8932792   -158.59433   -16654.859    4.3264415    4.3264415    4.3264415   -16654.859     -1265.06   -34752.986   -13946.531      16929.9   -2272.8483   -15620.929    80.982748 
   43200    1602.5855   -160.01252     1.450053   -158.56246    22751.864    4.3066022    4.3066022    4.3066022    22751.864    64895.974   -11901.074    15260.691   -5820.9235    25253.039    8796.6516    79.873788 
   43300      2268.22   -160.59206    2.0523331   -158.53973   -39729.047    4.2818595    4.2818595    4.2818595   -39729.047   -21314.279   -20630.679   -77242.182    15809.921     -12763.5   -13744.665    78.504986 
   43400     2809.875   -161.13862     2.542434   -158.59619   -1346.2829    4.2822543    4.2822543    4.2822543   -1346.2829    1546.9276   -29582.665    23996.889   -8074.3995    4599.0378   -18163.646    78.526704 
   43500    849.12812   -159.40321   0.76830897    -158.6349    41030.119    4.3005211    4.3005211    4.3005211    41030.119    73736.871    5296.8564    44056.629   -21836.988    26910.805    15988.367    79.535912 
   43600    1903.1613   -160.33787    1.7220204   -158.61585   -28120.392    4.3100546    4.3100546    4.3100546   -28120.392   -55326.444    37065.435   -66100.166    4467.7317   -5769.2603   -29915.862    80.066032 
   43700     1993.994   -160.41081    1.8042077    -158.6066    28150.152    4.3041575    4.3041575    4.3041575    28150.152   -16289.699    98568.523    2171.6312   -20354.317    5239.6405    5263.7926    79.737842 
   43800    1020.2996   -159.53334   0.92318855   -158.61015    4333.8282    4.3044318    4.3044318    4.3044318    4333.8282    20949.343    19573.536   -27521.394   -4452.4347    10921.373    8279.6468    79.753087 
   43900    2623.9371   -160.96355    2.3741934   -158.58936   -52136.254    4.2955137    4.2955137    4.2955137   -52136.254   -84214.113   -74915.495    2720.8458    36102.326   -18347.929   -9340.7948    79.258406 
   44000    1673.8424   -160.10711    1.5145278   -158.59258    52306.165    4.2797025    4.2797025    4.2797025    52306.165     60876.29    35129.771    60912.435   -16683.761    11129.844    33537.627    78.386406 
   44100    1288.4458   -159.79997    1.1658128   -158.63416    22981.561    4.2975571    4.2975571    4.2975571    22981.561    28242.277    100871.99   -60169.586      1319.89    4921.7377    16572.402    79.371571 
   44200    2695.1248   -161.07221    2.4386055    -158.6336   -94407.457    4.3308506    4.3308506    4.3308506   -94407.457   -111006.44   -122807.67   -49408.252    28468.081   -20129.284   -3200.0938    81.230589 
   44300    1179.0109   -159.66802    1.0667938   -158.60123   -13427.185    4.3148788    4.3148788    4.3148788   -13427.185   -45276.015    12304.194   -7309.7333    24275.591    9841.3085    15992.789    80.335186 
   44400    2556.7504   -160.87684    2.3134015   -158.56344   -5243.0665    4.2688462    4.2688462    4.2688462   -5243.0665   -23982.269   -8778.4287    17031.498     29414.36   -3111.5465    4071.0079    77.791387 
   44500    2703.4564   -161.04723    2.4461442   -158.60109    16472.108    4.2638888    4.2638888    4.2638888    16472.108    66235.291   -26812.038    9993.0704    22071.792   -5978.6414   -21660.345    77.520689 
   44600    1077.2917    -159.6769   0.97475614   -158.70214    37705.648    4.3127174    4.3127174    4.3127174    37705.648    66765.419    63234.247   -16882.724   -12424.075    27990.328    19946.845    80.214524 
   44700    2343.9601   -160.70461    2.1208643   -158.58375   -97562.163    4.3462258    4.3462258    4.3462258   -97562.163   -102507.37   -111817.13   -78361.989    17915.322   -17033.829   -13279.596    82.098807 
   44800    1213.4281   -159.61579    1.0979353   -158.51785    58582.731    4.3183106    4.3183106    4.3183106    58582.731    97652.575    52829.064    25266.555   -27252.902    23936.034    1655.3729     80.52702 
   44900    2777.7932   -160.97712    2.5134057   -158.46372   -41007.031    4.2949191    4.2949191    4.2949191   -41007.031    -6352.562   -76704.933   -39963.598    13944.602   -14260.179   -20846.016    79.225496 
   45000    1834.9687   -160.19642    1.6603183    -158.5361    49907.173    4.2937309    4.2937309    4.2937309    49907.173     17381.86    41400.821    90938.839   -3405.6589     25111.33     20852.23    79.159762 
   45100    1984.5468   -160.35782    1.7956597   -158.56216   -26303.471    4.3053644    4.3053644    4.3053644   -26303.471   -37591.654    19785.152    -61103.91     5569.471   -5005.6169    1126.3755    79.804935 
   45200    2096.7532   -160.45687    1.8971864   -158.55968    6459.2561    4.3066965    4.3066965    4.3066965    6459.2561   -6400.8614   -11394.795    37173.424    1754.3923    11253.269    8915.5314    79.879031 
   45300    1698.6696   -160.10702     1.536992   -158.57003    53910.479    4.2992401    4.2992401    4.2992401    53910.479    74406.756    3935.2599    83389.421    1610.7446    19344.088   -151.56159    79.464855 
   45400    2301.6279   -160.66132    2.0825613   -158.57876   -72402.908    4.3166594    4.3166594    4.3166594   -72402.908   -61536.615   -58010.543   -97661.567    30115.282   -4095.5981   -16155.371    80.434684 
   45500    1533.8885   -159.96402    1.3878946   -158.57613    24820.243    4.3190759    4.3190759    4.3190759    24820.243    5912.3785   -5657.5491      74205.9   -22672.539    28457.459    25207.265    80.569841 
   45600     2444.337   -160.74127    2.2116875   -158.52958   -48629.028    4.2851912    4.2851912    4.2851912   -48629.028   -18535.255   -16063.984   -111287.84    14131.805   -20550.723   -13687.744    78.688379 
   45700    2343.2644    -160.6813    2.1202349   -158.56107    45306.536    4.2636718    4.2636718    4.2636718    45306.536   -9263.1576    81790.112    63392.653   -6001.1991    5409.7357    18292.145    77.508853 
   45800    1712.2023   -160.21151    1.5492367   -158.66228    56473.357    4.2894742    4.2894742    4.2894742    56473.357   -12882.448     65227.48    117075.04   -13636.797    8681.1859    33678.929    78.924563 
   45900    2078.9718   -160.49843    1.8810973   -158.61733   -65497.134    4.3222441    4.3222441    4.3222441   -65497.134   -47676.569   -62852.879   -85961.953    15570.728   -18055.857    2925.8597    80.747273 
   46000    1797.2526   -160.19673     1.626192   -158.57054     26218.93    4.3171376    4.3171376    4.3171376     26218.93    31459.757    17397.631    29799.401   -14246.605    21931.982    15906.301    80.461418 
   46100    2218.7827   -160.55048    2.0076012   -158.54288   -6989.5369    4.2983018    4.2983018    4.2983018   -6989.5369   -600.65148    43916.196   -64284.155   -7235.2325    -9070.327   -13944.063     79.41284 
   46200    2250.3589   -160.60212    2.0361721   -158.56595   -31483.155    4.2958029    4.2958029    4.2958029   -31483.155   -49032.908   -70874.655    25458.099    12190.986   -18897.088   -12634.967    79.274412 
   46300    1219.7913   -159.71412    1.1036928   -158.61043    31139.715    4.2972583    4.2972583    4.2972583    31139.715   -24854.728    -11858.99    130132.86   -27714.248    28429.228    18598.059    79.355016 
   46400    2056.3995   -160.45882    1.8606735   -158.59815   -28881.756     4.287132     4.287132     4.287132   -28881.756   -53690.936    30806.826   -63761.158    13861.235   -2998.6227   -6877.8086    78.795346 
   46500    1690.7339   -160.15045    1.5298116   -158.62064    21781.066    4.2876351    4.2876351    4.2876351    21781.066    90995.432   -64224.364     38572.13    27347.829    20651.909   -426.35104    78.823088 
   46600    1425.5287   -159.93999    1.2898483   -158.65014    26467.453    4.3165233    4.3165233    4.3165233    26467.453    119291.35   -67801.262     27912.27   -13521.904    36128.068    8533.5313    80.427072 
   46700    2069.7706   -160.47771    1.8727719   -158.60494    -79486.58    4.3315553    4.3315553    4.3315553    -79486.58   -50964.524   -99873.959   -87621.256    20652.438   -17679.409    -7031.853     81.27025 
   46800    2129.0729   -160.49223    1.9264299    -158.5658   -42143.092    4.3158586    4.3158586    4.3158586   -42143.092    358.73883   -85921.782   -40866.233   -7745.0187   -34647.509    11317.652    80.389924 
   46900    1228.6024   -159.68802    1.1116652   -158.57635    45657.213    4.2929906    4.2929906    4.2929906    45657.213    116661.26     -57203.8    77514.179    15995.689    31639.211   -9349.3902    79.118825 
   47000    1502.4893   -159.97502    1.3594839   -158.61554    23123.598    4.2941011    4.2941011    4.2941011    23123.598    87293.758   -87290.041    69367.078    13980.482    28929.057    10308.257    79.180236 
   47100    2725.3438   -161.10478    2.4659484   -158.63883   -65700.337     4.324831     4.324831     4.324831   -65700.337   -39172.006   -78155.634   -79773.371   -7441.3284   -4183.1413    10343.599    80.892345 
   47200    1669.8539    -160.1051    1.5109189   -158.59418   -36944.192    4.3345986    4.3345986    4.3345986   -36944.192   -1436.5374   -43842.351   -65553.688    198.38824    2939.6858   -27437.939    81.441668 
   47300    1829.5235   -160.18438    1.6553913   -158.52899   -3870.5971    4.3078443    4.3078443    4.3078443   -3870.5971   -25558.623   -28059.932    42006.763     3297.946    3681.7816   -27371.188    79.942919 
   47400    1704.9315   -160.08447    1.5426578   -158.54181    85342.405    4.2756993    4.2756993    4.2756993    85342.405    30069.667    98052.997    127904.55    4092.5825   -25494.974    34967.964    78.166644 
   47500    1353.7882   -159.83982     1.224936   -158.61489    14809.394    4.2780196    4.2780196    4.2780196    14809.394   -17744.337   -32715.303    94887.822   -5657.3359     13692.55    1067.7068    78.293972 
   47600    2037.6625   -160.49806    1.8437198   -158.65434   -35711.561    4.3006262    4.3006262    4.3006262   -35711.561   -26775.842   -59986.558   -20372.283    1585.2609    21358.981    -18012.22    79.541741 
   47700    1918.2811   -160.38783    1.7357011   -158.65213    13905.664    4.3121863    4.3121863    4.3121863    13905.664    76581.083    42783.239    -77647.33    12667.364   -4028.3812    9656.8712    80.184894 
   47800    1271.7931   -159.77362    1.1507451   -158.62287   -9255.0675    4.3173112    4.3173112    4.3173112   -9255.0675    18866.279   -2590.1577   -44041.324    17476.944    4618.4309    7903.6765    80.471122 
   47900    2617.0091   -160.94606    2.3679249   -158.57813   -36510.776    4.3138191    4.3138191    4.3138191   -36510.776   -91951.734    5044.7616   -22625.357   -15765.207     3135.473   -4856.3849     80.27601 
   48000    1372.3741   -159.81031    1.2417529   -158.56856    39231.234    4.2863284    4.2863284    4.2863284    39231.234    63472.099   -36887.525     91109.13   -8982.6173   -27775.293    19210.332    78.751042 
   48100    2251.3065   -160.61307    2.0370295   -158.57604     6905.046    4.2662894    4.2662894    4.2662894     6905.046   -29920.573   -36064.178    86699.888   -11934.773    3957.5151    -801.0445    77.651692 
   48200    2853.7162   -161.21764    2.5821024   -158.63554    206.53722     4.274574     4.274574     4.274574    206.53722   -7608.6099     19051.85   -10823.629    4591.7392    16300.539    6196.0292    78.104941 
   48300    1102.9534   -159.66571   0.99797544   -158.66774   -25855.196     4.308901     4.308901     4.308901   -25855.196    58382.048   -69994.974   -65952.661    17804.333   -11933.761   -5313.3615     80.00176 
   48400    1681.3095   -160.14536    1.5212841   -158.62408   -29550.942    4.3074177    4.3074177    4.3074177   -29550.942    13910.812   -32648.097   -69915.541    46492.382    3288.6447   -19750.616    79.919171 
   48500    1949.5268     -160.362    1.7639728   -158.59803    15152.781    4.2707769    4.2707769    4.2707769    15152.781    54920.579   -12006.308    2544.0703    9123.7747    23578.845   -36354.095    77.896988 
   48600    841.05787   -159.39768   0.76100684   -158.63667    43260.173    4.2613827    4.2613827    4.2613827    43260.173    36491.408   -8459.7163    101748.83    7378.9238    16327.675   -8386.4141    77.384077 
   48700    1744.6928   -160.26659    1.5786347   -158.68795    14850.177    4.2891673    4.2891673    4.2891673    14850.177   -53300.379    39439.813    58411.097    10959.109   -7038.5197    2717.7998    78.907625 
   48800    2150.4455   -160.59504    1.9457683   -158.64928   -42957.624    4.3035587    4.3035587    4.3035587   -42957.624    -44884.95   -91946.242    7958.3188   -7230.4712     7275.744   -15056.139    79.704567 
   48900    2028.0622   -160.44635    1.8350333   -158.61132   -47005.923    4.2900257    4.2900257    4.2900257   -47005.923   -45043.123   -28222.999   -67751.649   -12581.943   -15104.329   -12139.971    78.955008 
   49000    1981.0304    -160.4129     1.792478   -158.62042    32208.179    4.2796129    4.2796129    4.2796129    32208.179   -44567.604    142059.64   -867.49599    7753.7127    7663.7134    35898.312    78.381478 
   49100    1170.3868   -159.71237    1.0589906   -158.65338    42766.567    4.2912021    4.2912021    4.2912021    42766.567   -6082.9037    26898.635    107483.97    18013.793    -11040.92    29568.077    79.019977 
   49200     2401.754    -160.8094    2.1731575   -158.63625   -53988.837    4.3072618    4.3072618    4.3072618   -53988.837   -71032.697   -56552.894    -34380.92   -9714.7221    15020.174   -12958.494    79.910491 
   49300    2055.6044   -160.46076    1.8599541    -158.6008   -1113.1519    4.3066168    4.3066168    4.3066168   -1113.1519   -19360.222    1579.8614    14440.904   -3729.2341    8683.0363    12941.644    79.874596 
   49400    1382.9857   -159.82234    1.2513545   -158.57099    3926.2739    4.2941692    4.2941692    4.2941692    3926.2739    -46577.96   -3550.4079     61907.19   -17435.206    5736.0156    21648.819    79.184002 
   49500    2742.0346   -161.06129    2.4810505   -158.58024   -34689.833     4.291878     4.291878     4.291878   -34689.833   -3743.8458   -41005.678   -59319.976   -27294.067    14021.737    -16482.26    79.057322 
   49600    1734.8998   -160.20221    1.5697738   -158.63243    6391.1805    4.3032084    4.3032084    4.3032084    6391.1805    -12652.65     21467.82    10358.372    1584.4368   -8269.5789    25150.889    79.685103 
   49700    1100.3251   -159.64348   0.99559726   -158.64788    22919.937    4.3137404    4.3137404    4.3137404    22919.937    24601.961    89328.336   -45170.487    30462.218   -8614.0252    2829.9157    80.271616 
   49800    2421.5316   -160.81463    2.1910526   -158.62358   -20017.058     4.307049     4.307049     4.307049   -20017.058   -32926.925    32854.166   -59978.415   -1866.0275     12463.45   -18043.478    79.898647 
   49900    1799.3872   -160.24045    1.6281234   -158.61233     4959.334    4.2901246    4.2901246    4.2901246     4959.334   -9018.0089   -64167.745    88063.756   -21383.444   -10447.462   -9615.7779    78.960466 
   50000    2330.8371   -160.74294    2.1089904   -158.63395   -18070.095    4.2933797    4.2933797    4.2933797   -18070.095    6082.9665   -18409.591   -41883.661   -7616.3944   -4023.9907    6842.9859    79.140336 
   50100    2452.3019   -160.85862    2.2188943   -158.63972   -47916.127    4.3078829    4.3078829    4.3078829   -47916.127   -43640.396   -71396.425   -28711.561    11025.512    3685.8419    19301.754    79.945065 
   50200    776.62048    -159.3249   0.70270253   -158.62219    46739.347    4.3071419    4.3071419    4.3071419    46739.347    80415.603   -27325.841    87128.279     13117.33   -18493.878   -17235.208    79.903821 
   50300    2342.8959   -160.70077    2.1199014   -158.58086    -4393.494    4.3028983    4.3028983    4.3028983    -4393.494   -32507.482   -36923.287    56250.286    10912.212    23989.724    2198.7062    79.667876 
   50400    1874.5533   -160.27622    1.6961352   -158.58008   -16838.049    4.3016236    4.3016236    4.3016236   -16838.049    35353.561    -47153.32   -38714.388   -640.24544    8540.7299     20271.94    79.597092 
   50500    1565.8292   -160.00409    1.4167952    -158.5873   -94.101113    4.2799825    4.2799825    4.2799825   -94.101113    10030.669     -13140.9    2827.9279   -7168.8987     -19152.2   -19681.014    78.401789 
   50600    2653.5063   -161.01931    2.4009483   -158.61837    7935.9911    4.2716827    4.2716827    4.2716827    7935.9911       -38800    12771.832    49836.141     2531.274   -13327.277    1905.0646    77.946559 
   50700    2003.3966    -160.4863    1.8127153   -158.67359   -78381.023    4.3085567    4.3085567    4.3085567   -78381.023   -23660.165   -134791.44   -76691.465    23454.123    8697.4613   -4160.4399    79.982584 
   50800    1534.0232   -160.02013    1.3880165   -158.63211   -4462.9609    4.3178784    4.3178784    4.3178784   -4462.9609    60550.027    6806.5629   -80745.472   -7741.7774   -10662.301   -18314.025    80.502845 
   50900    1889.1542   -160.31114    1.7093464   -158.60179    34142.655    4.2781192    4.2781192    4.2781192    34142.655     115874.2   -3825.8818   -9620.3513    -4060.786    21346.034    7946.1306    78.299436 
   51000    1348.8418     -159.846    1.2204604   -158.62554    50789.862    4.2644449    4.2644449    4.2644449    50789.862    152563.82   -22557.357    22363.122    6928.7681    14069.932    1143.6457    77.551019 
   51100    2434.5554   -160.88353    2.2028369   -158.68069   -37928.613    4.2995647    4.2995647    4.2995647   -37928.613   -28958.795   -24983.503   -59843.541    24297.735   -3935.0946    8777.5064    79.482854 
   51200    1980.6856   -160.42677     1.792166   -158.63461    -31822.81    4.3065268    4.3065268    4.3065268    -31822.81   -43512.177   -39484.978   -12471.277   -8392.3718   -9272.4067    259.74411    79.869594 
   51300    1487.7762    -159.9415    1.3461712   -158.59533    17508.827     4.270215     4.270215     4.270215    17508.827     36368.44    29446.845   -13288.803   -35712.602   -2587.1503    1198.5838    77.866242 
   51400    2601.9462   -160.96231    2.3542956   -158.60802    16951.889    4.2567397    4.2567397    4.2567397    16951.889   -904.95863    66015.405    -14254.78    744.03875   -10668.751   -12450.694    77.131413 
   51500    2407.6474   -160.85118      2.17849   -158.67269   -56500.717    4.2934678    4.2934678    4.2934678   -56500.717   -37220.208   -120451.09    -11830.85    11680.618   -3071.2647   -17762.923    79.145212 
   51600    1436.5278   -159.94147    1.2998005   -158.64167   -10871.948    4.3150013    4.3150013    4.3150013   -10871.948   -53526.396    42498.121   -21587.568    1647.4996    3995.8263     6766.376    80.342028 
   51700    2393.3618   -160.75871    2.1655641   -158.59314   -18550.609    4.2896208    4.2896208    4.2896208   -18550.609   -43162.924    30034.964   -42523.867  -0.48593238    2180.1628   -7007.4768    78.932652 
   51800    1527.7028   -159.96551    1.3822976   -158.58322     10977.78    4.2623754    4.2623754    4.2623754     10977.78    72521.472   -82351.513    42763.383    -1957.019    17599.307   -10563.713    77.438173 
   51900    1645.6605   -160.14214    1.4890282   -158.65311    31235.676    4.2774414    4.2774414    4.2774414    31235.676    56994.748   -3692.5564    40404.838   -31405.776    21734.072    3970.6747    78.262228 
   52000    2419.3015   -160.83233    2.1890348    -158.6433   -21316.506    4.3055297    4.3055297    4.3055297   -21316.506    2576.0666   -52812.894    -13712.69    5798.1134    10165.553    8190.1861    79.814128 
   52100    1583.8957   -160.03695    1.4331421   -158.60381    -40147.37    4.3056661    4.3056661    4.3056661    -40147.37   -33833.059    -79099.77   -7509.2815    13620.169    5814.5145    -16219.05    79.821711 
   52200    2107.2127    -160.5123    1.9066503   -158.60565    19665.306    4.2733682    4.2733682    4.2733682    19665.306   -14180.624      46913.2    26263.341   -2751.3903    16238.515    1988.9185    78.038862 
   52300    2439.3035   -160.82237    2.2071331   -158.61524    17192.094    4.2497622    4.2497622    4.2497622    17192.094   -24918.121   -14366.308    90860.712    3471.6283   -3773.9266    15788.945    76.752739 
   52400    1216.7436   -159.76817    1.1009351   -158.66723    31982.843    4.2616569    4.2616569    4.2616569    31982.843    61953.668   -58376.405    92371.266   -15284.703   -14596.447    5321.7376    77.399018 
   52500    1600.1081   -160.14383    1.4478114   -158.69601    21424.366    4.2965886    4.2965886    4.2965886    21424.366    3072.1882    69335.342   -8134.4326   -22229.682   -14198.353     11257.98    79.317919 
   52600    2069.0182   -160.51328    1.8720912   -158.64119   -23778.204    4.3162315    4.3162315    4.3162315   -23778.204   -66733.954   -7150.3498    2549.6908     8485.896    699.59462   -3572.6832    80.410766 
   52700    1610.3416   -160.06696    1.4570709   -158.60989    1951.5446     4.285057     4.285057     4.285057    1951.5446   -13089.261    10027.102    8916.7934     10063.68    10025.026    15505.945    78.680989 
   52800    2229.9068   -160.61518    2.0176666   -158.59751    42681.842    4.2423443    4.2423443    4.2423443    42681.842    40478.847    73364.142    14202.537    20602.868    -9248.764   -4791.2417    76.351528 
   52900    2886.5195   -161.26731    2.6117835   -158.65553    19619.125    4.2463233    4.2463233    4.2463233    19619.125   -2308.0341    -14738.01    75903.418    -801.5289   -2821.8993   -11278.698    76.566564 
   53000    2177.6214   -160.66582    1.9703576   -158.69547   -42053.549    4.2821521    4.2821521    4.2821521   -42053.549   -30284.402   -78993.941   -16882.304   -7274.2637    6254.5754   -4919.5604     78.52108 
   53100    1477.3058   -160.00183    1.3366974   -158.66514   -28842.635    4.2947356    4.2947356    4.2947356   -28842.635     22637.88   -11286.968   -97878.817    15702.265   -6058.8749   -19280.462    79.215343 
   53200    2404.0384   -160.81466    2.1752245   -158.63944    3963.1999    4.2780183    4.2780183    4.2780183    3963.1999    2057.4915   -41034.591    50866.699     1995.361   -8692.3594   -12839.246      78.2939 
   53300    1783.5738   -160.25432    1.6138151   -158.64051   -31196.528    4.2702969    4.2702969    4.2702969   -31196.528    30855.431   -76425.402   -48019.612   -2595.7034    14282.699    12513.697    77.870722 
   53400    1178.4097   -159.72378    1.0662498   -158.65753    -5290.095    4.2740832    4.2740832    4.2740832    -5290.095    77783.224    4241.4663   -97894.975     15919.85   -4209.2195    27818.992    78.078043 
   53500    2248.9997   -160.68538    2.0349422   -158.65044    73.776723    4.2741694    4.2741694    4.2741694    73.776723   -4181.6674   -64576.043    68979.041   -4953.3313   -19927.191    34171.681    78.082769 
   53600    1096.7449   -159.66069    0.9923578   -158.66833    17951.518     4.285308     4.285308     4.285308    17951.518   -14197.956    1157.2691    66895.241    6857.0279   -1155.7638    1007.3024    78.694814 
   53700    1655.9609   -160.17516    1.4983482   -158.67681   -1716.1529    4.3016936    4.3016936    4.3016936   -1716.1529   -6082.4441    13277.267   -12343.282     886.9952    10171.175   -5712.4572    79.600979 
   53800     2207.503   -160.64101    1.9973951   -158.64361   -29205.372    4.2962146    4.2962146    4.2962146   -29205.372   -53410.038   -93458.814    59252.736   -9925.5514   -5221.2239    19605.175    79.297206 
   53900    1227.6315   -159.73705    1.1107868   -158.62627    368.08622    4.2728425    4.2728425    4.2728425    368.08622    32363.462    10950.661   -42209.864    11064.454   -2158.7944     27390.41    78.010069 
   54000    2500.3322    -160.9018    2.2623531   -158.63945    12022.121    4.2651993    4.2651993    4.2651993    12022.121   -16661.663     45100.44    7627.5854    215.69607    19672.113    35920.445    77.592189 
   54100     1984.275   -160.46707    1.7954137   -158.67166   -11455.281    4.2819436    4.2819436    4.2819436   -11455.281   -35039.025    -50973.55    51646.731   -1983.9916    13487.895   -5656.4793    78.509614 
   54200      1629.48   -160.13454    1.4743878   -158.66015   -37500.179    4.2898683    4.2898683    4.2898683   -37500.179    6035.7902   -37232.979   -81303.349   -11494.397    6911.3288   -24671.131     78.94632 
   54300    2505.0458   -160.91695    2.2666181   -158.65033    8350.9733    4.2662251    4.2662251    4.2662251    8350.9733    10441.353   -14336.352     28947.92   -7622.3155    3087.0984   -18091.838    77.648184 
   54400    1974.2348   -160.43904    1.7863292   -158.65271    27565.177    4.2550036    4.2550036    4.2550036    27565.177    50297.991   -7724.7883    40122.327     21249.71    4620.2615     282.2881    77.037079 
   54500     1070.751    -159.6601   0.96883797   -158.69126    20563.539     4.281177     4.281177     4.281177    20563.539    16834.539    50385.839   -5529.7624    1256.9093    37952.812    6497.8522    78.467452 
   54600    2453.9741   -160.88213    2.2204073   -158.66172   -27805.553    4.3022302    4.3022302    4.3022302   -27805.553   -52374.976   -27499.769   -3541.9135    3419.1865    48133.368   -8356.2973    79.630771 
   54700    1773.3309   -160.22401    1.6045471   -158.61946   -18647.333    4.2937997    4.2937997    4.2937997   -18647.333   -16976.213   -19909.619   -19056.167    13356.123    12252.119   -6592.5867    79.163563 
   54800    1741.4526   -160.19261    1.5757029    -158.6169   -8211.2958    4.2792162    4.2792162    4.2792162   -8211.2958   -35811.737      40032.7   -28854.851   -12488.244   -10910.721    13727.413    78.359685 
   54900     3140.683    -161.4908    2.8417559   -158.64904   -11743.785    4.2742368    4.2742368    4.2742368   -11743.785    -44882.84   -26701.011    36352.497   -2675.0461   -8343.5997     15109.45    78.086462 
   55000    1652.9939   -160.17098    1.4956636   -158.67532   -16394.181    4.2821191    4.2821191    4.2821191   -16394.181    9093.0247   -33869.846   -24405.721    7489.1085   -14003.807   -2270.3266    78.519265 
   55100    1233.4406   -159.79255    1.1160429   -158.67651    7858.5336    4.2809402    4.2809402    4.2809402    7858.5336    26348.093    12226.578    -14999.07    5875.2536   -5427.7755   -23564.389    78.454434 
   55200    2601.9979   -161.02318    2.3543424   -158.66883     34059.01    4.2691616    4.2691616    4.2691616     34059.01    31003.423    11996.302    59177.304   -4649.5432    4272.4688    -5772.212     77.80863 
   55300    1643.6626   -160.15759    1.4872205   -158.67037   -22431.913     4.272046     4.272046     4.272046   -22431.913    1465.7179    7602.2943   -76363.752   -1848.8585   -8420.6311    16105.325    77.966451 
   55400     1292.582   -159.85051    1.1695553   -158.68095   -32905.711    4.2774079    4.2774079    4.2774079   -32905.711   -23195.631    6948.9256    -82470.43    10070.219    3391.7819    10419.834    78.260391 
   55500    2275.6634   -160.73569    2.0590681   -158.67662    17814.502     4.270143     4.270143     4.270143    17814.502    41315.369    3376.4823    8751.6562    11355.179     28735.88     21537.82    77.862305 
   55600    1283.8957   -159.82651    1.1616958   -158.66481    16402.474    4.2595004    4.2595004    4.2595004    16402.474    121556.27    6855.6797   -79204.528     4267.076    17394.184    14051.042    77.281579 
   55700    1346.0356   -159.90056    1.2179213   -158.68263   -7549.9409    4.2648922    4.2648922    4.2648922   -7549.9409    59972.767   -39318.026   -43304.564   -7233.0162    15030.059    23373.975    77.575429 
   55800    2636.9968   -161.07202    2.3860101   -158.68601    4127.8115    4.2745331    4.2745331    4.2745331    4127.8115   -14741.859   -13374.445    40499.738   -5079.3539   -692.45803    7922.5885      78.1027 
   55900     1572.407   -160.08847    1.4227469   -158.66573   -6832.1433    4.2761811    4.2761811    4.2761811   -6832.1433   -8648.8744    4134.2865   -15981.842    2545.9505   -9483.4084   -17922.227    78.193071 
   56000    1509.1288   -160.02777    1.3654914   -158.66228   -2027.7035    4.2740708    4.2740708    4.2740708   -2027.7035    22312.488   -45257.412    16861.813    17037.297    6353.5939   -13895.383    78.077361 
   56100    2681.4487   -161.09851    2.4262312   -158.67228   -10594.516    4.2786015    4.2786015    4.2786015   -10594.516   -14551.792   -49584.379    32352.621    1296.0514    5113.7379    14059.828    78.325923 
   56200    1533.0288   -160.05505    1.3871167   -158.66793   -28937.189     4.277956     4.277956     4.277956   -28937.189   -40601.943    6301.6173   -52511.241    9977.9924   -9575.7851   -2630.8965    78.290479 
   56300    1307.2082    -159.8454    1.1827894   -158.66261    10104.738    4.2661297    4.2661297    4.2661297    10104.738     9317.376    25552.058   -4555.2212    14351.268    1199.3987    15518.342    77.642975 
   56400    2340.5815   -160.79757    2.1178073   -158.67976    26545.338    4.2684481    4.2684481    4.2684481    26545.338   -23406.707    48142.396    54900.325     5172.112    5448.8563    1920.0712    77.769625 
   56500    1683.6476   -160.20488    1.5233997   -158.68148   -53519.097    4.2900825    4.2900825    4.2900825   -53519.097   -36187.111    353.24584   -124723.43    4250.0841    17641.601   -33777.921    78.958143 
   56600    1461.1512   -159.98911    1.3220803   -158.66703    -24080.16    4.2860971    4.2860971    4.2860971    -24080.16    6016.5537   -76730.568   -1526.4663    4913.2055    2464.3334   -12365.603    78.738296 
   56700    2137.7394   -160.58634    1.9342715   -158.65207    57269.855    4.2597171    4.2597171    4.2597171    57269.855    21381.512    19227.648    131200.41    580.36416   -16148.052    10930.369    77.293373 
   56800    1733.3379   -160.24949    1.5683605   -158.68113    13177.467    4.2615061    4.2615061    4.2615061    13177.467     3395.871    29687.494    6449.0353    1662.3394    684.51925   -9544.1127    77.390799 
   56900    1372.8621   -159.95553    1.2421945   -158.71333   -22280.992     4.293133     4.293133     4.293133   -22280.992   -3792.2033   -36949.551   -26101.222   -617.25628     18645.92   -2988.1161    79.126695 
   57000    2065.8344   -160.54732    1.8692103   -158.67811   -4387.9726    4.2894778    4.2894778    4.2894778   -4387.9726   -2026.9154   -48624.281    37487.279    8963.2476    30042.253   -10230.481    78.924762 
   57100    1903.2879   -160.36231    1.7221349   -158.64018    12538.392    4.2471138    4.2471138    4.2471138    12538.392    32532.294    35469.425   -30386.544    -12393.12    24310.407   -2720.6639    76.609335 
   57200    2074.1091   -160.53367    1.8766975   -158.65697    21367.578    4.2412708    4.2412708    4.2412708    21367.578     57027.73     930.7521    6144.2524   -3106.8015    10285.049    17455.756     76.29358 
   57300    2413.9673    -160.8846    2.1842083   -158.70039   -19852.351    4.2837124    4.2837124    4.2837124   -19852.351   -13582.017   -45792.396   -182.64062    7194.7651    9785.8752   -14644.782    78.606946 
   57400    1863.2217   -160.34398    1.6858821    -158.6581   -29757.156    4.2974712    4.2974712    4.2974712   -29757.156   -3491.7976    3472.8326   -89252.502   -15631.741    6645.9991    7418.8337    79.366811 
   57500    2410.6576   -160.79982    2.1812137   -158.61861   -31018.965    4.2715801    4.2715801    4.2715801   -31018.965   -31314.961   -33063.497   -28678.436   -9546.1531   -13730.247    7747.7045    77.940946 
   57600    2545.5926     -160.935    2.3033057   -158.63169    30503.821    4.2566643    4.2566643    4.2566643    30503.821    5988.4553    15281.282    70241.726     10575.32   -7065.9649   -24105.267    77.127313 
   57700    1848.0714   -160.34288    1.6721738   -158.67071    8924.2616    4.2746049    4.2746049    4.2746049    8924.2616   -8728.9729    37753.748   -2251.9905   -6122.4225    647.58045    1676.2353    78.106636 
   57800    2173.2567    -160.6183    1.9664083   -158.65189   -48218.506    4.2884611    4.2884611    4.2884611   -48218.506   -52286.589   -76940.949    -15427.98   -2614.5381   -14914.894    14252.444    78.868655 
   57900    2042.3157   -160.48821    1.8479301   -158.64028    1421.7908    4.2715299    4.2715299    4.2715299    1421.7908   -9499.0122   -32587.903    46352.288    1637.4742    9386.6125      9835.69    77.938195 
   58000     1426.092   -159.93123     1.290358   -158.64087    48185.752    4.2544877    4.2544877    4.2544877    48185.752    17617.317    88571.223    38368.717    12713.443    35489.802   -9088.1303    77.009058 
   58100    1432.5622   -159.96469    1.2962124   -158.66848    5209.1072    4.2750042    4.2750042    4.2750042    5209.1072    15377.244   -42939.708    43189.785    4996.6495    32404.015   -14680.097    78.128529 
   58200    1811.1066   -160.29322    1.6387273   -158.65449   -41946.531     4.293989     4.293989     4.293989   -41946.531   -24464.373   -62520.174   -38855.045   -8594.5308    16586.103     7017.709    79.174034 
   58300    1800.9394    -160.2698    1.6295278   -158.64027    17314.482    4.2713575    4.2713575    4.2713575    17314.482    14839.563    96280.158   -59176.276    24341.497    15608.687   -16986.495    77.928761 
   58400     1965.536   -160.41684    1.7784583   -158.63838    44110.225    4.2544056    4.2544056    4.2544056    44110.225    97969.006   -11671.622    46033.292   -5146.1794    3573.0818     -14568.8      77.0046 
   58500    2119.1799   -160.60076    1.9174785   -158.68329   -26415.556    4.2873607    4.2873607    4.2873607   -26415.556    27727.416   -108018.72    1044.6365   -15372.933   -7736.2309    11003.985    78.807955 
   58600    2502.0458   -160.91442    2.2639037   -158.65051   -62119.367    4.3010564    4.3010564    4.3010564   -62119.367    -93558.94    28249.254   -121048.41   -9345.3402   -4471.6254   -8853.9569    79.565613 
   58700     1685.646   -160.16183    1.5252079   -158.63662    39299.054    4.2719424    4.2719424    4.2719424    39299.054    56109.329    44790.088    16997.744    12407.549    14138.775   -2906.4907    77.960779 
   58800     1447.934   -159.96266    1.3101211   -158.65254    44584.886    4.2665381    4.2665381    4.2665381    44584.886    74157.542    42214.518    17382.599    28909.323    17733.184   -10664.959    77.665274 
   58900    1464.0538   -160.01035    1.3247066   -158.68565   -5301.8602    4.2964733    4.2964733    4.2964733   -5301.8602   -39512.966    109287.32   -85679.934    13503.143    8424.6904    18817.276    79.311532 
   59000    1975.1483   -160.43303    1.7871557   -158.64588   -36342.361    4.3023693    4.3023693    4.3023693   -36342.361   -52672.147   -16898.758    -39456.18   -12544.005    18116.529    2754.8825    79.638497 
   59100    2042.7609   -160.45819     1.848333   -158.60986   -14589.674    4.2742873    4.2742873    4.2742873   -14589.674    75185.276   -56045.508    -62908.79   -10376.191   -1171.7682   -6862.4963    78.089228 
   59200    1807.3693   -160.26214    1.6353457   -158.62679    35784.926     4.259786     4.259786     4.259786    35784.926    100970.16    66380.063   -59995.445    9702.4596    -21556.38    14414.909    77.297126 
   59300    1984.5875   -160.46692    1.7956965   -158.67123    14041.574    4.2775241    4.2775241    4.2775241    14041.574    70230.059   -31925.716    3820.3785    19052.986   -14741.868   -15973.208    78.266769 
   59400    1473.8167   -160.00318    1.3335403   -158.66964    5224.8507    4.3031111    4.3031111    4.3031111    5224.8507    114380.16   -82629.781   -16075.829    -187.1531    16153.554   -1078.6124      79.6797 
   59500    1604.5471   -160.07325    1.4518279   -158.62142   -2602.9161    4.3078592    4.3078592    4.3078592   -2602.9161    67055.717   -59368.064   -15496.401   -6414.9213    28624.921    270.12145    79.943749 
   59600    1909.1618   -160.31589    1.7274498   -158.58844   -9184.4945    4.2816544    4.2816544    4.2816544   -9184.4945    23791.582   -53064.975    1719.9097    19950.038   -12917.429   -5783.4855    78.493706 
   59700    1983.3208   -160.41038    1.7945503   -158.61583    33229.615    4.2664417    4.2664417    4.2664417    33229.615    104739.69    29127.272   -34178.115    16781.516    -11527.59    21114.942    77.660008 
   59800    2504.4219   -160.91759    2.2660536   -158.65154   -32798.232    4.2820378    4.2820378    4.2820378   -32798.232    7695.2496   -48006.423   -58083.524   -19912.591     9797.132    -8996.406    78.514795 
   59900      1687.49   -160.18466    1.5268764   -158.65779    -6270.185    4.2961744    4.2961744    4.2961744    -6270.185   -78955.843    23654.337    36490.951    3093.3839    1955.6851    16945.073    79.294982 
   60000    1708.5759   -160.18385    1.5459554   -158.63789    14400.053    4.3039546    4.3039546    4.3039546    14400.053   -1276.8516    91398.648   -46921.636    8857.5244   -6530.7547    16472.683    79.726561 
   60100     2638.686   -160.98382    2.3875385   -158.59628   -70166.586    4.2984649    4.2984649    4.2984649   -70166.586   -104343.12   -63844.481   -42312.155   -7175.2181    10754.005   -17669.489    79.421878 
   60200    1501.8058   -159.95295    1.3588655   -158.59409    15899.295    4.2701824    4.2701824    4.2701824    15899.295    39778.526   -8656.6726    16576.033    18208.066   -13125.202    82.515831    77.864461 
   60300    1910.7598   -160.35913    1.7288956   -158.63023    43658.324      4.26524      4.26524      4.26524    43658.324    57574.632    77542.887    -4142.547    15330.053   -8464.2234    18989.572    77.594409 
   60400    2432.3362   -160.85983    2.2008289     -158.659   -27554.436    4.2911798    4.2911798    4.2911798   -27554.436   -30581.471   -54937.582    2855.7455   -13745.366   -1383.0188    7404.7189    79.018749 
   60500     1392.439   -159.89596    1.2599081   -158.63606   -39765.069    4.3072119    4.3072119    4.3072119   -39765.069   -50922.524    -13382.61   -54990.074   -5541.1341     937.6446    12071.215    79.907714 
   60600    1942.1719   -160.37178    1.7573179   -158.61446    41703.894    4.2883453    4.2883453    4.2883453    41703.894    44253.211    78967.154    1891.3189    27944.729   -4931.2111    3414.3484    78.862262 
   60700    2398.4371   -160.76364    2.1701563   -158.59348   -12376.456    4.2727505    4.2727505    4.2727505   -12376.456   -56211.533   -5747.4736    24829.638   -13151.974    6674.8316   -17839.645    78.005031 
   60800    1550.8827   -160.02285    1.4032713   -158.61958    9322.4573    4.2766066    4.2766066    4.2766066    9322.4573    50832.615   -12341.454   -10523.789    1509.8612   -15289.199   -13165.626    78.216415 
   60900    1978.6201   -160.41893    1.7902971   -158.62863    32988.264    4.2820637    4.2820637    4.2820637    32988.264    63230.243    30492.771    5241.7794    8354.7464   -23792.771    14250.079    78.516217 
   61000    1972.0971    -160.4058    1.7843949   -158.62141    -17989.93    4.2831289    4.2831289    4.2831289    -17989.93   -49240.255    8645.2687   -13374.803   -14763.189    5052.1267   -4623.8858    78.574826 
   61100    1411.8668   -159.90995    1.2774867   -158.63246    12429.373    4.2899407    4.2899407    4.2899407    12429.373    11121.095    19034.244    7132.7817   -7860.5625   -7002.7358    9856.3032    78.950316 
   61200    2328.5215   -160.72782    2.1068952   -158.62093   -819.09353    4.2871969    4.2871969    4.2871969   -819.09353   -23789.077   -20591.648    41923.444    17679.072   -8841.3313     20624.38    78.798925 
   61300     1979.044   -160.40693    1.7906806   -158.61625   -36399.901    4.2665349    4.2665349    4.2665349   -36399.901   -58563.602   -68131.673    17495.571   -6043.5936    17795.125   -5575.2257      77.6651 
   61400     1484.136   -159.98754    1.3428775   -158.64466   -10587.913     4.254759     4.254759     4.254759   -10587.913    87424.214   -18751.498   -100436.45    960.53339    16116.088    21285.178    77.023794 
   61500    2049.6513    -160.5375    1.8545676   -158.68293    8689.7815    4.2687924    4.2687924    4.2687924    8689.7815     97683.16    1929.0388   -73542.855    11126.979    3709.3562    29547.764    77.788445 
   61600    2256.2859   -160.71491    2.0415349   -158.67338    -17357.76    4.2800649    4.2800649    4.2800649    -17357.76   -6136.7532   -36655.196   -9281.3314    221.77381   -4002.3145   -10286.947    78.406317 
   61700    1618.1206   -160.11724    1.4641095   -158.65313   -52041.841    4.2778997    4.2778997    4.2778997   -52041.841   -48317.156   -6279.0432   -101529.32    4002.0646   -1919.2007   -4851.5616    78.287389 
   61800    2007.4223   -160.46968    1.8163579   -158.65332    587.01153    4.2683299    4.2683299    4.2683299    587.01153    42108.538   -18249.809   -22097.695    8365.3157    8570.7179    -5193.296    77.763167 
   61900    2067.4066   -160.52756    1.8706329   -158.65693    40123.804    4.2527855    4.2527855    4.2527855    40123.804    28556.134   -1273.8863    93089.166    17063.374   -12500.867   -7570.2146    76.916663 
   62000    1275.2664   -159.81655    1.1538879   -158.66267   -9226.2071    4.2569254    4.2569254    4.2569254   -9226.2071    17504.002   -13919.386   -31263.237    5399.9014     2108.225    5815.3533    77.141507 
   62100    1994.4476   -160.48657    1.8046181   -158.68195   -24849.394    4.2794778    4.2794778    4.2794778   -24849.394   -2319.6151   -29333.275   -42895.292   -8944.8383    9080.2781    2.4720544    78.374055 
   62200    2486.9698   -160.91374    2.2502626   -158.66348   -2825.3992    4.2854023    4.2854023    4.2854023   -2825.3992    -39352.81   -22528.715    53405.327    5178.8201   -19594.671    32923.441    78.700012 
   62300     1244.798   -159.77062    1.1263194    -158.6443    -2459.811    4.2638266    4.2638266    4.2638266    -2459.811    646.80092    8209.8956    -16236.13   -12363.894    2020.3701    12080.709    77.517292 
   62400    1983.9272    -160.4431     1.795099     -158.648   -4526.6409    4.2575551    4.2575551    4.2575551   -4526.6409    15830.411    6547.3207   -35957.655   -14483.136    8772.2982    -4871.275    77.175747 
   62500    3100.3079   -161.47928    2.8052237   -158.67405   -10150.156     4.275452     4.275452     4.275452   -10150.156   -15949.091    2101.2636   -16602.639    2125.0584    5202.9014   -1309.1948    78.153083 
   62600    853.52161   -159.43322   0.77228429   -158.66094    4979.7054    4.2867508    4.2867508    4.2867508    4979.7054    15542.404    59376.432   -59979.719    15318.432    2720.2303    3919.1219    78.774331 
   62700    1822.9508   -160.28592    1.6494442   -158.63647   -9026.2175    4.2799289    4.2799289    4.2799289   -9026.2175    27688.993    11628.749   -66396.394     11181.48   -10261.941   -3434.0899    78.398843 
   62800     3216.853   -161.54574    2.9106762   -158.63506   -16861.252    4.2700764    4.2700764    4.2700764   -16861.252   -26296.237   -56870.439    32582.921   -10726.017   -6858.6042   -2507.4652    77.858663 
   62900    784.62435   -159.35866   0.70994461   -158.64871     8529.924    4.2581627    4.2581627    4.2581627     8529.924   -2197.5941     17124.75    10662.616    10538.212   -13101.952    18586.917    77.208791 
   63000    1382.4834   -159.90372    1.2509001   -158.65282    1564.7612     4.253466     4.253466     4.253466    1564.7612    31165.627   -17898.817   -8572.5263    7597.4362   -13510.098    13185.293    76.953592 
   63100    3071.5384   -161.44484    2.7791925   -158.66565   -16184.182    4.2674473    4.2674473    4.2674473   -16184.182   -23783.116   -45631.981     20862.55   -5222.8996    19722.508   -15287.198    77.714935 
   63200    1714.5711   -160.21744    1.5513799   -158.66606   -35964.967    4.2865496    4.2865496    4.2865496   -35964.967   -83290.737    34661.123   -59265.286   -3950.3507   -8820.6383    16027.616    78.763235 
   63300    1066.3878   -159.61669   0.96489008    -158.6518   -5948.0794    4.2841523    4.2841523    4.2841523   -5948.0794    -25252.77    48586.686   -41178.154     852.4656    6329.9139    12435.752    78.631165 
   63400    2976.6649   -161.32725    2.6933489    -158.6339    7647.9759    4.2630556    4.2630556    4.2630556    7647.9759   -14543.216    -1131.284    38618.428    -9995.718    7311.2375   -4444.3076     77.47525 
   63500    2027.1889   -160.47854    1.8342431    -158.6443    6215.5038    4.2532147    4.2532147    4.2532147    6215.5038    36851.653    18716.966   -36922.108   -13656.423   -2777.7594   -2091.2204    76.939953 
   63600    837.41638   -159.44172   0.75771194   -158.68401   -4502.4278    4.2692925    4.2692925    4.2692925   -4502.4278    75283.438   -6671.6262   -82119.095   -436.49603   -10040.665   -17424.105    77.815789 
   63700    2308.4455   -160.76771      2.08873   -158.67898    1733.3454    4.2795793    4.2795793    4.2795793    1733.3454    50029.005   -46746.319    1917.3506     13016.53   -4481.5128   -10414.901    78.379634 
   63800    2112.0215   -160.57404    1.9110015   -158.66304   -3733.7963    4.2606985    4.2606985    4.2606985   -3733.7963    36876.449   -11504.392   -36573.446    5160.4645    597.89549    1298.4074    77.346813 
   63900    836.71884   -159.41823   0.75708079   -158.66115    506.63266    4.2447861    4.2447861    4.2447861    506.63266    36912.931    7013.0271   -42406.061    12917.185    12185.936    2647.5833    76.483443 
   64000    1759.1589   -160.28434     1.591724   -158.69261    4690.1292    4.2538498    4.2538498    4.2538498    4690.1292   -10894.489   -50540.988    75505.865    17591.711    -9975.836    15313.076    76.974423 
   64100    2429.2845   -160.89158    2.1980676   -158.69351   -659.80161    4.2667471    4.2667471    4.2667471   -659.80161   -20441.828   -41447.886    59910.309    14466.332   -3692.5284    -3532.841    77.676688 
   64200    1481.2604    -160.0087    1.3402755   -158.66843    -41528.64    4.2690841    4.2690841    4.2690841    -41528.64   -12655.857   -70.563337    -111859.5   -1077.3592    -2535.452   -4436.7456    77.804395 
   64300    1925.3922   -160.40481    1.7421354   -158.66267   -22134.587    4.2673543    4.2673543    4.2673543   -22134.587   -6632.3199   -32905.325   -26866.115   -8492.5565   -11486.104    15599.987    77.709856 
   64400    2715.9125    -161.1206    2.4574147   -158.66319    13641.496    4.2677404    4.2677404    4.2677404    13641.496    -35091.46    291.38052    75724.569   -1936.6944    18111.708    10774.985    77.730953 
   64500    1595.3513   -160.10438    1.4435074   -158.66087    2352.5006    4.2597121    4.2597121    4.2597121    2352.5006    -40000.78    52549.235   -5490.9532   -7237.0487   -10400.317    14701.695    77.293103 
   64600    1207.6049   -159.76272    1.0926663   -158.67005   -2709.6423    4.2498729    4.2498729    4.2498729   -2709.6423   -2409.0477   -6032.0671     312.1878    -3151.304    522.04002    4650.2986    76.758738 
   64700    2669.5859   -161.11087    2.4154974   -158.69538   -13313.854     4.260566     4.260566     4.260566   -13313.854   -208.42168    -67443.29     27710.15    6554.9805   -8276.5177   -14127.618    77.339593 
   64800    2167.7538   -160.65649    1.9614292   -158.69506   -28791.202    4.2774931    4.2774931    4.2774931   -28791.202   -50685.228   -5342.0361   -30346.341   -1291.6723    8931.6657     3701.622    78.265065 
   64900    833.81836    -159.4331   0.75445638   -158.67865     404.5286    4.2693702    4.2693702    4.2693702     404.5286   -19777.373     7682.402    13308.557   -4739.0698    7689.9137    22280.926    77.820039 
   65000     1758.937   -160.26618    1.5915232   -158.67466     44453.16    4.2480161    4.2480161    4.2480161     44453.16   -491.11992    296.86474    133553.73    5350.3201   -3989.5872    24787.511    76.658175 
   65100    2324.2448   -160.79545    2.1030255   -158.69243    39383.048     4.250575     4.250575     4.250575    39383.048   -18064.423    40030.589    96182.978     1521.454   -1911.8788    29185.761    76.796788 
   65200    1419.2209   -159.98498    1.2841409   -158.70084   -31409.097    4.2737393    4.2737393    4.2737393   -31409.097   -56046.411    4808.8126   -42989.692    3477.8105   -2309.6273    1156.4021    78.059195 
   65300    1974.1882    -160.4672    1.7862869   -158.68092   -53890.357     4.282459     4.282459     4.282459   -53890.357   -23794.357   -96045.424   -41831.288   -5426.7741    6224.4358   -14145.807    78.537962 
   65400    2816.1186   -161.21869    2.5480833   -158.67061    1044.6349    4.2654136    4.2654136    4.2654136    1044.6349   -16474.054   -21930.614    41538.573    2082.3688   -10749.396     3147.433    77.603885 
   65500    1505.8672   -160.03595    1.3625403   -158.67341    17478.015    4.2534307    4.2534307    4.2534307    17478.015   -23236.461    41483.428    34187.078    8435.5384   -9865.5872    7542.2844    76.951675 
   65600    985.50039   -159.58634   0.89170147   -158.69463    6250.0424    4.2609958    4.2609958    4.2609958    6250.0424   -23048.654   -37729.449     79528.23   -3134.9714   -3389.7554    61.306572    77.363003 
   65700    2435.6219   -160.90292    2.2038019   -158.69911    1895.6279    4.2689917    4.2689917    4.2689917    1895.6279    -52182.58   -26943.975    84813.439    4180.6847   -14284.181    16882.427    77.799342 
   65800    2775.0904   -161.19402    2.5109601   -158.68306   -18918.827    4.2671177    4.2671177    4.2671177   -18918.827    -42213.64    12739.748   -27282.589    -26473.93    6617.7779   -10825.676    77.696929 
   65900    1501.3035   -160.02865     1.358411   -158.67024   -48675.904    4.2682563    4.2682563    4.2682563   -48675.904   -35234.626   -44218.661   -66574.424    6000.7371    3028.7669   -11100.576    77.759145 
   66000     1551.281   -160.07654    1.4036316   -158.67291   -13881.706    4.2629689    4.2629689    4.2629689   -13881.706   -32842.874    -38031.97    29229.725    12155.079     7565.561    15686.727    77.470521 
   66100    2608.0657   -161.04105    2.3598326   -158.68122    55989.318    4.2421892    4.2421892    4.2421892    55989.318   -9925.8017    112796.74    65097.018    7382.6403    10332.151    15658.184    76.343152 
   66200    2045.9913   -160.54847    1.8512559   -158.69722    27962.138    4.2477075    4.2477075    4.2477075    27962.138    25657.056    56922.427    1306.9322    4226.4147   -195.08647    16452.148    76.641469 
   66300    1025.4029   -159.63036   0.92780607   -158.70256   -39111.818    4.2773611    4.2773611    4.2773611   -39111.818    9665.7607   -91051.798   -35949.417   -12845.651    6108.9848    2561.9297    78.257822 
   66400    2659.4308   -161.07841    2.4063089    -158.6721   -31695.281     4.282894     4.282894     4.282894   -31695.281    -44392.62   -54469.791    3776.5668    15750.382   -9965.4262   -7311.5937    78.561898 
   66500    2508.4539   -160.92882    2.2697018   -158.65912    36698.132    4.2544579    4.2544579    4.2544579    36698.132   -24253.106    52105.221     82242.28     1874.839   -2418.6802    25169.195    77.007443 
   66600    634.18074   -159.23992   0.57382006    -158.6661    35080.713    4.2428603    4.2428603    4.2428603    35080.713     14138.24   -25531.564    116635.46    3638.4163   -3397.6028    20462.303    76.379393 
   66700    1550.2913   -160.10994    1.4027362   -158.70721    19448.904    4.2657106    4.2657106    4.2657106    19448.904     -25193.8   -7174.5635    90715.076   -4234.4791   -6240.9877    10320.693    77.620095 
   66800    3031.1121    -161.4286     2.742614   -158.68599   -24219.378    4.2878647    4.2878647    4.2878647   -24219.378    -51495.95   -19749.697    -1412.486   -4151.8434    10148.614   -530.41295    78.835754 
   66900    1162.2245   -159.70579    1.0516052   -158.65418   -55270.988    4.2775878    4.2775878    4.2775878   -55270.988   -7823.5835    -115667.7   -42321.679    5845.7371   -4054.8534   -14385.906    78.270262 
   67000     1716.383   -160.20525    1.5530194   -158.65223    5245.2035    4.2524715    4.2524715    4.2524715    5245.2035   -6145.8392   -11997.466    33878.916   -9692.4915    6330.3517   -8530.9476    76.899626 
   67100     3101.862   -161.49186      2.80663   -158.68523    29897.309    4.2531196    4.2531196    4.2531196    29897.309    -22572.79    46714.096     65550.62   -3033.3259    2724.8416    17887.654    76.934791 
   67200    1742.8896   -160.27506    1.5770032   -158.69806   -32531.231    4.2739414    4.2739414    4.2739414   -32531.231   -35096.395   -50554.271   -11943.027   -9515.3938   -1430.5993    17608.899    78.070274 
   67300    1161.1131   -159.72987    1.0505995   -158.67927   -37541.967    4.2817706    4.2817706    4.2817706   -37541.967   -64311.767    5035.7879   -53349.922   -3829.3386     5043.368    3559.5268    78.500094 
   67400     2633.574   -161.05711    2.3829131   -158.67419    42945.561    4.2682584    4.2682584    4.2682584    42945.561   -43935.797    155297.56    17474.919    7717.5595   -1045.0223   -10933.469    77.759256 
   67500    1860.3503   -160.35609    1.6832841    -158.6728    20794.246    4.2584405    4.2584405    4.2584405    20794.246   -13188.753    62086.404    13485.086   -6190.8633    1498.5623   -26003.338    77.223906 
   67600    665.35257   -159.29314   0.60202499   -158.69111    3012.7135    4.2658652    4.2658652    4.2658652    3012.7135   -8510.4314   -4614.3566    22162.928     82.35107   -1037.4569   -17091.743    77.628533 
   67700    2819.7643   -161.24378     2.551382    -158.6924   -23178.582    4.2767193    4.2767193    4.2767193   -23178.582   -78985.775    30909.363   -21459.332   -1448.8056    12061.961    8056.9565      78.2226 
   67800    2730.7939    -161.1397    2.4708797   -158.66882   -36445.874    4.2738626    4.2738626    4.2738626   -36445.874   -33159.177   -59274.557   -16903.888    2410.3159   -5781.4603    7418.1972    78.065951 
   67900    798.59591   -159.38177   0.72258636   -158.65918    -17175.19    4.2595113    4.2595113    4.2595113    -17175.19   -36888.371   -43435.549    28798.351   -10777.191   -4466.7815   -2417.7511    77.282171 
   68000    1815.5063   -160.32493    1.6427082   -158.68222    20531.206    4.2564047    4.2564047    4.2564047    20531.206   -66215.614    82027.464    45781.768   -12196.048   -4019.7611    5848.5061    77.113202 
   68100    2647.7932   -161.08862    2.3957789   -158.69285     20797.38    4.2652525    4.2652525    4.2652525     20797.38    -22624.66    32416.145    52600.656   -620.47229    861.39369   -15760.036    77.595088 
   68200    1467.9265   -160.00355    1.3282107   -158.67534   -25940.668    4.2645724    4.2645724    4.2645724   -25940.668   -19208.855   -74912.045    16298.895   -8152.3418   -3992.7096    11887.304    77.557978 
   68300    1684.7291   -160.19166    1.5243783   -158.66728   -23478.183    4.2593538    4.2593538    4.2593538   -23478.183   -50353.542   -563.24141   -19517.767    3712.3936   -3341.5242    16680.826    77.273602 
   68400    3051.8247    -161.4428    2.7613552   -158.68145   -6289.2936    4.2648408    4.2648408    4.2648408   -6289.2936   -30457.009    26763.212   -15174.084    10917.384    12337.842   -10802.858     77.57262 
   68500    1821.9616   -160.33325    1.6485492    -158.6847   -8133.7898    4.2708396    4.2708396    4.2708396   -8133.7898   -27516.587    2970.7684     144.4494     11582.49    2561.1857     1428.559    77.900416 
   68600    546.09333   -159.17017   0.49411672   -158.67605    7036.2248    4.2655302    4.2655302    4.2655302    7036.2248   -59261.364    60001.419    20368.619   -6198.7525    -1893.218   -11663.958    77.610248 
   68700    2352.8236   -160.80964    2.1288843   -158.68075    27536.668    4.2610801    4.2610801    4.2610801    27536.668   -19790.015    108642.99   -6242.9712    5611.2121   -449.44228   -4996.0577    77.367596 
   68800    2842.9087   -161.25695    2.5723235   -158.68462    -4978.203    4.2673652    4.2673652    4.2673652    -4978.203    -12440.83    12060.968   -14554.747    12616.561     7462.309    24970.471    77.710452 
   68900    1022.7697   -159.60344   0.92542353   -158.67802   -23361.142    4.2698574    4.2698574    4.2698574   -23361.142   -44866.026   -55092.916    29875.514    5860.0403   -5585.3832    16850.186    77.846681 
   69000    1693.0493   -160.20915    1.5319066   -158.67725   -3091.6452      4.26273      4.26273      4.26273   -3091.6452   -55158.929   -6447.0833    52331.077   -17091.431   -7679.0139   -7668.1513    77.457499 
   69100    2780.2837   -161.19805    2.5156591   -158.68239    42243.968    4.2587745    4.2587745    4.2587745    42243.968     8847.367    39597.511    78287.025   -3515.1365   -3746.0236    -7675.377    77.242078 
   69200    1161.2756   -159.72904    1.0507466   -158.67829    7140.4183    4.2636253    4.2636253    4.2636253    7140.4183   -40425.579    -10222.31    72069.143    5918.2269    4064.9298   -9079.4665    77.506314 
   69300    1101.1175   -159.67042   0.99631425   -158.67411   -25124.028    4.2649749    4.2649749    4.2649749   -25124.028   -76795.865   -30847.045    32270.825    -7835.865    940.58809    17854.785    77.579941 
   69400    3234.3031   -161.60346    2.9264654     -158.677   -12489.334    4.2644636    4.2644636    4.2644636   -12489.334   -19950.197    5385.7212   -22903.526    9776.1145   -6975.0012    25446.316    77.552042 
   69500    1961.2988   -160.45506    1.7746244   -158.68043   -35.759693    4.2674831    4.2674831    4.2674831   -35.759693   -41861.824    25370.348    16384.196   -5568.7746    2424.8761   -5379.6359    77.716892 
   69600    585.51316   -159.20092   0.52978461   -158.67114   -2404.4295    4.2688346    4.2688346    4.2688346   -2404.4295     -88739.2    49334.975    32190.936    3965.8859    2303.5939   -15652.593    77.790753 
   69700    2417.8669    -160.8641    2.1877368   -158.67637    19255.412    4.2655571    4.2655571    4.2655571    19255.412   -12202.017    65804.509    4163.7447    -17577.38   -9913.0545   -6526.7934    77.611715 
   69800    2537.0308   -160.96975    2.2955587    -158.6742   -5414.8264    4.2646623    4.2646623    4.2646623   -5414.8264   -27338.066    20785.337   -9691.7504   -12096.725    4654.9302   -4824.3696    77.562881 
   69900    960.94574   -159.54049    0.8694839     -158.671    -42632.32    4.2666349    4.2666349    4.2666349    -42632.32    -106643.8   -40768.656    19515.499    14580.979     11423.98    9996.1957    77.670561 
   70000    1968.0894   -160.45702    1.7807686   -158.67625    11829.526    4.2635784    4.2635784    4.2635784    11829.526    8189.2986   -25390.811    52690.092    12364.302   -7833.4839    1248.3761    77.503757 
   70100    2625.5046   -161.05715    2.3756117   -158.68154    32468.161    4.2624827    4.2624827    4.2624827    32468.161    -2274.541    17152.353    82526.672    -1040.561   -11268.469   -18259.281    77.444021 
   70200     1130.406   -159.70352    1.0228151   -158.68071   -8392.3695    4.2697053    4.2697053    4.2697053   -8392.3695   -87761.097    36539.118     26044.87    4253.6969    8676.0053   -12197.057    77.838362 
   70300    1718.9902   -160.22992    1.5553784   -158.67455   -19263.319    4.2769675    4.2769675    4.2769675   -19263.319   -10843.254    11210.323   -58157.028    20994.804    5178.6327   -9234.5277    78.236218 
   70400    2905.3447   -161.29634     2.628817   -158.66752   -6819.7388    4.2686319    4.2686319    4.2686319   -6819.7388    -34128.91    20270.336   -6600.6426   -13497.884   -11706.209    1512.8368    77.779674 
   70500    1395.6815    -159.9236     1.262842   -158.66076   -9182.5859    4.2542028    4.2542028    4.2542028   -9182.5859   -92984.719     255.5045    65181.457   -19556.846   -4619.5639    10225.751    76.993591 
   70600    1151.7183   -159.72145    1.0420989   -158.67935    15130.766    4.2527845    4.2527845    4.2527845    15130.766    21761.034   -54483.259    78114.522   -20538.223   -1398.8873   -485.72793    76.916608 
   70700    2078.8095   -160.57529    1.8809505   -158.69434    36485.235    4.2683408    4.2683408    4.2683408    36485.235    36776.515   -7465.5073    80144.699   -2802.7551    15715.982   -618.59974    77.763765 
   70800    1747.4566   -160.25565    1.5811355   -158.67451   -8559.2474    4.2810171    4.2810171    4.2810171   -8559.2474   -86248.499    9994.8837    50575.873    2713.9338   -6900.1638   -11427.413    78.458663 
   70900    1450.5214   -159.96307    1.3124623   -158.65061   -32966.696    4.2764747    4.2764747    4.2764747   -32966.696   -1699.1094   -64627.755   -32573.223   -5175.4358   -19772.607    2995.9567    78.209175 
   71000    2313.5214   -160.74215    2.0933228   -158.64883    18526.559    4.2593673    4.2593673    4.2593673    18526.559    87779.126    5645.3472   -37844.797    7349.6427    -5378.093     6369.273    77.274333 
   71100    2053.0764   -160.52054    1.8576666   -158.66288    36363.559    4.2531035    4.2531035    4.2531035    36363.559    30968.775    35636.399    42485.504     6836.967    7083.1298   -12868.219     76.93392 
   71200     1205.371   -159.76882     1.090645   -158.67817   -6885.9616    4.2666129    4.2666129    4.2666129   -6885.9616    28026.829   -75600.348    26915.634   -3905.7919    9716.1577   -317.87016    77.669358 
   71300    2164.4889   -160.63576    1.9584751   -158.67728    -32161.95    4.2817668    4.2817668    4.2817668    -32161.95    26044.323    -27971.19   -94558.983   -342.90935   -7735.1912    10543.801    78.499885 
   71400    2299.9312   -160.74612    2.0810261    -158.6651    837.99851    4.2774341    4.2774341    4.2774341    837.99851   -67726.349    72916.957   -2676.6128    7871.9171   -13276.931   -20114.967    78.261827 
   71500    1239.7268   -159.77749    1.1217308   -158.65576    8914.4623    4.2581616    4.2581616    4.2581616    8914.4623   -19861.244    36188.991     10415.64    11003.782    1863.9599   -1018.1018    77.208733 
   71600    1963.7701   -160.43639    1.7768605   -158.65953   -13572.733    4.2533593    4.2533593    4.2533593   -13572.733    44353.009   -30086.137    -54985.07    7240.7566    3031.7581    11952.584    76.947799 
   71700    2746.2022   -161.16024    2.4848215   -158.67542   -30385.664    4.2712079    4.2712079    4.2712079   -30385.664   -70925.021   -4219.1916   -16012.779   -14372.604   -5155.4591    7723.6251    77.920574 
   71800    1406.1523   -159.93848    1.2723162   -158.66616   -2012.4806    4.2817779    4.2817779    4.2817779   -2012.4806   -85443.428    9047.9321    70358.054    11410.617    14108.554   -9907.8116    78.500495 
   71900    1670.4666   -160.16065    1.5114733   -158.64918   -10002.401    4.2706259    4.2706259    4.2706259   -10002.401    26639.241    -31049.75   -25596.694   -2037.8932   -953.30446    -9917.771    77.888723 
   72000    2531.4992    -160.9237    2.2905537   -158.63315   -25446.292    4.2609771    4.2609771    4.2609771   -25446.292   -40339.731    6369.4234   -42368.569   -25641.663    399.09289    3013.4429    77.361983 
   72100    1747.8229   -160.23217    1.5814669    -158.6507    14496.368    4.2611612    4.2611612    4.2611612    14496.368   -5069.6886    6807.6658    41751.127    2049.4367    8342.4046    722.89683    77.372014 
   72200    1666.9263    -160.1675    1.5082699   -158.65923    11769.458    4.2667242    4.2667242    4.2667242    11769.458     77723.71   -20827.985   -21587.352    14754.184    10327.408   -7102.8104    77.675436 
   72300    2347.6167   -160.78026    2.1241729   -158.65609   -26953.774    4.2698557    4.2698557    4.2698557   -26953.774   -11287.011   -6273.5965   -63300.715   -6604.0573   -9040.5991   -3324.0182    77.846592 
   72400    2066.2839   -160.52638    1.8696171   -158.65676   -10462.738    4.2680416    4.2680416    4.2680416   -10462.738   -77324.265    26314.672    19621.378   -1752.0701   -3752.0379    2944.5436     77.74741 
   72500    1415.0537    -159.9394    1.2803703   -158.65903    29293.502    4.2607963    4.2607963    4.2607963    29293.502     56131.53    57528.828   -25779.853    3430.7902    3822.0261    -11186.09    77.352136 
   72600    1917.0874   -160.39268    1.7346209   -158.65806    4627.9932    4.2604144    4.2604144    4.2604144    4627.9932    16966.833     48299.71   -51382.564   -5898.1037    -4012.032   -2187.9467    77.331337 
   72700    2329.2911   -160.77284    2.1075915   -158.66525   -22330.156    4.2701235    4.2701235    4.2701235   -22330.156   -89116.815    -14936.95    37063.297   -9282.1212   -3769.1315    18868.157    77.861241 
   72800    1684.3397   -160.19474    1.5240259   -158.67071    3947.0044    4.2744738    4.2744738    4.2744738    3947.0044    45396.119   -33633.627    78.521058    3983.4486     16503.07    -9058.695    78.099451 
   72900    1546.9574   -160.06104    1.3997196   -158.66132   -2188.6139    4.2641106    4.2641106    4.2641106   -2188.6139    51518.692   -32891.674   -25192.859   -6909.0022    5171.4833   -4394.7924    77.532784 
   73000     2361.375   -160.78977    2.1366217   -158.65314    2189.3958    4.2506142    4.2506142    4.2506142    2189.3958   -62350.694    29190.005    39728.876   -17993.147   -15152.437    7065.3378    76.798913 
   73100    2110.4393   -160.58504    1.9095699   -158.67547    7854.4009    4.2562009    4.2562009    4.2562009    7854.4009   -22190.696    44115.137    1638.7618   -3396.0691   -19367.871   -7026.2872    77.102127 
   73200    1157.6781   -159.73216    1.0474915   -158.68467   -2248.5055    4.2730112    4.2730112    4.2730112   -2248.5055    59993.442    29776.059   -96515.018    11704.475   -6476.5188   -2720.5776    78.019309 
   73300    1814.0146   -160.31165    1.6413586   -158.67029    -5842.528    4.2747557    4.2747557    4.2747557    -5842.528   -70401.347    43763.529    9110.2337   -5809.1773   -3940.6233   -2966.5958    78.114903 
   73400    2437.0659   -160.86123    2.2051084   -158.65612   -14533.766    4.2630601    4.2630601    4.2630601   -14533.766   -48633.724   -3702.7939    8735.2189   -13120.537   -10927.793    141.75227    77.475497 
   73500    1616.5204   -160.12738    1.4626617   -158.66472    4432.6507    4.2581374    4.2581374    4.2581374    4432.6507    79916.072   -27437.584   -39180.536   -2799.3218   -1506.4198    13196.776    77.207418 
   73600    1314.1662   -159.86816    1.1890852   -158.67907    17983.492    4.2623462    4.2623462    4.2623462    17983.492    33225.105    20086.108    639.26284    5583.8874    4584.2846   -6989.8748    77.436578 
   73700    2058.4628   -160.53776    1.8625404   -158.67522    3661.7276    4.2631783    4.2631783    4.2631783    3661.7276   -51208.045    44601.852    17591.375   -2608.4275    4631.5631    992.89708    77.481941 
   73800    2318.2538   -160.76538    2.0976047   -158.66777   -15033.474    4.2624806    4.2624806    4.2624806   -15033.474     21847.51    3200.6415   -70148.573   -7139.9476   -11964.958    16115.099    77.443906 
   73900    1671.2902    -160.1849    1.5122185   -158.67268   -14327.755    4.2653698    4.2653698    4.2653698   -14327.755   -8354.0994   -18585.847   -16043.318   -4048.4273    2809.8574    621.88395     77.60149 
   74000    1736.9306   -160.24784    1.5716113   -158.67622     5647.544    4.2668166    4.2668166    4.2668166     5647.544   -31621.502    25056.263    23507.871    7248.8242    10119.079   -6307.4796    77.680485 
   74100    2229.7478   -160.68697    2.0175226   -158.66945    5228.1378    4.2635448    4.2635448    4.2635448    5228.1378     46208.69    26749.214   -57273.491    25096.639    407.10123   -2111.2286    77.501928 
   74200    1658.7001   -160.16307    1.5008267   -158.66224   -10185.865     4.258113     4.258113     4.258113   -10185.865    -402.3032   -11405.725   -18749.568   -5873.7362    25.376806    6095.0842     77.20609 
   74300    1644.8233   -160.15977    1.4882707    -158.6715   -8340.7095    4.2624787    4.2624787    4.2624787   -8340.7095   -122750.42    10860.022    86868.274    6885.3381    3508.2618    1148.2385    77.443803 
   74400    2256.6474   -160.71857    2.0418619   -158.67671    13706.171    4.2698506    4.2698506    4.2698506    13706.171   -7788.3167   -5947.4789    54854.309   -4143.6062    14924.268   -3655.9408    77.846313 
   74500    1822.3956   -160.31393    1.6489418   -158.66499   -17495.356    4.2685931    4.2685931    4.2685931   -17495.356    19550.461   -72606.872    570.34145   -4127.7239   -3366.0057   -2171.9616    77.777552 
   74600    1694.7254   -160.19176    1.5334231   -158.65833   -35162.912    4.2599126    4.2599126    4.2599126   -35162.912   -107481.94   -10235.025    12228.227    766.34372   -7847.9101    9003.9006    77.304017 
   74700    2497.4311   -160.92968    2.2597281   -158.66996     15389.07    4.2567259    4.2567259    4.2567259     15389.07    3806.0557    50830.796   -8469.6405   -3838.3888   -3559.4022    -11706.85    77.130661 
   74800    2127.7071   -160.60396    1.9251941   -158.67877     22409.27    4.2622722    4.2622722    4.2622722     22409.27    55575.452    26581.619    -14929.26     13273.86    1001.1438   -9297.2234    77.432547 
   74900    1029.3404   -159.59913   0.93136887   -158.66776   -17132.946    4.2641485    4.2641485    4.2641485   -17132.946   -70462.402    626.46102    18437.105    6890.8315     7369.466   -247.23222    77.534849 
   75000    1938.6689   -160.42091    1.7541484   -158.66676   -6305.5182    4.2597998    4.2597998    4.2597998   -6305.5182   -29590.157   -3338.1052    14011.707    9669.6796   -6097.5354    3973.6013    77.297876 
   75100    2655.1146   -161.08026    2.4024035   -158.67785    18928.898    4.2565863    4.2565863    4.2565863    18928.898    63948.354    5614.0243   -12775.685    41777.142   -267.15167   -2039.1512    77.123072 
   75200    1195.0539   -159.75694    1.0813099   -158.67563    -12388.26    4.2585444    4.2585444    4.2585444    -12388.26   -29711.593    22898.271   -30351.459    17117.074    6552.9746   -7980.7182    77.229556 
   75300    1463.4384   -159.99808    1.3241498   -158.67393   -20116.945    4.2536579    4.2536579    4.2536579   -20116.945   -86861.669    14416.382    12094.451    -5304.652   -17005.914    9608.1719    76.964008 
   75400    3274.5031   -161.64251    2.9628392   -158.67967     13461.38    4.2510166    4.2510166    4.2510166     13461.38    30016.996   -10340.799    20707.944   -12113.361    9083.1204    6402.5452    76.820726 
   75500    1979.1816   -160.47631    1.7908051   -158.68551   -7499.4675    4.2618947    4.2618947    4.2618947   -7499.4675   -42433.902   -14950.278    34885.778   -20542.561    7403.0267   -3767.8124    77.411976 
   75600    607.64317   -159.22706   0.54980831   -158.67726   -8760.7222    4.2678798    4.2678798    4.2678798   -8760.7222   -84659.683   -6716.2855    65093.802    2051.1029    14916.152   -4233.7096    77.738568 
   75700    2702.7706   -161.11827    2.4455237   -158.67275    1298.5834    4.2616231    4.2616231    4.2616231    1298.5834    9674.2844   -29302.729    23524.195    13362.563    9397.3442    9094.0089    77.397173 
   75800    2494.8933    -160.9276    2.2574319   -158.67017    914.28017    4.2550141    4.2550141    4.2550141    914.28017     6649.926    7396.5593   -11303.645     2304.097   -7169.7773    8535.1364     77.03765 
   75900    629.45868   -159.24697   0.56954744   -158.67742   -13705.354    4.2560273    4.2560273    4.2560273   -13705.354   -96978.758    51226.235    4636.4621    15180.089   -2587.3679    5052.2532    77.092692 
   76000    1982.2529   -160.48519     1.793584   -158.69161   -46.685531    4.2634853    4.2634853    4.2634853   -46.685531   -6265.6407    4847.4543    1278.1298    5851.3353    2304.8301   -8658.3268    77.498683 
   76100    2916.5951   -161.32563    2.6389966   -158.68664    2279.8357    4.2681712    4.2681712    4.2681712    2279.8357    1673.0773    -10107.33     15273.76   -14038.255     6002.362   -1264.0702    77.754493 
   76200    965.97524   -159.54909    0.8740347   -158.67506   -15772.907    4.2609338    4.2609338    4.2609338   -15772.907   -122040.34    19357.978    55363.644    8727.5219    2.8173077    1959.1549    77.359627 
   76300    1588.1977   -160.11201    1.4370347   -158.67498    10654.537    4.2475085    4.2475085    4.2475085    10654.537   -3523.8997   -25910.819     61398.33   -1053.1342   -2247.3111    4266.8129    76.630694 
   76400     3001.657   -161.40096    2.7159623     -158.685    27892.558    4.2446479    4.2446479    4.2446479    27892.558    63300.354   -30697.766    51075.087   -124.83659   -2839.2376      -1009.7    76.475974 
   76500    1955.3965   -160.46155    1.7692839   -158.69227   -21035.387    4.2573747    4.2573747    4.2573747   -21035.387   -99995.663   -650.98494    37540.487    6089.0718   -7397.3201   -10523.581    77.165935 
   76600    1492.8896   -160.03733    1.3507979   -158.68653   -44390.489     4.270714     4.270714     4.270714   -44390.489   -86330.938   -35424.277   -11416.251   -5002.8507   -1515.1264   -5174.5543    77.893542 
   76700    2905.5779   -161.30669    2.6290279   -158.67766   -16983.907    4.2622755    4.2622755    4.2622755   -16983.907    32407.011   -60362.818   -22995.915    10263.228   -11338.031    10571.612    77.432724 
   76800    1807.6904   -160.30743    1.6356362   -158.67179    20682.068    4.2372639    4.2372639    4.2372639    20682.068   -43214.926    23554.003    81707.127    3613.7263   -9630.4905    6327.8494    76.077554 
   76900    1096.2813   -159.67568    0.9919384   -158.68374    15947.706    4.2361138    4.2361138    4.2361138    15947.706   -67063.728    26251.227    88655.621   -770.08316   -9609.9052    1776.3515     76.01562 
   77000    2135.0053   -160.64127    1.9317977   -158.70947    21904.899    4.2610137    4.2610137    4.2610137    21904.899    59100.269   -39448.339    46062.766    3190.6105   -6213.7232   -5747.3302    77.363976 
   77100    1937.5028   -160.44517    1.7530932   -158.69208   -10980.673    4.2734402    4.2734402    4.2734402   -10980.673   -33436.618   -33381.049    33875.649   -7375.6652    15765.521    63.175827    78.042807 
   77200    1209.9325   -159.76724    1.0947723   -158.67246   -18006.024    4.2594037    4.2594037    4.2594037   -18006.024   -96346.529    12377.932    29950.526    8296.5082    8851.6635    12753.428    77.276317 
   77300    2515.3088   -160.95082    2.2759043   -158.67492    9387.9075    4.2450015    4.2450015    4.2450015    9387.9075    65616.904   -37089.093   -364.08839     3363.112    6971.3973    6263.2274    76.495088 
   77400     2413.627   -160.87623    2.1839005   -158.69233    -2767.054    4.2519731    4.2519731    4.2519731    -2767.054    12525.373   -48899.949    28073.413   -5713.3754     5253.361    348.73717    76.872592 
   77500    1361.4796   -159.92629    1.2318953   -158.69439   -53696.905    4.2661948    4.2661948    4.2661948   -53696.905   -181634.36   -1157.2107    21700.854     1047.695   -10651.345    3680.6755    77.646531 
   77600    2686.2542   -161.12175    2.4305792   -158.69117   -23710.689    4.2597969    4.2597969    4.2597969   -23710.689    603.44975   -50127.181   -21608.335   -18222.859   -863.20075    1847.2888    77.297719 
   77700    2703.6742   -161.13143    2.4463413   -158.68509   -9047.6993    4.2472342    4.2472342    4.2472342   -9047.6993    22328.534   -49597.909    126.27748    6148.0355     5410.138    5586.2712    76.615852 
   77800     1289.595   -159.86333    1.1668526   -158.69647   -34946.123    4.2555759    4.2555759    4.2555759   -34946.123   -149099.19    22965.763    21295.059    10886.212    5404.1566    4116.0768    77.068167 
   77900    2530.2144   -160.98872    2.2893912   -158.69933   -31959.421    4.2682822    4.2682822    4.2682822   -31959.421   -33383.912    -36537.73    -25956.62   -2521.6318    4962.8444   -4841.6914     77.76056 
   78000    2579.8502   -161.02341    2.3343027   -158.68911    -15714.35    4.2611068    4.2611068    4.2611068    -15714.35    27690.632   -70940.335   -3893.3482   -2362.9097    2762.7122   -5158.4152     77.36905 
   78100    721.05033   -159.33426   0.65242149   -158.68184   -4989.6127    4.2431632    4.2431632    4.2431632   -4989.6127   -116426.01    29828.042    71629.131   -17086.699    10502.458    6448.2624     76.39575 
   78200    1865.7097   -160.38495    1.6881333   -158.69682    1575.6529    4.2416736    4.2416736    4.2416736    1575.6529   -51386.239    3576.3407    52536.857   -16088.373   -2184.3874    1975.4395     76.31532 
   78300    2811.1384   -161.25183    2.5435771   -158.70826    12596.457    4.2532254    4.2532254    4.2532254    12596.457    54020.925   -50725.162    34493.609    1335.9089    20654.186    3602.2403    76.940534 
   78400    848.86449   -159.46563   0.76807043   -158.69756   -10367.941    4.2572575    4.2572575    4.2572575   -10367.941   -108609.95   -10631.392    88137.523    5085.3707    9495.9595   -4676.2161    77.159565 
   78500    1272.1469   -159.84298    1.1510653   -158.69191    967.79793    4.2506429    4.2506429    4.2506429    967.79793   -67026.598   -184.71098    70114.702    11385.322   -3678.0318   -244.08529     76.80047 
   78600    3115.8783   -161.51295    2.8193122   -158.69364    18520.853    4.2468992    4.2468992    4.2468992    18520.853    79497.966   -28562.126    4626.7181   -4539.2232    3970.4711    12341.842    76.597725 
   78700     1903.149   -160.41593    1.7220093   -158.69392   -8812.4648    4.2484302    4.2484302    4.2484302   -8812.4648   -57776.995   -4889.2734    36228.873    3264.4071   -9893.8416    1224.9424    76.680595 
   78800    1360.8449    -159.9269    1.2313211   -158.69558   -21870.794    4.2499243    4.2499243    4.2499243   -21870.794   -126522.55   -923.89383    61834.061     5558.333   -6732.4818   -7603.5478    76.761524 
   78900    2956.9219   -161.37318    2.6754851    -158.6977   -8947.9368    4.2534017    4.2534017    4.2534017   -8947.9368    27217.845   -16275.279   -37786.376   -2916.9294   -4537.5953   -9798.7445    76.950105 
   79000     2344.019   -160.81278    2.1209176   -158.69186   -15227.295    4.2557871    4.2557871    4.2557871   -15227.295   -23395.248    5055.9731   -27342.609    1200.1738    -9541.437    3632.5045    77.079639 
   79100     1172.374   -159.74542    1.0607887   -158.68463   -21785.446    4.2533855    4.2533855    4.2533855   -21785.446   -145086.14    2117.1058    77612.698   -11154.354   -4483.6774    7990.7555    76.949222 
   79200      2368.99   -160.83509     2.143512   -158.69158    15797.329    4.2484853    4.2484853    4.2484853    15797.329    6966.2078   -36792.512    77218.292   -8640.8695   -13305.615    179.85301    76.683577 
   79300    2402.2688   -160.87515    2.1736233   -158.70152    22740.803    4.2467032    4.2467032    4.2467032    22740.803    32387.336   -19434.927    55270.001   -4378.1689   -636.42923   -9208.0658     76.58712 
   79400    823.21943    -159.4476   0.74486624   -158.70274    6167.3314    4.2522501    4.2522501    4.2522501    6167.3314   -88703.226    5079.1218     102126.1   -7652.0609   -5504.2032   -3286.9659    76.887616 
   79500    1771.6555   -160.30432    1.6030311   -158.70129    886.37102    4.2625799    4.2625799    4.2625799    886.37102   -38976.248   -55316.335    96951.696    2538.9047    -6752.738    8658.2927    77.449317 
   79600    2563.0038   -161.01593    2.3190597   -158.69687      18032.8    4.2637296    4.2637296    4.2637296      18032.8    43195.799   -59009.927    69912.527    3575.0994    16373.993    -3047.691    77.512005 
   79700    975.67432   -159.57094   0.88281063   -158.68813   -5287.0402    4.2556559    4.2556559    4.2556559   -5287.0402    -108901.2    647.83694    92392.242      12142.8   -1768.6344   -697.87939    77.072514 
   79800    1449.9037   -160.00819    1.3119034   -158.69628    11214.469    4.2499002    4.2499002    4.2499002    11214.469   -68291.686   -23506.306     125441.4    13814.904    4091.8819   -7915.1387    76.760215 
   79900     2904.214   -161.33594    2.6277938   -158.70815    23984.723    4.2539349    4.2539349    4.2539349    23984.723     34439.78   -69547.354    107061.74   -3208.7164   -788.61526    2987.6704    76.979044 
   80000    1514.6857   -160.07502    1.3705195    -158.7045   -12837.237    4.2622114    4.2622114    4.2622114   -12837.237   -107418.27   -10480.244    79386.801   -2301.8563   -8224.7023    1512.2463    77.429234 
   80100    1296.0581   -159.87208    1.1727006   -158.69938   -13282.126    4.2606632    4.2606632    4.2606632   -13282.126   -88547.975   -18033.434    66735.031   -8606.2016   -5501.3065    988.32647     77.34489 
   80200    2915.0897   -161.33489    2.6376345   -158.69726    8684.8614    4.2515744    4.2515744    4.2515744    8684.8614    34919.275   -61439.055    52574.364    6576.1081    3222.5112   -5055.6868    76.850967 
   80300    2007.8131   -160.51211    1.8167115    -158.6954   -2439.1375    4.2478183    4.2478183    4.2478183   -2439.1375   -58500.011   -3563.6161    54746.215    16963.557    7333.8221    3288.6718    76.647465 
   80400    1226.2901   -159.80542     1.109573   -158.69584   -30256.808     4.253144     4.253144     4.253144   -30256.808   -121093.83    15654.059    14669.351    4863.7133    5673.9385    2877.4125    76.936117 
   80500    2658.3907   -161.10392    2.4053677   -158.69855   -7622.7962    4.2531289    4.2531289    4.2531289   -7622.7962    68660.673   -58170.893   -33358.169    1526.9368    15339.692    56.082235    76.935298 
   80600    2126.2549   -160.62033    1.9238802   -158.69645    2999.7703    4.2472392    4.2472392    4.2472392    2999.7703    33286.963   -37669.626    13381.975   -14459.407    2100.1196   -209.07797    76.616122 
   80700    842.35624    -159.4585   0.76218163   -158.69631    -6895.355    4.2464734    4.2464734    4.2464734    -6895.355   -98488.443    17326.754    60475.623    -13035.37   -6187.1808   -1035.8011    76.574687 
   80800    1981.5819   -160.49546    1.7929769   -158.70248     3076.394    4.2499279    4.2499279    4.2499279     3076.394    7430.4753   -31254.601    33053.308    -2781.292    5706.6096    5445.3805    76.761716 
   80900    2412.0941   -160.88102    2.1825134   -158.69851    5694.8307     4.248567     4.248567     4.248567    5694.8307    41958.663   -52984.867    28110.696   -4116.9635   -5699.0285   -3280.9958    76.687998 
   81000    968.29987   -159.56745   0.87613807   -158.69131   -12955.265    4.2469233    4.2469233    4.2469233   -12955.265   -88394.873   -4316.9052    53845.985   -343.09875    2308.7467   -2205.6409    76.599026 
   81100    1938.0099   -160.45343    1.7535521   -158.69988   -11017.094    4.2533044    4.2533044    4.2533044   -11017.094   -11410.064   -12745.304   -8895.9131    6654.8759    11421.846   -2830.4674     76.94482 
   81200    2661.2699   -161.11153     2.407973   -158.70355    -4456.874    4.2588328    4.2588328    4.2588328    -4456.874    68171.422   -58123.381   -23418.663    5593.0999   -3563.5132    4498.2025    77.245248 
   81300    820.61727   -159.43214   0.74251175   -158.68963   -12258.866    4.2542234    4.2542234    4.2542234   -12258.866   -95048.733   -14659.196    72931.332    6323.1627    160.58428   -2619.8981    76.994711 
   81400    1308.4134   -159.87394    1.1838799   -158.69006    13051.581    4.2449802    4.2449802    4.2449802    13051.581   -49468.919    17125.775    71497.886     5415.593    3355.0299   -3540.0283    76.493935 
   81500    2771.7368   -161.20871    2.5079257   -158.70078    21823.594    4.2445702    4.2445702    4.2445702    21823.594    87749.991   -24108.039    1828.8317   -6848.1041    -15468.65     3398.998    76.471775 
   81600    1447.0774    -160.0075    1.3093461   -158.69816   -12261.982    4.2499438    4.2499438    4.2499438   -12261.982   -46984.423   -4667.2781    14865.755    5018.8749    7374.8247    4123.4333    76.762579 
   81700    997.58349   -159.60075   0.90263451   -158.69812   -14168.119    4.2542177    4.2542177    4.2542177   -14168.119     -90473.6    16199.487    31769.754   -3338.4793    6716.6324    391.94148    76.994398 
   81800    2806.7886    -161.2392    2.5396413   -158.69955    3737.0539    4.2578844    4.2578844    4.2578844    3737.0539    77186.565   -28120.242   -37855.162   -1305.8895   -8718.5301   -6379.2466    77.193655 
   81900    1822.3708   -160.34502    1.6489194    -158.6961   -2740.3751    4.2563041    4.2563041    4.2563041   -2740.3751   -3096.3358   -2610.6889   -2514.1005    1056.7712    3165.7578    1112.3514    77.107734 
   82000    458.52938   -159.10546   0.41488702   -158.69057   -10808.073    4.2470051    4.2470051    4.2470051   -10808.073   -125113.53    20999.723    71689.587   -12829.659   -6080.5765    5997.8553    76.603452 
   82100    2191.1586   -160.67985    1.9826063   -158.69724    24945.256    4.2403185    4.2403185    4.2403185    24945.256    49618.984   -22200.662    47417.444   -7236.8749   -13639.557     2821.397      76.2422 
   82200    2503.8013   -160.97038     2.265492   -158.70489    17730.768    4.2488006    4.2488006    4.2488006    17730.768    50464.546   -9049.9353    11777.693   -4090.9453    3753.6053   -6781.0688    76.700651 
   82300    938.12075   -159.54414   0.84883137   -158.69531   -31260.331    4.2627037    4.2627037    4.2627037   -31260.331   -135419.42    24093.758    17544.664    1597.6912    7024.2929     1043.906    77.456064 
   82400    2082.2367   -160.56692    1.8840515   -158.68287   -28205.498     4.266227     4.266227     4.266227   -28205.498   -17412.369   -53315.455   -13888.671    6400.4539   -1277.9771    4186.1648    77.648287 
   82500    2764.2057   -161.18204    2.5011115   -158.68093    4365.8944    4.2536221    4.2536221    4.2536221    4365.8944    68294.753   -54583.268   -613.80171    4118.8561    682.77183   -3551.3324    76.962063 
   82600    1164.2969   -159.73301    1.0534803   -158.67953    10276.044    4.2449117    4.2449117    4.2449117    10276.044   -61766.221    37277.991    55316.362    13365.077    -883.0469    2806.2682    76.490235 
   82700    1547.7636   -160.09169    1.4004491   -158.69124   -3174.6802    4.2496002    4.2496002    4.2496002   -3174.6802   -25205.169    -14700.31    30381.438    11782.926   -11450.833   -6570.7653    76.743963 
   82800    2906.3242   -161.32535    2.6297032   -158.69565   -2553.0045    4.2540975    4.2540975    4.2540975   -2553.0045    54414.322   -63303.758    1230.4227    7703.7474    11156.704    4920.0551    76.987875 
   82900    1747.1744   -160.26708    1.5808801    -158.6862   -8897.3777    4.2550355    4.2550355    4.2550355   -8897.3777   -85077.898    25949.851    32435.914    6865.1538    11145.162    3579.7463    77.038808 
   83000    1594.7267   -160.12333    1.4429423   -158.68039   -18591.751    4.2570325    4.2570325    4.2570325   -18591.751   -100330.59    18237.209    26318.123   -10385.014    2114.7988   -9678.3097    77.147328 
   83100    2750.9884   -161.17301    2.4891521   -158.68386    4599.8029    4.2564831    4.2564831    4.2564831    4599.8029    85035.525   -55012.862   -16223.254   -390.88598    3835.5423    898.35654    77.117462 
   83200    1782.1269   -160.29701    1.6125059    -158.6845    722.01174    4.2513889    4.2513889    4.2513889    722.01174    8123.5936   -18955.387    12997.828   -1794.3733   -26385.294    -585.0371    76.840909 
   83300    1178.1609   -159.75032    1.0660248   -158.68429    9372.4601    4.2465123    4.2465123    4.2465123    9372.4601   -70830.358     52669.83    46277.908    342.14855   -20159.844    8826.4864    76.576789 
   83400    2531.0431   -160.98447     2.290141   -158.69433    11137.703    4.2536237    4.2536237    4.2536237    11137.703    38246.762   -21651.339    16817.687    4882.1809   -516.06108    2572.9259    76.962152 
   83500    2346.9535   -160.81426    2.1235728   -158.69069   -13562.621    4.2669894    4.2669894    4.2669894   -13562.621    8051.2529   -48713.152   -25.965201   -8996.8363     -9295.68    -8118.812    77.689925 
   83600    1107.0008   -159.67799    1.0016376   -158.67635   -32970.928    4.2650519    4.2650519    4.2650519   -32970.928   -137150.94    25363.526    12874.626    12439.742    8772.8299   -3841.8458    77.584144 
   83700    2183.4188   -160.65363    1.9756032   -158.67803    20544.041    4.2456971    4.2456971    4.2456971    20544.041    35300.964    7126.6322    19204.526   -1751.6006    7471.3398   -14074.032    76.532695 
   83800    2533.9079   -160.97934    2.2927331   -158.68661    42772.807    4.2396711    4.2396711    4.2396711    42772.807    130356.63   -21541.525    19503.316     6317.532   -13327.474   -16716.925    76.207287 
   83900    1109.9762   -159.69568    1.0043298   -158.69135    -12120.84    4.2526588    4.2526588    4.2526588    -12120.84   -49565.073    -9859.619    23062.173    5919.8509      2744.02   -18164.072     76.90979 
   84000    1558.7573   -160.10067    1.4103963   -158.69027   -21436.103    4.2646035    4.2646035    4.2646035   -21436.103   -76954.643   -2023.4887    14669.821   -12623.373   -688.90272    -8866.455    77.559675 
   84100    3229.7061   -161.60324     2.922306   -158.68093   -13136.115    4.2669614    4.2669614    4.2669614   -13136.115    35237.643   -65285.999   -9359.9875    13143.686   -1573.0083    93.754328    77.688395 
   84200    1360.4433    -159.9076    1.2309577   -158.67665   -8790.4977    4.2540434    4.2540434    4.2540434   -8790.4977   -43105.332   -29175.681     45909.52   -20984.943    8757.5033     3691.676    76.984937 
   84300    620.27683   -159.23993   0.56123951   -158.67869    2569.4468    4.2401945    4.2401945    4.2401945    2569.4468   -89795.492    26168.131    71335.701   -5774.1912    2314.7766    10450.428    76.235516 
   84400    2583.4407   -161.03625    2.3375514    -158.6987    29747.318    4.2431167    4.2431167    4.2431167    29747.318    63302.488   -5317.5082    31256.973   -4954.4195    9097.2437    11149.654    76.393238 
   84500    2238.7964   -160.72597      2.02571   -158.70026   -5603.2834    4.2601899    4.2601899    4.2601899   -5603.2834   -25124.754   -12292.828    20607.731   -2175.6795      15258.6    11294.012    77.319117 
   84600    608.02545   -159.23249   0.55015421   -158.68234   -42732.022    4.2644434    4.2644434    4.2644434   -42732.022   -167519.46    18221.812    21101.578    18674.129   -7597.3008    11796.556    77.550938 
   84700     2365.513   -160.81759    2.1403658   -158.67722    4075.6711    4.2531691    4.2531691    4.2531691    4075.6711    28188.617   -13408.081   -2553.5224   -11591.107   -12635.738    6470.1591    76.937476 
   84800    2689.2468   -161.11558     2.433287   -158.68229    33376.122    4.2479027    4.2479027    4.2479027    33376.122    76092.815   -17679.926    41715.478    16010.468   -13208.802    6178.4123    76.652035 
   84900    736.05379   -159.35492   0.66599694   -158.68892   -5341.3042    4.2544677    4.2544677    4.2544677   -5341.3042   -120445.65    13354.591    91067.141   -1950.1845   -19160.766    3006.5801    77.007975 
   85000    1891.3711    -160.4003    1.7113524   -158.68894    -13759.64    4.2588909    4.2588909    4.2588909    -13759.64   -37606.227   -23119.073    19446.382   -14879.671   -821.36682   -3461.8989    77.248409 
   85100    3103.8585   -161.48874    2.8084364   -158.68031    3050.5606    4.2566602    4.2566602    4.2566602    3050.5606    75087.501   -26554.762   -39381.058    17546.034    4403.0293   -4300.0686    77.127089 
   85200    1275.6107   -159.83125    1.1541993   -158.67705   -22268.484    4.2548456    4.2548456    4.2548456   -22268.484   -126025.44    28448.699    30771.287   -10877.409   -9608.4397   -15080.558    77.028495 
   85300    1300.3589    -159.8629    1.1765921   -158.68631   -4542.3888     4.256271     4.256271     4.256271   -4542.3888   -65835.651    10575.376    41633.109    8747.3433    3444.5387   -12208.645    77.105936 
   85400    2980.7286   -161.38673    2.6970259    -158.6897    14325.045     4.252897     4.252897     4.252897    14325.045    86708.828   -28353.661   -15380.032   -7020.8348   -5722.4004   -8030.1825    76.922714 
   85500    1580.2629    -160.1104    1.4298551   -158.68055   -4279.1617     4.245752     4.245752     4.245752   -4279.1617    -73011.28    35784.708    24389.088    -9006.181   -2276.0413    -6094.441    76.535668 
   85600     1358.954   -159.91475    1.2296101   -158.68514   -11074.242     4.247718     4.247718     4.247718   -11074.242   -84996.596    26443.299    25330.571     17147.04    17429.374   -5312.0513    76.642033 
   85700    3081.6653   -161.48239    2.7883555   -158.69404   -5791.2715    4.2598959    4.2598959    4.2598959   -5791.2715    65441.073   -53353.899   -29460.989   -9272.8287    2898.2911    -7039.969    77.303111 
   85800    1828.2338   -160.33815    1.6542244   -158.68392   -20506.544     4.263702     4.263702     4.263702   -20506.544   -63655.593    -28669.72     30805.68    9178.6207    10699.894   -6352.9989      77.5105 
   85900    809.19179   -159.40838   0.73217373    -158.6762   -11330.267     4.254084     4.254084     4.254084   -11330.267   -149350.09    9129.3264    106229.96    9032.9889    7031.5679    10479.173     76.98714 
   86000    2548.4178   -160.99359    2.3058619   -158.68773    36906.093    4.2434372    4.2434372    4.2434372    36906.093    50073.313   -26544.189    87189.154    1024.2091   -6662.5722    10502.752    76.410551 
   86100    1911.4282     -160.421    1.7295004    -158.6915    14766.765    4.2456726    4.2456726    4.2456726    14766.765   -8707.1389   -6932.6634    59940.097    3530.6392    103.14733    4857.0917    76.531374 
   86200    756.36332   -159.37056   0.68437343   -158.68619   -32118.781    4.2569629    4.2569629    4.2569629   -32118.781    -156500.1     14609.66      45534.1   -10957.613    -1983.804    9003.6514    77.143544 
   86300    2596.8782   -161.03623      2.34971   -158.68652    3267.2452    4.2601899    4.2601899    4.2601899    3267.2452    17877.925   -10443.786    2367.5976    1461.9773   -11295.362     1580.178    77.319113 
   86400    2438.5216   -160.88865    2.2064256   -158.68223    11729.027    4.2569155    4.2569155    4.2569155    11729.027     33518.02    7448.4915   -5779.4303    -4788.306   -6071.7281    14428.244    77.140967 
   86500    619.59172   -159.23843    0.5606196   -158.67781   -24338.231    4.2527069    4.2527069    4.2527069   -24338.231   -174856.94    54414.561    47427.681   -9197.0532   -3556.6816    7893.5696    76.912397 
   86600    2276.1392    -160.7435    2.0594986     -158.684   -9359.3706    4.2519116    4.2519116    4.2519116   -9359.3706   -48592.592   -6314.6906    26829.171    12641.972   -15406.568   -1831.6862    76.869259 
   86700    2706.4818   -161.14022    2.4488816   -158.69134    17114.715    4.2494411    4.2494411    4.2494411    17114.715    37999.108   -11157.653    24502.691    -5570.624    13588.265   -2753.1483    76.735346 
   86800    597.11046   -159.22848   0.54027809    -158.6882    166.58411    4.2500938    4.2500938    4.2500938    166.58411   -125660.38    66321.205    59838.928    6226.0924    5758.9063   -6755.8632    76.770706 
   86900    1556.0817   -160.09829    1.4079754   -158.69032    3934.0677    4.2598267    4.2598267    4.2598267    3934.0677    -74501.46    60241.899    26061.764    18561.402   -7190.6959    3068.6897    77.299341 
   87000    3101.7805   -161.49178    2.8065562   -158.68523    11066.963    4.2635892    4.2635892    4.2635892    11066.963    25332.894    14360.501   -6492.5077   -11367.306    2040.1099    4308.7365    77.504345 
   87100    1057.8393   -159.63485   0.95715526    -158.6777   -2219.5908    4.2514587    4.2514587    4.2514587   -2219.5908   -114492.06     48308.15    59525.136    8581.7444    6819.7188   -3476.8919    76.844694 
   87200    1215.3897   -159.77932    1.0997101   -158.67961   -14258.696    4.2415268    4.2415268    4.2415268   -14258.696   -108866.75    25666.606    40424.052     9655.877   -818.02514   -3045.5131    76.307398 
   87300    3078.6063    -161.4829    2.7855877   -158.69732    2198.0327     4.246306     4.246306     4.246306    2198.0327    37731.271   -14711.991   -16425.182    -13069.66   -2164.5967   -10688.226    76.565628 
   87400    1756.5886    -160.2901    1.5893983    -158.7007   -12407.674    4.2586707    4.2586707    4.2586707   -12407.674   -98539.904    44024.986    17291.897   -5559.2391   -12669.216   -610.01011    77.236428 
   87500    810.33783   -159.42443    0.7332107   -158.69122   -13663.776    4.2613285    4.2613285    4.2613285   -13663.776    -159245.4    91059.032    27195.036   -16712.442   -6273.7673   -421.76222    77.381127 
   87600    2738.1737   -161.16619    2.4775571   -158.68863    13142.112    4.2522644    4.2522644    4.2522644    13142.112    26540.339    40452.191   -27566.194   -28311.544   -2375.2108    4422.4706    76.888395 
   87700    2090.9043   -160.58147    1.8918942   -158.68957     4126.203    4.2457091    4.2457091    4.2457091     4126.203   -35180.688    38874.913     8684.384    16861.848   -3556.3551    2213.0557    76.533347 
   87800    914.89981   -159.51905   0.82782057   -158.69123   -12619.052    4.2484856    4.2484856    4.2484856   -12619.052   -135051.14     57117.28    40076.703    8052.9082    3686.7824   -6924.4666    76.683595 
   87900    2481.0753   -160.94021    2.2449291   -158.69528    3284.2769     4.252712     4.252712     4.252712    3284.2769    8720.4293    24130.454   -22998.052    177.16239    5874.0737   -1606.7932    76.912674 
   88000    2550.4682   -161.00273    2.3077173   -158.69502    5373.7347    4.2537179    4.2537179    4.2537179    5373.7347    4691.2354    27180.955   -15750.987    20176.717   -301.59131    3985.6195    76.967266 
   88100    944.97171   -159.54618   0.85503026   -158.69115   -27878.286    4.2551122    4.2551122    4.2551122   -27878.286    -154144.3      20798.7     49710.74   -9764.9879    4658.8964     8784.207    77.042977 
   88200    2086.4068   -160.57887    1.8878247   -158.69105   -7233.3081    4.2508436    4.2508436    4.2508436   -7233.3081   -23547.217   -4682.1855    6529.4781   -3599.1119    1171.3809    11371.058    76.811349 
   88300    2822.9251   -161.24664    2.5542419    -158.6924    14452.237    4.2452019    4.2452019    4.2452019    14452.237    49152.254    20997.963   -26793.505    9158.2449    5837.5853    9052.9708    76.505923 
   88400    946.72168   -159.55387   0.85661367   -158.69726    1302.1769    4.2498272    4.2498272    4.2498272    1302.1769   -129367.97     88662.74     44611.76   -5668.7532   -2678.4378    433.13109    76.756263 
   88500     1291.152   -159.86698    1.1682615   -158.69872   -6111.0894    4.2592687    4.2592687    4.2592687   -6111.0894   -118372.64    52866.981     47172.39   -4502.7802   -9877.8544   -3734.4422    77.268969 
   88600    2787.2598   -161.21832    2.5219712   -158.69635    11860.738    4.2551927    4.2551927    4.2551927    11860.738    33988.192    5853.4549   -4259.4315    14531.836   -13884.936   -1467.9554    77.047348 
   88700    1212.4886   -159.78572    1.0970851   -158.68864   -3578.7515     4.241313     4.241313     4.241313   -3578.7515   -97017.563    51367.528    34913.781    -6348.255    2118.9203   -323.16414    76.295858 
   88800    722.00032    -159.3488   0.65328106   -158.69552   -4038.5065     4.239435     4.239435     4.239435   -4038.5065   -136571.16    62495.735    61959.908    11640.568    946.55318    3826.6844    76.194553 
   88900    2716.1921   -161.16859    2.4576677   -158.71093    20458.508    4.2524484    4.2524484    4.2524484    20458.508    45057.517    9969.8774    6348.1312   -9975.2854   -2939.5652    12218.885    76.898372 
   89000    1976.6841   -160.48525    1.7885453    -158.6967   -14278.514    4.2621821    4.2621821    4.2621821   -14278.514   -63033.145    26102.989   -5905.3852   -8731.4943     401.3238      8759.22    77.427636 
   89100     635.2868   -159.25741   0.57482084   -158.68259   -20642.321    4.2537922    4.2537922    4.2537922   -20642.321   -169541.89    69473.597    38141.336     8211.696   -15642.113     6509.556    76.971296 
   89200    2628.7154   -161.06768    2.3785169   -158.68916    22845.719    4.2401388    4.2401388    4.2401388    22845.719    29280.512    10712.749    28543.897    352.63062   -11329.198    7934.1031    76.232513 
   89300     2911.195   -161.32804    2.6341104   -158.69393    13362.537    4.2417586    4.2417586    4.2417586    13362.537    37604.331   -13880.809    16364.088    9265.6921   -4882.5438    -2409.407    76.319907 
   89400    1022.9824   -159.61701   0.92561599    -158.6914   -31696.405    4.2531175    4.2531175    4.2531175   -31696.405   -154746.22    30610.138    29046.863   -1301.9385    156.45805   -4023.0069    76.934678 
   89500    2127.3913   -160.61133    1.9249084   -158.68642   -23991.894    4.2592185    4.2592185    4.2592185   -23991.894   -75464.374    21032.196   -17543.503   -10082.294    13501.071    2014.8936    77.266236 
   89600    3233.7486   -161.60878    2.9259637   -158.68282    3422.4661    4.2547029    4.2547029    4.2547029    3422.4661    49848.898    -10880.12   -28701.379    13000.921   -2289.5231   -5780.2461    77.020746 
   89700    1308.0862   -159.86346    1.1835839   -158.67988   -27495.504    4.2477275    4.2477275    4.2477275   -27495.504   -153000.98    32029.887    38484.581   -14278.394   -15827.639   -4782.8768    76.642549 
   89800    1655.6573   -160.18217    1.4980735    -158.6841   -16609.145    4.2456824    4.2456824    4.2456824   -16609.145   -83918.046    26166.484    7924.1261   -4777.2192     3515.034   -4408.2892    76.531905 
   89900    3108.0705   -161.50526    2.8122475   -158.69301    23610.159    4.2483544    4.2483544    4.2483544    23610.159    77472.742    -2245.107   -4397.1597     16948.88   -8471.2566   -12270.195    76.676491 
   90000    1586.9754   -160.12779    1.4359287   -158.69186    5346.1856    4.2537642    4.2537642    4.2537642    5346.1856   -79571.796    43284.855    52325.498     2926.131    2466.5001   -9160.0593     76.96978 
   90100    1102.9926   -159.68565   0.99801091   -158.68764   -21465.456     4.260466     4.260466     4.260466   -21465.456   -129470.78    35209.349    29865.062    6322.1964    13402.494   -13519.121    77.334151 
   90200    2812.7099   -161.23142     2.544999   -158.68642   -2076.0209    4.2587575    4.2587575    4.2587575   -2076.0209    47035.864   -2361.9626   -50901.964   -3830.8483   -13679.807   -7438.1254    77.241149 
   90300    2119.7765   -160.59937    1.9180183   -158.68135    15137.698    4.2440244    4.2440244    4.2440244    15137.698   -914.20328    34697.551    11629.748    286.53253    12005.519    4656.7195    76.442277 
   90400    935.12977   -159.52738   0.84612507   -158.68125    2156.5685    4.2378586    4.2378586    4.2378586    2156.5685   -136821.36    76292.139    66998.923    7082.6735   -1116.7166    1782.0927    76.109589 
   90500    2153.4964   -160.65145    1.9485288   -158.70292    6887.2723    4.2520684    4.2520684    4.2520684    6887.2723   -11420.884    25745.015    6337.6866   -12323.154    -5819.059    11510.622    76.877762 
   90600    2697.7841   -161.13445    2.4410118   -158.69344   -21751.709    4.2704677    4.2704677    4.2704677   -21751.709    2625.2213   -23818.864   -44061.484    5919.9198    35432.393    6199.8301    77.880067 
   90700    1232.8417   -159.79342    1.1155011   -158.67792    -34687.43    4.2625247    4.2625247    4.2625247    -34687.43   -143057.79    16784.441    22211.059    11016.204    -3416.695    2230.5763     77.44631 
   90800    2127.3415   -160.59665    1.9248633   -158.67178    1935.4696    4.2420464    4.2420464    4.2420464    1935.4696   -22394.089    26000.219    2200.2789   -3297.8651    -2946.615    7835.2534    76.335447 
   90900    2867.3378   -161.27923    2.5944275    -158.6848    18554.695     4.238918     4.238918     4.238918    18554.695    63366.393     19453.92   -27156.229    7495.9062    6156.0069    9805.9159    76.166682 
   91000    1651.6145   -160.19121    1.4944155   -158.69679   -8817.8965    4.2529867    4.2529867    4.2529867   -8817.8965   -98461.627    46259.617    25748.321   -15386.029   -11292.226    15393.484    76.927579 
   91100    1656.9033   -160.18925    1.4992009   -158.69005   -19185.644    4.2644832    4.2644832    4.2644832   -19185.644   -118505.31    15581.842    45366.536   -6698.6677   -401.07623    6271.8425    77.553112 
   91200    2827.0028   -161.23972    2.5579316   -158.68178   -17836.198     4.260171     4.260171     4.260171   -17836.198    29170.781   -45940.973   -36738.403    10497.247    7246.0042   -1510.7329    77.318083 
   91300    1794.2658    -160.2993    1.6234894   -158.67581   -6312.3046    4.2450961    4.2450961    4.2450961   -6312.3046   -26817.048    14597.695   -6717.5605   -1757.8825   -3241.4783   -1009.5738    76.500202 
   91400    1370.8065   -159.92183    1.2403345    -158.6815    5682.2718    4.2389692    4.2389692    4.2389692    5682.2718   -100555.12     65519.25    52082.684   -5113.5023    16266.428   -3624.0589    76.169443 
   91500    2287.5154   -160.77064     2.069792   -158.70084    26484.973    4.2467467    4.2467467    4.2467467    26484.973    34075.523    37159.457    8219.9396   -4096.8965    9974.1241    6983.2397    76.589469 
   91600    1966.4113   -160.47602    1.7792503   -158.69677   -3926.8155     4.259521     4.259521     4.259521   -3926.8155    17974.254    1853.7317   -31608.432   -18249.187    13843.931   -288.50486    77.282702 
   91700    1029.8827   -159.61572   0.93185953   -158.68387   -22017.587    4.2613292    4.2613292    4.2613292   -22017.587   -132423.29    28871.141    37499.383    4165.2073     15406.34   -9615.9139    77.381163 
   91800    2387.6618   -160.84005    2.1604066   -158.67964   -11183.601    4.2550432    4.2550432    4.2550432   -11183.601   -25851.366   -7078.3824   -621.05413    10161.272    4118.2221   -5055.8976    77.039226 
   91900     2837.311    -161.2489    2.5672586   -158.68164     14826.81    4.2448114    4.2448114    4.2448114     14826.81    98986.357   -1444.0909   -53061.836   -7269.7081    8105.7283    -5632.631    76.484813 
   92000    1229.6782   -159.79816    1.1126387   -158.68552     3614.593    4.2436018    4.2436018    4.2436018     3614.593   -30054.849    45072.725   -4174.0975   -212.78412   -5946.7146   -2610.5288    76.419447 
   92100    1705.0074   -160.23751    1.5427266   -158.69479   -8575.9315    4.2533203    4.2533203    4.2533203   -8575.9315   -63084.919    34872.496    2484.6284   -5593.6056   -7866.5493    3998.4766    76.945684 
   92200    3401.2053   -161.77123     3.077482   -158.69375   -10065.998     4.263417     4.263417     4.263417   -10065.998    55543.359   -31196.067   -54545.286   -12840.513   -8329.5161   -7220.6647    77.494954 
   92300    1868.7129   -160.37294    1.6908507   -158.68209    -39874.77    4.2650591    4.2650591    4.2650591    -39874.77   -84014.255   -10216.182   -25393.872    14716.369    512.47098   -807.64258    77.584537 
   92400    1086.5467   -159.65549    0.9831303   -158.67236   -33998.922    4.2584563    4.2584563    4.2584563   -33998.922   -142829.73    34749.712    6083.2533    6643.6075    9882.4054    6608.5538    77.224765 
   92500    2956.6083    -161.3583    2.6752014    -158.6831    24343.603    4.2481769    4.2481769    4.2481769    24343.603    73045.669    15364.546   -15379.405   -27114.397    6664.2583   -7939.0072    76.666876 
   92600    2176.9057   -160.66167      1.96971   -158.69196    26172.464     4.243127     4.243127     4.243127    26172.464    38161.471    37219.995    3135.9266   -7402.5797   -7693.7942    -1853.286    76.393795 
   92700    614.83425   -159.25089   0.55631495   -158.69458   -12156.899    4.2493832    4.2493832    4.2493832   -12156.899   -114588.95    54437.588    23680.661   -9304.8302    2796.5149   -1565.2889    76.732209 
   92800    2383.6245   -160.85438    2.1567536   -158.69763   -14150.761     4.261368     4.261368     4.261368   -14150.761   -29170.221    8498.2953   -21780.357   -10800.452    6579.1946    1797.2459    77.383277 
   92900    3052.6829   -161.45214    2.7621316   -158.69001   -10305.143    4.2652819    4.2652819    4.2652819   -10305.143   -1312.8403   -7713.5909   -21888.997    10272.385   -1315.1542    1179.1986    77.596694 
   93000    981.24201   -159.56624   0.88784839   -158.67839    -26840.03    4.2556101    4.2556101    4.2556101    -26840.03      -123257    41050.019    1686.8936    3907.8601    3317.6087   -9579.9214    77.070025 
   93100    1566.4064   -160.09698    1.4173174   -158.67966    12017.234    4.2437463    4.2437463    4.2437463    12017.234    6576.7292    40821.979   -11347.008   -10116.135   -3099.6336    2768.3363    76.427249 
   93200    3055.8834   -161.45737    2.7650275   -158.69235    31164.076    4.2437378    4.2437378    4.2437378    31164.076    85200.608    20488.985   -12197.364    13778.578   -717.49451    4784.1592    76.426793 
   93300    1624.3161   -160.16524    1.4697153   -158.69552   -1134.7192    4.2547752    4.2547752    4.2547752   -1134.7192   -84948.428     58846.56    22697.711   -3345.3182   -3533.9523    173.64473    77.024672 
   93400     1253.261   -159.82154    1.1339769   -158.68756   -25926.334    4.2637084    4.2637084    4.2637084   -25926.334   -107219.03    28955.201    484.82938    10149.633   -7910.7396    5163.0269    77.510849 
   93500    2783.7806   -161.20085    2.5188232   -158.68203    1850.1419    4.2609268    4.2609268    4.2609268    1850.1419    68393.275   -42136.143   -20706.707    22067.148     3144.838    -4824.317    77.359244 
   93600    1756.2652   -160.27054    1.5891057   -158.68144    11399.579    4.2509836    4.2509836    4.2509836    11399.579   -24364.509    15282.136     43281.11   -9.0123809    149.21905    5680.1736    76.818938 
   93700    976.55747   -159.57139   0.88360972   -158.68778   -6802.7977    4.2481655    4.2481655    4.2481655   -6802.7977   -98772.573    48066.261    30297.919    9766.4598   -7905.4445      3274.79     76.66626 
   93800    2378.3977   -160.84917    2.1520243   -158.69714    8712.4889    4.2500424    4.2500424    4.2500424    8712.4889    52814.675    7761.2739   -34438.482    17331.382   -17783.283   -4626.5984     76.76792 
   93900    2130.3536   -160.61846    1.9275887   -158.69087    2220.8124    4.2529494    4.2529494    4.2529494    2220.8124   -1024.2926    10244.516   -2557.7866   -805.64474   -7520.3391   -4122.8451    76.925554 
   94000    969.12161   -159.56294    0.8768816   -158.68606   -22618.632    4.2580352    4.2580352    4.2580352   -22618.632   -141144.23    42038.366    31249.968    20665.664    7349.6143   -9277.6803    77.201856 
   94100    2324.2545   -160.78727    2.1030344   -158.68423   -8742.1326    4.2583629    4.2583629    4.2583629   -8742.1326    24892.791   -12042.035   -39077.154    16030.036    2753.5658    2682.5497    77.219683 
   94200     2417.276   -160.86857    2.1872021   -158.68137    4901.7654     4.248838     4.248838     4.248838    4901.7654    54646.498   -10363.472    -29577.73   -2793.5227    7751.5177    -620.3929    76.702678 
   94300    985.20916    -159.5737   0.89143795   -158.68226   -4821.1695    4.2413433    4.2413433    4.2413433   -4821.1695   -124311.99    63696.676    46151.804    1858.2367    5999.9544   -12598.567    76.297496 
   94400    1994.4527    -160.5028    1.8046227   -158.69818   -1204.8307    4.2504209    4.2504209    4.2504209   -1204.8307   -71806.401    59408.007    8783.9021    4924.1742   -1080.0711   -7584.2272    76.788437 
   94500    2787.5252    -161.2201    2.5222114   -158.69788    3635.0491    4.2616246    4.2616246    4.2616246    3635.0491    41571.681    20950.624   -51617.158   -9344.1806    18699.283   -4645.2231    77.397258 
   94600    1165.3873   -159.73458    1.0544669   -158.68011   -22409.628    4.2591585    4.2591585    4.2591585   -22409.628   -111070.11    30286.707    13554.516    5322.8644   -3383.5442    8073.5832    77.262972 
   94700    1643.5156   -160.16659    1.4870874   -158.67951     13.92649    4.2489021    4.2489021    4.2489021     13.92649   -83437.645    45986.243    37493.182   -1179.4245   -5659.0071    11058.952    76.706148 
   94800    3374.6149   -161.74394    3.0534225   -158.69051    8048.0592     4.249907     4.249907     4.249907    8048.0592    52029.752   -456.34164   -27429.233   -16093.019    5614.0692    4643.8011    76.760584 
   94900    2030.3177   -160.52863    1.8370741   -158.69155   -22041.227    4.2532102    4.2532102    4.2532102   -22041.227   -46572.692    836.00828   -20386.996    2288.2492   -6909.6036    1561.2198    76.939711 
   95000    944.52636   -159.54235    0.8546273   -158.68773   -23234.464    4.2536046    4.2536046    4.2536046   -23234.464   -113142.41    13129.851    30309.167   -5288.4603   -2546.5321     7999.157    76.961116 
   95100    2853.6941   -161.27626    2.5820824   -158.69418     11461.92    4.2521305    4.2521305    4.2521305     11461.92    62382.997   -3153.7024   -24843.536    4299.6232   -13485.831    7829.1686    76.881132 
   95200    2380.8242   -160.84967    2.1542198   -158.69545    3423.0747     4.254737     4.254737     4.254737    3423.0747    1566.0923    48029.666   -39326.534    15308.666    1668.5543    1564.7329    77.022596 
   95300    714.68266   -159.33515   0.64665989   -158.68849    -20540.99    4.2553368    4.2553368    4.2553368    -20540.99      -142142     76207.76    4311.2685   -6548.3601    7695.2024    2560.5997    77.055177 
   95400    2146.2418   -160.62971    1.9419647   -158.68774   -5287.5709    4.2505946    4.2505946    4.2505946   -5287.5709    -5366.059    6508.1361    -17004.79   -5959.6635    3616.8088   -3.3619436    76.797851 
   95500    2714.8587   -161.14736    2.4564612    -158.6909    10028.285    4.2459314    4.2459314    4.2459314    10028.285     56985.47    3025.8637   -29926.479   -1897.5751    14068.965    8201.6182    76.545368 
   95600    959.22142   -159.56239   0.86792369   -158.69447   -11111.594    4.2523381    4.2523381    4.2523381   -11111.594    -84077.76     37649.92    13093.058   -908.42817    3431.5192   -3667.8904    76.892389 
   95700    1480.8556   -160.03699    1.3399092   -158.69708   -1743.9235    4.2613002    4.2613002    4.2613002   -1743.9235    34685.191   -23372.955   -16544.007    10408.932    3885.8917   -3383.3145    77.379583 
   95800    2482.8842   -160.94361    2.2465658   -158.69704    21116.221    4.2596501    4.2596501    4.2596501    21116.221    131837.29   -35059.509   -33429.124    31928.822   -13692.565    738.77403    77.289728 
   95900    1085.5381   -159.66828    0.9822177   -158.68607    5922.0562    4.2524143    4.2524143    4.2524143    5922.0562   -43555.596    49281.376    12040.389   -5.4719787   -3203.6663   -1616.3151    76.896523 
   96000    1498.0731    -160.0367     1.355488   -158.68121   -18600.775      4.25172      4.25172      4.25172   -18600.775   -59999.369    7300.1061   -3103.0624    1377.7251    14396.425   -5841.6099    76.858867 
   96100    2911.1799   -161.32091    2.6340967   -158.68681    -1848.339    4.2545628    4.2545628    4.2545628    -1848.339    67241.436   -58286.639   -14499.814    3387.3542    5233.3138     256.9269    77.013137 
   96200    1725.0229   -160.24632     1.560837   -158.68548   -2203.9065    4.2551631    4.2551631    4.2551631   -2203.9065   -48155.925    32550.462     8993.743   -3534.7285   -2513.4234    9947.0747    77.045742 
   96300    1295.7055   -159.85236    1.1723816   -158.67998   -12955.536    4.2571082    4.2571082    4.2571082   -12955.536   -109100.07    81921.006   -11687.541    4212.6932   -2549.3998    491.93893    77.151444 
   96400    2670.1654   -161.10201    2.4160218   -158.68599    18315.664    4.2554859    4.2554859    4.2554859    18315.664    63733.234    16765.607   -25551.848    10302.891    4673.3575    -8701.106    77.063275 
   96500    2161.1646   -160.63315    1.9554671   -158.67768   -16093.716    4.2539057    4.2539057    4.2539057   -16093.716   -42075.933    7025.3557    -13230.57   -14976.205   -6491.0314    4881.3552    76.977462 
   96600    1452.8862   -159.98966     1.314602   -158.67506   -27569.007    4.2499024    4.2499024    4.2499024   -27569.007    -147060.4    52959.134     11394.25   -14186.774   -4286.3929    2258.3185    76.760336 
   96700    2555.3418   -160.99457     2.312127   -158.68244    12972.233    4.2513899    4.2513899    4.2513899    12972.233     49058.71   -10187.456    45.444829     4114.038    8107.5146    373.58092    76.840967 
   96800    2049.6008     -160.543    1.8545218   -158.68848    9847.2076    4.2588117    4.2588117    4.2588117    9847.2076    81776.559   -46023.439   -6211.4972    5455.5097    3531.2799   -869.25785    77.244097 
   96900    804.62708   -159.41546   0.72804349   -158.68742   -13404.619    4.2626988    4.2626988    4.2626988   -13404.619   -88994.903    33420.017     15361.03    21866.202   -10479.661    30.877797    77.455797 
   97000    2110.7162   -160.59512    1.9098204    -158.6853    11990.655    4.2564027    4.2564027    4.2564027    11990.655     20545.24    19402.601   -3975.8766    19862.514   -188.62027    4484.5431    77.113095 
   97100    2623.9568   -161.04676    2.3742112   -158.67255   -7944.2938    4.2505203    4.2505203    4.2505203   -7944.2938     38967.62   -38382.367   -24418.134   -6969.6948   -2790.5905   -5527.3724    76.793822 
   97200    983.77484   -159.56325   0.89014015   -158.67311   -20741.622    4.2502151    4.2502151    4.2502151   -20741.622   -116587.57    18894.973    35467.736    -4380.645    4651.6191    3150.6038     76.77728 
   97300    1785.1832   -160.29808    1.6152713   -158.68281    5958.0769    4.2585153    4.2585153    4.2585153    5958.0769   -45374.069    65158.755    -1910.455    14204.437    11242.807      8405.59    77.227972 
   97400    2868.8867   -161.27979     2.595829   -158.68396    13220.159    4.2628515    4.2628515    4.2628515    13220.159    85437.996    12890.525   -58668.046    2582.7647    342.55131   -2764.8971    77.464125 
   97500    1232.6097   -159.78685    1.1152911   -158.67155   -27891.462    4.2595565    4.2595565    4.2595565   -27891.462   -94829.681    4624.0913    6531.2032    117.21136     6988.727   -2502.6399    77.284633 
   97600    1530.3957   -160.06282    1.3847342   -158.67809   -18686.528    4.2516065    4.2516065    4.2516065   -18686.528   -96752.867    3934.0413    36759.241   -2947.6027    -2268.858   -4289.9744     76.85271 
   97700    3470.8554   -161.83032    3.1405029   -158.68982    6310.5386    4.2503489    4.2503489    4.2503489    6310.5386    55930.474   -21174.027   -15824.831   -5339.5891   -6250.7798    8414.7742    76.784531 
   97800      1983.85   -160.48836    1.7950292   -158.69333    7201.5419    4.2534542    4.2534542    4.2534542    7201.5419   -19055.192    28108.493    12551.325    8011.6986    11375.059     1061.356    76.952951 
   97900    728.62554    -159.3487    0.6592757   -158.68942   -14693.326    4.2607019    4.2607019    4.2607019   -14693.326   -110334.82     30286.44    35968.404    1133.1655   -5356.4581   -5161.0041    77.346998 
   98000      2590.56   -161.03348    2.3439932   -158.68949   -1318.4228    4.2614819    4.2614819    4.2614819   -1318.4228    28203.621   -7040.4288    -25118.46   -1751.7783     6902.969   -6710.8759    77.389481 
   98100    2607.2756   -161.04159    2.3591178   -158.68247    -6473.892    4.2518745    4.2518745    4.2518745    -6473.892   -18653.738    18468.958   -19236.895    515.52979   -17731.975   -7.9465028    76.867242 
   98200    971.11306   -159.55693   0.87868351   -158.67825    -21026.23    4.2468152    4.2468152    4.2468152    -21026.23   -132194.17     27796.21    41319.271    5566.0365   -6474.6529    1918.4709    76.593178 
   98300    1899.0516   -160.40725    1.7183018   -158.68895    3391.4143    4.2539778    4.2539778    4.2539778    3391.4143     22006.57   -24050.136     12217.81    14433.812    19953.518   -8662.6539    76.981374 
   98400    2608.5619   -161.05143    2.3602816   -158.69114    23088.966    4.2618515    4.2618515    4.2618515    23088.966    79858.097    18803.755   -29394.955    27889.117   -3313.9644   -2443.2098    77.409621 
   98500    1075.6055   -159.65174    0.9732305   -158.67851   -11298.619    4.2619967    4.2619967    4.2619967   -11298.619   -115142.96    74457.406    6789.6959    9252.7161     2059.972    3751.9426    77.417533 
   98600    1676.9013   -160.19378    1.5172955   -158.67649   -12947.152    4.2560507    4.2560507    4.2560507   -12947.152   -53456.143    -9963.252    24577.939   -1538.2998   -517.74664    2557.6719    77.093965 
   98700    3020.4619   -161.41338    2.7329774    -158.6804   -2179.1834     4.251524     4.251524     4.251524   -2179.1834    49182.271   -52189.339   -3530.4824   -1039.6967   -8621.8863    1664.3307    76.848237 
   98800    1679.0163   -160.20295    1.5192092   -158.68374   -17623.682    4.2520624    4.2520624    4.2520624   -17623.682   -83385.047    26807.382    3706.6192    919.91674    17269.741    2564.2066    76.877437 
   98900    1100.8558    -159.6836   0.99607746   -158.68752   -4282.6336    4.2564111    4.2564111    4.2564111   -4282.6336   -37672.695    15253.952    9570.8431    14166.258   -6602.3122    7649.5408     77.11355 
   99000    2582.6662   -161.02794    2.3368506   -158.69109     10593.35     4.264724     4.264724     4.264724     10593.35    111332.97   -44341.065   -35211.855    7692.2686    5880.3814     7817.367    77.566248 
   99100    2156.5837   -160.62534    1.9513223   -158.67401   -36393.363    4.2683108    4.2683108    4.2683108   -36393.363   -78448.287   -5255.1327   -25476.668   -6485.6829   -1101.2283   -5612.7016    77.762124 
   99200    1481.7352   -160.00378    1.3407052   -158.66308   -36695.632     4.255408     4.255408     4.255408   -36695.632    -137822.1    6731.5108    21003.698   -3649.6642   -8740.8853   -2356.7654    77.059047 
   99300    2331.8018   -160.78032    2.1098632   -158.67046    22446.624    4.2429442    4.2429442    4.2429442    22446.624    80903.156   -43438.158    29874.873    -6722.426    4819.0135     5554.702    76.383923 
   99400    2157.7845   -160.63895    1.9524088   -158.68654     22620.06    4.2490143    4.2490143    4.2490143     22620.06    49077.545    14207.877    4574.7571    13847.785   -7187.9854   -2654.8579    76.712227 
   99500    1349.4263    -159.9087    1.2209892   -158.68771   -13952.317    4.2623844    4.2623844    4.2623844   -13952.317    -108468.5    61550.431    5061.1225    20687.767    11852.123    -2530.063    77.438662 
   99600    1841.1047   -160.34735    1.6658702   -158.68148   -12421.332    4.2630436    4.2630436    4.2630436   -12421.332    5373.9319   -63152.271    20514.344    3282.0919    14057.237   -6325.0699    77.474594 
   99700    2314.2274   -160.76924    2.0939616   -158.67528    4369.0291    4.2538245    4.2538245    4.2538245    4369.0291    44229.024   -52712.821    21590.884    17691.735   -12938.676   -4441.2387    76.973053 
   99800    1614.8602   -160.13799    1.4611594   -158.67683   -101.43062    4.2459618    4.2459618    4.2459618   -101.43062   -90153.579    57782.457     32066.83    5594.1351   -9653.5418    12679.785    76.547013 
   99900    1955.9576   -160.45233    1.7697915   -158.68254   -3257.1077    4.2433066    4.2433066    4.2433066   -3257.1077   -31845.121    18912.323    3161.4743   -1157.9909   -6309.3751     5411.114    76.403497 
  100000    2454.9152   -160.91207    2.2212588   -158.69081    8293.0713    4.2501745    4.2501745    4.2501745    8293.0713    77005.841   -57424.362    5297.7342    130.51581    2603.5245   -430.85486    76.775081 
Loop time of 59.8885 on 1 procs for 100000 steps with 8 atoms

Pair  time (%) = 20.4469 (34.1417)
Kspce time (%) = 14.143 (23.6155)
Neigh time (%) = 0.268651 (0.448585)
Comm  time (%) = 2.95777 (4.93879)
Outpt time (%) = 0.302454 (0.50503)
Other time (%) = 21.7697 (36.3504)

Nlocal:    8 ave 8 max 8 min
Histogram: 1 0 0 0 0 0 0 0 0 0
Nghost:    2189 ave 2189 max 2189 min
Histogram: 1 0 0 0 0 0 0 0 0 0
Neighs:    2361 ave 2361 max 2361 min
Histogram: 1 0 0 0 0 0 0 0 0 0

Total # of neighbors = 2361
Ave neighs/atom = 295.125
Neighbor list builds = 1440
Dangerous builds = 0
unfix 20
unfix 21
print "seeds:7161578"
seeds:7161578
