LAMMPS (10 Feb 2015)
# ---- initialize simulations
clear
units metal
dimension 3
boundary p p p
atom_style charge
atom_modify map array
# ---- create atoms
read_data /Users/eugeneragasa/pyflamestk_git/pypospack/tests/tests_integration/workflow/WorkflowLammpsThermalExpansion/MgO_NaCl_unit.npt.T2000/lammps.structure
  triclinic box = (0 0 0) to (4.2565 4.2565 4.2565) with tilt (0 0 0)
  1 by 1 by 1 MPI processor grid
  reading atoms ...
  8 atoms
# ---- define interatomic potential
include potential.mod
mass 1 24.305
mass 2 15.999

group Mg type 1
4 atoms in group Mg
group O type 2
4 atoms in group O

set group Mg charge 2.0
  4 settings made for charge
set group O charge -2.0
  4 settings made for charge

variable R_cut equal 10.0

pair_style buck/coul/long ${R_cut}
pair_style buck/coul/long 10
pair_coeff 1 1 0.0 0.5 0.0 ${R_cut}
pair_coeff 1 1 0.0 0.5 0.0 10
pair_coeff 1 2 1279.69 0.29969 0.0 ${R_cut}
pair_coeff 1 2 1279.69 0.29969 0.0 10
pair_coeff 2 2 9547.96 0.21916 32.0 ${R_cut}
pair_coeff 2 2 9547.96 0.21916 32.0 10

kspace_style pppm 1.0e-5

neighbor 1.0 bin
neigh_modify every 1 delay 0 check yes
# ---- define settings
compute eng all pe/atom
compute eatoms all reduce sum c_eng
# ---- run minimization
reset_timestep 0
fix 1 all box/relax iso 0.0 vmax 0.001
thermo 10
thermo_style custom step pe lx ly lz xy xz yz press pxx pyy pzz pxy pxz pyz c_eatoms
min_style cg
minimize 1e-25 1e-25 5000 10000
PPPM initialization ...
  G vector (1/distance) = 0.354854
  grid = 8 8 8
  stencil order = 5
  estimated absolute RMS force accuracy = 5.34408e-05
  estimated relative force accuracy = 3.71126e-06
  using double precision FFTs
  3d grid and FFT values/proc = 3375 512
Neighbor list info ...
  1 neighbor list requests
  update every 1 steps, delay 0 steps, check yes
  master list distance cutoff = 11
Memory usage per processor = 4.06549 Mbytes
Step PotEng Lx Ly Lz Xy Xz Yz Press Pxx Pyy Pzz Pxy Pxz Pyz eatoms 
       0    -164.6599       4.2565       4.2565       4.2565            0            0            0   -75586.685   -75586.685   -75586.685   -75586.685 9.4798587e-11 1.6226154e-10 -3.4446142e-11    -164.6599 
      10   -164.72135     4.213935     4.213935     4.213935            0            0            0   -8637.4527   -8637.4527   -8637.4527   -8637.4527 -1.5549588e-10 2.0227431e-10 -1.1495762e-10   -164.72135 
      15   -164.72214      4.20883      4.20883      4.20883            0            0            0    5.5876567    5.5876567    5.5876567    5.5876567 2.0554645e-10 4.244052e-10 1.3955449e-10   -164.72214 
Loop time of 0.024812 on 1 procs for 15 steps with 8 atoms

Minimization stats:
  Stopping criterion = linesearch alpha is zero
  Energy initial, next-to-last, final = 
        -164.659901251     -164.722138416     -164.722138416
  Force two-norm initial, final = 10.9148 0.000791362
  Force max component initial, final = 10.9148 0.000788889
  Final line search alpha, max atom move = 0.015625 1.23264e-05
  Iterations, force evaluations = 15 55

Pair  time (%) = 0.00695491 (28.0304)
Kspce time (%) = 0.00390005 (15.7184)
Neigh time (%) = 0 (0)
Comm  time (%) = 0.000746012 (3.00666)
Outpt time (%) = 1.90735e-05 (0.0768721)
Other time (%) = 0.0131919 (53.1676)

Nlocal:    8 ave 8 max 8 min
Histogram: 1 0 0 0 0 0 0 0 0 0
Nghost:    2189 ave 2189 max 2189 min
Histogram: 1 0 0 0 0 0 0 0 0 0
Neighs:    2344 ave 2344 max 2344 min
Histogram: 1 0 0 0 0 0 0 0 0 0

Total # of neighbors = 2344
Ave neighs/atom = 293
Neighbor list builds = 0
Dangerous builds = 0
unfix 1
# ---- define output variables ----
variable natoms equal "count(all)"
variable tot_energy equal "c_eatoms"
variable length_x equal "lx"
variable length_y equal "ly"
variable length_z equal "lz"
variable tilt_xy equal "xy"
variable tilt_xz equal "xz"
variable tilt_yz equal "yz"
variable tot_press equal "press"
variable press_xx equal "pxx"
variable press_yy equal "pyy"
variable press_zz equal "pzz"
variable press_xy equal "pxy"
variable press_xz equal "pxz"
variable press_yz equal "pyz"

# ---- output ----
print "pypospack:output_section:begin"
pypospack:output_section:begin
print "tot_energy = ${tot_energy}"
tot_energy = -164.722138415744
print "num_atoms = ${natoms}"
num_atoms = 8
print "xx = ${length_x}"
xx = 4.20883001371435
print "yy = ${length_y}"
yy = 4.20883001371435
print "zz = ${length_z}"
zz = 4.20883001371435
print "xy = ${tilt_xy}"
xy = 0
print "xz = ${tilt_xz}"
xz = 0
print "yz = ${tilt_yz}"
yz = 0
print "tot_press = ${tot_press}"
tot_press = 5.58765665687492
print "pxx = ${press_xx}"
pxx = 5.58765665651822
print "pyy = ${press_yy}"
pyy = 5.58765665647238
print "pzz = ${press_zz}"
pzz = 5.58765665763416
print "pxy = ${press_xy}"
pxy = 2.0554645346851e-10
print "pxz = ${press_xz}"
pxz = 4.24405202668874e-10
print "pyz = ${press_yz}"
pyz = 1.39554488680613e-10
print "pypospack:output_section:done"
pypospack:output_section:done
print "pypospack:lammps_sim:done"
pypospack:lammps_sim:done
#------------------------------------------------------------------------------
# RUN THERMOSTAT
# running using an NPT Nose-Hoover style thermostat
#------------------------------------------------------------------------------
variable tempdamp equal 0.1
variable pressdamp equal 1.0
# set initial velocities
velocity all create 2000 3561305 mom yes dist gaussian loop all
# fix for Nose-Hoover style thermostat
fix 20 all npt temp 2000 2000 0.1 aniso 0.0 0.0 1.0 drag 1.0 couple xyz
variable boxx equal lx
variable boxy equal ly
variable boxz equal lz
variable boxp equal press
variable boxt equal temp
# calculate averages every 10000 steps
reset_timestep 0
fix 21 all ave/time 10 10 100 v_boxx v_boxy v_boxz v_boxp v_boxt file lattice.out
thermo_style custom step temp pe ke etotal press lx ly lz press pxx pyy pzz pxy pxz pyz vol
thermo_modify flush yes
thermo 100
run 100000
PPPM initialization ...
  G vector (1/distance) = 0.355405
  grid = 8 8 8
  stencil order = 5
  estimated absolute RMS force accuracy = 5.20839e-05
  estimated relative force accuracy = 3.61703e-06
  using double precision FFTs
  3d grid and FFT values/proc = 3375 512
Memory usage per processor = 3.06549 Mbytes
Step Temp PotEng KinEng TotEng Press Lx Ly Lz Press Pxx Pyy Pzz Pxy Pxz Pyz Volume 
       0         2000   -164.72213     1.809642   -162.91249    25932.016      4.20883      4.20883      4.20883    25932.016    30055.458    20805.538    26935.052    -7792.569   -12418.214    15163.829    74.556267 
     100    1645.4218   -164.14828    1.4888123   -162.65947    17182.023    4.2368818    4.2368818    4.2368818    17182.023    50979.905    -9228.135    9794.2996   -7908.1601    19673.349   -1841.6014    76.056975 
     200    1614.4529   -163.64592    1.4607909   -162.18512   -19298.753    4.2734208    4.2734208    4.2734208   -19298.753   -23686.987     -55825.7    21616.429   -19218.405    7968.7443   -6143.2077    78.041748 
     300    2158.7643   -163.68476    1.9532953   -161.73146   -20458.231    4.2805214    4.2805214    4.2805214   -20458.231   -34255.169   -45725.765     18606.24   -16011.665   -3585.6427     25193.43    78.431407 
     400    3042.0581   -164.13325    2.7525181   -161.38073   -23525.378    4.2622772    4.2622772    4.2622772   -23525.378   -3442.7149   -25748.451   -41384.968    -37610.54   -6287.5618    18492.888    77.432821 
     500     2536.371   -163.43689    2.2949617   -161.14192    61770.422     4.244934     4.244934     4.244934    61770.422    38995.161    70706.034    75610.073   -18211.445     14511.29    6753.7865    76.491436 
     600    2560.5218   -163.38381    2.3168139     -161.067    4089.7929    4.2700523    4.2700523    4.2700523    4089.7929   -4685.5102   -22288.564    39243.453   -12789.064    7972.2666    13345.902    77.857346 
     700    2329.4072   -163.12844    2.1076966   -161.02074   -37122.546    4.2998877    4.2998877    4.2998877   -37122.546   -69531.579   -41987.754    151.69515   -26.944997    5318.9626   -12193.357    79.500771 
     800    2492.3983   -163.26579    2.2551744   -161.01062    6352.6745    4.2698619    4.2698619    4.2698619    6352.6745    29061.091    11083.873    -21086.94   -3680.5977   -4428.6776    2956.2406    77.846927 
     900    2396.2364   -163.15048     2.168165   -160.98232    56613.217    4.2304253    4.2304253    4.2304253    56613.217    67372.079     46100.27    56367.303   -7120.1433    22958.606   -9986.1578    75.709798 
    1000    2114.0836   -162.97905    1.9128672   -161.06619   -1106.2242    4.2623488    4.2623488    4.2623488   -1106.2242   -35642.551    12220.204    20103.675    -4685.622   -2295.7515    834.59617     77.43672 
    1100    2000.7806   -162.85311    1.8103484   -161.04276   -36520.054     4.286752     4.286752     4.286752   -36520.054   -48155.715    13636.083   -75040.528   -18889.789   -15397.662    23280.645    78.774396 
    1200    2061.2242   -162.88494     1.865039    -161.0199   -14567.899     4.283065     4.283065     4.283065   -14567.899   -44734.673   -11616.993    12647.969   -18231.262    17657.732   -22087.986    78.571308 
    1300    2296.2658    -163.0903    2.0777095   -161.01259   -36743.622    4.2672656    4.2672656    4.2672656   -36743.622   -43089.746   -6586.1599   -60554.959   -12499.447   -34236.423    13123.727    77.705011 
    1400    2061.2957   -162.88351    1.8651036    -161.0184    24305.542    4.2315969    4.2315969    4.2315969    24305.542     12268.06    74470.694   -13822.127    -7116.826   -12537.566    16433.391    75.772719 
    1500    2120.6345   -163.00129    1.9187947   -161.08249    32099.123     4.247504     4.247504     4.247504    32099.123    393.83596    45975.981    49927.551   -9636.7532   -54984.844    8147.8856    76.630451 
    1600    1626.8014   -162.54047    1.4719641   -161.06851   -40669.743     4.285636     4.285636     4.285636   -40669.743   -60068.757   -4422.2403   -57518.231    12000.717   -75416.112    19897.157    78.712885 
    1700    1775.9531   -162.64005    1.6069197   -161.03313    31391.507    4.2760001    4.2760001    4.2760001    31391.507    98985.545   -37689.761    32878.736    -10888.21   -57954.611    21703.639    78.183143 
    1800    2123.4132   -162.94072    1.9213089   -161.01942    27775.745     4.255302     4.255302     4.255302    27775.745   -3533.8201    20443.732    66417.323   -7741.3538   -52638.838    15333.721    77.053286 
    1900    1457.0124   -162.37945    1.3183354   -161.06112    33769.025    4.2701758    4.2701758    4.2701758    33769.025    89652.498    18296.665   -6642.0872   -5019.3914   -43197.652    14052.277    77.864102 
    2000    1645.3467   -162.53984    1.4887443    -161.0511   -40770.842    4.2731292    4.2731292    4.2731292   -40770.842   -34545.128   -46378.173   -41389.227   -4752.8661   -66319.412    43559.163     78.02577 
    2100    2023.7108   -162.86533    1.8310961   -161.03424    2743.9681    4.2511816    4.2511816    4.2511816    2743.9681    4212.0478    11217.515   -7197.6581    7238.8993   -62438.796    27542.061    76.829672 
    2200    1936.9033   -162.82401    1.7525508   -161.07146    4785.6622     4.262402     4.262402     4.262402    4785.6622    5126.3995   -3095.1406    12325.728    3540.0578   -18106.064    34779.739    77.439622 
    2300    1669.3364   -162.58707    1.5104507   -161.07662   -49563.704    4.2877868    4.2877868    4.2877868   -49563.704   -90750.483   -62577.325    4636.6969    18338.821   -29883.537     23818.84    78.831455 
    2400    1893.2619   -162.74987    1.7130631    -161.0368   -15287.772    4.2883983    4.2883983    4.2883983   -15287.772    12546.722   -26323.089   -32086.948   -10794.019    -15445.65    31459.481    78.865189 
    2500    2117.8795   -162.92855    1.9163019   -161.01225   -8003.6289      4.27698      4.27698      4.27698   -8003.6289   -38690.297   -4690.9293     19370.34    3869.1269   -25418.921    16842.114    78.236904 
    2600    1893.3595   -162.72505    1.7131515    -161.0119   -23467.008     4.283309     4.283309     4.283309   -23467.008     33704.74   -20738.194    -83367.57    13057.379    -16231.39    18476.663    78.584739 
    2700    1956.0185   -162.76812    1.7698467   -160.99827   -8122.6383    4.2848397    4.2848397    4.2848397   -8122.6383   -15069.707    38190.465   -47488.673    8817.9226   -49978.858    6950.3928    78.669018 
    2800    2096.4747   -162.89284    1.8969344   -160.99591    30069.866    4.2738315    4.2738315    4.2738315    30069.866    5963.1585    80009.862    4236.5775    24239.664   -30174.809    21857.962    78.064247 
    2900    1808.7483   -162.64393    1.6365934   -161.00733    35651.788    4.2626585    4.2626585    4.2626585    35651.788    6337.1216    32360.327    68257.915    10197.341   -38355.366    10127.919    77.453604 
    3000     1684.796   -162.56349    1.5244388   -161.03905    26451.846    4.2742467    4.2742467    4.2742467    26451.846   -58155.609    21629.679    115881.47    15289.962   -39258.803   -5088.0382    78.087001 
    3100    1950.3683   -162.80804    1.7647342    -161.0433   -30599.406    4.2756681    4.2756681    4.2756681   -30599.406   -93062.339    21632.153   -20368.031   -6859.3299   -61877.797    11548.684    78.164932 
    3200    2173.2556   -162.99897    1.9664073   -161.03256    42620.998    4.2442682    4.2442682    4.2442682    42620.998   -3467.5335    36003.685    95326.842     3788.657   -43557.134   -13780.772    76.455453 
    3300    1492.3676    -162.4331    1.3503256   -161.08277    10671.797    4.2572394    4.2572394    4.2572394    10671.797   -58396.742    67260.969    23151.162    14698.514   -42096.225    20257.329     77.15858 
    3400    1911.6117   -162.78896    1.7296665    -161.0593    -41762.91     4.277662     4.277662     4.277662    -41762.91   -67542.271    -56360.35    -1386.108    14865.656   -18631.692    -18538.23    78.274336 
    3500    1738.4258     -162.625    1.5729642   -161.05204    16946.559    4.2626881    4.2626881    4.2626881    16946.559    6288.8112    15422.171    29128.694    12485.032   -16322.077   -5294.7456    77.455214 
    3600    1502.5955   -162.42014      1.35958   -161.06056    61256.879     4.264035     4.264035     4.264035    61256.879    61393.723   -5016.8838     127393.8    8840.3895   -32425.531   -829.46607    77.528658 
    3700    1952.6071    -162.8189      1.76676   -161.05214   -26815.259    4.2834512    4.2834512    4.2834512   -26815.259    59531.811   -83132.037   -56845.551    19733.687    7760.3569   -12194.662    78.592565 
    3800     2072.372   -162.90147    1.8751257   -161.02635   -26792.175    4.2927086    4.2927086    4.2927086   -26792.175   -58730.425   -31513.461    9867.3616   -9423.3894    21834.823     5088.189    79.103234 
    3900    2291.2157   -163.06303    2.0731401   -160.98989    10828.409    4.2766527    4.2766527    4.2766527    10828.409   -2782.2072   -6690.4956    41957.929   -19019.903    10120.752    7786.2009    78.218945 
    4000    2529.8368   -163.27083    2.2890495   -160.98178    19469.186    4.2549613    4.2549613    4.2549613    19469.186    21005.809   -14303.397    51705.145   -22385.915      30791.9   -13154.456    77.034781 
    4100    2073.0522   -162.90888    1.8757412   -161.03314   -16767.974    4.2696474    4.2696474    4.2696474   -16767.974   -6419.7726    -34547.03   -9337.1194   -35776.692     1560.555   -2607.6917    77.835195 
    4200    1740.5029   -162.61557    1.5748436   -161.04073    15890.933    4.2757976    4.2757976    4.2757976    15890.933    60533.438   -19001.568    6140.9292   -28570.027   -7802.9533   -2009.7356    78.172034 
    4300    2583.5602   -163.36587    2.3376596   -161.02821   -7297.3059    4.2670495    4.2670495    4.2670495   -7297.3059    36103.074   -39178.647   -18816.345   -16654.663    24527.428   -9496.8657    77.693207 
    4400    2301.1055   -163.12225    2.0820886   -161.04016    35019.643     4.272347     4.272347     4.272347    35019.643    70923.862    38438.172   -4303.1065     447.6814    9798.3163    3505.0661    77.982934 
    4500    2904.5255   -163.65625    2.6280757   -161.02817   -37322.431    4.2792158    4.2792158    4.2792158   -37322.431   -43104.034   -62635.497   -6227.7612   -9789.9615    4775.7662   -7914.4608    78.359665 
    4600    2830.7723   -163.57064    2.5613423    -161.0093   -210.69202    4.2445685    4.2445685    4.2445685   -210.69202    2179.0747   -16736.026    13924.875   -7040.6125    17768.494    6487.5048    76.471682 
    4700     2995.864   -163.76416    2.7107207   -161.05344    23960.389    4.2535046    4.2535046    4.2535046    23960.389    57544.499   -5065.8031    19402.472   -12350.768    44203.335    264.82945    76.955685 
    4800    2464.7243   -163.26517    2.2301343   -161.03503   -45935.135    4.2886875    4.2886875    4.2886875   -45935.135    3215.7205   -46934.159   -94086.965   -7094.3551    39469.702   -9732.9069    78.881147 
    4900    2245.1796   -163.03607    2.0314857   -161.00459    32732.528    4.2712501    4.2712501    4.2712501    32732.528    120354.45   -1749.2835   -20407.585   -16280.169   -10134.252    18110.568    77.922882 
    5000    2508.8996   -163.28229    2.2701051   -161.01219    9298.2819    4.2677458    4.2677458    4.2677458    9298.2819    25443.119    11613.964   -9162.2373   -28956.273   -4036.6243    11267.275    77.731245 
    5100    2411.5337   -163.21819    2.1820064   -161.03618   -31697.073    4.2757279    4.2757279    4.2757279   -31697.073    23625.033   -62246.857   -56469.394   -30661.879   -10051.357   -6590.5007    78.168212 
    5200    1747.8628   -162.62436     1.581503   -161.04285    19616.899    4.2500341    4.2500341    4.2500341    19616.899    45702.515    9187.0738    3961.1095   -18413.283    -36956.17   -6237.0793    76.767471 
    5300    1519.5835   -162.43866    1.3749511   -161.06371    27145.275    4.2526073    4.2526073    4.2526073    27145.275    20485.508    36993.575    23956.741   -37120.128   -7146.8108   -18028.909    76.906993 
    5400    1211.2291   -162.17144    1.0959455   -161.07549   -31101.605    4.2918226    4.2918226    4.2918226   -31101.605    11498.043   -111782.76    6979.9016   -45782.964   -37935.434   -14210.671    79.054261 
    5500    978.94906   -161.91888   0.88577368   -161.03311   -32303.816    4.2852329    4.2852329    4.2852329   -32303.816   -53548.968    -49009.37    5646.8888   -30811.392   -7831.4913    -9803.687     78.69068 
    5600    1410.6569   -162.25214     1.276392   -160.97575    60513.952    4.2463264    4.2463264    4.2463264    60513.952    25788.115    58971.313    96782.426   -27275.827   -39764.741   -23865.769    76.566733 
    5700    1044.8525   -161.98474   0.94540449   -161.03934    48346.983    4.2731705    4.2731705    4.2731705    48346.983    -3500.339     4092.721    144448.57   -1388.6242   -44794.592   -24817.266    78.028033 
    5800    1713.0383   -162.53289     1.549993   -160.98289   -38842.346    4.3018071    4.3018071    4.3018071   -38842.346   -75854.097   -18741.074   -21931.867   -7517.1393   -22183.129   -24947.792    79.607281 
    5900    2644.3801   -163.33333    2.3926907   -160.94064    318.89338    4.2877314    4.2877314    4.2877314    318.89338   -27555.401    17670.546    10841.534   -37661.736    1537.2676    8198.6387    78.828402 
    6000    2473.8901   -163.17128    2.2384278   -160.93285    12250.659    4.2778544    4.2778544    4.2778544    12250.659     15318.13    39892.365   -18458.518   -3197.1167    5490.4212   -18105.098    78.284897 
    6100    3212.6653    -163.8488     2.906887   -160.94191   -2318.6175    4.2547276    4.2547276    4.2547276   -2318.6175    845.24731    17828.376   -25629.476   -15453.332   -1135.1401     -4609.33    77.022089 
    6200    2861.0158   -163.58137    2.5887072   -160.99266    30504.181    4.2530703    4.2530703    4.2530703    30504.181     6722.989    69493.958    15295.596    9142.8751    11675.381     5493.821    76.932116 
    6300     2655.641     -163.429    2.4028798   -161.02612    16378.134    4.2777202    4.2777202    4.2777202    16378.134    3560.2013    23551.619     22022.58    -11012.78   -283.50714    6977.1512    78.277531 
    6400    2843.3404   -163.57933    2.5727142   -161.00662   -35421.331    4.2817091    4.2817091    4.2817091   -35421.331   -51276.616   -23951.787   -31035.589    -14904.85    12981.417   -6551.2969    78.496711 
    6500     2385.922   -163.15683    2.1588323     -160.998   -22442.829    4.2594158    4.2594158    4.2594158   -22442.829   -13544.144   -8640.4962   -45143.848    1017.5321    11716.132    33351.491    77.276976 
    6600    2159.3441   -162.94622    1.9538199    -160.9924    44995.346    4.2412159    4.2412159    4.2412159    44995.346    10813.123    50175.315      73997.6   -18143.267    11835.437    541.31467    76.290622 
    6700    1946.2492   -162.79185    1.7610072   -161.03085   -16095.354    4.2645752    4.2645752    4.2645752   -16095.354   -36643.745    6641.6864   -18284.003   -551.16331    255.37305    10938.935     77.55813 
    6800    1619.9946   -162.48526    1.4658051   -161.01946    472.32635      4.27724      4.27724      4.27724    472.32635    3313.7555    28719.346   -30616.123   -8511.0034    5931.6153    776.07842    78.251173 
    6900    1505.2659   -162.37338    1.3619962   -161.01139    -33784.36    4.2640663    4.2640663    4.2640663    -33784.36   -19669.268   -44500.341    -37183.47   -17027.472     15095.33    -44599.53    77.530371 
    7000    1537.4152   -162.40885    1.3910856   -161.01776    11426.681    4.2482163    4.2482163    4.2482163    11426.681     42689.31    37531.333   -45940.601   -10708.629   -2126.0234   -25400.356    76.669013 
    7100    1478.7086   -162.38931    1.3379666   -161.05135    28245.555    4.2644922    4.2644922    4.2644922    28245.555    54199.993    57576.388   -27039.715    15026.669    13558.226   -23078.139    77.553599 
    7200    941.38047   -161.88509   0.85178084   -161.03331   -36629.666    4.2894067    4.2894067    4.2894067   -36629.666    17050.858   -69119.514   -57820.341    7281.5971    6664.8548   -64966.069    78.920834 
    7300    982.86892   -161.90228   0.88932046   -161.01296    19552.064    4.2631009    4.2631009    4.2631009    19552.064    56316.821   -23918.213    26257.582    14845.205   -18538.346   -43782.598     77.47772 
    7400    1205.7589   -162.09485     1.090996   -161.00385    48623.124    4.2494959    4.2494959    4.2494959    48623.124    55465.145    109392.74   -18988.511      1239.78   -12222.313   -56167.705    76.738313 
    7500    1044.0533   -161.97428   0.94468137    -161.0296   -49268.223     4.275605     4.275605     4.275605   -49268.223     5259.194     -90042.3   -63021.562    31530.001    9374.4063   -68267.795    78.161472 
    7600    1251.1336   -162.15744     1.132052   -161.02539    -5481.518    4.2698705    4.2698705    4.2698705    -5481.518   -33413.131    74139.789   -57171.211   -7137.2798   -17848.861   -50363.715    77.847398 
    7700    1324.0384   -162.23301    1.1980178     -161.035   -28938.857    4.2492229    4.2492229    4.2492229   -28938.857    6841.7599    12395.975   -106054.31     15920.32   -31727.804   -58931.337    76.723523 
    7800    1334.7247   -162.26096    1.2076869   -161.05327    45592.911    4.2540179    4.2540179    4.2540179    45592.911    31184.333    85557.971    20036.429   -127.02149   -15421.122   -47233.714    76.983551 
    7900    1784.3539   -162.66036    1.6145209   -161.04584   -64565.614    4.2887971    4.2887971    4.2887971   -64565.614   -40517.058   -62375.863   -90803.922    18179.341   -7323.7151   -42319.043    78.887194 
    8000    1794.3714   -162.63389    1.6235849   -161.01031   -5313.6357    4.2772268    4.2772268    4.2772268   -5313.6357    45130.484    17398.234   -78469.625    12059.027   -15337.926   -3761.5795    78.250447 
    8100    2222.0388   -162.99152    2.0105474   -160.98098    45848.303    4.2489912    4.2489912    4.2489912    45848.303    56096.883    79900.224    1547.8021    5011.3776   -3847.2718    -23416.07    76.710975 
    8200    2217.6858   -163.03646    2.0066087   -161.02985   -11685.026    4.2540698    4.2540698    4.2540698   -11685.026    7038.5878    12279.125   -54372.791    21538.151    6171.1277   -3360.3588    76.986368 
    8300    1944.6088   -162.82095    1.7595229   -161.06142   -9112.5683    4.2709064    4.2709064    4.2709064   -9112.5683     10553.73    12910.006   -50801.441    5091.6976   -10196.231   -12033.923    77.904072 
    8400    2134.7836   -162.97785     1.931597   -161.04625    -12124.51    4.2781051    4.2781051    4.2781051    -12124.51    3723.2512   -5329.9067   -34766.875    21742.256    17766.848    7189.5475    78.298661 
    8500    2626.0088   -163.37626    2.3760679   -161.00019   -38819.873    4.2830319    4.2830319    4.2830319   -38819.873   -20744.555   -50675.883   -45039.179    80.429643    19077.139    229.99816    78.569486 
    8600    2697.6448   -163.42578    2.4408857   -160.98489   -7610.7622    4.2693405    4.2693405    4.2693405   -7610.7622    95525.854   -48384.345   -69973.796    21560.075    30177.334    7340.3967    77.818413 
    8700     2858.587   -163.57481    2.5865096    -160.9883    17083.984    4.2564787    4.2564787    4.2564787    17083.984    1158.8734   -4644.0135    54737.093    28178.196    4185.4136    -6292.876    77.117224 
    8800    2901.9209    -163.6386     2.625719   -161.01288    13464.645    4.2508331    4.2508331    4.2508331    13464.645    37080.181      20726.3   -17412.548    36991.732     17834.91    16502.374    76.810778 
    8900    2702.1398   -163.47757    2.4449529   -161.03262    6893.1758     4.261366     4.261366     4.261366    6893.1758   -17554.526     32798.98    5435.0727    35112.874    34396.733     1625.671    77.383166 
    9000    2574.0543   -163.35305    2.3290584   -161.02399   -14734.321    4.2849568    4.2849568    4.2849568   -14734.321   -4737.8232    -10777.11   -28688.028    24177.595    24881.311    26718.712    78.675471 
    9100    3070.0555   -163.77872    2.7778507   -161.00087    4807.1821     4.265025     4.265025     4.265025    4807.1821    17928.407   -6551.3388    3044.4783    17536.574    36369.305     8.849568    77.582675 
    9200    3134.6805    -163.8199    2.8363248   -160.98357    15516.063    4.2421095    4.2421095    4.2421095    15516.063   -387.40881    25602.492    21333.104    27225.858    30878.908    249.98357    76.338854 
    9300    2505.8329   -163.28654    2.2673303   -161.01921    3156.0464    4.2603816    4.2603816    4.2603816    3156.0464    13953.544     5770.536   -10255.941   -511.13609    39898.689    1806.7146    77.329552 
    9400    2853.3684   -163.59339    2.5817877    -161.0116     2285.716    4.2662722    4.2662722    4.2662722     2285.716    12912.399    10938.268   -16993.518    4819.0314    38996.262     4144.089    77.650757 
    9500    2391.7182   -163.17357    2.1640769    -161.0095   -21292.974    4.2788522    4.2788522    4.2788522   -21292.974   -21608.525    27501.892   -69772.288    25477.262   -1723.6307    4379.1004    78.339689 
    9600    2022.7981   -162.82905    1.8302702   -160.99878    3283.3132    4.2777649    4.2777649    4.2777649    3283.3132    57182.832    26870.642   -74203.535    13919.677   -47001.303    6898.3605    78.279986 
    9700    1558.4821   -162.41026    1.4101474   -161.00011    -11844.09    4.2717885    4.2717885    4.2717885    -11844.09   -26539.159    48628.864   -57621.975   -13.155484   -80218.266    11876.929    77.952351 
    9800    1319.9813   -162.18577    1.1943468   -160.99142    18302.691    4.2576452    4.2576452    4.2576452    18302.691     23406.66    52737.477   -21236.063    4858.0797   -102510.45    16353.583    77.180643 
    9900    1236.8666   -162.12403    1.1191429   -161.00488   -256.07445     4.253741     4.253741     4.253741   -256.07445   -45683.774    24197.383    20718.168   -8706.1816   -107942.27   -6595.4606    76.968519 
   10000    1236.7997   -162.14086    1.1190824   -161.02178   -31608.565    4.2661483    4.2661483    4.2661483   -31608.565   -78074.758    31890.684   -48641.621   -1063.1516    -113160.7   -4675.3067    77.643989 
   10100    1361.7485   -162.24542    1.2321386   -161.01328    16570.034    4.2735729    4.2735729    4.2735729    16570.034   -12127.888    16792.271    45045.717   -10607.733   -92679.892    1151.3134    78.050077 
   10200    944.79238   -161.85381     0.854868   -160.99894   -8032.9089    4.2744381    4.2744381    4.2744381   -8032.9089   -81949.826    58962.186   -1111.0871    10703.255   -66753.115   -8847.5242    78.097493 
   10300      1639.96   -162.46525    1.4838703   -160.98138   -8889.5047    4.2609239    4.2609239    4.2609239   -8889.5047   -100285.24    36538.397    37078.329   -23500.406   -68277.016    162.71629    77.359087 
   10400    1866.6748   -162.67976    1.6890066   -160.99075    1410.0651     4.261596     4.261596     4.261596    1410.0651   -41298.564    54165.376   -8636.6167   -7849.9651   -36306.716   -28710.867    77.395701 
   10500     2350.396   -163.11711    2.1266877   -160.99042    984.53231     4.274284     4.274284     4.274284    984.53231   -60898.451    75768.985   -11916.937    9868.0669    20037.501   -8393.2587    78.089047 
   10600    2725.4333   -163.44338    2.4660293   -160.97735   -43797.003    4.2912865    4.2912865    4.2912865   -43797.003   -72729.824   -42043.049   -16618.137   -10832.626    49493.444    30.221714    79.024643 
   10700    2340.6301   -163.08366    2.1178513    -160.9658   -14950.681    4.2720625    4.2720625    4.2720625   -14950.681    28223.322   -41676.169   -31399.196    2399.1511    54853.105    4776.4266    77.967354 
   10800    2492.0491   -163.21537    2.2548584   -160.96051    34206.113    4.2394672    4.2394672    4.2394672    34206.113    46326.746    49645.792    6645.8019   -3139.1449    43361.292    3561.4458    76.196294 
   10900    2636.9369   -163.38697    2.3859559   -161.00101    40420.001    4.2445486    4.2445486    4.2445486    40420.001    85108.635    50771.936   -14620.568   -18242.751    13419.608    583.58868    76.470603 
   11000    1647.0758    -162.5151    1.4903088   -161.02479   -11526.625    4.2776141    4.2776141    4.2776141   -11526.625    44610.105   -24213.775   -54976.204    -15175.82    7453.5155     17673.82    78.271709 
   11100    1444.4955   -162.28936    1.3070099   -160.98235    1352.7039    4.2804651    4.2804651    4.2804651    1352.7039    41374.131    49722.283   -87038.303    4760.7231   -50127.534    626.09081    78.428317 
   11200    1410.2238   -162.24118    1.2760001   -160.96518    27808.103      4.26927      4.26927      4.26927    27808.103    12379.223    35881.772    35163.315    9437.0466   -63143.208     13463.48    77.814558 
   11300     1321.809   -162.17671    1.1960006   -160.98071   -36345.232      4.25878      4.25878      4.25878   -36345.232   -30938.567   -2427.3111   -75669.819    21553.719   -76263.798    18222.995    77.242373 
   11400    910.15353   -161.81702   0.82352604    -160.9935    53326.191     4.229233     4.229233     4.229233    53326.191    87916.538    22373.748    49688.287    15477.163   -53215.194    28514.351    75.645803 
   11500    692.41286   -161.70114   0.62650971   -161.07463   -17291.305    4.2624973    4.2624973    4.2624973   -17291.305   -24354.766    34983.757   -62502.906     31662.75   -71627.388    13510.452    77.444817 
   11600    720.10916   -161.67579    0.6515699   -161.02422   -30327.335    4.2885028    4.2885028    4.2885028   -30327.335   -47879.827   -21890.825   -21211.354    22574.142   -82982.829    26505.479    78.870953 
   11700    1088.0023   -161.97652   0.98444733   -160.99208    37320.199    4.2619881    4.2619881    4.2619881    37320.199    80974.102    57211.473   -26224.977    17202.532   -67220.864    22564.913    77.417065 
   11800    1190.5253   -162.06626    1.0772123   -160.98904    -5204.509    4.2442411    4.2442411    4.2442411    -5204.509   -34909.203     66859.03   -47563.354     25386.24   -85993.023    41005.892    76.453985 
   11900    1074.2877   -162.00543   0.97203805    -161.0334    28010.717    4.2471371    4.2471371    4.2471371    28010.717    17406.843    59028.688    7596.6208   -19534.763   -72173.871    41604.862    76.610595 
   12000    1419.7513   -162.33126    1.2846208   -161.04664   -7666.8417      4.28419      4.28419      4.28419   -7666.8417   -1601.6907    22017.007   -43415.841    21618.893   -51089.283     48819.39    78.633242 
   12100    2416.7387   -163.18653     2.186716   -160.99981   -44701.286    4.2832824    4.2832824    4.2832824   -44701.286   -16431.918   -30373.864   -87298.074    -19271.51    -25444.96    21747.408    78.583274 
   12200    2738.2268   -163.44086    2.4776052   -160.96326    22802.252    4.2454263    4.2454263    4.2454263    22802.252    39618.634    37751.311   -8963.1903    4908.9888   -36578.737    14905.439    76.518055 
   12300    3030.4691   -163.72712    2.7420322   -160.98509    6920.7486    4.2425275    4.2425275    4.2425275    6920.7486    7843.9458    63295.845   -50377.545   -8338.6018   -13129.454    9110.1044    76.361419 
   12400    3032.2605   -163.75352     2.743653   -161.00987    3507.8919     4.254826     4.254826     4.254826    3507.8919   -22951.351    49244.237    -15769.21   -1039.4291   -10484.042    3100.9836    77.027429 
   12500     3192.792   -163.91451    2.8889053    -161.0256   -34009.434    4.2718582    4.2718582    4.2718582   -34009.434   -32361.279   -22036.647   -47630.376    9961.9416    8591.2531    17375.801    77.956168 
   12600    2989.7942   -163.70499    2.7052286   -160.99976   -52551.833    4.2809121    4.2809121    4.2809121   -52551.833   -76185.654   -47301.543   -34168.301   -22851.985   -7007.4801    24032.685    78.452888 
   12700    2676.5224   -163.39992    2.4217737   -160.97815    53742.413    4.2373007    4.2373007    4.2373007    53742.413    44275.701    35714.157    81237.381   -19994.071    6672.5726    26529.342    76.079538 
   12800     2257.931   -163.04047    2.0430235   -160.99745   -5453.5464    4.2404406    4.2404406    4.2404406   -5453.5464   -12247.345   -25109.091    20995.797   -42757.049   -12291.663    41242.911    76.248792 
   12900    1954.8867   -162.78568    1.7688225   -161.01686    5923.1602    4.2585874    4.2585874    4.2585874    5923.1602   -32538.543   -23662.201    73970.225   -34620.491    5667.6132    21552.383    77.231897 
   13000    1977.7262   -162.81968    1.7894882   -161.03019    41518.563      4.26036      4.26036      4.26036    41518.563   -21369.542    75063.633    70861.598   -37882.196    13151.682    20665.038    77.328378 
   13100    1755.5864    -162.6155    1.5884915     -161.027    -55549.76    4.2803767    4.2803767    4.2803767    -55549.76   -78461.898   -95485.538    7298.1553   -39884.302     19076.07    18979.581    78.423458 
   13200    1387.3298   -162.25959    1.2552852   -161.00431     24875.05    4.2613263    4.2613263    4.2613263     24875.05   -25291.842    10112.072    89804.919   -51399.136     43758.03    21330.991    77.381004 
   13300    1198.5208   -162.08678    1.0844468   -161.00233    317.80446    4.2541801    4.2541801    4.2541801    317.80446    17863.642   -31994.763    15084.535   -81553.821    26180.515    24132.658     76.99236 
   13400    1165.1902   -162.06934    1.0542886   -161.01505   -15690.318    4.2586014    4.2586014    4.2586014   -15690.318   -52474.672   -26896.501    32300.219   -83625.351    38132.885    13898.187    77.232655 
   13500    746.81748   -161.70342   0.67573615   -161.02768    69419.368     4.270127     4.270127     4.270127    69419.368    18705.109    127334.37    62218.621   -91835.876    20048.953    27029.244    77.861432 
   13600    1025.6059   -161.92088   0.92798981   -160.99289   -78373.713    4.2945766    4.2945766    4.2945766   -78373.713   -136428.27   -94276.865   -4416.0052   -75986.588    19386.175    27798.718    79.206542 
   13700    1876.7291   -162.64916    1.6981039   -160.95106    4854.7776    4.2596819    4.2596819    4.2596819    4854.7776    6784.7735     -14555.5    22335.059   -37826.898     10822.82    17668.904     77.29146 
   13800    1810.7804   -162.59501    1.6384322   -160.95658    62235.278    4.2518441    4.2518441    4.2518441    62235.278    3462.9801    65971.181    117271.67    -1755.847       1253.3    5246.1885    76.865593 
   13900    2565.8008   -163.27969    2.3215905    -160.9581    -33738.73    4.2832123    4.2832123    4.2832123    -33738.73   -29023.612   -40817.355   -31375.223    12417.686   -13043.952   -1398.0977    78.579417 
   14000    2982.6276   -163.63353    2.6987441   -160.93478   -46767.759    4.2789565    4.2789565    4.2789565   -46767.759   -48951.127   -46723.829   -44628.319    11217.045   -28305.959   -8313.1969    78.345418 
   14100    3297.8889   -163.91142    2.9839991   -160.92742    -19706.08    4.2723743    4.2723743    4.2723743    -19706.08    14903.854   -37485.604    -36536.49    22040.003   -23658.349   -21120.601    77.984424 
   14200    3074.8869   -163.71927    2.7822222   -160.93704    19466.943    4.2593516    4.2593516    4.2593516    19466.943    6625.9389    2060.7143    49714.175    32027.605   -9999.4224    6655.5604    77.273479 
   14300     2843.289   -163.54028    2.5726676   -160.96761   -27083.571     4.263089     4.263089     4.263089   -27083.571   -4537.4651   -31489.523   -45223.725     21847.62    -5507.596    27274.943     77.47707 
   14400    2038.1208   -162.81896    1.8441346   -160.97483   -42355.596    4.2872739    4.2872739    4.2872739   -42355.596    -48108.52   -47080.972   -31877.295     29530.83   -15349.836    38112.208    78.803169 
   14500    1460.3371   -162.28498    1.3213437   -160.96364    16811.155    4.2707903    4.2707903    4.2707903    16811.155    51706.947    4611.8606   -5885.3432   -2071.2681    7065.4431    62974.393    77.897721 
   14600    1476.1458   -162.30679    1.3356478   -160.97114    10099.255    4.2587818    4.2587818    4.2587818    10099.255    82060.216   -25890.271   -25872.179   -4346.4522    11585.679    81713.787    77.242475 
   14700     995.4366   -161.89115   0.90069195   -160.99046   -52493.874    4.2677082    4.2677082    4.2677082   -52493.874   -16983.788   -80129.038   -60368.795   -13677.034    44814.612    93525.507    77.729191 
   14800    1578.5766   -162.42984    1.4283293   -161.00151    41720.705    4.2555712    4.2555712    4.2555712    41720.705    59768.591    49218.699    16174.825   -33675.577     18076.79    78081.096     77.06791 
   14900    1414.1205   -162.30829    1.2795259   -161.02876   -34053.957    4.2654549    4.2654549    4.2654549   -34053.957    28772.253   -99655.282   -31278.842   -24080.234    27031.417    86190.673    77.606139 
   15000    1312.8573   -162.21249    1.1879009   -161.02459   -59185.872     4.266218     4.266218     4.266218   -59185.872    19160.333   -74489.815   -122228.13   -20274.842    22729.696    101635.09    77.647796 
   15100    1322.9555   -162.20568     1.197038   -161.00865    57184.085    4.2478212    4.2478212    4.2478212    57184.085    82779.091    218.30826    88554.855   -2749.5206    35914.426    58875.635    76.647621 
   15200    1441.7442   -162.33074    1.3045204   -161.02622   -56293.629    4.2736229    4.2736229    4.2736229   -56293.629    8729.5803   -66478.381   -111132.09   -10425.197     28632.07    61264.598    78.052817 
   15300    1524.0626    -162.3885    1.3790039   -161.00949    9816.6854    4.2655445    4.2655445    4.2655445    9816.6854    19385.899    52800.588    -42736.43    14468.896     24629.97    43175.441    77.611028 
   15400    1779.9699   -162.62006    1.6105542   -161.00951    42963.766    4.2618623    4.2618623    4.2618623    42963.766    15392.467    66882.529    46616.301    3133.9049    30696.105    44423.506     77.41021 
   15500    1738.7642   -162.59152    1.5732704   -161.01825    -62418.15    4.2726821    4.2726821    4.2726821    -62418.15   -60188.853   -26925.445   -100140.15    10384.781    57127.056    31407.293    78.001284 
   15600    1574.5871   -162.44672    1.4247195     -161.022    4034.9771    4.2320009    4.2320009    4.2320009    4034.9771    8921.3407    32619.185   -29435.594    14905.105    66067.361    44165.312    75.794423 
   15700    1429.7413   -162.35132    1.2936599   -161.05766    45363.501    4.2387739    4.2387739    4.2387739    45363.501     19520.93    81533.127    35036.447    8355.0279    68610.776    32991.061    76.158914 
   15800    1051.9028   -161.98603   0.95178376   -161.03424    -82775.07    4.2831659    4.2831659    4.2831659    -82775.07   -71665.479   -51743.704   -124916.03   -16195.245    74627.893    63809.992    78.576865 
   15900    1352.2596   -162.22269    1.2235529   -160.99914    27192.146    4.2616957    4.2616957    4.2616957    27192.146    116356.89     3204.075   -37984.524    9743.5123    71517.831    44276.296     77.40113 
   16000    1206.0163   -162.09802    1.0912289   -161.00679    7681.6076    4.2631832    4.2631832    4.2631832    7681.6076   -39273.892    51549.689    10769.026    3643.6308    69778.839    24006.012    77.482205 
   16100     1060.396    -161.9735    0.9594686   -161.01403   -61385.853    4.2660662    4.2660662    4.2660662   -61385.853   -41139.167   -34176.659   -108841.73    792.35857    71937.285    74517.826    77.639508 
   16200    1447.9592   -162.31185    1.3101439    -161.0017    75444.513     4.233887     4.233887     4.233887    75444.513    112457.25    27282.629    86593.659    2330.7448    76571.363    62202.489     75.89581 
   16300    1655.4049   -162.54314    1.4978452   -161.04529   -22730.982    4.2523845    4.2523845    4.2523845   -22730.982    -30282.84    34589.417   -72499.524   -12657.226    55525.845    43691.873    76.894906 
   16400    2035.3318   -162.87311     1.841611    -161.0315   -45277.731      4.25924      4.25924      4.25924   -45277.731   -46856.079    -14618.76   -74358.354   -5254.6387     26323.12    64685.039    77.267408 
   16500    2291.2633   -163.09454    2.0731832   -161.02136    40670.093    4.2501556    4.2501556    4.2501556    40670.093    81863.451    8195.3423    31951.487   -18522.614    17390.708    21435.094    76.774056 
   16600    2637.4498   -163.41028      2.38642   -161.02386   -23060.158    4.2762386    4.2762386    4.2762386   -23060.158   -46237.618   -6.9336905   -22935.922   -10770.063     9545.766    48446.883    78.196225 
   16700    2670.3416   -163.40424    2.4161812   -160.98806    -18851.75    4.2700663    4.2700663    4.2700663    -18851.75   -19953.221    7000.4574   -43602.487   -8783.7389    4182.0608    43546.561    77.858107 
   16800    3249.3676   -163.91463    2.9400961   -160.97454    11910.359    4.2603238    4.2603238    4.2603238    11910.359    15805.345     17593.49     2332.243    15336.984    18238.183    18888.908    77.326407 
   16900    3273.2058   -163.93679    2.9616654   -160.97513   -34976.045    4.2745308    4.2745308    4.2745308   -34976.045   -34175.241   -45497.301   -25255.594     33475.39    3677.0468    15060.845    78.102574 
   17000    3304.8573   -163.95593    2.9903044   -160.96562    16729.421    4.2517775    4.2517775    4.2517775    16729.421    27332.965    604.10466    22251.193    15384.136    2079.0794    14252.735    76.861986 
   17100    3243.4454   -163.93197    2.9347376   -160.99723   -15142.234    4.2601888    4.2601888    4.2601888   -15142.234    30532.459   -33310.976   -42648.186    10010.873    515.32111    17546.014    77.319053 
   17200    2804.2401   -163.52809    2.5373354   -160.99076   -26114.699    4.2796055    4.2796055    4.2796055   -26114.699   -8379.8601   -72747.892    2783.6562    3812.1473     11032.46     26496.86    78.381074 
   17300    2246.9058   -163.01684    2.0330476   -160.98379    27553.574    4.2639544    4.2639544    4.2639544    27553.574    49494.026   -1768.4714    34935.168    6511.1458    8877.5295      42049.8    77.524265 
   17400     1371.179     -162.242    1.2406715   -161.00132   -3691.2066    4.2704879    4.2704879    4.2704879   -3691.2066    47425.838   -45513.888    -12985.57    6467.0576    11138.538    24055.207    77.881174 
   17500    1512.5023   -162.35345    1.3685439    -160.9849    10911.379    4.2617604    4.2617604    4.2617604    10911.379    77032.853   -48084.349     3785.634   -16019.963    8293.4342    56202.197    77.404656 
   17600    1334.3934    -162.2011    1.2073872   -160.99371     10771.41     4.258588     4.258588     4.258588     10771.41    5510.7052   -28830.037     55633.56   -20573.209    13969.286    61478.519    77.231926 
   17700    1245.2161   -162.11849    1.1266977   -160.99179   -28948.415    4.2794897    4.2794897    4.2794897   -28948.415   -10237.929   -3619.8978   -72987.418   -16904.289    10374.351     49972.69    78.374711 
   17800    1544.5074   -162.37824    1.3975028   -160.98074   -2638.0787    4.2683492    4.2683492    4.2683492   -2638.0787   -6970.3836   -60232.099    59288.247   -7661.6991    10595.747     74356.03    77.764221 
   17900    1955.6977   -162.75339    1.7695564   -160.98383    15051.057    4.2407995    4.2407995    4.2407995    15051.057    16467.492    17405.319    11280.361   -17765.768    3159.0334    57402.788    76.268154 
   18000    2340.6913   -163.13388    2.1179067   -161.01598   -4717.6762     4.244524     4.244524     4.244524   -4717.6762    -3684.867    593.19114   -11061.353   -12638.558    14989.229    47007.409    76.469275 
   18100    2210.7287   -163.03865    2.0003137   -161.03834   -11897.899    4.2599188    4.2599188    4.2599188   -11897.899    9027.4142   -42371.257   -2349.8523   -5889.9585   -8878.0461    32990.761    77.304354 
   18200    2827.8962   -163.58395    2.5587399   -161.02521   -19026.115    4.2702929    4.2702929    4.2702929   -19026.115    -29926.25   -10241.927   -16910.169   -2585.7725   -8119.2612   -7822.6002    77.870504 
   18300    2860.1452   -163.58381    2.5879195   -160.99589   -17169.511    4.2795496    4.2795496    4.2795496   -17169.511   -77070.978    14754.886    10807.558    4999.4186   -15292.267   -33327.182    78.378003 
   18400    2982.5263   -163.66735    2.6986525    -160.9687   -4458.8765    4.2695254    4.2695254    4.2695254   -4458.8765    14391.616   -29240.019    1471.7732    5400.0063   -1813.8664   -32086.946    77.828524 
   18500    2830.9207   -163.53078    2.5614766   -160.96931   -4712.0917    4.2516234    4.2516234    4.2516234   -4712.0917   -17111.157   -19938.716    22913.598   -2992.5141    8880.7665   -21645.208    76.853624 
   18600    2425.7712     -163.192    2.1948887   -160.99711    49067.968    4.2435945    4.2435945    4.2435945    49067.968    71966.387    32756.267    42481.249    3367.7929   -6629.3944   -28927.856    76.419051 
   18700    2471.6029   -163.27368    2.2363582   -161.03732   -18821.677    4.2675383    4.2675383    4.2675383   -18821.677    1626.7794   -61728.925    3637.1157    14946.337   -18242.638   -16163.061    77.719912 
   18800    2650.7369   -163.41479    2.3984424   -161.01635    -64276.35    4.2842257    4.2842257    4.2842257    -64276.35   -49651.979   -103198.73   -39978.344    11240.582   -6398.3533   -6966.4345    78.635208 
   18900    2685.2074   -163.44688    2.4296321   -161.01725    36408.168    4.2425963    4.2425963    4.2425963    36408.168   -490.74494    15572.818    94142.432    12287.068   -12424.155    3132.4909    76.365137 
   19000      2713.59   -163.47871    2.4553133    -161.0234    30716.339    4.2297628    4.2297628    4.2297628    30716.339     34725.82    30604.795    26818.404    10972.187   -30309.883    22631.709    75.674235 
   19100    2781.1944    -163.5591    2.5164831   -161.04262   -3437.5572     4.253806     4.253806     4.253806   -3437.5572   -29983.007     20668.93   -998.59454   -3149.9087   -22848.385    14771.788    76.972049 
   19200    2113.9879    -162.9548    1.9127807   -161.04202    33250.493    4.2699199    4.2699199    4.2699199    33250.493   -37223.471    41351.343    95623.607    9226.9163   -26654.359    2452.3948    77.850103 
   19300    2195.6941    -163.0051    1.9867101   -161.01839   -57183.659    4.2958114    4.2958114    4.2958114   -57183.659   -13758.811   -77733.027   -80059.139    -4992.414   -17530.484    18739.193    79.274885 
   19400    1479.4416   -162.31972    1.3386298   -160.98109   -28947.942    4.2821273    4.2821273    4.2821273   -28947.942    80149.295    -75148.71   -91844.413   -8605.4006   -13810.185    55618.403    78.519718 
   19500    1286.5838   -162.10549     1.164128   -160.94137    55741.317    4.2505708    4.2505708    4.2505708    55741.317    145153.81    42249.174   -20179.034   -18998.072   -4573.2948    82446.138     76.79656 
   19600    1755.1325   -162.56644    1.5880807   -160.97836   -12710.778    4.2625103    4.2625103    4.2625103   -12710.778     84655.94   -36101.778   -86686.497    951.57543   -13256.421    87825.351    77.445523 
   19700    1731.4622   -162.54555    1.5666634   -160.97889   -60518.211    4.2766048    4.2766048    4.2766048   -60518.211     26182.92   -98774.357    -108963.2    11421.131   -750.81332    89968.634    78.216315 
   19800    1835.5375   -162.63685    1.6608329   -160.97601    28495.971    4.2666686    4.2666686    4.2666686    28495.971    11091.558    54920.759    19475.595    17804.438   -7677.1311    70871.223    77.672402 
   19900    2057.3591    -162.8595    1.8615418   -160.99796   -38907.868    4.2717322    4.2717322    4.2717322   -38907.868   -7833.7309   -65621.762   -43268.111    15357.774   -3615.2341    68290.557     77.94927 
   20000    2110.7848   -162.92652    1.9098824   -161.01664   -8321.3492    4.2421645    4.2421645    4.2421645   -8321.3492    59810.689   -54111.663   -30663.074    15807.903    6641.6236    82959.037    76.341822 
   20100    1996.5831   -162.82094    1.8065503   -161.01439    88644.358    4.2249044    4.2249044    4.2249044    88644.358    163167.79    39880.089    62885.192    2119.2151    34568.984    62081.236    75.413773 
   20200    2266.6661   -163.09593    2.0509271     -161.045   -23568.389    4.2750238    4.2750238    4.2750238   -23568.389    45268.015   -77642.504   -38330.679   -108.53465    31502.912     49693.05    78.129604 
   20300    2959.5201   -163.65854     2.677836    -160.9807   -38888.804    4.2843248    4.2843248    4.2843248   -38888.804   -514.79177   -63348.502   -52803.118   -6271.0067    8489.6491    4421.7574     78.64066 
   20400    3108.0675   -163.76581    2.8122448   -160.95356   -19441.151    4.2742237    4.2742237    4.2742237   -19441.151   -54780.599   -39733.918    36191.063    12130.802    5415.7176   -14230.077    78.085741 
   20500    2893.2357   -163.56859    2.6178605   -160.95073    8359.2296    4.2489138    4.2489138    4.2489138    8359.2296   -36728.277   -24023.983    85829.948    5593.8594    16766.883   -20241.051     76.70678 
   20600    2596.3459   -163.31243    2.3492284    -160.9632    22052.847     4.241077     4.241077     4.241077    22052.847   -34859.636    12227.398    88790.779    20915.762    12309.676   -27823.747    76.283126 
   20700    2381.0936   -163.15131    2.1544635   -160.99685   -42886.086    4.2712469    4.2712469    4.2712469   -42886.086   -104140.32   -29369.966    4852.0262    46712.921    19375.482    -23545.54    77.922709 
   20800    1947.2812   -162.75584    1.7619409    -160.9939    7866.6513    4.2635443    4.2635443    4.2635443    7866.6513   -69548.751    34075.816    59072.889    69669.802    6065.4458   -18467.133    77.501896 
   20900     1586.808    -162.4269    1.4357772   -160.99112   -6900.7099    4.2508226    4.2508226    4.2508226   -6900.7099   -75852.566   -13850.404    69000.841    88408.326   -735.56973   -27421.433    76.810208 
   21000    1455.7959   -162.32181    1.3172348   -161.00458   -4332.8201    4.2529015    4.2529015    4.2529015   -4332.8201   -99440.638    13496.379    72945.799    78354.995    21059.741   -15762.028    76.922955 
   21100     1572.964   -162.43776    1.4232509    -161.0145    22342.957    4.2511717    4.2511717    4.2511717    22342.957   -41678.929    18459.229     90248.57    72076.098    12.113036    -30150.88    76.829135 
   21200     1303.599   -162.20748    1.1795237   -161.02795    -16558.82    4.2560951    4.2560951    4.2560951    -16558.82   -48638.496   -22083.283    21045.318    77252.788   -8149.5127   -15849.434    77.096377 
   21300    1064.4752   -161.99409   0.96315949   -161.03093   -26078.226    4.2547057    4.2547057    4.2547057   -26078.226   -105846.71    19143.038    8468.9922    92522.516    5730.2647   -23230.198    77.020896 
   21400    1005.2691   -161.94754   0.90958865   -161.03796    12804.245    4.2449982    4.2449982    4.2449982    12804.245    7467.5947    13171.678    17773.461    51414.109   -24189.189   -460.04185    76.494908 
   21500    1141.4814   -162.07201    1.0328364   -161.03917    524.61855    4.2558887    4.2558887    4.2558887    524.61855    -70434.53    83685.114   -11676.728    71656.328   -22236.716   -5248.7802    77.085163 
   21600     1028.023   -161.95562   0.93017681   -161.02544   -29284.668    4.2679312    4.2679312    4.2679312   -29284.668   -46651.746    -42568.15    1365.8926    77719.156   -20996.213   -1029.9979    77.741377 
   21700    1404.9462   -162.27208    1.2712248   -161.00085    15121.625    4.2657235    4.2657235    4.2657235    15121.625   -31285.815    25839.882    50810.809    8535.8922    6478.0642    5344.5354    77.620798 
   21800    2189.2221   -162.95385    1.9808541     -160.973   -17297.601    4.2755527    4.2755527    4.2755527   -17297.601   -23898.445    3226.0679   -31220.426   -7972.4765   -22136.195    1081.0337    78.158604 
   21900    2497.3517   -163.22229    2.2596563   -160.96264    17712.331    4.2564368    4.2564368    4.2564368    17712.331    50262.777     9231.631   -6357.4156   -37311.579   -22080.052    10377.545    77.114947 
   22000    3091.1708   -163.75586    2.7969563   -160.95891    20338.825     4.243862     4.243862     4.243862    20338.825    10638.726    32954.709     17423.04   -50239.314   -6670.2402   -253.28457    76.433503 
   22100    3132.8379    -163.8178    2.8346576   -160.98314    3793.0529    4.2617432    4.2617432    4.2617432    3793.0529    9527.8819   -12716.293    14567.569   -21043.062   -849.27248    3362.5977    77.403718 
   22200    2000.5307   -162.80109    1.8101222   -160.99097   -5546.3798    4.2781095    4.2781095    4.2781095   -5546.3798   -62781.713     15170.85    30971.724    18425.415   -1594.0467    7072.9015    78.298906 
   22300    1204.8442   -162.06057    1.0901684    -160.9704   -63363.484    4.2811626    4.2811626    4.2811626   -63363.484   -108974.77   -98097.707    16982.028    102173.68    6329.3427    -26977.36    78.466659 
   22400     1021.929   -161.89592   0.92466287   -160.97126    21851.837    4.2385016    4.2385016    4.2385016    21851.837   -16116.246    8641.0517    73030.706    129518.99   -403.29174   -19605.776    76.144242 
   22500    1120.9577   -161.99887    1.0142661    -160.9846    23280.376    4.2310761    4.2310761    4.2310761    23280.376   -37225.708   -20554.381    127621.22    154328.23    9951.1054    4863.4788    75.744744 
   22600    1000.8805   -161.90914   0.90561768   -161.00353   -56755.061    4.2627311    4.2627311    4.2627311   -56755.061   -128234.13   -100232.91    58201.852    157376.79   -342.17765    8944.8679    77.457559 
   22700    1594.0986   -162.43585    1.4423739   -160.99348    4991.8639    4.2728834    4.2728834    4.2728834    4991.8639    28387.741   -51404.531    37992.382    69155.402   -4232.1102    5439.0153    78.012305 
   22800    2708.8023   -163.39954    2.4509812   -160.94856   -37135.837    4.2892993    4.2892993    4.2892993   -37135.837   -34951.553   -60473.703   -15982.255   -2219.7115   -7988.2033    24406.968    78.914907 
   22900     3134.178   -163.76982    2.8358701   -160.93395   -24317.867    4.2590153    4.2590153    4.2590153   -24317.867     3941.521   -37028.966   -39866.155   -36832.564    7801.1881    25341.933    77.255177 
   23000    2901.3812   -163.55281    2.6252306   -160.92758    49737.009    4.2318227    4.2318227    4.2318227    49737.009    77160.404    51872.497    20178.124   -46437.523   -9768.0024    35383.549    75.784847 
   23100    2408.0957   -163.15527    2.1788956   -160.97637    21120.846    4.2394891    4.2394891    4.2394891    21120.846   -7150.1866    59207.483    11305.242   -19795.688    -4906.063    14683.226    76.197473 
   23200    2287.7009   -163.09004    2.0699598   -161.02008    15172.682    4.2556753    4.2556753    4.2556753    15172.682    15796.595     28198.88    1522.5718   -6529.6932   -16492.112    18446.635    77.073564 
   23300    1708.5837   -162.56593    1.5459625   -161.01997   -40208.959    4.2805299    4.2805299    4.2805299   -40208.959   -89334.958    -43343.72    12051.802    53644.711   -15638.271    6705.7108    78.431876 
   23400    1383.5705   -162.24078    1.2518836    -160.9889    31332.461    4.2636919    4.2636919    4.2636919    31332.461   -7997.7777    1612.1972    100382.96    89863.893   -16756.449   -15725.926    77.509948 
   23500     1365.836   -162.20659    1.2358371   -160.97076    25548.499    4.2523384    4.2523384    4.2523384    25548.499   -18221.925   -5079.2667    99946.688    113906.81    843.59482    -12318.85    76.892408 
   23600    1456.8017   -162.29669    1.3181448   -160.97854   -26673.071     4.265932     4.265932     4.265932   -26673.071   -80454.605   -84132.929     84568.32    119331.79    505.76394   -10735.905    77.632181 
   23700    1775.0573   -162.57524    1.6061091   -160.96913    30619.087     4.262274     4.262274     4.262274    30619.087    -30429.89    21076.586    101210.57    85747.441   -10306.504   -13393.202    77.432644 
   23800    2135.9884   -162.90305    1.9326872   -160.97037   -6398.7305    4.2664429    4.2664429    4.2664429   -6398.7305   -16993.057   -50366.258    48163.123     59443.41   -8824.0146   -17514.275    77.660075 
   23900    2325.2846   -163.08284    2.1039664   -160.97887   -5890.4386    4.2702038    4.2702038    4.2702038   -5890.4386   -40387.531   -6149.7424    28865.957    30683.573   -4806.3346   -22363.336    77.865633 
   24000    2572.6501   -163.32019    2.3277878    -160.9924    7425.5125    4.2538481    4.2538481    4.2538481    7425.5125    22117.172   -14125.692    14285.057    13461.887   -2576.1148   -11706.423    76.974333 
   24100    2758.2799   -163.49406    2.4957496   -160.99831    36182.029    4.2395186    4.2395186    4.2395186    36182.029    20284.171    87574.569    687.34739   -16089.308     18889.74   -17648.233    76.199064 
   24200    2975.3746   -163.70826    2.6921814   -161.01608    12074.981    4.2587939    4.2587939    4.2587939    12074.981    45548.376    7836.6071   -17160.041   -20025.763    829.71638    2390.0621    77.243131 
   24300    2773.6184   -163.50574    2.5096282   -160.99611   -28924.354    4.2843024    4.2843024    4.2843024   -28924.354    14751.256   -31527.393   -69996.924   -25869.849    10361.655    13052.131    78.639431 
   24400    1867.2911   -162.63813    1.6895642   -160.94857    -30506.46    4.2932918    4.2932918    4.2932918    -30506.46     -37570.2    -7763.753   -46185.428    8344.0768    22841.007    4951.6842    79.135474 
   24500    1121.4383   -161.92701    1.0147009   -160.91231    41630.629    4.2703805    4.2703805    4.2703805    41630.629    23275.661    22640.422    78975.803    38767.498    38288.839   -4894.4775      77.8753 
   24600    1016.0133   -161.83676   0.91931021   -160.91745    20849.555    4.2591827    4.2591827    4.2591827    20849.555    83596.511    -18745.53    -2302.315    43514.467    47732.244    22289.164    77.264287 
   24700     1144.348   -161.98718    1.0354301   -160.95175    13145.628    4.2612359    4.2612359    4.2612359    13145.628    24572.694    29545.058   -14680.868    26051.698     36302.19    3928.7029    77.376083 
   24800    1487.2942   -162.32987     1.345735   -160.98414    3407.0904    4.2747042    4.2747042    4.2747042    3407.0904    9380.7047   -25815.401    26655.967    32554.524    21427.052    9592.0966    78.112078 
   24900    1924.6499   -162.71776    1.7414636   -160.97629   -27087.387    4.2757815    4.2757815    4.2757815   -27087.387    -12515.99   -38530.531    -30215.64    9337.3458    29790.766    10876.165    78.171153 
   25000     2306.473   -163.05403    2.0869452   -160.96709     35973.29    4.2452043    4.2452043    4.2452043     35973.29    9656.2075    152.80966    98110.854     5724.432    28277.155     9258.636     76.50605 
   25100    2228.1713   -163.00652    2.0160962   -160.99042    1058.9133    4.2430932    4.2430932    4.2430932    1058.9133    10202.955    22409.382   -29435.596   -12550.342    29833.589   -15038.006     76.39197 
   25200    1920.8528   -162.74917     1.738028   -161.01114    11890.147    4.2525965    4.2525965    4.2525965    11890.147   -8036.5377    46711.856   -3004.8767    -20963.61    6535.0288   -7779.8225    76.906407 
   25300     1556.395   -162.42956    1.4082589    -161.0213    32465.491    4.2672434    4.2672434    4.2672434    32465.491    14599.476    68840.622    13956.376   -34065.145   -12322.226   -15164.622    77.703795 
   25400    878.67237   -161.79388   0.79504122   -160.99884    12307.505    4.2924919    4.2924919    4.2924919    12307.505   -62858.156    149906.36   -50125.691   -36316.796   -46757.608   -10665.755    79.091253 
   25500    1296.5848   -162.10389    1.1731772   -160.93072    15478.643    4.2961768    4.2961768    4.2961768    15478.643    13270.289    95507.206   -62341.566   -40074.511   -39744.174    2649.0301    79.295114 
   25600    2070.3321   -162.74383      1.87328   -160.87055    29148.422     4.291529     4.291529     4.291529    29148.422    25220.782    8905.8106    53318.674    3947.4213   -18023.335    15725.633    79.038039 
   25700    3058.0744    -163.6106      2.76701   -160.84359   -47558.469    4.2917987    4.2917987    4.2917987   -47558.469   -35237.229    -41808.64   -65629.539    18297.508    25071.999    48766.176    79.052942 
   25800    2777.6291   -163.34852    2.5132572   -160.83526   -32647.102    4.2809681    4.2809681    4.2809681   -32647.102   -33363.991    -4769.732   -59807.583    6803.5103    14743.285    16244.882    78.455966 
   25900    2127.1479   -162.80146    1.9246882   -160.87677   -54378.022    4.2789858    4.2789858    4.2789858   -54378.022   -18617.504    -101725.4   -42791.161   -42337.611    22562.764   -16689.207    78.347031 
   26000    1532.7308   -162.31303     1.386847   -160.92618   -6582.6545    4.2655514    4.2655514    4.2655514   -6582.6545    50455.025   -55460.679   -14742.309   -51633.662   -288.09579   -29471.594    77.611403 
   26100    1291.0526   -162.12306    1.1681715   -160.95489    16986.107    4.2489644    4.2489644    4.2489644    16986.107    31635.799   -56460.136    75782.657   -92836.392   -889.97282    -23192.83     76.70952 
   26200     1131.004   -162.02853    1.0233562   -161.00517   -23415.572    4.2443312    4.2443312    4.2443312   -23415.572   -21436.119   -67963.553    19152.955   -101586.54    13427.187   -26921.661    76.458858 
   26300    1078.7716   -162.01515    0.9760952   -161.03905    15133.449    4.2471506    4.2471506    4.2471506    15133.449    63816.068   -30505.153     12089.43   -99672.616    9819.6158   -17721.847    76.611329 
   26400    865.00169   -161.83435   0.78267171   -161.05168   -9291.2853     4.255818     4.255818     4.255818   -9291.2853    3806.6025    -22802.99   -8877.4679   -77030.507   -4202.3406   -15688.001    77.081321 
   26500    1044.0037   -161.97786    0.9446365   -161.03323    9778.4848    4.2522781    4.2522781    4.2522781    9778.4848    56566.005   -24705.195   -2525.3553   -86790.242    6516.5465   -14924.643    76.889135 
   26600     999.3308     -161.941    0.9042155   -161.03678   -34836.647    4.2514981    4.2514981    4.2514981   -34836.647    638.61952   -88904.622   -16243.939   -87230.957     8300.007   -10364.587    76.846831 
   26700    1049.2419   -161.98343    0.9493761   -161.03405    32371.817     4.241652     4.241652     4.241652    32371.817    72753.901    24689.747   -328.19633   -60621.914   -2748.7159   -19662.477    76.314157 
   26800    1145.2748   -162.08203    1.0362687   -161.04576   -34997.545    4.2528437    4.2528437    4.2528437   -34997.545    41243.522   -100543.63   -45692.526   -74696.984     2772.818   -29884.927    76.919824 
   26900    913.19601    -161.8643   0.82627894   -161.03802   -23013.618     4.256072     4.256072     4.256072   -23013.618   -4173.1039   -31792.883   -33074.868   -62251.163    2955.7358   -47192.495    77.095122 
   27000    758.74468   -161.71987   0.68652813   -161.03335    22629.671    4.2505236    4.2505236    4.2505236    22629.671    132902.22   -77651.184     12637.98   -57153.899   -5728.8654   -55947.748    76.794001 
   27100    672.89221   -161.64308   0.60884702   -161.03424    -19764.78    4.2563512    4.2563512    4.2563512    -19764.78   -235.77619   -71043.448    11984.883   -40527.554    20094.519    -54218.59    77.110295 
   27200    845.71507   -161.78975   0.76522077   -161.02453    27546.556    4.2541459    4.2541459    4.2541459    27546.556    106750.98   -53519.937    29408.627   -49517.283   -10351.933   -42760.104    76.990501 
   27300    1359.8078   -162.24769    1.2303827    -161.0173   -6119.3091    4.2618681    4.2618681    4.2618681   -6119.3091    17904.225   -75969.802     39707.65   -41316.127    5029.3129   -21034.158    77.410524 
   27400    1796.4061    -162.6288     1.625426   -161.00337   -13144.026    4.2557629    4.2557629    4.2557629   -13144.026   -42084.629   -66987.387    69639.937   -45679.492    -14649.77   -12387.635    77.078328 
   27500    2269.8907   -163.05493    2.0538448   -161.00108    7812.1613    4.2538177    4.2538177    4.2538177    7812.1613    27282.251   -82647.174    78801.407   -37335.892    14233.892    -17445.44    76.972683 
   27600    2313.1661   -163.09173    2.0930013   -160.99873   -26405.486    4.2565853    4.2565853    4.2565853   -26405.486   -40975.035   -84996.706    46755.282   -27603.765   -9688.1075   -17098.115    77.123017 
   27700    2359.8637   -163.13922    2.1352543   -161.00397    16560.089    4.2518388    4.2518388    4.2518388    16560.089    36833.076   -36736.079    49583.269   -44670.237     6472.575   -30538.462    76.865307 
   27800     1973.239   -162.80326    1.7854281   -161.01783   -31970.602    4.2574127    4.2574127    4.2574127   -31970.602   -49058.885   -70377.155    23524.235     -62599.5    6814.8303   -23883.888    77.168003 
   27900    1990.9859   -162.82571    1.8014859   -161.02423   -2014.0493    4.2453111    4.2453111    4.2453111   -2014.0493   -21688.097   -21038.661     36684.61   -83085.966    1813.8216   -4793.6142    76.511828 
   28000    1946.0308   -162.79853    1.7608095   -161.03772    40671.374     4.243004     4.243004     4.243004    40671.374    12921.816    7262.8749    101829.43    -64370.03    7750.1709      13945.3    76.387154 
   28100     1701.095   -162.58142    1.5391865   -161.04223   -29433.657    4.2600129    4.2600129    4.2600129   -29433.657   -67334.697   -35854.507    14888.232   -62633.112    -1477.424    42047.815    77.309481 
   28200    1605.8913   -162.49284    1.4530442    -161.0398    4347.2031    4.2469906    4.2469906    4.2469906    4347.2031   -40687.085    16664.641    37064.053   -54927.891   -4006.6915     32450.08    76.602671 
   28300    1600.2296   -162.49195    1.4479214   -161.04403    8140.0706    4.2462519    4.2462519    4.2462519    8140.0706   -9266.5144    -27662.66    61349.386   -21328.641   -2171.8308    31252.592    76.562706 
   28400    2022.1241   -162.86135    1.8296604   -161.03169   -34183.738    4.2610862    4.2610862    4.2610862   -34183.738   -31005.053   -18998.039   -52548.122   -15447.436   -15897.403    38229.067    77.367927 
   28500    2625.0806   -163.38641    2.3752281   -161.01118   -19345.056     4.257567     4.257567     4.257567   -19345.056    10653.929   -33742.402   -34946.695   -11081.665    6801.6413    25586.914    77.176393 
   28600    3020.0538    -163.7334    2.7326082   -161.00079   -1364.3071     4.248196     4.248196     4.248196   -1364.3071    27303.155   -41118.832    9722.7555    10139.617     11158.38   -3311.5267     76.66791 
   28700    3105.6388   -163.81623    2.8100472   -161.00619    964.89986     4.256957     4.256957     4.256957    964.89986    37460.436    -19351.29   -15214.446    32209.337      7071.18   -19615.669    77.143225 
   28800    2960.3846   -163.67042    2.6786182    -160.9918   -33440.095    4.2688291    4.2688291    4.2688291   -33440.095    17319.162   -66390.877   -51248.569    34808.754   -11947.562   -34879.884    77.790454 
   28900    2601.1048   -163.33005    2.3535343   -160.97652   -12698.868    4.2662599    4.2662599    4.2662599   -12698.868     3589.094   -33821.693   -7864.0058    28049.738    13765.148   -18262.584    77.650084 
   29000    2089.3675   -162.86692    1.8905037   -160.97641    15782.753    4.2596023    4.2596023    4.2596023    15782.753   -11552.566    33590.958    25309.866    6891.1483   -2108.9996   -46539.309    77.287125 
   29100    1511.2421   -162.36524    1.3674036   -160.99784   -4507.5459    4.2589225    4.2589225    4.2589225   -4507.5459    2352.5647   -71371.754    55496.552   -10860.921    5977.0102   -34803.789    77.250129 
   29200    1209.7955   -162.09154    1.0946484   -160.99689    25292.562    4.2538545    4.2538545    4.2538545    25292.562    72669.447    1725.0954    1483.1439   -27957.094   -17007.406   -30422.061    76.974681 
   29300    1048.3834   -161.95961   0.94859937   -161.01101    38409.967    4.2650388    4.2650388    4.2650388    38409.967    75933.535   -56816.004     96112.37   -14647.338   -16779.173   -16197.801    77.583425 
   29400    1038.1371   -161.91671   0.93932823   -160.97738   -25848.197    4.2883947    4.2883947    4.2883947   -25848.197    28525.284   -112855.76    6785.8824   -25153.368   -18616.033   -38129.614     78.86499 
   29500    1975.9055   -162.71384    1.7878409     -160.926    17066.142    4.2724479    4.2724479    4.2724479    17066.142    10498.415   -34520.584    75220.593   -27725.704   -13356.685    8202.5587    77.988459 
   29600    2770.5948   -163.42256    2.5068924   -160.91567   -13433.021    4.2727527    4.2727527    4.2727527   -13433.021    -10035.06   -63606.278    33342.276   -36049.009   -23527.804    29140.134    78.005148 
   29700    2754.8276   -163.39949    2.4926259   -160.90686   -15143.159    4.2630093    4.2630093    4.2630093   -15143.159    18293.573   -24478.937   -39244.114   -26013.777   -10581.902    53153.572    77.472725 
   29800    2617.0471   -163.29305    2.3679592   -160.92509    -8019.334    4.2621716    4.2621716    4.2621716    -8019.334   -50177.878   -2683.5252    28803.401   -16997.769    10791.097    51697.423    77.427065 
   29900    2104.8044    -162.8475    1.9044713   -160.94302    -71530.35    4.2832526    4.2832526    4.2832526    -71530.35   -83117.771    -28534.92   -102938.36   -14324.626    61622.265    14819.596    78.581633 
   30000    1691.0066   -162.48501    1.5300583   -160.95495   -16802.232     4.266235     4.266235     4.266235   -16802.232   -21315.067    -17105.07   -11986.559   -10977.525    63578.495    421.26719    77.648726 
   30100     1205.205   -162.06092    1.0904948   -160.97042    10419.803    4.2518381    4.2518381    4.2518381    10419.803   -48214.551    7130.5944    72343.365   -1325.6085    72366.116    14238.985    76.865272 
   30200    1012.6624   -161.92155   0.91627825   -161.00528   -34216.864    4.2517657    4.2517657    4.2517657   -34216.864   -83065.623    38797.589   -58382.559   -5917.9226    92849.728   -485.59593    76.861346 
   30300    599.26003   -161.57578   0.54222306   -161.03356    24078.755    4.2423255    4.2423255    4.2423255    24078.755    -78331.27    54546.144    96021.392   -16097.578    103134.74    11327.889    76.350514 
   30400    462.43949   -161.47594   0.41842497   -161.05752   -30070.216    4.2470783    4.2470783    4.2470783   -30070.216   -120517.22    60292.976   -29986.402   -35013.605    70847.411   -858.17618    76.607414 
   30500    915.55811   -161.87941   0.82841622   -161.05099   -3034.3157    4.2484879    4.2484879    4.2484879   -3034.3157   -107954.12    70608.146    28243.026   -27571.444    79016.833    6551.8569    76.683719 
   30600    1215.7043   -162.14931    1.0999948   -161.04931   -10966.823    4.2560854    4.2560854    4.2560854   -10966.823   -37730.089    25853.672   -21024.051   -26395.357    84337.203    15305.146    77.095848 
   30700    1264.7549   -162.18032    1.1443768   -161.03595   -16885.651    4.2507687    4.2507687    4.2507687   -16885.651   -72040.522    23512.556   -2128.9884   -39155.694    74497.594    653.76689    76.807286 
   30800    918.02206   -161.87134   0.83064565   -161.04069    39595.715    4.2439197    4.2439197    4.2439197    39595.715   -2594.1439    45154.624    76226.666   -35880.109    59008.275   -8834.7283    76.436621 
   30900    1164.2462   -162.09366    1.0534344   -161.04023   -29581.512    4.2589386    4.2589386    4.2589386   -29581.512   -59500.225   -6363.7053   -22880.605   -22168.358    61493.147   -22876.777    77.251004 
   31000    1327.5834   -162.23452    1.2012253   -161.03329     11323.31    4.2517552    4.2517552    4.2517552     11323.31   -14632.417    -5884.692    54487.039   -4795.2438    70672.236   -8490.7628    76.860772 
   31100    1702.4904   -162.57559    1.5404491   -161.03514   -11927.133    4.2511337    4.2511337    4.2511337   -11927.133    -40271.14     7745.875   -3256.1347   -12.059113    44908.006   -4113.1743    76.827072 
   31200    2236.5075   -163.04629     2.023639   -161.02265   -13829.549    4.2507913    4.2507913    4.2507913   -13829.549   -40516.185    -15086.15    14113.687    30982.469     18917.76   -18878.387    76.808514 
   31300    2526.7244   -163.30411    2.2862333   -161.01787   -1101.1656    4.2650675    4.2650675    4.2650675   -1101.1656    -15129.03   -14275.902    26101.435    28678.196    -1499.467    1432.6444    77.584994 
   31400    2827.0521    -163.5295    2.5579762   -160.97152   -54767.591    4.2919223    4.2919223    4.2919223   -54767.591   -85148.366   -34009.783   -45144.625    31309.644   -37323.023   -7432.8479    79.059773 
   31500    2523.7699   -163.21569    2.2835601   -160.93213   -28117.507    4.2783978    4.2783978    4.2783978   -28117.507   -82664.478   -14753.395    13065.353    1116.9377   -17750.318    7181.7915    78.314737 
   31600    2032.9208   -162.76372    1.8394295   -160.92429    27463.937    4.2464179    4.2464179    4.2464179    27463.937   -36974.003    -51379.86    170745.67   -19035.992   -6604.9425   -9034.1999    76.571683 
   31700    1844.3343   -162.63014    1.6687924   -160.96135    29004.355    4.2433367    4.2433367    4.2433367    29004.355   -45296.995    52039.675    80270.386   -43959.804    -2578.942    8144.2036    76.405125 
   31800    1615.9094   -162.46867    1.4621088   -161.00656   -8112.9121    4.2630038    4.2630038    4.2630038   -8112.9121   -18669.483   -42239.504     36570.25    -50279.56   -6252.7706    10541.923    77.472429 
   31900    1376.0501   -162.24818     1.245079    -161.0031    -23213.54    4.2726559    4.2726559    4.2726559    -23213.54   -101772.66    22623.836    9508.2053   -80838.411   -3492.3856    21759.391    77.999847 
   32000    1147.5479   -162.04537    1.0383255   -161.00704    11176.054     4.250318     4.250318     4.250318    11176.054   -30278.893   -6518.7439    70325.799   -89878.607     -4836.57   -2983.4416    76.782855 
   32100    1459.7874   -162.32138    1.3208463   -161.00054    260.75361    4.2385011    4.2385011    4.2385011    260.75361   -41161.456   -12130.174    54073.891   -89811.985   -598.47837    11130.705     76.14421 
   32200    1800.8206   -162.64808    1.6294203   -161.01866    1931.8929    4.2569565    4.2569565    4.2569565    1931.8929   -500.40832    10091.172   -3795.0845   -75571.557    5783.0608    12441.026    77.143197 
   32300    2265.7602   -163.03187    2.0501075   -160.98176   -38511.131    4.2857656    4.2857656    4.2857656   -38511.131   -103543.87   -7110.2986   -4879.2255   -50094.659    10626.468    34129.301    78.720028 
   32400    2886.1372   -163.54417    2.6114376   -160.93273   -59705.373    4.2799177    4.2799177    4.2799177   -59705.373   -85711.926   -63617.802   -29786.392   -26386.418     16127.81    35102.591    78.398231 
   32500    2749.4729   -163.40484    2.4877809   -160.91706    2268.4901    4.2527062    4.2527062    4.2527062    2268.4901    254.83646    2705.8924    3844.7415   -3296.8888     17229.93    1025.2846    76.912362 
   32600    1967.4938   -162.72262    1.7802297   -160.94239    54672.171    4.2419997    4.2419997    4.2419997    54672.171    41989.959    14022.131    108004.42   -11628.534    19035.653   -51234.587    76.332925 
   32700    1295.0275   -162.17426    1.1717681   -161.00249    191.74513    4.2720104    4.2720104    4.2720104    191.74513    69021.453    816.16636   -69262.384    10043.798    19535.563   -93984.765    77.964501 
   32800    559.51263   -161.47052   0.50625879   -160.96426    11836.027    4.2910677    4.2910677    4.2910677    11836.027    171534.32   -86608.271   -49417.964   -4003.5772    43545.775   -97369.206    79.012555 
   32900    740.48473   -161.58069   0.67000614   -160.91069    70896.663    4.2827507    4.2827507    4.2827507    70896.663    176306.38    57358.379   -20974.768    25091.977    27566.728   -70697.397    78.554012 
   33000    1923.9882   -162.62425    1.7408649   -160.88338    670.36175    4.2818693    4.2818693    4.2818693    670.36175    32166.624   -39347.331    9191.7923    -6777.955    25565.139   -29679.782    78.505524 
   33100    2880.8189   -163.48524    2.6066255   -160.87862    12812.175    4.2555608    4.2555608    4.2555608    12812.175    19736.499   -31809.322    50509.348   -13062.149    12593.756    13485.154    77.067347 
   33200    3421.1574   -164.00845    3.0955351   -160.91291    12926.399    4.2481279    4.2481279    4.2481279    12926.399   -35644.883    27176.288    47247.792    1931.9216    18390.989    42783.927    76.664224 
   33300    3294.0264   -163.93022    2.9805043   -160.94972    15624.839      4.25234      4.25234      4.25234    15624.839   -38938.701    28348.629    57464.588   -12318.971   -1101.8233    45806.954    76.892492 
   33400      2777.27   -163.49048    2.5129323   -160.97755    6729.3029    4.2554579    4.2554579    4.2554579    6729.3029    3507.9147    -28405.34    45085.334    -13872.87   -5591.4148    4515.6802    77.061754 
   33500    1868.5483   -162.67532    1.6907018   -160.98461    10671.095    4.2709361    4.2709361    4.2709361    10671.095     39041.39   -63655.254    56627.149   -16352.412   -19668.796   -27888.649    77.905698 
   33600    1218.4812   -162.07233    1.1025074   -160.96982    58345.815    4.2725974    4.2725974    4.2725974    58345.815    177355.65    7166.3128   -9484.5178   -21281.004   -23408.345   -47082.883    77.996646 
   33700    1190.5996   -162.02245    1.0772796   -160.94517   -28729.047    4.2828086    4.2828086    4.2828086   -28729.047     48252.62   -77728.111    -56711.65   -37880.584   -17090.668    -83857.19      78.5572 
   33800    1572.3107   -162.36323    1.4226598   -160.94057    21923.755    4.2647291    4.2647291    4.2647291    21923.755    118340.98   -42685.717   -9883.9924   -29496.095    6289.7965   -79378.278    77.566529 
   33900    2282.9045    -163.0199    2.0656199   -160.95428   -6269.4869    4.2464947    4.2464947    4.2464947   -6269.4869    31865.322   -26902.566   -23771.216   -27957.566   -4425.8046   -73385.487    76.575839 
   34000    2954.0599   -163.65296    2.6728955   -160.98007    6378.8364     4.228679     4.228679     4.228679    6378.8364    34661.933   -7960.8975   -7564.5265   -27763.632   -2344.3312   -35307.933    75.616077 
   34100    3483.0011   -164.16873    3.1514926   -161.01724    13287.285    4.2457898    4.2457898    4.2457898    13287.285    32778.708    1343.7789    5739.3675   -24938.867   -9942.3672   -10974.918    76.537711 
   34200    3403.4224   -164.07314    3.0794881   -160.99365   -33308.086    4.2765947    4.2765947    4.2765947   -33308.086   -19710.637   -47993.927   -32219.694   -26998.948   -2477.8473   -3619.8526    78.215763 
   34300     3017.582   -163.69532    2.7303716   -160.96494   -19897.566    4.2702554    4.2702554    4.2702554   -19897.566   -45976.786    -20360.88    6644.9688   -19446.683   -1103.4824   -18803.384    77.868455 
   34400    2555.2246   -163.27734    2.3120209   -160.96532    -22290.59    4.2514411    4.2514411    4.2514411    -22290.59     5344.231   -38976.322   -33239.679   -37943.114   -11755.351   -25224.482     76.84374 
   34500    2170.7836   -162.94492    1.9641706   -160.98075    29701.891    4.2291404    4.2291404    4.2291404    29701.891    42896.951    -27608.64    73817.363   -59253.162   -15098.978   -10946.196    75.640836 
   34600     1677.274   -162.53682    1.5176328   -161.01918    23456.119    4.2372546    4.2372546    4.2372546    23456.119    4050.2206    43109.948    23208.188   -65287.682   -20513.256   -11451.183    76.077055 
   34700    1156.6985   -162.07254    1.0466051   -161.02594   -22813.487    4.2698221    4.2698221    4.2698221   -22813.487   -10960.314   -37244.788   -20235.359   -34369.028   -42471.035   -25868.115    77.844751 
   34800    699.56379   -161.62062   0.63298002   -160.98764   -22248.053    4.2770821    4.2770821    4.2770821   -22248.053   -10749.948   -52712.251   -3281.9606    -35951.68   -29125.002   -30550.955    78.242508 
   34900    988.61648   -161.85959   0.89452097   -160.96507    4823.8656    4.2613834    4.2613834    4.2613834    4823.8656   -21001.172    55523.762   -20050.994   -20908.613   -43766.317   -23193.071    77.384114 
   35000    1632.6652   -162.43286    1.4772698   -160.95559   -2346.6805    4.2531937    4.2531937    4.2531937   -2346.6805   -50978.037    8130.2641    35807.731   -23880.767    -36904.29   -12542.631    76.938814 
   35100    1988.4827   -162.77215    1.7992209   -160.97293    6343.0404      4.25608      4.25608      4.25608    6343.0404   -22109.882    44719.239   -3580.2358   -7733.9512   -25068.978   -31308.416    77.095554 
   35200    2834.9288    -163.5281    2.5651032   -160.96299   -1670.0908    4.2621441    4.2621441    4.2621441   -1670.0908   -9210.1917    18026.948   -13827.029     2769.947    6915.7782   -3001.4229    77.425564 
   35300    2854.3412   -163.53516    2.5826679   -160.95249   -7905.5248    4.2742072    4.2742072    4.2742072   -7905.5248   -21296.706   -3292.7491    872.88112    9812.5057    -5234.992   -16908.278    78.084841 
   35400    2530.6616   -163.22884    2.2897958   -160.93904   -22751.991    4.2733917    4.2733917    4.2733917   -22751.991   -51772.586   -58829.031    42345.644    41974.832    9272.9377   -13141.913     78.04015 
   35500    1880.5184   -162.63203    1.7015326    -160.9305    17938.271     4.250503     4.250503     4.250503    17938.271   -39105.263    29346.879    63573.197    75888.344    22073.248   -25001.971    76.792887 
   35600    1340.2439   -162.17024    1.2126809   -160.95756    19133.422    4.2521337    4.2521337    4.2521337    19133.422    14267.934   -11533.449    54665.781     96066.18    22342.337   -13310.377    76.881301 
   35700    1399.5366   -162.25049    1.2663301   -160.98416   -28266.569    4.2554811    4.2554811    4.2554811   -28266.569   -81626.062    -79846.11    76672.466    116861.78    14194.796   -24100.882    77.063017 
   35800    1501.0098   -162.35909    1.3581452   -161.00095    15618.996    4.2425511    4.2425511    4.2425511    15618.996   -62200.122    20947.064    88110.047     116073.5     11953.67   -11364.627    76.362694 
   35900    1439.9477   -162.32642     1.302895   -161.02353   -10397.513    4.2531561    4.2531561    4.2531561   -10397.513   -38792.582   -46221.558    53821.603    106700.39    1416.6014   -23394.772    76.936775 
   36000    1662.7541   -162.52679    1.5044949    -161.0223   -25871.058    4.2468996    4.2468996    4.2468996   -25871.058   -93239.733   -19720.988    35347.548    109206.12   -3281.7901   -3781.9333    76.597747 
   36100    1853.9838   -162.70483    1.6775235   -161.02731    4258.6666    4.2458007    4.2458007    4.2458007    4258.6666   -86018.278   -335.39813    99129.676    82533.734    9336.8253   -4999.9643    76.538299 
   36200    2475.4684      -163.24    2.2398558   -161.00015   -34769.328      4.25436      4.25436      4.25436   -34769.328   -89583.337   -54546.576    39821.929    57956.929   -6624.9748   -2562.4276    77.002124 
   36300    2588.9045   -163.33343    2.3424952   -160.99093    24690.794     4.243964     4.243964     4.243964    24690.794   -32776.157     75611.85    31236.689    39758.987     19729.17    1992.0461    76.439016 
   36400     2934.209   -163.65191    2.6549339   -160.99697   -7515.5285    4.2534515    4.2534515    4.2534515   -7515.5285    1502.0707   -39576.909    15528.252    26072.489   -8451.7368    2433.5691    76.952804 
   36500     2670.411   -163.39929     2.416244   -160.98305   -22929.039    4.2596166    4.2596166    4.2596166   -22929.039   -28167.546   -20732.473   -19887.099     19615.08   -1543.5822   -9806.0546    77.287904 
   36600    2424.9395   -163.17554    2.1941362   -160.98141   -7085.5346     4.252725     4.252725     4.252725   -7085.5346    27939.163   -14494.298   -34701.468   -7181.8582   -2096.0155   -6743.0514    76.913381 
   36700    1890.9396   -162.70319    1.7109619   -160.99223   -16914.408    4.2503311    4.2503311    4.2503311   -16914.408    22206.949    6381.9334   -79332.105    9964.7192   -24713.254   -38946.109    76.783568 
   36800    1184.4423     -162.072    1.0717082   -161.00029    32491.021    4.2466675    4.2466675    4.2466675    32491.021     69487.42    35805.751   -7820.1087   -5317.0674   -29000.215   -27415.249    76.585189 
   36900    913.95901   -161.83213   0.82696932   -161.00517   -32913.243     4.259513     4.259513     4.259513   -32913.243     10005.04   -38559.566   -70185.203    12318.726   -23891.034    -9160.375    77.282265 
   37000     833.0563   -161.74412   0.75376684   -160.99035   -13449.226    4.2615529    4.2615529    4.2615529   -13449.226    27752.814   -4999.2779   -63101.213   -5620.6374   -6787.7244    -11429.74     77.39335 
   37100    974.05681   -161.86705   0.88134707    -160.9857    22708.549    4.2577005    4.2577005    4.2577005    22708.549    26962.169   -11918.156    53081.634   -2397.0913    -14636.94    12622.427    77.183652 
   37200    1689.4754   -162.50719    1.5286729   -160.97852   -28859.457    4.2592669    4.2592669    4.2592669   -28859.457    749.85166   -36773.537   -50554.686   -5975.7379    -35212.25   -2103.6873    77.268869 
   37300    2305.4864   -163.06737    2.0860525   -160.98132   -4829.4031    4.2579802    4.2579802    4.2579802   -4829.4031    17133.929   -28275.084   -3347.0541    19433.705   -22959.385    1555.0561    77.198863 
   37400    2705.5224   -163.41823    2.4480135   -160.97021   -21031.687    4.2608187    4.2608187    4.2608187   -21031.687   -35895.681   -7172.1228   -20027.258    13259.107   -26813.311    11853.373    77.353357 
   37500    2925.9258    -163.6147    2.6474391   -160.96726    2173.4326    4.2514975    4.2514975    4.2514975    2173.4326   -18062.697    33726.056   -9143.0604    -967.4561    -2235.228   -5094.3224    76.846801 
   37600     2805.435   -163.51136    2.5384166   -160.97294    33848.511    4.2457213    4.2457213    4.2457213    33848.511    4143.1161    31368.232    66034.184    7468.3308    14832.155   -10345.491    76.534008 
   37700    2503.4547   -163.25777    2.2651784   -160.99259   -33773.911    4.2592417    4.2592417    4.2592417   -33773.911   -38977.921    19940.121   -82283.933   -1044.8675    59534.934    9487.1246    77.267501 
   37800    2290.6867   -163.06752    2.0726615   -160.99486   -28052.081    4.2552478    4.2552478    4.2552478   -28052.081   -51829.272    47256.629   -79583.599    10672.911    72220.473   -13871.878    77.050344 
   37900     1778.825   -162.59997    1.6095183   -160.99045    36259.231    4.2461723    4.2461723    4.2461723    36259.231    40650.051    92418.073    -24290.43    950.57745    73893.094    13958.992    76.558401 
   38000    1395.5609   -162.26449    1.2627329   -161.00175   -15380.633     4.263244     4.263244     4.263244   -15380.633   -44789.195    108969.54   -110322.25    14611.739    97868.759   -5270.8936    77.485526 
   38100    1038.3087   -161.92308   0.93948357    -160.9836    11524.223    4.2572154    4.2572154    4.2572154    11524.223   -33736.025    135248.79   -66940.095    475.94213    117599.26   -2604.0718    77.157275 
   38200    1421.0933   -162.25709    1.2858351   -160.97125    23478.856    4.2525202    4.2525202    4.2525202    23478.856   -2311.5619    92411.441    -19663.31    12867.364    104922.72    22215.369    76.902271 
   38300     2154.856   -162.92218     1.949759   -160.97242    -28917.49    4.2621446    4.2621446    4.2621446    -28917.49   -72426.535    39056.398   -53382.332   -2918.1426    74261.012   -6024.5628    77.425591 
   38400    2794.7175   -163.49924    2.5287191   -160.97052   -443.52035    4.2448105    4.2448105    4.2448105   -443.52035    -48575.89    118.83166    47126.498   -6585.7063   -6507.5846   -1846.3515    76.484765 
   38500    3038.9154    -163.7291    2.7496745   -160.97942   -6099.1977    4.2481246    4.2481246    4.2481246   -6099.1977    -27202.09   -15728.342    24632.839    169.69106   -56702.607   -7873.0306    76.664048 
   38600    2879.6727   -163.58156    2.6055884   -160.97598   -10585.594    4.2543802    4.2543802    4.2543802   -10585.594   -17774.334    4512.9322    -18495.38   -8710.6066   -69331.957   -19674.795    77.003219 
   38700    2631.5602   -163.35871     2.381091   -160.97762   -20682.317    4.2648074    4.2648074    4.2648074   -20682.317   -317.58248   -35965.458    -25763.91    3212.8831   -38249.015   -1817.3468    77.570798 
   38800    2048.6819   -162.82768    1.8536904   -160.97399   -44530.559    4.2724114    4.2724114    4.2724114   -44530.559    -60836.12     13344.98   -86100.536   -946.38037    21279.746    1932.7304    77.986456 
   38900    1543.0435   -162.36205    1.3961782   -160.96587    40500.729    4.2434291    4.2434291    4.2434291    40500.729     77936.29    81578.716   -38012.818    10350.074    74698.198    7742.0221    76.410113 
   39000    1135.4241   -162.01399    1.0273556   -160.98664   -31464.648    4.2396365    4.2396365    4.2396365   -31464.648   -60382.035    24495.672   -58507.582   -1843.5102    123626.18    21967.235    76.205419 
   39100    813.12204   -161.75563   0.73572991    -161.0199     260.8973    4.2399898    4.2399898    4.2399898     260.8973   -21618.745    65218.095   -42816.659   -4641.3544    142698.44   -863.63912    76.224475 
   39200    594.04856   -161.58707   0.53750762   -161.04956     16327.56    4.2473847    4.2473847    4.2473847     16327.56   -6425.8668    73166.041   -17757.494   -4390.6525    144018.01   -5415.6304    76.623997 
   39300    807.89822   -161.76098   0.73100328   -161.02998   -47660.671    4.2710899    4.2710899    4.2710899   -47660.671   -92188.608    24988.856   -75782.261    -4685.623    135775.96   -5334.6459    77.914112 
   39400    1453.7184   -162.31008    1.3153549   -160.99473    6479.2713    4.2556475    4.2556475    4.2556475    6479.2713    27388.555    44849.392   -52800.132    -19718.03    87096.195   -7747.8153    77.072058 
   39500     2011.837   -162.79579    1.8203524   -160.97544    28495.555    4.2453437    4.2453437    4.2453437    28495.555    25751.271    75018.802   -15283.408   -14129.909    28391.722   -15025.121    76.513588 
   39600    2545.9628    -163.2696    2.3036406   -160.96596   -19968.843    4.2554669    4.2554669    4.2554669   -19968.843   -11522.963    15344.377   -63727.942    2789.6549    -10763.46   -28434.291    77.062246 
   39700    3141.4001   -163.80486    2.8424048   -160.96246   -12360.833    4.2552619    4.2552619    4.2552619   -12360.833    2596.7555   -7507.7231   -32171.531    105.95083   -42278.958   -18373.356    77.051106 
   39800    3313.6434   -163.97118    2.9982542   -160.97293   -13975.998    4.2624151    4.2624151    4.2624151   -13975.998   -15956.941   -26768.388      797.335    1828.5816   -38362.774   -24234.113    77.440336 
   39900    3250.6725   -163.91936    2.9412768   -160.97808   -17176.014     4.260246     4.260246     4.260246   -17176.014    9151.5927   -18946.519   -41733.115    10222.875   -22384.746   -8625.8833     77.32217 
   40000    2831.3524   -163.54569    2.5618672   -160.98382    6576.4215    4.2430404    4.2430404    4.2430404    6576.4215     -4572.66    20735.992    3565.9329    12799.083   -5622.8154    1982.6118    76.389118 
   40100    2519.7935   -163.27185    2.2799622   -160.99189   -12842.178    4.2456178    4.2456178    4.2456178   -12842.178     302.4492     21786.34   -60615.323    8121.4304    55784.903    6490.1187    76.528412 
   40200    1989.2569   -162.79974    1.7999214   -160.99982   -29807.493    4.2600859    4.2600859    4.2600859   -29807.493   -23227.446    23979.342   -90174.374    6775.1096    87682.125    1729.6899    77.313451 
   40300    1301.2304   -162.17568    1.1773806    -160.9983    26854.459    4.2591804    4.2591804    4.2591804    26854.459    18265.987    18529.216    43768.175    7022.2474     122816.3    22292.279    77.264166 
   40400    1087.8495    -161.9825   0.98430911   -160.99819    -31164.88    4.2561413    4.2561413    4.2561413    -31164.88   -26525.709     23272.13    -90241.06   -1158.5741    144364.32    17040.321     77.09889 
   40500    1205.3058   -162.09594    1.0905861   -161.00536   -21481.079    4.2390234    4.2390234    4.2390234   -21481.079   -100694.58    79561.024   -43309.678   -1519.4408    163150.25    12204.999    76.172367 
   40600    1029.3928   -161.95211   0.93141628   -161.02069    51823.068     4.237862     4.237862     4.237862    51823.068    27079.731    91089.128    37300.345   -12532.931    126935.69    5036.5687    76.109772 
   40700    1292.0594    -162.1824    1.1690825   -161.01331    -46348.09    4.2677069    4.2677069    4.2677069    -46348.09   -113286.25    5718.4532   -31476.472   -11107.374    112522.13    801.08653    77.729123 
   40800    1765.8778   -162.59372    1.5978034   -160.99592   -17919.873     4.257747     4.257747     4.257747   -17919.873   -59161.209    28534.809    -23133.22    -10769.33    68483.909   -5256.7273    77.186184 
   40900    2248.2684   -163.01921    2.0342805   -160.98493    30592.906    4.2489627    4.2489627    4.2489627    30592.906    36593.737    32831.349    22353.631     -10642.3    14254.162   -597.01358    76.709432 
   41000    2999.2698    -163.6956    2.7138024    -160.9818   -20703.852    4.2596285    4.2596285    4.2596285   -20703.852   -15919.886   -32448.861   -13742.811   -16269.727    1956.0247   -12948.208    77.288555 
   41100    3477.1695   -164.12141     3.146216    -160.9752   -12886.229    4.2588023    4.2588023    4.2588023   -12886.229   -31920.252   -22303.969    15565.535   -22784.365   -27054.232   -14143.926    77.243589 
   41200    3648.3835   -164.27504    3.3011341   -160.97391   -7644.5762    4.2586515    4.2586515    4.2586515   -7644.5762   -34559.113   -15494.878    27120.262   -12934.142   -44986.652    9433.8343    77.235384 
   41300    3275.9081   -163.92373    2.9641105   -160.95962   -21354.414    4.2608126    4.2608126    4.2608126   -21354.414   -44422.788   -31622.091    11981.636   -1328.5595   -10515.137   -2482.0148    77.353022 
   41400    2294.3577   -163.03307     2.075983   -160.95709   -6531.7021    4.2625665    4.2625665    4.2625665   -6531.7021    648.12483   -20515.973    272.74207   -15433.409    10188.821    10513.235    77.448588 
   41500    1600.1729   -162.41101    1.4478701   -160.96314   -16427.544     4.257192     4.257192     4.257192   -16427.544   -1781.4443   -27843.807    -19657.38    5084.1983    56176.645   -24087.611    77.156001 
   41600    1343.7452   -162.20037    1.2158489   -160.98452     9233.005    4.2464406    4.2464406    4.2464406     9233.005    12744.883    43938.159   -28984.027    5232.5485    66516.375   -24795.023     76.57291 
   41700    895.99063   -161.81751   0.81071115    -161.0068    21172.984    4.2571384    4.2571384    4.2571384    21172.984   -26692.895    64518.398    25693.448    7316.3273    95325.515   -43598.373    77.153088 
   41800    935.98664   -161.84606   0.84690038   -160.99915    23375.048    4.2729146    4.2729146    4.2729146    23375.048    35168.193    79436.544   -44479.593    3138.2369     80777.72    -49200.41    78.014017 
   41900    1161.1562   -162.01155    1.0506386   -160.96091    8.3355733    4.2773984    4.2773984    4.2773984    8.3355733   -29864.638    82882.425    -52992.78    8856.9515    72593.423   -53700.873    78.259869 
   42000    1709.1168   -162.48333    1.5464448   -160.93688    13332.934    4.2647667    4.2647667    4.2647667    13332.934    34454.098    68562.355   -63017.652   -2139.5019    52748.731   -20816.756    77.568578 
   42100    2549.0401   -163.23248     2.306425   -160.92605   -803.64722    4.2581771    4.2581771    4.2581771   -803.64722   -15296.304    65955.947   -53070.584    3933.9198    22427.819   -13667.693    77.209573 
   42200    3369.2316   -163.96708    3.0485515   -160.91852   -10621.988    4.2654192    4.2654192    4.2654192   -10621.988   -303.17696    5460.7296   -37023.516   -19889.677   -20114.204    22302.432    77.604189 
   42300    3599.7607   -164.16321    3.2571391   -160.90607   -45131.132    4.2853823    4.2853823    4.2853823   -45131.132   -23461.781   -37157.812   -74773.803   -4043.3725   -25439.411    10182.437     78.69891 
   42400    2997.4074   -163.60442    2.7121172    -160.8923   -61059.306    4.2841497    4.2841497    4.2841497   -61059.306   -35763.979   -50382.016   -97031.922    3926.2099    6502.4886    2457.1774    78.631019 
   42500    2235.6728   -162.93098    2.0228838    -160.9081    5522.8449    4.2486076    4.2486076    4.2486076    5522.8449    30801.149    28014.316    -42246.93    6680.3161    40277.856   -12641.937    76.690198 
   42600    1670.7699   -162.45073    1.5117477   -160.93898    20469.977    4.2341504    4.2341504    4.2341504    20469.977    37822.147    66876.381   -43288.598    4490.2043    75625.547   -5650.9745    75.909975 
   42700    1320.0798    -162.1854     1.194436   -160.99096   -29940.452    4.2482188    4.2482188    4.2482188   -29940.452   -28582.109     40451.77   -101691.02    5103.0436    95232.254    -13984.32    76.669145 
   42800    732.75598   -161.67579   0.66301301   -161.01277     37840.98    4.2557319    4.2557319    4.2557319     37840.98    57677.357    24576.711    31268.874    8389.3371    102304.34   -3475.4453     77.07664 
   42900    667.97335   -161.61651   0.60439632   -161.01211    -56802.83    4.2687903    4.2687903    4.2687903    -56802.83   -58942.192    5918.5239   -117384.82    3640.0086    122512.19    9335.6377    77.788331 
   43000    695.80832   -161.62882   0.62958199   -160.99924    14757.511    4.2450798    4.2450798    4.2450798    14757.511   -43621.305    120914.09   -33020.251   -965.53599    113251.38    12613.024    76.499321 
   43100     1090.791   -161.98216   0.98697066   -160.99519    43050.079    4.2466207    4.2466207    4.2466207    43050.079    49921.532     106844.6   -27615.897    11377.187    82350.558    4213.4229    76.582652 
   43200    2272.2844   -163.01491    2.0560106   -160.95889   -33717.282    4.2732879    4.2732879    4.2732879   -33717.282   -52238.067    38618.035   -87531.814     4297.457    16870.465    4069.7301    78.034465 
   43300    3277.3555   -163.88137    2.9654202   -160.91595   -22622.941    4.2743623    4.2743623    4.2743623   -22622.941   -6250.9537   -34635.406   -26982.464    1561.9152   -43551.535   -8608.0967    78.093337 
   43400    3689.8039   -164.24022    3.3386121   -160.90161   -24721.748    4.2638099    4.2638099    4.2638099   -24721.748   -11972.456   -46012.664   -16180.124    4864.2097   -49478.873   -12641.809    77.516381 
   43500    2807.8694   -163.45016    2.5406192   -160.90954    24562.906    4.2530174    4.2530174    4.2530174    24562.906   -22548.465    25497.591    70739.591    1757.5279    11003.749   -23105.725    76.929248 
   43600    1654.0357   -162.44687    1.4966063   -160.95027   -32749.964    4.2692536    4.2692536    4.2692536   -32749.964   -64799.186    33407.819   -66858.525    3293.5757    105733.96    2139.9465    77.813661 
   43700    574.18187   -161.46765   0.51953182   -160.94811    9497.4309    4.2716504    4.2716504    4.2716504    9497.4309   -39951.224    83554.597    -15111.08    3970.8322     155590.2    3081.4615    77.944794 
   43800    554.30061   -161.44356   0.50154284   -160.94202    1510.5333    4.2594173    4.2594173    4.2594173    1510.5333   -43428.733    68137.459   -20177.126    2214.4796    158182.01      3298.96    77.277056 
   43900    1529.8204   -162.32276    1.3842137   -160.93855    3052.8872    4.2491715    4.2491715    4.2491715    3052.8872   -30041.082    78656.617   -39456.873    8183.9837    94974.794    5581.8371    76.720741 
   44000    2755.4888   -163.42622    2.4932242   -160.93299    3792.2878     4.264411     4.264411     4.264411    3792.2878   -4685.7015   -6595.1787    22657.744    1708.6826    211.82529   -10924.367    77.549174 
   44100    3464.4307   -164.03423    3.1346897   -160.89954    -35237.06    4.2773672    4.2773672    4.2773672    -35237.06    518.87844    -70493.65   -35736.408    5440.1249   -51275.812   -8509.9435    78.258153 
   44200    2784.5816   -163.40678    2.5195479   -160.88724   -22146.558    4.2708539    4.2708539    4.2708539   -22146.558   -35317.011   -30359.463   -763.19909    4450.4992    3963.7482    1087.5895    77.901202 
   44300    1338.4492   -162.12126     1.211057    -160.9102    8210.1894    4.2607596    4.2607596    4.2607596    8210.1894   -45798.685    80878.646   -10449.393    1283.3818    101974.69    -8790.762    77.350139 
   44400    794.80975   -161.64356   0.71916056    -160.9244    41155.295    4.2480518    4.2480518    4.2480518    41155.295    5840.6433    159271.86   -41646.614    7299.6343    158316.93   -10593.407    76.660108 
   44500    775.35758     -161.651   0.70155983   -160.94944    9334.0427    4.2645017    4.2645017    4.2645017    9334.0427   -85292.892    145599.66   -32304.641    3595.7982    154727.34   -4862.7499    77.554121 
   44600     1548.519   -162.33099    1.4011326   -160.92986   -30050.457     4.280551     4.280551     4.280551   -30050.457   -60532.438    66328.273   -95947.207      15194.7    85168.732   -7981.5184    78.433038 
   44700     2782.152   -163.41263    2.5173496   -160.89528   -5405.3274    4.2659558    4.2659558    4.2659558   -5405.3274   -18961.283   -323.73531    3069.0364    12573.729   -12811.199   -2906.1106    77.633478 
   44800    3414.6615   -163.97364    3.0896575   -160.88398    335.35835     4.257996     4.257996     4.257996    335.35835   -7456.9716   -17115.522    25578.569     7422.586   -52822.343   -4372.9797    77.199723 
   44900     2850.519   -163.49199    2.5792095   -160.91278    10522.275    4.2588001    4.2588001    4.2588001    10522.275   -4858.2814    17369.999    19055.108   -6249.0431   -20078.723   -2578.6243    77.243471 
   45000    2112.6734   -162.85203    1.9115913   -160.94044   -3579.6298    4.2557855    4.2557855    4.2557855   -3579.6298    1623.9755    -6993.448   -5369.4169    -1957.064    35256.807     -11095.2    77.079551 
   45100    1034.7485   -161.90689   0.93626216   -160.97063   -42274.917    4.2611399    4.2611399    4.2611399   -42274.917   -81370.673    16566.079   -62020.157    -17592.37    98245.713    -1971.009     77.37085 
   45200    473.26095   -161.41576   0.42821645   -160.98755    47821.736    4.2505569    4.2505569    4.2505569    47821.736    40044.402    116932.01   -13511.201    2634.6548    134344.79   -3254.3719    76.795804 
   45300    599.07721   -161.53839   0.54205765   -160.99634    5441.9789    4.2631146    4.2631146    4.2631146    5441.9789   -44946.233    100246.44   -38974.272   -6045.8418    130930.08   -4610.1316     77.47847 
   45400     834.8069   -161.73205   0.75535082    -160.9767   -36502.893    4.2680908    4.2680908    4.2680908   -36502.893   -29705.699    22129.421    -101932.4   -16860.894    118898.68    5436.7901    77.750097 
   45500    1299.6113   -162.16098    1.1759157   -160.98507    2782.0448     4.242454     4.242454     4.242454    2782.0448   -22015.239    67088.573     -36727.2   -3993.1666    106010.48    8507.2858    76.357452 
   45600    1376.7565   -162.25564    1.2457182   -161.00993     9970.789    4.2397317    4.2397317    4.2397317     9970.789   -3566.9073    85047.646   -51568.371   -9854.8136    77660.738    26840.369    76.210557 
   45700    1983.0464   -162.80593    1.7943021   -161.01163   -22804.471    4.2470785    4.2470785    4.2470785   -22804.471   -50779.408   -10092.785   -7541.2195   -6401.2311    40405.851    8935.1495    76.607423 
   45800    2727.5205   -163.47585    2.4679179   -161.00793    10352.869    4.2538557    4.2538557    4.2538557    10352.869    29804.019    23903.026   -22648.437   -18889.447   -11398.146     9557.826    76.974745 
   45900    3171.0529   -163.85646    2.8692353   -160.98723   -29954.964     4.262212     4.262212     4.262212   -29954.964    -35307.41   -22181.713   -32375.769   -20252.428   -49447.158   -139.63718    77.429265 
   46000    3038.0438   -163.71804    2.7488859   -160.96915   -20815.987    4.2586344    4.2586344    4.2586344   -20815.987   -40847.509   -28551.625    6951.1727   -34419.804   -40212.478    6160.2399    77.234451 
   46100     2670.453   -163.38744     2.416282   -160.97115    5136.2606    4.2454264    4.2454264    4.2454264    5136.2606    7928.7038   -17867.099    25347.177   -254.93491   -19088.403   -12503.797     76.51806 
   46200    2335.5771   -163.09818    2.1132793    -160.9849    -20431.44    4.2416865    4.2416865    4.2416865    -20431.44    -36187.14    7332.6486    -32439.83   -9543.8168    21247.196    -7685.655    76.316017 
   46300    1916.0032   -162.73937      1.73364   -161.00573    4458.9359    4.2468806    4.2468806    4.2468806    4458.9359   -47720.315    62918.305   -1821.1824    15308.344    49757.791   -36746.896    76.596716 
   46400    1312.6811   -162.20909    1.1877414   -161.02135    31111.025    4.2508436    4.2508436    4.2508436    31111.025    36345.961    84432.923   -27445.811    3242.1519    70582.366   -23931.436    76.811345 
   46500    853.37005   -161.77837   0.77214715   -161.00623   -28619.866    4.2620415    4.2620415    4.2620415   -28619.866   -87124.956    84723.103   -83457.744    19996.983    111510.67   -45228.785    77.419976 
   46600    723.54171   -161.64884   0.65467575   -160.99417   -7816.8078     4.259667     4.259667     4.259667   -7816.8078   -72376.201    81767.258   -32841.481    16713.592    121093.74   -34185.866    77.290646 
   46700    757.44304   -161.68055   0.68535038    -160.9952   -17756.206    4.2536281    4.2536281    4.2536281   -17756.206   -14698.762    25747.172   -64317.028     10503.57    103488.12   -34587.656    76.962389 
   46800    1263.4602   -162.13709    1.1432053   -160.99388    11345.063    4.2416348    4.2416348    4.2416348    11345.063   -44085.669    46836.283    31284.574    22765.991    78404.768   -42647.169    76.313229 
   46900    1635.1608   -162.49165    1.4795278   -161.01212    7427.4803    4.2455169    4.2455169    4.2455169    7427.4803    45192.661    20905.619    -43815.84    9585.1449    56761.422   -32553.777    76.522952 
   47000    2060.9979   -162.87385    1.8648342   -161.00902   -5804.8505     4.250331     4.250331     4.250331   -5804.8505   -3177.4719   -8858.0273   -5379.0523    3449.0433    33861.761   -25801.684    76.783561 
   47100    2705.2173   -163.44537    2.4477374   -160.99763    13160.853    4.2558966    4.2558966    4.2558966    13160.853    98362.519   -34351.458   -24528.501    12709.244   -27618.304   -29456.241    77.085591 
   47200    3167.8582   -163.84558    2.8663447   -160.97923   -22285.806    4.2612673    4.2612673    4.2612673   -22285.806    2963.0715   -46507.717   -23312.774   -9940.4602   -61825.914    -6445.831    77.377792 
   47300    3224.0728   -163.88745    2.9172088   -160.97024    15454.157    4.2426337    4.2426337    4.2426337    15454.157    16452.393    2346.0087    27564.071   -6896.7269   -66971.335   -6030.1481    76.367157 
   47400    2805.2326   -163.52208    2.5382335   -160.98385    26328.617    4.2427211    4.2427211    4.2427211    26328.617   -3610.8106    33392.101     49204.56   -13923.952   -13227.254    13825.929    76.371873 
   47500    2024.2733   -162.82869     1.831605   -160.99708     8291.657    4.2629364    4.2629364    4.2629364     8291.657     -38286.9     62884.99    276.88094    -16764.92    49614.815    9151.6531    77.468753 
   47600    1304.0006    -162.1586    1.1798872   -160.97872    24882.372    4.2749083    4.2749083    4.2749083    24882.372   -26196.689    101203.89   -360.08971   -12467.349    98302.898    15445.056     78.12327 
   47700    808.89003   -161.68307    0.7319007   -160.95117    32056.714    4.2733634    4.2733634    4.2733634    32056.714   -7547.8186    155168.57   -51450.608    -9719.715    108894.84    11894.572    78.038604 
   47800    1233.1499   -162.04207      1.11578   -160.92629    13771.951    4.2704264    4.2704264    4.2704264    13771.951   -32753.977    126295.88    -52226.05    9562.2437    113363.45    10950.163    77.877811 
   47900    1929.7188    -162.6711    1.7460501   -160.92505    3415.8455    4.2627178    4.2627178    4.2627178    3415.8455    16624.571    41535.897   -47912.931     4363.705    58957.166   -237.53889    77.456837 
   48000    2650.0655   -163.33698    2.3978349   -160.93915    4680.3031    4.2508096    4.2508096    4.2508096    4680.3031    -3238.877   -2161.7667    19441.553    4644.3247    5099.3557    3016.6098    76.809506 
   48100    3261.5101    -163.9099    2.9510829   -160.95881    11786.124    4.2415991    4.2415991    4.2415991    11786.124    32674.697    5064.6144    -2380.939    5.8703839   -33621.125   -11456.139    76.311301 
   48200    3467.2723   -164.11817    3.1372608   -160.98091    -21752.79    4.2641907    4.2641907    4.2641907    -21752.79     5773.649   -28922.794   -42109.227   -354.20207   -42176.089   -22748.096    77.537153 
   48300    2475.2575   -163.18468     2.239665   -160.94501   -9374.9958    4.2835245    4.2835245    4.2835245   -9374.9958   -24088.289    -11217.09    7180.3913   -7421.3917    21336.335   -14884.887    78.596602 
   48400     1369.325   -162.15145    1.2389941   -160.91245    610.85382    4.2818509    4.2818509    4.2818509    610.85382   -8701.4935     32113.92   -21579.865   -22405.519    90583.898   -4264.1915    78.504515 
   48500     497.7902   -161.35771   0.45041103    -160.9073   -24985.682    4.2690895    4.2690895    4.2690895   -24985.682   -110488.89    113418.96   -77887.114   -9687.8782    153342.53    357.31792    77.804688 
   48600    828.73553   -161.65896   0.74985732    -160.9091    20271.007     4.240888     4.240888     4.240888    20271.007   -68929.796    146659.22   -16916.405   -12950.454    134622.77    11101.873    76.272926 
   48700     1632.986   -162.42085      1.47756   -160.94329    33184.202    4.2453014    4.2453014    4.2453014    33184.202    12605.876    66616.333    20330.397   -10234.988    84230.746   -4925.2779    76.511301 
   48800     2359.781   -163.10134    2.1351794   -160.96616   -29230.474    4.2639863    4.2639863    4.2639863   -29230.474   -39243.102   -1274.2817   -47174.038   -19087.051    37079.192   -1011.5636    77.526003 
   48900    2955.8304   -163.64461    2.6744975   -160.97011   -7239.7182    4.2526145    4.2526145    4.2526145   -7239.7182    16935.535   -8930.7009   -29723.988   -8007.9925    4286.3413   -2727.2558    76.907383 
   49000    3523.3364   -164.15707    3.1879888   -160.96908     13229.77    4.2412016    4.2412016    4.2412016     13229.77    24550.932   -23337.588    38475.966   -10565.549   -53651.689    2537.6607    76.289849 
   49100    3780.1055   -164.39906    3.4203189   -160.97874    3612.7132    4.2426925    4.2426925    4.2426925    3612.7132    23009.081   -51168.005    38997.064    7870.0907   -44580.539    6556.8984    76.370331 
   49200    3677.1855   -164.33009    3.3271947    -161.0029     2839.282    4.2460156    4.2460156    4.2460156     2839.282    15963.843   -56910.566    49464.569   -1013.4102   -62684.783    15332.133     76.54992 
   49300    3344.6658   -164.02775    3.0263239   -161.00142    5361.0489    4.2457816    4.2457816    4.2457816    5361.0489    35818.203   -38706.162    18971.105    11531.929   -19850.022     7171.045    76.537268 
   49400    2993.8723   -163.71331    2.7089185   -161.00439   -26542.527    4.2528222    4.2528222    4.2528222   -26542.527   -22397.603   -3792.0272    -53437.95   -7027.1708    12227.962    12610.654    76.918653 
   49500    2549.8786   -163.30718    2.3071837   -160.99999    6306.3826    4.2483238    4.2483238    4.2483238    6306.3826    1337.2496    51158.944   -33577.046   -3653.1508    55359.783    5087.3499    76.674831 
   49600     1837.175    -162.6583    1.6623145   -160.99598    57761.162    4.2403616    4.2403616    4.2403616    57761.162    35475.854    117810.35    19997.276    1631.3746    83131.657    5320.8802    76.244526 
   49700    1079.1666   -161.97602   0.97645264   -160.99956   -35891.688    4.2659275    4.2659275    4.2659275   -35891.688   -126090.96    113308.81   -94892.906    1273.6552    134941.42   -10161.637    77.631934 
   49800    799.23797   -161.69633   0.72316731   -160.97316     9901.048    4.2639226    4.2639226    4.2639226     9901.048   -79114.025    119755.29    -10938.12    2288.5921    126255.96    1335.5646    77.522533 
   49900    940.16487   -161.81676   0.85068094   -160.96608    12544.594    4.2559584    4.2559584    4.2559584    12544.594   -32901.719    87824.244   -17288.742   -2686.4166    86795.988    -19493.87    77.088947 
   50000    1700.2972   -162.50799    1.5384646   -160.96953   -12055.531     4.248861     4.248861     4.248861   -12055.531   -69913.582    34255.878   -508.88866   -8277.1797    56055.581   -26290.439    76.703924 
   50100    2076.0601   -162.86628    1.8784628   -160.98782     8894.469    4.2433095    4.2433095    4.2433095     8894.469    13348.444    25181.982   -11847.019    1012.1755    19443.035   -23765.652    76.403654 
   50200    2704.9762   -163.44603    2.4475193   -160.99851   -11331.619    4.2458963    4.2458963    4.2458963   -11331.619    10673.173   -13620.123   -31047.908   -5700.6754   -9441.5124   -28546.911    76.543472 
   50300    3073.4082    -163.7772    2.7808844   -160.99631    13447.151    4.2520032    4.2520032    4.2520032    13447.151    15734.477   -29924.695     54531.67   -3459.9556   -40198.765   -28612.061    76.874227 
   50400    3218.5859   -163.90387    2.9122442   -160.99163   -32224.903    4.2606981    4.2606981    4.2606981   -32224.903   -7881.6618    -69063.97   -19729.077     5610.367   -44268.585   -27647.811    77.346791 
   50500    2957.7546   -163.66376    2.6762385   -160.98752   -4872.7544    4.2538356    4.2538356    4.2538356   -4872.7544    18114.919   -22052.896   -10680.287    10980.875   -31205.087   -21966.432    76.973652 
   50600    2452.5228   -163.20399    2.2190942    -160.9849    22046.261    4.2463841    4.2463841    4.2463841    22046.261    1488.5819    11119.502      53530.7    30536.149   -19713.268   -20198.964    76.569857 
   50700    1876.4289   -162.68399    1.6978323   -160.98616   -32753.093    4.2651422    4.2651422    4.2651422   -32753.093   -56697.543   -18841.548    -22720.19    46634.519    30483.503   -8817.5005    77.589068 
   50800    1514.3126   -162.34127    1.3701819   -160.97109    18773.206    4.2606737    4.2606737    4.2606737    18773.206    22392.838     16680.17    17246.611    53382.601    33050.423   -4175.5659    77.345459 
   50900    1352.1203   -162.18633    1.2234268   -160.96291   -3004.7508    4.2557723    4.2557723    4.2557723   -3004.7508    -2040.539    4000.7182   -10974.431    44025.959     64395.11   -2576.3055    77.078839 
   51000    1439.7316   -162.27583    1.3026994   -160.97313   -32747.498    4.2547574    4.2547574    4.2547574   -32747.498   -46938.579   -8086.0562   -43217.858    28018.635    89492.669    4039.7385    77.023703 
   51100     1771.103    -162.5835    1.6025312   -160.98097    18989.529    4.2419557    4.2419557    4.2419557    18989.529    6417.8718    63763.418   -13212.703    4533.3559    82549.441   -11738.304    76.330548 
   51200    1694.5251   -162.53551     1.533242   -161.00226    9425.7901     4.249915     4.249915     4.249915    9425.7901   -28346.436    63328.436   -6704.6298    7891.2335     73260.21   -7390.7808    76.761019 
   51300    1660.0136   -162.49937    1.5020152   -160.99735   -30877.057    4.2594906    4.2594906    4.2594906   -30877.057    -87801.29    62673.963   -67503.845   -4803.3915    95722.648   -13037.179    77.281047 
   51400    1707.3038   -162.54228    1.5448043   -160.99748     9429.605    4.2487319    4.2487319    4.2487319     9429.605   -192.25912    85355.476   -56874.402   -5541.4382    93678.174   -11064.688    76.696929 
   51500    1683.5586   -162.52621    1.5233192   -161.00289    8193.5206    4.2484634    4.2484634    4.2484634    8193.5206   -27920.073    67288.764   -14788.129   -14717.198    86772.227   -1795.1337    76.682391 
   51600    1968.9003   -162.78363    1.7815023   -161.00212   -13127.573    4.2514713    4.2514713    4.2514713   -13127.573   -17074.928    42180.632   -64488.422   -17286.113    88710.392   -2104.7914    76.845381 
   51700    2253.7664   -163.03315    2.0392552   -160.99389   -8409.8304     4.259851     4.259851     4.259851   -8409.8304    -54295.13    37337.039   -8271.3998   -32964.326    86670.686    2384.5304    77.300664 
   51800    2180.6532    -162.9491    1.9731008     -160.976   -32124.296    4.2695859    4.2695859    4.2695859   -32124.296   -7968.3701   -17397.804   -71006.714   -26947.958    64913.112    8740.9307    77.831833 
   51900    2255.9852   -163.01099    2.0412629   -160.96972   -21443.497    4.2501212    4.2501212    4.2501212   -21443.497   -42290.877   -2242.6379   -19796.977   -14951.644    68335.121     9351.634    76.772192 
   52000    1947.2921   -162.73556    1.7619509   -160.97361    39508.524    4.2294456    4.2294456    4.2294456    39508.524    5383.4499    51103.635    62038.486    11733.372    74704.816   -5335.5686    75.657213 
   52100    1478.5253   -162.35415    1.3378008   -161.01634   -3078.6881    4.2472162    4.2472162    4.2472162   -3078.6881   -53323.092    22566.383    21520.645    51941.958    58928.037   -9823.8586    76.614875 
   52200     647.4691   -161.59592   0.58584365   -161.01007    7479.4498    4.2689191    4.2689191    4.2689191    7479.4498   -53420.785   -3136.7449    78995.879    95100.788     56815.33   -9594.3871    77.795373 
   52300    492.31042   -161.42853   0.44545282   -160.98308    4642.5075    4.2730516    4.2730516    4.2730516    4642.5075   -69591.357    25253.479    58265.401    126415.61    41165.638   -7744.7908     78.02152 
   52400    879.50286   -161.75208   0.79579267   -160.95628   -5193.9199    4.2568951    4.2568951    4.2568951   -5193.9199   -57682.471   -45314.962    87415.672    130477.37    36178.702    4560.7154    77.139862 
   52500    1443.8704   -162.25777    1.3064443   -160.95132    48853.688    4.2378697    4.2378697    4.2378697    48853.688   -15681.816    18438.703    143804.17    82754.888    21233.389    8519.1881    76.110188 
   52600    2194.0355   -162.95244    1.9852095   -160.96723     14710.04    4.2567574    4.2567574    4.2567574     14710.04    3184.3197   -49550.958     90496.76    25942.017    20533.217    5914.2974    77.132376 
   52700    2853.2738   -163.53426    2.5817021   -160.95256   -27823.855     4.269227     4.269227     4.269227   -27823.855    -44116.79   -29268.317   -10086.457   -25628.202   -1085.7565   -6477.8324    77.812209 
   52800    3108.4754   -163.75031    2.8126139    -160.9377   -12728.571    4.2729694    4.2729694    4.2729694   -12728.571   -1050.3037    1908.3143   -39043.723   -44307.081   -4149.3941   -8080.7966    78.017019 
   52900    2786.8847   -163.46094    2.5216318   -160.93931    11353.896    4.2581179    4.2581179    4.2581179    11353.896    10214.157   -4491.3975    28338.929   -27574.333   -6963.6039    1609.8719    77.206354 
   53000    1666.8661   -162.45817    1.5082155   -160.94995    66694.065    4.2373738    4.2373738    4.2373738    66694.065   -20161.992    49088.478    171155.71    20892.623   -7443.4257    16314.106    76.083472 
   53100    1020.8529   -161.90678   0.92368918   -160.98309   -33873.515    4.2679276    4.2679276    4.2679276   -33873.515   -96821.664    -31651.71     26852.83    116804.79   -18302.022    1718.7242    77.741182 
   53200     468.3351   -161.38195   0.42375944   -160.95819   -12272.066    4.2837797    4.2837797    4.2837797   -12272.066   -47562.049    12349.947   -1604.0967    136199.55   -18813.448    97.215843     78.61065 
   53300    592.56049   -161.48409   0.53616118   -160.94793    11573.501    4.2625627    4.2625627    4.2625627    11573.501   -7136.8247    25521.293    16336.036    125956.03   -36341.194   -2509.2842    77.448378 
   53400    1354.9062   -162.17032    1.2259476   -160.94437    8725.4385    4.2370506    4.2370506    4.2370506    8725.4385   -58190.288    39176.869    45189.734    91233.699   -39088.093    6441.8445    76.066063 
   53500    1805.6778   -162.60777    1.6338153   -160.97396   -3064.8317    4.2347484    4.2347484    4.2347484   -3064.8317    -48496.19    4382.3901    34919.304    45520.791   -52548.194    7764.6958    75.942144 
   53600    2585.7925   -163.32578    2.3396794    -160.9861   -17797.712    4.2566139    4.2566139    4.2566139   -17797.712   -37162.968    23655.577   -39885.745   -16956.012   -53013.356    512.39367    77.124574 
   53700    2934.7039   -163.60561    2.6553817   -160.95023   -24456.789    4.2784034    4.2784034    4.2784034   -24456.789    2951.4118   -29030.149   -47291.629   -42156.973    -37964.61   -1824.2747    78.315041 
   53800    2435.2208   -163.12697     2.203439   -160.92353    -29357.66    4.2689672    4.2689672    4.2689672    -29357.66    -38426.29   -6361.7841   -43284.907   -4448.7188   -30585.022   -2141.8368    77.798002 
   53900    1710.7873   -162.47333    1.5479563   -160.92538    -5209.164    4.2508758    4.2508758    4.2508758    -5209.164   -38318.765    21425.273    1266.0004    57087.938   -34791.772    19079.948    76.813094 
   54000    1055.2801   -161.91431   0.95483964   -160.95947    22230.225    4.2450868    4.2450868    4.2450868    22230.225   -6499.0433   -24909.353    98099.071     99260.66   -27289.572    9028.5542    76.499699 
   54100    750.17852   -161.65969   0.67877729   -160.98091     2903.546    4.2549838    4.2549838    4.2549838     2903.546    106.76385   -14031.273    22635.147    126946.25   -28786.582    25773.369    77.036004 
   54200    696.73019   -161.62024   0.63041612   -160.98982    2339.0204    4.2648716    4.2648716    4.2648716    2339.0204    379.16048   -37476.486    44114.387    132743.56   -19661.549    14117.157    77.574301 
   54300      821.225    -161.7209   0.74306163   -160.97784   -19202.896    4.2680777    4.2680777    4.2680777   -19202.896   -73457.029   -49091.163    64939.502    122368.45   -22415.493    16036.819    77.749383 
   54400    1712.0817   -162.50703    1.5491275    -160.9579   -1173.3135    4.2552213    4.2552213    4.2552213   -1173.3135   -41035.657   -21044.232    58559.949     84595.74   -1599.8145   -6804.9021      77.0489 
   54500    2646.9556   -163.33311    2.3950211   -160.93809    7431.7552    4.2570541    4.2570541    4.2570541    7431.7552   -5363.7368   -7933.9375     35592.94    9276.9142    4431.7527   -6853.7106    77.148501 
   54600    3641.3517    -164.2051    3.2947716   -160.91033   -44189.661    4.2787722    4.2787722    4.2787722   -44189.661   -43408.588   -42721.233   -46439.161   -34407.593    18074.762   -35047.506    78.335297 
   54700    3354.1888   -163.91869    3.0349405   -160.88375   -26064.812    4.2829445    4.2829445    4.2829445   -26064.812     -46098.8    -22171.84   -9923.7943   -31722.155    12872.999   -29028.891     78.56468 
   54800    1895.3723   -162.58945    1.7149727   -160.87448   -8177.2835    4.2775521    4.2775521    4.2775521   -8177.2835   -70982.516    10587.853    35862.813    20996.758   -33033.725    18234.433    78.268303 
   54900    685.97714   -161.48904   0.62068653   -160.86835    43875.696    4.2698654    4.2698654    4.2698654    43875.696    -14515.33    92669.343    53473.074     86784.16   -52976.827    21475.244    77.847119 
   55000    659.60021   -161.46856   0.59682013   -160.87174     42384.18    4.2781982    4.2781982    4.2781982     42384.18   -47357.936    69913.419    104597.06    72107.011   -60382.487    43421.559    78.303777 
   55100    2006.7667   -162.66772    1.8157647   -160.85195   -32133.032    4.2887968    4.2887968    4.2887968   -32133.032   -12518.953   -39344.881   -44535.261    59110.701   -14040.878    -3699.863    78.887177 
   55200    3540.0839   -164.02026    3.2031423   -160.81711   -22435.803    4.2716656    4.2716656    4.2716656   -22435.803   -3041.8796   -37573.498   -26692.032   -10902.681    33858.424   -33065.515    77.945624 
   55300    3513.0312   -164.00793    3.1786645   -160.82927   -37648.892    4.2705905    4.2705905    4.2705905   -37648.892   -58242.708   -27893.423   -26810.545   -10410.337    19197.274   -22454.803    77.886789 
   55400    2253.4204    -162.9006    2.0389422   -160.86166   -2731.2784    4.2681314    4.2681314    4.2681314   -2731.2784   -19841.955   -25703.342    37351.461   -4751.4679   -28210.676    9896.9393    77.752316 
   55500    1178.9213   -161.96654    1.0667128   -160.89982    9904.5028    4.2664268    4.2664268    4.2664268    9904.5028    36322.503    11950.033   -18559.028    19346.793   -79815.912    34658.767    77.659195 
   55600    669.66451   -161.51888   0.60592652   -160.91295   -10705.711    4.2670159    4.2670159    4.2670159   -10705.711    2184.1668     52262.82   -86564.122    35401.423   -119627.57     40439.89    77.691373 
   55700     736.9756   -161.58291   0.66683101   -160.91608    39302.826    4.2609672    4.2609672    4.2609672    39302.826    -13213.06    104956.57    26164.963    31200.455   -103002.58    34232.472    77.361443 
   55800    1941.7803   -162.66149    1.7569637   -160.90453   -10847.734    4.2765962    4.2765962    4.2765962   -10847.734    -5591.276    32098.721   -59050.646     6535.389   -41550.965    127.06857    78.215844 
   55900    3383.0829   -163.90789    3.0610845    -160.8468   -67391.692    4.2942441    4.2942441    4.2942441   -67391.692   -78081.448    -62458.76   -61634.867   -46574.331    19732.313   -29332.711    79.188148 
   56000     2925.083   -163.46091    2.6466765   -160.81423   -43976.572    4.2989805    4.2989805    4.2989805   -43976.572   -24186.676   -68990.496   -38752.544   -12321.549      19483.2   -12282.865    79.450464 
   56100    993.44403   -161.70537   0.89888904   -160.80648    55498.625     4.295911     4.295911     4.295911    55498.625    24349.046    64721.671    77425.158    68407.119   -24123.975     50513.77    79.280398 
   56200    1031.6715   -161.70479   0.93347809   -160.77131    42728.019     4.302922     4.302922     4.302922    42728.019   -10026.342    52992.904    85217.497    60973.272   -38367.711    44228.147    79.669192 
   56300    2986.5975   -163.42749    2.7023362   -160.72516   -75744.999    4.3223533    4.3223533    4.3223533   -75744.999   -104323.43   -21797.695   -101113.87    4505.8776    12345.213   -23644.243    80.753394 
   56400    3065.1151   -163.47629    2.7733805   -160.70291   -58418.276    4.3280616    4.3280616    4.3280616   -58418.276   -42528.609   -20039.814   -112686.41   -16455.902    17849.202   -13796.581    81.073754 
   56500    1120.0783   -161.73338    1.0134704   -160.71991    76847.596    4.3225254    4.3225254    4.3225254    76847.596     71534.49    118240.64    40767.656    40127.116   -13130.263    86663.656    80.763039 
   56600    1406.9614   -161.96978    1.2730482   -160.69673    42642.862    4.3254515    4.3254515    4.3254515    42642.862    127823.09    26513.145   -26407.643    40442.799   -10424.345    37205.295    80.927165 
   56700    3387.4332    -163.7009    3.0650208   -160.63588   -120133.75    4.3350217    4.3350217    4.3350217   -120133.75   -119614.63   -115281.06   -125505.58    -29187.75    37010.959   -25994.603    81.465519 
   56800    1304.6186   -161.82753    1.1804463   -160.64708    26718.565     4.339071     4.339071     4.339071    26718.565    29486.158   -41209.422    91878.959    59671.064   -27919.431    16336.508    81.694022 
   56900     1243.555   -161.75992    1.1251947   -160.63473    31947.287    4.3330963    4.3330963    4.3330963    31947.287   -30961.465    25052.777    101750.55    42218.925   -13943.805     25714.85    81.357017 
   57000    3589.9844   -163.83834    3.2482933   -160.59005     -63585.3    4.3076566    4.3076566    4.3076566     -63585.3   -70474.602   -19466.903    -100814.4   -46753.835    32596.219   -41680.539    79.932467 
   57100    2615.2956    -163.0307    2.3663744   -160.66433   -60504.898     4.302244     4.302244     4.302244   -60504.898   -76840.426   -96109.301    -8564.967    23028.043    27132.543   -25669.981    79.631541 
   57200    649.20505   -161.32832   0.58741437    -160.7409    18421.945    4.3033451    4.3033451    4.3033451    18421.945   -48507.409   -5211.0743    108984.32       107219   -1248.5885    8776.2703    79.692699 
   57300    699.21593   -161.40532   0.63266527   -160.77265    41166.341    4.2920334    4.2920334    4.2920334    41166.341   -14486.959    8797.2839     129188.7     104364.2   -13045.547    22837.397    79.065908 
   57400    1927.2865    -162.5441    1.7438494   -160.80025    30422.306    4.2739023    4.2739023    4.2739023    30422.306   -14897.315   -7180.3866    113344.62    32055.685   -6082.7227    9844.8536    78.068128 
   57500    2974.8435   -163.52261     2.691701   -160.83091    34341.918    4.2516606    4.2516606    4.2516606    34341.918    101030.46    17820.249   -15824.956   -20441.675   -15382.259    6205.9074    76.855643 
   57600    3276.4748   -163.85654    2.9646233   -160.89192   -3019.8371     4.260308     4.260308     4.260308   -3019.8371    27783.266    8094.7848   -44937.562   -35776.413   -8654.0019    10862.202    77.325546 
   57700    2553.7613   -163.23835    2.3106969   -160.92765   -30596.387    4.2745383    4.2745383    4.2745383   -30596.387   -64125.023   -12330.439     -15333.7    9360.8971   -14783.999     3777.565    78.102985 
   57800    1569.3469   -162.36293    1.4199781   -160.94295    6005.3361    4.2520592    4.2520592    4.2520592    6005.3361   -40049.498   -30212.631    88278.138    83468.048   -3540.9558   -8086.0931     76.87726 
   57900    930.72664   -161.80131   0.84214103   -160.95917    11852.723    4.2481947    4.2481947    4.2481947    11852.723   -104758.97    10511.005    129806.13    138172.08   -10953.469    9967.4018     76.66784 
   58000    909.43117   -161.78636   0.82287244   -160.96348   -11607.045    4.2625239    4.2625239    4.2625239   -11607.045   -71508.246   -65004.303    101691.41    147016.79   -7453.8781   -10705.715    77.446265 
   58100    1301.4364   -162.12782     1.177567   -160.95025    25123.942    4.2655191    4.2655191    4.2655191    25123.942   -15777.711    10654.699    80494.838    104943.49    10510.727   -11325.812    77.609639 
   58200    2488.3103   -163.18534    2.2514755   -160.93386   -12582.922    4.2710136    4.2710136    4.2710136   -12582.922   -5829.0899   -60651.955    28732.279    36803.099   -12408.126   -12723.965     77.90994 
   58300    3448.1075   -164.03445    3.1199201   -160.91453   -8266.3409    4.2519904    4.2519904    4.2519904   -8266.3409    7045.0824   -16013.165    -15830.94    -34006.66    17454.634   -18776.579    76.873532 
   58400    3595.5368   -164.17468    3.2533172   -160.92137   -13320.637    4.2516421    4.2516421    4.2516421   -13320.637    1782.2094    4458.3914   -46202.512   -39797.355   -6708.4292   -3319.4502    76.854641 
   58500    3237.0765   -163.87306    2.9289748   -160.94409   -13704.867    4.2559509    4.2559509    4.2559509   -13704.867   -4426.2352   -13258.413   -23429.953   -18437.915     12198.03   -4818.7096    77.088543 
   58600    2227.3213    -162.9759    2.0153272   -160.96057    15007.886    4.2503021    4.2503021    4.2503021    15007.886    19462.327   -13625.858     39187.19    52837.788     9587.932    16419.023    76.781999 
   58700    1205.9496   -162.06698    1.0911685   -160.97581   -49732.466    4.2668779    4.2668779    4.2668779   -49732.466   -64449.961   -109400.06    24652.628     120083.1    18096.974    2626.3831    77.683835 
   58800    872.76801   -161.76332   0.78969884   -160.97362    12584.342    4.2512009    4.2512009    4.2512009    12584.342   -10333.158   -36422.515    84508.698    139755.51   -3313.7706    13883.057    76.830715 
   58900    842.62706   -161.73818   0.76242667   -160.97575    6260.9273     4.240281     4.240281     4.240281    6260.9273   -29032.468   -49561.359    97376.609    147644.71     4713.344   -10257.957    76.240178 
   59000    1261.1045   -162.12834    1.1410739   -160.98727   -17099.682    4.2515225    4.2515225    4.2515225   -17099.682   -46477.855   -64553.614    59732.423    119712.35    -2937.572    10525.786    76.848156 
   59100    2003.5276   -162.78792    1.8128339   -160.97508   -4184.5478    4.2618545    4.2618545    4.2618545   -4184.5478   -1230.8926   -36798.783    25476.032    58185.934   -3.9627112   -13890.895    77.409786 
   59200    2987.0514   -163.65628    2.7027469   -160.95354   -21954.903    4.2661524    4.2661524    4.2661524   -21954.903   -15664.341   -31307.711   -18892.658   -11775.372   -22750.796    10053.918    77.644213 
   59300    3783.8474   -164.35467    3.4237047   -160.93097   -13381.911    4.2578255    4.2578255    4.2578255   -13381.911   -283.12792   -20890.762   -18971.843   -48646.077   -52.416088   -932.67647    77.190449 
   59400    3395.5937   -164.00408    3.0724045   -160.93167    6780.3256    4.2489633    4.2489633    4.2489633    6780.3256    18495.485    11087.442   -9241.9499    -29032.84   -19456.521    8362.9086    76.709461 
   59500    2792.3115    -163.4829    2.5265422   -160.95636      70.2255    4.2509306    4.2509306    4.2509306      70.2255    59411.048   -51926.638   -7273.7335    17926.325   -17183.446    2406.7589    76.816062 
   59600    2034.3958   -162.82182     1.840764   -160.98106   -2094.3994    4.2507278    4.2507278    4.2507278   -2094.3994   -25386.607   -9199.8682    28303.277    67365.397   -10368.917    9005.3335    76.805071 
   59700    1515.9041   -162.36142    1.3716219    -160.9898   -10882.893    4.2531212    4.2531212    4.2531212   -10882.893   -25829.021    -34810.22     27990.56    117721.05   -11127.191   -5573.7834     76.93488 
   59800    984.75813   -161.88978   0.89102985   -160.99875   -8988.6337    4.2619651    4.2619651    4.2619651   -8988.6337   -73074.346    2742.5986    43365.846    140719.62   -14482.281    5180.6077    77.415811 
   59900    1083.8459   -161.98815   0.98068651   -161.00746   -28695.732    4.2470336    4.2470336    4.2470336   -28695.732   -66068.923   -85892.041    65873.768    162653.09    -2087.314    492.95239    76.604995 
   60000    1064.5748   -161.96481   0.96324963   -161.00156    44744.107    4.2280176    4.2280176    4.2280176    44744.107   -25725.355    59383.779     100573.9    149240.23    2787.2995   -698.75426    75.580603 
   60100     1273.312   -162.17521    1.1521195   -161.02309   -25342.357    4.2537226    4.2537226    4.2537226   -25342.357   -87093.338   -105014.94     116081.2    130687.31    5521.0056    9657.5797     76.96752 
   60200    2034.0367    -162.8251    1.8404392   -160.98466   -28679.377     4.259664     4.259664     4.259664   -28679.377     -60114.2   -44667.068    18743.138    50617.434    27586.882     3883.908    77.290483 
   60300     2792.505   -163.48254    2.5267172   -160.95582    4181.5752    4.2686492    4.2686492    4.2686492    4181.5752    43120.692    2343.4813   -32919.448   -21505.668    19886.637   -9703.3967    77.780619 
   60400    3515.9714     -164.116    3.1813248   -160.93467   -34983.941    4.2634622    4.2634622    4.2634622   -34983.941   -1926.9459   -35659.455   -67365.423   -52375.359    11021.537    9219.7731    77.497423 
   60500    3170.8153   -163.78817    2.8690203   -160.91915     56151.12    4.2249582    4.2249582    4.2249582     56151.12    64559.879    68802.505    35090.977   -38167.401    25986.251   -5681.9007    75.416651 
   60600    2391.6042   -163.13158    2.1639737    -160.9676   -14818.029    4.2441421    4.2441421    4.2441421   -14818.029   -45409.737   -3136.8342    4092.4861    20392.594    5490.5919    15273.108     76.44864 
   60700    1544.9862   -162.38093     1.397936   -160.98299    2740.4936    4.2585335    4.2585335    4.2585335    2740.4936   -49789.782    42567.944    15443.319    65542.716    12238.396   -2056.8532    77.228964 
   60800    1043.7484   -161.93495    0.9444055   -160.99054    8189.0898    4.2564939    4.2564939    4.2564939    8189.0898    -41153.47    1746.3701     63974.37    116282.85    1118.0535   -4099.3109    77.118053 
   60900    817.99756   -161.72442   0.74014138   -160.98428   -36687.809    4.2641094    4.2641094    4.2641094   -36687.809   -92085.603   -79727.031    61749.206    166867.44   -1758.3092    7516.7026    77.532719 
   61000    1059.8959   -161.92847   0.95901607   -160.96946    10830.012    4.2581108    4.2581108    4.2581108    10830.012    1362.8307   -75481.337    106608.54    134706.36    5966.7907    11999.402    77.205969 
   61100    1851.8082   -162.62782     1.675555   -160.95226     10389.43    4.2707206    4.2707206    4.2707206     10389.43   -23661.329   -37437.817    92267.438    55863.726   -2750.2904    6310.5421    77.893906 
   61200    3254.7316   -163.83584    2.9449496   -160.89089   -43915.641    4.2828527    4.2828527    4.2828527   -43915.641   -31615.668   -61530.243   -38601.013   -29467.339   -11609.106    18332.784    78.559626 
   61300    3522.6412   -164.04107    3.1873598   -160.85371   -18466.617    4.2707009    4.2707009    4.2707009   -18466.617    10199.362   -20998.343   -44600.872   -38401.849    -15869.89     19927.49    77.892829 
   61400    2271.1275   -162.92705    2.0549639   -160.87209   -25335.456    4.2726282    4.2726282    4.2726282   -25335.456   -67483.313   -13198.296    4675.2416    37850.535   -1059.9264    18454.541    77.998329 
   61500    1105.5552   -161.89958    1.0003296   -160.89925    9032.2068    4.2747545    4.2747545    4.2747545    9032.2068   -19888.047   -20768.863     67753.53    121312.04   -621.36649    10589.933    78.114837 
   61600    659.04367   -161.51738   0.59631656   -160.92106    13912.759     4.266498     4.266498     4.266498    13912.759   -64289.961   -9378.1173    115406.36    142968.94    4633.9013    26956.816    77.663087 
   61700    1085.6833   -161.90935   0.98234902     -160.927   -7757.1076    4.2612302    4.2612302    4.2612302   -7757.1076   -80525.057   -86898.191    144151.93    120669.75   -9169.6543     6912.312    77.375769 
   61800     1818.879    -162.5731    1.6457599   -160.92734    16325.035    4.2582735    4.2582735    4.2582735    16325.035   -3846.2499   -21480.018    74301.374     42376.64   -22505.057    12176.659     77.21482 
   61900    2792.1409   -163.45731    2.5263878   -160.93092    4918.8388    4.2634069    4.2634069    4.2634069    4918.8388   -35972.949    40889.309     9840.157   -16391.041   -14850.931    15123.856    77.494408 
   62000    3370.8837   -163.98759    3.0500465   -160.93754   -12000.496    4.2681773    4.2681773    4.2681773   -12000.496   -13316.251    29675.314   -52360.551   -46393.695   -13831.708    5882.1755    77.754827 
   62100    3192.2244   -163.84126    2.8883917   -160.95287   -8213.5091    4.2567986    4.2567986    4.2567986   -8213.5091    -19014.06    16354.624   -21981.091   -39634.909   -26410.526    15170.839    77.134613 
   62200    2632.8951   -163.34457    2.3822988   -160.96227    17586.789    4.2368364    4.2368364    4.2368364    17586.789    28558.319    17683.239    6518.8101   -7514.0212   -11988.174   -1945.4005    76.054529 
   62300     2091.785   -162.88475     1.892691   -160.99206    -17998.84    4.2472214    4.2472214    4.2472214    -17998.84    -19139.31   -59969.807    25112.597    37702.975   -17079.959    15997.443     76.61516 
   62400    1542.1112   -162.40069    1.3953346   -161.00536    30880.073    4.2558202    4.2558202    4.2558202    30880.073    19618.162   -13044.393    86066.449    71169.506    13327.917   -3902.4575    77.081438 
   62500    1002.3278     -161.907   0.90692725   -161.00007   -16194.029    4.2677389    4.2677389    4.2677389   -16194.029   -45106.839    -105092.4    101617.15    112925.56   -1710.7293   -16400.602    77.730868 
   62600    889.12685   -161.77522   0.80450066   -160.97072   -10779.001    4.2661081    4.2661081    4.2661081   -10779.001   -58502.883   -81364.751    107530.63    117931.55   -4634.5035   -11777.432    77.641797 
   62700    1368.7744   -162.19404    1.2384958   -160.95554    19782.206    4.2563112    4.2563112    4.2563112    19782.206    36313.943   -31201.514    54234.189    84371.983    3068.2868    -21288.73    77.108121 
   62800    1828.7725   -162.62341    1.6547118    -160.9687   -21361.698    4.2502359    4.2502359    4.2502359   -21361.698   -12653.324   -51071.035   -360.73562    47119.674    1638.0067   -23966.262    76.778406 
   62900    2493.8036    -163.2351    2.2564459   -160.97866    26503.661    4.2438014    4.2438014    4.2438014    26503.661    44892.899    42729.862   -8111.7793   -3159.2669    9259.4276   -13802.729    76.430228 
   63000    2935.9688   -163.64276    2.6565263   -160.98623   -650.98183    4.2533603    4.2533603    4.2533603   -650.98183   -2094.7205    22266.532   -22124.757   -29260.794     2554.353   -9591.3812    76.947856 
   63100    3269.0281    -163.9319    2.9578853   -160.97402    7844.7112    4.2523336    4.2523336    4.2523336    7844.7112    4834.8606    76762.903    -58063.63   -54250.338   -9140.9215    -1456.551    76.892148 
   63200    3121.8211   -163.79874    2.8246893   -160.97405   -19415.441    4.2582263    4.2582263    4.2582263   -19415.441   -5062.4322    7229.6575   -60413.549   -32524.962    10947.811   -23403.245    77.212251 
   63300    2571.0169   -163.31016    2.3263101   -160.98385   -6441.4362    4.2509265    4.2509265    4.2509265   -6441.4362    9482.3208   -21365.779   -7440.8502   -9712.8313    -10497.79   -10488.679    76.815838 
   63400     1976.383   -162.77572    1.7882728   -160.98745    32629.536     4.234626     4.234626     4.234626    32629.536    74624.666   -26989.664    50253.606    51245.964   -2455.1198    4291.2863    75.935554 
   63500    1496.8102    -162.3663    1.3543454   -161.01195   -23154.194    4.2506848    4.2506848    4.2506848   -23154.194   -52159.356   -65100.088    47796.862    124689.43    9479.7851   -4085.1148    76.802739 
   63600    1123.2289   -162.01738    1.0163211   -161.00106   -20147.908    4.2564648    4.2564648    4.2564648   -20147.908   -32407.143   -84170.523    56133.941    155850.79   -11245.769    7118.4254    77.116472 
   63700    957.52445   -161.85903   0.86638824   -160.99264    12722.024    4.2486276    4.2486276    4.2486276    12722.024   -35193.803   -1829.1233    75188.998    165179.36    -675.8053   -8617.0804    76.691282 
   63800    812.71589   -161.73292   0.73536241   -160.99756   -20513.328    4.2523212    4.2523212    4.2523212   -20513.328   -116512.28   -42333.066     97305.36    148998.99   -2157.9026    7071.6181    76.891476 
   63900    1545.5102   -162.38181    1.3984101    -160.9834    5465.6805    4.2576396    4.2576396    4.2576396    5465.6805   -75123.126   -10960.475    102480.64    55615.044   -2483.8338    7563.6572     77.18034 
   64000    3054.1589   -163.70684    2.7634672   -160.94337   -15202.695    4.2787138    4.2787138    4.2787138   -15202.695   -60809.626   -18685.818    33887.358   -37531.418   -3711.5734    20084.733     78.33209 
   64100    3195.8985   -163.79809    2.8917161   -160.90637    -16108.82    4.2772158    4.2772158    4.2772158    -16108.82   -7561.8734   -52627.118    11862.532   -56026.769    -7745.267   -590.30671    78.249848 
   64200    2555.8364   -163.21739    2.3125745   -160.90481    525.60283    4.2523649    4.2523649    4.2523649    525.60283   -8625.9519   -30172.117    40374.877     1812.633   -14070.728    3166.0272    76.893844 
   64300    1485.7093   -162.28142     1.344301   -160.93712    12970.489    4.2455536    4.2455536    4.2455536    12970.489   -26987.511    -81272.92     147171.9    99312.862    1603.6448    6803.9008    76.524936 
   64400    726.45554   -161.62988   0.65731224   -160.97257    14412.447      4.26031      4.26031      4.26031    14412.447   -28325.736   -20449.944    92013.022    140913.44    8637.1645     8046.606    77.325654 
   64500    748.30654   -161.64311   0.67708349   -160.96603   -35483.171    4.2835543    4.2835543    4.2835543   -35483.171   -63998.006   -70801.027    28349.522    154591.46   -6186.0838    3117.6119    78.598243 
   64600    1294.1672   -162.12238    1.1709897   -160.95139    620.49877    4.2677131    4.2677131    4.2677131    620.49877   -44457.761    26469.116    19850.142    105189.23   -5518.9141   -11591.468    77.729462 
   64700    2312.6353   -163.02842    2.0925211    -160.9359    23927.343    4.2381999    4.2381999    4.2381999    23927.343    23726.293     7419.896    40635.841    37990.273    6734.7145   -11375.022    76.127983 
   64800    3028.2166    -163.6944     2.739994    -160.9544    30537.243    4.2285966    4.2285966    4.2285966    30537.243    32537.269    44254.656    14819.804    -13892.15    5631.3312    1635.2712    75.611659 
   64900    3503.3677   -164.15484    3.1699207   -160.98491    1865.2296    4.2528707    4.2528707    4.2528707    1865.2296    3235.4982    17804.207   -15444.016   -56220.654    1315.1846   -15222.162    76.921288 
   65000    2713.3777   -163.41678    2.4551212   -160.96166   -41930.169    4.2872304    4.2872304    4.2872304   -41930.169   -47067.431   -43328.992   -35394.086    -14839.19   -8534.4277   -12540.273    78.800774 
   65100    1435.3057   -162.22285    1.2986947   -160.92416   -2050.8312    4.2793199    4.2793199    4.2793199   -2050.8312   -28261.015   -48806.265    70914.786    73210.852    802.49328   -15796.966    78.365382 
   65200    945.60414   -161.75733    0.8556025   -160.90173    -12058.62    4.2593975    4.2593975    4.2593975    -12058.62   -75415.053    -77410.67    116649.86    165084.15    10914.507   -998.29411    77.275981 
   65300    551.26024   -161.42747   0.49879185   -160.92868   -7917.8629    4.2480493    4.2480493    4.2480493   -7917.8629   -35468.555   -85246.378    96961.345    183023.27   -8733.9749    14785.373    76.659967 
   65400    1049.3275   -161.90897   0.94945358   -160.95951    854.21925     4.241528     4.241528     4.241528    854.21925   -51418.727   -12173.357    66154.742     134180.5    9843.6242   -8195.0544    76.307464 
   65500    1772.4966   -162.59193    1.6037922   -160.98813    3325.7472    4.2584947    4.2584947    4.2584947    3325.7472    25291.698   -16677.133    1362.6763    65312.406   -5924.2784    301.54202    77.226854 
   65600    2958.1221   -163.63681    2.6765711   -160.96024   -28144.683    4.2608607    4.2608607    4.2608607   -28144.683   -40467.693   -29763.949   -14202.406    2592.5225    -13147.98    4156.1237    77.355644 
   65700    3452.1013    -164.0627    3.1235338   -160.93916    7412.0713    4.2505095    4.2505095    4.2505095    7412.0713    35494.657     11078.99   -24337.434   -53912.643    5755.6647    -12684.04    76.793238 
   65800    2956.1411   -163.62004    2.6747786   -160.94526    -11889.12    4.2646504    4.2646504    4.2646504    -11889.12   -34961.406    1006.3785   -1712.3335   -13261.362    5358.7579    522.76633    77.562231 
   65900    1584.3261   -162.37353    1.4335316      -160.94    31146.498     4.262204     4.262204     4.262204    31146.498    7907.3833    5338.7029    80193.408    60942.042    11001.038    9690.8918    77.428831 
   66000    686.21831   -161.56128   0.62090475   -160.94038    -8486.961    4.2695947    4.2695947    4.2695947    -8486.961     1174.595   -76223.707    49588.229    144211.39    13109.217   -9604.7402    77.832314 
   66100    531.01382   -161.42403   0.48047246   -160.94356   -29139.536    4.2662423    4.2662423    4.2662423   -29139.536   -66348.116   -80566.366    59495.874    174596.12   -11981.976     10133.21    77.649125 
   66200    986.17725   -161.84102    0.8923139    -160.9487    14759.157    4.2351606    4.2351606    4.2351606    14759.157    20856.694   -59684.013    83104.791    130676.96    3924.6963    14787.989    75.964319 
   66300    1765.8369   -162.56499    1.5977663   -160.96722    20560.413    4.2368709    4.2368709    4.2368709    20560.413    25641.079   -11204.813    47244.974    73122.896    773.41588    13494.277    76.056389 
   66400    2579.8306   -163.29822     2.334285   -160.96394     -20097.3    4.2543544    4.2543544    4.2543544     -20097.3   -36695.911   -25830.167    2234.1797    13085.129   -15041.399    21872.753    77.001819 
   66500    3464.7778   -164.08256    3.1350038   -160.94756   -21569.229    4.2618214    4.2618214    4.2618214   -21569.229   -16125.637   -1153.5741   -47428.475   -49599.498    4644.3207    7346.3476    77.407981 
   66600    2878.2627   -163.54015    2.6043126   -160.93584   -22250.166    4.2740048    4.2740048    4.2740048   -22250.166   -42733.502   -15777.963   -8239.0321   -17756.436   -1849.2793    5955.2035    78.073746 
   66700    1889.4693   -162.63486    1.7096316   -160.92523    7013.8799    4.2605851    4.2605851    4.2605851    7013.8799   -8717.1057   -45633.831    75392.576    80884.562   -286.08096     2528.738    77.340636 
   66800    1161.1469   -161.98353    1.0506301    -160.9329    12814.803    4.2532762    4.2532762    4.2532762    12814.803   -53351.127    -8263.424    100058.96    143645.41    8725.5719    8852.5584     76.94329 
   66900    529.11492   -161.42901    0.4787543   -160.95026    -23471.13     4.258221     4.258221     4.258221    -23471.13   -34099.865   -103766.84    67453.314    180733.52     647.6499   -9584.7967    77.211965 
   67000    599.94801   -161.50961   0.54284556   -160.96676    27159.336    4.2473388    4.2473388    4.2473388    27159.336   -36468.636    47557.677    70388.966    145911.55    -13104.88     2229.636     76.62151 
   67100    1310.2174   -162.16753    1.1855123   -160.98201    8808.0143    4.2507263    4.2507263    4.2507263    8808.0143    18560.484   -55627.988    63491.547    94980.463    96.002299   -3095.6277     76.80499 
   67200    2683.8083   -163.39462    2.4283661   -160.96625   -14733.624    4.2514216    4.2514216    4.2514216   -14733.624    -40719.89   -21435.708    17954.725     16572.01   -12561.312   -6561.3126    76.842684 
   67300    3470.1183   -164.09486     3.139836   -160.95503   -8015.2129    4.2532533    4.2532533    4.2532533   -8015.2129    11813.756    6374.7167   -42234.112   -42213.745   -11047.149    273.60488    76.942048 
   67400     3547.573   -164.16192    3.2099186     -160.952   -18092.439    4.2538383    4.2538383    4.2538383   -18092.439   -21406.472    32196.199   -65067.042   -55692.876    -18231.27    10022.117    76.973799 
   67500    2871.5157   -163.55088    2.5982077   -160.95267    37443.313    4.2366088    4.2366088    4.2366088    37443.313    43355.029    49564.595    19410.315   -18033.714   -3538.0643   -10655.648    76.042275 
   67600    1922.2558    -162.7212    1.7392974    -160.9819   -11481.659    4.2537277    4.2537277    4.2537277   -11481.659   -39094.792   -20275.086    24924.902    56302.634   -6705.7341    1654.3447    76.967799 
   67700    1319.3067   -162.17119    1.1937364   -160.97746    6649.2026    4.2601596    4.2601596    4.2601596    6649.2026    15948.528   -38950.723    42949.802    99621.851    7758.6693   -8015.7857    77.317466 
   67800     1024.863   -161.89858   0.92731755   -160.97126    26905.125    4.2522902    4.2522902    4.2522902    26905.125    33869.284   -25151.147     71997.24    120446.73   -4825.0544    -14796.61     76.88979 
   67900    844.45372   -161.74033   0.76407947   -160.97625   -30881.227    4.2647353    4.2647353    4.2647353   -30881.227   -92644.093   -99165.794    99166.206    143082.58   -409.79443   -11387.644    77.566867 
   68000     1445.162   -162.26587     1.307613   -160.95826    10201.868    4.2603909    4.2603909    4.2603909    10201.868   -36788.118   -43692.366    111086.09    69434.819   -2959.2242   -6341.8741    77.330062 
   68100    2245.1594   -162.97426    2.0314674   -160.94279    4724.3463    4.2694058    4.2694058    4.2694058    4724.3463    14370.967   -29033.254    28835.326    8398.9655    11105.379   -12794.844    77.821987 
   68200    3043.4466   -163.67932    2.7537744   -160.92554   -31864.318    4.2687623    4.2687623    4.2687623   -31864.318   -32639.058   -11067.183   -51886.714   -38674.468   -20590.707    18205.342      77.7868 
   68300    3520.9309   -164.11715    3.1858122   -160.93134    14794.536    4.2443242    4.2443242    4.2443242    14794.536    18490.158    32622.406   -6728.9574   -45218.971    8463.1686   -5778.9173    76.458477 
   68400    3569.6176    -164.1847     3.229865   -160.95483     16372.87    4.2344323    4.2344323    4.2344323     16372.87    50573.288     18330.37   -19785.049   -46530.411   -13300.575    6960.8943    75.925137 
   68500    3124.8607   -163.82006    2.8274396   -160.99262   -3782.5723    4.2476149    4.2476149    4.2476149   -3782.5723    23116.337   -2106.9005   -32357.153    -22642.18    20119.042    -20968.92    76.636453 
   68600    2396.8813   -163.17508    2.1687486   -161.00633    22617.925    4.2525804    4.2525804    4.2525804    22617.925    67798.209    1039.3267    -983.7611   -9723.2338    9693.7344   -2279.2524    76.905533 
   68700    1991.0973   -162.80615    1.8015867   -161.00457   -32077.252    4.2580638    4.2580638    4.2580638   -32077.252   -47148.031   -14063.343   -35020.382    22978.165    37737.335   -28285.539     77.20341 
   68800    1649.9487   -162.50102    1.4929083   -161.00812   -12265.739    4.2509335    4.2509335    4.2509335   -12265.739    717.67442   -33202.393   -4312.4969    41739.625    24682.877   -27775.381    76.816218 
   68900    1574.1788   -162.42581      1.42435   -161.00146    12381.725     4.237655     4.237655     4.237655    12381.725   -1400.2161   -12185.407    50730.799    54090.152    27852.456   -29310.071    76.098622 
   69000     1320.474   -162.21376    1.1947926   -161.01896   -2861.8028    4.2468878    4.2468878    4.2468878   -2861.8028   -33182.344   -16149.623    40746.559    71300.968    28079.301   -42742.817    76.597105 
   69100    1136.2863   -162.04031    1.0281358   -161.01217   -422.44327    4.2627894    4.2627894    4.2627894   -422.44327   -13810.052   -40022.043    52564.765    77748.532    23969.258   -20590.466    77.460738 
   69200     1140.813   -162.01678    1.0322316   -160.98455    -11089.39    4.2746342    4.2746342    4.2746342    -11089.39   -72489.554   -19995.727    59217.112    62541.085    21858.686   -28302.392    78.108245 
   69300     1916.034   -162.67433    1.7336678   -160.94066   -8686.8513    4.2740042    4.2740042    4.2740042   -8686.8513   -25857.396   -10181.458       9978.3    65388.885    4820.7383    5485.7491    78.073713 
   69400    2640.8549   -163.30342     2.389501   -160.91392   -5443.4794    4.2615496    4.2615496    4.2615496   -5443.4794   -5980.8341    -37719.53    27369.925    20811.865   -11101.984    23423.624    77.393172 
   69500     2981.301   -163.60071    2.6975438   -160.90317   -6946.0968    4.2620245    4.2620245    4.2620245   -6946.0968   -58828.161    29273.493    8716.3778    8054.2934   -19226.319    27298.557    77.419049 
   69600    3049.3848   -163.67071    2.7591475   -160.91156   -26019.992    4.2672028    4.2672028    4.2672028   -26019.992   -20479.946   -38296.174   -19283.856   -4133.2062    -15418.23    7067.7608    77.701579 
   69700    2668.6674   -163.33428    2.4146663   -160.91962   -6902.6828     4.260822     4.260822     4.260822   -6902.6828    10042.305   -25997.476   -4752.8766   -18524.889    -14937.74   -37604.696    77.353538 
   69800    1804.6431   -162.57964     1.632879   -160.94676    -14728.44    4.2574874    4.2574874    4.2574874    -14728.44    26732.815   -39346.773   -31571.363   -5099.4622    6456.7433   -87969.501    77.172063 
   69900    1203.3254   -162.05633    1.0887941   -160.96754   -4791.8143    4.2502325    4.2502325    4.2502325   -4791.8143    44895.016   -5884.0543   -53386.405   -13270.872   -8309.1831   -132307.83    76.778224 
   70000     1018.227   -161.91317   0.92131319   -160.99186    16995.187    4.2432356    4.2432356    4.2432356    16995.187    64893.791   -26201.907    12293.677    493.16224    6111.9089   -139881.79    76.399664 
   70100    1072.7795    -161.9828    0.9706734   -161.01213   -12488.102    4.2471712    4.2471712    4.2471712   -12488.102    69465.206   -48860.152   -58069.361    2608.9753    8.3885841   -136403.78    76.612444 
   70200    1338.8566   -162.22877    1.2114256   -161.01734    1629.4454    4.2485987    4.2485987    4.2485987    1629.4454    88162.032   -34582.635   -48691.061    15169.786    11421.952   -126671.42    76.689716 
   70300    1560.0173   -162.42783    1.4115364    -161.0163    10664.162    4.2520193    4.2520193    4.2520193    10664.162    97532.597   -58713.617   -6826.4926    23246.417    1132.7081   -67841.061    76.875097 
   70400    1998.7912   -162.80624    1.8085483   -160.99769   -18867.761    4.2571204    4.2571204    4.2571204   -18867.761   -12949.921    -3368.173   -40285.188    38810.046   -3557.3555   -25472.756    77.152107 
   70500    2364.2161    -163.1213    2.1391924    -160.9821    1148.2216    4.2462737    4.2462737    4.2462737    1148.2216    8984.3496   -9858.7767     4319.092    33339.372   -8610.8731    18308.208    76.563885 
   70600    2674.1837   -163.40277    2.4196576   -160.98312    27492.483    4.2430442    4.2430442    4.2430442    27492.483    16922.847    71605.901      -6051.3    33276.018   -12620.375    45186.013    76.389324 
   70700    2725.3506   -163.45985    2.4659545    -160.9939   -10575.631    4.2477682    4.2477682    4.2477682   -10575.631   -1935.2177   -16508.891   -13282.784    30274.669   -3953.6412    64471.146    76.644755 
   70800    2750.4969   -163.47939    2.4887074   -160.99069   -10481.977    4.2545324    4.2545324    4.2545324   -10481.977     13640.99   -37947.388   -7139.5328    14914.038   -8682.2318    62458.969    77.011488 
   70900    2109.6346   -162.89478    1.9088417   -160.98594   -11492.439    4.2689392    4.2689392    4.2689392   -11492.439     18379.76   -49800.564   -3056.5142    11468.309    5287.6201    28199.249    77.796474 
   71000     1415.592   -162.25789    1.2808573   -160.97703    -17584.65    4.2623935    4.2623935    4.2623935    -17584.65    36894.588   -98914.051    9265.5148    15989.652    2062.3067   -13148.785    77.439158 
   71100    842.05529   -161.73871   0.76190932    -160.9768    14872.812    4.2409715    4.2409715    4.2409715    14872.812    105290.25   -87615.749    26943.941    22586.794    3417.1868   -63095.564    76.277433 
   71200    900.08188   -161.80324     0.814413   -160.98883     29101.09    4.2395305    4.2395305    4.2395305     29101.09    166256.43   -64342.404   -14610.755    14370.672    9644.8535    -110652.2    76.199706 
   71300    997.62817   -161.90349   0.90267493   -161.00081    14128.753    4.2654198    4.2654198    4.2654198    14128.753    136109.92   -68335.177   -25388.483    17217.291    9999.9622   -109699.97    77.604219 
   71400    1338.6144   -162.17245    1.2112064   -160.96124   -4012.9437      4.28188      4.28188      4.28188   -4012.9437    65731.484   -44550.241   -33220.074    3158.3216     10661.27   -65297.916    78.506113 
   71500    2060.2803   -162.78934    1.8641849   -160.92516    2958.5901    4.2727738    4.2727738    4.2727738    2958.5901   -35961.051    22513.988    22322.834    9455.6852    14360.166   -13875.045    78.006303 
   71600    2885.7369   -163.52835    2.6110754   -160.91727   -614.40482    4.2465404    4.2465404    4.2465404   -614.40482   -29525.366    6869.0133    20813.139    12135.189    21523.927    31224.843    76.578309 
   71700    3221.7391   -163.84703    2.9150972   -160.93193     36829.72    4.2267121    4.2267121    4.2267121     36829.72   -8743.7844    53006.022    66226.922    24616.022    12851.053    46214.944    75.510614 
   71800     3285.639   -163.95624    2.9729152   -160.98333   -13210.622     4.248618     4.248618     4.248618   -13210.622   -45843.751   -33989.836     40201.72    34963.988    10673.152    37480.226    76.690762 
   71900    2975.0171    -163.6613     2.691858   -160.96944   -44162.376    4.2790531    4.2790531    4.2790531   -44162.376   -8664.5617   -94941.913   -28880.653    18845.259    2420.6174   -6056.7989    78.350728 
   72000    2037.3408   -162.78784    1.8434288   -160.94441    19520.065    4.2693134    4.2693134    4.2693134    19520.065     51985.57    34137.386   -27562.761    8533.6237    9403.9357   -66364.415    77.816936 
   72100    1184.5766   -162.00084    1.0718298   -160.92901   -15110.606    4.2580107    4.2580107    4.2580107   -15110.606    77534.233   -71308.744   -51557.307    566.28696   -10201.489   -129544.85    77.200522 
   72200    762.14721   -161.64402   0.68960682   -160.95441   -30699.983    4.2441534    4.2441534    4.2441534   -30699.983    97439.729   -66285.631   -123254.05   -4001.1457   -5407.2018   -173758.44     76.44925 
   72300    1035.5152   -161.92233   0.93695589   -160.98537    27136.215    4.2311188    4.2311188    4.2311188    27136.215    110097.67    3790.9562    -32479.98   -8967.5465   -8829.4427    -136601.2    75.747039 
   72400    1355.4448   -162.24094    1.2264349    -161.0145   -13905.571     4.251592     4.251592     4.251592   -13905.571    50027.384   -22405.203   -69338.894   -5960.2928   -13797.552   -109542.64    76.851924 
   72500    1990.5118   -162.80134    1.8010569   -161.00028   -25123.737    4.2606227    4.2606227    4.2606227   -25123.737    18795.177   -47040.231   -47126.157   -6938.8753   -5048.1922   -73519.143    77.342682 
   72600    2594.0698   -163.32553    2.3471689   -160.97836   -6612.0769    4.2572946    4.2572946    4.2572946   -6612.0769    6450.8706   -34832.463    8545.3619   -4030.0295   -16881.487    84.615603    77.161581 
   72700    3292.4042   -163.93169    2.9790365   -160.95266   -11389.647    4.2547693    4.2547693    4.2547693   -11389.647   -42109.534   -24646.457    32587.051    3936.1828   -4439.2805    37785.521    77.024353 
   72800    3213.6198   -163.86008    2.9077507   -160.95232   -10614.447    4.2646976    4.2646976    4.2646976   -10614.447   -45139.326    16401.742   -3105.7561   -7117.7152   -13300.094    32374.625     77.56481 
   72900    2379.7806   -163.09565    2.1532755   -160.94237    -4691.618    4.2783497    4.2783497    4.2783497    -4691.618    45814.915   -20498.196   -39391.573    -754.5018    3181.3771    2180.4392    78.312095 
   73000    1375.7912    -162.1753    1.2448448   -160.93046    2402.5603    4.2847199    4.2847199    4.2847199    2402.5603    139231.24   -43302.871   -88720.689   -4530.9266    8139.3036   -60030.189    78.662421 
   73100    612.06636    -161.4609   0.55381051   -160.90709    14175.541     4.278451     4.278451     4.278451    14175.541    93292.661   -26974.939   -23791.099   -67.593864     18668.95   -113436.15    78.317656 
   73200     500.1745   -161.34798    0.4525684   -160.89542     58872.01    4.2620872    4.2620872    4.2620872     58872.01    96815.244    29661.898    50138.888    -2861.777    17608.387   -111033.06    77.422465 
   73300    1478.6868   -162.24614    1.3379469   -160.90819    11422.022    4.2729445    4.2729445    4.2729445    11422.022    77621.103   -29615.111   -13739.926    5456.6423    32270.894   -59929.947    78.015657 
   73400    2816.8418   -163.44308    2.5487377   -160.89434    -22790.39    4.2774848    4.2774848    4.2774848    -22790.39   -16001.714   -34102.739   -18266.718   -1533.7328    3362.7597    23806.219     78.26461 
   73500    3439.7644   -164.00694    3.1123711   -160.89457   -4174.5806    4.2589596    4.2589596    4.2589596   -4174.5806   -47027.678    10885.925    23618.011    17240.343    17571.653    59401.412    77.252149 
   73600    3280.1518   -163.88598    2.9679503   -160.91803    5927.6664    4.2393083    4.2393083    4.2393083    5927.6664   -19962.772    22303.567    15442.204     4262.879    4462.2193    28664.004    76.187726 
   73700    2370.8589   -163.10431     2.145203   -160.95911    29128.857    4.2375311    4.2375311    4.2375311    29128.857    14717.786    55481.439    17187.346     11496.56   -552.44779   -16891.841    76.091944 
   73800    1497.6817   -162.35641    1.3551339   -161.00127   -7794.0015     4.257044     4.257044     4.257044   -7794.0015    74074.152   -32927.983   -64528.173    1346.6584    6496.2721    -86061.57    77.147952 
   73900    826.07372    -161.7304   0.74744886   -160.98295    14916.288    4.2715551    4.2715551    4.2715551    14916.288    116624.13   -15026.739   -56848.527   -2708.0772    4455.2059   -127955.32    77.939577 
   74000    770.84443   -161.64561   0.69747624   -160.94814    37176.663     4.273469     4.273469     4.273469    37176.663    171790.35   -20892.118   -39368.241   -4081.4539    12921.764   -120118.17    78.044389 
   74100    1540.3469   -162.31267    1.3937382   -160.91894   -9814.0501    4.2768497    4.2768497    4.2768497   -9814.0501    106406.09   -72371.937   -63476.305   -2852.0248    7314.3624   -74980.734    78.229755 
   74200    2700.9742   -163.33983    2.4438983   -160.89594    1200.2038    4.2583079    4.2583079    4.2583079    1200.2038    7178.6935   -18874.407    15296.325   -9419.7823   -889.14395    10566.734    77.216692 
   74300      3162.87   -163.76818    2.8618312   -160.90635    15230.652    4.2506312    4.2506312    4.2506312    15230.652   -33672.183    76646.664     2717.476     13292.42    6674.0119    50457.055    76.799835 
   74400    3448.2157   -164.05597     3.120018   -160.93595    25714.722     4.241287     4.241287     4.241287    25714.722    9992.2527    11886.933     55264.98   -2781.2549    3506.4292    54643.063    76.294456 
   74500    2980.6128   -163.67517    2.6969211   -160.97825     5315.448    4.2520253    4.2520253    4.2520253     5315.448    34539.697   -21553.719    2960.3667   -3867.5004    7176.2811    13105.917    76.875425 
   74600    1782.6243   -162.60022    1.6129559   -160.98727    19453.425    4.2665478    4.2665478    4.2665478    19453.425    74722.157   -20598.439    4236.5577   -15310.666    2461.4498   -55182.142    77.665804 
   74700    638.49271   -161.54367   0.57772162   -160.96595    27440.392     4.271747     4.271747     4.271747    27440.392    110045.57    22844.661   -50569.056   -6310.1287    8981.0785   -116404.85    77.950081 
   74800    633.51186   -161.51059   0.57321484   -160.93737   -9919.3562    4.2767062    4.2767062    4.2767062   -9919.3562    106903.85   -57642.115   -79019.806   -4853.2537    6207.4922    -145844.8    78.221879 
   74900    1487.2798   -162.25851     1.345722   -160.91279     16773.56    4.2640134    4.2640134    4.2640134     16773.56    88457.215   -12112.125   -26024.409    1680.4801   -365.18946   -90575.581    77.527484 
   75000    2249.2684   -162.94486    2.0351853   -160.90967    16431.522    4.2648427    4.2648427    4.2648427    16431.522     29452.75     42885.02   -23043.204   -3972.9976    13343.859   -7712.9386    77.572728 
   75100    3075.7472   -163.67047    2.7830007   -160.88747   -12724.501    4.2663456    4.2663456    4.2663456   -12724.501   -31730.601    208.86737   -6651.7677   -8862.3867   -7663.4694    47927.238    77.654764 
   75200    2899.4268   -163.52139    2.6234623   -160.89793   -18829.709    4.2642152    4.2642152    4.2642152   -18829.709   -56091.298    9367.0996   -9764.9302   -7567.1329   -9282.4925    24331.531    77.538492 
   75300    2051.4114    -162.7874    1.8561602   -160.93124   -34428.747    4.2645444    4.2645444    4.2645444   -34428.747   -18345.394   -84894.156   -46.690911   -6122.3795   -437.73113   -58243.641     77.55645 
   75400    1520.5065   -162.32792    1.3757862   -160.95213    18346.222    4.2399246    4.2399246    4.2399246    18346.222    61902.399    9002.0891   -15865.823   -4130.3413   -6838.6716   -121171.75    76.220956 
   75500    1139.9288   -162.01103    1.0314315    -160.9796    13098.863    4.2350437    4.2350437    4.2350437    13098.863     93290.01   -60844.706    6851.2849   -4550.0211    4174.0539   -144003.72    75.958028 
   75600    908.99874    -161.8219   0.82248116   -160.99942   -4142.2183    4.2558609    4.2558609    4.2558609   -4142.2183    61064.981   -397.76744   -73093.869   -7539.3421    6230.2201   -152344.49    77.083649 
   75700    1316.1441    -162.1728    1.1908749   -160.98192   -7369.6026    4.2727354    4.2727354    4.2727354   -7369.6026     55912.55   -63094.343   -14927.014     3481.317   -7708.1565   -98736.913    78.004203 
   75800    2492.8895   -163.19011    2.2556188   -160.93449   -13599.713     4.281014     4.281014     4.281014   -13599.713    54622.057   -31476.154   -63945.041   -14188.169   -1460.5889   -27732.421    78.458487 
   75900    3280.3287   -163.86211    2.9681103     -160.894   -20289.106    4.2739334    4.2739334    4.2739334   -20289.106   -5714.6091   -30082.968    -25069.74   -95.970909    974.76715    25358.431    78.069834 
   76000    3039.6299   -163.64026     2.750321   -160.88994    6284.4936    4.2462109    4.2462109    4.2462109    6284.4936    139.27032   -2427.4114    21141.622   -26096.915    4705.0282    46146.843    76.560489 
   76100    2351.8359   -163.05427    2.1279906   -160.92628    27049.225    4.2363644    4.2363644    4.2363644    27049.225    30903.779   -1002.6088    51246.505   -8220.9401    6110.2809    40050.056    76.029112 
   76200    1772.2849   -162.58423    1.6036006   -160.98063    6315.5504    4.2453623    4.2453623    4.2453623    6315.5504    21930.883   -26434.213    23449.982   -7164.8019    11915.046    43412.153    76.514595 
   76300    1214.6675    -162.1002    1.0990567   -161.00115   -19032.894     4.256841     4.256841     4.256841   -19032.894    11307.923   -58677.329   -9729.2762   -846.49819    7402.0787    49572.388     77.13692 
   76400    530.45902   -161.48723   0.47997047   -161.00726   -4957.7433    4.2601866    4.2601866    4.2601866   -4957.7433    78666.413   -93288.771   -250.87228    9780.8016   -9389.9872    39808.052    77.318934 
   76500    630.14601    -161.5771   0.57016935   -161.00693   -30334.813    4.2479256    4.2479256    4.2479256   -30334.813   -25515.162   -70599.102    5109.8256    2135.1466    594.40222    46682.725    76.653275 
   76600     828.2925   -161.74802   0.74945646   -160.99856    40573.415     4.236701     4.236701     4.236701    40573.415    83134.347   -30920.577    69506.474    17775.163   -6444.2213    37651.623    76.047237 
   76700    1504.1366   -162.35761    1.3609744   -160.99664   -31046.362    4.2534909    4.2534909    4.2534909   -31046.362   -34849.885   -57487.816   -801.38603     6664.292   -8858.1842    28678.262    76.954945 
   76800    2638.9242   -163.36294    2.3877541   -160.97518   -7798.8531    4.2514059    4.2514059    4.2514059   -7798.8531   -14237.269   -6050.2637   -3109.0271    7949.8379   -7285.7587    24989.242     76.84183 
   76900    3357.3405   -163.99925    3.0377922   -160.96146    7646.7327    4.2596921    4.2596921    4.2596921    7646.7327    15418.878   -4798.8473    12320.167   -26235.662   -8789.4532    20130.112    77.292012 
   77000    3619.1769   -164.21799    3.2747073   -160.94328   -23453.626    4.2614888    4.2614888    4.2614888   -23453.626   -51139.225    -21938.17    2716.5156   -2059.2836    1500.9444    20645.911    77.389861 
   77100    3157.9931   -163.79955    2.8574186   -160.94213    6035.3672    4.2453676    4.2453676    4.2453676    6035.3672   -8317.6635    16749.666    9674.0989   -16341.298    12225.963    4323.3849    76.514883 
   77200    2270.2752   -163.01954    2.0541927   -160.96535   -12443.947    4.2544995    4.2544995    4.2544995   -12443.947    -38409.97    867.38507    210.74305   -8030.3683    30578.444    8576.1395    77.009702 
   77300     1420.318    -162.2571    1.2851336   -160.97197   -10931.112    4.2675162    4.2675162    4.2675162   -10931.112   -30568.382    68950.239   -71175.194   -10887.475    35937.432    4234.4389    77.718703 
   77400    801.08864    -161.6923   0.72484184   -160.96745   -408.51837    4.2630933    4.2630933    4.2630933   -408.51837   -6803.8012    40320.451   -34742.205    10129.199      42204.3   -13182.544    77.477307 
   77500    598.60752   -161.51234   0.54163266    -160.9707   -15712.179    4.2497034    4.2497034    4.2497034   -15712.179   -12138.796     61475.17   -96472.912    3576.9287    28622.444   -3439.9355    76.749552 
   77600    794.19466   -161.69894   0.71860402   -160.98033    17170.118    4.2324794    4.2324794    4.2324794    17170.118   -12177.465    85748.198   -22060.378    16668.939    20565.764     1041.129    75.820137 
   77700     1364.467   -162.24006    1.2345985   -161.00546   -4265.3224    4.2436094    4.2436094    4.2436094   -4265.3224    18721.551    27220.988   -58738.507    13481.082    18930.615   -2905.5412    76.419856 
   77800    1957.6508   -162.77434    1.7713236   -161.00301   -5241.7631    4.2586222    4.2586222    4.2586222   -5241.7631    4686.1051    25107.828   -45519.222   -2591.3055   -17199.761   -5777.1403    77.233792 
   77900     2795.135   -163.50341    2.5290969   -160.97431   -12684.345    4.2624795    4.2624795    4.2624795   -12684.345     8364.123   -33858.576   -12558.581   -1792.3165    7252.9142   -3991.4729    77.443846 
   78000    3369.4208   -163.99513    3.0487227   -160.94641     -19404.1    4.2560151    4.2560151    4.2560151     -19404.1     2714.919   -34394.647   -26532.572   -4724.8505   -10304.231    555.02741    77.092029 
   78100    3159.0983    -163.8035    2.8584186   -160.94508     -2564.86    4.2417322    4.2417322    4.2417322     -2564.86    10505.599   -2185.8877   -16014.291    3307.2724    19157.937   -12877.886    76.318483 
   78200    2872.5103   -163.56558    2.5991077   -160.96647    3500.7046    4.2433736    4.2433736    4.2433736    3500.7046    38942.435   -41204.366    12764.045    9635.6457    4889.9511   -18661.454    76.407117 
   78300    2272.3767   -163.04624    2.0560942   -160.99014    13308.711    4.2517619    4.2517619    4.2517619    13308.711    9532.0018    26463.281    3930.8486    21369.235    15110.875   -19696.733     76.86114 
   78400    1124.8342   -162.01379    1.0177736   -160.99601     2712.513    4.2674086    4.2674086    4.2674086     2712.513    44301.599   -17208.947   -18955.113    20612.885    37016.586   -4598.2832    77.712823 
   78500    473.35296   -161.39767    0.4282997   -160.96937   -1961.1888    4.2685121    4.2685121    4.2685121   -1961.1888    15642.686    26373.787    -47900.04     41042.18    21059.977   -7592.0468    77.773124 
   78600    617.54611   -161.50776   0.55876869   -160.94899    33468.103    4.2554245    4.2554245    4.2554245    33468.103    63833.697    29192.465    7378.1482    26779.711    39885.094   -6744.6712    77.059943 
   78700    1248.8621   -162.07274    1.1299966   -160.94274   -877.81201    4.2491211    4.2491211    4.2491211   -877.81201    15739.887    23227.799   -41601.122    22572.138    39543.165    1901.2001    76.718007 
   78800    2224.1384   -162.96266    2.0124472   -160.95021    5256.5286    4.2488057    4.2488057    4.2488057    5256.5286    15441.049    921.43519   -592.89841    11312.683    16657.979    17923.939    76.700927 
   78900    3035.3206   -163.70089    2.7464219   -160.95447   -11985.352     4.269673     4.269673     4.269673   -11985.352   -34579.956   -17529.871    16153.769    3510.5221   -3119.1446    16842.203    77.836596 
   79000    3614.4756   -164.21203    3.2704535   -160.94158   -33078.951    4.2635003    4.2635003    4.2635003   -33078.951   -47594.241   -36826.827   -14815.787   -6381.8863   -8617.8523    15135.493      77.4995 
   79100     3316.978   -163.93678    3.0012714   -160.93551    189.36555    4.2418605    4.2418605    4.2418605    189.36555   -18252.359    6626.6711    12193.784   -13624.446   -27398.483    32754.102    76.325408 
   79200    2853.7687   -163.53551    2.5821499   -160.95336    18142.551    4.2378101    4.2378101    4.2378101    18142.551     33899.23    5976.2432    14552.179   -6346.7885   -27149.204    43022.986    76.106976 
   79300    2369.3028   -163.13076    2.1437949   -160.98696   -1547.8769    4.2493695    4.2493695    4.2493695   -1547.8769    12889.391    12019.301   -29552.323   -11377.155   -25990.512    47418.671    76.731464 
   79400    1492.9655   -162.33924    1.3508665   -160.98837   -27465.921    4.2714972    4.2714972    4.2714972   -27465.921   -20858.713   -26452.858   -35086.193    19353.468    -18924.77     37358.06    77.936407 
   79500    712.89614   -161.61004   0.64504341   -160.96499    31874.298    4.2700646    4.2700646    4.2700646    31874.298    43170.862    17246.578    35205.456    42121.231   -9343.0623    23597.994    77.858018 
   79600    795.01986   -161.66359   0.71935067   -160.94424   -25867.604    4.2650908    4.2650908    4.2650908   -25867.604    26325.213    -86359.68   -17568.344    38861.215   -9034.2317    40012.963    77.586262 
   79700    1358.5274   -162.17384    1.2292242   -160.94461    3397.3407    4.2420791    4.2420791    4.2420791    3397.3407    11817.018    -34681.79    33056.794    2137.4533   -12082.565    15258.275    76.337209 
   79800    2183.4583   -162.93968    1.9756389   -160.96404    19318.553    4.2446109    4.2446109    4.2446109    19318.553    25129.308   -10449.213    43275.563   -147.44972    -8608.186    15287.594    76.473975 
   79900    2860.6866   -163.55257    2.5884094   -160.96416   -22857.601    4.2625354    4.2625354    4.2625354   -22857.601   -65942.405   -25931.726    23301.329    -24222.06    11142.243   -7489.7992    77.446893 
   80000    3616.1044   -164.21462    3.2719272    -160.9427   -25224.644    4.2655885    4.2655885    4.2655885   -25224.644   -31977.176   -20952.283   -22744.472   -26950.165    7652.6049    3362.2449    77.613428 
   80100     3569.276   -164.16503     3.229556   -160.93547   -25651.511    4.2643728    4.2643728    4.2643728   -25651.511   -13930.047   -18880.185     -44144.3   -43776.228    21206.004   -6595.6956    77.547089 
   80200    3070.8261   -163.72333     2.778548   -160.94479    13341.898    4.2452136    4.2452136    4.2452136    13341.898     40434.43   -1965.2571    1556.5198   -41115.559    12366.404     179.9935    76.506553 
   80300    2611.1072    -163.3361    2.3625847   -160.97352   -6447.7914    4.2421251    4.2421251    4.2421251   -6447.7914   -10557.675   -16235.891    7450.1921   -43173.479    25490.673   -2785.6785    76.339694 
   80400    2022.2012   -162.83154    1.8297301   -161.00181    231.68125    4.2511595    4.2511595    4.2511595    231.68125   -22483.565    -38226.04    61404.648    -31857.93    21360.128   -12625.042    76.828472 
   80500    1639.9766   -162.48853    1.4838853   -161.00465   -4272.4246     4.249921     4.249921     4.249921   -4272.4246    50045.454   -18968.652   -43894.076   -8953.9564    28559.573    -14396.78    76.761342 
   80600    1352.1175   -162.22875    1.2234244   -161.00533   -9325.2339    4.2574098    4.2574098    4.2574098   -9325.2339   -12643.631    -19725.47    4393.3992    7863.3683    39813.758   -27190.202    77.167844 
   80700     1353.474   -162.21519    1.2246518   -160.99053    15435.578    4.2540046    4.2540046    4.2540046    15435.578    54911.438    -8888.064    283.36037    6789.4658    35729.741   -30716.328    76.982829 
   80800    1648.0266   -162.47184    1.4911691   -160.98067   -2514.9494    4.2546182    4.2546182    4.2546182   -2514.9494   -495.34343    17309.887   -24359.391      12316.6    27895.514   -12568.829    77.016144 
   80900    1849.4805   -162.65353    1.6734489   -160.98008   -31074.609    4.2582153    4.2582153    4.2582153   -31074.609   -69919.759    2639.1768   -25943.244     11015.48    29083.135    15479.532    77.211652 
   81000    2513.7858    -163.2473    2.2745262   -160.97278   -5754.1674    4.2438114    4.2438114    4.2438114   -5754.1674   -57861.087    47921.334   -7322.7497   -3546.7385    41389.737      31987.2     76.43077 
   81100    2600.8278   -163.33208    2.3532836    -160.9788    21393.769    4.2412945    4.2412945    4.2412945    21393.769   -38115.813    46984.618      55312.5   -2382.5684    36846.791    37063.621    76.294864 
   81200    2357.6417   -163.12095    2.1332438    -160.9877   -23340.287    4.2513303    4.2513303    4.2513303   -23340.287   -90614.729    39697.628   -19103.761   -4999.2965    29296.121    38384.764    76.837731 
   81300    1927.0618   -162.73141     1.743646   -160.98776   -14874.238    4.2509918    4.2509918    4.2509918   -14874.238   -99826.198    54374.483    829.00014    -5085.513    45068.218    19943.853    76.819378 
   81400    1512.1646   -162.36498    1.3682383   -160.99674   -5195.6323    4.2530259    4.2530259    4.2530259   -5195.6323   -37208.036    42034.004   -20412.865   -5177.4546    34733.315    18879.342    76.929705 
   81500    1442.9705   -162.30532    1.3056301   -160.99969    416.61537    4.2492277    4.2492277    4.2492277    416.61537   -57777.945    51979.411    7048.3795    6162.7039    26353.173    2672.6758    76.723784 
   81600    1175.5124   -162.06477    1.0636283   -161.00115   -4212.1724     4.245132     4.245132     4.245132   -4212.1724   -75900.893    49471.286     13793.09    14555.546    28232.433    6418.1889    76.502145 
   81700    988.04494   -161.90708   0.89400383   -161.01308   -1861.3624    4.2472231    4.2472231    4.2472231   -1861.3624     23827.03    14850.222   -44261.339    13960.217    38992.522    22625.605    76.615249 
   81800    1278.2063   -162.16753    1.1565479   -161.01098    13215.793    4.2533034    4.2533034    4.2533034    13215.793   -34078.238    12935.311    60790.306    16184.615    25334.021    16819.161    76.944768 
   81900    1965.3682   -162.77475    1.7783065   -160.99644    -11706.45     4.258313     4.258313     4.258313    -11706.45   -4871.9246   -15063.116   -15184.308    14084.952    13431.703    9561.7527    77.216965 
   82000    2595.6429   -163.32891    2.3485922   -160.98032    9364.0865    4.2521358    4.2521358    4.2521358    9364.0865    31096.682   -13077.006    10072.584     34536.12    5144.6863   -2055.8981    76.881414 
   82100    3158.1375    -163.8165    2.8575491   -160.95895    2589.9623    4.2526719    4.2526719    4.2526719    2589.9623    31165.355   -7803.0279    -15592.44    10442.604   -2871.9128   -10031.024      76.9105 
   82200    2968.2527    -163.6401    2.6857374   -160.95436   -25544.819    4.2659054    4.2659054    4.2659054   -25544.819   -7156.8735   -14408.581   -55069.003      23335.2    842.67002   -35849.936    77.630728 
   82300    2684.2639   -163.37854    2.4287784   -160.94976    1314.3474    4.2605787    4.2605787    4.2605787    1314.3474    28914.856   -7056.6672   -17915.147    16298.136    -11647.57   -44747.396    77.340286 
   82400    2187.4453   -162.93021    1.9792465   -160.95097   -3316.8269    4.2535749    4.2535749    4.2535749   -3316.8269      9492.33   -3673.4959   -15769.315    704.88878   -7766.2144   -64691.369    76.959505 
   82500    1205.2944   -162.06114    1.0905757   -160.97056   -45155.851     4.259366     4.259366     4.259366   -45155.851    19000.414   -108280.25   -46187.718    10232.815   -8952.9312    -98715.22    77.274265 
   82600    738.24203   -161.65333   0.66797691   -160.98535     32609.78    4.2402452    4.2402452    4.2402452     32609.78    101384.26    20484.718   -24039.636   -1131.9347   -23456.012   -94147.627    76.238249 
   82700    650.76091   -161.59607   0.58882215   -161.00725   -7803.8531    4.2459324    4.2459324    4.2459324   -7803.8531    20771.237   -18089.729   -26093.067   -7871.0222   -15582.804   -88889.174    76.545422 
   82800    755.12011    -161.6869   0.68324855   -161.00365   -51492.468    4.2574268    4.2574268    4.2574268   -51492.468    6536.6048   -69577.688   -91436.321    282.50442   -22245.046   -93288.612    77.168769 
   82900    1166.0884    -162.0577    1.0551013    -161.0026    36917.439    4.2443546    4.2443546    4.2443546    36917.439    73022.783    66913.187   -29183.652    10068.608   -18650.483   -71451.366    76.460123 
   83000    1840.8855   -162.66632    1.6656719   -161.00064   -20983.908    4.2533381    4.2533381    4.2533381   -20983.908    43922.887   -49373.806   -57500.804    1887.2367    -17892.98   -67166.638    76.946653 
   83100    2440.6291   -163.19252    2.2083325   -160.98419    2044.1072    4.2506277    4.2506277    4.2506277    2044.1072    33318.029    15054.177   -42239.884    1146.6724   -7452.6887   -45769.764    76.799646 
   83200     2669.182   -163.39132     2.415132   -160.97619     774.3778    4.2562753    4.2562753    4.2562753     774.3778    23535.986   -4077.4644   -17135.389    -6494.884    -6004.864   -28505.879    77.106173 
   83300    2920.3288   -163.60934    2.6423749   -160.96697   -22877.966    4.2550401    4.2550401    4.2550401   -22877.966   -24192.177   -30326.197   -14115.525   -10446.026   -9885.4436   -30563.233    77.039059 
   83400    3031.6862   -163.70952    2.7431334   -160.96639    10792.619    4.2400692    4.2400692    4.2400692    10792.619   -33850.695     5936.886    60291.665   -6373.6703   -7342.6101    -1252.662    76.228756 
   83500    3095.8904   -163.78642    2.8012267    -160.9852    11579.967    4.2409412    4.2409412    4.2409412    11579.967   -28155.109    4024.2118    58870.797    4629.0458   -7004.3856   -23832.869    76.275796 
   83600    2825.2021   -163.55602    2.5563022   -160.99972    15739.571    4.2452629    4.2452629    4.2452629    15739.571   -6030.4424   -24580.668    77829.824    34634.443    1813.0317     -334.767    76.509217 
   83700    2283.8117    -163.0666    2.0664408   -161.00016   -40406.526    4.2597791    4.2597791    4.2597791   -40406.526    -57586.04   -83033.143    19399.606    43654.933   -2726.6442   -12964.799    77.296748 
   83800    1990.9207   -162.80252    1.8014269   -161.00109    7484.5389    4.2465683    4.2465683    4.2465683    7484.5389   -15212.354   -9538.2506    47204.222    43399.081    1915.1561   -16872.766    76.579822 
   83900    1778.3323    -162.6082    1.6090725   -160.99913    19010.739    4.2324039    4.2324039    4.2324039    19010.739    27438.704   -39318.158    68911.671    43128.565    390.97941    232.54338     75.81608 
   84000    1629.5356   -162.48239    1.4744381   -161.00795   -33712.555    4.2435277    4.2435277    4.2435277   -33712.555     -29896.5   -88587.967    17346.801    20470.772    3043.6328   -18217.624     76.41544 
   84100    1306.6441   -162.19771     1.182279   -161.01543    31563.958    4.2469831    4.2469831    4.2469831    31563.958    91087.478   -32786.837    36391.234    7182.8741   -2838.1318    5274.8076    76.602263 
   84200    1264.5319   -162.15668    1.1441751   -161.01251   -27274.269    4.2584686    4.2584686    4.2584686   -27274.269   -28391.901   -103204.72    49773.815    18829.849   -851.51186    12620.179    77.225432 
   84300    1598.8919   -162.43513     1.446711   -160.98842   -7230.8764    4.2528276    4.2528276    4.2528276   -7230.8764   -12933.018   -98576.323    89816.712    24333.267   -7242.8755    4053.4159    76.918947 
   84400    2197.2318   -162.96316    1.9881015   -160.97506    19132.372    4.2527946    4.2527946    4.2527946    19132.372    19600.352   -35806.513    73603.277    7300.1502    8812.8993    10700.272     76.91716 
   84500    2817.6937   -163.51542    2.5495085   -160.96591   -17059.586    4.2524488    4.2524488    4.2524488   -17059.586   -38825.142   -43974.766    31621.151    16146.256   -4951.7415   -134.42396    76.898398 
   84600    2862.4057   -163.55695    2.5899648   -160.96699    12250.845    4.2416767    4.2416767    4.2416767    12250.845   -2649.9688    22538.532    16863.973     8191.335    4143.0022    9363.4424    76.315488 
   84700     2578.585   -163.31782    2.3331579   -160.98466   -6030.1625    4.2461265    4.2461265    4.2461265   -6030.1625   -45890.043    18001.689    9797.8665    2334.1233   -4706.6425    6028.5525    76.555921 
   84800     2058.365   -162.85601    1.8624519   -160.99356   -19037.635    4.2457883    4.2457883    4.2457883   -19037.635   -65477.037   -9699.6877    18063.819   -12028.999   -10231.792    3207.8032    76.537631 
   84900    1938.3915   -162.75887    1.7538973   -161.00497    2653.6603    4.2428493    4.2428493    4.2428493    2653.6603   -35342.343    76458.766   -33155.442    -859.6557   -7162.9096     25127.46    76.378801 
   85000    1592.7985   -162.45595    1.4411976   -161.01475   -5840.2275    4.2509374    4.2509374    4.2509374   -5840.2275   -53020.147    43416.823   -7917.3587   -1557.7013   -27666.963     23087.53    76.816429 
   85100    972.78749   -161.89329   0.88019856   -161.01309   -11876.209    4.2527764    4.2527764    4.2527764   -11876.209   -60163.995     85717.55   -61182.182   -1966.1255    -57692.59    8526.9599    76.916167 
   85200    536.95107   -161.49395   0.48584461   -161.00811   -19868.418    4.2462617    4.2462617    4.2462617   -19868.418   -39528.747    80599.833   -100676.34     -3955.38   -51956.793    13795.588    76.563236 
   85300    344.63758   -161.31918   0.31183533   -161.00734     8485.469    4.2399017    4.2399017    4.2399017     8485.469    1870.4913      33849.8   -10263.884    4026.8324   -44365.717    27263.242    76.219724 
   85400    649.34092   -161.60721   0.58753731   -161.01967   -9935.2422    4.2481711    4.2481711    4.2481711   -9935.2422   -36361.579    106940.83   -100384.97    1828.2736   -51100.377    16352.611    76.666564 
   85500    1178.1546    -162.0716     1.066019   -161.00558   -13809.933    4.2551908    4.2551908    4.2551908   -13809.933   -8784.3171     44769.02   -77414.502   -5620.7565   -57033.202    11480.835    77.047243 
   85600    1753.8823   -162.57437    1.5869495   -160.98742    7940.7126    4.2557117    4.2557117    4.2557117    7940.7126   -21604.019    42980.332    2445.8255    6803.9994   -41526.876    15690.523    77.075543 
   85700    2541.1084   -163.26669    2.2992482   -160.96744   -16850.039    4.2524574    4.2524574    4.2524574   -16850.039   -22265.532    10140.096   -38424.681   -8768.0634   -31047.426   -9986.7489    76.898862 
   85800    3179.1702   -163.83158      2.87658     -160.955    224.81547    4.2509149    4.2509149    4.2509149    224.81547    6687.1828   -18000.963    11988.226   -16992.609   -27604.815   -381.58323     76.81521 
   85900    3419.8347   -164.04693    3.0943383    -160.9526     1338.268    4.2591635    4.2591635    4.2591635     1338.268     17156.79   -25662.668    12520.682   -2167.4891   -24328.685   -15763.829    77.263244 
   86000    3169.0295   -163.82374    2.8674045   -160.95634    -7555.707    4.2543803    4.2543803    4.2543803    -7555.707   -24544.484   -10327.313    12204.675   -17090.474   -16199.463    -13316.78    77.003228 
   86100    2222.0257    -162.9775    2.0105356   -160.96697    -15378.69    4.2500744    4.2500744    4.2500744    -15378.69   -30400.292   -53524.472    37788.695   -33440.847   -22661.464   -15016.603    76.769654 
   86200    1217.2784   -162.08449    1.1014191   -160.98307    15976.887    4.2432612    4.2432612    4.2432612    15976.887    53569.048   -37116.398    31478.012    -20798.44   -15795.443   -19575.825    76.401046 
   86300    752.03943   -161.67738   0.68046108   -160.99692   -3146.9022    4.2483174    4.2483174    4.2483174   -3146.9022   -23345.931   -80616.892    94522.116   -15965.009    -10429.85   -9172.5428    76.674487 
   86400    604.09242   -161.54125   0.54659552   -160.99466   -10776.151    4.2627969    4.2627969    4.2627969   -10776.151    728.30862   -82329.672    49272.909   -24703.617   -15970.421    -3145.511    77.461144 
   86500    795.57077   -161.69499   0.71984916   -160.97514    5245.7105    4.2638642    4.2638642    4.2638642    5245.7105    15529.208   -19010.117     19218.04    -11909.54     1815.539   -14263.117    77.519346 
   86600    1513.2945   -162.32268    1.3692607   -160.95342    8192.8337    4.2560658    4.2560658    4.2560658    8192.8337      9148.48   -38547.052    53977.072   -6973.3913   -1941.9368   -6826.5379    77.094783 
   86700     2484.055   -163.18958    2.2476252   -160.94196   -3628.8378    4.2551347    4.2551347    4.2551347   -3628.8378   -20029.633   -9157.0775    18300.197    3157.6947    7729.3332    9955.6909    77.044195 
   86800    3420.3997   -164.02918    3.0948495   -160.93433    5238.0995    4.2512138    4.2512138    4.2512138    5238.0995    3736.0241    -3331.106     15309.38    6068.4824    9458.4776    1692.6475    76.831419 
   86900    3368.1732   -163.99274    3.0475939   -160.94515   -14233.312    4.2650387    4.2650387    4.2650387   -14233.312    -18805.34   -18061.343   -5833.2545     6897.108    15717.123        19254    77.583421 
   87000     2773.042   -163.45279    2.5091066   -160.94368   -9241.8517    4.2635315    4.2635315    4.2635315   -9241.8517   -19658.845    6246.5187   -14313.229    4293.8268    23829.767   -4967.8272    77.501199 
   87100    2041.6238   -162.79102    1.8473041   -160.94372   -6902.9221    4.2476832    4.2476832    4.2476832   -6902.9221   -7383.6257   -9530.7646   -3794.3761    14320.904    32229.528   -23644.628    76.640151 
   87200    1450.0237   -162.28683    1.3120119   -160.97482   -19721.224    4.2489793    4.2489793    4.2489793   -19721.224   -25945.773    54708.866   -87926.765    2957.5458    37281.376   -25586.345    76.710327 
   87300    1204.7962   -162.08572    1.0901249    -160.9956    3018.1779    4.2426148    4.2426148    4.2426148    3018.1779    1048.9696    39813.872   -31808.308    13931.888    35597.964    -36608.06    76.366134 
   87400    572.31984   -161.53499   0.51784701   -161.01714    8051.6625    4.2480428    4.2480428    4.2480428    8051.6625    24631.016    50695.452   -51171.481   -4553.2676    32314.499   -60664.572    76.659618 
   87500    507.11323   -161.46459   0.45884671   -161.00574     -30371.8    4.2582691    4.2582691    4.2582691     -30371.8    -10166.05    16363.319    -97312.67    161.65842    45243.253   -45924.672    77.214582 
   87600    879.25239   -161.78784   0.79556604   -160.99228    18876.685     4.246075     4.246075     4.246075    18876.685     16962.83    51168.341   -11501.114   -13785.332    38539.314   -33620.346    76.553135 
   87700    1523.8698   -162.36796    1.3788294   -160.98913   -6454.0081    4.2503191    4.2503191    4.2503191   -6454.0081    31267.873   -14880.785   -35749.113   -19533.168    31624.246   -59863.943     76.78292 
   87800    2103.8798     -162.889    1.9036347   -160.98537   -7464.2113    4.2546885    4.2546885    4.2546885   -7464.2113    67583.628   -40403.688   -49572.574   -17977.485    36935.887   -40306.354    77.019962 
   87900    2806.6441   -163.51582    2.5395106   -160.97631    11081.517    4.2502388    4.2502388    4.2502388    11081.517    17895.186      5745.55    9603.8146   -19544.791     25242.14   -38453.073    76.778567 
   88000    3251.8624   -163.92325    2.9423534    -160.9809   -13846.642    4.2494333    4.2494333    4.2494333   -13846.642    21383.974   -28338.045   -34585.853    -13529.26    8047.2408   -22334.051    76.734923 
   88100    3602.7807   -164.24392    3.2598717   -160.98405   -5355.4934    4.2427861    4.2427861    4.2427861   -5355.4934    28933.787   -36884.731   -8115.5358   -15709.547    14710.895   -16178.915    76.375385 
   88200    3461.3111   -164.12601     3.131867   -160.99414    14583.863    4.2406011    4.2406011    4.2406011    14583.863    45450.176   -4257.7504    2559.1647   -9948.3086    19662.145   -18619.832    76.257447 
   88300    2933.1321   -163.65937    2.6539595   -161.00541   -5308.4658    4.2529461    4.2529461    4.2529461   -5308.4658   -16943.113    12489.877   -11472.161   -17833.917    21005.635   -18991.008     76.92538 
   88400    2302.5318   -163.08617    2.0833791   -161.00279   -11416.357    4.2562059    4.2562059    4.2562059   -11416.357   -28952.864     22458.92   -27755.128     -11077.2    38924.912   -48377.597    77.102399 
   88500    1728.7114   -162.56167    1.5641744   -160.99749   -30849.057    4.2531267    4.2531267    4.2531267   -30849.057   -29757.824   -19461.069   -43328.278   -14392.047    2911.2188   -39561.722    76.935177 
   88600    1386.6668   -162.24747    1.2546853   -160.99278    14080.017    4.2462222    4.2462222    4.2462222    14080.017   -29384.365     23964.79    47659.626   -13403.968    1788.5265   -25366.021    76.561098 
   88700    816.30587   -161.74448   0.73861071   -161.00587   -4197.9792    4.2568781    4.2568781    4.2568781   -4197.9792   -5076.5709    42060.842   -49578.208   -15771.406    -7078.812   -3435.1478    77.138938 
   88800    518.63851   -161.46655   0.46927502   -160.99728   -24193.685    4.2571484    4.2571484    4.2571484   -24193.685   -16921.604   -24039.058   -31620.393   -23409.902    -2946.931   -10467.247    77.153633 
   88900    908.40657   -161.80869   0.82194535   -160.98675    18271.758    4.2422554    4.2422554    4.2422554    18271.758   -22603.444    71558.927    5859.7912   -26670.544   -8101.5153     3294.287    76.346727 
   89000    1749.2962   -162.57476    1.5827999   -160.99196   -21527.068    4.2521528    4.2521528    4.2521528   -21527.068   -15344.176    14250.346   -63487.374   -19366.317    3890.4495    14125.404     76.88234 
   89100    2507.2974   -163.24387    2.2686554   -160.97522   -17891.277    4.2644663    4.2644663    4.2644663   -17891.277   -14996.051   -13239.713   -25438.067    -8799.625    8329.6823     5909.489    77.552191 
   89200    3211.4948   -163.85519     2.905828   -160.94936   -12399.995    4.2624535    4.2624535    4.2624535   -12399.995   -22326.467   -24571.796    9698.2788   -13404.572    21317.035   -7802.0567     77.44243 
   89300    3274.8793   -163.90318    2.9631797   -160.94001    1756.7554    4.2503518    4.2503518    4.2503518    1756.7554   -5331.4589   -7282.8483    17884.573    8985.6039    20335.624   -9745.0617    76.784692 
   89400    3013.8873   -163.68048    2.7270286   -160.95345   -18195.448    4.2517941    4.2517941    4.2517941   -18195.448   -8189.6528   -42581.432   -3815.2602    34841.892    16726.378    1126.5677    76.862887 
   89500    2609.0308   -163.33122    2.3607059   -160.97051   -3725.2743    4.2500689    4.2500689    4.2500689   -3725.2743    30525.956    -66417.78    24716.001    52646.692    15068.518     11328.96    76.769357 
   89600    1933.0064   -162.73677    1.7490248   -160.98774   -6680.2942    4.2490588    4.2490588    4.2490588   -6680.2942   -26446.607   -45151.325    51557.049    79015.864    23049.267   -10732.774    76.714636 
   89700    1215.7477   -162.10592     1.100034   -161.00589    11567.681    4.2502206    4.2502206    4.2502206    11567.681    27154.282   -47695.501    55244.263    65877.664    29692.843   -5617.3272     76.77758 
   89800    879.96462   -161.80866   0.79621048   -161.01245   -16782.308    4.2529392    4.2529392    4.2529392   -16782.308   -51061.248   -55179.116    55893.439    75662.329    17163.689   -16075.049    76.925002 
   89900    962.54592   -161.88944   0.87093177   -161.01851   -7848.9087    4.2466547    4.2466547    4.2466547   -7848.9087    10340.443   -52738.378    18851.209    73000.502    10402.637    -8634.422    76.584492 
   90000    1039.5144   -161.95947   0.94057452   -161.01889    -400.0252    4.2407123    4.2407123    4.2407123    -400.0252     31916.37   -69576.856     36460.41    63946.322   -3634.4658   -8426.9086    76.263446 
   90100    767.24677   -161.71916     0.694221   -161.02494   -9949.2873    4.2467728    4.2467728    4.2467728   -9949.2873   -14695.617   -103683.33    88531.081     62528.54   -9529.1386   -13173.063    76.590885 
   90200    566.20519   -161.53407   0.51231436   -161.02175   -213.17692    4.2561622    4.2561622    4.2561622   -213.17692    19005.606   -66037.939    46392.802    53010.076   -15595.967   -14407.155    77.100024 
   90300    1124.0009   -162.01408    1.0170197   -160.99707   -12817.102    4.2678236    4.2678236    4.2678236   -12817.102   -65917.199   -58089.724    85555.617    27677.136   -25899.703   -24434.824    77.735498 
   90400    2084.3124   -162.84527    1.8859297   -160.95934    12569.646    4.2661937    4.2661937    4.2661937    12569.646   -1396.3938   -31306.764    70412.095   -15900.744   -27058.736    -23949.28    77.646467 
   90500    2915.3429   -163.58121    2.6378635   -160.94334    15448.912    4.2529413    4.2529413    4.2529413    15448.912    33804.364   -28932.928    41475.298   -14253.264   -23883.115   -15469.239    76.925117 
   90600    3299.3887   -163.95225    2.9853563   -160.96689    9960.2857    4.2424683    4.2424683    4.2424683    9960.2857    7587.0713    17645.072    4648.7138   -14436.546   -6390.1451    3125.7297    76.358223 
   90700    3131.9243   -163.83242    2.8338309   -160.99859   -1222.3478     4.238778     4.238778     4.238778   -1222.3478    8867.7401    16335.863   -28870.646   -17872.488   -5035.9566    3310.5023    76.159137 
   90800    3053.9716   -163.78132    2.7632977   -161.01802    17666.866    4.2369525    4.2369525    4.2369525    17666.866    40126.083    27184.133   -14309.618   -22748.444    -10874.28    6715.6323     76.06078 
   90900    3006.9371   -163.74626    2.7207399   -161.02552   -3284.3644    4.2492629    4.2492629    4.2492629   -3284.3644   -17833.745    7091.7686     888.8836   -30073.595    1067.0594    10421.728    76.725688 
   91000     2570.307   -163.33828    2.3256678   -161.01262   -8046.2336    4.2578819    4.2578819    4.2578819   -8046.2336    -21356.85    6677.4533   -9459.3043   -51997.814   -7458.4135   -852.60012     77.19352 
   91100     1846.624   -162.67244    1.6708642   -161.00157    20900.211    4.2491139    4.2491139    4.2491139    20900.211   -34830.494    84052.762    13478.366   -60627.891   -5146.4487    5076.1365     76.71762 
   91200    1515.1856   -162.37569    1.3709718   -161.00472    3085.9461    4.2537471    4.2537471    4.2537471    3085.9461   -49392.854    18486.667    40164.026   -63017.972   -20574.121   -11325.789    76.968847 
   91300    1074.3224   -161.97329    0.9720695   -161.00122   -13031.566    4.2632027    4.2632027    4.2632027   -13031.566    -65692.74    -7297.956    33895.997   -73294.746   -22546.814   -4285.3944    77.483272 
   91400    721.17924   -161.64526   0.65253814   -160.99272    5408.3775     4.254916     4.254916     4.254916    5408.3775   -17662.166   -39154.901    73042.199   -73664.937   -48419.037   -11883.483    77.032321 
   91500    382.39708   -161.35124   0.34600091   -161.00524      2231.43    4.2448185    4.2448185    4.2448185      2231.43   -48644.183   -25370.197     80708.67   -60946.673   -44365.215   -4235.1196    76.485193 
   91600    419.11833   -161.38928   0.37922707   -161.01005    21811.696    4.2461681    4.2461681    4.2461681    21811.696   -7611.9462   -13760.679    86807.714   -75890.318   -47898.574   -14046.765     76.55817 
   91700    695.73035   -161.65105   0.62951144   -161.02153    26699.139    4.2641128    4.2641128    4.2641128    26699.139   -23763.827    29166.237    74695.007   -66724.527   -38601.317    -17327.26    77.532907 
   91800    1341.8776   -162.18762     1.214159   -160.97346   -6836.2602    4.2790024    4.2790024    4.2790024   -6836.2602   -41502.157    15079.115    5914.2613   -54095.972   -35857.079   -13022.017    78.347944 
   91900     1897.702   -162.65613    1.7170806   -160.93905    13819.316     4.263953     4.263953     4.263953    13819.316   -43746.435    92092.127   -6887.7428   -36264.971    -23467.33    -15429.04    77.524188 
   92000     2651.544   -163.33644    2.3991727   -160.93727   -1936.3484    4.2463859    4.2463859    4.2463859   -1936.3484    -35625.16    10376.317    19439.798    -9481.422   -21986.586   -7976.7854    76.569952 
   92100    3072.9759    -163.7386    2.7804932   -160.95811    19197.335    4.2347277    4.2347277    4.2347277    19197.335    12150.626    37908.452    7532.9279    3357.8415    -17095.53    13181.289    75.941028 
   92200    3122.4022   -163.81463    2.8252151   -160.98941    7651.3028    4.2451836    4.2451836    4.2451836    7651.3028    643.74626    44482.765   -22172.602    15270.744   -2542.5017    6429.5415    76.504932 
   92300    2946.7279   -163.66558    2.6662613   -160.99932   -16576.146    4.2582032    4.2582032    4.2582032   -16576.146   -19427.214   -18436.729   -11864.496    11203.001    4547.6123    10364.925    77.210994 
   92400    2318.7188   -163.09983    2.0980255   -161.00181    4030.5485    4.2539361    4.2539361    4.2539361    4030.5485   -958.99288    25181.593   -12130.955    41698.118   -4099.9755    8435.3846    76.979112 
   92500    1662.1653   -162.50401    1.5039621   -161.00004   -13715.283    4.2497739    4.2497739    4.2497739   -13715.283   -74161.424    1226.6965    31788.877     38231.91   -19557.546    1127.8604    76.753376 
   92600    1419.1417   -162.28718    1.2840692   -161.00312    4650.7352    4.2421426    4.2421426    4.2421426    4650.7352   -32340.931    -5523.384     51816.52    51698.149   -38308.261    573.15868    76.340641 
   92700    1134.4337   -162.04158    1.0264595   -161.01512    22870.888    4.2438354    4.2438354    4.2438354    22870.888   -6034.1276    29953.932    44692.859    52510.728   -26457.613    2736.4191    76.432063 
   92800    631.42978   -161.58672   0.57133093   -161.01539   -12639.883    4.2675085    4.2675085    4.2675085   -12639.883   -50286.543    -51947.23    64314.123    59586.061   -21330.846   -7799.9602    77.718279 
   92900    895.50063    -161.7879   0.81026779   -160.97763   -9046.6588    4.2725898    4.2725898    4.2725898   -9046.6588   -52327.864    -26393.27    51581.158    42522.544   -25091.938    809.59151    77.996225 
   93000      1756.14    -162.5416    1.5889924   -160.95261    12889.316    4.2582121    4.2582121    4.2582121    12889.316    25050.211   -29739.557    43357.295    34913.861    -9219.844    4011.7052    77.211477 
   93100    2303.4595   -163.04924    2.0842185   -160.96502   -8.2047183    4.2421809    4.2421809    4.2421809   -8.2047183   -13623.977   -34913.352    48512.715    30208.453   -15540.442    14642.245    76.342707 
   93200    2332.0471    -163.1023    2.1100852   -160.99221    16846.241    4.2408445    4.2408445    4.2408445    16846.241      973.146   -30808.546    80374.123    16844.107    5238.3885    14947.709    76.270579 
   93300    2609.5833   -163.37111    2.3612058   -161.00991   -14002.218    4.2485341    4.2485341    4.2485341   -14002.218   -61475.765   -27622.545    47091.656    10505.239   -3439.1656    8770.6477    76.686217 
   93400    3080.9605   -163.80616    2.7877178   -161.01844   -1666.3821    4.2453305    4.2453305    4.2453305   -1666.3821   -41303.253   -25411.067    61715.174    10684.443    11507.366    2760.7229    76.512875 
   93500     3181.608   -163.89591    2.8787858   -161.01713   -12748.038    4.2488702    4.2488702    4.2488702   -12748.038   -19099.866   -33208.279    14064.032    7673.6737    14992.948    13790.665    76.704421 
   93600    3133.3809   -163.83511    2.8351489   -160.99996   -4133.8682    4.2496119    4.2496119    4.2496119   -4133.8682    8441.3998   -18996.608    -1846.396    5510.7117    29869.266    18514.412    76.744595 
   93700    3145.0459   -163.83624    2.8457036   -160.99054    -33461.27     4.260703     4.260703     4.260703    -33461.27   -47203.322   -41839.652   -11340.836     240.2514    18543.601     2157.812    77.347057 
   93800    2881.0743    -163.5922    2.6068565   -160.98534   -19625.928    4.2531898    4.2531898    4.2531898   -19625.928    15404.474   -60341.272   -13940.987    9.1312861     24290.42   -14978.803      76.9386 
   93900    2672.4325   -163.40196    2.4180731   -160.98388    5917.6097    4.2370163    4.2370163    4.2370163    5917.6097    60160.872   -37335.902   -5072.1405    367.34931    14597.292   -50450.682     76.06422 
   94000    2400.2826   -163.17869    2.1718261   -161.00687    4069.7826    4.2403562    4.2403562    4.2403562    4069.7826    68342.418   -15433.232   -40699.838    371.10943    30214.988   -50539.335    76.244236 
   94100    1804.3202   -162.65386    1.6325868   -161.02127     734.3478    4.2418082    4.2418082    4.2418082     734.3478    60072.471   -24845.723   -33023.704    11180.639     32077.87   -59005.376    76.322589 
   94200    1227.0117   -162.14585     1.110226   -161.03563   -3241.2748    4.2514991    4.2514991    4.2514991   -3241.2748    66697.425    4329.1146   -80750.364    13037.966    37870.692   -49762.674    76.846884 
   94300    959.41714    -161.8914   0.86810079   -161.02329   -10530.441    4.2587311    4.2587311    4.2587311   -10530.441    20128.569    50241.556   -101961.45    24278.491    45578.126   -48726.215    77.239714 
   94400    1106.4503   -162.01212    1.0011395   -161.01098    8418.1772    4.2463774    4.2463774    4.2463774    8418.1772    58744.592    20423.532   -53913.592    20879.907    33892.958   -50463.898    76.569492 
   94500    1239.9594   -162.13876    1.1219413   -161.01682   -5583.4137    4.2370276    4.2370276    4.2370276   -5583.4137    40945.908     13534.66   -71230.808    20990.188    37770.333   -63364.516    76.064829 
   94600    1074.6456   -162.00673   0.97236188   -161.03437    12078.905    4.2404904    4.2404904    4.2404904    12078.905    1371.8538    53817.814   -18952.952    3746.3409    34109.376   -52781.797    76.251475 
   94700    1033.4059   -161.97032   0.93504737   -161.03528    7216.0389    4.2562509    4.2562509    4.2562509    7216.0389    -34449.27    51515.369    4582.0178    2928.8727    27414.287   -48651.704    77.104843 
   94800    1464.6899   -162.33123    1.3252822   -161.00595   -24457.808    4.2681856    4.2681856    4.2681856   -24457.808   -58012.087    21077.664   -36438.999    2729.3314   -772.48596   -28714.586    77.755278 
   94900    2246.5865   -163.00714    2.0327587   -160.97438    -12943.66    4.2596399    4.2596399    4.2596399    -12943.66   -20648.666    16948.407    -35130.72    9446.7417   -5565.1452    6751.7962    77.289173 
   95000    2710.8722   -163.41015    2.4528542   -160.95729    11919.639    4.2521513    4.2521513    4.2521513    11919.639   -5254.3925    33852.118    7161.1906    19533.356   -15476.458    40549.742    76.882257 
   95100    3093.2011   -163.75319    2.7987933   -160.95439    1189.5044    4.2503198    4.2503198    4.2503198    1189.5044   -25594.166    34331.666    -5168.986     17829.57   -14853.128    48514.995    76.782953 
   95200    2751.9517   -163.45994    2.4900238   -160.96992   -18660.259    4.2575195    4.2575195    4.2575195   -18660.259    -9794.514    -26948.41   -19237.854    5087.6614   -3883.0741    30372.239    77.173812 
   95300    2081.5522   -162.86699    1.8834322   -160.98356    2543.1682      4.25455      4.25455      4.25455    2543.1682    48883.806   -39825.366   -1428.9357    6921.5149   -1692.9875   -13673.322    77.012441 
   95400    1382.4946   -162.24047    1.2509101   -160.98956    37946.495    4.2480297    4.2480297    4.2480297    37946.495    175018.91   -48668.868   -12510.555   -11107.054   -12601.624   -75739.797     76.65891 
   95500    1203.9254   -162.07694     1.089337    -160.9876   -540.33918    4.2649182    4.2649182    4.2649182   -540.33918     114763.4     -70511.6   -45872.817   -10235.418   -1658.3045   -133661.21    77.576844 
   95600    1230.3594    -162.0704    1.1132551   -160.95714   -3887.7049    4.2693705    4.2693705    4.2693705   -3887.7049    59766.097   -34045.432    -37383.78   -4011.4455    6996.7527   -130532.43    77.820053 
   95700    1392.4241   -162.20426    1.2598946   -160.94436     5717.333    4.2563762    4.2563762    4.2563762     5717.333    23917.647     20104.58   -26870.228   -14638.186    5409.0526   -104826.32    77.111651 
   95800    2053.1629   -162.81408     1.857745   -160.95633    2658.7896    4.2429311    4.2429311    4.2429311    2658.7896    2797.1409     2748.648    2430.5799   -508.51383    5957.4644   -58209.629    76.383213 
   95900    2742.4183    -163.4627    2.4813977   -160.98131   -3381.4996    4.2406948    4.2406948    4.2406948   -3381.4996   -10521.091    11824.338   -11447.746    9041.7001    19152.707   -10539.627    76.262504 
   96000    3167.3838   -163.86396    2.8659154   -160.99804   -3878.2803    4.2496203    4.2496203    4.2496203   -3878.2803   -31851.768    3006.9628    17209.964   -24687.735   -1625.0018    26115.699    76.745052 
   96100    3318.5239   -163.99009    3.0026702   -160.98742   -8834.8058     4.260453     4.260453     4.260453   -8834.8058   -40031.805    8281.8176    5245.5705    15414.202    27637.812    51461.661    77.333443 
   96200    2935.2041   -163.62889    2.6558344   -160.97306   -5907.8081    4.2545132    4.2545132    4.2545132   -5907.8081    16673.381   -5032.2555    -29364.55   -9871.5261   -9851.8572    46662.511    77.010444 
   96300    2247.9953   -163.00477    2.0340334   -160.97074   -7968.4834    4.2535376    4.2535376    4.2535376   -7968.4834    48523.466   -47030.225   -25398.691    17838.208    11224.375   -3428.8512    76.957477 
   96400    1334.4461   -162.18016    1.2074349   -160.97273    3974.5551    4.2580057    4.2580057    4.2580057    3974.5551    54957.329    -56058.56    13024.896    4051.6453   -2885.1722   -79186.838    77.200254 
   96500    936.07543   -161.81573   0.84698072   -160.96875   -32153.688    4.2622046    4.2622046    4.2622046   -32153.688     56451.01   -125782.69   -27129.389     14228.85     4291.844   -134667.38    77.428865 
   96600    739.97394   -161.64653   0.66954397   -160.97699    8021.9981    4.2462365    4.2462365    4.2462365    8021.9981    86318.777   -49296.013   -12956.769    12156.826   -6087.7473   -141881.83    76.561869 
   96700    1100.3221   -161.97745   0.99559456   -160.98186    18251.671    4.2360548    4.2360548    4.2360548    18251.671    84258.815   -24799.988   -4703.8139    22992.571    8845.0769   -145993.52    76.012447 
   96800    1356.6902   -162.23002    1.2275618   -161.00246   -17476.093    4.2408631    4.2408631    4.2408631   -17476.093    70906.841   -60744.769   -62590.353    7144.4103   -5408.1891   -132341.44    76.271584 
   96900    1957.8194   -162.78167    1.7714761   -161.01019     4184.828    4.2477995    4.2477995    4.2477995     4184.828    9174.0792    40085.574   -36705.169    19705.979    1690.6323   -71172.344    76.646449 
   97000    2495.2582   -163.25038    2.2577621   -160.99262   -29598.404    4.2599332    4.2599332    4.2599332   -29598.404   -24511.432    -6039.849   -58243.931    1065.1888    2727.3685    7790.5072     77.30514 
   97100    2926.2119   -163.61504     2.647698   -160.96734   -9418.5069    4.2562839    4.2562839    4.2562839   -9418.5069     8807.901    16008.863   -53072.285   -4122.8696    3246.9644    59276.663    77.106638 
   97200    3150.3082   -163.80447    2.8504651     -160.954    -12308.56    4.2504109    4.2504109    4.2504109    -12308.56   -10026.795   -23492.599   -3406.2863   -6545.4581    10785.267    68964.946    76.787895 
   97300    2681.2156   -163.38576    2.4260202   -160.95974   -23312.156    4.2545133    4.2545133    4.2545133   -23312.156    2699.0764   -52151.003   -20484.542   -6921.1473     -6073.08    29577.775    77.010451 
   97400    1971.8672   -162.75716    1.7841869   -160.97297    3262.4558    4.2479215    4.2479215    4.2479215    3262.4558    38442.142   -71227.005     42572.23    2853.2192   -2515.3643   -43536.674    76.653052 
   97500    1373.4133   -162.23356    1.2426932   -160.99086   -12824.704    4.2478383    4.2478383    4.2478383   -12824.704    42602.414   -41502.196    -39574.33   -4285.9412   -2566.2241   -101861.42    76.648546 
   97600    1202.2071    -162.0921    1.0877822   -161.00432   -3067.4874    4.2440904    4.2440904    4.2440904   -3067.4874    31747.999   -48721.326     7770.865   -12089.225   -22203.785   -138296.58    76.445842 
   97700    1032.9932   -161.95157   0.93467391   -161.01689    11776.887    4.2388194    4.2388194    4.2388194    11776.887    70288.476    16042.556   -51000.373    3991.4084   -8021.5154   -155067.86     76.16137 
   97800     767.1559   -161.72266   0.69413878   -161.02852   -17092.768    4.2467722    4.2467722    4.2467722   -17092.768    111969.54   -89983.456   -73264.386   -10895.008   -20198.806   -163660.93    76.590851 
   97900    851.42152   -161.78856   0.77038409   -161.01818    -8382.663    4.2502959    4.2502959    4.2502959    -8382.663    57428.678    10441.123    -93017.79   -4451.9257   -21115.952   -139849.25    76.781661 
   98000    1198.8281   -162.09054    1.0847249   -161.00582    2629.5029    4.2543222    4.2543222    4.2543222    2629.5029    14859.421    630.01338   -7600.9256    3324.6241   -18554.662   -108407.12    77.000074 
   98100     2214.014   -162.98537    2.0032864   -160.98209    -21372.63    4.2525322    4.2525322    4.2525322    -21372.63    12337.948   -37647.131   -38808.708   -7900.8481   -13130.871   -58875.539    76.902921 
   98200    3115.1946   -163.77357    2.8186935   -160.95488     5276.547     4.256583     4.256583     4.256583     5276.547     15737.44     247.5345   -155.33333   -11578.169   -19871.349    18257.423    77.122892 
   98300    3552.8713   -164.14557    3.2147127   -160.93086   -38304.785    4.2742762    4.2742762    4.2742762   -38304.785   -57062.452   -21424.347   -36427.556   -17093.072   -9786.2026    42957.612     78.08862 
   98400    2684.6141   -163.34921    2.4290952   -160.92012   -28548.285    4.2651736    4.2651736    4.2651736   -28548.285   -31766.604   -32933.282   -20944.968   -8707.0952   -9885.7666   -2984.5407    77.590784 
   98500    1787.0994   -162.54417     1.617005   -160.92717   -5166.8768    4.2446973    4.2446973    4.2446973   -5166.8768    37452.399   -62849.735    9896.7054   -3061.1827   -11893.405   -70371.118    76.478644 
   98600    802.19271   -161.68345   0.72584082   -160.95761    27789.767     4.242251     4.242251     4.242251    27789.767    85160.346    17732.446    -19523.49    -4884.099    789.03019   -114062.64    76.346492 
   98700    558.35806   -161.49358    0.5052141   -160.98837    13962.629    4.2621743    4.2621743    4.2621743    13962.629     128113.6   -104191.45    17965.738   -11579.348   -2230.8742   -140346.93    77.427211 
   98800    952.50328   -161.82128   0.86184499   -160.95943   -12407.446    4.2778067    4.2778067    4.2778067   -12407.446    154646.64   -97527.175   -94341.807   -21346.427   -933.47674   -112546.69    78.282278 
   98900     2215.437   -162.91562    2.0045739   -160.91104    12996.343    4.2655656    4.2655656    4.2655656    12996.343    102648.16   -35458.628   -28200.498   -5931.9669    5795.8404   -16806.783    77.612178 
   99000    3133.8703   -163.72015    2.8355917   -160.88455   -429.23721     4.264475     4.264475     4.264475   -429.23721   -15294.789    11485.085    2521.9922   -21750.412    -8727.461    44738.483    77.552666 
   99100    3136.6045   -163.73899    2.8380657   -160.90092    15694.096    4.2537616    4.2537616    4.2537616    15694.096    1025.4831    46518.792   -461.98685   -11786.491   -513.83976    39941.518    76.969638 
   99200    2017.8214   -162.75689    1.8257672   -160.93113    35895.163    4.2422517    4.2422517    4.2422517    35895.163    128077.99   -23396.698    3004.1998    4257.2115   -4292.0162   -29410.153     76.34653 
   99300    966.90585   -161.84091   0.87487673   -160.96604   -33578.663    4.2654683    4.2654683    4.2654683   -33578.663    113888.72   -112630.35   -101994.36   -4232.5835    3880.6431    -138116.8     77.60687 
   99400    762.47945    -161.6337   0.68990743   -160.94379     23494.91    4.2664426    4.2664426    4.2664426     23494.91    96823.964   -55964.025     29624.79   -13901.434   -9704.0123   -154658.24     77.66006 
   99500    1277.2811   -162.08915    1.1557108   -160.93344   -1237.4422    4.2669769    4.2669769    4.2669769   -1237.4422    27834.453   -7239.3947   -24307.385   -189.19958    10045.332   -110785.46    77.689243 
   99600    2444.1469   -163.12821    2.2115155    -160.9167   -25881.768    4.2548252    4.2548252    4.2548252   -25881.768    20478.543   -61798.017   -36325.829    -1790.944   -2487.2561   -28902.929    77.027388 
   99700    3373.1177   -163.95569    3.0520678   -160.90362    20672.726    4.2471581    4.2471581    4.2471581    20672.726    54794.375    6736.9617    486.83967    2648.3675       9921.6    48578.207     76.61173 
   99800    3123.8126   -163.74671    2.8264913   -160.92022   -23319.364    4.2694105    4.2694105    4.2694105   -23319.364   -740.17828   -8545.8205   -60672.093   -2109.8056    11326.717    12034.464     77.82224 
   99900    1941.3476   -162.68803    1.7565721   -160.93146     17639.96     4.263313     4.263313     4.263313     17639.96    78260.371    -22715.48   -2625.0107   -433.11135    1986.1391   -69943.567    77.489283 
  100000    779.26453   -161.64598   0.70509492   -160.94088    10316.616    4.2614737    4.2614737    4.2614737    10316.616    187383.32   -85297.783   -71135.685    12066.089   -2845.4302   -138190.85    77.389038 
Loop time of 34.1048 on 1 procs for 100000 steps with 8 atoms

Pair  time (%) = 11.6522 (34.1657)
Kspce time (%) = 8.0665 (23.6521)
Neigh time (%) = 0.275742 (0.808515)
Comm  time (%) = 1.70801 (5.00811)
Outpt time (%) = 0.0426385 (0.125022)
Other time (%) = 12.3597 (36.2405)

Nlocal:    8 ave 8 max 8 min
Histogram: 1 0 0 0 0 0 0 0 0 0
Nghost:    2189 ave 2189 max 2189 min
Histogram: 1 0 0 0 0 0 0 0 0 0
Neighs:    2379 ave 2379 max 2379 min
Histogram: 1 0 0 0 0 0 0 0 0 0

Total # of neighbors = 2379
Ave neighs/atom = 297.375
Neighbor list builds = 2286
Dangerous builds = 0
unfix 20
unfix 21
print "seeds:3561305"
seeds:3561305
