LAMMPS (10 Feb 2015)
# ---- initialize simulations
clear
units metal
dimension 3
boundary p p p
atom_style charge
atom_modify map array
# ---- create atoms
read_data /Users/eugeneragasa/pyflamestk_git/pypospack/tests/tests_integration/workflow/WorkflowLammpsThermalExpansion/param_9544/MgO_NaCl_unit.npt.T1500/lammps.structure
  triclinic box = (0 0 0) to (4.2565 4.2565 4.2565) with tilt (0 0 0)
  1 by 1 by 1 MPI processor grid
  reading atoms ...
  8 atoms
# ---- define interatomic potential
include potential.mod
mass 1 24.305
mass 2 15.999

group Mg type 1
4 atoms in group Mg
group O type 2
4 atoms in group O

set group Mg charge 1.64252902328
  4 settings made for charge
set group O charge -1.64252902328
  4 settings made for charge

variable R_cut equal 10.0

pair_style buck/coul/long ${R_cut}
pair_style buck/coul/long 10
pair_coeff 1 1 0.0 0.5 0.0 ${R_cut}
pair_coeff 1 1 0.0 0.5 0.0 10
pair_coeff 1 2 1425.65456865 0.277130619093 0.0 ${R_cut}
pair_coeff 1 2 1425.65456865 0.277130619093 0.0 10
pair_coeff 2 2 8710.58674493 0.211543782712 -4.62088168449 ${R_cut}
pair_coeff 2 2 8710.58674493 0.211543782712 -4.62088168449 10

kspace_style pppm 1.0e-5

neighbor 1.0 bin
neigh_modify every 1 delay 0 check yes
# ---- define settings
compute eng all pe/atom
compute eatoms all reduce sum c_eng
# ---- run minimization
reset_timestep 0
fix 1 all box/relax iso 0.0 vmax 0.001
thermo 10
thermo_style custom step pe lx ly lz xy xz yz press pxx pyy pzz pxy pxz pyz c_eatoms
min_style cg
minimize 1e-25 1e-25 5000 10000
PPPM initialization ...
  G vector (1/distance) = 0.352708
  grid = 8 8 8
  stencil order = 5
  estimated absolute RMS force accuracy = 3.89813e-05
  estimated relative force accuracy = 2.7071e-06
  using double precision FFTs
  3d grid and FFT values/proc = 3375 512
Neighbor list info ...
  1 neighbor list requests
  update every 1 steps, delay 0 steps, check yes
  master list distance cutoff = 11
Memory usage per processor = 4.06549 Mbytes
Step PotEng Lx Ly Lz Xy Xz Yz Press Pxx Pyy Pzz Pxy Pxz Pyz eatoms 
       0   -111.38871       4.2565       4.2565       4.2565            0            0            0   -14022.103   -14022.103   -14022.103   -14022.103 -1.0617953e-11 -7.0203049e-11 5.2505523e-12   -111.38871 
       6    -111.3915    4.2448057    4.2448057    4.2448057            0            0            0    11.870105    11.870105    11.870105    11.870105 -3.2023954e-10 4.899455e-11 2.2757866e-10    -111.3915 
Loop time of 0.0152771 on 1 procs for 6 steps with 8 atoms

Minimization stats:
  Stopping criterion = linesearch alpha is zero
  Energy initial, next-to-last, final = 
        -111.388714234     -111.391500014     -111.391500014
  Force two-norm initial, final = 2.0248 0.00171153
  Force max component initial, final = 2.0248 0.00170464
  Final line search alpha, max atom move = 0.00229153 3.90625e-06
  Iterations, force evaluations = 6 44

Pair  time (%) = 0.0042491 (27.8134)
Kspce time (%) = 0.00233603 (15.291)
Neigh time (%) = 0 (0)
Comm  time (%) = 0.000468969 (3.06974)
Outpt time (%) = 0 (0)
Other time (%) = 0.00822306 (53.8259)

Nlocal:    8 ave 8 max 8 min
Histogram: 1 0 0 0 0 0 0 0 0 0
Nghost:    2189 ave 2189 max 2189 min
Histogram: 1 0 0 0 0 0 0 0 0 0
Neighs:    2344 ave 2344 max 2344 min
Histogram: 1 0 0 0 0 0 0 0 0 0

Total # of neighbors = 2344
Ave neighs/atom = 293
Neighbor list builds = 0
Dangerous builds = 0
unfix 1
# ---- define output variables ----
variable natoms equal "count(all)"
variable tot_energy equal "c_eatoms"
variable length_x equal "lx"
variable length_y equal "ly"
variable length_z equal "lz"
variable tilt_xy equal "xy"
variable tilt_xz equal "xz"
variable tilt_yz equal "yz"
variable tot_press equal "press"
variable press_xx equal "pxx"
variable press_yy equal "pyy"
variable press_zz equal "pzz"
variable press_xy equal "pxy"
variable press_xz equal "pxz"
variable press_yz equal "pyz"

# ---- output ----
print "pypospack:output_section:begin"
pypospack:output_section:begin
print "tot_energy = ${tot_energy}"
tot_energy = -111.391500014071
print "num_atoms = ${natoms}"
num_atoms = 8
print "xx = ${length_x}"
xx = 4.24480566540602
print "yy = ${length_y}"
yy = 4.24480566540602
print "zz = ${length_z}"
zz = 4.24480566540602
print "xy = ${tilt_xy}"
xy = 0
print "xz = ${tilt_xz}"
xz = 0
print "yz = ${tilt_yz}"
yz = 0
print "tot_press = ${tot_press}"
tot_press = 11.8701047091937
print "pxx = ${press_xx}"
pxx = 11.8701047092997
print "pyy = ${press_yy}"
pyy = 11.8701047087814
print "pzz = ${press_zz}"
pzz = 11.8701047094999
print "pxy = ${press_xy}"
pxy = -3.20239539923879e-10
print "pxz = ${press_xz}"
pxz = 4.8994550277695e-11
print "pyz = ${press_yz}"
pyz = 2.27578662531736e-10
print "pypospack:output_section:done"
pypospack:output_section:done
print "pypospack:lammps_sim:done"
pypospack:lammps_sim:done
#------------------------------------------------------------------------------
# RUN THERMOSTAT
# running using an NPT Nose-Hoover style thermostat
#------------------------------------------------------------------------------
variable tempdamp equal 0.1
variable pressdamp equal 1.0
# set initial velocities
velocity all create 1500 1551308 mom yes dist gaussian loop all
# fix for Nose-Hoover style thermostat
fix 20 all npt temp 1500 1500 0.1 aniso 0.0 0.0 1.0 drag 1.0 couple xyz
variable boxx equal lx
variable boxy equal ly
variable boxz equal lz
variable boxp equal press
variable boxt equal temp
# calculate averages every 10000 steps
reset_timestep 0
fix 21 all ave/time 10 10 100 v_boxx v_boxy v_boxz v_boxp v_boxt file lattice.out
thermo_style custom step temp pe ke etotal press lx ly lz press pxx pyy pzz pxy pxz pyz vol
thermo_modify flush yes
thermo 100
run 100000
PPPM initialization ...
  G vector (1/distance) = 0.352825
  grid = 8 8 8
  stencil order = 5
  estimated absolute RMS force accuracy = 3.87738e-05
  estimated relative force accuracy = 2.69269e-06
  using double precision FFTs
  3d grid and FFT values/proc = 3375 512
Memory usage per processor = 3.06549 Mbytes
Step Temp PotEng KinEng TotEng Press Lx Ly Lz Press Pxx Pyy Pzz Pxy Pxz Pyz Volume 
       0         1500    -111.3915    1.3572315   -110.03427    18965.934    4.2448057    4.2448057    4.2448057    18965.934    19620.163    12043.241    25234.398   -888.97448   -176.99931   -9159.0245    76.484501 
     100    506.92112   -110.33044   0.45867288   -109.87176    32759.017     4.277941     4.277941     4.277941    32759.017     50397.02   -15542.779    63422.809    4115.4794    5092.3422    5836.1348    78.289652 
     200     1023.496    -110.4213   0.92608067   -109.49522   -57866.085     4.325206     4.325206     4.325206   -57866.085    -48229.75   -88767.443   -36601.062    12361.486    4525.5499    13429.095    80.913391 
     300    1470.1545   -110.49639    1.3302267   -109.16616    9931.2777    4.3091821    4.3091821    4.3091821    9931.2777    5399.4822    5573.8749    18820.476   -5807.2547    9786.8169   -9739.8325    80.017417 
     400    1519.3081   -110.28177    1.3747019   -108.90707     27909.71    4.2794289    4.2794289    4.2794289     27909.71    14061.536   -21163.807    90831.402    17836.941   -7528.7602    7651.0833    78.371369 
     500    1287.6295   -109.92597    1.1650742    -108.7609   -18253.914     4.306114     4.306114     4.306114   -18253.914   -21764.875   -18192.991   -14803.878    23193.605    20197.001    9798.1372    79.846624 
     600    1565.6802   -110.06988    1.4166603   -108.65322   -5565.0744    4.3372812    4.3372812    4.3372812   -5565.0744     -17449.5   -25669.601    26423.878    2472.9813     9374.248   -867.94561    81.592967 
     700    2075.5352   -110.48641    1.8779879   -108.60843   -44271.005     4.329733     4.329733     4.329733   -44271.005   -66324.816   -74013.516    7525.3166    14068.314   -16849.756    4149.9973    81.167718 
     800    855.19553   -109.38682   0.77379888   -108.61302    52703.411    4.2925264    4.2925264    4.2925264    52703.411    5400.1981   -1690.7766    154400.81    13154.357    19662.502    1946.5812    79.093159 
     900    1878.0607   -110.35927    1.6993088   -108.65996   -12282.226    4.3011315    4.3011315    4.3011315   -12282.226   -27850.412   -9557.0063    560.74106   -581.41442    8749.6877    8875.8296     79.56978 
    1000     1449.512   -109.97889    1.3115489   -108.66734   -27461.559    4.3345911    4.3345911    4.3345911   -27461.559   -19940.061   -62575.322    130.70706     10230.94   -13568.284   -30598.971    81.441246 
    1100    1409.0474   -109.91238    1.2749357   -108.63744   -19170.293    4.3406087    4.3406087    4.3406087   -19170.293   -73274.901   -41509.979        57274    9520.5911   -1234.2092     12978.85    81.780906 
    1200     1245.905   -109.75052    1.1273211    -108.6232    5368.4263    4.3203242    4.3203242    4.3203242    5368.4263    27675.503    -39481.23    27911.005    3864.6981    5330.3536   -5847.3625    80.639723 
    1300     1249.092   -109.74305    1.1302047   -108.61285    12661.543     4.303343     4.303343     4.303343    12661.543    5979.6192   -61513.061    93518.071   -342.59815    1599.7826   -21590.715    79.692583 
    1400     1513.549   -110.01322     1.369491   -108.64373   -8032.3426    4.3238178    4.3238178    4.3238178   -8032.3426   -21922.041   -45826.916    43651.929    16716.328    25679.712   -8230.0932    80.835505 
    1500    1313.3904   -109.81803    1.1883832   -108.62965   -27093.799    4.3460342    4.3460342    4.3460342   -27093.799   -32599.191   -9884.2076   -38797.998    1444.8667    50914.273     -5785.05    82.087954 
    1600    1562.4446   -109.99356    1.4137327   -108.57983   -20742.252    4.3406375    4.3406375    4.3406375   -20742.252   -26650.307   -54126.933    18550.482   -13080.145    26144.455   -11869.136    81.782535 
    1700    2038.7714   -110.41384    1.8447232   -108.56912   -22713.117    4.3440663    4.3440663    4.3440663   -22713.117    5339.0708   -40671.643   -32806.778   -10075.977    17521.061    830.33863    81.976493 
    1800    852.60759   -109.33627   0.77145727   -108.56482   -13971.561    4.3458557    4.3458557    4.3458557   -13971.561   -81515.476    26426.647    13174.147   -3861.0626    47449.304    11702.993    82.077839 
    1900    1814.5746   -110.17301    1.6418652   -108.53115      1359.32    4.3179433    4.3179433    4.3179433      1359.32   -60659.292    32440.297    32296.954   -6791.6099   -15578.155    657.21893    80.506474 
    2000    1533.5826   -109.96918    1.3876178   -108.58157   -28305.305    4.3266319    4.3266319    4.3266319   -28305.305   -90080.028    11110.152   -5946.0389   -5239.4316    33725.082    2938.5797     80.99344 
    2100    1141.5036   -109.63057    1.0328564   -108.59772    -19371.72    4.3240838    4.3240838    4.3240838    -19371.72   -82091.923    31604.044   -7627.2821    11693.787    71105.587   -14313.185    80.850425 
    2200    1462.0465   -109.91633    1.3228904   -108.59344     34513.23    4.3128502    4.3128502    4.3128502     34513.23     19290.75    57104.353    27144.586    7788.4656   -14230.096   -27989.745    80.221935 
    2300    1440.9741   -109.93238    1.3038237   -108.62856   -41437.401    4.3481257    4.3481257    4.3481257   -41437.401   -90099.729    17761.509   -51973.983    4916.5791    32143.712   -6927.0095    82.206523 
    2400    1715.7367   -110.13235    1.5524346   -108.57992   -46565.229    4.3486777    4.3486777    4.3486777   -46565.229   -54315.096   -1846.3256   -83534.264    5100.6676    22520.982    8224.0141    82.237831 
    2500      1517.95   -109.92678     1.373473    -108.5533    4935.0406    4.3079304    4.3079304    4.3079304    4935.0406   -3318.0431   -14420.011    32543.176   -18886.869   -5110.5532   -18675.034    79.947711 
    2600    1623.3775   -110.05119    1.4688661   -108.58232   -1823.0543    4.2936921    4.2936921    4.2936921   -1823.0543   -25531.717    32025.605   -11963.051    -14828.05    33798.127    18513.393    79.157616 
    2700    1822.3805   -110.28121    1.6489282   -108.63229    5996.1808    4.3134974    4.3134974    4.3134974    5996.1808    18118.152    26839.156   -26968.765    13317.615    32474.046    6932.8839    80.258053 
    2800     1184.302    -109.7102    1.0715813   -108.63862    7907.5402    4.3370088    4.3370088    4.3370088    7907.5402    -10494.97    20095.815    14121.775   -28794.249   -3078.3151   -4943.7674    81.577596 
    2900      1463.67   -109.94122    1.3243594   -108.61686   -18024.514    4.3316982    4.3316982    4.3316982   -18024.514    4809.9465    6660.6966   -65544.184   -13343.684     36369.01    2404.9704    81.278293 
    3000    2123.7045   -110.51594    1.9215724   -108.59436   -1750.8466    4.3218315    4.3218315    4.3218315   -1750.8466   -20838.147    49699.608   -34114.001    4992.8823    4479.4601    19711.537    80.724155 
    3100    1117.9447   -109.61822    1.0115399   -108.60668      25950.3     4.312159     4.312159     4.312159      25950.3   -48877.412    101877.96    24850.349   -20141.053    8128.0665     6262.764    80.183366 
    3200    1650.3125   -110.11868    1.4932374   -108.62544   -11293.046    4.3214059    4.3214059    4.3214059   -11293.046   -20211.151    21650.134   -35318.122   -24280.873    9630.1155    10939.536    80.700305 
    3300    1598.7748   -110.05467     1.446605   -108.60807   -19145.404    4.3446693    4.3446693    4.3446693   -19145.404   -22299.604   -38669.128     3532.519    8169.7632   -19320.555    11658.566    82.010636 
    3400    880.37809   -109.39647    0.7965846   -108.59989   -20482.358     4.324804     4.324804     4.324804   -20482.358    4893.4985   -34.235823   -66306.336   -1177.3691    5363.1033   -10649.132    80.890831 
    3500    1271.9008   -109.73503    1.1508426   -108.58419    28540.915    4.2871955    4.2871955    4.2871955    28540.915   -21612.903    70054.363    37181.285   -3834.2967    18859.607     6735.001    78.798849 
    3600    1828.1755   -110.27927    1.6541716    -108.6251    15891.095    4.3003347    4.3003347    4.3003347    15891.095    29987.462    10126.252    7559.5705    18491.988   -23041.925    8308.3697    79.525565 
    3700     813.1141   -109.36973   0.73572273   -108.63401   -28139.606    4.3397294    4.3397294    4.3397294   -28139.606   -38383.917   -2712.9846   -43321.916    1169.6286    13719.719    8472.0001    81.731216 
    3800    1360.0552    -109.8267    1.2306066    -108.5961   -4640.8478    4.3289072    4.3289072    4.3289072   -4640.8478   -47123.516    10805.827    22395.146   -548.93436    6119.8078   -8739.8074    81.121286 
    3900    1513.7399   -109.95231    1.3696636   -108.58265    37104.786    4.2978399    4.2978399    4.2978399    37104.786    937.50572   -31348.877    141725.73     2149.359   -20306.539    32237.253     79.38724 
    4000    1061.7095   -109.59717    0.9606571   -108.63652    31805.139    4.2983557    4.2983557    4.2983557    31805.139    33155.492    9771.5796    52488.346   -13615.495    11349.405   -59.362858    79.415827 
    4100    1839.6541   -110.32299    1.6645577   -108.65843   -11306.888    4.3373389    4.3373389    4.3373389   -11306.888   -32895.887   -1181.6357    156.85999   -6708.5963    7632.6105   -10074.064    81.596228 
    4200    1575.8576   -110.04723    1.4258691   -108.62136   -13369.003    4.3427919    4.3427919    4.3427919   -13369.003   -19578.618   -21209.241    680.84974   -1724.2428    2192.2264    10815.898    81.904369 
    4300    1176.3732    -109.6574    1.0644072   -108.59299     20899.66    4.2910201    4.2910201    4.2910201     20899.66   -6603.0784    64836.498    4465.5599   -10123.301    60121.625   -10215.323    79.009924 
    4400    2251.5417   -110.61905    2.0372422   -108.58181      33288.9    4.2718983    4.2718983    4.2718983      33288.9    23527.527    23425.855    52913.317   -6707.8859    7543.0769    8315.0203    77.958363 
    4500    1559.9332   -110.06684    1.4114604   -108.65538    22264.819    4.3106238    4.3106238    4.3106238    22264.819    18989.312   -14934.446    62739.592    7245.1178    -4389.682    20246.983    80.097761 
    4600    901.78643   -109.45714   0.81595531   -108.64118   -39723.325    4.3411898    4.3411898    4.3411898   -39723.325   -52144.648   -27550.064   -39475.264    5238.0917    47518.251    3218.3498    81.813757 
    4700    1774.5441   -110.21533    1.6056448   -108.60968    5688.7985    4.3119255    4.3119255    4.3119255    5688.7985   -23157.236    5300.9374    34922.694   -4055.7956    3968.4773    2735.8153    80.170345 
    4800    1810.1332   -110.25071    1.6378465   -108.61287    5636.2766    4.2924509    4.2924509    4.2924509    5636.2766   -14256.809    16717.152    14448.486    9079.1241   -10164.293    11048.047    79.088987 
    4900    1036.4606   -109.58241   0.93781137    -108.6446    16490.756    4.2874745    4.2874745    4.2874745    16490.756   -35820.314    45319.595    39972.986    8785.7074    45071.175    14351.456     78.81423 
    5000    1730.5986   -110.24527     1.565882   -108.67939   -8801.7586    4.3156835    4.3156835    4.3156835   -8801.7586   -52387.812      19069.9    6912.6361    -2722.657   -2158.9836   -298.73106    80.380141 
    5100    1779.9196   -110.24639    1.6105087   -108.63588   -10886.226    4.3409126    4.3409126    4.3409126   -10886.226   -67825.318   -9516.0798    44682.719   -645.67519   -6961.6349    2199.3953    81.798083 
    5200     1256.854   -109.74402    1.1372279   -108.60679    -26480.88    4.3319497    4.3319497    4.3319497    -26480.88   -77265.168    53529.407    -55706.88   -5692.8466    41525.643    4328.3322    81.292451 
    5300    1837.3951   -110.24682    1.6625137   -108.58431    15445.788    4.3090068    4.3090068    4.3090068    15445.788   -9671.0671    23488.154    32520.276   -20015.019   -3608.3477   -9238.5983    80.007653 
    5400    1702.0997   -110.15138    1.5400956   -108.61128   -3497.2905    4.3138103    4.3138103    4.3138103   -3497.2905   -10567.167   -12647.449    12722.745    11507.734    10477.414   -6211.8318    80.275521 
    5500    879.27512   -109.43143    0.7955866   -108.63584   -15812.482    4.3124869    4.3124869    4.3124869   -15812.482   -58460.142   -39723.627    50746.323    7336.6611    21507.332   -10011.831    80.201662 
    5600    1352.6187   -109.85673    1.2238778   -108.63285    28913.376    4.2951477    4.2951477    4.2951477    28913.376    38149.801    -25540.13    74130.458   -13508.058   -1702.9911   -4786.9336    79.238149 
    5700    1880.1416   -110.34362    1.7011916   -108.64243    20890.918     4.305243     4.305243     4.305243    20890.918    14228.545    34905.345    13538.864    6969.4078   -20187.442    365.38644    79.798183 
    5800     1210.744   -109.75098    1.0955066   -108.65548   -22918.504    4.3277938    4.3277938    4.3277938   -22918.504   -51981.102   -27322.057    10547.648   -4111.3538    24599.191    10234.075    81.058707 
    5900    1670.4998   -110.13946    1.5115034   -108.62795   -20188.771    4.3173593    4.3173593    4.3173593   -20188.771    17498.207   -47419.844   -30644.677   -35312.685    4785.0402    14201.167    80.473812 
    6000    1585.6663   -110.04481    1.4347442   -108.61007    47180.868    4.2821073    4.2821073    4.2821073    47180.868     51864.66     40893.18    48784.766   -4478.2665   -11061.086   -13520.949    78.518617 
    6100    1579.7931   -110.08415      1.42943   -108.65472    22598.184    4.2932228    4.2932228    4.2932228    22598.184    27903.762    14868.873    25021.917    1274.4275    24441.026    6617.2993    79.131659 
    6200    1246.2343   -109.77421     1.127619   -108.64659   -19685.787    4.3365741    4.3365741    4.3365741   -19685.787   -4418.1053   -32001.402   -22637.852   -10171.023    35023.699   -638.64023    81.553071 
    6300    1894.6387   -110.32712    1.7143089   -108.61281     7652.462    4.3106406    4.3106406    4.3106406     7652.462   -28329.044     19488.62     31797.81    7719.0593   -9207.1209    9355.6626    80.098697 
    6400    1470.6282   -109.92944    1.3306553   -108.59879    31834.633    4.2832244    4.2832244    4.2832244    31834.633    23066.095    63199.818    9237.9869   -16718.919    5841.8534   -5505.4387    78.580085 
    6500     1324.475   -109.83211    1.1984128    -108.6337    14065.193    4.3085916    4.3085916    4.3085916    14065.193    4460.1106    -26274.07    64009.537   -12230.832    32176.603   -4111.0086    79.984527 
    6600    1960.2844   -110.38121    1.7737065   -108.60751   -14948.126    4.3258625    4.3258625    4.3258625   -14948.126   -12717.045    29.477388    -32156.81    15924.031   -19172.038   -5880.7389    80.950236 
    6700    897.95338   -109.42604   0.81248709   -108.61356    7747.5839    4.3151163    4.3151163    4.3151163    7747.5839    5631.9744    61651.677     -44040.9   -13668.982    8631.3691    3590.5453     80.34845 
    6800    1607.6614   -110.06457    1.4546458   -108.60993    8993.8115    4.2947869    4.2947869    4.2947869    8993.8115    25058.795    32077.964   -30155.325   -34334.593    16697.865     4496.975     79.21818 
    6900    1588.5357   -110.06757    1.4373405   -108.63023    20386.306    4.3000447    4.3000447    4.3000447    20386.306     18607.01    14085.785    28466.124    7394.7729   -4431.4726    19232.851     79.50948 
    7000    1014.0267    -109.5577   0.91751265   -108.64019   -27028.081    4.3276696    4.3276696    4.3276696   -27028.081   -43139.572     28034.67   -65979.342    5857.2992    27600.632   -4561.3423    81.051729 
    7100    1568.4027   -110.03193    1.4191238   -108.61281   -16255.549    4.3099976    4.3099976    4.3099976   -16255.549    -3236.591    2494.7209   -48024.778   -13509.163    25466.167   -9438.5104    80.062857 
    7200    1638.2762    -110.0829    1.4823468   -108.60055    5454.4421    4.2888235    4.2888235    4.2888235    5454.4421   -21619.898   -27090.377    65073.602    35640.176   -9424.1756    24614.508    78.888648 
    7300    1423.6145   -109.91736    1.2881164   -108.62924   -42347.852    4.3111351    4.3111351    4.3111351   -42347.852   -56807.004   -43853.083   -26383.469    26325.256    25741.861   -4.7862298    80.126267 
    7400     1666.395   -110.12697    1.5077892   -108.61918   -13733.457    4.3124176    4.3124176    4.3124176   -13733.457   -37128.591   -4248.9171     177.1377   -26238.987     24489.86   -21982.493    80.197797 
    7500    1477.9063   -109.95223    1.3372407   -108.61498      833.536    4.3120035    4.3120035    4.3120035      833.536    30663.449   -56552.827    28389.985    25827.306   -5228.1516    21214.557    80.174694 
    7600    1508.6008   -109.97432    1.3650137    -108.6093   -18074.707    4.3150044    4.3150044    4.3150044   -18074.707   -24794.279   -13631.631    -15798.21    19911.226    22654.886     18047.38    80.342201 
    7700    1419.7271   -109.88837    1.2845989   -108.60377   -822.00465    4.3020518    4.3020518    4.3020518   -822.00465   -29811.809     17374.83    9970.9648   -8919.8289    26414.068   -22458.574     79.62087 
    7800    1289.6068    -109.7901    1.1668633   -108.62324    13432.578    4.3038826    4.3038826    4.3038826    13432.578    66761.351   -66567.048     40103.43    12033.577   -3616.1721    26675.829    79.722565 
    7900    1938.5938   -110.38014    1.7540804   -108.62606   -10799.263    4.3063015    4.3063015    4.3063015   -10799.263    18033.442   -45029.928   -5401.3045     5472.316   -2054.4711    23837.177    79.857059 
    8000    1552.7511   -110.03327    1.4049618   -108.62831    27959.807    4.2952091    4.2952091    4.2952091    27959.807    37437.819    5651.3405    40790.262   -5602.1168    14225.661   -26963.634    79.241545 
    8100    1138.8448   -109.68241    1.0304507   -108.65196   -19236.414    4.3177795    4.3177795    4.3177795   -19236.414     17203.14   -30614.583   -44297.799   -569.14759    5437.9876    27853.009    80.497313 
    8200    2277.7207    -110.6748    2.0609295   -108.61387   -21569.044    4.3114757    4.3114757    4.3114757   -21569.044   -1192.8688   -46190.444   -17323.818   -804.81666   -210.92785    6609.9738    80.145255 
    8300    1165.7893   -109.66906    1.0548307   -108.61423    35654.283    4.2885787    4.2885787    4.2885787    35654.283     93845.48   -11523.946    24641.315     2371.894   -6504.6502   -19374.041    78.875144 
    8400    1317.8952   -109.83813    1.1924593   -108.64567   -28807.286    4.3059712    4.3059712    4.3059712   -28807.286   -17550.298   -23634.945   -45236.615    1427.7512    28187.153    26091.917     79.83868 
    8500    1573.7397   -110.04886    1.4239527   -108.62491    19040.367    4.3150273    4.3150273    4.3150273    19040.367    38348.398   -45301.479    64074.182    1267.8469   -6229.9999    13624.376    80.343482 
    8600    1759.9674   -110.21276    1.5924555   -108.62031   -31194.474    4.3057987    4.3057987    4.3057987   -31194.474   -3019.0471   -51847.154   -38717.222   -2022.7663   -10001.037   -13346.189     79.82909 
    8700    719.39634   -109.28807   0.65092492   -108.63714    7747.2683    4.3074758    4.3074758    4.3074758    7747.2683    44976.801   -13833.027   -7901.9697    7712.8413    2770.2695    17995.767    79.922406 
    8800    2165.4049   -110.58075    1.9593039   -108.62145   -12269.287    4.2993465    4.2993465    4.2993465   -12269.287    10952.742   -44382.391   -3378.2122    1781.0586   -5689.4877    11792.928    79.470756 
    8900    1485.9012   -109.98067    1.3444747    -108.6362   -8434.1484    4.3001059    4.3001059    4.3001059   -8434.1484    20433.052   -44406.178   -1329.3193   -1267.9514   -8303.2265    -24054.04    79.512877 
    9000    1003.0502   -109.55151   0.90758088   -108.64393   -5681.1415    4.3128569    4.3128569    4.3128569   -5681.1415    24980.011   -38781.521   -3241.9146    1748.1765   -11665.931     26517.98    80.222306 
    9100    1894.0367   -110.33821    1.7137642   -108.62445   -20673.234    4.3048451    4.3048451    4.3048451   -20673.234     16493.23   -46928.377   -31584.554   -11537.374    1211.5439    16165.048    79.776062 
    9200    1151.7868   -109.67883    1.0421609   -108.63667    31634.584    4.3038178    4.3038178    4.3038178    31634.584    39780.992   -8134.1448    63256.905    13504.833    3141.5073   -45885.541    79.718959 
    9300    1804.4389   -110.26149    1.6326943   -108.62879   -37385.943    4.3231888    4.3231888    4.3231888   -37385.943   -2294.9086   -70481.376   -39381.543    15269.212     8841.961     32292.06    80.800234 
    9400    1138.3279   -109.64685     1.029983   -108.61687    13863.627    4.3114025    4.3114025    4.3114025    13863.627    39790.131   -42313.268    44114.017   -23573.331    4272.1184    13305.195    80.141176 
    9500    985.78627   -109.51903   0.89196014   -108.62707    26144.632    4.2978557    4.2978557    4.2978557    26144.632    69156.388   -61261.765    70539.273   -5493.6688    17470.992   -41700.565    79.388117 
    9600    1939.8818   -110.39482    1.7552458   -108.63957     1961.502    4.3003863    4.3003863    4.3003863     1961.502   -8553.5865   -21274.091    35712.184    22637.152     2830.516   -12697.638    79.528428 
    9700    1440.1315   -109.95036    1.3030613    -108.6473    17127.264    4.3188232    4.3188232    4.3188232    17127.264    33502.496    1487.0609    16392.235    -13014.01    20099.199     13802.21    80.555698 
    9800    915.66806   -109.46242    0.8285157    -108.6339   -28873.289    4.3308104    4.3308104    4.3308104   -28873.289    42236.914   -69176.503   -59680.278   -4173.7107     2493.314   -46880.476    81.228327 
    9900    1899.7211   -110.31004    1.7189076   -108.59114   -16727.693    4.3020125    4.3020125    4.3020125   -16727.693   -10458.001   -47839.975    8114.8986    19471.071   -9549.7488   -9089.5794    79.618687 
   10000    1610.6888   -110.04869    1.4573851   -108.59131    29754.928    4.2861764    4.2861764    4.2861764    29754.928    52827.578   -14920.736    51357.941   -20961.752    18605.596     10148.36    78.742669 
   10100    948.05266   -109.48247   0.85781797   -108.62466    -15895.16     4.325707     4.325707     4.325707    -15895.16    11464.777   -58865.695   -284.56279    4472.5789   -1661.8479   -44004.339    80.941511 
   10200    1867.4351    -110.2907    1.6896945   -108.60101   -48007.018    4.3207224    4.3207224    4.3207224   -48007.018   -24920.616   -65901.662   -53198.777    14980.366    2326.0712   -6066.8596    80.662023 
   10300    1694.7639   -110.13278     1.533458   -108.59932    37982.766    4.2751398    4.2751398    4.2751398    37982.766    3740.1551    27817.921    82390.223    -4728.754    28557.533   -1544.1376    78.135963 
   10400    1269.1932   -109.80021    1.1483927   -108.65181    21266.852    4.2858038    4.2858038    4.2858038    21266.852    62933.544   -31454.809    32321.822    -10369.78    3174.1069   -22739.441    78.722131 
   10500    1643.4708   -110.14046    1.4870469   -108.65341   -24715.274    4.3300252    4.3300252    4.3300252   -24715.274   -2230.8358   -63742.422    -8172.565    4572.4118   -10206.471   -5298.3973    81.184155 
   10600    1786.2302   -110.22532    1.6162186    -108.6091   -32302.039    4.3326911    4.3326911    4.3326911   -32302.039    25078.093   -62863.168   -59121.044    1669.2301    15317.906     16513.13    81.334197 
   10700    954.62442   -109.45499   0.86376424   -108.59123    47726.324    4.2973403    4.2973403    4.2973403    47726.324    117445.58     -25860.7    51594.091   -3638.1199    15481.659   -30100.279    79.359557 
   10800     1521.134   -109.99207     1.376354   -108.61571    3514.5173    4.2949637    4.2949637    4.2949637    3514.5173    60847.101   -30536.376   -19767.173    5720.7754    22053.059    6315.6907    79.227962 
   10900    1338.7465   -109.84844    1.2113259   -108.63711    20021.003    4.3104821    4.3104821    4.3104821    20021.003    25782.619    -47621.07    81901.459   -7827.4851    3645.3137     14889.16    80.089862 
   11000    1296.1492   -109.81197    1.1727831   -108.63919   -5070.7857    4.3174802    4.3174802    4.3174802   -5070.7857    21094.874   -44641.432    8334.2005   -27833.298   -833.29181   -46113.312    80.480571 
   11100    1727.3108   -110.18674    1.5629071   -108.62383   -683.05478    4.2927997    4.2927997    4.2927997   -683.05478    17335.964   -36249.016    16863.888    6185.3982    12495.657   -6272.5068    79.108267 
   11200    1659.4182    -110.1316    1.5014764   -108.63013    9154.1834    4.2852053    4.2852053    4.2852053    9154.1834    38356.216   -25525.949    14632.283    12572.613     2407.011    33019.857    78.689158 
   11300    1155.9179   -109.70043    1.0458988   -108.65453   -23497.992    4.3115643    4.3115643    4.3115643   -23497.992    19615.914   -49669.953   -40439.938   -21045.649     7696.832   -24338.938    80.150196 
   11400    1229.7418   -109.74946    1.1126963   -108.63676    4293.6047    4.3076746    4.3076746    4.3076746    4293.6047    59994.308   -35995.291   -11118.203   -22065.102    622.64453   -13750.648    79.933471 
   11500    1944.7158   -110.38233    1.7596197   -108.62271    6969.9071    4.2893194    4.2893194    4.2893194    6969.9071    47021.222   -5461.4361   -20650.065   -13385.486   -20996.327    10942.007    78.916015 
   11600    1317.6361   -109.83148    1.1922248   -108.63926     4533.299    4.2966715    4.2966715    4.2966715     4533.299    48306.347   -4667.6616   -30038.788    10104.995    7619.2266    -21987.93     79.32251 
   11700    1480.2257   -109.97722    1.3393393   -108.63788   -23671.363    4.3001343    4.3001343    4.3001343   -23671.363    14664.132   -60188.118   -25490.102   -15215.924    4761.8217   -19425.001    79.514452 
   11800    1295.1894   -109.81472    1.1719146   -108.64281   -8091.7985    4.2950982    4.2950982    4.2950982   -8091.7985   -56223.181    7485.9858    24461.799   -21494.332   -32999.682    9292.2287    79.235406 
   11900    1467.7831   -109.97442     1.328081   -108.64634   -9957.9578    4.2981645    4.2981645    4.2981645   -9957.9578   -25910.576    -6629.246    2665.9487     12332.86    1107.9395   -5719.3904    79.405226 
   12000    1564.6666   -110.04844    1.4157432    -108.6327    8344.2498    4.2965793    4.2965793    4.2965793    8344.2498   -4374.1161   -33898.727    63305.593   -10072.808    4310.5908   -25046.349    79.317403 
   12100    1304.4767   -109.82042     1.180318    -108.6401   -16005.254    4.3013557    4.3013557    4.3013557   -16005.254   -41344.883   -12574.561     5903.681   -24726.624   -62607.654    7578.5571    79.582225 
   12200    1542.2363   -110.02446    1.3954478   -108.62901   -11979.698    4.2955229    4.2955229    4.2955229   -11979.698    11734.957   -17768.199   -29905.852    5855.4929     -26038.9   -13000.841    79.258913 
   12300     1818.105   -110.27035    1.6450596   -108.62529   -6079.9068    4.2984828    4.2984828    4.2984828   -6079.9068    2578.5987    -60875.76    40057.441     2754.925    12865.252   -28161.038     79.42287 
   12400    998.59256   -109.54492   0.90354754   -108.64138   -29157.603    4.3041875    4.3041875    4.3041875   -29157.603   -83429.984    6382.4302   -10425.255   -15666.407   -65098.181    -2378.005    79.739506 
   12500    1572.3716   -110.04776    1.4227148   -108.62504    27269.764    4.2785635    4.2785635    4.2785635    27269.764    3005.3065    13660.916    65143.069   -5134.5142   -18955.252     10055.84    78.323834 
   12600    1836.5902   -110.31012    1.6617854   -108.64833   -33940.398    4.3038842    4.3038842    4.3038842   -33940.398   -29143.488   -55201.263   -17476.442    12746.934    8370.2908   -20105.097    79.722651 
   12700    952.38893   -109.50239   0.86174152   -108.64064   -52154.677    4.3111823    4.3111823    4.3111823   -52154.677   -73384.158   -34206.352   -48873.522   -5021.7036   -69896.549   -21519.691    80.128895 
   12800    1851.1466   -110.29163    1.6749564   -108.61668    31315.035    4.2862631    4.2862631    4.2862631    31315.035   -18163.658   -1114.9293    113223.69   -6384.1663     -12543.8    12005.599    78.747445 
   12900     1885.285   -110.33151    1.7058455   -108.62567       -17448     4.299394     4.299394     4.299394       -17448   -13070.008   -3438.2348   -35835.758   -4249.7262     13583.68   -1164.1177    79.473388 
   13000    880.27823   -109.42971   0.79649424   -108.63322    17539.391    4.2898707    4.2898707    4.2898707    17539.391   -30332.192     23874.58    59075.787    3268.5517   -52029.234   -11312.537     78.94645 
   13100    2027.4428   -110.46435    1.8344729   -108.62987    15937.367    4.3038429    4.3038429    4.3038429    15937.367    75044.293    -8774.598   -18457.593   -6185.0465    2332.1514    1388.9224    79.720357 
   13200    2017.9344   -110.44694    1.8258694   -108.62107   -34021.324     4.314034     4.314034     4.314034   -34021.324    -42372.27    -18298.54   -41393.161   -16483.293   -1563.6689    -2477.306    80.288009 
   13300    1076.4536   -109.59318   0.97399784   -108.61918    6940.1855    4.2886556    4.2886556    4.2886556    6940.1855      53899.6    31799.305   -64878.348    4831.0757   -70823.478   -17123.296    78.879385 
   13400    2098.9995   -110.53425    1.8992189   -108.63503   -15559.072    4.2932462    4.2932462    4.2932462   -15559.072    9920.0205    -21157.34   -35439.898    -10844.71   -22082.252     162.7825    79.132956 
   13500    2060.2247   -110.50429    1.8641346   -108.64015   -18034.319    4.3044846    4.3044846    4.3044846   -18034.319     14441.87   -45114.504   -23430.323   -7123.2402    4386.6628    5915.3165    79.756019 
   13600    1185.1389   -109.71264    1.0723386    -108.6403   -4218.7172    4.3005178    4.3005178    4.3005178   -4218.7172     33282.77    12928.062   -58866.984    7911.3896    -63680.25   -8382.1548    79.535725 
   13700    1374.1594    -109.8831    1.2433683   -108.63973   -16446.537    4.3057778    4.3057778    4.3057778   -16446.537   -21156.595   -8941.7397   -19241.276    5705.0141   -8853.9415   -7111.2053    79.827926 
   13800    2075.5528    -110.4992    1.8780038   -108.62119   -4311.1749    4.2880877    4.2880877    4.2880877   -4311.1749    4678.3216   -23983.808    6371.9617     8572.469    21016.766    187.20899    78.848054 
   13900    916.81955   -109.46678    0.8295576   -108.63722     22893.64    4.2707245    4.2707245    4.2707245     22893.64   -17720.152    43590.373    42810.699    1901.4448   -63413.674    -3048.002     77.89412 
   14000    1386.5291   -109.91551    1.2545606   -108.66095   -23555.731    4.2937345    4.2937345    4.2937345   -23555.731   -24377.702   -11175.746   -35113.744   -4326.3473   -25281.639   -23375.604     79.15996 
   14100    1899.0069   -110.34967    1.7182614   -108.63141   -24534.656     4.315596     4.315596     4.315596   -24534.656   -16937.059   -58439.204    1772.2952    14506.025    11705.172    3963.7532    80.375249 
   14200    1154.2093   -109.66882    1.0443528   -108.62447    -51513.75    4.3149761    4.3149761    4.3149761    -51513.75   -81533.285    17540.006   -90547.971    10721.611   -65985.432    8679.6546     80.34062 
   14300    1605.1066   -110.06065    1.4523342   -108.60831   -2924.7326    4.2818133    4.2818133    4.2818133   -2924.7326    9501.0481   -29736.442    11461.196    -10567.75   -4767.7431   -33163.668    78.502445 
   14400     1598.295     -110.057    1.4461709   -108.61083    36078.181     4.271037     4.271037     4.271037    36078.181    33166.926    -24371.03    99438.646    6118.2443   -8300.1375   -3686.4686    77.911221 
   14500    1153.3647   -109.69306    1.0435886   -108.64948   -20553.026    4.2989114    4.2989114    4.2989114   -20553.026   -11862.477   -20243.833   -29552.768    5774.8607   -80214.425    17877.674    79.446631 
   14600    1861.4783   -110.31609    1.6843047   -108.63178    7678.8156    4.3014603    4.3014603    4.3014603    7678.8156    41816.184   -49228.882    30449.145   -5094.1861   -18346.716   -13298.091    79.588033 
   14700    1764.0985   -110.22355    1.5961934   -108.62736    15674.565    4.2972301    4.2972301    4.2972301    15674.565    113739.84   -48929.348   -17786.795   -2011.6488    2900.6323    329.40947    79.353451 
   14800    632.19219   -109.22361   0.57202078   -108.65159   -25037.919    4.2946057    4.2946057    4.2946057   -25037.919   -11847.474    -16868.04   -46398.243    5595.0961   -57107.513    19577.821    79.208151 
   14900    1979.8608   -110.42433    1.7914197   -108.63291    14220.615    4.2771361    4.2771361    4.2771361    14220.615    20211.392   -14470.106    36920.558   -18031.991    2630.9583   -4423.7789    78.245471 
   15000    1991.5421   -110.44114    1.8019891   -108.63915   -17926.919    4.2984061    4.2984061    4.2984061   -17926.919    12336.275    -19852.26   -46264.772    5796.7857   -9323.6356    6694.9391    79.418619 
   15100    1149.4555   -109.69646    1.0400515   -108.65641   -19253.894    4.2899443    4.2899443    4.2899443   -19253.894    -24811.38    14108.482   -47058.784   -13.804415   -39682.037    16616.685    78.950514 
   15200    1450.9489    -109.9506     1.312849   -108.63776    38729.578    4.2775518    4.2775518    4.2775518    38729.578    64124.041   -8055.0792    60119.774    3033.5358   -8888.5656   -6882.5352    78.268288 
   15300    1764.4634   -110.23423    1.5965235    -108.6377   -23472.264    4.3051238    4.3051238    4.3051238   -23472.264     -22728.8   -22954.724   -24733.267   -19364.128    534.92063   -25636.072    79.791558 
   15400    1692.8077   -110.16006     1.531688   -108.62838    190.50217    4.2982003    4.2982003    4.2982003    190.50217   -21624.873    10.540091     22185.84    127.96656   -14007.906    9780.1634    79.407215 
   15500    1433.7068   -109.92377    1.2972481   -108.62653    521.73501    4.2936969    4.2936969    4.2936969    521.73501    16733.947    -48315.57    33146.827     4650.395   -1256.0212   -16666.305     79.15788 
   15600    1696.2701   -110.16115    1.5348208   -108.62632   -11323.637    4.2890298    4.2890298    4.2890298   -11323.637   -3008.4051   -52333.081    21370.577    -11634.75    20287.715   -30299.202    78.900035 
   15700    1490.8777   -109.97634    1.3489775   -108.62736    27880.396    4.2859653    4.2859653    4.2859653    27880.396    2444.2648    22695.201    58501.722   -13467.286   -33744.104    10242.412    78.731031 
   15800    1664.1355   -110.13886    1.5057447   -108.63312   -21501.752    4.3102847    4.3102847    4.3102847   -21501.752   -5945.0789   -53729.193   -4830.9848    4891.6075    346.69232    3195.4769    80.078858 
   15900    1780.9352   -110.22503    1.6114276   -108.61361   -31613.557      4.31259      4.31259      4.31259   -31613.557   -9992.7512   -78642.774   -6205.1451    -2656.413    13961.698   -18506.418    80.207417 
   16000    1259.4443   -109.75434    1.1395717   -108.61477    13763.824     4.281304     4.281304     4.281304    13763.824   -14127.032    3921.3705    51497.133   -7694.4998   -48820.111    16131.265    78.474434 
   16100    1166.3578   -109.68943     1.055345   -108.63408    2321.5052    4.2687443    4.2687443    4.2687443    2321.5052    29014.905   -5049.8447   -17000.545    4704.8677   -12944.329    31524.058    77.785817 
   16200    2012.2471   -110.46244    1.8207235   -108.64172    5475.9336    4.2823197    4.2823197    4.2823197    5475.9336    14822.574   -28403.881    30009.108   -5160.2479    32455.736    -2815.254    78.530302 
   16300    1161.9368    -109.7025    1.0513448   -108.65115   -23264.207    4.3094678    4.3094678    4.3094678   -23264.207   -30837.529   -6009.0157   -32946.078   -2154.6543   -51335.552    7326.2884    80.033337 
   16400    1253.5425   -109.76787    1.1342316   -108.63364   -16997.644    4.3021368    4.3021368    4.3021368   -16997.644    560.50841   -19689.234   -31864.208   -4545.2271     -34489.8    32967.128    79.625588 
   16500    2380.6934   -110.76006    2.1541015   -108.60596    23195.356    4.2730174    4.2730174    4.2730174    23195.356    29929.051   -152.93506    39809.953    4910.4579     11788.74    -5694.088    78.019646 
   16600    1346.0353   -109.85724     1.217921   -108.63932    12700.953    4.2783264    4.2783264    4.2783264    12700.953    34069.759    42800.293   -38767.194   -3125.0774   -51768.725   -1906.3922    78.310814 
   16700    1089.3932   -109.64083   0.98570587   -108.65512   -10695.368    4.3012923    4.3012923    4.3012923   -10695.368      39439.3    -15580.01   -55945.395   -2089.6137   -34234.244    39306.545    79.578706 
   16800    2156.2616   -110.57403    1.9510308     -108.623   -7372.4094    4.3071587    4.3071587    4.3071587   -7372.4094    4919.9397     -35951.4    8914.2323    -1825.466    13670.186   -4460.4802    79.904754 
   16900    1642.2596    -110.1066     1.485951   -108.62065    12148.344    4.2854179    4.2854179    4.2854179    12148.344    52786.379   -4874.8509   -11466.497   -6613.1544   -47264.622    6249.9366     78.70087 
   17000    864.69809   -109.42323   0.78239701   -108.64083     14127.89    4.2854157    4.2854157    4.2854157     14127.89    64196.107   -29265.477     7453.039    5729.0037   -35948.315    48913.972    78.700749 
   17100    1927.8599   -110.37351    1.7443682   -108.62914    -5760.113    4.2934679    4.2934679    4.2934679    -5760.113    35274.848   -27829.147   -24726.039    877.29721    27434.621   -8319.0763    79.145216 
   17200    1562.5618   -110.05035    1.4138388   -108.63651    1375.4702    4.2877241    4.2877241    4.2877241    1375.4702    3814.8856    -20997.49    21309.016    6313.3906   -9560.0568    11198.762    78.827998 
   17300    528.40457   -109.13688   0.47811156   -108.65877   -36665.767    4.2929173    4.2929173    4.2929173   -36665.767    19034.741   -46918.931   -82113.111    2921.7875    -43574.39    56545.871     79.11477 
   17400     1896.744   -110.36254    1.7162139   -108.64633     2783.644    4.2680671    4.2680671    4.2680671     2783.644     10680.62   -8220.8345    5891.1466   -8815.1026   -9419.2599   -15375.331    77.748801 
   17500    1938.6262   -110.41276    1.7541098   -108.65865    15387.059    4.2725756    4.2725756    4.2725756    15387.059    79068.076   -24451.108   -8455.7925    -9402.439    21683.917    8610.4878    77.995452 
   17600    987.14542   -109.55231   0.89318992   -108.65912   -31868.015    4.3017419    4.3017419    4.3017419   -31868.015    18966.005   -50596.654   -63973.395    7998.4969   -38374.361    57019.592    79.603662 
   17700    1328.1634   -109.83646    1.2017502   -108.63471    3516.7449    4.2930194    4.2930194    4.2930194    3516.7449    40310.823   -8557.3112   -21203.277   -8984.0675   -30084.693   -18638.532    79.120412 
   17800    2043.6397   -110.46597    1.8491282   -108.61684     5811.013    4.2835754    4.2835754    4.2835754     5811.013    31621.938    620.63116   -14809.531    358.78379    22838.596    2086.5744    78.599403 
   17900    1303.7636   -109.81416    1.1796727   -108.63448   -5081.3006     4.286567     4.286567     4.286567   -5081.3006    1030.1173   -2148.9951   -14125.024   -6523.6145   -27835.905    39039.333    78.764195 
   18000    1342.9525   -109.85066    1.2151316   -108.63552    4190.1487    4.2944351    4.2944351    4.2944351    4190.1487    44084.247    26262.422   -57776.222    -2482.711   -38902.224   -14343.688    79.198716 
   18100    1850.3894   -110.29633    1.6742712   -108.62206   -4917.0475    4.2986871    4.2986871    4.2986871   -4917.0475    18349.426    17561.272    -50661.84   -4365.3469    33382.025    5230.5772    79.434194 
   18200    1127.2376   -109.65389    1.0199483   -108.63394    24743.858    4.2682655    4.2682655    4.2682655    24743.858    59507.865    36264.676   -21540.968   -3045.7147   -35587.696    36536.372    77.759646 
   18300     1173.319   -109.70729    1.0616437   -108.64564    38357.198    4.2677196    4.2677196    4.2677196    38357.198    83274.953     57349.36    -25552.72   -1118.4127   -50782.442   -1955.3758    77.729816 
   18400    2159.7324   -110.58586    1.9541713   -108.63169    10299.333    4.2893142    4.2893142    4.2893142    10299.333    20827.621    36640.746   -26570.368    2187.8986    26599.335   -2952.6303    78.915732 
   18500    1091.1664   -109.62916   0.98731028   -108.64185   -4796.7674     4.295141     4.295141     4.295141   -4796.7674    40655.603   -15676.186   -39369.719   -1645.6139   -51724.453    29507.003    79.237775 
   18600    1392.3187   -109.89619    1.2597992   -108.63639   -27684.365    4.2947848    4.2947848    4.2947848   -27684.365   -32981.183   -8719.4175   -41352.495   -2525.5365   -37703.757    10569.765    79.218061 
   18700    2099.2992   -110.52406    1.8994901   -108.62457    33630.877    4.2635088    4.2635088    4.2635088    33630.877    11325.643    50918.485    38648.503   -3954.3785     35091.96   -2519.9561    77.499964 
   18800    1156.6286   -109.70157    1.0465419   -108.65502    18186.431    4.2692379    4.2692379    4.2692379    18186.431    36729.215    9608.4676    8221.6103    3858.3122   -36239.765    26311.427    77.812807 
   18900     1384.208   -109.89929    1.2524605   -108.64683   -31256.263     4.302726     4.302726     4.302726   -31256.263    10945.805   -41349.262   -63365.332   -610.10284   -40977.535    8076.3942    79.658307 
   19000    2040.4205   -110.46224    1.8462153   -108.61603    14971.277    4.2887172    4.2887172    4.2887172    14971.277    31521.478    8731.4787    4660.8749    486.37508    19657.496   -19187.969    78.882784 
   19100    1193.0109   -109.70694    1.0794613   -108.62748    20137.763    4.2813567    4.2813567    4.2813567    20137.763    17604.341    49959.215   -7150.2685    7414.7171   -4747.2075    39977.127    78.477334 
   19200    1449.9738   -109.93862    1.3119668   -108.62665   -15858.141    4.2878293    4.2878293    4.2878293   -15858.141    7055.5176   -21575.571   -33054.371     3628.716   -26426.939    5817.4074    78.833799 
   19300    1718.3439   -110.18046    1.5547937   -108.62566    24327.352    4.2809163    4.2809163    4.2809163    24327.352    52449.956    13348.657    7183.4438   -7115.6673    9400.4669   -42983.443     78.45312 
   19400    1730.5426   -110.20071    1.5658313   -108.63488    4335.5548    4.2887989    4.2887989    4.2887989    4335.5548   -5654.7359    14338.205    4323.1958    14452.186     3597.619    24338.466     78.88729 
   19500    973.48828   -109.52295   0.88083266   -108.64211   -6894.2241    4.2905605    4.2905605    4.2905605   -6894.2241    7414.0025   -21080.587   -7016.0877   -465.72774   -40816.365     9703.834    78.984538 
   19600    1476.3224   -109.97204    1.3358075   -108.63623    10092.648    4.2758482    4.2758482    4.2758482    10092.648    37889.383    10366.832   -17978.272   -8525.1391     3271.789   -51373.044    78.174812 
   19700    1768.1853    -110.2348    1.5998912    -108.6349    19678.112    4.2833468    4.2833468    4.2833468    19678.112    30114.687    23966.621    4953.0265    3242.9576    11087.025    19297.801     78.58682 
   19800    1356.3567    -109.8657      1.22726   -108.63844   -10118.761    4.2948185    4.2948185    4.2948185   -10118.761     8655.282   -23267.312   -15744.252   -9356.7001   -25719.188    22355.818    79.219927 
   19900    1086.5579   -109.62198   0.98314043   -108.63884    14283.838    4.2839633    4.2839633    4.2839633    14283.838    60870.715    13325.166   -31344.367   -7480.7665   -14801.922   -45328.318    78.620755 
   20000    1799.3467   -110.25904    1.6280867   -108.63095    16712.769    4.2869393    4.2869393    4.2869393    16712.769    48003.054    1315.7859    819.46638   -15660.552    17871.659   -11877.134    78.784724 
   20100     1583.356   -110.06852    1.4326538   -108.63587    5252.1753    4.2926727    4.2926727    4.2926727    5252.1753    21524.942    25954.974   -31723.389    732.92583   -11050.833    14355.223    79.101246 
   20200    1072.5359   -109.60467   0.97045304   -108.63421    28805.451     4.282961     4.282961     4.282961    28805.451    35360.834    32571.744    18483.774   -7991.8058   -39684.182   -24238.289    78.565585 
   20300    1900.4294   -110.33941    1.7195484   -108.61986    9303.3416    4.2981796    4.2981796    4.2981796    9303.3416     23118.83   -8284.6079    13075.803   -3800.2026    20485.241   -7443.3817    79.406067 
   20400    1528.5976   -109.99356    1.3831072   -108.61045   -21508.901    4.3081062    4.3081062    4.3081062   -21508.901   -29651.332   -3863.1566   -31012.214     9261.933   -10811.273    3963.5335    79.957499 
   20500    1408.5759    -109.8912    1.2745091   -108.61669    38.611828    4.2767371    4.2767371    4.2767371    38.611828    2033.8196    21245.724   -23163.708   -12984.492   -55452.121    -27648.99    78.223576 
   20600    2050.1872   -110.46422    1.8550525   -108.60916    42086.934    4.2581423    4.2581423    4.2581423    42086.934    55917.631    55345.863    14997.307    8721.7089    24811.608    2482.4115     77.20768 
   20700    1441.6006   -109.95801    1.3043905   -108.65362   -10482.597    4.2883934    4.2883934    4.2883934   -10482.597   -24445.984     18683.86   -25685.667    13242.347   -11676.203    8952.5129    78.864917 
   20800    1284.5407   -109.80065    1.1622795   -108.63837    -25857.87    4.3090338    4.3090338    4.3090338    -25857.87   -25449.546    40369.313   -92493.378    -4091.465   -59140.915   -5957.4077    80.009158 
   20900    2473.6179   -110.84207    2.2381815   -108.60389    11259.928    4.2897261    4.2897261    4.2897261    11259.928    29721.191    22482.883    -18424.29   -1967.9579    13487.776    3540.8108    78.938468 
   21000    1221.9119   -109.72976    1.1056115   -108.62415    7756.4243    4.2764532    4.2764532    4.2764532    7756.4243    848.77933    34993.471   -12572.978     8345.178   -36527.951    13828.821    78.207996 
   21100     1216.287   -109.73462    1.1005221   -108.63409   -2193.8321     4.285861     4.285861     4.285861   -2193.8321   -4342.8553     54295.14   -56533.781   -631.09283   -34326.439    8186.2693    78.725288 
   21200     2255.494   -110.65727    2.0408183   -108.61645    6131.9597    4.2950925    4.2950925    4.2950925    6131.9597    8067.5332   -23024.199    33352.545   -8706.3357    15868.489   -1101.9911    79.235091 
   21300    1171.6483   -109.68649     1.060132   -108.62636    -29832.55    4.3017733    4.3017733    4.3017733    -29832.55   -28669.005   -32227.901   -28600.743    1317.7769   -46126.337    13415.846    79.605403 
   21400    1355.9038   -109.85116    1.2268502   -108.62431   -22313.115    4.2845213    4.2845213    4.2845213   -22313.115   -23437.835    3339.3324   -46840.841    3347.4887   -41029.463    10455.772    78.651482 
   21500    1715.1666   -110.16711    1.5519188   -108.61519    14089.163     4.269518     4.269518     4.269518    14089.163   -2969.4259    -30725.37    75962.284     -35496.6    27686.397   -8832.4842    77.828124 
   21600    1110.5721   -109.64166     1.004869   -108.63679    -27143.53    4.2924154    4.2924154    4.2924154    -27143.53   -46637.298   -11952.741   -22840.549    -24213.67   -43168.776   -3506.4151    79.087024 
   21700    1334.7828   -109.83397    1.2077395   -108.62623   -19749.417    4.2944601    4.2944601    4.2944601   -19749.417   -8716.7989     11044.77   -61576.222    9169.7235   -46777.834    14182.339    79.200096 
   21800    1926.8574   -110.34917    1.7434611   -108.60571   -18645.925    4.2898982    4.2898982    4.2898982   -18645.925   -28343.334   -47844.139    20249.698   -34139.529    27532.352    -6436.729    78.947967 
   21900    723.04731   -109.26452    0.6542284   -108.61029   -50445.512    4.3058391    4.3058391    4.3058391   -50445.512   -81725.007   -10095.847   -59515.681   -17255.172   -68250.916   -10208.067    79.831336 
   22000    1793.3097   -110.22114    1.6226243   -108.59852   -23115.646    4.2892976    4.2892976    4.2892976   -23115.646   -33772.642     1972.511   -37546.806    11482.971   -22468.733    10165.138    78.914814 
   22100    1603.0762   -110.05497     1.450497   -108.60447    4554.8509    4.2750497    4.2750497    4.2750497    4554.8509   -13164.382   -18557.513    45386.449   -36322.255    20154.041   -7323.7997    78.131024 
   22200    1010.1373   -109.55037    0.9139935   -108.63638   -22038.365    4.2854969    4.2854969    4.2854969   -22038.365   -54994.991    14586.626   -25706.729   -9773.5331   -56583.546   -19030.407    78.705223 
   22300    1777.8532    -110.2355    1.6086389   -108.62686   -13485.061    4.2887311    4.2887311    4.2887311   -13485.061   -38180.755       2833.4   -5107.8265    6809.9927   -21935.396   -5303.4717     78.88355 
   22400    1301.1537   -109.81064    1.1773112   -108.63333   -8142.9353    4.2895971    4.2895971    4.2895971   -8142.9353   -54200.491   -31483.858    61255.544   -41234.264    30549.384    6308.8878    78.931345 
   22500    1411.3798   -109.91235    1.2770461   -108.63531      -8381.8    4.2841441    4.2841441    4.2841441      -8381.8   -45904.114    17901.347    2857.3667   -672.97211   -8364.1979   -3866.9847    78.630714 
   22600     1776.413   -110.23315    1.6073358   -108.62582    23430.159    4.2746297    4.2746297    4.2746297    23430.159    10777.207    19999.547    39513.724    11796.551    -17089.37    -5856.561    78.107998 
   22700    1066.5791   -109.61506   0.96506319      -108.65   -21823.679    4.2864301    4.2864301    4.2864301   -21823.679   -42511.559   -36813.326    13853.847   -50691.806    23017.078    293.24637     78.75665 
   22800    1194.0092   -109.72904    1.0803646   -108.64867   -20571.469     4.291295     4.291295     4.291295   -20571.469   -65826.638   -4367.5704    8479.8004    4283.8394    25195.777    15400.598    79.025112 
   22900    1865.3884   -110.31603    1.6878426   -108.62819    15228.173    4.2853933    4.2853933    4.2853933    15228.173   -17860.407    38430.639    25114.287    23649.616   -11159.279   -10251.101    78.699517 
   23000    1117.8488   -109.64731    1.0114531   -108.63586    3754.0625    4.2880954    4.2880954    4.2880954    3754.0625   -6882.7177    1031.8698    17113.036   -50273.399    6179.2027   -589.65568    78.848481 
   23100    1235.1864   -109.75062    1.1176226     -108.633   -8281.6142    4.2932688    4.2932688    4.2932688   -8281.6142   -37043.184   -2025.0564    14223.398    18234.123     16781.17   -8747.9638    79.134202 
   23200     2158.221   -110.56508    1.9528037   -108.61227     972.0678    4.2908554    4.2908554    4.2908554     972.0678   -15025.706    5889.6499    12052.259    37119.144   -11043.625     9224.367    79.000825 
   23300     1295.952   -109.79863    1.1726046   -108.62603    17045.512    4.2807601    4.2807601    4.2807601    17045.512    47724.664    6345.1433   -2933.2698   -36212.517    1430.2612    10158.183    78.444532 
   23400    1242.5588   -109.76658    1.1242933   -108.64229   -13734.872    4.2883352    4.2883352    4.2883352   -13734.872   -11827.567    20257.668   -49634.718   -10992.406    25313.582   -1266.3365    78.861707 
   23500    2163.9583    -110.5821     1.957995    -108.6241   -9177.7247    4.2976231    4.2976231    4.2976231   -9177.7247    12320.169    6248.5829   -46101.926    20817.117   -3752.7318    8017.9133    79.375228 
   23600    1691.2307   -110.15533    1.5302611   -108.62507    4046.4548    4.2908529    4.2908529    4.2908529    4046.4548     9982.187    1499.1319    658.04564   -22894.143   -10695.474   -2095.5545     79.00069 
   23700    1345.5808   -109.85334    1.2175098   -108.63583   -10653.538    4.2818583    4.2818583    4.2818583   -10653.538    1508.3469    16747.746   -50216.707   -12391.338    13128.785    7415.6857    78.504918 
   23800    1365.9627   -109.88504    1.2359517   -108.64909   -5045.6962    4.2797759    4.2797759    4.2797759   -5045.6962    6434.7634    28419.542   -49991.394    8545.7581     2404.681    18644.954    78.390436 
   23900    1532.4378   -110.03447     1.386582   -108.64788   -8865.4115    4.2912128    4.2912128    4.2912128   -8865.4115   -9251.8742   -4885.3214   -12459.039   -8767.1277   -10400.252   -8191.7114     79.02057 
   24000     1028.535   -109.57686   0.93064008   -108.64622   -17271.703    4.3016697    4.3016697    4.3016697   -17271.703   -54488.367    10245.702   -7572.4441   -17601.645    23013.829    -1791.758    79.599653 
   24100    1812.5416    -110.2523    1.6400257   -108.61228    1029.1486    4.2997602    4.2997602    4.2997602    1029.1486    -32658.06    46395.214   -10649.708    9272.8163    6026.8463    15622.474    79.493697 
   24200    1220.4032   -109.71357    1.1042464   -108.60933   -2595.1669    4.2941636    4.2941636    4.2941636   -2595.1669   -12202.811   -25048.782    29466.092   -18090.503     196.5867   -18683.478    79.183697 
   24300    517.38663   -109.08951   0.46814229   -108.62137    3804.4833    4.2888438    4.2888438    4.2888438    3804.4833   -44494.135    7290.7837    48616.802   -31055.416    29514.001    -12925.18    78.889771 
   24400    1930.7125   -110.35888    1.7469492   -108.61193    4950.5368    4.2968916    4.2968916    4.2968916    4950.5368   -51487.644    52358.964    13980.289   -1437.0367    2537.0244    13630.623    79.334703 
   24500    1710.2282   -110.15908    1.5474504   -108.61163    8898.3601    4.2962825    4.2962825    4.2962825    8898.3601   -18475.427    56221.576   -11051.069    -6168.796   -8350.2731    2976.3401    79.300967 
   24600    706.06078   -109.26592   0.63885863   -108.62706   -24511.475    4.3007522    4.3007522    4.3007522   -24511.475   -68405.479   -20621.522    15492.576   -32779.441    26056.641   -10835.187    79.548732 
   24700     1692.783    -110.1388    1.5316656   -108.60714   -14290.529    4.2941737    4.2941737    4.2941737   -14290.529   -11553.141   -16330.915   -14987.531    5894.3096   -9837.5534    10890.334     79.18425 
   24800    1840.2666   -110.27446    1.6651119   -108.60935    4835.6779    4.2811393    4.2811393    4.2811393    4835.6779    12694.768    32902.154   -31089.889    11371.002   -5888.1683    14041.163    78.465379 
   24900    1629.4772   -110.10443    1.4743852   -108.63005   -22143.115    4.2832037    4.2832037    4.2832037   -22143.115   -56385.951    10403.539   -20446.933    -23839.84    27326.269   -16526.274    78.578943 
   25000    1118.4818   -109.65905    1.0120259   -108.64702   -13804.447    4.2849298    4.2849298    4.2849298   -13804.447    4485.5034   -27231.178   -18667.667   -11199.981    10881.352    17622.085    78.673982 
   25100    1562.9378   -110.06486     1.414179   -108.65068   -7908.9712    4.2925774    4.2925774    4.2925774   -7908.9712    3762.2144     3333.912    -30823.04    19071.877   -6304.0646     13871.35    79.095977 
   25200    1803.5529   -110.27128    1.6318925   -108.63938   -13485.458    4.2984583    4.2984583    4.2984583   -13485.458   -31434.808    645.64085   -9667.2056    462.94734    21409.059   -6098.2785    79.421514 
   25300    1254.8271    -109.7688    1.1353939   -108.63341    12175.023    4.2889858    4.2889858    4.2889858    12175.023     74288.06   -12985.971   -24777.021    -10014.44    20976.565    36222.169    78.897606 
   25400    1481.0194   -109.97183    1.3400575   -108.63177   -3958.0589     4.283642     4.283642     4.283642   -3958.0589    44015.165    -13761.66   -42127.682   -7977.2187   -7559.1677    15066.886    78.603069 
   25500    1742.3573   -110.21479    1.5765215   -108.63827   -18274.179    4.2835116    4.2835116    4.2835116   -18274.179   -17466.435    -11591.65   -25764.451    22669.108   -4078.7753   -27037.747     78.59589 
   25600    1262.7004   -109.79149    1.1425179   -108.64897   -674.60409    4.2798323    4.2798323    4.2798323   -674.60409    28505.785   -19817.611   -10711.986     2515.976    24695.213    45943.829    78.393535 
   25700    1323.6409   -109.85222    1.1976581   -108.65456   -13101.268    4.2884541    4.2884541    4.2884541   -13101.268    12197.808   -49093.817   -2407.7956   -13148.909   -5699.0562    54068.158    78.868268 
   25800    1933.7412   -110.38923    1.7496897   -108.63954   -742.55175     4.285997     4.285997     4.285997   -742.55175   -11070.244   -7700.8685    16543.457    10218.532   -11105.336   -23696.715     78.73278 
   25900     693.2659   -109.28274   0.62728155   -108.65546    23470.716    4.2880634    4.2880634    4.2880634    23470.716    21083.714   -13321.139    62649.574    13446.824    12080.705    38609.076    78.846713 
   26000    1027.5164   -109.57539   0.92971843   -108.64567   -18196.678     4.302726     4.302726     4.302726   -18196.678    56936.084    -53633.98   -57892.136    -6313.361    14386.718    44309.689     79.65831 
   26100     2313.509   -110.70441    2.0933115    -108.6111    7198.0543    4.2860381    4.2860381    4.2860381    7198.0543   -9603.6349    27228.865    3968.9328   -4609.6979    11129.822   -17463.774    78.735044 
   26200    1226.6647   -109.74326     1.109912   -108.63335   -23230.811    4.2814005    4.2814005    4.2814005   -23230.811    20619.201   -37300.424   -53011.209    25680.254   -13656.928    60478.987    78.479743 
   26300    798.76594   -109.37544   0.72274021    -108.6527   -713.24326      4.27745      4.27745      4.27745   -713.24326    29426.159     -12071.7   -19494.189    13461.138    21454.121    49148.541    78.262701 
   26400    2095.9473   -110.54529    1.8964572   -108.64883     777.6482    4.2841892    4.2841892    4.2841892     777.6482   -28327.708    22476.009    8184.6439   -4348.1295    10927.494   -30194.714    78.633195 
   26500    1561.3302   -110.06222    1.4127244    -108.6495   -24971.411    4.2999032    4.2999032    4.2999032   -24971.411    13285.441    -39160.86   -49038.814   -6828.9024   -5676.7736    26017.786    79.501631 
   26600    1365.2842   -109.87997    1.2353378   -108.64463    15818.956    4.2736539    4.2736539    4.2736539    15818.956    9237.3509    25729.492    12490.024    25983.583    14716.917    36981.627    78.054517 
   26700    1452.3448     -109.966    1.3141121   -108.65189    3943.0655    4.2716064    4.2716064    4.2716064    3943.0655   -33192.042    57449.694   -12428.455    21627.719    7864.3098    -15439.56    77.942385 
   26800    1367.8106   -109.89286    1.2376238   -108.65523   -20416.023    4.2877771    4.2877771    4.2877771   -20416.023    9887.3308   -37948.679   -33186.721   -10029.671   -5942.8615   -30236.572    78.830922 
   26900    1824.5079   -110.29742    1.6508531   -108.64656    4780.5225    4.2818385    4.2818385    4.2818385    4780.5225    29799.298   -7600.0203   -7857.7106   -5898.1801   -1205.6962    5290.2594     78.50383 
   27000    1626.9943   -110.11963    1.4721386   -108.64749   -7654.4521    4.2904734    4.2904734    4.2904734   -7654.4521   -48444.428    54927.592   -29446.519    6011.2115    37701.466    7021.2099    78.979729 
   27100    1185.0437   -109.70976    1.0722525    -108.6375    3846.0861    4.2898327    4.2898327    4.2898327    3846.0861   -7354.8873    17529.403    1363.7422    1005.3693    6929.3565    -42932.62    78.944354 
   27200    1734.0356   -110.19609    1.5689919    -108.6271    20818.427    4.2898979    4.2898979    4.2898979    20818.427    24583.687   -6651.9346    44523.528   -2318.5253   -6567.2465   -11370.609     78.94795 
   27300    1887.3074   -110.32605    1.7076754   -108.61837   -2498.2654    4.3011443    4.3011443    4.3011443   -2498.2654   -31945.898   -14864.244    39315.345    1032.3609    41402.057    11567.221    79.570493 
   27400     1131.219   -109.65105    1.0235507    -108.6275   -16654.201    4.2926251    4.2926251    4.2926251   -16654.201   -22895.163   -24352.328   -2715.1117   -2233.0858    4536.0584   -39163.125    79.098618 
   27500    1356.2561   -109.86185     1.227169   -108.63468    -6139.133    4.2744614    4.2744614    4.2744614    -6139.133    14162.418   -11388.758    -21191.06   -8283.2714   -21063.631   -27867.803    78.098772 
   27600    2113.2246   -110.55705      1.91209   -108.64496    3584.9711    4.2862702    4.2862702    4.2862702    3584.9711   -9958.3402   -22380.396     43093.65   -5281.4613    12713.278     25942.14    78.747838 
   27700    1293.2351   -109.81297    1.1701463   -108.64282   -12289.212    4.3138617    4.3138617    4.3138617   -12289.212    5625.7918   -47488.959    4995.5297    2708.6051    9428.6917    -31176.17    80.278391 
   27800    962.97936   -109.49256   0.87132396   -108.62123   -19806.791     4.302942     4.302942     4.302942   -19806.791   -3528.5278   -40988.865   -14902.979   -9669.5547   -22966.076   -13455.418    79.670306 
   27900    1279.5711   -109.77208    1.1577829    -108.6143    16998.346    4.2625227    4.2625227    4.2625227    16998.346    51568.506   -2841.8689    2268.4002    4835.5508   -5464.2325    60575.975    77.446202 
   28000    1858.2147   -110.31202    1.6813517   -108.63067    30000.835     4.258447     4.258447     4.258447    30000.835    55234.215   -7151.1933    41919.482    293.31618    20090.626   -15436.872    77.224255 
   28100    1552.4626   -110.06276    1.4047008   -108.65806   -17815.121    4.2952225    4.2952225    4.2952225   -17815.121    -13826.91   -28788.785   -10829.668   -6627.6577   -14992.563   -29140.856    79.242285 
   28200    508.65477   -109.11943   0.46024153   -108.65919   -13396.592    4.3016241    4.3016241    4.3016241   -13396.592   -24945.494   -26350.543    11106.261   -4698.5765   -21651.864        49589    79.597124 
   28300    1637.4459   -110.11434    1.4815955   -108.63275   -5690.7086    4.2884461    4.2884461    4.2884461   -5690.7086    -44875.39   -4392.3349    32195.599      1770.26    24663.899    779.80186    78.867823 
   28400    2073.2258   -110.49736    1.8758982   -108.62146   -1295.4784    4.2789407    4.2789407    4.2789407   -1295.4784   -6352.6065   -11172.125    13638.296   -358.99099    27084.336    2796.8782    78.344551 
   28500     1739.673   -110.21316    1.5740927   -108.63906   -5661.3421    4.2810998    4.2810998    4.2810998   -5661.3421   -114.91818   -16964.674    95.565504   -2397.6683   -12891.875    46880.355    78.463205 
   28600    1316.2344   -109.84076    1.1909565    -108.6498   -21083.655    4.2908099    4.2908099    4.2908099   -21083.655   -56524.485    7449.8763   -14176.356   -4866.4404   -7622.5487   -5172.6087    78.998312 
   28700    1183.5912   -109.72644    1.0709382    -108.6555   -5591.3935    4.2888797    4.2888797    4.2888797   -5591.3935   -29782.601    6798.1152    6210.3057   -6258.7796    33709.067   -28878.888    78.891751 
   28800    2221.3385   -110.64594    2.0099138   -108.63603    2882.2109      4.28414      4.28414      4.28414    2882.2109   -3689.5291   -23306.336    35642.498   -813.57175    14751.245    12153.475    78.630488 
   28900    1652.5704   -110.13751    1.4952805   -108.64223    5035.2707    4.2833041    4.2833041    4.2833041    5035.2707   -33253.117   -7398.3181    55757.247   -11292.438   -14632.002    7433.5115    78.584472 
   29000    682.95163   -109.27481   0.61794898   -108.65686   -25077.369    4.2951065    4.2951065    4.2951065   -25077.369   -41879.291   -2508.3389   -30844.476   -5971.9287    12889.967   -21557.895    79.235869 
   29100    1745.1127   -110.22259    1.5790146   -108.64358    -10671.76    4.2826466    4.2826466    4.2826466    -10671.76   -42355.854   -26118.218    36458.792    13988.583    116.42431   -925.94188    78.548286 
   29200    1784.9507   -110.25437    1.6150609    -108.6393    29249.506    4.2705948    4.2705948    4.2705948    29249.506    25577.044    4131.6925    58039.782    8757.9018   -13113.307    24132.486     77.88702 
   29300    1360.8962   -109.88053    1.2313675   -108.64916    5399.9158    4.2907474    4.2907474    4.2907474    5399.9158   -29294.119    17722.591    27771.275   -10817.616    36146.859   -2259.9736    78.994864 
   29400    1571.0147    -110.0491    1.4214871   -108.62762   -2653.6372    4.3071314    4.3071314    4.3071314   -2653.6372    -30664.64    3109.1456    19594.583    23240.371    9003.3883   -8075.1282    79.903236 
   29500    1545.2132   -110.00941    1.3981414   -108.61127    8036.2781    4.2981334    4.2981334    4.2981334    8036.2781    19973.739   -4983.9094    9119.0048    21293.862   -7993.9462    22095.517    79.403506 
   29600    1848.8541   -110.27088    1.6728821     -108.598   -318.27569    4.2790662    4.2790662    4.2790662   -318.27569   -3883.5143    18200.553   -15271.866   -14949.438    30806.924   -6662.3167    78.351445 
   29700    1176.0546   -109.69078    1.0641189   -108.62666    804.19047    4.2762986    4.2762986    4.2762986    804.19047   -60698.145    17478.705    45632.011    17033.422    13779.635   -8715.3188    78.199518 
   29800    995.43567   -109.55944   0.90069111   -108.65875   -263.94713    4.2812556    4.2812556    4.2812556   -263.94713   -26774.175   -4312.7764     30295.11    23084.497   -28131.686    20290.333    78.471773 
   29900    1696.9781   -110.19957    1.5354614   -108.66411    7036.7745    4.2813044    4.2813044    4.2813044    7036.7745    -7909.325    7545.4637    21474.185   -17415.122    725.28921    18810.935    78.474458 
   30000    2152.1679   -110.60779    1.9473268   -108.66046   -3618.1376     4.282532     4.282532     4.282532   -3618.1376   -36866.499    16650.772    9361.3136    13463.093    15427.231    3226.8208    78.541981 
   30100    1134.5207   -109.70205    1.0265381   -108.67551    2957.0297    4.2764223    4.2764223    4.2764223    2957.0297   -37615.492    34270.663    12215.919    35466.502   -13583.838    7550.8152    78.206306 
   30200    1104.2545   -109.67094    0.9991527   -108.67179    10427.307    4.2829259    4.2829259    4.2829259    10427.307     -29008.2    3757.9522    56532.169   -24534.016   -16986.394    32545.109    78.563658 
   30300    2177.5755   -110.60126    1.9703161   -108.63094   -21133.879    4.3047496    4.3047496    4.3047496   -21133.879   -55590.899   -13631.201    5820.4632   -15690.868    10143.723   -9569.6866    79.770754 
   30400    1630.1844   -110.09863    1.4750251    -108.6236    -1669.686    4.2921179    4.2921179    4.2921179    -1669.686   -2425.6093   -28352.165    25768.717    35957.023   -9194.4309    1110.6376    79.070582 
   30500    1323.1325   -109.82148    1.1971981   -108.62428   -8954.7974     4.278079     4.278079     4.278079   -8954.7974   -17696.312   -6019.8074    -3148.273   -11800.276   -29154.279    22425.301    78.297233 
   30600     1764.668    -110.2333    1.5967087   -108.63659    2892.0555    4.2708198    4.2708198    4.2708198    2892.0555   -25882.646    39399.555   -4840.7422   -26330.108    14419.437   -4086.4365    77.899332 
   30700    1977.1747   -110.43787    1.7889892   -108.64889    11687.374    4.2772666    4.2772666    4.2772666    11687.374   -4224.6315    24531.168    14755.586    17416.453    25117.151    11809.469    78.252632 
   30800    1476.0288   -109.99022    1.3355418   -108.65468   -18716.937    4.3011971    4.3011971    4.3011971   -18716.937   -35577.552   -9866.2432   -10707.016   -7407.9149   -26226.187     38786.83     79.57342 
   30900    1275.3038   -109.78581    1.1539217   -108.63188   -17708.947    4.3011569    4.3011569    4.3011569   -17708.947   -68290.742    20883.961   -5720.0592   -27290.861    8264.0043    1743.0728    79.571192 
   31000     1686.597   -110.14232    1.5260684   -108.61625    17603.951    4.2812208    4.2812208    4.2812208    17603.951   -23406.471    44094.664     32123.66    983.44209    44597.498    4439.0897    78.469863 
   31100    1766.0568   -110.21988    1.5979653   -108.62191    30316.127    4.2699357    4.2699357    4.2699357    30316.127   -3257.9917    25197.463    69008.909    3258.7469   -12313.791    22295.845    77.850963 
   31200     1162.605   -109.70225    1.0519495   -108.65031   -22005.127    4.2840966    4.2840966    4.2840966   -22005.127   -65660.633    4033.4183   -4388.1657   -15239.136   -17194.528    14946.521    78.628099 
   31300    1308.0622   -109.82972    1.1835621   -108.64615   -25462.326    4.2887233    4.2887233    4.2887233   -25462.326   -77592.259    51001.914   -49796.632   -8622.9414    42769.703   -3154.8585     78.88312 
   31400     1771.125   -110.23427    1.6025511   -108.63172    4190.3279    4.2816277    4.2816277    4.2816277    4190.3279   -21876.822    43204.698   -8756.8918    16148.517    8986.6484   -7495.5645    78.492238 
   31500    1654.8918   -110.13745    1.4973809   -108.64007   -22164.433    4.2835317    4.2835317    4.2835317   -22164.433   -38523.196    -12635.47   -15334.632    11693.028   -13416.251     22824.87    78.596997 
   31600    1500.2641   -109.99881    1.3574705   -108.64134    9944.8166    4.2697908    4.2697908    4.2697908    9944.8166    -39568.05    81471.584   -12069.084   -11080.101    6775.6138    680.56466    77.843042 
   31700    1375.9217   -109.89935    1.2449629   -108.65438    6425.5018    4.2777064    4.2777064    4.2777064    6425.5018    -11603.35    4786.1432    26093.712    14910.646    8685.1518   -30548.218    78.276772 
   31800    1745.2411   -110.21803    1.5791308    -108.6389   -26475.024    4.2977999    4.2977999    4.2977999   -26475.024   -42185.405   -46228.423    8988.7557    23953.512   -752.61812   -9363.6054    79.385025 
   31900    1865.7068   -110.31178    1.6881308   -108.62365     -476.228    4.2850517    4.2850517    4.2850517     -476.228   -30521.454    15006.171    14086.599   -995.01344    2307.7985     3849.367    78.680699 
   32000     1127.728   -109.65224     1.020392   -108.63184    28964.329    4.2819266    4.2819266    4.2819266    28964.329    36032.162     22994.13    27866.695    1780.5204    8136.5477   -39876.737    78.508677 
   32100    2035.7151   -110.45553    1.8419578   -108.61357   -16923.987     4.296088     4.296088     4.296088   -16923.987   -11721.769   -46871.151      7820.96    11446.886    1655.9373    4947.8728    79.290199 
   32200     1344.934   -109.84039    1.2169246   -108.62346    3159.6338    4.2846546    4.2846546    4.2846546    3159.6338    -12070.01    20115.383    1433.5283    8128.5505    259.96321     24657.19    78.658826 
   32300    1707.2643   -110.17271    1.5447686   -108.62794    11440.392    4.2789842    4.2789842    4.2789842    11440.392   -11034.469    43533.253    1822.3909   -1259.2806    12718.551   -20352.964    78.346944 
   32400    1825.7162   -110.28087    1.6519464   -108.62893    9382.6596    4.2827978    4.2827978    4.2827978    9382.6596    14013.816   -36370.784    50504.947   -6561.6113   -5659.9904     7741.086    78.556606 
   32500    821.36042   -109.39331   0.74318417   -108.65012    14046.939    4.2861956    4.2861956    4.2861956    14046.939    25032.782    3832.8834    13275.153    186.68776    -611.5474    42382.625    78.743726 
   32600    1990.1569   -110.41875    1.8007358   -108.61801   -10625.897    4.2966673    4.2966673    4.2966673   -10625.897   -28258.577   -13693.206    10074.092    1944.0027    1072.2215   -13238.159    79.322279 
   32700    1537.7656   -110.00786    1.3914027   -108.61646    4478.1042    4.2842001    4.2842001    4.2842001    4478.1042    33947.203   -47730.191    27217.301   -6973.4122    1127.1821    2967.6791    78.633797 
   32800    1361.4659   -109.85281    1.2318829   -108.62093    13867.768    4.2804764    4.2804764    4.2804764    13867.768     26310.28    -24137.82    39430.845    3310.0598    6439.5301    40785.591    78.428934 
   32900    1548.4423   -110.02263    1.4010632   -108.62157    -12511.89    4.2939203    4.2939203    4.2939203    -12511.89   -21316.803   -7957.8783   -8260.9896    8751.6328   -17917.086   -24844.419    79.170238 
   33000     1162.353    -109.6846    1.0517214   -108.63288   -1561.6251    4.2844941    4.2844941    4.2844941   -1561.6251    33678.354   -44031.837    5668.6084   -20217.426    2596.3423   -37737.143    78.649987 
   33100    2123.2149   -110.53977    1.9211294   -108.61864    18206.318    4.2773507    4.2773507    4.2773507    18206.318    20808.589   -14245.383     48055.75   -6204.0957   -4702.9092    20754.002     78.25725 
   33200    1322.1364   -109.83179    1.1962968   -108.63549   -23886.678    4.2960899    4.2960899    4.2960899   -23886.678   -30131.688   -12739.993   -28788.353   -3168.9236   -26265.949   -23627.676    79.290306 
   33300    1013.7068   -109.54733   0.91722318   -108.63011    -16343.64     4.294565     4.294565     4.294565    -16343.64    32751.071   -39629.175   -42152.817   -12796.438    5150.1201   -37860.487    79.205899 
   33400    2198.0454   -110.59608    1.9888376   -108.60725    22723.525    4.2791699    4.2791699    4.2791699    22723.525    20524.746    5907.0764    41738.753   -15749.161    10926.996    29970.077    78.357144 
   33500    1722.2513   -110.18539    1.5583291   -108.62706   -5102.6704    4.2846986    4.2846986    4.2846986   -5102.6704   -4745.3209    12834.396   -23397.087    3072.3515   -29365.241   -3114.6203    78.661248 
   33600    1345.1748   -109.85436    1.2171424   -108.63722    14512.422    4.2850033    4.2850033    4.2850033    14512.422    33386.967    14171.704   -4021.4046   -7044.8985   -9297.1001   -39268.547    78.678029 
   33700    1758.6757   -110.22744    1.5912867   -108.63615    3420.7359     4.287902     4.287902     4.287902    3420.7359    31009.599   -29705.764    8958.3731   -25192.165    9052.7665    28158.701     78.83781 
   33800     1642.742   -110.12378    1.4863875   -108.63739    544.18896    4.2853402    4.2853402    4.2853402    544.18896     8904.659    26734.078    -34006.17   -1443.0035   -9407.8903    31310.578     78.69659 
   33900     1646.836   -110.12341    1.4900918   -108.63332    16261.722    4.2792255    4.2792255    4.2792255    16261.722    30383.927    25283.615   -6882.3776   -5333.6308   -18674.449   -35017.241      78.3602 
   34000    1586.9251   -110.06978    1.4358831   -108.63389   -12088.267    4.2908403    4.2908403    4.2908403   -12088.267    18271.511   -30490.419   -24045.894   -32288.128   -3738.4716    10027.614    78.999994 
   34100    1730.7054     -110.187    1.5659786   -108.62103    6219.1737    4.2910237    4.2910237    4.2910237    6219.1737   -8176.6797     61948.18   -35113.979   -2859.4655    4844.6906    31609.077    79.010126 
   34200    1213.8307   -109.72672    1.0982995   -108.62842   -25221.274    4.2881431    4.2881431    4.2881431   -25221.274   -33579.818     12264.79   -54348.793    15242.861   -24983.214   -30839.886    78.851108 
   34300    1394.9203   -109.90367    1.2621532   -108.64152   -25886.567    4.2750992    4.2750992    4.2750992   -25886.567   -12557.882   -36717.728   -28384.091   -13845.717   -6253.3444   -27057.663    78.133737 
   34400    2174.8192   -110.60201    1.9678221   -108.63419    22900.183    4.2641511    4.2641511    4.2641511    22900.183    23396.824    30900.831    14402.895    -20693.17    856.99255    7598.2856    77.534996 
   34500    1214.3129   -109.76352    1.0987358   -108.66479   -25285.185    4.2928529    4.2928529    4.2928529   -25285.185    -4894.683   -8477.7662   -62483.105    6361.8418    -23350.55   -24392.852    79.111209 
   34600    944.85179    -109.4963   0.85492176   -108.64138   -23712.335     4.307112     4.307112     4.307112   -23712.335    14797.801   -39141.884   -46792.923   -2547.2331   -8166.8692   -22064.691    79.902154 
   34700    2222.0739   -110.61181    2.0105792   -108.60123   -7603.0665    4.2940841    4.2940841    4.2940841   -7603.0665    1600.9159    -20362.64   -4047.4753   -4354.2337     5997.407    30302.748    79.179294 
   34800    1197.9274   -109.69404    1.0839099   -108.61013   -7862.3861     4.281625     4.281625     4.281625   -7862.3861   -1587.3216   -2444.8009   -19555.036    3925.3159   -20157.976   -12795.166    78.492087 
   34900    1239.3778   -109.74447     1.121415   -108.62305    4952.5402    4.2791087    4.2791087    4.2791087    4952.5402   -13585.661   -10702.661    39145.942    4746.7843   -6528.7914   -28604.684     78.35378 
   35000    1589.1784    -110.0599     1.437922   -108.62198    13528.875    4.2866125    4.2866125    4.2866125    13528.875    8444.8214   -16952.826     49094.63   -2076.3981     8386.418    49024.779    78.766704 
   35100    1245.3008   -109.75818    1.1267744   -108.63141   -14901.529    4.2931675    4.2931675    4.2931675   -14901.529    390.71673   -38785.791   -6309.5127   -4362.9158   -1598.6877    7448.9999    79.128606 
   35200    1681.3811   -110.14685     1.521349   -108.62551    7132.4631    4.2790765    4.2790765    4.2790765    7132.4631    10528.878    4583.3861    6285.1252    6747.2962    -10174.42   -40278.595    78.352013 
   35300    1638.0749   -110.11127    1.4821646   -108.62911    25772.049    4.2738683    4.2738683    4.2738683    25772.049    26637.377    32257.058    18421.712    7768.6532    2381.5236    41847.641    78.066268 
   35400    1345.0622   -109.86019    1.2170406   -108.64315    -22875.32    4.3001347    4.3001347    4.3001347    -22875.32    -7660.055   -40409.749   -20556.157   -10050.462   -1597.2462    26688.972    79.514475 
   35500    1591.9946   -110.06381    1.4404702   -108.62334     -6965.85    4.2993461    4.2993461    4.2993461     -6965.85   -20972.347   -15149.114    15223.911    7658.7828   -9986.2724   -39697.032    79.470734 
   35600    1530.4351   -109.99813    1.3847699   -108.61336    19646.225    4.2775922    4.2775922    4.2775922    19646.225    14892.206    3276.2189    40770.251     11729.62    3545.9786    44938.508    78.270503 
   35700    1464.9673   -109.95418    1.3255332   -108.62865   -282.03169    4.2826285    4.2826285    4.2826285   -282.03169    16539.579   -3925.8105   -13459.864   -6675.8301    13793.342    21173.797    78.547293 
   35800     1616.172   -110.09155    1.4623464    -108.6292   -174.70705    4.2848129    4.2848129    4.2848129   -174.70705    18445.654   -7871.2633   -11098.511    11771.317   -26450.989    -45031.18    78.667541 
   35900    1528.1102    -110.0172    1.3826663   -108.63454   -13412.229    4.2895336    4.2895336    4.2895336   -13412.229    15024.198   -17498.469   -37762.415    7527.4981   -6091.5072    43470.668     78.92784 
   36000    1632.0253   -110.10188    1.4766907   -108.62519   -25242.513    4.2928528    4.2928528    4.2928528   -25242.513    20043.723   -33485.611   -62285.652   -1496.9661    4224.1288    28855.034    79.111206 
   36100    1615.6359   -110.08555    1.4618614   -108.62369    8405.2504     4.274835     4.274835     4.274835    8405.2504    34532.708   -5773.2699   -3543.6865    -4498.328   -27979.569   -58349.833    78.119252 
   36200    1120.8936   -109.65533    1.0142081   -108.64112    11102.601    4.2776253    4.2776253    4.2776253    11102.601    39028.864   -36997.114    31276.052    12664.633   -6345.3045    33183.992    78.272324 
   36300    1752.5011   -110.21286    1.5856998   -108.62717   -10022.199    4.2907894    4.2907894    4.2907894   -10022.199    1863.1455    -40033.07    8103.3284    5463.3448     112.2211     31309.02    78.997181 
   36400    1344.6407   -109.84582    1.2166592   -108.62916    1344.2006    4.2912053    4.2912053    4.2912053    1344.2006    10429.642   -37900.664    31503.624   -14360.985   -12621.182   -55759.412    79.020154 
   36500    1165.8771     -109.685    1.0549101   -108.63009    9796.3668    4.2863977    4.2863977    4.2863977    9796.3668    19549.642   -1117.4902    10956.949    17914.551   -20781.081   -2616.5751    78.754865 
   36600    1835.1969   -110.28103    1.6605247    -108.6205   -4644.2375    4.2896987    4.2896987    4.2896987   -4644.2375    13803.898   -40285.507    12548.897    1336.9467   -9411.8516    19801.467    78.936955 
   36700    1272.6374   -109.78019     1.151509   -108.62868   -20023.984    4.2914698    4.2914698    4.2914698   -20023.984    15992.536    -55343.48   -20721.009   -24046.853    6938.9765   -41500.833    79.034767 
   36800    1193.9199   -109.70511    1.0802838   -108.62482   -8287.4351    4.2844428    4.2844428    4.2844428   -8287.4351   -2448.8853   -26082.359     3668.939    32873.399   -17146.668   -17966.914     78.64716 
   36900    1733.6576   -110.18661    1.5686499   -108.61796    -674.8003    4.2912647    4.2912647    4.2912647    -674.8003    -4465.561    3434.4915   -993.33134    9541.3115   -9044.9331      4228.04    79.023438 
   37000    1069.3058   -109.58911   0.96753033   -108.62158    4257.3755    4.2903256    4.2903256    4.2903256    4257.3755    21806.665   -2430.2453   -6604.2937   -22083.047    23693.973    -41257.16    78.971567 
   37100    1465.9198   -109.94068     1.326395   -108.61428   -5183.8115    4.2818285    4.2818285    4.2818285   -5183.8115   -10781.619   -17414.889    12645.073    23251.039   -16223.477   -10538.469    78.503281 
   37200    1562.0233    -110.0294    1.4133515   -108.61605   -16712.777    4.2902934    4.2902934    4.2902934   -16712.777   -33221.237   -1230.9279   -15686.165    9352.8091   -22479.314    4434.5902    78.969787 
   37300    1147.8468   -109.66306    1.0385959   -108.62447   -24243.614    4.2876966    4.2876966    4.2876966   -24243.614   -14705.073   -26148.873   -31876.896   -10343.445    30856.652   -32013.632     78.82648 
   37400    1288.5193   -109.79973    1.1658793   -108.63386    11684.072    4.2800702    4.2800702    4.2800702    11684.072    10571.243    37936.565   -13455.593    3283.2182    9226.7787   -22796.794    78.406607 
   37500    2416.7028   -110.81548    2.1866835    -108.6288    9526.8496    4.2800476    4.2800476    4.2800476    9526.8496    11248.594     12346.38    4985.5752     19497.63   -9725.1504    14129.463    78.405366 
   37600    1024.7868   -109.58026   0.92724865   -108.65302    11098.376    4.2794825    4.2794825    4.2794825    11098.376    45091.525    707.07528   -12503.471   -12345.431    18992.066   -28258.275    78.374315 
   37700    1075.0852   -109.62763   0.97275968   -108.65487   -10221.611    4.2924801    4.2924801    4.2924801   -10221.611    56876.753   -40254.176   -47287.409   -27346.924    14848.996   -21191.965    79.090603 
   37800    2591.4247   -110.96554    2.3447756   -108.62077    -2366.851    4.2854466    4.2854466    4.2854466    -2366.851   -15005.064    21580.671    -13676.16    1771.8709   -19279.574    9668.2463    78.702453 
   37900    1332.7633    -109.8432    1.2059122   -108.63729    890.84163    4.2776168    4.2776168    4.2776168    890.84163    54063.613   -16939.159   -34451.929    4474.6837   -4515.1712   -30896.241    78.271857 
   38000    1307.9189   -109.82608    1.1834325   -108.64265   -31599.137     4.286433     4.286433     4.286433   -31599.137   -19874.141   -45653.911    -29269.36   -19750.315    30111.003   -26672.782    78.756813 
   38100     1902.984   -110.34883    1.7218599   -108.62697   -7591.4745     4.282456     4.282456     4.282456   -7591.4745   -28370.304    22538.694   -16942.813    9795.0173   -30267.294    14254.883    78.537797 
   38200    1525.2581   -110.01407    1.3800856   -108.63399    -22590.82    4.2851191    4.2851191    4.2851191    -22590.82   -27651.066    15241.936   -55363.328    1156.9442   -21403.924   -20891.388    78.684408 
   38300    1464.7312   -109.96012    1.3253195    -108.6348   -23041.268     4.284096     4.284096     4.284096   -23041.268   -18554.622   -11441.717   -39127.467   -20333.222     45741.64   -35612.144    78.628061 
   38400    1543.5024   -110.03075    1.3965935   -108.63416   -4400.7151    4.2787539    4.2787539    4.2787539   -4400.7151   -41195.881    40312.298   -12318.562   -773.12335   -38855.521    11120.063    78.334293 
   38500    1737.2451   -110.20278    1.5718958   -108.63088   -8859.2207    4.2872625    4.2872625    4.2872625   -8859.2207   -7689.8829    18423.175   -37310.954    17866.644    -23861.86    58.712989    78.802543 
   38600    1081.0461   -109.61307    0.9781532   -108.63491   -57.267287       4.2865       4.2865       4.2865   -57.267287    8991.8039    1522.7484   -10686.354    1035.3142    35698.012   -33185.834    78.760504 
   38700    1333.0487   -109.83522    1.2061705   -108.62905    4750.2548    4.2931786    4.2931786    4.2931786    4750.2548   -45934.536    24914.054    35271.246   -13866.472    -6807.018    9677.3908    79.129218 
   38800    1864.7494   -110.29984    1.6872644   -108.61258   -8855.3996    4.2940255    4.2940255    4.2940255   -8855.3996   -37730.308    6137.2614    5026.8481    5400.7892   -8919.7161     569.3406    79.176056 
   38900    914.06731   -109.45389   0.82706731   -108.62682    41361.243    4.2676958    4.2676958    4.2676958    41361.243    47324.712    37501.365    39257.652   -2115.3349    20286.964   -53812.126    77.728515 
   39000    1426.4426   -109.92929    1.2906752   -108.63861    23117.259    4.2816802    4.2816802    4.2816802    23117.259    20321.767     43188.03      5841.98   -13577.055    14394.241    12270.232    78.495124 
   39100    1936.6507    -110.3592    1.7523222   -108.60687   -13737.028    4.3067754    4.3067754    4.3067754   -13737.028   -31608.011   -20935.331    11332.257    -15821.67   -8632.1291   -1657.8209    79.883426 
   39200    903.89613   -109.42769   0.81786421   -108.60982    260.76065    4.2958395    4.2958395    4.2958395    260.76065    12275.666    11410.893   -22904.277    3566.3198    24620.677   -49997.571     79.27644 
   39300    1507.9177   -109.95931    1.3643956   -108.59491    29005.863    4.2767543    4.2767543    4.2767543    29005.863    35483.608    38259.221    13274.762   -16341.154    24738.111    22554.706    78.224521 
   39400    1687.4355   -110.13935    1.5268271   -108.61252    14838.571    4.2746235    4.2746235    4.2746235    14838.571    30945.333   -2060.7289    15631.107   -11934.067   -14786.787   -17713.378    78.107654 
   39500     1036.853   -109.57491   0.93816639   -108.63675    -12340.74     4.290038     4.290038     4.290038    -12340.74    26990.601   -8651.8124   -55361.009    4116.0984    22338.088   -58592.848    78.955689 
   39600    1401.8412    -109.8968    1.2684154   -108.62839    7335.7714    4.2906702    4.2906702    4.2906702    7335.7714   -16833.018    38535.037    305.29506   -8562.2079    40523.424    16402.521    78.990597 
   39700    2029.9265   -110.45535    1.8367202   -108.61863    251.98306    4.2874263    4.2874263    4.2874263    251.98306    14810.441   -31006.346    16951.854   -12002.115   -12455.976   -6374.7647    78.811574 
   39800    894.03778   -109.44733   0.80894418   -108.63839   -14497.117    4.2851504    4.2851504    4.2851504   -14497.117   -1799.1458   -10381.303   -31310.901   -2359.5084    35876.203   -57136.184    78.686131 
   39900    1476.5581   -109.97098    1.3360208   -108.63496   -717.67694    4.2758667    4.2758667    4.2758667   -717.67694   -24829.678     46352.41   -23675.764    -11123.49    40218.796   -1715.9009    78.175825 
   40000    2239.4531   -110.65482    2.0263042   -108.62852   -15900.247    4.2906432    4.2906432    4.2906432   -15900.247    22492.129   -38527.344   -31665.526    1119.2367   -11566.896   -12224.507    78.989109 
   40100    1029.1638   -109.56786   0.93120904   -108.63665   -28706.096    4.2958702    4.2958702    4.2958702   -28706.096    28087.738   -39880.391   -74325.636   -12735.014    25268.649   -65086.386    79.278141 
   40200    1513.1316   -109.98749    1.3691133   -108.61838    22770.544    4.2764471    4.2764471    4.2764471    22770.544    43239.156    42727.561   -17655.086    6553.6057    45364.554    2348.8968    78.207665 
   40300    2065.7339   -110.48337    1.8691194   -108.61425   -11012.705    4.2890405    4.2890405    4.2890405   -11012.705    47597.905   -41666.948   -38969.072   -1199.3111   -16972.706   -11377.019    78.900626 
   40400    984.42305   -109.50738   0.89072666   -108.61666   -14745.535    4.2958487    4.2958487    4.2958487   -14745.535    50218.491   -46424.214   -48030.881   -4078.3983    16440.384   -64550.926    79.276948 
   40500    1866.2264   -110.28744    1.6886009   -108.59883    15965.517    4.2892694    4.2892694    4.2892694    15965.517    2737.9439    38399.408    6759.1975    7847.5179    43630.765    19081.453    78.913256 
   40600    1670.5278   -110.11309    1.5115287   -108.60156   -19108.073    4.2983035    4.2983035    4.2983035   -19108.073    13843.398   -38091.418   -33076.198   -1883.9542   -19493.041   -19748.001     79.41293 
   40700    951.96351   -109.47625   0.86135659   -108.61489   -6131.1699     4.285049     4.285049     4.285049   -6131.1699    9870.5687    -7526.518   -20737.561    5408.9385    23737.559   -45374.249    78.680549 
   40800    1943.7931   -110.36784    1.7587848   -108.60906    42098.082    4.2715016    4.2715016    4.2715016    42098.082    -3470.996    129510.18    255.06587    4332.3066     19617.68    21057.412     77.93665 
   40900      1602.01    -110.0823    1.4495323   -108.63277     1403.944    4.2874479    4.2874479    4.2874479     1403.944    1365.5681     39443.19   -36596.926    3229.4243   -18453.948   -21960.174    78.812763 
   41000    728.83742   -109.30389   0.65946741   -108.64443   -28212.727    4.3016202    4.3016202    4.3016202   -28212.727   -2442.1413   -692.42637   -81503.613    12226.208    16845.454   -35561.033    79.596907 
   41100    2304.7355   -110.69351    2.0853731   -108.60814    1914.3632    4.2939492    4.2939492    4.2939492    1914.3632    755.12545    12118.305   -7130.3403   -12074.053    11867.145    5436.9963    79.171833 
   41200    1392.6806   -109.88217    1.2601266   -108.62204   -20924.896    4.2911908    4.2911908    4.2911908   -20924.896    21267.904     -34511.9   -49530.693   -9927.2502   -12443.186   -13713.678    79.019353 
   41300    1032.7131   -109.55806   0.93442048   -108.62364    1581.3299    4.2754908    4.2754908    4.2754908    1581.3299    51431.957   -8072.9184   -38615.049    11307.351    14382.039   -34588.178    78.155209 
   41400    2055.7969   -110.47937    1.8601283   -108.61924    26174.179    4.2852669    4.2852669    4.2852669    26174.179    13497.961    71360.289   -6335.7118   -11021.577    34.811526    10988.185    78.692553 
   41500     857.5334   -109.40217   0.77591424   -108.62626   -17270.037    4.3088958    4.3088958    4.3088958   -17270.037   -28825.041    43685.557   -66670.626   -5354.5353   -28657.727   -20355.088    80.001471 
   41600    1445.0506    -109.9053    1.3075122   -108.59779    14023.906    4.2923795    4.2923795    4.2923795    14023.906    21864.728    39565.607   -19358.616    7241.1193    4888.7844    -25864.54    79.085042 
   41700    1721.7123   -110.15651    1.5578415   -108.59867    22821.484    4.2760287    4.2760287    4.2760287    22821.484    11001.312    32339.407    25123.732   -28604.898   -3960.3751    23729.478    78.184711 
   41800     1224.305   -109.73864    1.1077769   -108.63086   -25554.157    4.2801641    4.2801641    4.2801641   -25554.157   -30037.513   -37666.285   -8958.6719   -21781.875   -22899.957   -29543.526     78.41177 
   41900    1323.5569   -109.84016    1.1975821   -108.64258   -7621.5954    4.2831243    4.2831243    4.2831243   -7621.5954    17327.393   -52255.648     12063.47    17438.539   -1796.5608   -44837.909    78.574574 
   42000    1989.4477    -110.4365    1.8000941   -108.63641    4736.7417    4.2897165    4.2897165    4.2897165    4736.7417   -26715.634    19743.468    21182.391   -14280.119    9189.9777    12987.747    78.937935 
   42100    1148.7698   -109.68061    1.0394311   -108.64118   -24597.664    4.2990474    4.2990474    4.2990474   -24597.664   -55382.358   -37253.321    18842.688   -36203.217   -23630.977   -17641.066    79.454169 
   42200     1426.486   -109.92269    1.2907145   -108.63198    9140.7209    4.2748858    4.2748858    4.2748858    9140.7209    22357.193    3532.4463    1532.5233    8162.5729   -10737.731    -52595.19    78.122035 
   42300    2007.5282   -110.44074    1.8164537   -108.62429    31478.433    4.2720836    4.2720836    4.2720836    31478.433   -9618.3958    48403.632    55650.064   -16813.157    7311.6771    2934.3582    77.968508 
   42400    1200.9718   -109.72897    1.0866646    -108.6423   -1453.4489    4.2990448    4.2990448    4.2990448   -1453.4489   -29555.978   -12834.505    38030.136   -39287.284   -14018.354   -5444.5094    79.454026 
   42500    1527.8391   -110.00282     1.382421    -108.6204    890.48148    4.2955592    4.2955592    4.2955592    890.48148    27462.889   -7865.1643    -16926.28    10114.949    3560.4549   -35109.578    79.260921 
   42600     1761.283   -110.19167    1.5936458   -108.59802    16940.114    4.2858963    4.2858963    4.2858963    16940.114   -22154.167    -4672.919     77647.43    -32399.22   -2177.4678    1126.5361     78.72723 
   42700    1262.9893   -109.75918    1.1427793    -108.6164   -1243.7531    4.2876008    4.2876008    4.2876008   -1243.7531   -10372.263   -43392.652    50033.656   -32505.395    -3442.233   -395.85753      78.8212 
   42800    1679.1416   -110.13369    1.5193226   -108.61437    1550.6109     4.283222     4.283222     4.283222    1550.6109    29853.948   -24445.831   -756.28416    9350.8243   -15661.945   -44782.617    78.579949 
   42900    1524.6947   -110.00755    1.3795758   -108.62797    10022.044    4.2796105    4.2796105    4.2796105    10022.044    22516.407   -23086.595    30636.319   -24873.274    7906.6727    532.47247    78.381351 
   43000    1317.6998   -109.82791    1.1922825   -108.63563   -6100.9594    4.2907303    4.2907303    4.2907303   -6100.9594     6525.766   -48539.936    23711.292   -15477.724    4652.8376    22133.942     78.99392 
   43100    1544.6768   -110.01858     1.397656   -108.62093   -47.903748    4.2997221    4.2997221    4.2997221   -47.903748     53054.58   -24387.978   -28810.313    12381.564   -23213.394   -22583.443    79.491584 
   43200    1524.1579   -109.98664    1.3790901   -108.60755    -14487.09    4.3026185    4.3026185    4.3026185    -14487.09   -15958.993   -55706.675      28204.4   -39104.345    11996.629    550.27527    79.652335 
   43300    1269.3932   -109.74603    1.1485736   -108.59746   -8602.4049    4.2955702    4.2955702    4.2955702   -8602.4049   -20615.905   -32865.596    27674.287       -12818    3616.1675    3564.6625    79.261531 
   43400    1623.1405   -110.06221    1.4686516   -108.59356    39224.223     4.276058     4.276058     4.276058    39224.223    35641.783    9837.6461    72193.239    17372.836   -17650.218   -7881.7895     78.18632 
   43500    1080.0746   -109.60827   0.97727423     -108.631    1452.3044    4.2926371    4.2926371    4.2926371    1452.3044   -82482.901   -15611.848    102451.66   -66325.359    4931.8787   -17871.354    79.099279 
   43600     1553.075    -110.0146    1.4052549   -108.60935    1467.8021     4.305251     4.305251     4.305251    1467.8021   -53474.922   -4250.0653    62128.394    5492.3354    2040.6465   -9105.2523    79.798631 
   43700    1344.2322   -109.81686    1.2162895   -108.60057    17287.745    4.2989386    4.2989386    4.2989386    17287.745   -44468.926    29344.285    66987.877   -5133.9078     409.2512    2101.3969     79.44814 
   43800    967.16694   -109.49801   0.87511297   -108.62289    -31119.68    4.3035641    4.3035641    4.3035641    -31119.68    -96284.15   -43273.135    46198.247   -77221.692    -4804.907    3836.1468    79.704864 
   43900    2495.2288   -110.84282    2.2577354   -108.58509    19171.878    4.2822526    4.2822526    4.2822526    19171.878   -7607.6114    47782.317    17340.927    16469.266   -2592.1463   -9848.1856     78.52661 
   44000     1275.752   -109.77969    1.1543273   -108.62536   -6720.8701    4.2914114    4.2914114    4.2914114   -6720.8701   -50041.975   -52377.058    82256.423   -70808.566    15883.741    4833.4953    79.031542 
   44100    1682.2777   -110.13147    1.5221602   -108.60931   -38075.422    4.3073767    4.3073767    4.3073767   -38075.422   -63599.605   -49349.073   -1277.5874   -5206.9218    2289.4912    4560.1117    79.916886 
   44200    1585.4354   -110.03237    1.4345353   -108.59783    24881.749    4.2871795    4.2871795    4.2871795    24881.749   -6861.3895     14604.71    66901.928   -955.79342    2037.5179   -3084.7138    78.797965 
   44300    1723.4735   -110.17186    1.5594351   -108.61243   -9545.4585    4.2904206    4.2904206    4.2904206   -9545.4585    -44786.67   -32083.681    48233.976   -50820.591    1184.8938   -4846.9387    78.976815 
   44400    1641.9439   -110.10064    1.4856653   -108.61497   -3934.8556    4.2859486    4.2859486    4.2859486   -3934.8556   -8843.0189   -26113.991    23152.443    6384.8399    18194.595    23771.512    78.730111 
   44500    1126.2912   -109.64678     1.019092   -108.62769    30447.783    4.2817461    4.2817461    4.2817461    30447.783   -13987.212    43387.027    61943.535    8205.8807   -13890.148    636.68979    78.498748 
   44600    2118.1913   -110.52927     1.916584   -108.61268   -18959.959    4.3101003    4.3101003    4.3101003   -18959.959   -27457.257   -4267.5956   -25155.025   -20469.962    4239.5131   -4437.2799    80.068583 
   44700    967.12345   -109.48192   0.87507363   -108.60685   -4538.3309    4.3023148    4.3023148    4.3023148   -4538.3309    765.48838   -9272.2745   -5108.2065    15730.446   -1083.6496    45925.766    79.635472 
   44800    1146.2178   -109.62075     1.037122   -108.58363    31773.479    4.2823087    4.2823087    4.2823087    31773.479    3850.9616    54573.441    36896.033    25042.402     -1803.52   -25990.719    78.529696 
   44900    1615.8715   -110.05073    1.4620745   -108.58866   -10768.153    4.2925963    4.2925963    4.2925963   -10768.153     1124.047   -6339.9725   -27088.533    1518.5043    9784.8389    18553.279    79.097026 
   45000    1233.8753   -109.72649    1.1164363   -108.61006    6805.2042    4.2828972    4.2828972    4.2828972    6805.2042    20477.818    8462.5433   -8524.7485   -1467.2758    2218.7666    77965.978    78.562073 
   45100    1384.0922   -109.87778    1.2523557   -108.62543    9579.6489    4.2795566    4.2795566    4.2795566    9579.6489   -13379.201    17984.999    24133.149    27795.105   -1073.1438   -25956.128    78.378386 
   45200    1115.0826   -109.64383    1.0089502   -108.63488   -22708.352     4.296522     4.296522     4.296522   -22708.352   -24864.372   -27709.251   -15551.435    127.47475    6950.1014    5814.4582     79.31423 
   45300    1828.4728   -110.26691    1.6544406   -108.61247   -17708.004    4.2948587    4.2948587    4.2948587   -17708.004   -16841.759   -13923.837   -22358.418    1796.5871    2086.4678    50329.185    79.222153 
   45400    1392.1597   -109.87555    1.2596553    -108.6159   -20724.476    4.2963011    4.2963011    4.2963011   -20724.476   -19925.794   -56147.957    13900.322    43904.095    7527.1027   -23001.503    79.301998 
   45500    1380.8855   -109.86925    1.2494542   -108.61979   -35316.827    4.2903713    4.2903713    4.2903713   -35316.827   -35832.007   -63560.402   -6558.0713     3415.695    4690.2918   -6460.2489    78.974089 
   45600    1930.0347   -110.35473     1.746336   -108.60839    20342.859    4.2739071    4.2739071    4.2739071    20342.859    33590.533    24268.591     3169.453   -5630.4069    13453.232    23757.955    78.068392 
   45700    1065.6455   -109.60109   0.96421849   -108.63687   -35453.496    4.3005212    4.3005212    4.3005212   -35453.496   -50248.076   -53769.319   -2343.0949    68178.042    7225.6607   -11007.855    79.535913 
   45800    1466.7699   -109.94704    1.3271642   -108.61988   -38843.303    4.3027753    4.3027753    4.3027753   -38843.303   -40848.357   -50004.409   -25677.142         3601   -2556.6015   -10655.562    79.661047 
   45900    2041.6873   -110.44292    1.8473616   -108.59556    22461.052    4.2714719    4.2714719    4.2714719    22461.052    32085.902     13403.89    21893.365    1774.4523    7582.4824    12082.694    77.935022 
   46000    794.38913   -109.34815   0.71877998   -108.62937   -10915.324    4.2827702    4.2827702    4.2827702   -10915.324   -31574.899   -40848.271      39677.2    79924.745    22837.439   -10456.611    78.555088 
   46100    1648.0121   -110.10287     1.491156   -108.61171   -12490.073    4.3021103    4.3021103    4.3021103   -12490.073    20377.834   -345.73838   -57502.315   -19806.253   -1087.4287     -5174.79    79.624117 
   46200     1363.407   -109.83089    1.2336393   -108.59725   -2736.9547     4.308557     4.308557     4.308557   -2736.9547   -12728.407    2455.1054    2062.4376    26129.913   -6824.7685   -3908.6305    79.982604 
   46300    862.42064   -109.37108   0.78033632   -108.59075   -18157.591    4.3079497    4.3079497    4.3079497   -18157.591   -33499.982   -16900.062   -4072.7294    62449.392   -1810.3948   -9653.9124    79.948786 
   46400    2272.3411   -110.63099     2.056062   -108.57493    23381.443    4.2772277    4.2772277    4.2772277    23381.443    51985.837     42598.02   -24439.529   -37308.297   -13044.242   -2008.0026    78.250496 
   46500     1139.933   -109.64389    1.0314353   -108.61246     -2337.99     4.267838     4.267838     4.267838     -2337.99   -3415.4251   -50003.966    46405.422    88802.728     7875.503   -16132.947    77.736283 
   46600    1285.7388   -109.79705    1.1633635   -108.63368   -36042.361    4.2845525    4.2845525    4.2845525   -36042.361   -60184.356   -44334.601    -3608.125    69202.015    8546.6412     3617.648    78.653202 
   46700    2091.4274   -110.51458    1.8923675   -108.62221   -5196.5343    4.2940448    4.2940448    4.2940448   -5196.5343      19858.9    5056.9242   -40505.427   -24245.917    2479.9883   -2638.9785    79.177122 
   46800     965.5253   -109.50492   0.87362758   -108.63129   -26006.943    4.3012327    4.3012327    4.3012327   -26006.943   -29345.493   -54690.543    6015.2056    87690.399   -6218.7147   -8109.8578    79.575395 
   46900    1609.0466   -110.07771    1.4558991   -108.62181    18022.183    4.2701328    4.2701328    4.2701328    18022.183   -5835.5209     42093.39     17808.68    24691.889   -2213.8149    6288.3239    77.861748 
   47000     1669.693   -110.12819    1.5107733   -108.61742    47800.284    4.2602642    4.2602642    4.2602642    47800.284    66437.541     64415.47    12547.841   -11139.263    5032.5603   -2828.7029     77.32316 
   47100    1135.8735   -109.66471    1.0277622   -108.63695   -37490.362    4.2977499    4.2977499    4.2977499   -37490.362   -65726.334   -46829.086    84.334592    85535.283   -6001.1457   -4802.1026    79.382254 
   47200    1948.4424   -110.37027    1.7629917   -108.60728   -9297.5358    4.2941184    4.2941184    4.2941184   -9297.5358    6352.8472   -15759.633   -18485.822    4008.6139    4466.9299     4414.377    79.181191 
   47300     1060.812   -109.57123   0.95984497   -108.61139    11335.161    4.2875679    4.2875679    4.2875679    11335.161     34269.56     2800.186   -3064.2637    2641.2165    9259.5821   -3049.1957    78.819382 
   47400    1436.7808   -109.91457    1.3000294   -108.61454   -24128.076    4.2877245    4.2877245    4.2877245   -24128.076   -40338.854   -40919.401    8874.0267    41637.835   -10678.172    2827.7925    78.828018 
   47500     1611.021   -110.06226    1.4576857   -108.60457    41896.683    4.2669253    4.2669253    4.2669253    41896.683    82035.656    21182.434     22471.96   -2931.8935    3927.0809    1554.7847    77.686422 
   47600    882.97811   -109.44343   0.79893715    -108.6445   -21754.135    4.2890834    4.2890834    4.2890834   -21754.135   -45088.212   -2177.6684   -17996.526   -25406.977    22061.964   -6121.4495    78.902995 
   47700    2162.2096   -110.57113    1.9564127   -108.61471   -19444.989    4.2978951    4.2978951    4.2978951   -19444.989   -26268.687   -9149.4061   -22916.873   -5586.5272    4295.5941    14289.142    79.390301 
   47800    1605.0856   -110.06758    1.4523151   -108.61526   -3180.4889    4.2830311    4.2830311    4.2830311   -3180.4889    12088.876   -13898.801   -7731.5413   -356.94672   -5967.3538   -17536.386    78.569446 
   47900    1062.2982   -109.58859   0.96118977    -108.6274   -17588.622    4.2859226    4.2859226    4.2859226   -17588.622   -20936.417    213.18226   -32042.632   -36743.757     19555.12   -3925.0681    78.728679 
   48000    2399.7981   -110.77738    2.1713878   -108.60599   -8003.1897    4.2961891    4.2961891    4.2961891   -8003.1897    -8402.156   -22357.315    6749.9016     -13925.9   -8160.6426    3322.9236    79.295798 
   48100    1432.8268   -109.91104    1.2964518   -108.61459   -40403.025    4.3026745    4.3026745    4.3026745   -40403.025    13640.618   -79250.146   -55599.545    9568.8443   -2731.6604   -1180.5437    79.655444 
   48200    1588.6267   -110.05144    1.4374228   -108.61402   -63.661799     4.274881     4.274881     4.274881   -63.661799    49657.735   -29612.361    -20236.36    -17213.62    13885.623     3573.473    78.121773 
   48300    2446.7164   -110.82251    2.2138404   -108.60867    16825.352    4.2648451    4.2648451    4.2648451    16825.352    13220.318   -13669.834    50925.571    10201.005   -13067.439   -601.29002    77.572856 
   48400    914.03162   -109.47946   0.82703502   -108.65243   -20708.503    4.2845058    4.2845058    4.2845058   -20708.503    25973.899   -65670.327   -22429.082    19069.016   -10132.547   -2284.4422    78.650631 
   48500     1307.137   -109.82661     1.182725   -108.64389   -8425.7891    4.2922645    4.2922645    4.2922645   -8425.7891    45890.406   -53218.298   -17949.476    1502.5122     9993.129   -8408.8195    79.078683 
   48600    2013.9146   -110.43759    1.8222323   -108.61535   -21375.604    4.3028757    4.3028757    4.3028757   -21375.604   -49961.999    -47814.59    33649.777   -15886.397   -13839.606    3012.7086    79.666621 
   48700    1000.7867   -109.53192    0.9055328   -108.62638   -21359.204    4.2844165    4.2844165    4.2844165   -21359.204   -11528.013   -36406.356   -16143.243    11186.577   -17308.283    2719.2276     78.64571 
   48800    1310.3166   -109.80022     1.185602   -108.61462    15824.413    4.2569011    4.2569011    4.2569011    15824.413    25054.302   -19301.006    41719.943    2377.4998    11482.269    7104.9209    77.140187 
   48900    1399.3559    -109.9111    1.2661666   -108.64493   -13171.738    4.2767948    4.2767948    4.2767948   -13171.738   -52652.615   -53125.665    66263.065   -71141.599   -2888.3012   -494.08813    78.226739 
   49000    1792.6773    -110.2534    1.6220521   -108.63135   -19981.489    4.2920318    4.2920318    4.2920318   -19981.489   -25879.421   -28569.915   -5495.1315    -1540.449   -24958.731   -902.38946    79.065822 
   49100    1237.3346   -109.75757    1.1195663     -108.638    13921.087    4.2870732    4.2870732    4.2870732    13921.087    54338.517    -3055.747   -9519.5081   -5738.3015    1507.3513   -4273.3317    78.792103 
   49200    1800.0127   -110.25515    1.6286893   -108.62646   -11341.554    4.2877017    4.2877017    4.2877017   -11341.554    15983.207   -65265.037    15257.166   -52792.108    9422.4535   -12904.856    78.826765 
   49300     1594.774   -110.06059    1.4429851    -108.6176    19464.643    4.2777691    4.2777691    4.2777691    19464.643     60127.27    8350.1885   -10083.528    12480.807   -13243.359    429.97259    78.280219 
   49400    1413.2012   -109.91375    1.2786941   -108.63506   -17458.509    4.2902472    4.2902472    4.2902472   -17458.509    12907.642   -9318.0298   -55965.141   -1672.3183    9920.1559    1107.3406    78.967239 
   49500    2236.1363   -110.62523    2.0233031   -108.60192    5836.4018    4.3050321    4.3050321    4.3050321    5836.4018    22311.781   -18902.139    14099.564    -7442.189   -347.62538    2929.9204    79.786456 
   49600    948.15519    -109.4569   0.85791074   -108.59899    22858.895    4.3148164    4.3148164    4.3148164    22858.895    10083.661    39094.333    19398.691    28384.418   -42521.457    26043.926    80.331703 
   49700    1577.3701   -109.98183    1.4272376   -108.55459   -1842.7419     4.317196     4.317196     4.317196   -1842.7419    7051.0984    22520.954   -35100.278    3393.9665    28984.309   -7337.0323    80.464683 
   49800    1767.8931   -110.14204    1.5996268   -108.54242    1242.1815    4.2909488    4.2909488    4.2909488    1242.1815   -4139.1703    10768.322   -2902.6071    10963.189   -17060.335   -3858.9871    79.005988 
   49900    1123.3313   -109.59421    1.0164138    -108.5778   -6095.7563    4.2761101    4.2761101    4.2761101   -6095.7563   -14306.229    11389.858   -15370.898    12551.782   -34858.195    13807.815    78.189175 
   50000    1730.6176   -110.17746    1.5658992   -108.61156   -11301.089    4.2773048    4.2773048    4.2773048   -11301.089    -33566.62    15110.081   -15446.729    2245.9532    41920.246   -4865.5612    78.254728 
   50100    1899.3998   -110.35255    1.7186169   -108.63394    14574.105    4.2770236    4.2770236    4.2770236    14574.105    -4809.593    19697.883    28834.025   -23932.298   -9826.1656   -9510.4375    78.239295 
   50200    1056.2511   -109.60989   0.95571823   -108.65417   -27920.988     4.295547     4.295547     4.295547   -27920.988    -69637.12    4178.8167    -18304.66    9551.5315   -41405.934    13590.158     79.26025 
   50300    1769.9678   -110.22878     1.601504   -108.62728   -15108.459    4.2960417    4.2960417    4.2960417   -15108.459   -48459.856    15365.252   -12230.774    20150.136    19045.739   -2211.3844    79.287637 
   50400    1570.0238   -110.02896    1.4205905   -108.60837   -3533.2087    4.2860032    4.2860032    4.2860032   -3533.2087   -47777.294    7510.1015    29667.567   -25224.792   -18705.841   -8622.4827    78.733124 
   50500    841.06787   -109.37311   0.76101589   -108.61209   -11991.588    4.2857274    4.2857274    4.2857274   -11991.588   -42887.209    22627.332   -15714.888    12263.715   -43536.343    3663.3945    78.717925 
   50600    2081.3049   -110.48057    1.8832084   -108.59737    7502.9818    4.2959328    4.2959328    4.2959328    7502.9818   -16766.454    5842.6045    33432.795    19759.807    23289.961   -4501.0128    79.281606 
   50700    1140.3833   -109.64461    1.0318428   -108.61277   -30363.916    4.3027731    4.3027731    4.3027731   -30363.916   -6513.1582   -31752.965   -52825.624   -13446.283   -18286.809   -843.05822    79.660925 
   50800    1090.7461   -109.61765      0.98693   -108.63072   -11334.308    4.2705269    4.2705269    4.2705269   -11334.308      2147.84   -18167.145   -17983.619   -2371.0243   -43675.528    3268.0307    77.883308 
   50900    2111.2007   -110.52379    1.9102588   -108.61353    40933.835    4.2532102    4.2532102    4.2532102    40933.835    44874.574    34470.115    43456.817    6415.1426    34174.531   -467.83552    76.939709 
   51000    892.52109   -109.46021   0.80757183   -108.65264    -41173.36    4.2925275    4.2925275    4.2925275    -41173.36   -59949.744    5430.1364   -69000.473   -2799.1743    22705.691   -12510.676    79.093219 
   51100    1475.9289   -109.95833    1.3354515   -108.62288   -35305.751    4.3032735    4.3032735    4.3032735   -35305.751   -35534.368   -42065.138   -28317.747   -9337.1172   -43446.764    -1165.864    79.688718 
   51200    2021.6283   -110.42506    1.8292118   -108.59585   -25273.064    4.2968339    4.2968339    4.2968339   -25273.064    12802.351   -33497.084   -55124.459    13355.029    35247.373    3985.4734    79.331504 
   51300    701.68252    -109.2499   0.63489709     -108.615   -19627.489    4.2736493    4.2736493    4.2736493   -19627.489    11818.329    2923.5756   -73624.373     3133.009    18218.843   -8783.9149    78.054264 
   51400    1612.7042   -110.07321    1.4592087     -108.614    25281.222    4.2635806    4.2635806    4.2635806    25281.222    58486.829    20258.768   -2901.9311   -16816.452   -36347.765    5165.2902     77.50388 
   51500    1630.0218   -110.10857     1.474878   -108.63369   -8089.3695    4.2922283    4.2922283    4.2922283   -8089.3695    45825.441   -40224.106   -29869.444    22797.569    6449.0127    9511.1894    79.076684 
   51600    1111.8107   -109.62831    1.0059897   -108.62232   -34332.205    4.3085672    4.3085672    4.3085672   -34332.205   -19577.906   -35446.717   -47971.992    7992.2477    13363.858   -1819.1875    79.983167 
   51700    2035.7823   -110.45403    1.8420186   -108.61201    5069.9441    4.2808421    4.2808421    4.2808421    5069.9441    27.895957    12416.885    2765.0511   -11300.086   -26252.568     2236.541    78.449041 
   51800    1486.7436    -109.9594    1.3452369   -108.61417    39461.372    4.2513722    4.2513722    4.2513722    39461.372    42541.237    6838.4615    69004.418    27685.787   -3849.2833    7516.5839    76.840008 
   51900    939.78216   -109.50666   0.85033465   -108.65633   -6193.3015     4.275146     4.275146     4.275146   -6193.3015    6412.7274   -31779.569    6786.9369    17220.271    36704.812    9044.9941    78.136302 
   52000    1998.9015   -110.43496    1.8086481   -108.62631   -11602.287      4.29789      4.29789      4.29789   -11602.287   -18057.063   -9532.1206   -7217.6779   -14584.086    11150.707   -170.34594    79.390018 
   52100    1566.7969   -110.03513    1.4176708   -108.61746   -8741.1109    4.2964598    4.2964598    4.2964598   -8741.1109   -37028.925   -17073.701    27879.294   -394.07536   -14765.863   -2960.1796    79.310786 
   52200    1100.9356   -109.61784    0.9961497   -108.62169   -15061.321     4.282298     4.282298     4.282298   -15061.321    -7678.554    10717.233   -48222.643    17130.622    42480.094    16560.041    78.529105 
   52300    1906.2203   -110.33706    1.7247882   -108.61227    27132.881    4.2515293    4.2515293    4.2515293    27132.881    3039.2658    53001.268    25358.111   -20639.286    22487.103    2922.5829    76.848526 
   52400     1062.336   -109.61526   0.96122389   -108.65404    293.79437    4.2686892    4.2686892    4.2686892    293.79437   -53394.349    2199.4132    52076.319   -32911.656   -15842.916   -1439.6357    77.782806 
   52500    1541.7878   -110.02991     1.395042   -108.63487   -32461.745    4.2992995    4.2992995    4.2992995   -32461.745   -32802.823   -43713.709   -20868.705    32952.619    3611.3459    15335.179    79.468149 
   52600    2060.4963   -110.47463    1.8643803   -108.61025    15833.975    4.2857478    4.2857478    4.2857478    15833.975    40.053842    41107.355     6354.515   -27606.339    2542.4236   -9655.2522    78.719048 
   52700    977.55942   -109.50958   0.88451631   -108.62506   -30047.552    4.2822047    4.2822047    4.2822047   -30047.552   -79194.955   -37305.498    26357.797    -38935.23   -14930.806   -3753.0141    78.523976 
   52800    1468.4956   -109.95859    1.3287257   -108.62986    -1661.713    4.2658027    4.2658027    4.2658027    -1661.713   -17179.139   -19940.669    32134.669    50556.087   -13235.803    16728.741    77.625122 
   52900    1998.6871   -110.44166    1.8084541   -108.63321    33995.344    4.2601808    4.2601808    4.2601808    33995.344    14853.725    37659.732    49472.574   -4419.1218    14935.205   -11505.992    77.318621 
   53000    1295.7278   -109.82199    1.1724017   -108.64959   -37376.967     4.295486     4.295486     4.295486   -37376.967   -68141.349   -64862.421    20872.868   -48306.166    1691.1456   -2353.6387    79.256871 
   53100    1708.9758   -110.17671    1.5463172   -108.63039    -4228.018    4.2829209    4.2829209    4.2829209    -4228.018   -19528.514   -25793.975    32638.435    15090.852   -17855.801    5318.2058    78.563381 
   53200    1761.4312   -110.21104      1.59378   -108.61726    17478.587     4.267123     4.267123     4.267123    17478.587   -9489.0545    22544.816    39379.999   -3438.2949    29528.296   -4684.9171    77.697221 
   53300    935.85432   -109.48228   0.84678066    -108.6355   -37083.773    4.2830409    4.2830409    4.2830409   -37083.773   -44289.221   -51829.643   -15132.454   -44548.457    21697.321   -8136.1384    78.569983 
   53400    2162.6418   -110.57856    1.9568038   -108.62176    4644.4583    4.2780052    4.2780052    4.2780052    4644.4583    14527.252   -20697.031    20103.154    17117.198   -12975.571   -10489.689    78.293177 
   53500    1911.5746   -110.35861    1.7296329   -108.62898   -22326.926    4.2902287    4.2902287    4.2902287   -22326.926   -41070.005   -7255.5202   -18655.253   -8545.1983    30318.891    6238.6144    78.966216 
   53600    670.48382   -109.25307   0.60666785   -108.64641   -40132.581    4.2849148    4.2849148    4.2849148   -40132.581   -44783.978   -35484.546   -40129.217    -50842.11    30812.058   -11688.351    78.673153 
   53700    2060.7055   -110.48754    1.8645696   -108.62297    24873.988    4.2583431    4.2583431    4.2583431    24873.988    40291.563    1206.4267    33123.973    4602.7697   -9900.4111   -18465.721    77.218602 
   53800    1688.3338   -110.16149    1.5276399   -108.63385   -15754.207    4.2796938    4.2796938    4.2796938   -15754.207   -45234.953    9469.9864   -11497.654   -706.76579   -13112.157    9008.3218    78.385927 
   53900    1240.2285   -109.75837    1.1221848   -108.63618   -16222.859    4.2826802    4.2826802    4.2826802   -16222.859    -15114.53    -17398.89   -16155.158   -22766.537    15568.402   -7617.5295    78.550133 
   54000    1867.4854   -110.31476      1.68974   -108.62502    9596.2453    4.2782864    4.2782864    4.2782864    9596.2453     27977.73   -1901.0636    2712.0694    4365.1246    1859.4817   -17067.839    78.308616 
   54100    1118.1586   -109.64663    1.0117334    -108.6349    -35002.71    4.2855794    4.2855794    4.2855794    -35002.71   -80196.027    4784.2146   -29596.317    22711.578   -38181.955     6087.573    78.709767 
   54200    1577.2994    -110.0578    1.4271736   -108.63063    3371.9921    4.2676823    4.2676823    4.2676823    3371.9921    16133.845    3600.7934   -9618.6624    -20690.56   -851.37826    367.40654    77.727775 
   54300    2195.8254   -110.61355     1.986829   -108.62672    4278.7999    4.2754435    4.2754435    4.2754435    4278.7999    31593.769    3946.0452   -22703.415   -6205.5751    5544.6141   -15016.675    78.152614 
   54400    890.36954   -109.45254   0.80562507   -108.64692   -12926.368    4.2832753    4.2832753    4.2832753   -12926.368   -17981.703   -2231.5082   -18565.892    50157.094   -38095.177    411.58652    78.582886 
   54500    1579.7376   -110.07132    1.4293798   -108.64194    5321.9403    4.2835585    4.2835585    4.2835585    5321.9403    18573.644    16811.315   -19419.138    9507.5261    -9454.466     2400.592    78.598473 
   54600     2397.933   -110.79143    2.1697002   -108.62173    2210.1068    4.2850356    4.2850356    4.2850356    2210.1068    30838.425    1774.9051    -25983.01   -10282.041    6505.1111    7489.3704    78.679812 
   54700    904.46995   -109.45716   0.81838342   -108.63878    10923.789    4.2737698    4.2737698    4.2737698    10923.789   -29461.687    81185.564   -18952.509    28241.783   -41916.631   -4043.9702     78.06087 
   54800    1650.4829   -110.12614    1.4933916   -108.63275    6815.1369    4.2766381    4.2766381    4.2766381    6815.1369   -6961.0448    40106.904   -12700.448     21770.99   -12814.576    163.47299    78.218141 
   54900    2257.2395   -110.66547    2.0423977   -108.62307    7447.9837    4.2783144    4.2783144    4.2783144    7447.9837    19613.557    18607.321   -15876.926   -21423.905     14190.29    820.01462    78.310157 
   55000    871.86939   -109.43759   0.78888575    -108.6487   -16501.044    4.2819087    4.2819087    4.2819087   -16501.044   -53977.634    37925.301   -33450.798    21241.957   -39397.734   -3182.1997    78.507694 
   55100      1788.42   -110.24876       1.6182   -108.63056    2966.4608    4.2830094    4.2830094    4.2830094    2966.4608   -3410.7253    31706.963   -19396.856    35064.719    -13187.81    1610.3129    78.568251 
   55200    2029.6335   -110.46061    1.8364551   -108.62415    2990.3342    4.2763374    4.2763374    4.2763374    2990.3342   -5103.6478    39797.229   -25722.578   -23043.174    16603.384   -2972.2696    78.201646 
   55300    1057.9269   -109.59458   0.95723452   -108.63734    7572.0398     4.274413     4.274413     4.274413    7572.0398   -27087.754    74631.114   -24827.241    9660.7335   -22192.589    7158.5746    78.096118 
   55400    2104.0138   -110.52548    1.9037559   -108.62173   -6391.7794    4.2841639    4.2841639    4.2841639   -6391.7794   -4434.1533    14208.326   -28949.511    8829.7033   -15836.044   -11681.146    78.631803 
   55500    1621.2297   -110.09602    1.4669227    -108.6291     9383.649    4.2777994    4.2777994    4.2777994     9383.649     10084.51    44417.705   -26351.268   -10857.789    39005.668   -18234.652    78.281877 
   55600    1100.9695   -109.63925   0.99618038   -108.64307   -384.97543    4.2760964    4.2760964    4.2760964   -384.97543   -6260.3959    28059.375   -22953.905   -23308.076    7334.2852    4973.1242    78.188422 
   55700    2258.4275   -110.67124    2.0434727   -108.62777   -1948.9902    4.2762979    4.2762979    4.2762979   -1948.9902    15955.753   -280.73091   -21521.992    814.47923   -30308.925    2463.7479    78.199478 
   55800    1252.8866   -109.77427    1.1336381   -108.64063    8536.9957    4.2740427    4.2740427    4.2740427    8536.9957    17079.877    4593.4021    3937.7085    15265.024    40746.086   -5095.4645    78.075825 
   55900    1368.7425   -109.87693     1.238467   -108.63846   -18412.771    4.2891775    4.2891775    4.2891775   -18412.771   -42719.209   -2336.9823   -10182.123   -15064.134    37247.676   -13803.239    78.908186 
   56000    2197.7296   -110.60406    1.9885519   -108.61551   -4942.7293    4.2795066    4.2795066    4.2795066   -4942.7293    12579.589   -33534.368    6126.5916   -5954.4931   -24788.956    31252.326    78.375642 
   56100    944.68209   -109.48429    0.8547682   -108.62952    2266.7508    4.2662262    4.2662262    4.2662262    2266.7508    11533.633   -10820.253    6086.8728    16097.951    36122.134      24257.7    77.648245 
   56200    1285.5187   -109.80319    1.1631643   -108.64003   -21604.596    4.2757036    4.2757036    4.2757036   -21604.596    -30679.22   -6595.0948   -27539.472    865.77555    43234.128   -24619.415    78.166878 
   56300    1925.9413   -110.37243    1.7426322    -108.6298   -3518.0105    4.2769989    4.2769989    4.2769989   -3518.0105    29030.545    -21649.45   -17935.127   -7953.3501   -33372.553    24052.815    78.237942 
   56400    887.04238   -109.44337   0.80261458   -108.64075   -806.73224    4.2839775    4.2839775    4.2839775   -806.73224    48617.649   -15932.977   -35104.868    11132.201    24943.767    21543.012    78.621538 
   56500     1408.762   -109.90293    1.2746774   -108.62826   -13673.782    4.2856249    4.2856249    4.2856249   -13673.782   -21262.988   -2973.2315   -16785.126     8998.406    50283.707   -13425.637    78.712274 
   56600       1665.4   -110.12571     1.506889   -108.61882    22399.503    4.2662191    4.2662191    4.2662191    22399.503     51602.07     9592.081    6004.3576   -1078.4049   -47138.232    9843.4172    77.647855 
   56700    1045.5598   -109.58253   0.94604452   -108.63648    960.01229     4.269482     4.269482     4.269482    960.01229    37229.853    11541.132   -45890.948   -1303.0758    9752.4248    29429.769     77.82615 
   56800    1360.0944   -109.86538     1.230642   -108.63474    634.51539    4.2812701    4.2812701    4.2812701    634.51539   -19488.193    7356.0142    14035.725    7765.6815    53279.952     5075.038     78.47257 
   56900    1687.2179   -110.14928    1.5266302   -108.62265    4330.0336    4.2819511    4.2819511    4.2819511    4330.0336    21612.935   -18792.138    10169.304    13375.915   -33583.194   -4427.4245    78.510022 
   57000    1006.2545   -109.53999   0.91048018   -108.62951   -24913.006    4.2844425    4.2844425    4.2844425   -24913.006    11984.189   -26946.342   -59776.864    -1058.054    2281.8814    29694.672    78.647144 
   57100     1761.766    -110.2113    1.5940829   -108.61722     11577.87     4.272382     4.272382     4.272382     11577.87    4264.6301    10674.067    19794.912    -7931.044      38340.7    7330.5024     77.98485 
   57200     1519.222   -109.99887     1.374624   -108.62424    3544.1857    4.2746105    4.2746105    4.2746105    3544.1857    19755.129   -19060.787    9938.2143     10812.77   -25269.687    -33587.22    78.106946 
   57300     929.9777   -109.47877   0.84146336    -108.6373   -31126.148    4.2855513    4.2855513    4.2855513   -31126.148    18754.863    -53535.43   -58597.876   -737.24448   -17540.362    32828.245    78.708223 
   57400    2233.2532   -110.63832    2.0206944   -108.61763     1320.935    4.2735518    4.2735518    4.2735518     1320.935     4032.999   -28580.821    28510.627   -3906.3181    14447.972    25147.041    78.048924 
   57500    1322.6144   -109.83115    1.1967293   -108.63442   -4043.8385    4.2754683    4.2754683    4.2754683   -4043.8385    7613.7548   -2029.3101    -17715.96   -13121.861   -13790.897    -38236.07    78.153975 
   57600    1279.5384   -109.79201    1.1577532   -108.63426   -13132.587    4.2793454    4.2793454    4.2793454   -13132.587    18541.319   -20574.682   -37364.398    11456.626   -27265.406    5018.7387    78.366784 
   57700    2180.9815    -110.5896    1.9733979    -108.6162   -8370.3824    4.2812045    4.2812045    4.2812045   -8370.3824   -11057.371   -46648.861    32595.084   -19137.649    11785.029    16743.196    78.468962 
   57800    1034.0101   -109.56736    0.9355941   -108.63177   -18782.481    4.2840022    4.2840022    4.2840022   -18782.481   -22345.096   -9332.3759   -24669.971   -28251.748   -1829.0578   -22671.369    78.622902 
   57900    1491.1895   -109.98096    1.3492596    -108.6317    11365.928    4.2720479    4.2720479    4.2720479    11365.928    23521.486    30675.811   -20099.512    12683.847   -9328.1245   -23009.401    77.966554 
   58000    2363.5539    -110.7573    2.1385932   -108.61871    12358.657    4.2747564    4.2747564    4.2747564    12358.657    1325.3649    1993.3201    33757.286   -8145.7097    5614.4061    17463.396    78.114944 
   58100    1122.0307   -109.65522     1.015237   -108.63999   -12632.829    4.2831405    4.2831405    4.2831405   -12632.829   -2012.4693    -4045.829   -31840.188   -27646.622   -6791.2619    -11918.02    78.575468 
   58200     1784.606   -110.23831     1.614749   -108.62356    616.99738     4.279512     4.279512     4.279512    616.99738   -7272.8473    29273.711   -20149.871    1965.4022   -9510.1875   -29502.091    78.375937 
   58300    1651.4048   -110.11968    1.4942258   -108.62546   -4028.3983      4.27541      4.27541      4.27541   -4028.3983   -8954.8904   -26477.342    23347.038    26725.582    5970.5469    18775.284     78.15078 
   58400    1227.3592   -109.74918    1.1105404   -108.63864   -10468.516    4.2719956    4.2719956    4.2719956   -10468.516   -34771.097   -22158.383    25523.931   -17069.933    972.47101    8893.8615    77.963691 
   58500    2298.3786   -110.70533    2.0796212   -108.62571    6017.1045    4.2774007    4.2774007    4.2774007    6017.1045   -21073.293    30280.818    8843.7884   -12169.647   -5184.0518    -5769.433    78.259996 
   58600    1425.8294   -109.92513    1.2901204   -108.63501    -9415.211    4.2856954    4.2856954    4.2856954    -9415.211   -19183.057   -18498.431    9435.8551    46862.095    1398.7864    8594.5164    78.716161 
   58700    1246.2359   -109.76076    1.1276204   -108.63314    4862.4899    4.2763413    4.2763413    4.2763413    4862.4899   -35718.888    22302.256    28004.101   -8740.6101   -1048.0917    17881.833    78.201858 
   58800    2217.6187   -110.62827     2.006548   -108.62172    8506.6859    4.2696372    4.2696372    4.2696372    8506.6859   -8462.6404     19565.87    14416.828   -23533.888   -659.45233   -16358.933    77.834642 
   58900    1256.5104   -109.77685     1.136917   -108.63994    8131.1154    4.2698429    4.2698429    4.2698429    8131.1154    19323.553   -9091.8224    14161.615    37685.299   -1584.2522   -42820.815    77.845887 
   59000    1517.3515   -110.01673    1.3729315    -108.6438    8079.5417     4.280353     4.280353     4.280353    8079.5417   -17161.889    4225.5882    37174.926    14611.972    -2266.076    27862.677    78.422154 
   59100    1915.0521   -110.35877    1.7327794   -108.62599   -15775.338     4.288232     4.288232     4.288232   -15775.338   -12707.049   -16220.317   -18398.647   -15597.259    12659.806   -23835.518    78.856015 
   59200    1058.8729    -109.5886   0.95809047   -108.63051     6745.022    4.2729945    4.2729945    4.2729945     6745.022     22877.23   -17147.475    14505.311      26261.7   -1457.0603   -60427.902    78.018394 
   59300    1898.8551   -110.33609     1.718124   -108.61797    8379.3616    4.2689275    4.2689275    4.2689275    8379.3616     7138.336    2721.0159    15278.733    32541.081    304.18328    32762.761    77.795835 
   59400      1414.74   -109.91105    1.2800864   -108.63096    -579.5374    4.2737573    4.2737573    4.2737573    -579.5374    28194.164   -14460.902   -15471.874   -12815.826    9200.1128   -37922.632    78.060181 
   59500    1093.8387   -109.63275   0.98972821   -108.64302   -6983.7312    4.2819197    4.2819197    4.2819197   -6983.7312    3319.5749    9133.1778   -33403.946   -2120.2809    1937.4368   -66685.629    78.508299 
   59600    2322.3313   -110.71947    2.1012941   -108.61818   -14877.619    4.2862346    4.2862346    4.2862346   -14877.619   -42304.272    15182.974   -17511.559    16460.504   -5449.3585    31373.719    78.745874 
   59700    1096.8305   -109.62335   0.99243528   -108.63091    10662.979    4.2682365    4.2682365    4.2682365    10662.979    42822.562    19101.657   -29935.282   -3424.0643   -5264.5416   -76394.583    77.758059 
   59800    1335.5847   -109.84485    1.2084651   -108.63638    938.83285    4.2752369    4.2752369    4.2752369    938.83285    9518.6626    23874.715   -30576.879   -4658.1341    4979.6254   -29121.287    78.141287 
   59900    2017.3902   -110.44106    1.8253771   -108.61568   -8108.3933    4.2841326    4.2841326    4.2841326   -8108.3933    -27511.99   -2571.7337    5758.5442   -8879.2629    1293.5464    27587.063    78.630079 
   60000    1120.8375   -109.64033    1.0141573   -108.62617    11666.951     4.273684     4.273684     4.273684    11666.951    31935.551    7911.9332   -4846.6303    2566.1813   -8422.0132   -82441.029    78.056169 
   60100    2054.2001   -110.47287    1.8586834   -108.61419   -13513.042    4.2840928    4.2840928    4.2840928   -13513.042   -16260.909    3177.8987   -27456.117   -128.22248    14344.992    6877.3539    78.627886 
   60200    1351.9067   -109.83673    1.2232336   -108.61349   -12802.689    4.2858106    4.2858106    4.2858106   -12802.689   -7395.4154   -29275.143     -1737.51   -22816.994     11897.23    -893.2992    78.722509 
   60300    1399.9319    -109.8792    1.2666878   -108.61251    6578.0528    4.2743076    4.2743076    4.2743076    6578.0528    24883.404   -17421.659    12272.413    4468.8708   -15093.614   -55679.043    78.090341 
   60400     1904.516   -110.33512    1.7232461   -108.61187   -13918.915    4.2785355    4.2785355    4.2785355   -13918.915   -37587.981    591.99911   -4760.7624    20377.064     14301.21    13232.517      78.3223 
   60500    1393.1041    -109.8845    1.2605099   -108.62399   -5014.1681    4.2765329    4.2765329    4.2765329   -5014.1681   -4839.4894   -6564.3828    -3638.632   -10784.312    18686.981    4043.9485    78.212372 
   60600     1587.122   -110.06141    1.4360613   -108.62535    3117.4209    4.2817158    4.2817158    4.2817158    3117.4209    32946.431    -35319.33    11725.162   -3726.0237   -6003.7575   -37639.469    78.497082 
   60700    1575.5301   -110.04673    1.4255728   -108.62116   -23790.662    4.2864629    4.2864629    4.2864629   -23790.662   -40892.278   -37193.512    6713.8042     40647.83    7437.2096   -655.49717     78.75846 
   60800     1245.984   -109.75014    1.1273925   -108.62275    13166.553    4.2673166    4.2673166    4.2673166    13166.553    25429.928    5549.5155    8520.2159    12922.472    10934.879   -8060.6798    77.707797 
   60900    1731.5516   -110.19009    1.5667443   -108.62334      4147.83    4.2745864    4.2745864    4.2745864      4147.83    52712.792   -21950.344   -18318.958   -9142.9847   -3763.8752   -31491.341    78.105622 
   61000    1401.0913   -109.89396    1.2677368   -108.62623   -19601.571    4.2828629    4.2828629    4.2828629   -19601.571   -19866.856   -34710.661   -4227.1949    25957.388   -8397.5292    1667.8844     78.56019 
   61100    1226.0293    -109.7394     1.109337   -108.63007    2319.6465    4.2736234    4.2736234    4.2736234    2319.6465   -19614.324     27368.95   -795.68658    19501.135   -7140.6422    9056.1544    78.052846 
   61200    1837.3182   -110.28293    1.6624441   -108.62049    -11402.65    4.2791907    4.2791907    4.2791907    -11402.65    7559.0626   -20514.846   -21252.167       -27714    10103.071   -19722.105    78.358284 
   61300    1076.7856   -109.60483   0.97429822   -108.63053   -13536.154    4.2747152    4.2747152    4.2747152   -13536.154   -37905.077   -17756.637    15053.252   -13967.813   -18107.637   -6375.4597    78.112684 
   61400    1391.0615   -109.88909    1.2586617   -108.63043   -4020.5987    4.2733237    4.2733237    4.2733237   -4020.5987   -39068.394    36485.326   -9478.7277    25523.076   -28145.193    9756.2694    78.036425 
   61500    1685.2932   -110.14503    1.5248887   -108.62014   -20237.996    4.2843208    4.2843208    4.2843208   -20237.996    3458.6506   -45023.592   -19149.047   -17092.365    9867.1205    16377.917    78.640441 
   61600     1044.268   -109.57011   0.94487559   -108.62524   -8708.4732    4.2786348    4.2786348    4.2786348   -8708.4732   -45155.745   -689.26449     19719.59   -31324.967     -15426.3   -2070.7204    78.327748 
   61700    1535.0576   -110.00628    1.3889524   -108.61732    13396.557    4.2732859    4.2732859    4.2732859    13396.557   -2080.2108    28898.385    13371.498    20177.508   -23905.362    8269.7679    78.034357 
   61800    1362.9044    -109.8554    1.2331845   -108.62222   -8907.0653    4.2824489    4.2824489    4.2824489   -8907.0653    18235.509    -45269.94    313.23491   -14922.179    7347.6618     27442.81    78.537408 
   61900    1009.7538   -109.54141   0.91364646   -108.62777    -18222.79    4.2841338    4.2841338    4.2841338    -18222.79   -50118.063   -10522.944    5972.6368   -49512.529    1590.6697   -12270.401    78.630147 
   62000    1863.4727   -110.29488    1.6861092   -108.60877    3709.1929    4.2765572    4.2765572    4.2765572    3709.1929    97.611381    21056.444   -10026.477    13787.745   -11419.635    14464.371    78.213703 
   62100    1080.7048   -109.59741   0.97784443   -108.61957   -8812.5055    4.2827407    4.2827407    4.2827407   -8812.5055    8292.4642    -42540.94    7810.9592   -13634.274    6781.4476    54371.316    78.553463 
   62200    1403.7143   -109.88479    1.2701102   -108.61468   -14753.981    4.2870252    4.2870252    4.2870252   -14753.981   -50843.825   -41168.574    47750.455   -46082.246    5709.2223   -21665.234    78.789456 
   62300    1745.0683   -110.18551    1.5789745   -108.60653   -10069.216    4.2795403    4.2795403    4.2795403   -10069.216    8702.1851   -36078.531   -2831.3039    9494.4443   -3645.9487    36258.702    78.377494 
   62400    1132.7589   -109.64831    1.0249441   -108.62336    2776.8541    4.2720291    4.2720291    4.2720291    2776.8541    24579.021   -30563.876    14315.418    -5359.592    -4657.505    59533.451    77.965527 
   62500    1428.6262   -109.91845     1.292651    -108.6258   -1791.4147    4.2758459    4.2758459    4.2758459   -1791.4147   -53639.387   -14150.657      62415.8   -50645.356    10002.004   -20459.505    78.174684 
   62600    1486.1861   -109.97154    1.3447324   -108.62681    2645.3607    4.2780445    4.2780445    4.2780445    2645.3607    10983.642   -10975.798    7928.2375   -1006.0491    13289.795    26004.037    78.295337 
   62700    1281.8879   -109.79248    1.1598791   -108.63261    1973.5133     4.284302     4.284302     4.284302    1973.5133    26240.929    -21042.76    722.37103   -5777.4093   -407.00333     42702.39     78.63941 
   62800    1517.1436   -109.99223    1.3727434   -108.61949   -17889.643    4.2935224    4.2935224    4.2935224   -17889.643   -69733.686   -39102.462    55167.219   -59102.732     4242.295   -13961.268     79.14823 
   62900    1714.8593   -110.16114    1.5516407    -108.6095    2431.2851    4.2752632    4.2752632    4.2752632    2431.2851    10657.695    19590.903   -22954.742    11111.886   -1024.6035    27805.183    78.142727 
   63000    1259.4497   -109.75778    1.1395766    -108.6182     2376.466    4.2663895    4.2663895    4.2663895     2376.466    38943.419    -28342.81   -3471.2115   -11662.595    7572.8612    54592.924     77.65716 
   63100     1852.689   -110.29633    1.6763519   -108.61998    6694.8211    4.2803505    4.2803505    4.2803505    6694.8211   -43234.277   -12583.722    75902.462   -47250.778   -10005.873   -21085.918    78.422018 
   63200    1552.8686    -110.0179    1.4050682   -108.61283   -11249.724    4.3004857    4.3004857    4.3004857   -11249.724    19172.137   -21680.178    -31241.13    14349.821   -804.74753     45562.31    79.533942 
   63300    1450.9087   -109.91435    1.3128127   -108.60154   -20761.697    4.2983953    4.2983953    4.2983953   -20761.697   -1310.2049   -34299.314   -26675.572   -12507.938     9808.559    33032.337     79.41802 
   63400    2080.9519   -110.47162     1.882889   -108.58873    10296.959    4.2695105    4.2695105    4.2695105    10296.959   -5317.9352    13909.251    22299.562   -33407.206   -11552.172   -15694.988    77.827711 
   63500     1154.648   -109.65919    1.0447498   -108.61444    13405.726    4.2580896    4.2580896    4.2580896    13405.726    77623.969   -2353.0661   -35053.726    1940.0538   -5234.6418    66868.206    77.204816 
   63600    1712.0799   -110.18172    1.5491259   -108.63259    4457.5513    4.2756577    4.2756577    4.2756577    4457.5513    22456.905    9874.6727   -18958.924    15383.287   -432.38935    15249.941    78.164364 
   63700    1940.9496   -110.38058     1.756212   -108.62437   -11611.369    4.2932511    4.2932511    4.2932511   -11611.369   -27652.882   -8186.2968    1005.0706   -3199.0732    1407.0952   -9560.8136    79.133224 
   63800    933.02796    -109.4797   0.84422331   -108.63547   -5434.8444    4.2827153    4.2827153    4.2827153   -5434.8444    12659.104    7957.1082   -36920.746   -13315.714   -15240.495    64877.253    78.552068 
   63900    1815.8325   -110.26441    1.6430034   -108.62141    17426.249    4.2640905    4.2640905    4.2640905    17426.249    17929.611    32019.569    2329.5662     13857.41   -14216.924    4038.1176    77.531687 
   64000     1968.402   -110.40069    1.7810515   -108.61964    10590.188    4.2706845    4.2706845    4.2706845    10590.188     6715.781    472.90995    24581.873    10395.407    16524.053    16053.456    77.891929 
   64100    924.24993   -109.46794   0.83628076   -108.63166   -8907.1467    4.2939844    4.2939844    4.2939844   -8907.1467     5516.628   -27524.951   -4713.1172   -6861.9278   -11329.092    76639.722     79.17378 
   64200    2193.1129   -110.58004    1.9843746   -108.59566   -13174.532    4.2992812    4.2992812    4.2992812   -13174.532   -28012.864   -1742.0634   -9768.6682   -13381.586   -11161.169   -29025.434    79.467133 
   64300    888.43521   -109.40921   0.80387485   -108.60534   -9141.2135    4.2799581    4.2799581    4.2799581   -9141.2135    66179.638   -65517.823   -28085.456    23104.221   -3475.3271    72657.816    78.400451 
   64400    1415.6485   -109.87959    1.2809085   -108.59868    20277.498    4.2632571    4.2632571    4.2632571    20277.498    63942.082   -34768.549    31658.962    6444.7556     956.9057    38744.414     77.48624 
   64500    2105.5543   -110.50681    1.9051498   -108.60166    14652.901    4.2763068    4.2763068    4.2763068    14652.901    46834.401    -10375.46    7499.7608   -5214.6369   -7180.2009   -6865.3527    78.199969 
   64600     706.3196   -109.26449   0.63909282   -108.62539   -7675.8907    4.2998649    4.2998649    4.2998649   -7675.8907    63647.194   -61219.794   -25455.072    8621.8133    330.63502    88168.368    79.499506 
   64700    2385.9539   -110.72524    2.1588612   -108.56638   -15371.473    4.3043734    4.3043734    4.3043734   -15371.473   -21835.576   -23184.255   -1094.5888    84.351974    8736.3137   -28841.899     79.74984 
   64800    972.67131   -109.45173   0.88009344   -108.57163    7602.5687    4.2846949    4.2846949    4.2846949    7602.5687    39664.504   -18842.261    1985.4623   -2558.9063   -11579.093    76280.418    78.661042 
   64900    1864.0051   -110.25057     1.686591   -108.56398    358.15344     4.278571     4.278571     4.278571    358.15344    14119.104   -25272.858    12228.214     5290.939    -5522.474    27827.709    78.324247 
   65000    1732.2612    -110.1491    1.5673864   -108.58171    5682.6352    4.2774167    4.2774167    4.2774167    5682.6352    16029.312   -18713.324    19731.917    6509.9181    7338.6833   -6956.2443    78.260873 
   65100    770.70867   -109.30936    0.6973534     -108.612    9601.1502    4.2807985    4.2807985    4.2807985    9601.1502    72181.798   -35206.621   -8171.7254    1332.6483    526.45169    68208.432    78.446643 
   65200    2166.3089   -110.54586    1.9601218   -108.58574   -1476.2403    4.2890147    4.2890147    4.2890147   -1476.2403   -15603.824   -1149.9567     12325.06    3313.1971   -13989.116    -12936.16    78.899198 
   65300    986.56225   -109.49849   0.89266226   -108.60583   -13144.874    4.2855196    4.2855196    4.2855196   -13144.874   -12262.046   -18656.226   -8516.3516    5046.2822    2565.6536     24250.44    78.706477 
   65400    1459.5008   -109.92703     1.320587   -108.60644    1262.6931    4.2759119    4.2759119    4.2759119    1262.6931    17579.863    12181.647    -25973.43    12742.995    3394.1944    44740.984    78.178303 
   65500    2067.5412   -110.47907    1.8707547   -108.60831    2437.1952    4.2735243    4.2735243    4.2735243    2437.1952   -26297.666   -1252.7198    34861.971   -14817.382   -11504.323   -28012.099    78.047417 
   65600    713.48892   -109.28306   0.64557977   -108.63748   -7016.5443    4.2752422    4.2752422    4.2752422   -7016.5443    -5802.246   -28806.129    13558.742    1205.2616    3211.1147    26701.022    78.141577 
   65700    1663.6996   -110.13487    1.5053503   -108.62952    4665.9266    4.2839517    4.2839517    4.2839517    4665.9266    10783.365    19252.878   -16038.464    12626.652    3668.0064    31917.893    78.620116 
   65800    1425.2013   -109.90797    1.2895521   -108.61842   -6985.2211    4.2910969    4.2910969    4.2910969   -6985.2211    704.73909    5784.5696   -27444.972   -10016.355   -5693.7643   -30946.359    79.014167 
   65900    648.99962   -109.20539    0.5872285   -108.61816    14456.781     4.279965     4.279965     4.279965    14456.781    20248.917    7985.8938    15135.532   -9914.8997    6526.1526    20444.806    78.400828 
   66000    2233.4979   -110.60497    2.0209158   -108.58406    4723.1588    4.2856232    4.2856232    4.2856232    4723.1588     16479.86    17768.584   -20078.968    7264.8293    3358.7119    68.031169    78.712184 
   66100    758.10845     -109.295   0.68595245   -108.60905   -1009.1411    4.2823108    4.2823108    4.2823108   -1009.1411    28646.664    5774.5389   -37448.626   -2363.9682   -5780.5591   -35585.348    78.529812 
   66200    1640.3566   -110.08775    1.4842291   -108.60352   -3917.4322    4.2803539    4.2803539    4.2803539   -3917.4322   -2213.6224   -4436.0207   -5102.6535   -23103.804   -5897.0448    20632.441      78.4222 
   66300    1866.2813   -110.28715    1.6886505    -108.5985   -7387.6295    4.2845857    4.2845857    4.2845857   -7387.6295    22615.845   -7852.5797   -36926.154    18788.888    6197.7148   -13084.395     78.65503 
   66400    614.48417   -109.16904   0.55599819   -108.61304   -1440.8307    4.2808165    4.2808165    4.2808165   -1440.8307    53817.393   -14910.997   -43228.888    1964.6201   -4972.1798   -46688.455    78.447632 
   66500    2478.1598   -110.83232    2.2422911   -108.59002    4608.9408    4.2846182    4.2846182    4.2846182    4608.9408   -3381.1449    27557.585   -10349.618    2020.9378    5530.6567    11295.603    78.656821 
   66600    1089.4799   -109.60243   0.98578433   -108.61665   -10972.034    4.2868096    4.2868096    4.2868096   -10972.034    21092.827   -5525.2517   -48483.677    3241.0446    3999.0602   -16273.716    78.777573 
   66700    1345.7294   -109.82947    1.2176443   -108.61183    13409.869    4.2757235    4.2757235    4.2757235    13409.869    49010.598    4928.6148   -13709.605    5033.5899   -3877.8994   -44082.501    78.167969 
   66800    2014.8575   -110.42358    1.8230854   -108.60049    5264.2389    4.2845019    4.2845019    4.2845019    5264.2389    15134.399     3797.601   -3139.2838   -3846.0182   -6089.0426    35016.573    78.650417 
   66900    792.04772    -109.3347   0.71666142   -108.61804    1409.8647    4.2880033    4.2880033    4.2880033    1409.8647    50327.906    -23177.43   -22920.883   -6513.3146    5191.7072    3609.1086    78.843397 
   67000    2079.4601   -110.47474    1.8815392    -108.5932    9146.3132    4.2886748    4.2886748    4.2886748    9146.3132    37553.989   -15847.038    5731.9887    3183.9824    5266.3893   -32314.264    78.880446 
   67100    1479.2361   -109.94279    1.3384439   -108.60434    5602.5854     4.284358     4.284358     4.284358    5602.5854    50778.681   -25897.807   -8073.1187   -8134.0708     -14071.4    45991.649    78.642488 
   67200    888.35539   -109.42615   0.80380263   -108.62235    11423.144    4.2752075    4.2752075    4.2752075    11423.144    73020.633   -16088.501   -22662.702   -9506.5155   -6015.7178    3358.5821    78.139676 
   67300    2400.2205   -110.77542    2.1717699   -108.60365     3045.719    4.2852712    4.2852712    4.2852712     3045.719    17416.034   -12687.126      4408.25   -10394.114   -3945.0846    -26316.48    78.692791 
   67400    1256.2997   -109.75471    1.1367264   -108.61798    -9426.646    4.2917486    4.2917486    4.2917486    -9426.646    73573.808   -52752.463   -49101.283   -461.90662    6172.8051    65151.159    79.050172 
   67500    1488.7338   -109.95642    1.3470376   -108.60938   -2041.1888    4.2878241    4.2878241    4.2878241   -2041.1888    52831.855   -25260.088   -33695.334   -940.47157   -7328.8075    -8973.697    78.833515 
   67600    2176.9838   -110.55837    1.9697807   -108.58859     1196.287    4.2812965    4.2812965    4.2812965     1196.287    5979.3645   -274.94013   -2115.5632   -7321.9149   -836.45857   -3341.2874    78.474021 
   67700    670.30303   -109.22265   0.60650427   -108.61615    -8444.455    4.2843336    4.2843336    4.2843336    -8444.455    85885.545   -39366.699   -71852.211      6524.27   -4954.5529    68282.125     78.64115 
   67800    1835.6407   -110.26809    1.6609262   -108.60716   -4034.3577    4.2866907    4.2866907    4.2866907   -4034.3577    22450.808   -8369.4653   -26184.416    1252.5132   -8142.7193   -11725.166    78.771017 
   67900    1848.7093   -110.28332     1.672751   -108.61057     19188.05     4.270437     4.270437     4.270437     19188.05    44217.743    17576.474   -4230.0675    3382.1876    4818.2976    29512.654    77.878391 
   68000     790.4972   -109.35467   0.71525848   -108.63941   -15681.328    4.2725312    4.2725312    4.2725312   -15681.328    65768.735   -41606.393   -71206.325   -2974.3081   -1610.4625    64370.616     77.99302 
   68100    1747.0134   -110.20634    1.5807344   -108.62561   -12518.358    4.2845132    4.2845132    4.2845132   -12518.358    -12545.82    2065.6056   -27074.858     7928.967   -7937.2142   -19016.439    78.651039 
   68200    1297.1746    -109.7983    1.1737108   -108.62459   -4249.0202    4.2895738    4.2895738    4.2895738   -4249.0202    24767.083    -34107.82   -3406.3235    13105.426    3978.8654    36769.221     78.93006 
   68300    851.02405   -109.39036   0.77002445   -108.62033   -13561.137    4.2898404    4.2898404    4.2898404   -13561.137    36959.233   -48821.352   -28821.291   -3165.0158     5200.418    40934.082    78.944777 
   68400    2115.1374   -110.50849    1.9138208   -108.59467    4761.4009    4.2738962    4.2738962    4.2738962    4761.4009    1376.1278    19655.318   -6747.2426   -4711.6632    2788.0341   -28753.986    78.067797 
   68500    1023.8961   -109.54677   0.92644275   -108.62033   -471.48135    4.2705869    4.2705869    4.2705869   -471.48135     43205.02   -18437.791   -26181.673    2144.2106   -5476.0345    82826.404    77.886589 
   68600    1534.5908    -110.0116      1.38853   -108.62307   -6175.1358    4.2860339    4.2860339    4.2860339   -6175.1358    5388.3248   -29361.348    5447.6157    4578.1273    1758.0236    17425.895    78.734813 
   68700    1841.5001   -110.27639     1.666228   -108.61016    1150.8382    4.2890867    4.2890867    4.2890867    1150.8382    23842.833    11876.747   -32267.065   -4675.3853    1097.6091   -9023.1165    78.903177 
   68800    785.93929   -109.32901   0.71113438   -108.61788   -2019.3898    4.2872433    4.2872433    4.2872433   -2019.3898    76656.135   -59089.895   -23624.409   -8195.3326   -1304.6514    79206.424    78.801481 
   68900     2374.132   -110.73195    2.1481645   -108.58379   -4166.7323    4.2918102    4.2918102    4.2918102   -4166.7323   -21044.846    6443.0021    2101.6471    15843.955   -9735.5964   -30100.763    79.053574 
   69000    1037.5414   -109.53691   0.93878928   -108.59812   -12341.425     4.293151     4.293151     4.293151   -12341.425    35834.804   -49553.116   -23305.965    11319.839   -1857.1422    68217.148    79.127692 
   69100    1458.6095   -109.91177    1.3197805   -108.59199    5391.6792    4.2865451    4.2865451    4.2865451    5391.6792    42782.787   -17369.982    -9237.768   -5779.2381   -259.87668    35766.816    78.762989 
   69200    2234.4852   -110.60829    2.0218091   -108.58648   -8853.1254    4.2871225    4.2871225    4.2871225   -8853.1254   -5998.1117   -11214.966   -9346.2987    2666.3312   -3977.5362   -19002.723    78.794822 
   69300    1062.4656   -109.58021    0.9613412   -108.61886   -19195.382    4.2763295    4.2763295    4.2763295   -19195.382    33424.414   -68533.138   -22477.423    3380.0198    3527.3154    99170.635     78.20121 
   69400    2041.6248   -110.46026    1.8473051   -108.61295    25531.225    4.2693057    4.2693057    4.2693057    25531.225    13415.418   -476.31346     63654.57   -13154.596    5577.6332   -7169.5647     77.81651 
   69500     1661.993   -110.12216    1.5038062   -108.61836   -6307.4418    4.2852649    4.2852649    4.2852649   -6307.4418    16202.121   -50499.391    15374.944   -12955.865     4172.929    29877.977    78.692442 
   69600    1059.5574   -109.57769   0.95870984   -108.61898   -1808.2925    4.2890826    4.2890826    4.2890826   -1808.2925    29257.042   -73578.018    38896.098    879.74069     3916.173    77111.875    78.902946 
   69700    2544.0841   -110.89475    2.3019408   -108.59281   -4919.0379    4.2824747    4.2824747    4.2824747   -4919.0379   -37807.148     19589.86    3460.1738    2511.8406   -639.56504   -36763.205    78.538828 
   69800    857.61893    -109.3953   0.77599163   -108.61931    2369.1926    4.2694595    4.2694595    4.2694595    2369.1926    37288.008   -34545.976    4365.5459   -7146.5168    1414.2911    85989.032     77.82492 
   69900    1692.5465   -110.15768    1.5314516   -108.62623    9522.4202    4.2767431    4.2767431    4.2767431    9522.4202    29844.858    13144.527   -14422.124    5732.0149   -7849.8855    38643.078    78.223905 
   70000    2125.6103   -110.52687    1.9232968   -108.60357   -15222.591    4.2976467    4.2976467    4.2976467   -15222.591   -18326.822   -10628.534   -16712.418    1000.9978    1261.4554    193.09739    79.376533 
   70100    770.08475    -109.3095   0.69678886   -108.61271   -3943.7908     4.288802     4.288802     4.288802   -3943.7908    51820.312   -26757.655    -36894.03   -16284.266   -2223.3328    92833.221    78.887463 
   70200    2455.4793   -110.79709    2.2217693   -108.57532    9853.0771    4.2834653    4.2834653    4.2834653    9853.0771    11138.562   -2498.8205     20919.49   -10072.771    477.77926   -30843.422     78.59334 
   70300     1210.637   -109.69526    1.0954098   -108.59985   -7439.3798    4.2800292    4.2800292    4.2800292   -7439.3798     26591.75   -13877.083   -35032.806    8667.0485    6443.9598    68325.209    78.404355 
   70400    1297.4966   -109.79093    1.1740022   -108.61693    8198.0418    4.2781308    4.2781308    4.2781308    8198.0418    18654.895   -13826.122    19765.353   -7154.9017     5874.994    53166.071    78.300076 
   70500    2510.4866   -110.87352    2.2715411   -108.60198   -9732.9909    4.2843627    4.2843627    4.2843627   -9732.9909   -26712.748   -15347.781    12861.556   -13679.073   -2010.3212   -9744.8491     78.64275 
   70600    927.90074   -109.46854   0.83958409   -108.62895   -3383.3672    4.2775641    4.2775641    4.2775641   -3383.3672    41112.293   -31076.986   -20185.409    7513.1504   -14495.325    81476.479    78.268965 
   70700    1623.8443   -110.09947    1.4692885   -108.63018   -1325.0818    4.2807194    4.2807194    4.2807194   -1325.0818   -891.84527   -15418.433    12335.033   -1358.7523    8711.3034    1990.7809    78.442291 
   70800    2035.9533   -110.46134    1.8421733   -108.61916    8807.0562    4.2777355    4.2777355    4.2777355    8807.0562   -6549.9824   -15225.741    48196.891   -3449.8371    4081.2982    5886.2368    78.278374 
   70900    737.52213   -109.30234   0.66732553   -108.63502    9663.6766    4.2728388    4.2728388    4.2728388    9663.6766    55995.152    4628.4364   -31632.558   -2978.2665   -13793.629    94310.927    78.009865 
   71000      2032.75   -110.45327     1.839275   -108.61399   -12444.295    4.2893469    4.2893469    4.2893469   -12444.295   -1781.9645   -7015.3555   -28535.566    238.45873    6877.4446   -28825.288    78.917535 
   71100    1306.7676   -109.80126    1.1823908   -108.61886    9448.1231    4.2803686    4.2803686    4.2803686    9448.1231     30631.48    42985.709    -45272.82    6211.7029    911.05615    39992.915    78.423011 
   71200    1016.6879   -109.54119   0.91992055   -108.62126    18988.576    4.2651392    4.2651392    4.2651392    18988.576    50292.682    15301.164   -8628.1171   -8944.3405   -8983.0042    81534.831    77.588904 
   71300    2135.7126   -110.54025    1.9324376   -108.60781    8652.7878    4.2754577    4.2754577    4.2754577    8652.7878    852.42504    34414.427   -9308.4883   -4407.5537    -4891.556   -32764.744    78.153394 
   71400    711.46798    -109.2775   0.64375118   -108.63374   -12367.262    4.2816604    4.2816604    4.2816604   -12367.262     44427.01   -9729.0662   -71799.729    3938.6559    1769.5761     91329.74    78.494037 
   71500    1420.8341   -109.90603    1.2856006   -108.62043    6169.6351    4.2816938    4.2816938    4.2816938    6169.6351    18097.283    15823.429   -15411.806   -4876.2436    3273.2058    20189.417    78.495873 
   71600    1706.9799   -110.15431    1.5445113    -108.6098   -4761.5358    4.2791314    4.2791314    4.2791314   -4761.5358    12100.445    -15665.07   -10719.982   -13370.456   -3151.0181    2739.2249    78.355027 
   71700    614.11922   -109.18146   0.55566797   -108.62579   -2437.4548    4.2742149    4.2742149    4.2742149   -2437.4548     50569.94   -41261.088   -16621.216   -10253.633   -552.04855    102296.43    78.085261 
   71800    2140.7885   -110.54167    1.9370305   -108.60464    19263.939    4.2810196    4.2810196    4.2810196    19263.939   -11433.047    63654.444    5570.4204    9463.8132   -2157.6615   -19075.247    78.458798 
   71900    1085.7438   -109.60524   0.98240382   -108.62284   -8467.7266    4.2884913    4.2884913    4.2884913   -8467.7266    10643.357   -16100.157    -19946.38   -12435.261    901.33303     48238.34    78.870317 
   72000    866.36496   -109.41456   0.78390522   -108.63065   -11961.458    4.2763083    4.2763083    4.2763083   -11961.458    38340.165   -69316.046   -4908.4939   -14028.196   -2701.8774    72289.596    78.200048 
   72100    2258.1738   -110.64991    2.0432431   -108.60667    11461.921    4.2696108    4.2696108    4.2696108    11461.921   -9449.6483   -86.835859    43922.248    12673.333   -1356.7596   -29913.249    77.833197 
   72200    770.37113   -109.32878   0.69704799   -108.63173    -2519.862    4.2850885    4.2850885    4.2850885    -2519.862    50150.102   -28334.524   -29375.164     8087.878    236.35901    76643.795    78.682723 
   72300    1539.9632   -110.00591     1.393391   -108.61252   -11667.273    4.2904248    4.2904248    4.2904248   -11667.273    20143.186   -38448.709   -16696.297   -13285.863    774.12568    38577.514    78.977048 
   72400    2007.1517   -110.41468     1.816113   -108.59856   -8502.5784    4.2818918    4.2818918    4.2818918   -8502.5784    -19453.86   -33857.382    27803.507    6971.8357    324.21913   -4664.2686     78.50676 
   72500    570.73055   -109.14165     0.516409   -108.62524   -34221.103    4.2798948    4.2798948    4.2798948   -34221.103    27027.841   -95636.684   -34054.468    24690.799   -7480.6435    95492.698    78.396969 
   72600    2163.2071   -110.57213    1.9573152   -108.61482    11509.213    4.2687804    4.2687804    4.2687804    11509.213    4979.7834    9709.4434    19838.412   -3814.9148    3107.4911   -6201.3795    77.787791 
   72700    1787.5313   -110.24577    1.6173959   -108.62838   -10227.215    4.2804639    4.2804639    4.2804639   -10227.215    2904.1323   -17836.638   -15749.139    2699.0466   -8003.5879    28608.212     78.42825 
   72800    754.93859   -109.32185    0.6830843   -108.63877   -43481.564    4.2883722    4.2883722    4.2883722   -43481.564    1813.4976   -102285.97   -29972.225    32885.304    -9707.118    82832.956    78.863748 
   72900    2361.7414    -110.7523    2.1369533   -108.61534    11814.086    4.2689579    4.2689579    4.2689579    11814.086   -19305.277    28095.199    26652.335    6699.2547    12940.616   -28280.438    77.797493 
   73000    1408.5467   -109.90563    1.2744827   -108.63115   -4536.5802    4.2759654    4.2759654    4.2759654   -4536.5802    40629.911    -3097.735   -51141.917    882.55896   -3041.8053    68242.577    78.181237 
   73100    1268.3189   -109.77819    1.1476016   -108.63059   -4399.7537      4.28233      4.28233      4.28233   -4399.7537    29739.293    4307.3582   -47245.913    5875.2123    1120.2015    60646.559    78.530866 
   73200    2317.9187   -110.70162    2.0973016   -108.60432    2227.9779    4.2884643    4.2884643    4.2884643    2227.9779   -16709.166    14563.435    8829.6648    20737.876    -3659.456   -25320.117     78.86883 
   73300    1287.7865   -109.78524    1.1652163   -108.62002   -23547.648    4.2859771    4.2859771    4.2859771   -23547.648    28863.789   -37632.836   -61873.896    1941.1537    -2288.014    89772.718    78.731686 
   73400    1782.2038   -110.22305    1.6125754   -108.61048    26953.461    4.2682966    4.2682966    4.2682966    26953.461    12782.022    26639.279    41439.082    933.29305   -253.36271    23429.441    77.761344 
   73500    1862.8062   -110.30527    1.6855062   -108.61977    9401.5961    4.2783287    4.2783287    4.2783287    9401.5961   -9899.5244   -15837.811    53942.124    32009.945   -5271.7511    2964.9231     78.31094 
   73600    942.82178   -109.48258   0.85308496   -108.62949    1217.6175    4.2856228    4.2856228    4.2856228    1217.6175    55290.865   -46891.018   -4746.9951    9548.4537    10888.519    84691.921     78.71216 
   73700    2184.5435   -110.58284    1.9766208   -108.60622    5037.2321     4.288773     4.288773     4.288773    5037.2321   -3153.9887     8024.071    10241.614   -1554.1491    13850.925    -19480.97    78.885862 
   73800    1207.7855   -109.71148    1.0928297   -108.61865   -35406.206    4.2922081    4.2922081    4.2922081   -35406.206   -1221.7778   -52235.587   -52761.254    6776.0134    2684.9671    55823.632    79.075568 
   73900    956.72651   -109.49118   0.86566625   -108.62551   -15987.807    4.2722446    4.2722446    4.2722446   -15987.807    26711.821   -35513.081   -39162.161    9039.7631   -1001.0676    83510.791    77.977324 
   74000    2300.6985   -110.68754    2.0817204   -108.60582    16215.212    4.2764032    4.2764032    4.2764032    16215.212     3297.094    60047.289   -14698.748   -2602.6738     6180.975   -28201.652    78.205253 
   74100    304.79326   -108.89283   0.27578335   -108.61705     -28932.5      4.30715      4.30715      4.30715     -28932.5    61976.279   -37562.491   -111211.29    10447.331    3918.5157    99159.079    79.904272 
   74200    1930.8104   -110.30328    1.7470378   -108.55624   -21761.515    4.3029751    4.3029751    4.3029751   -21761.515   -14732.033   -28120.979   -22431.532    17615.412   -4283.9994   -21097.164    79.672143 
   74300    1081.2469   -109.53221   0.97833496   -108.55388   -41758.775    4.2976908    4.2976908    4.2976908   -41758.775    24922.997   -86116.059   -64083.262    -1951.657   -332.85677    68850.539    79.378976 
   74400    1149.8321   -109.61671    1.0403922   -108.57632   -24167.183    4.2765521    4.2765521    4.2765521   -24167.183    27318.045   -59635.984    -40183.61    1247.9111   -1167.5666    75217.751    78.213425 
   74500    2028.8809   -110.40783    1.8357741   -108.57206    23790.689    4.2606258    4.2606258    4.2606258    23790.689    19176.615    12030.773    40164.679    20604.611    7041.9749   -13135.115     77.34285 
   74600    789.15469   -109.33246   0.71404375   -108.61842   -40483.452    4.2967912    4.2967912    4.2967912   -40483.452    38288.612   -100705.35   -59033.615    22.681941    5091.5634    100289.62    79.329143 
   74700    2179.4783   -110.55117    1.9720377   -108.57913   -13946.671     4.298963     4.298963     4.298963   -13946.671   -9416.7775   -28966.597   -3456.6382    2083.1618    -3760.898   -16325.123     79.44949 
   74800    1246.5143   -109.72059    1.1278724   -108.59272    8430.1763    4.2737265    4.2737265    4.2737265    8430.1763    49705.427   -38647.866    14232.968    20598.921    2335.4835    46917.684    78.058494 
   74900    1209.1021   -109.70707     1.094021   -108.61305   -10452.606    4.2716486    4.2716486    4.2716486   -10452.606    63324.886   -52979.979   -41702.724    17116.135   -1835.3131    76664.083    77.944693 
   75000    2634.9289   -110.98064     2.384139    -108.5965    6056.8354    4.2796884    4.2796884    4.2796884    6056.8354   -16750.061    28901.022    6019.5448   -15367.644    6742.9542   -24255.029    78.385628 
   75100    713.31445    -109.2669    0.6454219   -108.62148   -24024.481    4.3030675    4.3030675    4.3030675   -24024.481    6470.3915   -6772.8305   -71771.003    14016.803   -10498.557     90826.45    79.677277 
   75200    2108.0231   -110.51165    1.9073836   -108.60427   -7535.7193    4.2879085    4.2879085    4.2879085   -7535.7193   -15176.078     13132.36    -20563.44    5526.9623    11676.597    3961.7847    78.838168 
   75300    2072.9057   -110.47071    1.8756086    -108.5951    20933.037    4.2613679    4.2613679    4.2613679    20933.037    21362.795    34410.926    7025.3903   -2053.4461    4580.3142    19094.125    77.383273 
   75400    995.51284   -109.53283   0.90076094   -108.63207   -18311.724    4.2705036    4.2705036    4.2705036   -18311.724    37169.182   -45581.872   -46522.482    4920.9294   -18482.505    98695.955    77.882034 
   75500    2335.9982   -110.73384    2.1136603   -108.62018   -5211.3419    4.2850743    4.2850743    4.2850743   -5211.3419    -35548.39    16774.811    3139.5542    8586.2612   -5392.4714   -24563.786    78.681942 
   75600    1517.3355   -109.99856     1.372917   -108.62564   -27572.214    4.2945875    4.2945875    4.2945875   -27572.214   -3643.9843   -30731.474   -48341.183    8624.8999   -4788.9519    55912.237    79.207146 
   75700    1159.2429   -109.67472    1.0489073   -108.62581   -11242.573     4.280017     4.280017     4.280017   -11242.573    9697.7236   -18422.568   -25002.873   -11788.967   -9921.1001    59790.553    78.403687 
   75800    2224.0986   -110.61272    2.0124112   -108.60031    14763.526    4.2651245    4.2651245    4.2651245    14763.526   -23981.501    42340.977    25931.101    2207.3956   -14368.808   -24028.766    77.588105 
   75900    1209.1347   -109.72145    1.0940504    -108.6274   -19730.187    4.2771515    4.2771515    4.2771515   -19730.187    40952.981   -53642.219   -46501.324    13541.453    5542.3783    86827.418    78.246315 
   76000    1897.0676   -110.32902    1.7165066   -108.61251   -12963.852    4.2890043    4.2890043    4.2890043   -12963.852   -16185.715   -30942.469    8236.6271   -13722.424    4607.9973    11126.061    78.898626 
   76100    1601.1372   -110.05379    1.4487425   -108.60504   -23668.802     4.294454     4.294454     4.294454   -23668.802   -45379.119   -21617.561   -4009.7246   -9504.7466   -26480.825    6000.1869     79.19976 
   76200    834.10036   -109.38024   0.75471154   -108.62553   -21040.629    4.2750661    4.2750661    4.2750661   -21040.629    38571.472   -59604.017   -42089.341   -3403.2533    1341.1399    99087.254    78.131923 
   76300    2307.5379    -110.6898    2.0879087   -108.60189    31764.455    4.2550347    4.2550347    4.2550347    31764.455    23603.154    49758.281     21931.93    9682.5953    768.82549   -18670.777    77.038763 
   76400    1367.5691   -109.87768    1.2374052   -108.64028   -14057.489    4.2765655    4.2765655    4.2765655   -14057.489    2554.2218   -9030.5682   -35696.121   -3129.2886   -20090.999    32666.197    78.214157 
   76500    796.20055   -109.36491   0.72041899   -108.64449   -29427.474    4.2912048    4.2912048    4.2912048   -29427.474    3629.9789   -32318.222   -59594.179   -4657.5453   -8714.8911    83527.071    79.020127 
   76600    2459.1424   -110.82955    2.2250837   -108.60447     2811.866    4.2854115    4.2854115    4.2854115     2811.866      2195.26     17928.13   -11687.792    1230.7527    6211.7063   -27051.608    78.700518 
   76700    772.05171   -109.32047   0.69856861    -108.6219   -16681.816    4.2860305    4.2860305    4.2860305   -16681.816    59642.942   -15421.071   -94267.317   -9858.4538   -217.32669    77201.188    78.734626 
   76800    1356.9456   -109.83911    1.2277929   -108.61132   -9297.5563    4.2692121    4.2692121    4.2692121   -9297.5563    20578.719   -818.03643   -47653.351   -6221.7265   -22915.728    36394.478    77.811395 
   76900    1880.1916   -110.31123    1.7012368      -108.61    19692.018    4.2642634    4.2642634    4.2642634    19692.018    35768.441    2428.9645    20878.649   -431.53461   -5647.7826   -16608.803    77.541118 
   77000    621.82356   -109.20312   0.56263902   -108.64048   -18526.781     4.283396     4.283396     4.283396   -18526.781     70987.72   -63500.868   -63067.194    12659.588    2463.2579    90393.674    78.589526 
   77100    1671.4666    -110.1323    1.5123781   -108.61992   -2330.1809    4.2862414    4.2862414    4.2862414   -2330.1809    16831.702   -2768.2061   -21054.039   -2204.0268   -2216.1464   -4453.4474    78.746248 
   77200    1718.0431   -110.17076    1.5545215   -108.61624    -6036.227    4.2797959    4.2797959    4.2797959    -6036.227    45059.693   -35313.589   -27854.784   -10157.153    4637.1119    5228.3028    78.391538 
   77300    547.97453   -109.12685   0.49581887   -108.63103    -13436.19    4.2754884    4.2754884    4.2754884    -13436.19    84132.622   -84096.079   -40345.111    16121.621    593.37757    97440.361    78.155077 
   77400    2184.1223   -110.59069    1.9762398   -108.61445    2956.2648    4.2721408    4.2721408    4.2721408    2956.2648    5574.3605   -29655.403    32949.837    4621.1199    8758.2956   -23439.374    77.971639 
   77500    1300.8964   -109.80699    1.1770784   -108.62991    8561.9331    4.2837876    4.2837876    4.2837876    8561.9331    72784.587   -16422.711   -30676.077   -1126.0134   -7515.3446     49787.65    78.611085 
   77600    1205.2514    -109.7109    1.0905368   -108.62037   -18383.325    4.2949617    4.2949617    4.2949617   -18383.325    52957.845   -80504.992   -27602.828    14299.373   -1061.4071    59057.238    79.227853 
   77700    2139.3422   -110.53285    1.9357218   -108.59713    12416.275     4.280794     4.280794     4.280794    12416.275    19320.018   -12252.012     30180.82    844.42425    14575.964    -21848.84    78.446392 
   77800    991.22059   -109.51641   0.89687722   -108.61953    1346.2025    4.2746321    4.2746321    4.2746321    1346.2025    93484.065   -61202.942   -28242.515   -18033.318   -10275.096    88564.931    78.108128 
   77900    1914.4891   -110.34837    1.7322699    -108.6161    7619.1904    4.2775455    4.2775455    4.2775455    7619.1904    44752.117   -14142.708   -7751.8378   -2588.4696    5194.8694    7279.8698     78.26794 
   78000    1878.9888    -110.3198    1.7001486   -108.61965    4712.1615    4.2860519    4.2860519    4.2860519    4712.1615    23880.108   -232.83708   -9510.7866    21583.788   -3861.9897   -1169.0838    78.735804 
   78100    992.39397   -109.53169   0.89793892   -108.63376   -28439.573    4.2907484    4.2907484    4.2907484   -28439.573    43223.558   -69323.507   -59218.771   -1912.8393   -4808.1478     98248.88    78.994916 
   78200    2276.8116   -110.66948    2.0601069   -108.60937     19528.84    4.2686358    4.2686358    4.2686358     19528.84    25789.495    38554.163   -5757.1369   -9498.9408    7305.7355   -27550.193    77.779887 
   78300    1445.8807   -109.94103    1.3082633   -108.63277   -7874.5487    4.2704139    4.2704139    4.2704139   -7874.5487     56348.47     -19259.6   -60712.516    3238.8189   -5936.2632    26396.873    77.877126 
   78400    1121.5836   -109.65665    1.0148324   -108.64182     -25657.7    4.2841882    4.2841882    4.2841882     -25657.7    48588.811   -46688.466   -78873.446   -1989.2735    3039.2989    91787.568    78.633141 
   78500    2542.0868   -110.91045    2.3001336   -108.61031    7499.0982    4.2884448    4.2884448    4.2884448    7499.0982   -19380.307    61470.226   -19592.624    1258.8036    1783.0405    -30193.27    78.867755 
   78600    1148.3108   -109.67109    1.0390158   -108.63208   -17143.249    4.2861344    4.2861344    4.2861344   -17143.249    35931.551   -19583.784   -67777.514    2135.5802   -760.56567    67221.855    78.740353 
   78700    1445.1347   -109.93099    1.3075882   -108.62341    17622.406    4.2723359    4.2723359    4.2723359    17622.406    39856.477    51080.155   -38069.414     7948.327    7263.1446    23288.618    77.982324 
   78800    2280.6113   -110.67238    2.0635451   -108.60884   -13437.771    4.2839259    4.2839259    4.2839259   -13437.771   -40559.629    11255.656   -11009.341   -4328.8552    10043.825   -15202.373      78.6187 
   78900    907.14265   -109.44948   0.82080174   -108.62868   -7680.0563    4.2840378    4.2840378    4.2840378   -7680.0563    7266.5263   -17810.897   -12495.798   -12932.002    3375.0468    91465.889    78.624858 
   79000    2039.2801   -110.46623    1.8451835   -108.62105    10507.993    4.2746849    4.2746849    4.2746849    10507.993    13163.766    16810.867    1549.3466   -2734.6866   -7951.8526     1784.378    78.111022 
   79100    2038.5876   -110.46706    1.8445569   -108.62251    267.25463    4.2796805    4.2796805    4.2796805    267.25463   -8490.4555   -14658.365    23950.584   -5816.4067    4400.0361    1248.4089    78.385195 
   79200     550.1824   -109.14524    0.4978166   -108.64743    2815.2467    4.2828947    4.2828947    4.2828947    2815.2467    6715.1729    873.70476    856.86235   -18055.011    9159.7816    84279.691    78.561938 
   79300     2078.106   -110.50081     1.880314   -108.62049    -279.6601    4.2847461    4.2847461    4.2847461    -279.6601   -18208.029    6828.7104    10540.338    2495.6556   -6833.3837   -11905.737    78.663865 
   79400    1516.2271   -109.98543    1.3719141   -108.61352   -11837.455    4.2878297    4.2878297    4.2878297   -11837.455    4368.8175   -5547.1079   -34334.073    11393.317    1656.0548    34578.211    78.833821 
   79500    948.69782   -109.47651   0.85840172   -108.61811   -22250.591    4.2890316    4.2890316    4.2890316   -22250.591    -10096.89   -15997.591   -40657.293   -20713.397    13387.787    55589.257    78.900132 
   79600    2200.0964   -110.59231    1.9906935   -108.60161   -3977.0731     4.280707     4.280707     4.280707   -3977.0731   -28721.393    20391.711   -3601.5373   -15985.667   -437.23682    -25713.53    78.441611 
   79700    1397.9732   -109.88637    1.2649156   -108.62145   -744.92654    4.2720275    4.2720275    4.2720275   -744.92654     57686.16   -14928.789   -44992.151    3988.8399   -3057.4152    67168.115    77.965438 
   79800    986.41653   -109.52685   0.89253041   -108.63432   -18740.048    4.2812837    4.2812837    4.2812837   -18740.048    9736.9594   -30348.694   -35608.411   -11564.403    14859.287    48702.952    78.473317 
   79900    1898.0188   -110.33474    1.7173673   -108.61737   -13090.082    4.2874131    4.2874131    4.2874131   -13090.082   -36407.509   -7581.3287    4718.5926    -5318.878    8637.2839    -31180.37    78.810846 
   80000    832.01751   -109.37597   0.75282693   -108.62315   -5967.8735    4.2840668    4.2840668    4.2840668   -5967.8735    55625.856   -56638.624   -16890.853    7100.6139   -6687.3091    85336.863    78.626458 
   80100    1434.3077   -109.91194    1.2977917   -108.61415   -2827.9548     4.282508     4.282508     4.282508   -2827.9548    -435.5084   -54235.718    46187.362   -10126.412    8934.6292    19473.209     78.54066 
   80200    1449.2894   -109.92606    1.3113475   -108.61471      264.358    4.2759018    4.2759018    4.2759018      264.358   -20497.302   -26311.189    47601.564   -11214.716    18642.892    10204.893    78.177748 
   80300    673.19298   -109.24456   0.60911916   -108.63544   -8942.2864    4.2739059    4.2739059    4.2739059   -8942.2864    45886.501   -59969.684   -12743.676    422.53667   -10233.753    96996.209    78.068326 
   80400    1867.0303   -110.31153    1.6893282    -108.6222   -4807.2957     4.280978     4.280978     4.280978   -4807.2957   -10621.148    1957.4204   -5758.1593    2284.6893    6992.4754   -19014.939    78.456512 
   80500    1092.8647   -109.61683   0.98884698   -108.62798    6571.4681    4.2831392    4.2831392    4.2831392    6571.4681   -8884.6634    48675.015   -20075.947    429.81074    24899.862    23354.286    78.575393 
   80600    795.92153   -109.35468   0.72016653   -108.63452   -18080.178    4.2850233    4.2850233    4.2850233   -18080.178    21409.641   -56862.236   -18787.938   -9657.9188   -1060.4978    83705.721    78.679133 
   80700     2330.338   -110.71695    2.1085388   -108.60841     623.0654    4.2778363    4.2778363    4.2778363     623.0654   -16034.691    13376.974    4526.9136   -11643.894   -3797.1121   -31005.586    78.283906 
   80800    857.69067    -109.4057   0.77605654   -108.62964   -9810.7901    4.2771007    4.2771007    4.2771007   -9810.7901    42308.553    -32716.57   -39024.353   -2401.4899    15876.526    72544.808     78.24353 
   80900    1424.8031   -109.91597    1.2891918   -108.62678   -11127.442    4.2829565    4.2829565    4.2829565   -11127.442    25752.334   -18743.247   -40391.412   -3716.6827    8501.1265     39106.33    78.565338 
   81000    2279.0943   -110.66342    2.0621724   -108.60125   -5015.5621    4.2912673    4.2912673    4.2912673   -5015.5621   -7058.3888   -11897.733    3909.4354   -9516.2755    -1181.571   -11263.393    79.023578 
   81100    975.78168   -109.50242   0.88290777   -108.61951   -15678.927    4.2846024    4.2846024    4.2846024   -15678.927    41468.213   -30803.358   -57701.636    4212.4034    13150.394     100950.5    78.655948 
   81200     2126.827   -110.52149    1.9243978   -108.59709    22401.527    4.2724856    4.2724856    4.2724856    22401.527   -6920.5798    78735.889   -4610.7293   -2233.5988    17276.948   -16033.962    77.990521 
   81300    1693.4312   -110.14635    1.5322521    -108.6141   -3049.0675    4.2829186    4.2829186    4.2829186   -3049.0675    43085.657   -22988.677   -29244.183    -11919.33   -4507.2236    37588.567    78.563256 
   81400    1240.2884   -109.74112     1.122239   -108.61888    567.64023    4.2904038    4.2904038    4.2904038    567.64023    50775.962   -16621.356   -32451.686   -6397.2496    3347.7833    78409.228    78.975886 
   81500    2404.2887    -110.7659    2.1754509   -108.59044   -6068.6207    4.2965973    4.2965973    4.2965973   -6068.6207   -47185.159   -17807.416    46786.713    -639.5359    3639.4939     -20604.1    79.318402 
   81600    692.15641   -109.23636   0.62627767   -108.61008    5216.0826    4.2844543    4.2844543    4.2844543    5216.0826    37586.239   -58698.629    36760.637   -4418.2406    4095.7665    95178.102    78.647795 
   81700    1575.1625   -110.03206    1.4252401   -108.60682     21516.03    4.2750143    4.2750143    4.2750143     21516.03    16044.358    32234.627    16269.106    4753.7725   -4667.3057    24117.118    78.129082 
   81800    2044.6156   -110.45857    1.8500111   -108.60856    26415.828    4.2734947    4.2734947    4.2734947    26415.828   -2461.2739    58830.302    22878.455     5322.967   -8968.6514     4844.791    78.045797 
   81900    656.19259   -109.23909   0.59373684   -108.64535   -5698.6093    4.2890759    4.2890759    4.2890759   -5698.6093    26239.468   -18288.495   -25046.801    4176.8717    5177.9642    100303.79    78.902578 
   82000    2036.8719   -110.44901    1.8430045     -108.606   -18098.373    4.2967876    4.2967876    4.2967876   -18098.373   -43521.477   -20882.126    10108.483   -16219.708    1605.7929   -16805.336    79.328939 
   82100    1348.3052   -109.82397    1.2199749     -108.604    18232.265    4.2755003    4.2755003    4.2755003    18232.265    25315.939    13413.742    15967.116   -9498.1691   -4346.3095    53955.048    78.155729 
   82200    1161.0134   -109.66616    1.0505094   -108.61565   -6267.5136    4.2745372    4.2745372    4.2745372   -6267.5136    60484.911   -61365.461   -17921.991    6133.1436    12983.177    75618.623    78.102928 
   82300    2150.4269   -110.54613    1.9457515   -108.60038    5097.0241    4.2824317    4.2824317    4.2824317    5097.0241   -17091.943   -11753.074    44136.089   -3093.0346    9483.4378   -24808.823    78.536465 
   82400    773.11679   -109.32136   0.69953232   -108.62182   -12718.111    4.3011517    4.3011517    4.3011517   -12718.111    16560.099   -28272.326   -26442.105    -9275.393     5158.036     82982.07    79.570901 
   82500    1985.7132   -110.38397     1.796715   -108.58725   -14186.885    4.3020652    4.3020652    4.3020652   -14186.885   -1078.4531   -21676.345   -19805.857    8083.5201   -1160.3948    10488.117    79.621613 
   82600    1544.9928   -109.98349    1.3979419   -108.58554    35084.886    4.2714868    4.2714868    4.2714868    35084.886    41448.347    46984.125    16822.186    4179.9533     3318.926    20719.217    77.935837 
   82700    830.20517   -109.36378   0.75118708   -108.61259   -17213.776    4.2729824    4.2729824    4.2729824   -17213.776    49989.105   -64312.202   -37318.231   -10837.558   -739.94611    99937.168     78.01773 
   82800    2307.8138   -110.69031    2.0881585   -108.60215    4367.0574    4.2774451    4.2774451    4.2774451    4367.0574   -3133.8033    11900.661     4334.314    7183.6653    -23002.84   -20495.507    78.262433 
   82900    1236.3609   -109.74984    1.1186853   -108.63116    3552.3671    4.2853766    4.2853766    4.2853766    3552.3671    36733.966   -22334.341   -3742.5228    5566.5161   -4616.4979    51637.851    78.698598 
   83000    1259.6723   -109.76101     1.139778   -108.62123   -32671.487    4.2966647    4.2966647    4.2966647   -32671.487    19582.012   -77565.587   -40030.887   -13006.915    4237.2527    52074.654    79.322136 
   83100    2161.2267   -110.54908    1.9555234   -108.59356    25463.933    4.2750209    4.2750209    4.2750209    25463.933    10242.622    48749.938    17399.237    1052.4639   -18427.629    -25028.37    78.129443 
   83200    786.24067   -109.33163   0.71140708   -108.62022   -5570.3318    4.2792259    4.2792259    4.2792259   -5570.3318    76219.621   -47221.675   -45708.941   -2441.6893   -7012.0579    93326.856    78.360218 
   83300     2024.765    -110.4261    1.8320499   -108.59405   -11895.627    4.2943519    4.2943519    4.2943519   -11895.627    7472.5498   -17563.233   -25596.199   -9145.4067    6145.8488   -1565.4587     79.19411 
   83400    1558.5203   -110.00348    1.4101819    -108.5933     14157.14    4.2884363    4.2884363    4.2884363     14157.14    41392.847    18155.969   -17077.396   -4277.0317    2462.7428    34248.929    78.867286 
   83500    1153.7094   -109.65091    1.0439005   -108.60701   -14283.972    4.2890335    4.2890335    4.2890335   -14283.972    35446.741    -51911.35   -26387.309    3415.4744   -6928.7382     78583.95    78.900238 
   83600    2521.1996   -110.86922    2.2812344   -108.58798    10921.116     4.275237     4.275237     4.275237    10921.116    -8458.959    43139.054   -1916.7475   -889.61427     -3533.11   -24232.556    78.141291 
   83700    1123.6746    -109.6351    1.0167244   -108.61837    27493.949    4.2701174    4.2701174    4.2701174    27493.949    84698.066    3363.5589   -5579.7784   -5418.9457    11752.909    82778.857    77.860906 
   83800    1774.9297   -110.21839    1.6059937   -108.61239   -21424.205    4.2973515    4.2973515    4.2973515   -21424.205    5188.7297   -16206.544   -53254.801    402.14846   -8049.8516    18000.875    79.360181 
   83900    1732.5526   -110.16684      1.56765   -108.59919    18020.426    4.2872875    4.2872875    4.2872875    18020.426    22029.743    46869.757   -14838.223    5499.4557   -25538.574    6281.3951    78.803922 
   84000     1098.186   -109.59804    0.9936618   -108.60438    20287.584    4.2776415    4.2776415    4.2776415    20287.584    104926.25   -28379.285   -15684.208    7951.1706    1310.3822    79633.481    78.273212 
   84100    2410.4916   -110.76436    2.1810635    -108.5833   -3496.7064    4.2879272    4.2879272    4.2879272   -3496.7064   -11011.615    13589.732   -13068.236    4564.4393   -7889.5158    -25296.26      78.8392 
   84200    1018.9001   -109.53249   0.92192222   -108.61057    10174.798    4.2779581    4.2779581    4.2779581    10174.798    19064.411   -10478.512    21938.494   -4219.6182   -15305.652    63424.797    78.290593 
   84300     1359.868    -109.8505    1.2304371   -108.62006    12544.928    4.2773796    4.2773796    4.2773796    12544.928     32450.42    15934.444   -10750.081    7256.9366   -10452.259    45095.312    78.258834 
   84400    2223.6262   -110.61386    2.0119837   -108.60188   -1760.5449    4.2883883    4.2883883    4.2883883   -1760.5449   -8943.9362   -9760.5378    13422.839   -1579.4863    2324.7096   -16856.545    78.864636 
   84500    523.00422   -109.09576   0.47322521   -108.62253   -1893.6618    4.2860339    4.2860339    4.2860339   -1893.6618    28378.479   -23178.189   -10881.275   -836.61667    -11861.01    91727.582    78.734813 
   84600    1615.3948   -110.06287    1.4616432   -108.60122    1389.3727    4.2885299    4.2885299    4.2885299    1389.3727   -9439.8694    8217.1447    5390.8427    1760.7649   -18344.122   -9118.1277    78.872449 
   84700    1362.1144   -109.83532    1.2324698   -108.60285   -18474.379    4.2883383    4.2883383    4.2883383   -18474.379    54294.368   -70765.025   -38952.478    -10303.85    14843.176    48569.054    78.861879 
   84800    938.00202   -109.45195   0.84872394   -108.60322   -49.184433    4.2787901    4.2787901    4.2787901   -49.184433     58922.04    -34828.11   -24241.484     2234.922   -2948.4963    66407.737    78.336283 
   84900    1852.0943   -110.26285    1.6758138   -108.58704   -2445.4381    4.2832064    4.2832064    4.2832064   -2445.4381   -20284.544    4189.6703    8758.5592   -5533.0898    -15299.33   -24614.979     78.57909 
   85000     675.7169   -109.21833   0.61140285   -108.60692   -31136.656    4.2897456    4.2897456    4.2897456   -31136.656    43091.972   -86819.415   -49682.524   -117.33527   -4590.1978    103522.26    78.939545 
   85100    1674.4415   -110.11579    1.5150698   -108.60072    2773.6309    4.2785546    4.2785546    4.2785546    2773.6309     15919.44   -19480.598    11882.051    1413.1915    3242.4167    20761.372    78.323349 
   85200    1592.2012   -110.04943    1.4406571   -108.60877   -4398.8967    4.2797091    4.2797091    4.2797091   -4398.8967   -610.05404   -23203.689    10617.053   -3791.8275   -3262.0789    17490.619    78.386767 
   85300    512.11523   -109.09149   0.46337262   -108.62812   -11753.284    4.2880819    4.2880819    4.2880819   -11753.284    58304.799   -53667.462   -39897.189    2575.0124   -19887.096    96037.236    78.847735 
   85400    2437.3891   -110.79779    2.2054009   -108.59239    5304.4104    4.2861444    4.2861444    4.2861444    5304.4104    -7019.113   -3000.3021    25932.646    -9287.591   -370.45922   -29108.862    78.740906 
   85500    1136.6904   -109.64182    1.0285013   -108.61332    -8235.948    4.2833979    4.2833979    4.2833979    -8235.948    22842.705   -8020.4661   -39530.083    9807.4436   -1792.7902    83726.101    78.589635 
   85600    1336.3822   -109.82714    1.2091867   -108.61795   -5603.9418    4.2814294    4.2814294    4.2814294   -5603.9418       428.04    4799.0828   -22038.948   -1507.2923    -8778.162    53542.727    78.481328 
   85700    2297.3194   -110.67707    2.0786629   -108.59841    25167.084    4.2778833    4.2778833    4.2778833    25167.084    12967.936    47503.286    15030.031   -2360.5603   -1007.3266   -15242.303    78.286486 
   85800    881.70721   -109.41971   0.79778721   -108.62192   -1333.6737    4.2885827    4.2885827    4.2885827   -1333.6737    61643.446    -29482.24   -36162.227    4085.5342    4258.3734    94712.919    78.875361 
   85900    2284.4491   -110.65288    2.0670176   -108.58586    2190.3831    4.2920698    4.2920698    4.2920698    2190.3831   -18178.449    16515.569    8234.0285   -13572.866    1756.0067   -25206.328    79.067923 
   86000    1312.8957   -109.79095    1.1879357   -108.60301    4735.8986    4.2795819    4.2795819    4.2795819    4735.8986     30184.49    750.11933   -16726.913    3372.4658   -8076.9776    68472.784    78.379775 
   86100      1469.62   -109.94164     1.329743    -108.6119    1871.9057    4.2703557    4.2703557    4.2703557    1871.9057    32669.384   -3717.7538   -23335.913   -1864.6647    16487.308    72725.654    77.873939 
   86200    2599.5209   -110.95277    2.3521011   -108.60067    12864.848    4.2801572    4.2801572    4.2801572    12864.848    2177.4555    29462.354    6954.7346   -1980.1627     5219.767   -32868.106    78.411389 
   86300    844.56369   -109.39027   0.76417898   -108.62609   -18034.844    4.2953799    4.2953799    4.2953799   -18034.844    43345.397   -42159.837   -55290.091    867.96468   -662.34219    101267.24    79.250998 
   86400    2204.2228   -110.58774    1.9944271   -108.59332     3781.483    4.2912119    4.2912119    4.2912119     3781.483   -5313.9828   -1839.0452    18497.477    1593.1146    1508.1281   -10046.544    79.020517 
   86500    1644.1028   -110.09079    1.4876188   -108.60317   -10613.874    4.2797057    4.2797057    4.2797057   -10613.874    16497.417   -24881.646   -23457.395    10490.245   -7718.6978     57829.57    78.386579 
   86600    1209.7381   -109.71072    1.0945964   -108.61612    7671.6302    4.2652867    4.2652867    4.2652867    7671.6302    52540.848   -15857.731   -13668.227   -13153.782     10806.15    90564.212    77.596954 
   86700    2468.8438   -110.84373    2.2338617   -108.60987        23220    4.2781757    4.2781757    4.2781757        23220    -6059.527    56886.378    18833.148    -1106.747   -12224.667   -34140.437    78.302542 
   86800     922.5814   -109.45897   0.83477104    -108.6242   -31650.397     4.301216     4.301216     4.301216   -31650.397    31037.407   -71656.498   -54332.099    6304.3719   -5437.6613     99959.32    79.574473 
   86900    1893.3759   -110.31431    1.7131663   -108.60115   -5350.3173    4.2844008    4.2844008    4.2844008   -5350.3173     17191.09   -1560.5259   -31681.516   -3352.3701    9052.9129    25136.021     78.64485 
   87000    1801.9585   -110.21696    1.6304499   -108.58651    13350.428    4.2677757    4.2677757    4.2677757    13350.428    20339.083    8750.2526    10961.949    10576.529   -18267.909    20505.985    77.732879 
   87100    527.01283   -109.09925   0.47685229    -108.6224   -13686.898     4.279246     4.279246     4.279246   -13686.898    77580.259   -61612.009   -57028.944   -7336.7657   -4476.9943    107686.76    78.361324 
   87200    2293.7976   -110.67291    2.0754763   -108.59743   -3292.0588    4.2881458    4.2881458    4.2881458   -3292.0588    1701.1119   -29658.747    18081.459    3544.5546    7194.3923   -23857.603    78.851257 
   87300    851.26171   -109.38733   0.77023949   -108.61709   -7266.3762    4.2960645    4.2960645    4.2960645   -7266.3762    52435.413   -39291.054   -34943.488   -4776.9653    9317.5841    71046.966    79.288897 
   87400    1057.9523   -109.55911   0.95725749   -108.60186   -8465.0682    4.2917621    4.2917621    4.2917621   -8465.0682    46554.982   -45286.541   -26663.646   -68.949874   -13812.528      43344.3    79.050916 
   87500    1696.0577    -110.1088    1.5346287   -108.57417    18924.115    4.2735576    4.2735576    4.2735576    18924.115     20677.14    26029.253    10065.951    7895.5889   -3221.8232   -3155.9991    78.049241 
   87600    578.85378   -109.13121   0.52375906   -108.60745    -10984.91    4.2774756    4.2774756    4.2774756    -10984.91    48908.474   -44151.825   -37711.378    1547.1926    13449.933     101139.5    78.264106 
   87700    2145.5174     -110.535    1.9413093   -108.59369   -2424.3979    4.2856263    4.2856263    4.2856263   -2424.3979    6358.6692   -25364.965    11733.102    7261.3844   -12014.312   -17124.739    78.712351 
   87800    816.42205    -109.3525   0.73871583   -108.61379    11992.889    4.2868607    4.2868607    4.2868607    11992.889    59118.731    11886.028   -35026.093    4228.0379   -9719.7327    67283.899    78.780387 
   87900    1364.8441   -109.83874    1.2349397    -108.6038   -3718.2038    4.2949182    4.2949182    4.2949182   -3718.2038    29704.563   -51498.705     10639.53    7424.8269   -8780.3503    37555.582    79.225447 
   88000    2104.4789    -110.4873    1.9041767   -108.58313    16470.765    4.2820544    4.2820544    4.2820544    16470.765    28788.865    25350.165   -4726.7346   -2305.6971    1787.1431   -3230.7575    78.515706 
   88100    741.34647   -109.27904   0.67078587   -108.60826    21294.049    4.2671355    4.2671355    4.2671355    21294.049    78499.167    -12986.28    -1630.742   -3441.4784   -1541.6391    109374.97    77.697906 
   88200    2438.8447   -110.80197    2.2067179   -108.59525   -3172.0676    4.2847014    4.2847014    4.2847014   -3172.0676   -27135.735    20529.767   -2910.2355   -7627.2132    -8613.171   -29404.793    78.661405 
   88300    1250.5359   -109.73618    1.1315112   -108.60467    -602.3579    4.2894052    4.2894052    4.2894052    -602.3579    37154.879   -17644.352   -21317.601   -4144.2762   -2385.4567    71424.659    78.920752 
   88400    1757.4008   -110.18498    1.5901332   -108.59484    2932.0752     4.285668     4.285668     4.285668    2932.0752    14943.492   -20004.515    13857.249    7464.3109    5421.3603    42472.706     78.71465 
   88500     2167.068   -110.54743    1.9608086   -108.58662   -1400.7384    4.2848974    4.2848974    4.2848974   -1400.7384    5931.3929    8768.4381   -18902.046    1193.0467   -10647.077     467.9331    78.672199 
   88600    956.33825   -109.47245   0.86531495   -108.60713     11120.75    4.2766612    4.2766612    4.2766612     11120.75    73816.941   -32198.147   -8256.5447   -9227.5239   -9088.1662    94079.753    78.219412 
   88700    2692.8431   -111.02414    2.4365411    -108.5876    10503.647    4.2853696    4.2853696    4.2853696    10503.647    4724.6347      13259.7    13526.607   -10723.208    1978.9942   -28490.944    78.698208 
   88800    1330.2456   -109.81833    1.2036342   -108.61469   -29052.653    4.2945768    4.2945768    4.2945768   -29052.653    31345.573   -57392.337   -61111.195   -4035.4319   -2130.6244    71440.228    79.206552 
   88900    1501.4306   -109.97305    1.3585259   -108.61452   -3992.2949    4.2748212    4.2748212    4.2748212   -3992.2949    11135.476   -3770.8208    -19341.54      15591.5   -20961.023    50777.776    78.118496 
   89000    2462.8514   -110.82508    2.2284397   -108.59664    2507.2586    4.2702089    4.2702089    4.2702089    2507.2586    3286.9217    12350.957   -8116.1028    13582.203   -6731.4226   -11412.823    77.865912 
   89100    997.63746   -109.52601   0.90268334   -108.62333   -20179.342     4.280193     4.280193     4.280193   -20179.342    68075.418   -57606.623    -71006.82   -7425.7754    5307.5399    105087.99     78.41336 
   89200    2113.5016   -110.52068    1.9123407   -108.60834   -651.52889    4.2829097    4.2829097    4.2829097   -651.52889   -7491.7989    28709.712     -23172.5   -6715.0631   -15019.924   -3933.6541    78.562765 
   89300    1599.0645    -110.0577    1.4468672   -108.61084   -15712.774    4.2898506    4.2898506    4.2898506   -15712.774    24184.373   -31848.186   -39474.508   -5141.6802   -16142.128    30226.154    78.945342 
   89400    1062.2743   -109.57018   0.96116808   -108.60902     3671.109    4.2815946    4.2815946    4.2815946     3671.109    70237.144   -21763.967    -37459.85   -1990.8134   -611.22009    73486.603    78.490416 
   89500    2194.5849   -110.57298    1.9857065   -108.58727    4946.7958    4.2781906    4.2781906    4.2781906    4946.7958    5679.5315   -14402.714     23563.57   -2857.8395    -5045.504   -26589.168    78.303357 
   89600    759.08848   -109.30468   0.68683921   -108.61784   -19018.234     4.283242     4.283242     4.283242   -19018.234    20408.432   -61202.191   -16260.943    6238.0814   -17695.473    74052.337    78.581054 
   89700    1412.3109   -109.89623    1.2778885   -108.61835   -1096.7958    4.2795033    4.2795033    4.2795033   -1096.7958    27711.797    -30577.12   -425.06409   -19.185691   -1009.9147    40442.516    78.375458 
   89800    2045.8596   -110.45835    1.8511368   -108.60721    5860.6554    4.2782243    4.2782243    4.2782243    5860.6554      12661.6   -24949.728    29870.094   -14427.801     13512.27   -13864.696    78.305209 
   89900    375.10822   -108.97222    0.3394058   -108.63282   -17323.087    4.2824716    4.2824716    4.2824716   -17323.087    45642.689   -51058.384   -46553.566    225.90753   -15201.728    92708.165    78.538658 
   90000    1563.8067   -110.03428    1.4149651   -108.61931   -4088.3027    4.2786351    4.2786351    4.2786351   -4088.3027   -12106.922    4050.9264   -4208.9123   -5206.1845   -15136.094   -1613.0647    78.327768 
   90100     1416.881   -109.89887    1.2820237   -108.61685    7116.4897    4.2751045    4.2751045    4.2751045    7116.4897    13975.092    15301.238   -7926.8603   -3091.1069    5885.8335    24735.043    78.134024 
   90200    637.39024    -109.2088   0.57672409   -108.63207    -16666.42     4.279599     4.279599     4.279599    -16666.42    31112.252   -34730.305   -46381.207    4496.2189    -4274.771    86341.137    78.380716 
   90300    1691.8278   -110.14646    1.5308013   -108.61566   -5360.4381    4.2753757    4.2753757    4.2753757   -5360.4381   -23224.105   -6800.7851    13943.576   -642.91274   -26443.381   -21759.401    78.148898 
   90400    974.54404   -109.51007   0.88178793   -108.62828   -6675.9313    4.2719475    4.2719475    4.2719475   -6675.9313    26058.865   -34562.231   -11524.428    5150.6776   -14927.312    57772.979    77.961059 
   90500    979.08691   -109.51987   0.88589841   -108.63397   -13455.597    4.2790937    4.2790937    4.2790937   -13455.597    29610.326   -73303.403    3326.2861    -7275.735     10486.72    66690.093    78.352954 
   90600    1853.8684   -110.29138     1.677419   -108.61396   -1144.1765    4.2824461    4.2824461    4.2824461   -1144.1765   -34296.023    12988.267    17875.227   -8363.2303   -23250.274   -33073.353    78.537257 
   90700    672.38864   -109.23988   0.60839138   -108.63149   -27261.643    4.2814331    4.2814331    4.2814331   -27261.643    9522.4175   -50715.064   -40592.284    6820.5241   -32402.609    70094.575    78.481533 
   90800    1645.2446   -110.11589    1.4886519   -108.62724   -6015.5163    4.2716341    4.2716341    4.2716341   -6015.5163    18829.294   -30404.197   -6471.6466   -6747.4443    13316.542    39774.613    77.943898 
   90900    2009.8123   -110.43829    1.8185204   -108.61977    95.997067    4.2789169    4.2789169    4.2789169    95.997067   -11829.114    14096.376   -1979.2701    2008.3099   -7833.5491   -9363.9347    78.343247 
   91000    671.20539   -109.24987   0.60732075   -108.64255   -25629.252    4.2833385    4.2833385    4.2833385   -25629.252    9379.2071   -25810.769   -60456.194    7076.5629   -35149.299    76094.343    78.586362 
   91100    1802.6381   -110.26356    1.6310648    -108.6325    3859.3338      4.27512      4.27512      4.27512    3859.3338   -6541.7395    6598.7052    11521.036   -4633.3657   -3258.1212    4065.9158    78.134878 
   91200    2189.8533    -110.6075    1.9814253   -108.62608    4160.6594    4.2726783    4.2726783    4.2726783    4160.6594   -2389.3422   -4282.6076    19153.928   -1786.2303    7277.9038    4581.2506    78.001072 
   91300    760.34357   -109.33811   0.68797484   -108.65014    14470.583    4.2704993    4.2704993    4.2704993    14470.583    26411.551    9234.9466    7765.2525   -12397.899   -19506.002     78018.04    77.881796 
   91400    1960.7296   -110.41034    1.7741094   -108.63623    -1671.658    4.2821551    4.2821551    4.2821551    -1671.658   -23107.205    41404.651   -23312.419    1484.8171   -25271.211    -8723.849    78.521246 
   91500    2033.3721   -110.46498    1.8398378   -108.62514   -7242.4001    4.2817686    4.2817686    4.2817686   -7242.4001   -5519.9918   -21522.022    5314.8131     7749.079    11297.891    22827.666    78.499985 
   91600    1018.1682   -109.55454   0.92125998   -108.63328    521.58101    4.2706706    4.2706706    4.2706706    521.58101     16218.23     20535.99   -35189.476    1557.5497   -12653.211    74308.618    77.891168 
   91700    1982.3678   -110.41566    1.7936881   -108.62198   -2474.8253    4.2767494    4.2767494    4.2767494   -2474.8253   -42393.328    52506.879   -17538.028   -2753.1811   -39512.884   -20005.765    78.224252 
   91800     1737.054   -110.19535     1.571723   -108.62362   -8764.1301    4.2787753    4.2787753    4.2787753   -8764.1301    20789.564   -6940.7514   -40141.203   -7606.6357    5493.9123    39918.775    78.335465 
   91900    1262.0905   -109.76637     1.141966   -108.62441    5215.1704    4.2784799    4.2784799    4.2784799    5215.1704    11635.672    39034.634   -35024.795    3042.1489     3406.382     57502.18    78.319242 
   92000    2086.5684   -110.50163    1.8879709   -108.61366   -10471.461    4.2826569    4.2826569    4.2826569   -10471.461   -45930.703    20638.818   -6122.4989   -4521.6699   -25063.285   -23996.676    78.548852 
   92100    1203.9277    -109.7203    1.0893391   -108.63096    4231.6344     4.270226     4.270226     4.270226    4231.6344    32697.823    17805.946   -37808.866    96.785519    -9874.249    70921.615    77.866843 
   92200    1758.8356   -110.22407    1.5914314   -108.63264    8837.2087    4.2675292    4.2675292    4.2675292    8837.2087    23213.113    -8627.809    11926.322    9416.7434    2961.1074    50855.421     77.71941 
   92300    2305.0579   -110.71037    2.0856648   -108.62471   -3343.5758    4.2833005    4.2833005    4.2833005   -3343.5758   -33470.029    22688.555    750.74642    5719.9398   -11635.559    -28321.35    78.584271 
   92400    955.73489   -109.50207   0.86476902    -108.6373   -7041.8588    4.2840313    4.2840313    4.2840313   -7041.8588    25262.096   -38187.603   -8200.0702    3213.5595   -10146.767    93616.787    78.624502 
   92500    2171.5935   -110.58921    1.9649034   -108.62431    3695.4812    4.2765195    4.2765195    4.2765195    3695.4812    12411.693   -6049.3075    4724.0581   -13234.177    8805.7769    24364.827    78.211634 
   92600    2155.5925   -110.57369    1.9504254   -108.62327    22536.585    4.2701393    4.2701393    4.2701393    22536.585    11532.713    22078.162     33998.88   -774.39514    4608.5969    3318.5777    77.862102 
   92700    916.52952   -109.47867   0.82929517   -108.64937   -16009.065    4.2780356    4.2780356    4.2780356   -16009.065    33531.925   -5230.5164   -76328.605    8442.1619   -16617.533    95193.777    78.294848 
   92800    2412.2949    -110.8076    2.1826951   -108.62491   -5677.1562    4.2831988    4.2831988    4.2831988   -5677.1562   -13954.617    22279.069   -25355.921   -6924.0764   -9106.8439   -16081.395    78.578673 
   92900     1726.172    -110.1851    1.5618767   -108.62322   -4557.8055    4.2843584    4.2843584    4.2843584   -4557.8055    36254.448    891.29701   -50819.161    9635.4019   -695.60957    51947.118    78.642513 
   93000    1291.1298   -109.79342    1.1682413   -108.62517   -19526.064    4.2835593    4.2835593    4.2835593   -19526.064    47255.769   -32131.642   -73702.317    6730.5567   -2716.0555     75005.97    78.598519 
   93100     2296.949   -110.68511    2.0783277   -108.60678    16486.356     4.271701     4.271701     4.271701    16486.356   -6917.0381    39186.253    17189.852     -2049.81   -17444.672    -32173.27    77.947561 
   93200    1255.4125   -109.76843    1.1359236   -108.63251    6455.7308    4.2755954    4.2755954    4.2755954    6455.7308    46641.156   -31738.865    4464.9006   -5898.3377    7216.1512    72112.542    78.160947 
   93300    1664.0176   -110.13452    1.5056381   -108.62888   -3984.6472    4.2871917    4.2871917    4.2871917   -3984.6472    26647.532   -47056.534    8455.0599    4315.0641    4910.9136    39470.849     78.79864 
   93400    1980.2323   -110.40394    1.7917558   -108.61219   -7538.3888    4.2888976    4.2888976    4.2888976   -7538.3888     1529.616   -3283.5055   -20861.277    4268.5376   -16663.372   -7926.8541    78.892739 
   93500    932.01998   -109.46255   0.84331127   -108.61924   -27923.782    4.2880463    4.2880463    4.2880463   -27923.782    45118.707   -60649.598   -68240.456    2668.8363    340.22637    94403.401    78.845771 
   93600     2183.357   -110.57488    1.9755473   -108.59933    11454.888    4.2723717    4.2723717    4.2723717    11454.888    29159.113     -10528.3    15733.851    1183.0331    5645.1297   -1842.2867    77.984283 
   93700    1420.5309   -109.90596    1.2853262   -108.62064    1888.3114    4.2688026    4.2688026    4.2688026    1888.3114    24853.214     318.8106   -19507.091   -354.07292   -8379.9143    18376.108    77.789006 
   93800    665.00899   -109.24336   0.60171411   -108.64165   -13894.041    4.2820472    4.2820472    4.2820472   -13894.041    29536.372   -38070.452   -33148.041   -464.38139   -11523.556    81213.889    78.515309 
   93900    2039.6299   -110.45875       1.8455   -108.61325   -1382.3042    4.2861012    4.2861012    4.2861012   -1382.3042   -13588.426   -553.40302    9994.9168   -9202.0761    5463.3397    -23502.35    78.738524 
   94000    871.53282   -109.41235   0.78858121   -108.62377   -10502.701    4.2854569    4.2854569    4.2854569   -10502.701    8730.5116    -32302.53   -7936.0853    4324.8377   -4030.0733    36960.955    78.703022 
   94100    891.61768   -109.43704   0.80675442   -108.63028   -29140.204     4.276278     4.276278     4.276278   -29140.204    35143.472   -84384.782   -38179.301    -2097.465   -8982.5427     71381.71    78.198387 
   94200    1915.7135   -110.34315    1.7333778   -108.60977     11147.73    4.2604084    4.2604084    4.2604084     11147.73    4926.2215   -12736.844    41253.812   -669.05729    4278.7746   -23917.247     77.33101 
   94300    685.56505    -109.2635   0.62031366   -108.64319   -26181.313    4.2800819    4.2800819    4.2800819   -26181.313    7671.1863   -68357.067   -17858.058    -4896.868    9990.9009    50847.972    78.407252 
   94400    1242.7433   -109.75104    1.1244603   -108.62658   -24245.527    4.2908961    4.2908961    4.2908961   -24245.527     10700.18   -63576.207   -19860.555    3567.1591   -10841.868    44382.836    79.003074 
   94500    1538.7459   -109.99813    1.3922896   -108.60584    1288.4273    4.2819151    4.2819151    4.2819151    1288.4273   -20068.803   -37685.834    61619.919    2102.7578    12202.142   -27898.472    78.508046 
   94600    541.21207   -109.11153   0.48970006   -108.62183   -27845.428    4.2831123    4.2831123    4.2831123   -27845.428    7039.6069   -79542.436   -11033.456   -485.84836    15968.681    48033.174    78.573915 
   94700    1788.5446   -110.23045    1.6183127   -108.61214    8252.8279    4.2704413    4.2704413    4.2704413    8252.8279    30501.173   -21393.587    15650.898    3014.2704    1634.3842    24220.456    77.878625 
   94800    1450.5886   -109.93335     1.312523   -108.62083    6124.6067    4.2741116    4.2741116    4.2741116    6124.6067   -27774.234    4985.5723    41162.481   -18382.078     1589.304   -14849.834    78.079597 
   94900    1067.3484   -109.59328   0.96575922   -108.62752   -38449.421    4.2922635    4.2922635    4.2922635   -38449.421   -20226.315   -59389.294   -35732.655   -5512.9698    2829.2398    37745.085    79.078629 
   95000    2245.5867   -110.63501     2.031854   -108.60315    5970.4349    4.2760794    4.2760794    4.2760794    5970.4349   -5998.7032    18236.857    5673.1512    8883.3248    3481.3776    10602.324     78.18749 
   95100    1249.1379   -109.75083    1.1302462   -108.62058   -22464.299    4.2766353    4.2766353    4.2766353   -22464.299    -60323.35    -13548.25    6478.7024   -15797.909   -10534.831    -12434.79    78.217991 
   95200    1638.3123    -110.1125    1.4823794   -108.63012   -24457.216    4.2765431    4.2765431    4.2765431   -24457.216   -37764.748   -22526.354   -13080.545   -5093.8374   -1006.7783    19306.944    78.212929 
   95300    2749.1252   -111.10524    2.4874663   -108.61777    5786.4985     4.270899     4.270899     4.270899    5786.4985   -13855.146    41756.606   -10541.965    1584.8008    10941.219    4823.0829    77.903666 
   95400     1114.591   -109.65337    1.0085054   -108.64487   -36795.934    4.2889922    4.2889922    4.2889922   -36795.934   -70625.137    -18465.89   -21296.775    -11849.28   -6415.3431   -13442.532    78.897958 
   95500    1842.1188   -110.29814    1.6667878   -108.63135   -7887.3052    4.2777264    4.2777264    4.2777264   -7887.3052   -33246.529     16748.95   -7164.3374   -8033.2803   -8317.1504   -15068.128     78.27787 
   95600     2335.917   -110.73189    2.1135868   -108.61831    1966.4452    4.2704466    4.2704466    4.2704466    1966.4452   -13723.415     47935.91    -28313.16    6414.2611    25010.858    21089.911    77.878911 
   95700    1242.1763   -109.75491    1.1239472   -108.63097    -29040.09    4.2839517    4.2839517    4.2839517    -29040.09   -41207.922   -9518.6799   -36393.668   -14522.278     3532.212   -742.56965    78.620119 
   95800    2331.3296   -110.71692     2.109436   -108.60748   -8902.3336    4.2807007    4.2807007    4.2807007   -8902.3336    -15888.49   -1635.3035   -9183.2067   -5780.7391   -7188.8212    -10794.08    78.441266 
   95900    1622.8329   -110.08712    1.4683733   -108.61875   -19052.518    4.2788861    4.2788861    4.2788861   -19052.518   -4799.2201    9932.6125   -62290.947    7805.3772     29301.49      34544.1    78.341556 
   96000    1414.7814   -109.90525    1.2801239   -108.62512   -9465.1045    4.2769701    4.2769701    4.2769701   -9465.1045    16069.701   -10478.092   -33986.924   -2900.8689    10182.952    2374.8825    78.236361 
   96100    2336.3476   -110.72594    2.1139764   -108.61196    9968.3329    4.2725189    4.2725189    4.2725189    9968.3329    11669.298   -4839.0062    23074.707    3848.4293   -9061.8817   -8011.3285    77.992346 
   96200    1180.3575   -109.70576    1.0680122   -108.63775    1678.7156    4.2758865    4.2758865    4.2758865    1678.7156    35251.504    14959.979   -45175.336   -4953.0475    30334.427    42498.338    78.176913 
   96300    1538.7395   -110.02225    1.3922838   -108.62997   -2532.8733    4.2837208    4.2837208    4.2837208   -2532.8733    18316.457    5242.0009   -31157.078   -4163.6734     13396.16    11432.087    78.607408 
   96400    2119.1214   -110.52606    1.9174256   -108.60863    6643.1844    4.2829418    4.2829418    4.2829418    6643.1844    15221.831   -26482.368    31190.091    5546.2615   -14782.826    1030.8549    78.564531 
   96500    755.94555   -109.31254   0.68399542   -108.62855   -8160.5736     4.279597     4.279597     4.279597   -8160.5736    34000.535   -36544.986   -21937.269   -8208.3621    32018.818    30709.857    78.380609 
   96600    1631.1426   -110.10138    1.4758921   -108.62549    766.56022    4.2740585    4.2740585    4.2740585    766.56022   -6316.3358   -14983.214     23599.23    6334.2841    21303.301   -680.41941    78.076688 
   96700    1900.4523    -110.3427    1.7195692   -108.62313    20505.812    4.2703652    4.2703652    4.2703652    20505.812    18456.822   -22024.917     65085.53    8654.2913   -16705.269     711.3644     77.87446 
   96800    687.66876   -109.27057   0.62221714   -108.64835    260.65681     4.276972     4.276972     4.276972    260.65681    22988.235   -30764.409    8558.1449    -3933.906    9071.2605    32911.804    78.236463 
   96900    1668.1882   -110.14054    1.5094117   -108.63113    4637.2903    4.2804356    4.2804356    4.2804356    4637.2903    24058.253   -34365.064    24218.682   -2333.4629    19589.877   -5626.3861    78.426691 
   97000    1543.0335   -110.02206    1.3961691   -108.62589    -2691.363     4.276381     4.276381     4.276381    -2691.363    15362.599   -39270.886    15834.198   -2632.5752   -22077.796    4612.1636    78.204037 
   97100    495.99008   -109.08854   0.44878225   -108.63976   -26063.138    4.2771404    4.2771404    4.2771404   -26063.138     22814.05   -59733.213   -41270.251    2420.9187   -20651.188    35986.797    78.245708 
   97200    2043.5594   -110.46802    1.8490555   -108.61896    8241.3651     4.270659     4.270659     4.270659    8241.3651    17687.425   -27589.855    34626.525    1669.7719    17900.863   -5645.9336    77.890535 
   97300    1130.5392   -109.65732    1.0229356   -108.63439   -16552.588    4.2815174    4.2815174    4.2815174   -16552.588    9120.2242   -29713.011   -29064.976   -1256.5765   -32613.571    16499.293    78.486169 
   97400    597.47289   -109.18376   0.54060603   -108.64315   -16597.821    4.2758749    4.2758749    4.2758749   -16597.821    25157.997   -38666.777   -36284.681   -2221.9889   -31480.247    32332.088    78.176274 
   97500    2120.7079   -110.53594     1.918861   -108.61708    11164.084    4.2725507    4.2725507    4.2725507    11164.084    12394.922   -34133.259     55230.59     466.4283     18258.53   -9804.2253    77.994086 
   97600    975.93712   -109.51922   0.88304842   -108.63617   -26347.459    4.2833709    4.2833709    4.2833709   -26347.459   -9669.9864   -26017.221    -43355.17     3325.357   -22045.906    16654.306    78.588144 
   97700    734.98444   -109.30277   0.66502937   -108.63774    11523.208     4.273947     4.273947     4.273947    11523.208    56462.987   -19753.241    -2140.122    2486.0689   -17462.137    34967.335    78.070576 
   97800    2333.3743   -110.72031    2.1112861   -108.60902    2575.8932    4.2808082    4.2808082    4.2808082    2575.8932     18133.22   -27245.382    16839.842     2189.872    5534.7331   -13011.172    78.447175 
   97900    963.39081   -109.50135   0.87169625   -108.62966   -7476.6407    4.2816602    4.2816602    4.2816602   -7476.6407    26726.248    -23268.37   -25887.801    1325.4592   -19407.586    4044.9744    78.494026 
   98000    1336.4996    -109.8362     1.209293   -108.62691    2536.5406    4.2752421    4.2752421    4.2752421    2536.5406    41088.311   -17726.547   -15752.142    3195.6037   -23137.256    32269.044     78.14157 
   98100    2221.7821   -110.62622    2.0103151   -108.61591    7050.1744    4.2759114    4.2759114    4.2759114    7050.1744    31176.861   -25618.407    15592.069   -2439.3737    10349.683   -15744.491    78.178277 
   98200     1123.853   -109.65446    1.0168858   -108.63757    11527.974    4.2702103    4.2702103    4.2702103    11527.974    54232.878   -19273.027   -375.92856   -5312.3814   -14525.276   -12121.677    77.865986 
   98300    1620.4187   -110.10271    1.4661889   -108.63652     4935.894    4.2813444    4.2813444    4.2813444     4935.894    18464.367    1074.0072   -4730.6917    4617.4268   -25086.284     17509.21     78.47666 
   98400    2040.9287   -110.46749    1.8466752   -108.62082    1462.3132     4.282217     4.282217     4.282217    1462.3132    625.48231   -1053.5877    4815.0448   -11083.764     18318.19    -10666.53    78.524648 
   98500    941.16509   -109.48268   0.85158595   -108.63109     21806.57     4.273021     4.273021     4.273021     21806.57    42666.054    676.32171    22077.333   -2157.8321   -6704.0882   -30457.768    78.019845 
   98600    2053.5881   -110.47452    1.8581297   -108.61639   -9661.8201    4.2823016    4.2823016    4.2823016   -9661.8201    1489.5209   -8120.5128   -22354.468    4010.2839   -20352.526   -7422.1511    78.529306 
   98700    1506.6392   -109.98893    1.3632388   -108.62569    14671.197    4.2703015    4.2703015    4.2703015    14671.197   -7146.3825    9174.5595    41985.415   -9738.9454    9150.2843    4527.5328    77.870976 
   98800    1065.1019   -109.60538    0.9637266   -108.64165    22165.923    4.2712644    4.2712644    4.2712644    22165.923    16836.563    21101.467    28559.739   -4231.4512    10436.861   -23096.955    77.923663 
   98900    2344.1423   -110.73628    2.1210292   -108.61525   -11176.011    4.2877522    4.2877522    4.2877522   -11176.011   -14773.872   -4551.7829   -14202.379   -5176.3669    -3922.482   -1367.0209    78.829546 
   99000     967.8988     -109.512   0.87577518   -108.63623    12839.655    4.2732415    4.2732415    4.2732415    12839.655    -27028.82    3792.0412    61755.744    1984.8427     7805.576    17032.153    78.031925 
   99100    1444.4444   -109.94009    1.3069636   -108.63313    15166.279    4.2712574    4.2712574    4.2712574    15166.279   -16621.191    7507.6523    54612.375   -6603.6805    16460.118   -9614.1953     77.92328 
   99200     2535.007   -110.90601    2.2937276   -108.61228    4128.2775    4.2783456    4.2783456    4.2783456    4128.2775   -17944.385    38545.784   -8216.5667    2266.5761   -7611.9037    4227.6767    78.311872 
   99300     899.1695    -109.4564   0.81358746   -108.64281    12366.162    4.2727491    4.2727491    4.2727491    12366.162   -27743.356   -7362.2731    72204.115   -4248.0317   -7116.1032    12846.423    78.004954 
   99400    1936.9285   -110.38231    1.7525736   -108.62974     1369.774    4.2807871    4.2807871    4.2807871     1369.774   -27455.078   -12629.588    44193.988   -5846.1597    9579.1257    9607.6476    78.446016 
   99500    2058.5901   -110.48182    1.8626556   -108.61917    282.48377    4.2813698    4.2813698    4.2813698    282.48377   -5813.7259    20373.672   -13712.495    5571.4386   -12512.502   -16283.161    78.478052 
   99600    1188.4618   -109.71003    1.0753452   -108.63469    7726.0726    4.2681661    4.2681661    4.2681661    7726.0726   -2027.6054   -14587.128    39792.951    5406.7244   -15766.372   -2545.4419    77.754214 
   99700    2206.3278   -110.62193    1.9963317   -108.62559    1641.9457    4.2721204    4.2721204    4.2721204    1641.9457   -15599.409   -9561.6051    30086.851    -3650.376    8030.6303    9498.5484    77.970522 
   99800    1587.1579    -110.0703    1.4360938   -108.63421   -1384.9064    4.2762432    4.2762432    4.2762432   -1384.9064    10588.172    7589.4272   -22332.319     419.6293    18528.244   -16371.182    78.196477 
   99900    1387.1073   -109.89432    1.2550839   -108.63923   -1238.1394     4.281609     4.281609     4.281609   -1238.1394    7878.6044   -36149.542    24556.519     5528.483   -8986.1837   -5258.2073    78.491206 
  100000    2422.9376   -110.80757    2.1923248   -108.61525   -9104.6037    4.2826619    4.2826619    4.2826619   -9104.6037   -10403.024   -10877.437   -6033.3496   -12011.334    5998.2211    4485.5561    78.549128 
Loop time of 22.6252 on 1 procs for 100000 steps with 8 atoms

Pair  time (%) = 7.44506 (32.906)
Kspce time (%) = 5.28414 (23.3551)
Neigh time (%) = 0.142731 (0.630851)
Comm  time (%) = 1.10679 (4.89183)
Outpt time (%) = 0.0245121 (0.108339)
Other time (%) = 8.62199 (38.1079)

Nlocal:    8 ave 8 max 8 min
Histogram: 1 0 0 0 0 0 0 0 0 0
Nghost:    2189 ave 2189 max 2189 min
Histogram: 1 0 0 0 0 0 0 0 0 0
Neighs:    2299 ave 2299 max 2299 min
Histogram: 1 0 0 0 0 0 0 0 0 0

Total # of neighbors = 2299
Ave neighs/atom = 287.375
Neighbor list builds = 1657
Dangerous builds = 0
unfix 20
unfix 21
print "seeds:1551308"
seeds:1551308
