LAMMPS (10 Feb 2015)
# ---- initialize simulations
clear
units metal
dimension 3
boundary p p p
atom_style charge
atom_modify map array
# ---- create atoms
read_data /Users/eugeneragasa/pyflamestk_git/pypospack/tests/tests_integration/workflow/WorkflowLammpsThermalExpansion/param_1256/MgO_NaCl_unit.npt.T1900/lammps.structure
  triclinic box = (0 0 0) to (4.2565 4.2565 4.2565) with tilt (0 0 0)
  1 by 1 by 1 MPI processor grid
  reading atoms ...
  8 atoms
# ---- define interatomic potential
include potential.mod
mass 1 24.305
mass 2 15.999

group Mg type 1
4 atoms in group Mg
group O type 2
4 atoms in group O

set group Mg charge 1.66039996869
  4 settings made for charge
set group O charge -1.66039996869
  4 settings made for charge

variable R_cut equal 10.0

pair_style buck/coul/long ${R_cut}
pair_style buck/coul/long 10
pair_coeff 1 1 0.0 0.5 0.0 ${R_cut}
pair_coeff 1 1 0.0 0.5 0.0 10
pair_coeff 1 2 1528.2261267 0.282600919639 0.0 ${R_cut}
pair_coeff 1 2 1528.2261267 0.282600919639 0.0 10
pair_coeff 2 2 6677.06285722 0.138925130231 8.13419383626 ${R_cut}
pair_coeff 2 2 6677.06285722 0.138925130231 8.13419383626 10

kspace_style pppm 1.0e-5

neighbor 1.0 bin
neigh_modify every 1 delay 0 check yes
# ---- define settings
compute eng all pe/atom
compute eatoms all reduce sum c_eng
# ---- run minimization
reset_timestep 0
fix 1 all box/relax iso 0.0 vmax 0.001
thermo 10
thermo_style custom step pe lx ly lz xy xz yz press pxx pyy pzz pxy pxz pyz c_eatoms
min_style cg
minimize 1e-25 1e-25 5000 10000
PPPM initialization ...
  G vector (1/distance) = 0.352851
  grid = 8 8 8
  stencil order = 5
  estimated absolute RMS force accuracy = 3.9608e-05
  estimated relative force accuracy = 2.75062e-06
  using double precision FFTs
  3d grid and FFT values/proc = 3375 512
Neighbor list info ...
  1 neighbor list requests
  update every 1 steps, delay 0 steps, check yes
  master list distance cutoff = 11
Memory usage per processor = 4.06549 Mbytes
Step PotEng Lx Ly Lz Xy Xz Yz Press Pxx Pyy Pzz Pxy Pxz Pyz eatoms 
       0   -110.92329       4.2565       4.2565       4.2565            0            0            0    120138.29    120138.29    120138.29    120138.29 1.5343687e-10 -1.0407196e-10 -1.3145771e-10   -110.92329 
      10   -111.05478     4.299065     4.299065     4.299065            0            0            0    61836.089    61836.089    61836.089    61836.089 1.0666232e-10 -5.0344756e-11 -1.3613158e-10   -111.05478 
      20   -111.10767      4.34163      4.34163      4.34163            0            0            0    10591.608    10591.608    10591.608    10591.608 -1.2465538e-10 -9.1160209e-12 2.8254225e-10   -111.10767 
      25   -111.10952     4.351169     4.351169     4.351169            0            0            0   -6.6622077   -6.6622077   -6.6622077   -6.6622077 -1.5540302e-10 -3.5403029e-11 3.0098099e-10   -111.10952 
Loop time of 0.0145409 on 1 procs for 25 steps with 8 atoms

Minimization stats:
  Stopping criterion = linesearch alpha is zero
  Energy initial, next-to-last, final = 
        -110.923293971     -111.109518965     -111.109518965
  Force two-norm initial, final = 17.348 0.0010058
  Force max component initial, final = 17.348 0.0010053
  Final line search alpha, max atom move = 0.00777135 7.8125e-06
  Iterations, force evaluations = 25 41

Pair  time (%) = 0.00389791 (26.8065)
Kspce time (%) = 0.00227618 (15.6536)
Neigh time (%) = 0 (0)
Comm  time (%) = 0.000448704 (3.0858)
Outpt time (%) = 3.00407e-05 (0.206595)
Other time (%) = 0.00788808 (54.2475)

Nlocal:    8 ave 8 max 8 min
Histogram: 1 0 0 0 0 0 0 0 0 0
Nghost:    2189 ave 2189 max 2189 min
Histogram: 1 0 0 0 0 0 0 0 0 0
Neighs:    2344 ave 2344 max 2344 min
Histogram: 1 0 0 0 0 0 0 0 0 0

Total # of neighbors = 2344
Ave neighs/atom = 293
Neighbor list builds = 0
Dangerous builds = 0
unfix 1
# ---- define output variables ----
variable natoms equal "count(all)"
variable tot_energy equal "c_eatoms"
variable length_x equal "lx"
variable length_y equal "ly"
variable length_z equal "lz"
variable tilt_xy equal "xy"
variable tilt_xz equal "xz"
variable tilt_yz equal "yz"
variable tot_press equal "press"
variable press_xx equal "pxx"
variable press_yy equal "pyy"
variable press_zz equal "pzz"
variable press_xy equal "pxy"
variable press_xz equal "pxz"
variable press_yz equal "pyz"

# ---- output ----
print "pypospack:output_section:begin"
pypospack:output_section:begin
print "tot_energy = ${tot_energy}"
tot_energy = -111.109518965105
print "num_atoms = ${natoms}"
num_atoms = 8
print "xx = ${length_x}"
xx = 4.35116899821938
print "yy = ${length_y}"
yy = 4.35116899821938
print "zz = ${length_z}"
zz = 4.35116899821938
print "xy = ${tilt_xy}"
xy = 0
print "xz = ${tilt_xz}"
xz = 0
print "yz = ${tilt_yz}"
yz = 0
print "tot_press = ${tot_press}"
tot_press = -6.66220766530753
print "pxx = ${press_xx}"
pxx = -6.66220766529406
print "pyy = ${press_yy}"
pyy = -6.66220766581444
print "pzz = ${press_zz}"
pzz = -6.6622076648141
print "pxy = ${press_xy}"
pxy = -1.55403020158447e-10
print "pxz = ${press_xz}"
pxz = -3.54030294322521e-11
print "pyz = ${press_yz}"
pyz = 3.00980987063428e-10
print "pypospack:output_section:done"
pypospack:output_section:done
print "pypospack:lammps_sim:done"
pypospack:lammps_sim:done
#------------------------------------------------------------------------------
# RUN THERMOSTAT
# running using an NPT Nose-Hoover style thermostat
#------------------------------------------------------------------------------
variable tempdamp equal 0.1
variable pressdamp equal 1.0
# set initial velocities
velocity all create 1900 8621133 mom yes dist gaussian loop all
# fix for Nose-Hoover style thermostat
fix 20 all npt temp 1900 1900 0.1 aniso 0.0 0.0 1.0 drag 1.0 couple xyz
variable boxx equal lx
variable boxy equal ly
variable boxz equal lz
variable boxp equal press
variable boxt equal temp
# calculate averages every 10000 steps
reset_timestep 0
fix 21 all ave/time 10 10 100 v_boxx v_boxy v_boxz v_boxp v_boxt file lattice.out
thermo_style custom step temp pe ke etotal press lx ly lz press pxx pyy pzz pxy pxz pyz vol
thermo_modify flush yes
thermo 100
run 100000
PPPM initialization ...
  G vector (1/distance) = 0.351894
  grid = 8 8 8
  stencil order = 5
  estimated absolute RMS force accuracy = 4.14019e-05
  estimated relative force accuracy = 2.8752e-06
  using double precision FFTs
  3d grid and FFT values/proc = 3375 512
Memory usage per processor = 3.06549 Mbytes
Step Temp PotEng KinEng TotEng Press Lx Ly Lz Press Pxx Pyy Pzz Pxy Pxz Pyz Volume 
       0         1900   -111.10953    1.7191599   -109.39037    22281.537     4.351169     4.351169     4.351169    22281.537    21978.295    30042.349    14823.967   -11948.788   -4608.2237   -437.98356    82.379254 
     100    468.58777   -109.58988   0.42398806   -109.16589    14744.301    4.3726959    4.3726959    4.3726959    14744.301   -10434.174    4757.7715    49909.305    42303.642    7175.8321    2275.2118    83.608001 
     200    1350.1465   -109.91159    1.2216409   -108.68995   -16189.225    4.4065183    4.4065183    4.4065183   -16189.225   -15818.457   -22654.627   -10094.591    9116.8498    4586.2037   -7005.6252    85.563142 
     300    1561.4551   -109.70674    1.4128374    -108.2939    7073.1617    4.4141545    4.4141545    4.4141545    7073.1617    32693.748    5464.9026   -16939.166    6934.0259   -12011.333    938.70326    86.008738 
     400    1212.2498   -109.04807    1.0968691   -107.95121    15593.883    4.4011874    4.4011874    4.4011874    15593.883    -24291.22     14672.43    56400.438    46459.312    -8339.119   -5519.7415    85.252981 
     500    2333.4378   -109.82906    2.1113436   -107.71771    34194.394    4.4039341    4.4039341    4.4039341    34194.394    43223.886    14294.859    45064.437   -8783.2345   -1642.1447    315.53336    85.412695 
     600     1504.306   -108.97351    1.3611277   -107.61238   -44553.341    4.4216823    4.4216823    4.4216823   -44553.341   -83310.424   -107454.01     57104.41     91708.01   -3771.2624   -852.27353    86.449525 
     700    2023.7783   -109.37421    1.8311572   -107.54305    18812.645    4.4257093    4.4257093    4.4257093    18812.645    20623.481   -5745.4323    41559.887   -27397.077    2788.8344    14384.692     86.68594 
     800    1327.8791   -108.75542    1.2014929   -107.55393   -35448.006    4.4232624    4.4232624    4.4232624   -35448.006    -73298.32   -54281.043    21235.344    98934.938    2046.3344   -904.81405    86.542237 
     900    2875.5857   -110.12095    2.6018903   -107.51906    1105.1146    4.4157772    4.4157772    4.4157772    1105.1146    23360.346    7359.0567   -27404.059   -24078.356    14073.092    1444.2656    86.103627 
    1000    1148.0802   -108.59526    1.0388071   -107.55645     -23320.4     4.414361     4.414361     4.414361     -23320.4   -21837.061   -80113.202    31989.062    92332.176   -4119.2897     136.8053    86.020809 
    1100    2442.3879   -109.77586    2.2099239   -107.56593    18233.818    4.4157436    4.4157436    4.4157436    18233.818    53769.551    27858.192   -26926.288   -10402.158   -2698.7624   -12719.691    86.101661 
    1200    1354.8099   -108.82759    1.2258605   -107.60173    -14468.67    4.4222961    4.4222961    4.4222961    -14468.67   -52649.256   -13357.297    22600.542     62869.42    3341.0207   -5107.0326     86.48553 
    1300     1741.095   -109.14769    1.5753794   -107.57231    9700.2235    4.4179937    4.4179937    4.4179937    9700.2235    15504.599   -2803.2425    16399.314    9617.7391   -6555.9427   -6717.0535    86.233355 
    1400     1788.077    -109.1865    1.6178896   -107.56861   -18969.247    4.4101237    4.4101237    4.4101237   -18969.247   -64223.143   -25170.073    32485.475    39876.895    14038.419   -23190.435    85.773336 
    1500    1952.6302   -109.33699    1.7667808   -107.57021    1319.4654     4.403655     4.403655     4.403655    1319.4654   -21434.681   -25436.674    50829.751    43583.004    8440.5017    4262.7083     85.39646 
    1600    2405.5426   -109.74703    2.1765855   -107.57045   -19023.057    4.4078379    4.4078379    4.4078379   -19023.057   -24308.387   -17569.935    -15190.85    18969.939    11958.315    934.49651    85.640038 
    1700    1110.9957   -108.58682    1.0052522   -107.58157   -21704.144    4.4170561    4.4170561    4.4170561   -21704.144   -59087.684   -32688.213    26663.464    53875.418   -3368.2041   -1064.1343    86.178466 
    1800    2188.4555   -109.53171    1.9801606   -107.55155    13138.179    4.4110907    4.4110907    4.4110907    13138.179   -2647.8098    21545.967     20516.38   -19795.784    9003.3506   -13591.486    85.829772 
    1900    1657.8708    -109.0757    1.5000763   -107.57563    -14238.12    4.4083358    4.4083358    4.4083358    -14238.12   -19347.411    -43299.29     19932.34     84640.06   -11576.629     3462.071    85.669061 
    2000    2540.4096   -109.85401     2.298616   -107.55539    18671.389    4.4025171    4.4025171    4.4025171    18671.389    11735.482    45378.937   -1100.2521   -21638.736    11726.724    6908.6152    85.330279 
    2100     733.6882   -108.26462    0.6638565   -107.60076   -14124.628    4.4108055    4.4108055    4.4108055   -14124.628    11751.507   -61365.551    7240.1619     93609.27    1591.3235    -118.0444    85.813126 
    2200    2707.3009   -110.01439    2.4496227   -107.56477    5259.3345    4.4232272    4.4232272    4.4232272    5259.3345    43436.762     4910.045   -32568.804   -6433.6694   -11166.445    2903.3331     86.54017 
    2300      1494.99   -108.93334    1.3526983   -107.58064    5794.4918    4.4156199    4.4156199    4.4156199    5794.4918     32718.83   -33113.799    17778.445    84436.238    17164.037   -7890.7755    86.094425 
    2400    1896.5142   -109.28383    1.7160059   -107.56782    14812.773    4.4102552    4.4102552    4.4102552    14812.773    30836.594    17416.152   -3814.4256    2823.4132    -41.04095    4404.9657    85.781013 
    2500    1746.0917   -109.15232    1.5799005   -107.57242   -18867.644    4.4072417    4.4072417    4.4072417   -18867.644   -28723.348   -41972.812    14093.228    60304.018   -11869.982   -5950.6168     85.60529 
    2600    1734.2844   -109.15806    1.5692169   -107.58885    2041.6376    4.4033685    4.4033685    4.4033685    2041.6376   -38751.872    42675.986    2200.7994    24409.183    7138.6726    3483.9336    85.379792 
    2700    2402.9807   -109.76002    2.1742674   -107.58576   -9758.7482    4.4056588    4.4056588    4.4056588   -9758.7482   -33823.983   -18756.387    23304.125    2810.0865    11689.373   -17083.252    85.513087 
    2800    1301.6625    -108.7777    1.1777715   -107.59993    -145.8212    4.4083567    4.4083567    4.4083567    -145.8212   -65255.699    35311.891    29506.344    68890.331    -5107.901    2485.2869    85.670278 
    2900    2131.9171   -109.51651    1.9290034   -107.58751   -6853.2845    4.4204392    4.4204392    4.4204392   -6853.2845   -25167.136    15516.141   -10908.858   -13762.049    25060.762    -1444.483     86.37663 
    3000     1345.329   -108.80682     1.217282   -107.58954   -5615.9198    4.4233787    4.4233787    4.4233787   -5615.9198   -57800.452   -30837.498    71790.191    76829.891   -9172.8474    14511.495    86.549063 
    3100    2646.1491   -109.94807    2.3942913   -107.55378    2713.6987    4.4208529    4.4208529    4.4208529    2713.6987   -43679.196    34184.872    17635.421   -33924.216    21291.902   -12329.142    86.400885 
    3200    1593.7004   -109.01928    1.4420136   -107.57727   -39032.379    4.4089312    4.4089312    4.4089312   -39032.379   -84670.924    -59488.94    27062.728    80879.882    13891.186    9013.2473    85.703776 
    3300    2047.2318   -109.43012    1.8523783   -107.57774    71981.517    4.4054322    4.4054322    4.4054322    71981.517   -1319.7157    124293.92    92970.347   -18801.696      1001.21    7709.7084    85.499893 
    3400    1709.3559   -109.15497    1.5466611   -107.60831   -33836.672    4.4361389    4.4361389    4.4361389   -33836.672   -77543.025   -32756.308    8789.3193    58565.236    16993.304   -8421.2873    87.300237 
    3500    2489.4007   -109.82169     2.252462   -107.56923   -22683.885    4.4418106    4.4418106    4.4418106   -22683.885   -58809.624    18903.883   -28145.914    8808.5757    -19183.65   -22115.528    87.635509 
    3600    1751.7342   -109.15207    1.5850059   -107.56706   -14034.192    4.4252288    4.4252288    4.4252288   -14034.192   -49535.242   -20928.528    28361.193    33698.786    15621.868    11961.245    86.657705 
    3700    2016.2415   -109.40563    1.8243377   -107.58129   -10064.926    4.4091948    4.4091948    4.4091948   -10064.926    -54476.35   -16004.314    40285.886    41801.743   -4383.1663   -16070.918    85.719152 
    3800    2010.2939   -109.40737    1.8189561   -107.58842    16170.189    4.4050512    4.4050512    4.4050512    16170.189   -25378.806    83402.817   -9513.4438   -18781.478   -4300.2422    9915.4798    85.477711 
    3900    1163.5526   -108.68745    1.0528069   -107.63465      97.4122    4.4220116    4.4220116    4.4220116      97.4122   -46685.382     17545.98    29431.639    51326.965    18226.836   -4766.3565    86.468838 
    4000    2485.6454   -109.85159    2.2490642   -107.60253   -13750.172    4.4348483    4.4348483    4.4348483   -13750.172    -34131.53   -31513.373    24394.387   -37084.827   -9557.0355   -2569.9267     87.22406 
    4100    1485.5424   -108.95982      1.34415   -107.61567     -10544.5    4.4111672    4.4111672    4.4111672     -10544.5   -45786.798   -33211.699    47364.996    45566.147    27580.921   -5669.9976    85.834237 
    4200    2415.3132   -109.77018    2.1854262   -107.58475    23238.499    4.3937052    4.3937052    4.3937052    23238.499    18373.466    10523.815    40818.216   -15467.831    11105.445    11086.393    84.818922 
    4300    1746.9074   -109.18306    1.5806386   -107.60242   -4730.3246    4.4101781    4.4101781    4.4101781   -4730.3246   -39804.463    20253.505    5359.9845    14742.251    24463.179   -2978.2648    85.776511 
    4400     2092.043    -109.5016    1.8929245   -107.60868   -26768.116    4.4310524    4.4310524    4.4310524   -26768.116   -49169.735    -17527.27   -13607.343    2511.8631    29525.835    18698.683    87.000282 
    4500    1855.5078   -109.25811    1.6789025   -107.57921   -12392.913    4.4417656    4.4417656    4.4417656   -12392.913   -41315.593   -35037.977    39174.831   -8787.8856    1185.6271    20914.259    87.632845 
    4600    1563.8038   -108.97682    1.4149625   -107.56186   -18901.926    4.4174093    4.4174093    4.4174093   -18901.926   -77121.325    8456.1115    11959.434    42324.906    59400.697    2729.0363    86.199138 
    4700      2180.81   -109.52715    1.9732427   -107.55391    41837.005    4.3909105    4.3909105    4.3909105    41837.005    33118.968    23913.116    68478.931   -26526.813     -12951.5    17530.093    84.657169 
    4800    1412.9228   -108.89349    1.2784423   -107.61505   -21371.907    4.3948147    4.3948147    4.3948147   -21371.907   -49670.677   -31949.003    17503.957    61361.533    37678.034    3378.2836     84.88319 
    4900    1959.6686    -109.4089    1.7731493   -107.63576    -11639.74    4.4145553    4.4145553    4.4145553    -11639.74   -53738.546    33246.831   -14427.505    1140.8839    17834.802    4127.8748     86.03217 
    5000    1850.9368   -109.29879    1.6747665   -107.62403   -24493.276    4.4314947    4.4314947    4.4314947   -24493.276   -38940.054   -38290.153    3750.3775    26278.635    5074.5554    114.33482    87.026335 
    5100    1779.1409   -109.19888    1.6098041   -107.58907   -14640.488    4.4318803    4.4318803    4.4318803   -14640.488   -35666.503   -23500.514    15245.554    7705.5224    46714.297   -7970.1533    87.049054 
    5200    2775.8912   -110.06756    2.5116847   -107.55587    8055.0392    4.4101243    4.4101243    4.4101243    8055.0392   -24574.435   -10902.822    59642.374    12336.248   -27057.327    2144.4702    85.773373 
    5300    1092.7992   -108.57364   0.98878767   -107.58485    21788.034    4.3812993    4.3812993    4.3812993    21788.034   -8058.3548    54950.687     18471.77    30706.771    69319.691   -1618.2413    84.102472 
    5400    1965.5653   -109.40145    1.7784847   -107.62296     11228.64    4.3867674    4.3867674    4.3867674     11228.64   -20493.332    15269.453      38909.8   -4344.4822    -6701.367    398.18976    84.417759 
    5500    2159.8805    -109.5932    1.9543053    -107.6389    5265.6659    4.4131935    4.4131935    4.4131935    5265.6659   -24517.524    51036.875   -10722.353    21407.765    15439.508   -15688.414     85.95258 
    5600    2238.0876   -109.63928    2.0250687   -107.61421    4575.5636    4.4273904    4.4273904    4.4273904    4575.5636   -25065.874   -15599.422    54391.987     7873.485    26976.003    2450.8755    86.784755 
    5700    1475.7957   -108.94152     1.335331   -107.60619    -26773.37    4.4139735    4.4139735    4.4139735    -26773.37   -21440.582   -26524.718    -32354.81   -7465.0978   -30805.492   -5052.2268    85.998162 
    5800    2203.0273   -109.57881    1.9933454   -107.58547    34010.546    4.3809372    4.3809372    4.3809372    34010.546   -21107.722     52036.65    71102.711    14514.692    15331.369    10816.855    84.081623 
    5900    1684.2204    -109.1474     1.523918   -107.62348   -6129.1002    4.3871327    4.3871327    4.3871327   -6129.1002    22556.828   -8199.4445   -32744.685   -10165.291    -21124.36   -32967.769    84.438849 
    6000    1739.3913   -109.20988    1.5738378   -107.63605    -34012.59    4.4110929    4.4110929    4.4110929    -34012.59   -709.14443   -48419.258   -52909.369     13745.78   -24575.575    19901.326    85.829903 
    6100    2477.6397    -109.8425    2.2418204   -107.60068    4873.5037    4.4159818    4.4159818    4.4159818    4873.5037   -17599.543    21985.408    10234.645    14353.495    27723.932    5936.0017      86.1156 
    6200    1060.9504   -108.56906   0.95997019   -107.60909   -18169.513    4.4211156    4.4211156    4.4211156   -18169.513    35795.159   -31186.058    -59117.64    2234.4874   -27049.572   -34569.888    86.416288 
    6300    2109.6646   -109.48768    1.9088688   -107.57881    178.93523    4.4127028    4.4127028    4.4127028    178.93523   -20112.886      20331.3     318.3911    16942.448    35189.234    28518.215    85.923913 
    6400    2294.0281   -109.65124    2.0756849   -107.57556   -25292.636    4.4032744    4.4032744    4.4032744   -25292.636   -21078.816    -20734.27    -34064.82    6562.3975    21469.336   -41096.967    85.374318 
    6500    1852.8343   -109.27361    1.6764834   -107.59713    6489.9328    4.4124899    4.4124899    4.4124899    6489.9328    16579.165    20001.188   -17110.556   -4021.9771   -14218.107   -12790.789    85.911473 
    6600    1744.2031   -109.17013    1.5781916   -107.59194   -44099.808    4.4340273    4.4340273    4.4340273   -44099.808   -92012.427    13835.812    -54122.81    10617.272    68190.336    12618.669    87.175627 
    6700    2414.8863   -109.76088    2.1850399   -107.57584   -34335.966    4.4156257    4.4156257    4.4156257   -34335.966   -23884.265   -37752.073   -41371.559    226.79169   -14258.063   -49486.293    86.094768 
    6800    1162.3046   -108.64956    1.0516776   -107.59788    35487.728     4.387534     4.387534     4.387534    35487.728   -2556.2938    137579.39   -28559.911   -464.13697    39206.027    -8879.485    84.462026 
    6900    2877.5869   -110.21007    2.6037011   -107.60637    18997.184    4.3979331    4.3979331    4.3979331    18997.184   -7699.5901    49141.981     15549.16     12243.86   -10903.406    11702.995    85.064013 
    7000    1257.9665   -108.77263    1.1382345    -107.6344   -3585.5029    4.4298121    4.4298121    4.4298121   -3585.5029   -82120.859    72389.992   -1025.6414   -12240.403    40879.546   -3562.6796    86.927246 
    7100     1426.686   -108.89161    1.2908954   -107.60071   -44969.083    4.4459898    4.4459898    4.4459898   -44969.083   -46056.013    542.25463   -89393.489    1429.9155   -6660.9107    13335.133    87.883107 
    7200    2595.5455   -109.93422    2.3485041   -107.58572   -28061.755    4.4082274    4.4082274    4.4082274   -28061.755   -2687.7977   -33007.406   -48490.059    9801.5371   -13161.806     38149.08     85.66274 
    7300    2290.6261   -109.64686    2.0726066   -107.57425     19654.97    4.3641518    4.3641518    4.3641518     19654.97    6762.9692    34311.513    17890.427    4622.3829    34007.041   -25262.043    83.118856 
    7400    1059.7323   -108.61366   0.95886805    -107.6548    40167.987    4.3783616    4.3783616    4.3783616    40167.987    74912.569    36578.585    9012.8083   -1913.7351   -8321.8523    2180.8935     83.93341 
    7500    2237.9433   -109.67144    2.0249382    -107.6465   -10864.913    4.4264675    4.4264675    4.4264675   -10864.913    325.74676   -13407.197    -19513.29   -4721.2333   -38063.695    7966.8624    86.730501 
    7600    2165.6738   -109.56598    1.9595472   -107.60644   -20920.312    4.4403749    4.4403749    4.4403749   -20920.312    19433.319   -57223.202   -24971.052    2764.8246    11205.542   -8300.6498    87.550559 
    7700    1176.9924   -108.65993    1.0649674   -107.59496    4467.1902    4.4178712    4.4178712    4.4178712    4467.1902   -6183.0126    64783.181   -45198.598   -17809.874   -43977.669    16076.696    86.226178 
    7800    2315.9164   -109.68494    2.0954898   -107.58945    17050.195     4.388831     4.388831     4.388831    17050.195   -15914.513    22898.346    44166.751    3407.0325   -6442.2274    8873.3232    84.536949 
    7900    1833.7502   -109.28719    1.6592157   -107.62797    24364.964     4.387915     4.387915     4.387915    24364.964   -41991.921    79901.062    35185.751    -6694.594    -11337.05   -27461.577    84.484029 
    8000    1494.2953   -109.00719    1.3520698   -107.65512   -15986.074    4.4220343    4.4220343    4.4220343   -15986.074   -31941.794    24597.788   -40614.216   -14555.455   -42553.872     5167.886    86.470174 
    8100    2538.4456   -109.90577    2.2968389   -107.60893   -429.02735    4.4287021    4.4287021    4.4287021   -429.02735   -8888.9597    27178.166   -19576.289    5673.3987     28370.48   -3724.5708    86.861919 
    8200    1983.0197   -109.39384    1.7942779   -107.59956   -17106.612    4.4138241    4.4138241    4.4138241   -17106.612   -52339.152    14184.751   -13165.436   -6521.5591   -39516.949   -12575.234    85.989429 
    8300    1236.4579   -108.72203    1.1187731   -107.60325    7065.5929    4.3994705    4.3994705    4.3994705    7065.5929     38609.25    38100.894   -55513.365    2983.5418    13616.737   -2408.8527    85.153252 
    8400    2031.5607   -109.45755    1.8381988   -107.61935    11631.634    4.3998589    4.3998589    4.3998589    11631.634    19041.346    2386.4496    13467.106    5457.7195    20698.167    12946.214    85.175808 
    8500    2171.0505   -109.59347    1.9644121   -107.62906   -5048.1428    4.4185023    4.4185023    4.4185023   -5048.1428   -34444.027    8054.1423    11245.456   -12327.697    9379.8765   -11026.085    86.263138 
    8600    1736.8185   -109.17051    1.5715099     -107.599   -5771.8675    4.4215057    4.4215057    4.4215057   -5771.8675   -50028.694    20996.861     11716.23    5461.3919    26948.289    203.86049    86.439167 
    8700    1658.8232   -109.08805     1.500938   -107.58712   -25628.082    4.4247054    4.4247054    4.4247054   -25628.082   -58537.167   -22608.883    4261.8051   -7841.1679    176.67054    25373.185    86.626963 
    8800    1464.7398   -108.91018    1.3253274   -107.58485    -9904.725    4.4121552    4.4121552    4.4121552    -9904.725   -58022.399    80342.639   -52034.415   -2017.0703     76497.68   -4367.0448    85.891928 
    8900    2544.3981   -109.86648    2.3022248   -107.56426    11614.292    4.4043332    4.4043332    4.4043332    11614.292    52091.235     5991.285   -23239.645    2245.1459   -12165.365    16734.004     85.43592 
    9000    1424.8486   -108.87987    1.2892329   -107.59064   -26393.854    4.4250135    4.4250135    4.4250135   -26393.854   -47750.117    28139.189   -59570.634   -7543.4859    52820.574    511.00485    86.645059 
    9100      1945.53   -109.31784    1.7603564   -107.55748    27020.022    4.4285023    4.4285023    4.4285023    27020.022    14887.753    79430.544    -13258.23    6718.2504   -20427.039    4884.6406    86.850161 
    9200    1696.7203   -109.09539    1.5352282   -107.56016   -15528.016    4.4303276    4.4303276    4.4303276   -15528.016    16029.505   -5810.0603   -56803.494    12197.767    47558.254    1194.7862    86.957596 
    9300    1992.6015   -109.38091    1.8029477   -107.57796   -28702.927    4.4136712    4.4136712    4.4136712   -28702.927   -39250.574   -20517.543   -26340.666   -20718.733    11165.937   -1356.5535    85.980495 
    9400    2203.5979   -109.55787    1.9938617   -107.56401    63266.853    4.3800283    4.3800283    4.3800283    63266.853    95304.597    77744.367    16751.594    9284.7983    14169.977    2942.1064    84.029299 
    9500    1552.9711   -109.04263    1.4051609   -107.63747   -7168.4184    4.4031257    4.4031257    4.4031257   -7168.4184   -62868.079    28482.084     12880.74    430.36558     45413.67    1529.3454    85.365672 
    9600    2513.3248    -109.8687    2.2741091   -107.59459   -33270.639    4.4337172    4.4337172    4.4337172   -33270.639    -13535.62   -49556.367    -36719.93   -25380.736   -13982.479   -9014.3226     87.15734 
    9700    1839.6087   -109.23798    1.6645166   -107.57346   -25667.841    4.4207471    4.4207471    4.4207471   -25667.841   -48999.022    29100.646   -57105.148   -4806.4139    75280.528    234.07557    86.394679 
    9800    2129.9518   -109.48409    1.9272251   -107.55687    15902.488    4.4005168    4.4005168    4.4005168    15902.488   -9844.4791   -4755.0895    62307.033    16036.232   -24954.168   -1083.6821     85.21402 
    9900    1616.0689   -109.04771    1.4622531   -107.58546    3493.4551    4.4013302    4.4013302    4.4013302    3493.4551   -15858.511    72400.356    -46061.48     -24900.7    45560.404    1078.7407    85.261279 
   10000    2176.1573   -109.56038    1.9690329   -107.59135    4705.9854    4.4131787    4.4131787    4.4131787    4705.9854   -9341.1933    24425.419   -966.26929    17739.072    7953.8765     -3428.25    85.951713 
   10100    1542.0433   -108.99486    1.3952732   -107.59959   -11842.711    4.4207547    4.4207547    4.4207547   -11842.711   -4023.7521   -30263.443   -1240.9389   -9471.4644    13976.787       4783.6    86.395131 
   10200    2545.4326   -109.87768    2.3031609   -107.57452   -14763.787    4.4252159    4.4252159    4.4252159   -14763.787    1282.9374     8674.631    -54248.93    1997.2187    41339.213   -12242.344    86.656948 
   10300    1440.2935   -108.87845    1.3032078   -107.57525    8396.7803    4.4125793    4.4125793    4.4125793    8396.7803   -5882.4445    25704.345    5368.4408    -5207.441   -18300.246    6111.0389    85.916699 
   10400    1687.3199   -109.11286    1.5267225   -107.58614    26481.418    4.4037254    4.4037254    4.4037254    26481.418    82954.845   -9644.8638    6134.2746   -22761.243    16896.479   -4298.4379    85.400556 
   10500    1969.5421   -109.36863    1.7820831   -107.58655     7740.059    4.4098923    4.4098923    4.4098923     7740.059    26241.427     10965.35     -13986.6   -3315.7546   -14793.858    -1650.987    85.759839 
   10600    1684.6281   -109.12328    1.5242869   -107.59899   -30074.103    4.4093659    4.4093659    4.4093659   -30074.103   -69570.733   -24803.447    4151.8712   -4990.1829    20192.488   -12449.006     85.72913 
   10700    2392.7608   -109.74373    2.1650202   -107.57871     13002.81    4.4058706    4.4058706    4.4058706     13002.81   -3199.9828    84540.816   -42332.403    62.468696   -40540.114    9098.6884    85.525419 
   10800    1240.7466   -108.71762    1.1226536   -107.59497    6372.3544    4.4070608    4.4070608    4.4070608    6372.3544   -24889.976    40300.623    3706.4162     8697.427   -10222.247   -5017.6061    85.594751 
   10900    2431.1238   -109.77947    2.1997319   -107.57974   -24147.335    4.4187713    4.4187713    4.4187713   -24147.335   -34026.848   -31519.057   -6896.0996    9152.1962    -14484.19   -5290.1411    86.278894 
   11000    1505.9019   -108.95182    1.3625717   -107.58925    4514.7224    4.4100028    4.4100028    4.4100028    4514.7224   -795.37143    62614.261   -48274.722    7187.2898   -64418.738   -459.36746    85.766282 
   11100    2219.8131   -109.58639    2.0085335   -107.57785    24030.815    4.3995066    4.3995066    4.3995066    24030.815    53178.687    -356.0952    19269.852    21366.458    11657.659    7790.7754    85.155347 
   11200    1207.7367   -108.69063    1.0927856   -107.59784   -3921.4878    4.4193127    4.4193127    4.4193127   -3921.4878   -17692.553    48684.688   -42756.598    5773.4895   -73147.095   -568.41225    86.310612 
   11300    3237.5339   -110.47458    2.9293887   -107.54519   -4526.5259    4.4235488    4.4235488    4.4235488   -4526.5259     8709.349     369.8978   -22658.825    28715.085    19080.545    15823.766    86.559049 
   11400    871.96285   -108.39308   0.78897032   -107.60411   -7935.5991     4.410293     4.410293     4.410293   -7935.5991   -47791.288    59621.207   -35636.716   -8128.0578   -79333.654   -2228.1908    85.783218 
   11500      1994.21   -109.40248    1.8044031   -107.59808    43958.249    4.3964592    4.3964592    4.3964592    43958.249    114830.99    3871.8303    13171.924   -1209.5481    25073.253    12936.745    84.978515 
   11600    2148.0647   -109.56137    1.9436141   -107.61776   -38111.795    4.4081972    4.4081972    4.4081972   -38111.795   -41964.966     6424.752   -78795.172    1079.8971   -38460.721   -6333.4432    85.660984 
   11700    1950.0548   -109.37784    1.7644505   -107.61339    33567.029    4.4064845    4.4064845    4.4064845    33567.029    98614.956   -5763.7647    7849.8964    9889.4123   -26462.542   -12149.253    85.561173 
   11800    2077.1484   -109.48521    1.8794476   -107.60576   -19683.128    4.4198492    4.4198492    4.4198492   -19683.128    2294.4344   -26797.846   -34545.973   -6828.5878    1636.9263    7556.6805    86.342051 
   11900    1721.4484   -109.15085    1.5576026   -107.59325   -30427.785    4.4158842    4.4158842    4.4158842   -30427.785   -36150.902    21238.799   -76371.252    367.47688   -48961.688    -8249.077    86.109888 
   12000    1908.0301   -109.30364    1.7264258   -107.57721    52641.113    4.3921618    4.3921618    4.3921618    52641.113    99120.727    3583.4652    55219.146    29262.264    23386.638   -11069.256    84.729565 
   12100    2101.1103    -109.5089    1.9011287   -107.60777   -13030.413    4.4018656    4.4018656    4.4018656   -13030.413   -35827.497    5449.0146   -8712.7575   -26119.497   -17424.705   -2660.1148    85.292401 
   12200    1950.5078   -109.37595    1.7648604   -107.61109    7117.0973    4.4084359    4.4084359    4.4084359    7117.0973    35019.815   -49622.169    35953.646    33079.107   -7928.5006    2289.6546    85.674896 
   12300    2008.7075   -109.43071    1.8175208   -107.61319    12557.771    4.4168406    4.4168406    4.4168406    12557.771   -6782.1525   -14254.145     58709.61    11491.852    4202.5336   -1718.6715    86.165853 
   12400     1823.405   -109.25798    1.6498552   -107.60812   -2471.6502    4.4108675    4.4108675    4.4108675   -2471.6502   -10208.092    34139.166   -31346.024   -3410.9688    5624.6768    4305.4391    85.816743 
   12500    1575.6708   -109.03314    1.4257001   -107.60744    30824.086    4.4041006    4.4041006    4.4041006    30824.086    20074.469    40080.672    32317.119    66539.293   -12759.086    7157.3118    85.422383 
   12600    2664.3422   -109.99529    2.4107528   -107.58454   -4441.9953    4.4350379    4.4350379    4.4350379   -4441.9953   -8259.8405    12555.251   -17621.397   -14965.981   -1017.9733    5261.9955     87.23525 
   12700      955.892   -108.44734   0.86491117   -107.58243   -35392.896     4.432136     4.432136     4.432136   -35392.896    -52898.96   -64621.773    11342.045    72157.246    2175.6143    -6807.538    87.064124 
   12800    2450.4687   -109.76471    2.2172356   -107.54747     24623.32    4.4023157    4.4023157    4.4023157     24623.32    2867.9991    70916.371    85.591184   -17734.363    8707.5784   -1914.6875    85.318566 
   12900    1907.4358   -109.30237     1.725888   -107.57648    11664.026    4.3969029    4.3969029    4.3969029    11664.026   -21997.049    3503.5159    53485.613    61898.428    3643.2898    6751.5201    85.004249 
   13000    1447.1103   -108.91558    1.3093758    -107.6062    22685.157    4.4110137    4.4110137    4.4110137    22685.157   -25349.593    43623.877    49781.186    9286.3668   -8155.2963   -5345.5056    85.825277 
   13100    1834.5219   -109.25118     1.659914   -107.59126    1062.8408    4.4413776    4.4413776    4.4413776    1062.8408   -20082.579     20253.24    3017.8618    1510.7881    16496.023     10921.89    87.609882 
   13200    2747.1406   -110.02605    2.4856705   -107.54038   -18843.974    4.4420734    4.4420734    4.4420734   -18843.974   -39673.737   -29078.088    12219.903    16003.138   -12095.972   -7178.8591    87.651064 
   13300    1395.5011   -108.80082    1.2626788   -107.53814   -37007.239    4.4163435    4.4163435    4.4163435   -37007.239   -95716.625   -40860.824    25555.733   -33123.705    2350.6554   -8955.1449    86.136763 
   13400    2774.5596   -110.05626    2.5104799   -107.54578    12716.996    4.4002523    4.4002523    4.4002523    12716.996    36071.849   -17852.996    19932.136    17114.985     7001.178    3912.9564    85.198655 
   13500     1692.133   -109.12734    1.5310775   -107.59626    11800.321    4.4003919    4.4003919    4.4003919    11800.321    18654.386   -25255.573     42002.15   -26379.161   -13969.217   -8519.6548    85.206762 
   13600     1860.261   -109.30875    1.6832032   -107.62555   -4095.6726    4.4269586    4.4269586    4.4269586   -4095.6726    -6053.429   -10710.513    4476.9243    3300.2029     15970.23   -3020.9962    86.759367 
   13700    2048.1028    -109.4367    1.8531665   -107.58354   -1664.2264    4.4303421    4.4303421    4.4303421   -1664.2264     26686.62   -4031.1036   -27648.196   -25566.897   -18791.142   -2132.8422    86.958447 
   13800    1308.9927    -108.7782    1.1844041    -107.5938   -15431.002    4.4037764    4.4037764    4.4037764   -15431.002     11664.51   -16665.078   -41292.437   -18879.854    8169.3523    2736.8361    85.403519 
   13900     2890.526   -110.19717    2.6154087   -107.58176    21156.915    4.3896099    4.3896099    4.3896099    21156.915    54151.922    3346.2529    5972.5715   -742.02665    6281.5308    7049.0447    84.581965 
   14000    1141.3336   -108.67123    1.0327027   -107.63853   -6539.4543    4.4038664    4.4038664    4.4038664   -6539.4543     12821.44   -29753.525   -2686.2768   -44689.299   -20436.342   -9450.2052     85.40876 
   14100    2381.1565   -109.77249    2.1545205   -107.61797   -12852.896     4.426301     4.426301     4.426301   -12852.896   -8302.0293    -6972.258   -23284.401    22664.402    6051.3993    9918.0887    86.720713 
   14200    1779.3505   -109.20817    1.6099938   -107.59818   -17679.074    4.4267161    4.4267161    4.4267161   -17679.074    -6552.593   -74695.393    28210.763   -51440.201   -16333.354    176.55767     86.74511 
   14300    1219.3997   -108.68843    1.1033385   -107.58509    13190.857    4.3993411    4.3993411    4.3993411    13190.857    17850.608   -26310.936    48032.897   -18906.614   -25583.295    7659.9546    85.145736 
   14400     2990.714   -110.27069    2.7060609   -107.56463    11573.164    4.3902228    4.3902228    4.3902228    11573.164    29380.088   -27489.216    32828.621    -6481.601   -2468.0036   -3409.0018    84.617404 
   14500    1507.1662   -108.98733    1.3637156   -107.62361   -22253.526    4.4125383    4.4125383    4.4125383   -22253.526   -52502.813   -65002.466    50744.701   -27371.623   -9099.7796    1969.2278    85.914301 
   14600    2589.5131   -109.91928    2.3430458   -107.57624   -131.75417    4.4275943    4.4275943    4.4275943   -131.75417    18186.228   -33348.812    14767.321    12293.401   -7628.2842   -5247.0028     86.79675 
   14700    1696.1506   -109.10314    1.5347127   -107.56843   -37616.404    4.4279991    4.4279991    4.4279991   -37616.404    -50546.08   -66263.062    3959.9316   -43282.355   -2941.1988   -7404.5286    86.820558 
   14800    1942.9558   -109.31015    1.7580273   -107.55212     1984.577    4.4160405    4.4160405    4.4160405     1984.577   -42884.858   -23430.878    72269.468    39074.154   -12493.758    9578.5107    86.119033 
   14900     1805.601    -109.2002    1.6337458   -107.56645   -10078.732    4.4073454    4.4073454    4.4073454   -10078.732   -10151.235   -76399.819    56314.857   -73164.004    11301.367   -10874.009    85.611333 
   15000    1653.2567   -109.08653    1.4959014   -107.59063    25736.974    4.4048816    4.4048816    4.4048816    25736.974    29916.514    2019.0423    45275.366    31738.759   -31729.862    6967.9801     85.46784 
   15100    2148.6857   -109.54251     1.944176   -107.59833   -8926.8595    4.4222541    4.4222541    4.4222541   -8926.8595   -4370.2358   -31219.541    8809.1977   -28572.436    9481.5147    4467.8611    86.483065 
   15200     1475.229    -108.9087    1.3348182   -107.57389   -26985.665    4.4371575    4.4371575    4.4371575   -26985.665    -43800.16   -64672.546    27515.711     747.0876   -7480.6574   -12492.787    87.360382 
   15300     1713.815   -109.11202    1.5506959   -107.56133    1762.2899    4.4177716    4.4177716    4.4177716    1762.2899   -14968.207   -16099.923    36354.999    18296.543   -28495.778    424.75123     86.22035 
   15400    2100.3888   -109.46014     1.900476   -107.55967    18144.359    4.3972865    4.3972865    4.3972865    18144.359   -26443.608   -6607.5511    87484.236   -39671.009    6379.0159    2840.2581    85.026496 
   15500    1839.8094   -109.26151    1.6646983   -107.59681    3173.2389     4.414433     4.414433     4.414433    3173.2389    -29655.44   -4799.1165    43974.273    52109.056   -22415.422   -20063.764    86.025023 
   15600    1285.0018   -108.73782    1.1626966   -107.57512    21083.027    4.4283108    4.4283108    4.4283108    21083.027   -12087.899    24664.059    50672.922   -44964.227   -16208.908   -2629.2603    86.838895 
   15700    1761.2545   -109.14769    1.5936201   -107.55407    6670.3686    4.4261878    4.4261878    4.4261878    6670.3686   -11679.683    563.64352    31127.146    32786.669   -6826.9854   -12131.743    86.714058 
   15800    2418.5672   -109.73731    2.1883705   -107.54894   -15738.122    4.4206694    4.4206694    4.4206694   -15738.122   -32737.782    1057.9543   -15534.537   -38536.099    292.34614    9193.0263    86.390126 
   15900    1673.8898   -109.08408    1.5145706    -107.5695   -2179.8293    4.4191437    4.4191437    4.4191437   -2179.8293    185.08807    8036.6321   -14761.208   -36108.786    1296.9916    19279.232    86.300711 
   16000    2518.3762   -109.83735    2.2786797   -107.55867    3482.5606    4.4153215    4.4153215    4.4153215    3482.5606   -10109.113   -17921.827    38478.622    5457.9198   -24999.508   -3282.8625    86.076975 
   16100    1282.5111   -108.74709     1.160443   -107.58665   -669.26668    4.4171658    4.4171658    4.4171658   -669.26668   -52588.556   -33148.926    83729.682   -78359.219   -11561.578    13917.809    86.184884 
   16200    2872.4006   -110.15954    2.5990084   -107.56054   -22805.749    4.4269207    4.4269207    4.4269207   -22805.749   -19959.184   -14916.786   -33541.275    24779.871   -3936.5393    5531.2683    86.757141 
   16300     1312.889   -108.75872    1.1879296   -107.57079   -24514.848    4.4193611    4.4193611    4.4193611   -24514.848   -104306.99   -58771.218    89533.669   -95070.225    3602.5137   -1865.3447    86.313448 
   16400    2054.9765   -109.40209    1.8593859    -107.5427    76990.544    4.4012011    4.4012011    4.4012011    76990.544    9631.1336    163892.62    57447.878    21663.981   -5166.7597    44205.897    85.253777 
   16500    1698.9341   -109.12984    1.5372312   -107.59261   -19944.296    4.4174273    4.4174273    4.4174273   -19944.296   -80714.878   -18002.093    38884.083   -60591.046   -5757.1872   -17978.769    86.200193 
   16600    2427.9406   -109.77923    2.1968516   -107.58238   -19463.204    4.4170708    4.4170708    4.4170708   -19463.204   -60990.106    6136.7896   -3536.2956   -1459.6511    2248.7083    15235.977    86.179326 
   16700    1659.6187    -109.1055    1.5016579   -107.60384    -14734.08    4.4098857    4.4098857    4.4098857    -14734.08   -29392.183   -11397.759   -3412.2983   -37236.881    3879.2958    24689.445    85.759454 
   16800    2291.2078    -109.6832     2.073133   -107.61007   -17828.004    4.4151645    4.4151645    4.4151645   -17828.004   -47974.926    4148.8168   -9657.9029   -49469.657    3031.8675   -19573.531    86.067795 
   16900    1766.0893   -109.20855    1.5979947   -107.61055    2358.1204    4.4288061    4.4288061    4.4288061    2358.1204    5224.1147    58245.411   -56395.165    21411.867   -1251.9922    10243.356    86.868034 
   17000    1679.2108   -109.12818    1.5193852    -107.6088   -33566.061    4.4253134    4.4253134    4.4253134   -33566.061   -33533.289   -62705.197    -4459.696   -78995.928   -4201.3289    17099.569    86.662679 
   17100    2539.0023   -109.89559    2.2973426   -107.59825    25514.845    4.4153459    4.4153459    4.4153459    25514.845    17212.643    90433.265   -31101.371    29352.937    5202.4893   -9721.8713    86.078405 
   17200     1370.222   -108.88224    1.2398057   -107.64243    10836.289    4.3991368    4.3991368    4.3991368    10836.289   -24360.575    40689.911    16179.531   -43575.114    -3698.802    11725.997    85.133877 
   17300    1942.5369   -109.40639    1.7576482   -107.64874    6375.0298    4.4036395    4.4036395    4.4036395    6375.0298    14175.789   -6266.2455    11215.546   -19837.885   -1637.4791    6405.0073    85.395554 
   17400    1894.5886   -109.34997    1.7142636    -107.6357    10798.216    4.4193644    4.4193644    4.4193644    10798.216   -31893.429    55995.867      8292.21   -8364.3302    2636.0861   -10712.171     86.31364 
   17500    1872.7115   -109.31218    1.6944687   -107.61772   -27782.707    4.4363555    4.4363555    4.4363555   -27782.707   -65863.739   -56130.618    38646.235   -58624.217    5635.5295    8996.9606    87.313023 
   17600    1956.5016   -109.33876    1.7702837   -107.56847   -8406.8559     4.434305     4.434305     4.434305   -8406.8559   -39717.871    11107.756    3389.5469    12273.843    23765.231   -8373.5194    87.192006 
   17700    1251.7103   -108.69577    1.1325738   -107.56319   -12897.245    4.4120545    4.4120545    4.4120545   -12897.245    -73406.26   -10483.787    45198.312   -35398.223   -11423.963   -3123.2075    85.886046 
   17800    2961.6177    -110.2323    2.6797339   -107.55257    1920.0309    4.4031695    4.4031695    4.4031695    1920.0309     -6134.84     21278.82   -9383.8875    6233.4548   -3675.6518   -2349.2239    85.368216 
   17900    1262.4209   -108.74536     1.142265   -107.60309   -17418.674    4.4198045    4.4198045    4.4198045   -17418.674   -50653.127   -3480.4418    1877.5474   -36467.775    9394.1618   -23198.721    86.339428 
   18000     2049.852   -109.44086    1.8547492   -107.58612    8044.1965    4.4297741    4.4297741    4.4297741    8044.1965    -41891.35    26268.396    39755.543    16262.792   -7815.1858    4576.8452    86.925005 
   18100    2004.8946   -109.39459    1.8140708   -107.58052   -25408.494    4.4241544    4.4241544    4.4241544   -25408.494   -21049.618   -36574.546   -18601.317    -21363.53   -452.10988    20667.748    86.594602 
   18200    1888.8864   -109.29185    1.7091041   -107.58275    11491.324    4.4176755    4.4176755    4.4176755    11491.324   -3795.9148    13551.762    24718.124   -33370.061   -8046.6017   -12028.399    86.214725 
   18300    2314.2835   -109.67859    2.0940124   -107.58458    5260.1697    4.4211153    4.4211153    4.4211153    5260.1697   -18786.347    3581.3525    30985.503    7366.4376    1058.5964    21086.656    86.416274 
   18400    1527.6576   -108.98763    1.3822567   -107.60537    -4048.035    4.4305866    4.4305866    4.4305866    -4048.035   -4161.6297   -11802.503    3820.0281   -53349.383    -2002.822   -324.49223    86.972847 
   18500      2466.49   -109.79855     2.231732   -107.56681    5876.7231    4.4324876    4.4324876    4.4324876    5876.7231    4575.2638    21157.344   -8102.4386    15846.868    4905.5376    9029.7131    87.084848 
   18600    977.33306   -108.45943    0.8843115   -107.57512    24795.215    4.4149305    4.4149305    4.4149305    24795.215   -54141.984   -30061.578    158589.21    -43953.01    4209.3279    21611.045    86.054109 
   18700    2559.0202   -109.88499    2.3154553   -107.56954    20605.104     4.410643     4.410643     4.410643    20605.104    71103.382   -25375.745    16087.676    7292.8752    13593.498   -7720.5466    85.803641 
   18800     1882.487   -109.29768    1.7033138   -107.59437   -11887.233    4.4216913    4.4216913    4.4216913   -11887.233   -37157.209    -32781.04     34276.55    12913.434   -12107.593   -2484.2935    86.450053 
   18900     1888.355   -109.30635    1.7086233   -107.59772   -16666.734    4.4325229    4.4325229    4.4325229   -16666.734   -35813.759   -45225.595    31039.152   -33970.113    7104.2318    9551.4165    87.086925 
   19000    2739.5862   -110.05138    2.4788351   -107.57255   -23901.734    4.4367703    4.4367703    4.4367703   -23901.734   -6921.6248   -61718.789   -3064.7884    29955.504    26085.824   -2082.2758    87.337516 
   19100    1412.4799   -108.87577    1.2780415   -107.59773    -13491.43    4.4137752    4.4137752    4.4137752    -13491.43    31.515405   -40368.023   -137.78058   -27673.222   -4639.7026    29747.143    85.986571 
   19200    1760.2896   -109.18274     1.592747   -107.58999    63257.943    4.3936759    4.3936759    4.3936759    63257.943    99336.038    13330.665    77107.128   -1526.3798    852.15023   -26373.796    84.817221 
   19300     2041.369   -109.46171    1.8470736   -107.61463    11880.786    4.4153472    4.4153472    4.4153472    11880.786    46996.138   -57550.874    46197.095    -16228.69   -8488.6838    8951.0705    86.078479 
   19400     1620.826   -109.07718    1.4665574   -107.61062   -5651.1704    4.4273644    4.4273644    4.4273644   -5651.1704    7593.9841   -81012.226    56464.731   -32360.173    13055.828   -11612.944    86.783232 
   19500    2293.7072   -109.66842    2.0753945   -107.59303   -20632.029    4.4279496    4.4279496    4.4279496   -20632.029   -1555.6887   -54096.674   -6243.7253    1343.1785   -6714.4024   -27589.617    86.817649 
   19600    1917.9149   -109.32717    1.7353697    -107.5918   -26761.187    4.4233937    4.4233937    4.4233937   -26761.187   -56891.668   -57023.025    33631.132   -57883.744   -26865.788    14986.555    86.549941 
   19700    2442.2056   -109.77726    2.2097589    -107.5675    10607.894    4.4116822    4.4116822    4.4116822    10607.894     5416.777   -13138.798    39545.701    15653.817    5451.9801   -17109.562    85.864308 
   19800    1740.7309   -109.16894    1.5750499   -107.59389   -20126.873    4.4251128    4.4251128    4.4251128   -20126.873   -35309.793   -64145.868    39075.041   -67421.581   -13737.051   -3157.1496    86.650894 
   19900     2191.467   -109.56109    1.9828854   -107.57821   -12846.874    4.4382766    4.4382766    4.4382766   -12846.874   -5625.7143   -50166.805    17251.896   -6207.6571    708.11745     13572.95    87.426498 
   20000    1897.9436   -109.28261    1.7172993   -107.56531    12408.865    4.4191078    4.4191078    4.4191078    12408.865   -42728.174    47053.614    32901.155   -29135.896    -929.2374   -7033.4355    86.298608 
   20100     2217.628   -109.58009    2.0065564   -107.57354   -8911.5008    4.4128415    4.4128415    4.4128415   -8911.5008   -14394.521   -62702.595    50362.613   -39806.676    3018.2016     19710.75    85.932011 
   20200    2320.1298   -109.67525    2.0993022   -107.57595   -13489.889    4.4385344    4.4385344    4.4385344   -13489.889   -63587.355     17305.71    5811.9776    -4526.014   -4009.9034    13793.606    87.441737 
   20300    1624.3258   -109.03598    1.4697241   -107.56625   -28829.332      4.45142      4.45142      4.45142   -28829.332   -109015.21    17173.852    5353.3628   -29350.771    16905.967    5273.0387    88.205512 
   20400    2630.8008   -109.91109    2.3804038   -107.53068   -21531.143    4.4403574    4.4403574    4.4403574   -21531.143    -27018.23   -7237.7303   -30337.469   -14340.051   -2971.7252    12744.614    87.549526 
   20500    1930.3983    -109.2944     1.746665   -107.54773   -35814.797    4.4256687    4.4256687    4.4256687   -35814.797   -79124.553   -21400.663   -6919.1757   -57063.233    23316.552    10374.592     86.68355 
   20600    2912.5321    -110.1874    2.6353202   -107.55208   -8940.5724    4.4288594    4.4288594    4.4288594   -8940.5724   -26936.331    31621.171   -31506.557   -474.80893     15556.99    469.20059    86.871169 
   20700    1118.3515   -108.59545     1.011908   -107.58354    17651.425    4.4459031    4.4459031    4.4459031    17651.425   -40059.675    78820.852    14193.099    -41453.59    4355.0128    11604.889    87.877964 
   20800    2102.9967   -109.45188    1.9028356   -107.54905     3796.092    4.4558293    4.4558293    4.4558293     3796.092    37501.954    -7927.386   -18186.292    24594.191     2088.391    3243.4133    88.467886 
   20900    1492.3914   -108.88459    1.3503471   -107.53424    14645.133    4.4370852    4.4370852    4.4370852    14645.133   -32918.725    44980.805    31873.319    -6783.937   -10448.483    26528.712    87.356116 
   21000    1850.7741   -109.21695    1.6746193   -107.54233    15695.464    4.4143385    4.4143385    4.4143385    15695.464   -20710.825    12386.415    55410.802   -21649.919    4723.1838    16361.987    86.019497 
   21100    1956.2692   -109.33566    1.7700735   -107.56559     48173.37    4.3949641    4.3949641    4.3949641     48173.37    57094.067    36507.304    50918.739    31697.838   -4989.4097   -20663.241     84.89185 
   21200    1737.7317   -109.20396    1.5723362   -107.63163    50492.663    4.4206372    4.4206372    4.4206372    50492.663     26470.55    47712.866    77294.573    -20981.73    -11228.59   -12.623401    86.388238 
   21300    1776.2096   -109.19441    1.6071518   -107.58726   -20575.532    4.4508762    4.4508762    4.4508762   -20575.532   -64448.721   -20207.448    22929.574    16423.591   -2082.9508    -13347.72    88.173187 
   21400     2194.353   -109.51737    1.9854967   -107.53187   -354.00686    4.4374048    4.4374048    4.4374048   -354.00686   -14082.671   -23943.121    36963.771    1421.8252   -5633.6412   -1231.1797    87.374993 
   21500    1626.8777   -108.99971    1.4720331   -107.52767   -5536.0064    4.4387402    4.4387402    4.4387402   -5536.0064    20564.364   -6501.2137   -30671.169    889.58543    34934.665   -8424.2445    87.453902 
   21600    1819.6972   -109.18107    1.6465003   -107.53457   -34483.394     4.436879     4.436879     4.436879   -34483.394   -19453.463   -67354.526   -16642.192     19537.14   -17426.164   -25342.588    87.343933 
   21700    1984.8733   -109.33596    1.7959551      -107.54   -4511.7565    4.4148316    4.4148316    4.4148316   -4511.7565   -14969.513    29537.245   -28103.002   -19182.499    48006.444    4742.0524    86.048325 
   21800    1693.9545   -109.10535    1.5327256   -107.57263   -11367.046    4.4155486    4.4155486    4.4155486   -11367.046   -36535.281    18277.127   -15842.982     36998.27    8841.3595     6081.071    86.090259 
   21900    1874.7326   -109.27135    1.6962975   -107.57505   -16697.025    4.4226021    4.4226021    4.4226021   -16697.025   -44922.875    10072.809   -15241.008    16492.509    18546.881   -1178.0531    86.503485 
   22000    1800.0843   -109.21841    1.6287541   -107.58965   -37902.887    4.4366321    4.4366321    4.4366321   -37902.887   -37933.932    11686.299   -87461.028   -5614.4046    45908.329    14448.458    87.329355 
   22100    1928.7009   -109.29972    1.7451291   -107.55459       2384.5    4.4438331    4.4438331    4.4438331       2384.5    37296.602   -22565.237    -7577.865     50444.73    100.82662   -8350.9573    87.755274 
   22200    1277.6883   -108.69606    1.1560792   -107.53998    51547.064    4.4274506    4.4274506    4.4274506    51547.064   -16470.633     149696.8    21415.023      9843.36    59561.661   -17842.036    86.788296 
   22300    1976.5185    -109.3259    1.7883954    -107.5375     14189.82    4.4288377    4.4288377    4.4288377     14189.82    13384.631   -47134.807    76319.636    13004.475    17160.192    3125.7559    86.869893 
   22400    1821.9649   -109.17972    1.6485522   -107.53117    7655.5015    4.4328817    4.4328817    4.4328817    7655.5015   -20301.099    59579.408   -16311.805   -6562.0023    46051.312   -19265.403    87.108075 
   22500    1819.2178    -109.1603    1.6460665   -107.51424    35583.614    4.4322319    4.4322319    4.4322319    35583.614    25816.964     21523.98    59409.899    32556.772     2155.674    9488.2384    87.069778 
   22600    1597.2243   -108.97024    1.4452021   -107.52503   -28391.736    4.4531078    4.4531078    4.4531078   -28391.736   -63918.721    25976.245   -47232.732   -3870.5022    62665.094    144.31907    88.305883 
   22700    2301.0429   -109.57761     2.082032   -107.49558   -46253.764    4.4360153    4.4360153    4.4360153   -46253.764   -81260.285    -52538.18   -4962.8275    38826.585   -11705.468    32494.061    87.292935 
   22800    2136.6625   -109.41072    1.9332971   -107.47742   -4849.7282    4.4047949    4.4047949    4.4047949   -4849.7282   -35516.299   -2112.8523    23079.967   -3012.9915     25913.82   -3995.1873    85.462789 
   22900    1755.1805   -109.13375    1.5881242   -107.54562   -4364.1847    4.4211595    4.4211595    4.4211595   -4364.1847   -57912.606    19035.291     25784.76    37676.697   -10788.415    19343.894    86.418861 
   23000    1890.8011   -109.25661    1.7108366   -107.54577    -46719.21    4.4334817    4.4334817    4.4334817    -46719.21   -58385.809   -73323.895   -8447.9265     72889.53    16652.263   -10634.311    87.143455 
   23100    1980.4743   -109.33561    1.7919748   -107.54363    12964.594    4.4101591    4.4101591    4.4101591    12964.594   -14761.796    29519.119    24136.458   -21284.761    24045.235   -9679.4338    85.775406 
   23200     1710.666    -109.1315    1.5478465   -107.58365   -4411.9016    4.4146086    4.4146086    4.4146086   -4411.9016   -27881.102   -33641.167    48286.565    63114.964   -15118.095   -14140.103    86.035285 
   23300    2534.9942   -109.87326     2.293716   -107.57955      2767.75    4.4275628    4.4275628    4.4275628      2767.75    23891.279    14123.126   -29711.155   -24321.311    31606.222   -8437.7815    86.794897 
   23400    1115.9854   -108.60593     1.009767   -107.59616   -136.04458    4.4409994    4.4409994    4.4409994   -136.04458   -64804.132    11820.323    52575.675    66560.234   -5673.4274   -12264.983    87.587503 
   23500    2716.2168   -110.02179      2.45769    -107.5641   -25089.541    4.4330296    4.4330296    4.4330296   -25089.541   -51045.041   -6125.6985   -18097.882     -20546.7    -1104.065    1136.2626    87.116794 
   23600    1659.8285   -109.06396    1.5018477   -107.56212    45040.712    4.3858606    4.3858606    4.3858606    45040.712    17457.536    91730.009    25934.589    70753.673    20857.223   -18294.376    84.365421 
   23700    2093.0202   -109.48188    1.8938087   -107.58807     45720.93    4.3914128    4.3914128    4.3914128     45720.93    53663.751    26289.025    57210.015     11737.64   -5949.2968    1420.6508    84.686227 
   23800    1869.3955   -109.27721    1.6914683   -107.58575   -20588.003    4.4262701    4.4262701    4.4262701   -20588.003   -49031.968    19976.413   -32708.455    28521.765    20424.835   -6005.4111    86.718893 
   23900    2223.0658   -109.58136    2.0114766   -107.56988   -16122.627    4.4382794    4.4382794    4.4382794   -16122.627    -4813.836   -18969.302   -24584.743    49196.036   -5487.7653    7208.4177    87.426665 
   24000    2057.4645   -109.41862    1.8616371   -107.55698   -515.47577    4.4426389    4.4426389    4.4426389   -515.47577   -6487.6009   -22328.731    27269.905    12881.591   -12389.621   -4139.6239    87.684541 
   24100    1143.8222   -108.58891    1.0349544   -107.55395   -1731.3142    4.4298809    4.4298809    4.4298809   -1731.3142   -84071.126    14060.016    64817.168    65846.896    6866.1661    18492.507    86.931295 
   24200    2451.6814   -109.74612    2.2183329   -107.52779    24222.425    4.4248306    4.4248306    4.4248306    24222.425    33769.668    22878.797     16018.81   -16330.961   -12367.662    18275.703    86.634313 
   24300    1560.3882   -108.97818    1.4118721   -107.56631    -24739.92    4.4266555    4.4266555    4.4266555    -24739.92   -70764.902   -64863.844    61408.987    76502.972   -9053.2489   -2694.3822    86.741548 
   24400    2086.7483   -109.44428    1.8881337   -107.55615    20888.096    4.4306992    4.4306992    4.4306992    20888.096   -5312.5683    50855.876    17120.981   -28098.988    23403.231    30276.237    86.979481 
   24500    1697.4688   -109.10455    1.5359054   -107.56864   -8787.0516    4.4279425    4.4279425    4.4279425   -8787.0516   -38878.529   -48940.415    61457.789    68687.993    976.20519    3347.3565    86.817231 
   24600    2528.2553    -109.8431    2.2876185   -107.55548    4250.2974    4.4245725    4.4245725    4.4245725    4250.2974   -5833.3655   -22193.085    40777.343   -13825.497    2744.9061    1541.2959    86.619156 
   24700    1438.8561   -108.88715    1.3019072   -107.58524   -3915.2532    4.4259141    4.4259141    4.4259141   -3915.2532    5812.7689   -63536.178     45977.65    41351.755   -2568.1887   -2059.9484    86.697973 
   24800    2007.3587   -109.40101    1.8163003   -107.58471    11109.782    4.4215945    4.4215945    4.4215945    11109.782    35329.233    -21344.41    19344.524     218.7495     10202.68   -9442.4657    86.444376 
   24900    2120.2647   -109.50971    1.9184601   -107.59125     3257.456    4.4255867    4.4255867    4.4255867     3257.456    -29172.09   -31181.447    70125.905     9828.125   -6301.0054   -3738.8328    86.678731 
   25000     1684.293   -109.12052    1.5239837   -107.59654    -36143.26    4.4298182    4.4298182    4.4298182    -36143.26   -55214.009   -103146.69    49930.918    32109.765    9124.8444   -11348.639    86.927606 
   25100    2056.1908   -109.44213    1.8604847   -107.58165   -1526.7652    4.4196077    4.4196077    4.4196077   -1526.7652    6969.2186    12977.013   -24526.527   -24000.352   -24799.272   -22497.402      86.3279 
   25200    1725.7577   -109.16022    1.5615019   -107.59872   -6781.9425      4.41825      4.41825      4.41825   -6781.9425   -26958.918   -31887.857    38500.948     48154.81    5993.8357    3738.4531    86.248362 
   25300    2216.3473    -109.6153    2.0053976    -107.6099   -25456.505    4.4158124    4.4158124    4.4158124   -25456.505   -37481.232   -27059.102   -11829.181    11615.968    11809.408   -13194.203    86.105687 
   25400    1506.3374   -108.99485    1.3629657   -107.63188    37537.365    4.4208447    4.4208447    4.4208447    37537.365    73103.661    27138.203    12370.233   -4044.8021   -39736.041   -15954.263    86.400406 
   25500    2082.0954   -109.49584    1.8839237   -107.61191   -23140.172    4.4388263    4.4388263    4.4388263   -23140.172   -73023.321   -28777.642    32380.447    34844.974    35571.491   -11048.402     87.45899 
   25600    2156.0973   -109.53674    1.9508822   -107.58585   -18105.193    4.4319928    4.4319928    4.4319928   -18105.193    12863.511   -33125.681   -34053.409   -10682.735   -16387.174    -5755.094    87.055688 
   25700    1866.8221   -109.26693    1.6891398   -107.57779    12335.535    4.4222673    4.4222673    4.4222673    12335.535   -26103.954    4951.9715    58158.587   -2091.4345   -10538.989   -12140.669    86.483839 
   25800    1498.1876   -108.94224    1.3555916   -107.58665    35741.182    4.4197701    4.4197701    4.4197701    35741.182    16896.104    109537.15   -19209.711    18364.243    35461.462   -20333.276    86.337417 
   25900    2314.7985   -109.67896    2.0944784   -107.58448    21964.213    4.4250271    4.4250271    4.4250271    21964.213    7942.2632    31867.383    26082.992   -21445.412   -46009.641    13547.119    86.645857 
   26000    1877.2377   -109.28328    1.6985641   -107.58472    8373.0266    4.4261386    4.4261386    4.4261386    8373.0266    50190.875   -39470.378    14398.582    2066.1673     45690.51   -7573.3587    86.711168 
   26100     2061.131    -109.4484    1.8649547   -107.58345   -603.90406    4.4237504    4.4237504    4.4237504   -603.90406    9702.4437   -3905.2645   -7608.8914    11215.632   -9128.3325   -249.08395    86.570884 
   26200     1709.212     -109.136    1.5465309   -107.58947    21552.393    4.4211945    4.4211945    4.4211945    21552.393    13701.916    21359.692    29595.571   -43951.563   -18946.235   -231.51242    86.420913 
   26300     1689.696   -109.13734    1.5288724   -107.60847    20039.027    4.4189152    4.4189152    4.4189152    20039.027    41819.053   -27030.652    45328.679    12456.989    40433.137    -19782.14    86.287323 
   26400    2146.1564   -109.55049    1.9418874   -107.60861    27474.569    4.4327323    4.4327323    4.4327323    27474.569    43470.674   -20927.972    59881.005    2002.2714   -14913.956    2132.0912    87.099268 
   26500    2167.4758   -109.54898    1.9611776    -107.5878   -9118.8661    4.4336991    4.4336991    4.4336991   -9118.8661    -33554.56    -32138.99    38336.952   -15492.667    11233.484   -6379.0381    87.156275 
   26600    1111.0063   -108.59246    1.0052619    -107.5872    41119.427    4.4214691    4.4214691    4.4214691    41119.427     43525.88    9331.2394    70501.161    48395.547    18203.713    289.18351    86.437019 
   26700    2529.4907   -109.86674    2.2887364   -107.57801   -3073.0141    4.4238078    4.4238078    4.4238078   -3073.0141   -47194.344    7905.3565    30069.945   -29032.102    62.728713    17512.148    86.574255 
   26800    1327.3972   -108.79931    1.2010569   -107.59825    22767.975    4.4175341    4.4175341    4.4175341    22767.975    37288.314   -12527.585    43543.195   -9798.5748    19114.614   -12952.528    86.206445 
   26900     2068.253   -109.49239    1.8713988   -107.62099    -20305.72    4.4175042    4.4175042    4.4175042    -20305.72   -42601.454   -54868.072    36552.367    30692.015    7069.6332   -5291.6341    86.204695 
   27000    2043.9618    -109.4684    1.8494196   -107.61898    9050.8889    4.4187114    4.4187114    4.4187114    9050.8889   -6894.5459   -17422.348    51469.561   -41460.038   -13657.967    18734.798    86.275388 
   27100    1487.2078   -108.97496    1.3456569    -107.6293   -6855.0968    4.4314528    4.4314528    4.4314528   -6855.0968   -14335.613   -43438.332    37208.655    43504.091    4554.5407   -3284.9077     87.02387 
   27200    2429.4553   -109.79566    2.1982222   -107.59743   -40397.013    4.4453898    4.4453898    4.4453898   -40397.013   -76188.628   -48388.027    3385.6156    2842.4897    14660.607    8757.0868    87.847526 
   27300    1856.5923   -109.26077    1.6798838   -107.58088    18328.702    4.4229592    4.4229592    4.4229592    18328.702    22579.143   -4466.1451    36873.109   -2215.2787   -5339.3869     21880.77     86.52444 
   27400    1585.6727   -109.00751      1.43475   -107.57276    23508.284     4.408333     4.408333     4.408333    23508.284    21947.962    31204.619    17372.272     31192.17    34596.542    -19888.62    85.668899 
   27500     2954.003   -110.25748     2.672844   -107.58463   -22581.955    4.4338815    4.4338815    4.4338815   -22581.955   -33042.606   -17977.104   -16726.154   -6883.3466   -3778.7227     10417.78    87.167029 
   27600    1726.6028    -109.1753    1.5622665   -107.61303    2867.1094    4.4253579    4.4253579    4.4253579    2867.1094    27288.383   -41639.142    22952.087    47258.359    17745.632    6818.7167    86.665294 
   27700    2013.3137   -109.42386    1.8216886   -107.60217    16878.374    4.3998332    4.3998332    4.3998332    16878.374   -7367.9168    32230.878     25772.16   -21536.012    25164.751   -21454.135    85.174314 
   27800    2149.6092   -109.56379    1.9450115   -107.61877    40900.083    4.4052427    4.4052427    4.4052427    40900.083    56202.475    4442.0212    62055.754   -4800.3999   -24619.824    23942.123     85.48886 
   27900      2007.31   -109.44716    1.8162563    -107.6309    -14035.54    4.4209073    4.4209073    4.4209073    -14035.54   -17928.826   -36679.616    12501.823    26580.895    31748.992    11594.253    86.404077 
   28000     1527.087   -109.00067    1.3817404   -107.61893    25975.137    4.4247082    4.4247082    4.4247082    25975.137    -16497.67    18874.515    75548.565   -36909.888    6041.4673   -26111.672    86.627124 
   28100    2615.0064   -109.96049    2.3661127   -107.59438    -6417.178    4.4314957    4.4314957    4.4314957    -6417.178     195.3267    3835.6425   -23282.503    6422.3405   -8940.7683    20922.569    87.026395 
   28200    1531.1085   -108.98641    1.3853791   -107.60103   -19749.929    4.4271534    4.4271534    4.4271534   -19749.929     1486.171   -59335.538   -1400.4214   -19832.057    42312.487   -11388.274    86.770822 
   28300    1447.8311   -108.93404     1.310028   -107.62402    16544.727    4.4199759    4.4199759    4.4199759    16544.727   -15795.005    61494.705     3934.481   -23017.506   -7271.4047    -12121.41    86.349478 
   28400    2729.1069   -110.08504    2.4693532   -107.61569   -10312.998    4.4241266    4.4241266    4.4241266   -10312.998   -29361.616   -20904.934    19327.555    8417.2303   -10072.637    1959.5918    86.592972 
   28500    1529.0304   -109.00555    1.3834988   -107.62205    19822.293    4.4123087    4.4123087    4.4123087    19822.293    12187.595    27104.236    20175.047    -36975.89    8829.4396   -18006.788    85.900888 
   28600    1975.0062   -109.41294    1.7870271   -107.62591   -9391.8892    4.4270536    4.4270536    4.4270536   -9391.8892   -39074.412    20016.056   -9117.3119    48742.973   -15974.805   -1956.8386    86.764953 
   28700    1928.0726   -109.34388    1.7445606   -107.59932   -6364.1796    4.4311053    4.4311053    4.4311053   -6364.1796    12391.252   -41906.498    10422.707   -549.66286   -2029.4534   -15900.357    87.003396 
   28800    2201.1832   -109.56618    1.9916768    -107.5745   -13960.666    4.4178767    4.4178767    4.4178767   -13960.666   -47269.323   -28765.515     34152.84    14659.504    10338.846   -1136.7419      86.2265 
   28900    1239.9261   -108.72261    1.1219112   -107.60069   -5226.4405    4.4303589    4.4303589    4.4303589   -5226.4405    -20155.14    -40743.25    45219.069    49749.503    1995.1996   -2456.5645    86.959438 
   29000    2055.2199   -109.42786    1.8596061   -107.56826   -6921.4881    4.4311619    4.4311619    4.4311619   -6921.4881    62282.341   -28485.903   -54560.903   -4191.2006   -6052.5163    -21103.53    87.006734 
   29100    2066.3187   -109.44398    1.8696486   -107.57434   -25089.896    4.4211445    4.4211445    4.4211445   -25089.896   -64547.662   -4915.1057   -5806.9212    46188.408    15102.277   -39.375098    86.417982 
   29200    2131.5285   -109.51329    1.9286518   -107.58464   -1859.5871    4.4118627    4.4118627    4.4118627   -1859.5871    23261.271    11387.433   -40227.466     13535.35   -10132.073   -15650.496    85.874842 
   29300    2064.3032   -109.46045    1.8678249   -107.59263     144.5315    4.4185442    4.4185442    4.4185442     144.5315     10972.08    19750.806   -30289.291     21410.86    23873.711    424.95614     86.26559 
   29400    1592.5803   -109.02639    1.4410001   -107.58539    27322.661    4.4364379    4.4364379    4.4364379    27322.661   -16030.712    111278.91   -13280.213    28597.835    19760.545   -11850.411     87.31789 
   29500    1805.7766   -109.18897    1.6339046   -107.55507   -7118.5346    4.4526099    4.4526099    4.4526099   -7118.5346    31910.579    33069.783   -86335.966    -2034.017   -9642.2593     1127.199    88.276263 
   29600    1784.3325   -109.15764    1.6145015   -107.54314   -2437.3524    4.4412593    4.4412593    4.4412593   -2437.3524   -38765.394    82674.235   -51220.899    11851.565    34897.608    19464.224    87.602881 
   29700    2295.3187   -109.60839    2.0768526   -107.53154     24432.38    4.4029292    4.4029292    4.4029292     24432.38    36328.199    42652.438    -5683.498    24297.842    -14795.48   -42442.823    85.354241 
   29800    1152.7888   -108.63197    1.0430675    -107.5889   -950.69473    4.3972657    4.3972657    4.3972657   -950.69473    35798.501    16160.911   -54811.497   -29423.981    30431.698    45629.097     85.02529 
   29900    2575.0601    -109.9511    2.3299684   -107.62113    9428.9378    4.4141296    4.4141296    4.4141296    9428.9378   -6997.2047    82739.791   -47455.773    13998.008   -6798.3243   -17707.261    86.007284 
   30000    2266.5625   -109.68303    2.0508334    -107.6322   -46251.348    4.4345413    4.4345413    4.4345413   -46251.348   -20203.661    -31825.13   -86725.253   -16361.144    8576.6706    19162.094    87.205948 
   30100    956.01424   -108.50828   0.86502177   -107.64325   -43672.009    4.4197073    4.4197073    4.4197073   -43672.009    -16871.98   -13357.202   -100786.85    -3065.703   -2700.0101    35644.092    86.333736 
   30200    2287.9685   -109.67316     2.070202   -107.60296    44591.192    4.3831435    4.3831435    4.3831435    44591.192    86884.653    31513.376    15375.548    2285.0703   -22432.582   -18255.032    84.208723 
   30300    2429.4805    -109.8385     2.198245   -107.64025   -3052.1194     4.402809     4.402809     4.402809   -3052.1194    5736.1486    9246.6161   -24139.123   -2345.8886    33293.455    14268.986    85.347249 
   30400    1196.8683   -108.73663    1.0829516   -107.65368   -12294.609    4.4209455    4.4209455    4.4209455   -12294.609    61196.677   -19197.065    -78883.44   -6313.3925   -24422.669   -2632.9184    86.406318 
   30500    1972.5764    -109.4425    1.7848285   -107.65767    6.6352313    4.4192742    4.4192742    4.4192742    6.6352313    73869.838   -5567.2941   -68282.638    1225.8054    -10853.03   -36734.415    86.308355 
   30600    2566.1888   -109.95219    2.3219415   -107.63025    12741.814    4.4222216    4.4222216    4.4222216    12741.814    2029.6637    64977.166   -28781.388   -21982.831   -3535.7791   -7259.0607    86.481158 
   30700    1227.9576   -108.75506    1.1110818   -107.64398   -29421.807    4.4144623    4.4144623    4.4144623   -29421.807    1172.8927    10369.846   -99808.159   -4709.0168   -35610.053   -54244.827    86.026733 
   30800    1873.9626   -109.30896    1.6956007   -107.61336    47167.063    4.4081629    4.4081629    4.4081629    47167.063    54985.218    108142.68   -21626.711   -3146.2865    12733.983    28213.222    85.658982 
   30900    2590.2063   -109.94506    2.3436731   -107.60139   -20534.487    4.4221713    4.4221713    4.4221713   -20534.487   -15373.631     5020.087   -51249.916   -262.11606   -15519.754   -29281.219    86.478211 
   31000    1208.8164   -108.70525    1.0937625   -107.61149    12868.199    4.4104798    4.4104798    4.4104798    12868.199    15304.572    96755.321   -73455.295    8064.7565   -11096.005    -16495.36    85.794118 
   31100      1681.32    -109.1664    1.5212936   -107.64511    4000.4564    4.4009206    4.4009206    4.4009206    4000.4564   -4740.5224    27389.731    -10647.84    208.20859    32826.212    39446.991    85.237479 
   31200    3293.8021   -110.62405    2.9803014   -107.64375   -1233.6598    4.4040426    4.4040426    4.4040426   -1233.6598    488.74581    23748.456   -27938.182   -28714.047    3129.1793   -17551.861    85.419013 
   31300    1509.0809   -109.03585    1.3654481    -107.6704   -13988.644    4.4102119    4.4102119    4.4102119   -13988.644   -3103.4028   -15288.672   -23573.859   -3604.0123    16616.927    6068.5316    85.778486 
   31400    936.86731   -108.52177   0.84769723   -107.67407    -23535.84    4.4063605    4.4063605    4.4063605    -23535.84    18796.038    4809.7662   -94213.325    6467.3685    21857.437     42798.29    85.553953 
   31500    2362.1899   -109.78319    2.1373591   -107.64583    45603.726    4.3975302    4.3975302    4.3975302    45603.726    71737.633    60394.272    4679.2733   -17357.894   -27479.359   -19827.075    85.040636 
   31600    2258.5219   -109.70274    2.0435581   -107.65918    4017.9096    4.4025836    4.4025836    4.4025836    4017.9096    59123.711   -10132.999   -36936.982    4831.6834    35203.027    35220.002    85.334144 
   31700    1260.0649   -108.80352    1.1401332   -107.66339   -23536.078    4.4147354    4.4147354    4.4147354   -23536.078    13518.351   -20918.995   -63207.589    18092.991    3066.0884    933.38906    86.042699 
   31800    2206.5327   -109.64551    1.9965172   -107.64899   -20431.622    4.4128872    4.4128872    4.4128872   -20431.622    19280.431   -21652.956   -58922.342   -1897.0512   -36279.115   -19247.453    85.934683 
   31900    2771.4742   -110.14292    2.5076881   -107.63523    17664.929    4.4060076    4.4060076    4.4060076    17664.929    99958.299   -14385.717   -32577.794    5142.0632    10964.867     16656.56    85.533396 
   32000    758.17882   -108.34646   0.68601613   -107.66044    9397.2226    4.4058279    4.4058279    4.4058279    9397.2226    85658.315   -2603.0387   -54863.609    17291.319   -24168.229   -38121.107     85.52293 
   32100    2247.0945    -109.6731    2.0332183   -107.63988     -22347.1     4.410734     4.410734     4.410734     -22347.1   -16281.318    15426.658   -66186.641    -7087.071   -18895.327    6112.2538    85.808953 
   32200     2713.077   -110.07564    2.4548491   -107.62079    -8355.911    4.4007912    4.4007912    4.4007912    -8355.911    21294.215   -31958.666   -14403.282    -18414.48   -2951.3356   -8199.9387    85.229961 
   32300      1322.64    -108.8395    1.1967525   -107.64275   -20548.704    4.4004332    4.4004332    4.4004332   -20548.704   -1011.9885    -4902.279   -55731.845    4915.6137    -42298.52   -13345.449    85.209165 
   32400    2170.7114   -109.60114    1.9641053   -107.63704   -81.397661    4.4104644    4.4104644    4.4104644   -81.397661    33968.808    5627.3876   -39840.389   -5664.2896    25813.428    31253.811    85.793218 
   32500     1972.717   -109.39702    1.7849558   -107.61207   -17566.176     4.428345     4.428345     4.428345   -17566.176   -13491.048   -27892.903   -11314.577   -30787.294   -23850.263   -11210.965    86.840907 
   32600    1237.5404   -108.73299    1.1197525   -107.61324     15745.63    4.4120911    4.4120911    4.4120911     15745.63    45127.233    18659.542   -16549.886    16145.204   -15184.129   -5237.0373    85.888183 
   32700    1825.9776   -109.25441    1.6521829   -107.60223    9108.6502    4.3896857    4.3896857    4.3896857    9108.6502    22615.854    44190.278   -39480.182    -8883.447    33526.235    31943.155    84.586346 
   32800    2195.9764   -109.60479    1.9869656   -107.61783    40856.271    4.3964828    4.3964828    4.3964828    40856.271    107712.58    261.83625    14594.395   -16429.083   -22077.521   -14670.616    84.979883 
   32900    1679.8897   -109.16444    1.5199995   -107.64444   -45366.281    4.4234401    4.4234401    4.4234401   -45366.281    3173.8206   -37102.005   -102170.66    549.92482    30471.395    23917.026    86.552666 
   33000    1630.1494    -109.1078    1.4749934   -107.63281   -49283.137    4.4268638    4.4268638    4.4268638   -49283.137   -65352.951   -20316.127   -62180.333   -22229.553     47897.41    6942.5255    86.753794 
   33100    2520.6823   -109.89087    2.2807663   -107.61011   -18193.785     4.402917     4.402917     4.402917   -18193.785    4557.9499   -44090.752   -15048.553   -16340.275   -16024.994    10390.408    85.353533 
   33200    2143.8968   -109.56287    1.9398428   -107.62303    15875.523    4.3898792    4.3898792    4.3898792    15875.523     81657.84   -24799.178   -9232.0936    515.93275     49130.33    5011.9739    84.597538 
   33300    1397.3154   -108.91463    1.2643203    -107.6503    14928.843    4.4032195    4.4032195    4.4032195    14928.843    69539.227   -2084.7245   -22667.973   -345.23487   -11810.742   -16544.625    85.371125 
   33400    1035.2724   -108.60627   0.93673619   -107.66953   -20680.212    4.4277347    4.4277347    4.4277347   -20680.212    40196.865   -45685.648   -56551.852   -4458.1051   -9518.0711    16867.967    86.805008 
   33500     2885.585   -110.22162     2.610938   -107.61068    5170.3534    4.4250892    4.4250892    4.4250892    5170.3534    32842.241   -27037.188    9706.0068    6529.4499    9868.5661   -6000.2409    86.649504 
   33600    1796.4994   -109.23487    1.6255104   -107.60936     805.2892    4.4085754    4.4085754    4.4085754     805.2892    -9043.061   -35948.461    47407.389    14153.887    -28474.07    2209.7663     85.68303 
   33700    1378.9066   -108.85513    1.2476636   -107.60747   -13315.726     4.395077     4.395077     4.395077   -13315.726   -30207.238    24128.506   -33868.446   -3544.8426    19461.188    24359.256    84.898393 
   33800    2065.7688   -109.49334     1.869151   -107.62419    27551.881    4.4014747    4.4014747    4.4014747    27551.881    8349.6148    38787.601    35518.427   -200.89841    24454.437    8369.6192     85.26968 
   33900    1963.0505   -109.40532    1.7762094   -107.62911   -5111.6292    4.4299164    4.4299164    4.4299164   -5111.6292   -20963.302    30350.413   -24721.998    12441.626   -1626.5689    28458.823    86.933386 
   34000    1089.1363   -108.59194   0.98547342   -107.60647   -14500.805    4.4355021    4.4355021    4.4355021   -14500.805   -93209.459     117563.4   -67856.356   -4264.0594    32875.573    10940.981    87.262644 
   34100    2330.9128   -109.65443    2.1090589   -107.54537    11802.813    4.4363597    4.4363597    4.4363597    11802.813    57682.014    29259.624     -51533.2    4411.4582   -11706.635     6780.134    87.313272 
   34200    1587.5505   -109.01233    1.4364491   -107.57588   -33611.829    4.4148249    4.4148249    4.4148249   -33611.829    -33449.58    27686.933   -95072.841    7920.9228    35558.807    31012.185    86.047936 
   34300    1784.9171   -109.18587    1.6150305   -107.57084     43095.95    4.3726143    4.3726143    4.3726143     43095.95    47782.347    78053.319    3452.1862    1635.2899   -23578.637   -13141.696    83.603318 
   34400    1400.8065   -108.90713    1.2674791   -107.63965    7518.0443    4.3965756    4.3965756    4.3965756    7518.0443    5934.5605    51654.777   -35035.205   -6098.3879    11923.645   -22389.023    84.985266 
   34500    1663.8438   -109.13488    1.5054808    -107.6294   -17762.814    4.4185474    4.4185474    4.4185474   -17762.814   -22104.374    39785.225   -70969.293   -2071.2602    24301.735    28357.603    86.265782 
   34600    2499.4471   -109.86658    2.2615522   -107.60503     186.6386    4.4197803    4.4197803    4.4197803     186.6386    12273.302   -7540.0075   -4173.3792   -1213.3297   -14842.377   -8701.4414    86.338011 
   34700    1086.2531   -108.59755   0.98286467   -107.61468   -36975.572    4.4326095    4.4326095    4.4326095   -36975.572   -38147.865   -31956.429   -40822.422    2018.6877    28375.873    808.66757     87.09203 
   34800    2372.4013   -109.71777    2.1465985   -107.57117    296.69025    4.4217477    4.4217477    4.4217477    296.69025   -29166.239   -9098.8636    39155.174    13894.673    14198.904    29812.955    86.453359 
   34900    1889.3756   -109.28267    1.7095467   -107.57312    21569.377    4.4060375    4.4060375    4.4060375    21569.377    55444.801   -32346.267    41609.595    5455.3756    5565.8484   -17104.115    85.535138 
   35000    1326.6349   -108.80337    1.2003671   -107.60301   -5621.4241    4.4146572    4.4146572    4.4146572   -5621.4241    -4786.815   -41250.232    29172.775    9858.6268    9896.4349     13989.68    86.038128 
   35100    2874.1313   -110.18865    2.6005744   -107.58808   -33156.834    4.4215207    4.4215207    4.4215207   -33156.834   -45971.009   -75114.993      21615.5    14910.412   -11833.271   -4932.8039    86.440045 
   35200    1505.0658   -108.97574    1.3618152   -107.61392   -21461.468    4.4150487    4.4150487    4.4150487   -21461.468    36672.955   -28223.028   -72834.331   -402.07043    28235.791    -13027.32    86.061023 
   35300    2188.0389   -109.57366    1.9797835   -107.59388    2733.6693    4.3992795    4.3992795    4.3992795    2733.6693    2243.4662   -23812.084    29769.626    9125.4481   -3739.6676    11479.835    85.142158 
   35400    1824.5461   -109.25596    1.6508876   -107.60508    22482.106    4.3955925    4.3955925    4.3955925    22482.106    12786.914    21687.419    32971.985    937.64775    -23014.28   -6879.3767     84.92827 
   35500    1721.9623   -109.17913    1.5580677   -107.62107    1642.9996    4.4047685    4.4047685    4.4047685    1642.9996    52690.807   -35117.367   -12644.441   -7401.1589    37406.731     18430.31    85.461255 
   35600    2422.6671    -109.7951    2.1920801   -107.60302   -5166.8171     4.418921     4.418921     4.418921   -5166.8171   -29708.923    6589.4911    7618.9802    4178.7261   -44591.576    6533.1784    86.287664 
   35700    1302.5772   -108.78144    1.1785993   -107.60284   -24699.197    4.4212955    4.4212955    4.4212955   -24699.197   -11260.484    7879.8954   -70717.001   -2928.0313    8535.2384    -7249.777    86.426836 
   35800    2504.7982   -109.84826    2.2663941   -107.58186    611.33774    4.3995495    4.3995495    4.3995495    611.33774    20766.219   -23542.311    4610.1057   -22482.859    15271.184    6603.0768    85.157838 
   35900    1929.7367   -109.34427    1.7460663    -107.5982    14689.901    4.3845633    4.3845633    4.3845633    14689.901    19053.937    44826.847    -19811.08    11605.639   -57610.449   -4524.4393     84.29058 
   36000    1707.4852     -109.169    1.5449685   -107.62403   -987.08335    4.3970757    4.3970757    4.3970757   -987.08335    36139.285   -17274.002   -21826.533   -24405.457     43625.42   -9434.9339    85.014272 
   36100     2113.994   -109.52875    1.9127862   -107.61597   -16668.255    4.4218689    4.4218689    4.4218689   -16668.255   -41287.007   -7442.3591   -1275.3984   -18533.533   -36315.653    12821.561    86.460469 
   36200    1466.1447   -108.91833    1.3265985   -107.59174    268.45116    4.4369542    4.4369542    4.4369542    268.45116    45099.656   -17806.811   -26487.491    3394.4093    21441.679   -8117.7834    87.348378 
   36300    2175.8634   -109.53248    1.9687669   -107.56371   -9692.0308     4.419055     4.419055     4.419055   -9692.0308   -34071.255   -31550.695    36545.858   -20277.438    10893.335    7805.3352    86.295513 
   36400     1813.231   -109.19926    1.6406495   -107.55861    23235.808    4.3945067    4.3945067    4.3945067    23235.808   -6882.7944      33082.5    43507.719    1362.4182   -19749.545     12054.86    84.865347 
   36500    1947.7999   -109.34736    1.7624103   -107.58495     -330.255    4.3942257    4.3942257    4.3942257     -330.255    10981.417    18142.288    -30114.47    3065.3078    63570.909   -2850.5625     84.84907 
   36600     2239.273   -109.62479    2.0261412   -107.59865   -6662.3378     4.421381     4.421381     4.421381   -6662.3378   -27545.735   -13127.983    20686.705   -15684.824    -26773.18   -754.08295    86.431854 
   36700    1152.5733   -108.63351    1.0428725   -107.59064   -50946.434    4.4366295    4.4366295    4.4366295   -50946.434   -73667.137    28491.509   -107663.67   -1423.9045    68909.621    7452.0422      87.3292 
   36800     2670.276   -109.96877    2.4161218   -107.55265    14305.626    4.3990368    4.3990368    4.3990368    14305.626    44526.269   -8379.9283    6770.5372   -10262.753    5421.7311    5386.7154     85.12807 
   36900    1612.1701   -109.02858    1.4587254   -107.56985    5972.1609    4.3771293    4.3771293    4.3771293    5972.1609   -1049.2942    71623.376   -52657.599    4505.5562    40835.545     9699.565    83.862559 
   37000    1234.2399   -108.74996    1.1167662    -107.6332   -6974.6962    4.3975807    4.3975807    4.3975807   -6974.6962   -5707.1957    28346.169   -43563.061   -1796.3918     33393.86   -2303.6514    85.043563 
   37100     3000.898   -110.32392    2.7152756   -107.60864    8948.9659    4.4186083    4.4186083    4.4186083    8948.9659    24676.527    -22928.42    25098.791    7877.5439     6258.639    3017.0415    86.269348 
   37200    1115.1453   -108.63048    1.0090069   -107.62147   -30152.763     4.432008     4.432008     4.432008   -30152.763   -1060.3815    20317.828   -109715.74   -4704.2416    33843.931    3149.5664    87.056579 
   37300    2102.8712   -109.50328     1.902722   -107.60056     13640.63    4.4034842    4.4034842    4.4034842     13640.63    5668.6851    17892.294    17360.911    14459.608   -54820.707   -10216.933    85.386523 
   37400     1888.981   -109.31263    1.7091897   -107.60344    33991.029    4.3793353    4.3793353    4.3793353    33991.029    57018.081     37269.48     7685.527   -5416.8651    48422.504    3671.1696    83.989419 
   37500    1933.9819    -109.3802    1.7499074   -107.63029   -3335.3754    4.3869445    4.3869445    4.3869445   -3335.3754    13206.411    30315.827   -53528.364   -408.56583   -19348.805    12849.284    84.427986 
   37600    2045.2397   -109.47703    1.8505759   -107.62645    2810.8176    4.4162943    4.4162943    4.4162943    2810.8176    18420.094   -29371.235    19383.594    -11576.68    -15963.65   -24614.246    86.133883 
   37700    1435.5742    -108.8995    1.2989377   -107.60056   -16854.071    4.4312024    4.4312024    4.4312024   -16854.071    -15752.71     10529.53   -45339.034   -21929.628    11528.448    6470.8691    87.009116 
   37800    2006.0332    -109.3744     1.815101    -107.5593     15064.41    4.4153906    4.4153906    4.4153906     15064.41    30778.468    41314.978   -26900.215   -3054.8486   -39194.093   -8094.5923    86.081016 
   37900     1892.126   -109.26872    1.7120354   -107.55668   -5097.5175    4.3979284    4.3979284    4.3979284   -5097.5175    10558.661   -25886.639    35.425745   -28935.122    6812.1823   -49306.208    85.063741 
   38000    2132.0035   -109.51428    1.9290816    -107.5852    14421.677    4.3936028    4.3936028    4.3936028    14421.677    -35069.12    52554.897    25779.253   -4929.8226    14982.538    12527.733     84.81299 
   38100    1522.3786   -108.98918    1.3774802    -107.6117    21579.668    4.4084996    4.4084996    4.4084996    21579.668    29392.424    21924.636    13421.943    -5628.241   -11592.755   -47444.704     85.67861 
   38200    1724.0799   -109.16094    1.5599837   -107.60096    -11882.03    4.4305336    4.4305336    4.4305336    -11882.03   -41100.039    34381.806   -28927.857   -15691.595    32575.318   -1150.7774    86.969729 
   38300    2149.8283   -109.50657    1.9452099   -107.56136   -23350.006    4.4319661    4.4319661    4.4319661   -23350.006   -15243.358   -33792.167   -21014.491    7392.8772    -222.9258   -15116.506    87.054109 
   38400    1858.1544   -109.23881    1.6812972   -107.55751   -15342.132    4.4013832    4.4013832    4.4013832   -15342.132   -15335.175   -18600.295   -12090.928    8397.1322    13973.386   -28909.496     85.26436 
   38500    1871.3606   -109.24679    1.6932464   -107.55354     20117.72    4.3901139    4.3901139    4.3901139     20117.72    21829.371    31736.578    6787.2093   -684.41507     49542.03    10078.502    84.611103 
   38600    2507.1497   -109.84491    2.2685217   -107.57639   -24782.075    4.4103615    4.4103615    4.4103615   -24782.075   -2252.1856    -48228.61   -23865.429    19023.461   -8860.0557    -37147.33    85.787213 
   38700    956.77323   -108.46509   0.86570853   -107.59938   -32498.836    4.4175421    4.4175421    4.4175421   -32498.836   -86039.316    7086.1845   -18543.378   -8076.4331    78252.407   -5452.5305    86.206915 
   38800      2758.67   -110.07087    2.4961026   -107.57477   -10624.886    4.4080426    4.4080426    4.4080426   -10624.886   -15224.261   -918.05961   -15732.337    8231.3873   -29271.422   -7025.9562    85.651968 
   38900    1402.2862   -108.87022     1.268818    -107.6014   -11399.917    4.4020473    4.4020473    4.4020473   -11399.917   -44888.608    29897.101   -19208.244    18460.756    63509.873   -15301.139    85.302965 
   39000    2154.7325    -109.5444    1.9496473   -107.59475   -21651.768    4.3940977    4.3940977    4.3940977   -21651.768   -52435.997    628.25905   -13147.564     5763.698   -5363.0185    7228.8373    84.841655 
   39100    1522.5907   -108.99234     1.377672   -107.61466   -948.50019    4.3983792    4.3983792    4.3983792   -948.50019    -9167.042    107.21287    6214.3286   -12449.064   -20415.643    19434.599    85.089901 
   39200    2678.2854   -110.02332    2.4233689   -107.59995   -15598.111    4.4166623    4.4166623    4.4166623   -15598.111   -41248.368    12711.557   -18257.521    17307.981    17799.299    5940.1269    86.155414 
   39300     927.5167   -108.44762    0.8392366   -107.60839   -45962.092    4.4325898    4.4325898    4.4325898   -45962.092   -103399.78   -43526.064    9039.5624    179.29015   -60787.216    12407.452    87.090872 
   39400      2784.72   -110.08644    2.5196732   -107.56676     7248.494    4.4156695    4.4156695    4.4156695     7248.494   -14032.708    4278.4282    31499.761   -12428.344    19933.213    17426.795    86.097327 
   39500     1412.836   -108.86556    1.2783637    -107.5872    22737.604    4.3900801    4.3900801    4.3900801    22737.604   -66712.283    95012.822    39912.272    11746.261   -66171.668    1518.3711    84.609148 
   39600    1842.0798   -109.27034    1.6667525   -107.60358   -25575.543    4.3991485    4.3991485    4.3991485   -25575.543   -44626.397   -21858.092    -10242.14   -12363.519   -16559.401    10473.069    85.134553 
   39700    2334.6691   -109.71112    2.1124576   -107.59867    9673.4059    4.4085517    4.4085517    4.4085517    9673.4059   -29405.098    20588.871    37836.445    -323.6082    38711.597   -15824.711    85.681648 
   39800    1912.7869   -109.34096    1.7307298   -107.61023   -1054.0489    4.4113921    4.4113921    4.4113921   -1054.0489   -32145.716    21393.312    7590.2578    12836.547   -48866.335    6836.3951     85.84737 
   39900    1709.8834   -109.14958    1.5471384   -107.60244    7778.5986    4.4142491    4.4142491    4.4142491    7778.5986   -25932.166    9848.6353    39419.327   -8117.7136    54066.273    294.54035     86.01427 
   40000    1826.1776   -109.25794    1.6523638   -107.60558   -6698.0996    4.4143194    4.4143194    4.4143194   -6698.0996   -6247.0949   -21827.217    7980.0131    18771.031    10229.581   -662.39942    86.018378 
   40100    1877.0342   -109.30419      1.69838   -107.60581    -11469.16      4.41014      4.41014      4.41014    -11469.16   -41044.096   -22582.002    29218.616    15134.305   -14443.021   -6226.6606    85.774291 
   40200    1694.9212   -109.14931    1.5336003   -107.61571    1084.0301    4.3860375    4.3860375    4.3860375    1084.0301   -57965.113    34616.019    26601.184   -4218.1884    92052.345    11457.072    84.375629 
   40300    2349.2202   -109.73543    2.1256238   -107.60981    36468.149    4.3948055    4.3948055    4.3948055    36468.149    5445.1107   -12651.454    116610.79    12406.057   -19688.833    7303.5272     84.88266 
   40400    901.58477    -108.4512   0.81577284   -107.63543   -31374.793    4.4166874    4.4166874    4.4166874   -31374.793   -91181.208    47207.832   -50151.004   -915.65012    105179.34   -3741.6665    86.156884 
   40500    2736.4246   -110.04338    2.4759745   -107.56741    3621.6597    4.4248483    4.4248483    4.4248483    3621.6597    1564.3993   -44662.126    53962.706   -4849.5333   -9574.4414    7652.9574    86.635355 
   40600    1405.5306   -108.83168    1.2717537   -107.55992    6966.2977    4.4407413    4.4407413    4.4407413    6966.2977     -1358.99    51042.541   -28784.658    14722.913    80165.073    185.46225    87.572231 
   40700    2419.9339   -109.67715    2.1896071   -107.48754   -354.64756    4.4495735    4.4495735    4.4495735   -354.64756    39948.279   -20466.609   -20545.613    3799.2212   -17039.852    -11170.59    88.095792 
   40800    1056.3479   -108.46558   0.95580576   -107.50977    8096.8028    4.4234142    4.4234142    4.4234142    8096.8028    38599.158    16617.281    -30926.03    11875.985    90410.138   -9421.4544    86.551148 
   40900    2122.0357   -109.44847    1.9200625   -107.52841    17751.227    4.3993797    4.3993797    4.3993797    17751.227    32194.554    886.74167    20172.385    19815.898    -2891.292   -1314.2659    85.147975 
   41000    1923.2972    -109.3215    1.7402398   -107.58126    7889.5181    4.3904772    4.3904772    4.3904772    7889.5181    52542.557   -1438.0941   -27435.908   -9829.1464    39959.466   -25194.372    84.632114 
   41100    1803.9034   -109.25821    1.6322098   -107.62601   -11957.681    4.4032355    4.4032355    4.4032355   -11957.681    -60725.48      7762.23    17090.208    15123.954    45098.284    9965.2167    85.372056 
   41200     1842.459   -109.28345    1.6670956   -107.61635   -13003.194    4.4324449    4.4324449    4.4324449   -13003.194    45428.617   -34474.619   -49963.581    21054.695   -27423.456    378.21774    87.082332 
   41300    1596.3605   -109.03809    1.4444205   -107.59367   -47198.237    4.4284229    4.4284229    4.4284229   -47198.237   -51721.086    14229.695   -104103.32    606.59319    79761.009    -18694.82     86.84549 
   41400    1973.5761    -109.3403    1.7857331   -107.55457     31865.75    4.3820412    4.3820412    4.3820412     31865.75    35737.576    27482.807    32376.869    26394.189   -15437.526    8090.4123    84.145206 
   41500    1901.2463   -109.31577    1.7202876   -107.59548   -7844.7744    4.3898439    4.3898439    4.3898439   -7844.7744    2035.1079    17245.438   -42814.869    12122.006   -2282.4146   -3512.4728    84.595497 
   41600    2580.4543   -109.91946    2.3348493   -107.58461    726.21833    4.4122123    4.4122123    4.4122123    726.21833    24243.635   -18614.888   -3450.0925   -679.52456    23671.963     6420.663    85.895263 
   41700    953.50926   -108.47944   0.86275522   -107.61668    3388.3988    4.4263886    4.4263886    4.4263886    3388.3988     4261.948   -20128.486    26031.734    18563.947   -25579.039    7410.1481    86.725862 
   41800     2647.063   -109.96945    2.3951182   -107.57434   -19319.053    4.4312001    4.4312001    4.4312001   -19319.053    27893.245   -41748.124   -44102.279    6343.4156    17662.673   -16584.269    87.008982 
   41900    1871.3941   -109.27945    1.6932767   -107.58617   -3664.6192    4.3877258    4.3877258    4.3877258   -3664.6192    37417.353   -51003.525    2592.3147    6512.8089     14001.62    88.040189    84.473103 
   42000    1688.2291   -109.12424    1.5275452   -107.59669    19330.877    4.3744597    4.3744597    4.3744597    19330.877    41774.258    2249.1107    13969.262    14123.607   -21150.231   -4544.5834    83.709211 
   42100    1644.1898   -109.12667    1.4876975   -107.63897   -26108.143    4.4016596    4.4016596    4.4016596   -26108.143    3553.6209    3696.9663   -85575.017    5409.0244    68958.844   -29921.319    85.280428 
   42200    2207.6005   -109.61543    1.9974833   -107.61795   -7362.8854    4.4267602    4.4267602    4.4267602   -7362.8854    39096.138   -25021.495     -36163.3   -1349.0632   -19875.013    23996.444    86.747702 
   42300    1791.8402   -109.23802    1.6212947   -107.61672   -29912.715    4.4146481    4.4146481    4.4146481   -29912.715   -30747.631      18306.5   -77297.016   -801.77799    49497.156   -34391.389    86.037596 
   42400    1779.0431   -109.21893    1.6097156   -107.60922     15290.42    4.3941999    4.3941999    4.3941999     15290.42    57201.027    33949.611   -45279.378   -7919.3857    35719.346   -6064.8118    84.847573 
   42500    2230.9546   -109.62416    2.0186146   -107.60555    42807.851    4.3833199    4.3833199    4.3833199    42807.851   -5925.3644    83750.431    50598.486   -19578.061   -7796.7621    21265.455    84.218885 
   42600    1329.0973   -108.85178    1.2025951   -107.64918   -20693.595    4.3959742    4.3959742    4.3959742   -20693.595    14492.059   -1653.8533   -74918.989    2743.4534    61334.887   -44489.722    84.950393 
   42700    2516.1287   -109.89661    2.2766461   -107.61996   -9063.4397    4.4222855    4.4222855    4.4222855   -9063.4397   -11667.458   -1593.8317   -13929.029    3878.2719   -23812.992   -23968.074    86.484909 
   42800     1250.079    -108.7447    1.1310978   -107.61361   -1007.8988    4.4177106    4.4177106    4.4177106   -1007.8988   -47384.851    46714.143   -2352.9876   -37198.453    43242.076    11324.027     86.21678 
   42900     2006.439   -109.40115    1.8154682   -107.58569   -22876.378    4.4078027    4.4078027    4.4078027   -22876.378    24526.669    -44715.14   -48440.662    -1289.596   -8499.8466    -63448.06    85.637988 
   43000    1991.1494   -109.38199    1.8016339   -107.58036   -912.19224    4.4047763    4.4047763    4.4047763   -912.19224   -46216.016    60396.906   -16917.467      6940.53    40979.505    14430.438    85.461706 
   43100    1635.2281   -109.07677    1.4795888   -107.59718   -5883.2705    4.3952302    4.3952302    4.3952302   -5883.2705   -11454.775   -1556.3668   -4638.6695   -16412.595    32786.346   -37625.175    84.907268 
   43200    1925.5002   -109.35726    1.7422331   -107.61503   -3052.8292    4.4015137    4.4015137    4.4015137   -3052.8292    22232.337   -32104.321    713.49597   -46.855899   -25257.186    -20982.51    85.271943 
   43300    1980.4196   -109.38918    1.7919253   -107.59725    2525.6102    4.4174429    4.4174429    4.4174429    2525.6102   -43351.375    58915.372   -7987.1663    11247.007    35699.496    -1319.481    86.201107 
   43400     1794.209    -109.2022     1.623438   -107.57876    -25109.25    4.4248297    4.4248297    4.4248297    -25109.25   -171.77088   -41562.123   -33593.855   -11891.023   -4824.0618   -57137.618    86.634261 
   43500    2649.7113   -109.95793    2.3975145   -107.56041   -944.11031    4.4118967    4.4118967    4.4118967   -944.11031   -19927.801    23080.905   -5985.4345    27578.875   -7768.5131      32893.2    85.876832 
   43600    1756.7088   -109.17273     1.589507   -107.58322    3296.7174    4.3920007    4.3920007    4.3920007    3296.7174    23523.525    14881.249   -28514.622    2473.4571    18586.314   -81381.506    84.720244 
   43700    2425.3773   -109.79755    2.1945324   -107.60302     6540.485    4.3914375    4.3914375    4.3914375     6540.485   -31478.702    37098.515    14001.642    3857.0443   -7836.8027    11524.693    84.687658 
   43800    2029.7603   -109.45016    1.8365698   -107.61359   -10657.665    4.4122761    4.4122761    4.4122761   -10657.665   -3842.9163    20772.098   -48902.176     1175.252   -21333.664   -43920.799    85.898989 
   43900    1887.2867   -109.31525    1.7076567    -107.6076   -31235.034    4.4217296    4.4217296    4.4217296   -31235.034   -47099.908    13376.279   -59981.471    11914.261    37643.518   -19951.306    86.452298 
   44000    2273.1624   -109.64144    2.0568051   -107.58464   -34569.107    4.4203661    4.4203661    4.4203661   -34569.107   -53703.905   -3650.0208   -46353.396     8003.359   -13471.392   -4685.7275    86.372349 
   44100    1711.4031    -109.1209    1.5485135   -107.57239    -27006.74    4.4131505    4.4131505    4.4131505    -27006.74    3978.0586    -7742.854   -77255.426    12020.293    4776.4822   -63346.146    85.950064 
   44200    2248.3256   -109.60894    2.0343323   -107.57461    18517.555    4.4047608    4.4047608    4.4047608    18517.555    10012.477     68058.49   -22518.301    6641.9854    38655.528    18723.383    85.460808 
   44300    1854.1253    -109.2625    1.6776516   -107.58485    -8646.082    4.4054177    4.4054177    4.4054177    -8646.082    36730.113   -22520.849    -40147.51   -11735.527   -13564.267   -70014.707    85.499046 
   44400    1955.6825   -109.34934    1.7695427    -107.5798      16592.4    4.4065704    4.4065704    4.4065704      16592.4    287.93514    89866.716   -40377.452    7891.1784    38780.691    27510.815    85.566177 
   44500    1759.4145    -109.1818    1.5919552   -107.58985    10458.618    4.4162041    4.4162041    4.4162041    10458.618     59439.58    8588.8983   -36652.622   -4121.6553   -2482.1351   -40842.645    86.128606 
   44600    2065.5714   -109.44157    1.8689724    -107.5726    18683.308    4.4110066    4.4110066    4.4110066    18683.308   -78.167026    71819.386   -15691.296    1326.0809     13527.58    -11548.78    85.824864 
   44700    1496.1075   -108.94532    1.3537095   -107.59161   -13558.801    4.3997368    4.3997368    4.3997368   -13558.801    11148.037    657.67227   -52482.112    12927.109    24935.937    41041.081    85.168714 
   44800    2801.1364   -110.11153    2.5345271     -107.577    35499.271    4.3987551    4.3987551    4.3987551    35499.271    79001.982    30662.501   -3166.6693   -19066.156    2688.1916   -35490.533    85.111715 
   44900    770.78771   -108.31898   0.69742492   -107.62156   -23876.312    4.4155252    4.4155252    4.4155252   -23876.312    2491.9117    24765.836   -98886.682    2455.4958    31816.327    55181.201     86.08889 
   45000    2486.0173   -109.82585    2.2494007   -107.57645     3105.291    4.4206876    4.4206876    4.4206876     3105.291     19519.97    19432.123    -29636.22    192.62516   -9703.0244   -17990.492    86.391192 
   45100    1657.3942   -109.07539    1.4996451   -107.57574   -13669.185    4.4190382    4.4190382    4.4190382   -13669.185   -5233.7938    10820.992   -46594.753   -23957.869    22335.379    24926.309    86.294528 
   45200    1480.8301   -108.93031    1.3398862   -107.59043   -10046.353     4.417337     4.417337     4.417337   -10046.353    1438.9124    18683.937   -50261.909   -649.95795   -5365.2559    39393.561    86.194905 
   45300    2064.3645   -109.43884    1.8678804   -107.57095     39940.24    4.4044503    4.4044503    4.4044503     39940.24    4575.4379    108955.09    6290.1965   -4018.1524   -3099.3831   -55725.788    85.442737 
   45400    1425.4966   -108.90457    1.2898193   -107.61475   -30004.949    4.4037806    4.4037806    4.4037806   -30004.949   -9869.8973   -35530.333   -44614.615   -26549.566    22223.402    71678.237    85.403768 
   45500    2475.8383   -109.84161    2.2401905   -107.60142    1413.1165    4.4132114    4.4132114    4.4132114    1413.1165   -507.70999    337.51124    4409.5481   -484.10803   -12856.664   -1.6041618    85.953621 
   45600    1890.6936   -109.32414    1.7107393    -107.6134   -10467.277    4.4099142    4.4099142    4.4099142   -10467.277   -5938.3282    -14934.46   -10529.043   -24857.671    27511.138    11668.906    85.761117 
   45700    1302.3585   -108.80272    1.1784013   -107.62432    27664.097    4.4156537    4.4156537    4.4156537    27664.097     24604.98    91855.053   -33467.743   -25004.358   -4271.8193    47742.587    86.096405 
   45800    2281.8339   -109.64103    2.0646513   -107.57638   -5986.1493    4.4244749    4.4244749    4.4244749   -5986.1493   -17575.962     16351.56   -16734.046    7724.4503    15727.053    6300.5299    86.613423 
   45900    1285.2882   -108.75783    1.1629558   -107.59487   -43020.739    4.4124285    4.4124285    4.4124285   -43020.739   -38868.398   -37669.275   -52524.543   -26565.461     32592.88    48884.734    85.907888 
   46000    2401.9049   -109.75408    2.1732941   -107.58079    18689.344     4.381992     4.381992     4.381992    18689.344    6078.9489    23819.088    26169.994    1148.1285   -36248.505   -13119.427    84.142369 
   46100    1760.4067   -109.20764     1.592853   -107.61479    40166.079    4.3765738    4.3765738    4.3765738    40166.079    38071.536    37637.695    44789.004    3945.3677    34311.016    34143.748    83.830635 
   46200    1599.3466   -109.09432    1.4471224   -107.64719   -1760.7004    4.4085709    4.4085709    4.4085709   -1760.7004    -22117.78    11845.587    4990.0914   -29666.906     34971.87    21536.799    85.682768 
   46300    2726.6732   -110.05128    2.4671512   -107.58412   -25391.301    4.4313095    4.4313095    4.4313095   -25391.301   -30481.299   -9944.4059   -35748.198     11988.51   -16741.352   -7712.3731    87.015427 
   46400    675.63998   -108.19095   0.61133325   -107.57962    -22374.46    4.4331058    4.4331058    4.4331058    -22374.46   -7404.7483   -23251.111   -36467.522   -10062.569    45876.331    36633.613    87.121286 
   46500    2926.1536    -110.2016    2.6476452   -107.55395   -20200.876     4.411278     4.411278     4.411278   -20200.876   -26148.991   -25841.988    -8611.649    -18642.57   -12933.968   -30650.048    85.840706 
   46600     1910.072   -109.31774    1.7282733   -107.58947    27258.186    4.3620778    4.3620778    4.3620778    27258.186    62536.897    9998.7412    9238.9201    17719.073    20007.584    57481.842    83.000404 
   46700    1481.2229   -108.96898    1.3402416   -107.62874    17959.717    4.3571018    4.3571018    4.3571018    17959.717    23466.972   -2494.0571    32906.237   -23375.322    45456.321    11729.403    82.716687 
   46800    2725.7793   -110.10898    2.4663424   -107.64264   -3727.9689    4.4001067    4.4001067    4.4001067   -3727.9689   -16655.103   -13397.042    18868.239    -3530.503   -27781.205   -27477.386    85.190198 
   46900    1133.9905   -108.65332    1.0260585   -107.62726   -12208.644    4.4272635    4.4272635    4.4272635   -12208.644   -10860.354   -30668.064    4902.4863    6638.2876    52431.921     37602.66    86.777298 
   47000    1957.8881   -109.36928    1.7715383   -107.59774    681.34797    4.4138096    4.4138096    4.4138096    681.34797    955.23181   -42782.349    43871.161   -9242.8349    1146.1569    -5361.205     85.98858 
   47100    2369.6797   -109.73326     2.144136   -107.58912    20457.677    4.3785908    4.3785908    4.3785908    20457.677   -27772.837    20441.444    68704.425    6166.4263    20106.358    11177.343    83.946594 
   47200    1753.8376   -109.20141    1.5869091   -107.61451    21806.312    4.3659789    4.3659789    4.3659789    21806.312    32567.048    24878.705    7973.1812   -6221.1311    37973.853    31870.068    83.223293 
   47300    1509.1079    -109.0152    1.3654725   -107.64972   -14150.455    4.3858805    4.3858805    4.3858805   -14150.455     -68487.5   -31491.837    57527.973    -12175.39   -48140.149   -4020.1545    84.366568 
   47400    2335.5456   -109.75753    2.1132508   -107.64428    1139.2548    4.4005872    4.4005872    4.4005872    1139.2548   -53643.677    4179.9791    52881.463    31824.954   -1779.3397    23788.539     85.21811 
   47500    2206.6674   -109.63554     1.996639    -107.6389   -2799.8294    4.3994256    4.3994256    4.3994256   -2799.8294   -33829.043   -393.39328    25822.948   -35995.719   -2765.3192    5158.6877    85.150642 
   47600    1418.2429   -108.92735     1.283256   -107.64409   -16694.071    4.3864877    4.3864877    4.3864877   -16694.071   -82306.538    1634.1251    30590.199    24089.006   -51060.287   -5947.4336    84.401612 
   47700    2225.4361    -109.6426    2.0136213   -107.62898    14037.408    4.3694759    4.3694759    4.3694759    14037.408   -7804.7389    24460.414    25456.549    10202.513    25605.773    3496.0194     83.42343 
   47800    1697.4621   -109.18944    1.5358994   -107.65354    4077.2466    4.3810792    4.3810792    4.3810792    4077.2466   -35389.083    16341.618    31279.205   -15873.757    10354.594    14258.605    84.089799 
   47900    2402.5637   -109.80399    2.1738901    -107.6301   -6712.1345    4.4018492    4.4018492    4.4018492   -6712.1345   -62734.715   -15303.161    57901.473     10924.96   -12034.151   -20126.761    85.291448 
   48000    1362.4114   -108.85628    1.2327385   -107.62355    -28475.59    4.4089264    4.4089264    4.4089264    -28475.59   -16144.053   -31046.422   -38236.294   -2179.2674    41666.206    22173.074    85.703496 
   48100    2122.6637   -109.52065    1.9206307   -107.60002   -23910.622    4.4006269    4.4006269    4.4006269   -23910.622   -39472.688   -54308.591    22049.414   -18013.043   -29268.941    10270.683    85.220414 
   48200    2066.8957   -109.44888    1.8701707   -107.57871   -8558.7689    4.3950061    4.3950061    4.3950061   -8558.7689    4087.0458    -5819.006   -23944.346    11499.162    359.55365    4629.0305    84.894284 
   48300    1460.2616   -108.90728    1.3212754   -107.58601    340.38807    4.3988734    4.3988734    4.3988734    340.38807    27475.551   -55142.842    28688.455    -31341.77    14420.696    22569.576    85.118587 
   48400    2145.0617   -109.52646    1.9408969   -107.58557   -9345.4122    4.4083914    4.4083914    4.4083914   -9345.4122   -39774.186   -18571.347    30309.296   -10360.996   -60992.261   -8935.5471      85.6723 
   48500    1877.9764   -109.29606    1.6992325   -107.59683    2759.7004    4.3999812    4.3999812    4.3999812    2759.7004    11583.472   -54121.177    50816.806   -2337.5715    1199.1672    16916.645    85.182907 
   48600    1353.0573   -108.83774    1.2242746   -107.61347   -17588.982    4.3893177    4.3893177    4.3893177   -17588.982   -45485.023   -19191.518    11909.596   -41079.306   -32538.256    8749.2726    84.565077 
   48700    2245.2263   -109.64977    2.0315279   -107.61824   -748.94683     4.388093     4.388093     4.388093   -748.94683   -37134.684    38834.665   -3946.8216     12617.91   -68178.345    -1891.497    84.494309 
   48800    2669.0564   -110.03488    2.4150184   -107.61987    3475.2989    4.3962449    4.3962449    4.3962449    3475.2989    -9119.856   -41692.864    61238.617   -30400.931    28219.946    5023.3156    84.966092 
   48900    661.28641    -108.2452   0.59834584   -107.64685   -29326.642    4.4077131    4.4077131    4.4077131   -29326.642   -71003.105   -4143.7934   -12833.027   -1798.0535   -87123.592    10926.755     85.63276 
   49000    2623.9203   -109.98943    2.3741783   -107.61525    5276.8624    4.3973405    4.3973405    4.3973405    5276.8624    13933.067   -29812.956    31710.475    3397.7894    21074.693   -8236.7123     85.02963 
   49100    1487.2529    -108.9789    1.3456977    -107.6332   -16075.145    4.3897303    4.3897303    4.3897303   -16075.145   -67550.358    27455.824   -8130.9022   -17038.942   -69890.229   -1870.5482    84.588926 
   49200    1974.2178   -109.41153    1.7863138   -107.62521   -4377.4214    4.3982415    4.3982415    4.3982415   -4377.4214   -23636.413   -11063.669    21567.817    15991.472   -26378.008    17555.647    85.081909 
   49300    2002.2086   -109.42248    1.8116404   -107.61084   -19737.271     4.416168     4.416168     4.416168   -19737.271   -24191.414   -41584.741    6564.3421   -1867.7741   -24554.575   -17038.838     86.12649 
   49400    1696.9104   -109.13598    1.5354002   -107.60058   -42426.018    4.4157095    4.4157095    4.4157095   -42426.018   -78378.107   -15531.515   -33368.433   -6240.3686   -61434.821    5219.2345     86.09967 
   49500    1989.6537   -109.36934    1.8002805   -107.56906   -10712.978    4.3958259    4.3958259    4.3958259   -10712.978   -1884.5467   -54392.731    24138.344    28018.942    6172.8866    36116.335    84.941801 
   49600    1582.1832   -109.01635    1.4315926   -107.58476   -24847.399    4.3958308    4.3958308    4.3958308   -24847.399   -33131.079    28185.502   -69596.622   -1900.6184   -87356.374   -4258.6976    84.942084 
   49700    2681.7137   -110.00327    2.4264709    -107.5768    4903.6928    4.4078177    4.4078177    4.4078177    4903.6928   -3472.4603   -14022.219    32205.757     1002.363    35351.762    15420.938    85.638858 
   49800    1015.2347   -108.51626    0.9186057   -107.59766   -42385.052    4.4285466    4.4285466    4.4285466   -42385.052   -38249.948   -23419.136   -65486.073    13414.525   -74222.272    22063.543    86.852767 
   49900    2574.3948   -109.88574    2.3293665   -107.55637    7976.3518     4.416629     4.416629     4.416629    7976.3518   -6600.0007   -8675.5253    39204.581   -16179.613    34647.136   -20.940927    86.153468 
   50000    1109.4495    -108.5742    1.0038533   -107.57035   -4562.2056    4.4009552    4.4009552    4.4009552   -4562.2056   -50851.793     69862.98   -32697.803    12314.196    -56983.04    17487.145    85.239489 
   50100    2516.9226   -109.83281    2.2773645   -107.55545   -278.87162    4.4073618    4.4073618    4.4073618   -278.87162   -7544.8386    6365.6891    342.53466   -28591.169    -18025.42    11883.099    85.612289 
   50200    1828.7009   -109.23791     1.654647   -107.58326   -15585.431     4.408927     4.408927     4.408927   -15585.431   -41342.202     35169.98   -40584.071   -45.453601   -5013.1069   -17993.645    85.703533 
   50300    1949.6944   -109.35111    1.7641245   -107.58699   -24093.851      4.40583      4.40583      4.40583   -24093.851   -37005.593    3005.9094    -38281.87   -1524.4646   -46730.993    19978.565    85.523058 
   50400    1969.1849   -109.36768    1.7817599   -107.58592    23991.428    4.3934493    4.3934493    4.3934493    23991.428    2589.7488    35386.655     33997.88   -30560.175    18088.204   -5438.9252    84.804099 
   50500    1821.1117   -109.24258    1.6477801    -107.5948   -6433.8462    4.4046802    4.4046802    4.4046802   -6433.8462   -51731.655    46111.643   -13681.526    19013.041    -47097.35   -1926.6526    85.456115 
   50600    1639.7247   -109.08303    1.4836573   -107.59938   -4242.4533    4.4062264    4.4062264    4.4062264   -4242.4533   -56989.447   -59052.269    103314.36   -59824.172    2088.7609     6555.788    85.546144 
   50700    2437.9305   -109.79075    2.2058907   -107.58486    10767.502    4.4001803    4.4001803    4.4001803    10767.502    17775.668    14014.034    512.80521    17997.092   -21767.452     1945.868    85.194474 
   50800    1223.8801   -108.70571    1.1073924   -107.59832   -26763.286    4.4163089    4.4163089    4.4163089   -26763.286   -71695.181   -59283.302    50688.625    -55876.05   -11504.339   -4260.6367    86.134736 
   50900    1939.7597   -109.32621    1.7551353   -107.57108    -6735.581    4.4140386    4.4140386    4.4140386    -6735.581   -10545.753   -49583.238    39922.248   -6646.0476    30244.231     11412.22    86.001964 
   51000    2092.2001    -109.4609    1.8930666   -107.56783    29272.332    4.3947819    4.3947819    4.3947819    29272.332    24590.133    30144.559    33082.303   -23140.171    -19323.01   -8377.0423    84.881293 
   51100    1719.9228    -109.1449    1.5562223   -107.58868   -22128.288    4.3990577    4.3990577    4.3990577   -22128.288   -55412.649   -30489.119    19516.904   -50299.753   -7543.5231    7885.1796    85.129282 
   51200    2119.3064   -109.50157    1.9175929   -107.58397    31930.454    4.3950351    4.3950351    4.3950351    31930.454    7109.2298    23831.787    64850.346    27759.949     38463.44    17955.471    84.895963 
   51300    1514.5389   -108.98088    1.3703867   -107.61049   -3816.4123    4.4034092    4.4034092    4.4034092   -3816.4123   -12114.001   -56208.749    56873.513   -66965.344   -19673.134   -12611.637     85.38216 
   51400    2496.3329   -109.84947    2.2587345   -107.59073   -9599.3013    4.4081343    4.4081343    4.4081343   -9599.3013   -19500.164    19848.205   -29145.945    9136.4049    146.46952    26385.035    85.657317 
   51500    1477.5485   -108.94117     1.336917   -107.60426    15200.831     4.394972     4.394972     4.394972    15200.831    2816.8544   -22402.607    65188.247   -53511.411     16519.05    15983.018     84.89231 
   51600       1987.5   -109.41103    1.7983318    -107.6127     -2245.53    4.3977519    4.3977519    4.3977519     -2245.53   -31836.215    2243.6064    22856.018   -12324.141   -23087.543   -5312.9871    85.053496 
   51700    2006.2101   -109.42491     1.815261   -107.60965    42101.081    4.3996387    4.3996387    4.3996387    42101.081    54563.805    71266.488    472.94953   -11395.685    3346.2323    24522.505    85.163018 
   51800    1623.5863   -109.08505     1.469055   -107.61599    4072.1174    4.4200786    4.4200786    4.4200786    4072.1174   -9920.2773   -28719.764    50856.394   -62552.521    3508.6367   -1025.1125    86.355494 
   51900    2330.4383   -109.66748    2.1086296   -107.55885   -31224.131    4.4372469    4.4372469    4.4372469   -31224.131   -16616.256   -50034.229   -27021.907    24766.305   -31453.688   -12159.561    87.365665 
   52000    1608.3586   -108.98315    1.4552766   -107.52787   -11582.433    4.4210598    4.4210598    4.4210598   -11582.433   -1039.7622   -83486.601    49779.065   -58413.677    19107.403    9894.6419    86.413014 
   52100    2746.9072   -109.99415    2.4854594   -107.50869    19349.863    4.4050309    4.4050309    4.4050309    19349.863    23922.028    1996.0727    32131.488    8107.3884   -11529.246   -3026.0988    85.476527 
   52200    1251.0369   -108.69108    1.1319645   -107.55912   -4731.9703     4.398304     4.398304     4.398304   -4731.9703   -57188.269    -58226.04     101218.4   -95581.137   -11472.279    13548.508    85.085534 
   52300    1989.2968   -109.36978    1.7999576   -107.56983    9562.6937    4.4011769    4.4011769    4.4011769    9562.6937    36705.337    932.46628   -8949.7225    24101.661    41964.641    19681.354     85.25237 
   52400    1931.7102   -109.33848     1.747852   -107.59063   -14118.878    4.4146955    4.4146955    4.4146955   -14118.878   -8587.7917   -66382.185    32613.342   -40701.758   -9025.5809   -16619.623    86.040366 
   52500     1409.181   -108.86602    1.2750566   -107.59096    10843.106    4.4105078    4.4105078    4.4105078    10843.106    24067.522   -20183.231    28645.027   -8673.5701   -1600.2134    35105.005    85.795752 
   52600    1958.2396   -109.36333    1.7718564   -107.59147    7927.7698    4.3974612    4.3974612    4.3974612    7927.7698   -29547.888    15422.814    37908.383    9152.0962    39225.708    8723.6675    85.036633 
   52700    2303.5618   -109.67755    2.0843111   -107.59324   -4003.4965    4.4016989    4.4016989    4.4016989   -4003.4965   -17633.196   -18766.698    24389.404   -39353.424    -42951.82   -1638.3541    85.282707 
   52800    1106.9635    -108.6271    1.0016038   -107.62549   -33961.409    4.4028662    4.4028662    4.4028662   -33961.409   -37164.907   -23810.046   -40909.276    29522.817   -20285.624    33414.221    85.350579 
   52900    2299.4993   -109.70522    2.0806353   -107.62458   -5149.2717    4.3891961    4.3891961    4.3891961   -5149.2717    19039.778   -13046.374   -21441.219      17927.9    49116.792   -7524.6717    84.558048 
   53000    1979.6795   -109.41608    1.7912556   -107.62483   -4677.5929    4.3899085    4.3899085    4.3899085   -4677.5929     41366.59   -2785.5174   -52613.851   -14950.792   -71400.508    11625.159    84.599227 
   53100    1475.2006   -108.96618    1.3347925   -107.63138   -26553.464    4.4027679    4.4027679    4.4027679   -26553.464   -24266.102   -30556.114   -24838.176    33547.631    52503.857    28932.284     85.34486 
   53200    2133.5081   -109.54357     1.930443   -107.61312    5519.7042    4.4036705    4.4036705    4.4036705    5519.7042    20540.812    -9474.402    5492.7023   -7232.9016    13523.712   -11194.141    85.397361 
   53300    2125.4025   -109.52912    1.9231089   -107.60601   -1756.0889     4.406421     4.406421     4.406421   -1756.0889    11165.152   -30792.329    14358.911   -5330.0881    -26377.01    28034.298    85.557475 
   53400    1638.9156   -109.09737    1.4829253   -107.61445    5673.9398     4.399979     4.399979     4.399979    5673.9398    27411.786   -40440.742    30050.775    14890.142    39466.391    4736.8256    85.182782 
   53500    1786.8371   -109.24166    1.6167678   -107.62489    12882.804    4.3898021    4.3898021    4.3898021    12882.804    41633.958   -53254.184    50268.637   -24620.614   -15173.977   -1207.6237    84.593079 
   53600    1929.7008   -109.37798    1.7460338   -107.63195    34412.122    4.3839176    4.3839176    4.3839176    34412.122     141146.9   -28431.049   -9479.4886   -4594.6705     8731.879    37753.544    84.253344 
   53700    2242.5813   -109.67594    2.0291347    -107.6468   -567.50612    4.3957563    4.3957563    4.3957563   -567.50612   -25245.613   -5481.8707    29024.965   -12779.746    22998.304   -12915.224    84.937765 
   53800    1182.4038   -108.71398    1.0698638   -107.64411   -7410.7146    4.4084616    4.4084616    4.4084616   -7410.7146    48459.834   -67784.979   -2906.9985   -14971.557   -7667.2611    35529.494    85.676396 
   53900    1938.8108   -109.38193    1.7542767   -107.62766   -18853.202    4.3956433    4.3956433    4.3956433   -18853.202    24317.436   -56216.765   -24660.275    13568.264    6888.6953   -16503.212    84.931212 
   54000    2242.1462   -109.65983     2.028741   -107.63108    4847.4138    4.3843679    4.3843679    4.3843679    4847.4138    11738.859    539.03385    2264.3489   -3481.4197    40395.647    5149.9054     84.27931 
   54100    1874.4967   -109.34002     1.696084   -107.64394    26618.285    4.3800291    4.3800291    4.3800291    26618.285    73166.368   -20003.679    26692.167   -8208.8596   -11192.152    23657.519    84.029349 
   54200    1591.6269   -109.09956    1.4401375   -107.65943   -3641.7554     4.400841     4.400841     4.400841   -3641.7554     23908.16   -65945.062    31111.636     24204.05    28418.812   -35337.938    85.232855 
   54300    2576.8895   -109.95185    2.3316237   -107.62022   -4186.1124     4.411484     4.411484     4.411484   -4186.1124    -6817.694   -36512.116    30771.473     11007.35   -2700.0331     11721.58    85.852733 
   54400    1786.4442   -109.24899    1.6164123   -107.63257    46247.359     4.383537     4.383537     4.383537    46247.359    99481.846   -52093.754    91353.984   -3000.2416   -12977.808   -31098.971    84.231399 
   54500    1277.2458   -108.80548    1.1556788   -107.64981   -12260.172    4.3788128    4.3788128    4.3788128   -12260.172   -30860.036   -88765.475    82844.995    46178.659     16276.02   -1052.7561    83.959362 
   54600      2358.93   -109.77996    2.1344095   -107.64555    22873.722    4.3888446    4.3888446    4.3888446    22873.722     8024.649   -24745.443    85341.961   -23352.612   -15176.527    16378.503    84.537737 
   54700    2448.4264    -109.8702    2.2153877   -107.65482   -10716.797    4.4049493    4.4049493    4.4049493   -10716.797     9974.378   -56596.353    14471.583    37959.049     9301.286   -4795.8387    85.471778 
   54800    795.28634   -108.39392   0.71959179   -107.67433   -38437.321    4.4055315    4.4055315    4.4055315   -38437.321   -54847.523   -103046.99    42582.547   -5318.7706   -3892.2197    12802.696    85.505675 
   54900    2278.5418   -109.70161    2.0616725   -107.63993     6445.924    4.3806221    4.3806221    4.3806221     6445.924    43046.637   -31726.083    8017.2178   -24561.468     13741.07    29148.393    84.063483 
   55000    2498.8728   -109.89971    2.2610326   -107.63868    20582.533     4.382335     4.382335     4.382335    20582.533     21005.49   -30153.964    70896.074    7723.9945   -1003.1065   -9075.0422    84.162131 
   55100    1479.2099   -108.99528    1.3384202   -107.65686   -7529.0442    4.3906042    4.3906042    4.3906042   -7529.0442   -7121.1956   -63010.579    47544.642   -48234.901    12870.669    35684.836    84.639456 
   55200    1687.5934   -109.17352    1.5269699   -107.64655    15807.477    4.4000337    4.4000337    4.4000337    15807.477    69384.596   -69996.259    48034.095    13978.178   -6163.8054    -27424.82     85.18596 
   55300    2656.7289   -110.02185    2.4038641   -107.61799   -28894.579    4.4120585    4.4120585    4.4120585   -28894.579   -46714.561   -48544.441    8575.2636   -7244.9372    1442.9714    -5179.044    85.886279 
   55400    1803.2074   -109.25587    1.6315799   -107.62429    12644.637    4.3869874    4.3869874    4.3869874    12644.637    39278.382   -58516.341    57171.872   -12878.627     7215.615   -10806.684     84.43046 
   55500     919.9657    -108.4804   0.83240429   -107.64799     18055.19    4.3736451    4.3736451    4.3736451     18055.19    105710.29   -78784.049     27239.33    20590.571   -6092.6157   -39851.089    83.662456 
   55600    2944.4393   -110.30131    2.6641906   -107.63712    8850.6697    4.3878787    4.3878787    4.3878787    8850.6697    4489.8787   -29155.957    51218.088    17385.119     11411.62    9288.2466    84.481931 
   55700    1694.7385   -109.18476     1.533435   -107.65133   -13041.197    4.4109953    4.4109953    4.4109953   -13041.197    59067.783    -94976.14   -3215.2347   -18.918259   -7341.8964   -40166.467    85.824203 
   55800    1405.1797   -108.90015    1.2714361   -107.62871   -33306.267    4.4202117    4.4202117    4.4202117   -33306.267   -23541.647    -87572.54    11195.384    24375.044   -18375.224    27212.236    86.363297 
   55900       2426.8   -109.80467    2.1958197   -107.60885    -7163.664    4.3890182    4.3890182    4.3890182    -7163.664   -45199.773   -38932.533    62641.315   -33837.476   -24801.842   -13964.186    84.547769 
   56000    2055.4752    -109.4684    1.8598372   -107.60856    10969.795    4.3659041    4.3659041    4.3659041    10969.795    76168.016   -57185.966    13927.334     15146.13    13947.033    30174.139    83.219015 
   56100    1351.1553    -108.8739    1.2225537   -107.65134    -21136.99    4.3874895    4.3874895    4.3874895    -21136.99   -24111.623   -61634.001    22334.655   -29140.818    -12955.71    7987.7424    84.459455 
   56200    2257.9254    -109.6896    2.0430184   -107.64658   -20262.847    4.4044128    4.4044128    4.4044128   -20262.847   -41676.757   -47575.541    28463.757   -30319.951   -21053.453   -2309.7139    85.440551 
   56300    2448.4615   -109.84793    2.2154194   -107.63251   -15744.525    4.4118516    4.4118516    4.4118516   -15744.525    37342.941   -52962.421   -31614.093    3237.4528    14371.104    28958.105    85.874195 
   56400     679.2508   -108.27011    0.6146004   -107.65551   -24712.157    4.3989827    4.3989827    4.3989827   -24712.157   -32286.502   -40316.182   -1533.7869   -42614.907   -36890.504   -4350.9479    85.124928 
   56500    2738.1108   -110.08702    2.4775002   -107.60952    39213.838    4.3837097    4.3837097    4.3837097    39213.838    19656.912     23361.17    74623.432    19389.183   -2933.8731   -3480.4783    84.241355 
   56600    1931.7351   -109.36792    1.7478745   -107.62005   -40047.767    4.4151635    4.4151635    4.4151635   -40047.767   -66170.264   -46793.479    -7179.559    -45273.05   -14184.026    162.51696    86.067733 
   56700    1238.9052   -108.72845    1.1209874   -107.60746   -41247.282    4.4233909    4.4233909    4.4233909   -41247.282   -61979.493   -30649.808   -31112.544   -14655.072   -35121.898   -5946.7282     86.54978 
   56800    2255.0932   -109.63697    2.0404558   -107.59651    18285.846    4.3952643    4.3952643    4.3952643    18285.846    16529.084    -36836.91    75165.363    5247.9115    3618.0696    16320.559    84.909249 
   56900    2276.7978   -109.67554    2.0600945   -107.61544     11017.42    4.3704785    4.3704785    4.3704785     11017.42    -54948.34   -24698.791    112699.39   -57297.127   -18962.017   -4964.6345     83.48087 
   57000    1710.2315   -109.19538    1.5474534   -107.64792     12832.37    4.3752343    4.3752343    4.3752343     12832.37    5958.9348    3642.5593    28895.616    23334.852   -20478.512   -28609.714    83.753688 
   57100    1302.5536   -108.84776    1.1785779   -107.66918   -22803.167    4.4018096    4.4018096    4.4018096   -22803.167   -1290.0444   -68552.043    1432.5858   -38124.364    10283.837    32128.402    85.289145 
   57200    2768.5364    -110.1285    2.5050299   -107.62347   -22581.029    4.4169712    4.4169712    4.4169712   -22581.029   -52676.439   -34222.425    19155.777   -8855.5738   -5880.9704   -14407.864    86.173492 
   57300    1309.8933   -108.81306     1.185219   -107.62784   -16040.395    4.4109867    4.4109867    4.4109867   -16040.395   -9041.5859   -52336.047     13256.45    24541.975   -6004.5809    16290.912    85.823703 
   57400    1749.2452   -109.20447    1.5827538   -107.62172    3518.1541    4.3782428    4.3782428    4.3782428    3518.1541    34665.521   -22921.441   -1189.6184   -18900.123    23370.217    33621.187    83.926581 
   57500    2111.1469   -109.53645    1.9102101   -107.62624    36909.768     4.369146     4.369146     4.369146    36909.768   -7218.0146   -11105.907    129053.23    47431.201   -10979.183   -4055.4701    83.404534 
   57600    2429.4852   -109.84056    2.1982492   -107.64231   -2311.7574    4.3921311    4.3921311    4.3921311   -2311.7574    12721.465   -49584.362    29927.625   -6114.2511   -2572.4805    38163.883    84.727793 
   57700    1108.3948    -108.6583    1.0028989    -107.6554   -24647.483    4.4050946    4.4050946    4.4050946   -24647.483   -14171.425   -42702.623   -17068.399    29411.493    9196.1747   -12284.321    85.480239 
   57800    2176.0259   -109.60561     1.968914   -107.63669   -7001.3529    4.4048052    4.4048052    4.4048052   -7001.3529    7514.1645   -66004.025    37485.802    30754.122   -14247.996    -18349.84     85.46339 
   57900    2288.9082    -109.6791    2.0710523   -107.60805    5842.9876    4.4035408    4.4035408    4.4035408    5842.9876   -10841.849   -15621.069     43991.88   -14233.553    9307.2864    5714.9604    85.389818 
   58000    1038.1378    -108.5562   0.93932886   -107.61687   -41567.574    4.4029682    4.4029682    4.4029682   -41567.574   -64765.127   -67715.991    7778.3955    45834.775    -4649.551   -22728.878    85.356512 
   58100    2668.8124    -110.0104    2.4147975    -107.5956   -6342.4538    4.4018515    4.4018515    4.4018515   -6342.4538    25346.288   -21110.716   -23262.934   -7614.6614    -2832.898   -12587.614    85.291581 
   58200     2214.612   -109.61294    2.0038275   -107.60911   -22402.661    4.3998483    4.3998483    4.3998483   -22402.661   -59438.715    -40398.81    32629.541    40974.763    2696.4316   -3500.5911    85.175189 
   58300    1431.2201   -108.92397     1.294998   -107.62897    519.84644    4.3832867    4.3832867    4.3832867    519.84644     5598.851     -39841.9    35802.588     19324.08   -5706.1647   -10797.884    84.216971 
   58400    1936.4438   -109.39993     1.752135    -107.6478    1496.2856    4.3817778    4.3817778    4.3817778    1496.2856    49445.165    -64411.05    19454.742   -4545.1114    6159.7973    23396.957    84.130031 
   58500    2657.8291   -110.03654    2.4048596   -107.63168   -5819.7733    4.3984698    4.3984698    4.3984698   -5819.7733   -51294.166   -23751.012    57585.858    29930.912   -3829.9308    -9811.691    85.095158 
   58600    892.30625   -108.44135   0.80737745   -107.63397   -11966.284    4.4054721    4.4054721    4.4054721   -11966.284    44439.787   -91463.258    11124.619   -17287.806   -2003.5197    24483.952    85.502218 
   58700    1904.0435   -109.34389    1.7228186   -107.62107    -9801.027    4.4018384    4.4018384    4.4018384    -9801.027    45001.766   -70228.598   -4176.2487    1032.4015    423.74575   -19929.525    85.290819 
   58800    2850.2387   -110.18493    2.5789559   -107.60598    26714.756     4.388304     4.388304     4.388304    26714.756    2932.8895     3974.669    73236.709    3962.9381    169.65383    16701.295      84.5065 
   58900    1043.4783   -108.60433   0.94416108   -107.66017   -35394.351    4.3798821    4.3798821    4.3798821   -35394.351    48586.282   -109337.89   -45431.448   -28599.375   -3609.3965    5467.1393    84.020886 
   59000    1536.6139   -109.06047    1.3903606   -107.67011    10168.439    4.3815798    4.3815798    4.3815798    10168.439    2194.9304   -26125.794     54436.18    7072.3512    7069.5692   -27214.448    84.118628 
   59100    2598.9107   -110.01076     2.351549   -107.65921    5105.7204    4.3913087    4.3913087    4.3913087    5105.7204   -38039.907   -5122.2709     58479.34    25015.708    10216.068    12984.191    84.680205 
   59200    2103.9003    -109.5656    1.9036532   -107.66195   -12929.162    4.3974492    4.3974492    4.3974492   -12929.162    32560.052   -46219.292   -25128.248   -20731.745   -7413.0021    -11376.19    85.035935 
   59300    907.70802    -108.4935   0.82131329   -107.67218    -11753.41     4.387331     4.387331     4.387331    -11753.41   -14487.594   -57125.098    36352.462    45238.203    13880.608     360.3697      84.4503 
   59400    2460.1594   -109.88692    2.2260039   -107.66092    24290.006    4.3843562    4.3843562    4.3843562    24290.006    8961.2072    18062.666    45846.144    15738.122   -5224.0049    9429.8445    84.278635 
   59500    2955.0628    -110.3282    2.6738029    -107.6544    2876.4931    4.3960679    4.3960679    4.3960679    2876.4931    6119.2711   -15674.947    18185.155    1927.2394   -4235.3634   -8669.1863    84.955826 
   59600    627.42733   -108.25425   0.56770943   -107.68654   -14028.823    4.3977173    4.3977173    4.3977173   -14028.823   -21492.366    -48495.59    27901.487    40678.532    11614.877    13110.567    85.051487 
   59700    1949.3481   -109.43154    1.7638112   -107.66773   -5728.6371    4.3974135    4.3974135    4.3974135   -5728.6371    69886.828    -61315.74   -25756.999   -11329.167   -8100.4803    2077.8631    85.033863 
   59800    2676.0936   -110.07216    2.4213857   -107.65077    12740.516    4.3876047    4.3876047    4.3876047    12740.516   -3371.9786    19623.522    21970.004    14397.331    19077.987   -12411.469    84.466106 
   59900    2041.7323   -109.51458    1.8474023   -107.66718   -2177.5673    4.3801398    4.3801398    4.3801398   -2177.5673   -15802.757   -33854.329    43124.384    12754.169    13192.564    18196.635    84.035718 
   60000    601.84664     -108.238   0.54456349   -107.69344   -16343.934    4.3838387    4.3838387    4.3838387   -16343.934    42109.144   -77790.776    -13350.17   -22679.364   -2843.7212   -23335.926    84.248793 
   60100    2518.5411   -109.96215    2.2788289   -107.68332    22035.562    4.3905367    4.3905367    4.3905367    22035.562   -4981.4277    13499.882    57588.232   -3456.8773     6252.465    -6422.645    84.635551 
   60200    2553.8157   -109.99123    2.3107461   -107.68049   -802.49685    4.3968152    4.3968152    4.3968152   -802.49685    46588.408   -45001.165   -3994.7334    14932.485   -2980.2421   -10956.981    84.999164 
   60300    881.32909   -108.47951   0.79744509   -107.68206    7923.4009    4.3944125    4.3944125    4.3944125    7923.4009    116005.83    -40224.37   -52011.255   -6571.6945     4752.396   -4033.1759    84.859891 
   60400    2301.4206   -109.71232    2.0823737   -107.62995   -1629.2323    4.4023855    4.4023855    4.4023855   -1629.2323   -7726.5415   -47094.604    49933.448    39059.564    10801.745    13774.393    85.322624 
   60500    2504.9826   -109.87038    2.2665609   -107.60382   -28943.995    4.4089271    4.4089271    4.4089271   -28943.995   -4531.3214   -59616.694   -22683.971    9806.1077   -2803.0316   -28308.366    85.703541 
   60600     1220.019    -108.7321    1.1038988    -107.6282   -31152.355     4.394576     4.394576     4.394576   -31152.355    10572.914   -57133.022   -46896.958    14750.355    7320.2977    27754.111    84.869362 
   60700    1166.0842   -108.71817    1.0550975   -107.66308    10347.301    4.3777634    4.3777634    4.3777634    10347.301   -12296.483   -28132.774     71471.16    37547.771    14364.178    6570.2738    83.899015 
   60800    3275.4684   -110.61612    2.9637127   -107.65241    22778.349    4.3825234    4.3825234    4.3825234    22778.349    18098.632    30632.073    19604.343   -19547.867   -519.43352   -23441.898    84.172987 
   60900    1660.5517   -109.19188     1.502502   -107.68938   -535.63395    4.3911649    4.3911649    4.3911649   -535.63395   -40118.772   -19229.881     57741.75    41283.631   -598.78437    19126.065    84.671884 
   61000    1207.5295   -108.77527     1.092598   -107.68267    -25756.45    4.4017075    4.4017075    4.4017075    -25756.45   -7189.3102   -54714.076   -15365.965    10071.902    20908.577   -18753.018    85.283208 
   61100    2287.2652   -109.71664    2.0695657   -107.64707    -13519.48     4.397035     4.397035     4.397035    -13519.48    3951.1216   -23992.178   -20517.382     -12057.2   -11803.648   -29599.046    85.011909 
   61200    2191.3731   -109.60977    1.9828004   -107.62697    17508.067     4.387663     4.387663     4.387663    17508.067   -38429.004   -6564.4024    97517.608    33824.694    34915.208   -4094.2478    84.469476 
   61300    897.77018   -108.45144   0.81232132   -107.63912   -7712.1392    4.4016137    4.4016137    4.4016137   -7712.1392    69536.967     -70885.5   -21787.885   -8618.8967     2703.465   -30946.074     85.27776 
   61400    2499.0783    -109.8549    2.2612185   -107.59368   -6499.1874    4.4140764    4.4140764    4.4140764   -6499.1874   -5308.4164   -57383.179    43194.033    4029.3442   -7224.6193    14903.722    86.004177 
   61500     2150.137   -109.53176    1.9454891   -107.58627    -7704.542    4.4113154    4.4113154    4.4113154    -7704.542    651.57368   -72783.864    49018.665     1763.772    8377.0804   -43778.286    85.842889 
   61600    900.43144   -108.42333   0.81472929    -107.6086   -26220.894    4.3984772    4.3984772    4.3984772   -26220.894    57638.777   -94157.627   -42143.831   -26378.699    -3845.222    7796.7171    85.095586 
   61700    2580.2567   -109.92395    2.3346705   -107.58928    2682.9205    4.3848108    4.3848108    4.3848108    2682.9205   -4010.8884   -10606.349    22665.999    4412.9349   -26997.663    21983.678    84.304855 
   61800    2078.5772   -109.48674    1.8807403     -107.606   -22538.616    4.3953843    4.3953843    4.3953843   -22538.616    35329.369   -74857.338   -28087.879   -10575.453   -3572.9146   -43359.542    84.916202 
   61900    1291.2556   -108.78945    1.1683552   -107.62109   -30479.426    4.3987439    4.3987439    4.3987439   -30479.426    15745.218   -61230.358   -45953.139   -12134.406   -10218.261     59158.81    85.111069 
   62000    2212.8062   -109.62766    2.0021935   -107.62547    3515.7891     4.391408     4.391408     4.391408    3515.7891   -39067.517   -25132.015      74746.9    38708.123   -35676.504   -8384.8454     84.68595 
   62100    2810.5623   -110.17246    2.5430558   -107.62941    7562.2234    4.3811191    4.3811191    4.3811191    7562.2234    29221.045   -28203.311    21668.936   -30519.317   -1695.1611    22062.141    84.092099 
   62200    989.26765   -108.55979   0.89511016   -107.66468    1517.7401    4.3763771    4.3763771    4.3763771    1517.7401   -14923.183   -36438.743    55915.147    20807.423   -18071.132    33315.088    83.819333 
   62300    1872.5838   -109.36177    1.6943532   -107.66742     8667.816    4.3875289    4.3875289    4.3875289     8667.816   -4837.4932    1472.7141    29368.227    32113.887    -28169.13   -28397.858    84.461729 
   62400    2564.8431   -109.95264     2.320724   -107.63192   -5464.9585    4.4033363    4.4033363    4.4033363   -5464.9585    5144.8087   -36862.101    15322.417    -16565.42    14185.301    501.57182    85.377918 
   62500    1345.1272   -108.84949    1.2170993   -107.63239   -44359.365    4.4024202    4.4024202    4.4024202   -44359.365   -60160.061   -71508.911   -1409.1216    30606.574   -31487.735    4021.3074    85.324641 
   62600    1631.8321   -109.11713     1.476516   -107.64062   -13535.592    4.3766986    4.3766986    4.3766986   -13535.592     47847.56    -60004.25   -28450.086   -965.85191   -12108.774   -80837.297    83.837809 
   62700    3313.6059   -110.61469    2.9982202   -107.61647    42319.229    4.3674924    4.3674924    4.3674924    42319.229    60024.637    5182.3835    61750.666   -4775.3894    19870.361    25533.453    83.309872 
   62800    1433.2243   -108.96808    1.2968114   -107.67127   -28107.356    4.3853509    4.3853509    4.3853509   -28107.356    16639.928   -67996.844   -32965.152     17231.91   -30351.376   -82361.585    84.336008 
   62900    1444.4211   -108.98009    1.3069425   -107.67315    1534.5556    4.3952539    4.3952539    4.3952539    1534.5556    46981.394   -48994.319    6616.5911    1402.1069   -18543.747    24280.578    84.908643 
   63000    2502.5155   -109.91352    2.2643286    -107.6492   -23222.778    4.4033546    4.4033546    4.4033546   -23222.778   -451.64989   -68160.334   -1056.3488   -22202.385   -1818.3645    8275.3261    85.378985 
   63100    2112.9223   -109.55382    1.9118165   -107.64201    10069.282    4.3840848    4.3840848    4.3840848    10069.282    31668.517   -20368.934    18908.262    20405.759   -5772.6801   -34696.617    84.262985 
   63200    924.05102   -108.49886   0.83610078   -107.66276   -9690.7854    4.3744323    4.3744323    4.3744323   -9690.7854    6557.5344   -64640.991      29011.1   -8939.3898   -28531.421     54165.98    83.707637 
   63300    2415.2699   -109.85112    2.1853869   -107.66573   -213.64266    4.3837231    4.3837231    4.3837231   -213.64266    24002.478   -63033.618    38390.212   -47630.784    21616.775    8896.2598     84.24213 
   63400    2539.9365   -109.95037    2.2981879   -107.65218    19233.779    4.3911129    4.3911129    4.3911129    19233.779    64063.831   -13568.146     7205.651    24197.154    -16578.75   -2756.3061    84.668877 
   63500    1094.9268   -108.65088   0.99071282   -107.66017   -29678.639    4.4046177    4.4046177    4.4046177   -29678.639   -36226.964   -75946.206    23137.254   -43017.181   -9988.9827    38383.863    85.452476 
   63600    1751.1282   -109.21251    1.5844576   -107.62805   -10267.155    4.3998803    4.3998803    4.3998803   -10267.155    9744.4528   -69382.818      28836.9   -5376.9906    12529.631   -64527.601     85.17705 
   63700    2613.6643   -109.96898    2.3648984   -107.60408    15299.544    4.3846675    4.3846675    4.3846675    15299.544    11380.392    1944.7022    32573.538   -1540.6555   -12031.678    12984.137    84.296588 
   63800    1335.0566   -108.83725    1.2079873   -107.62927    1364.6338    4.3796963    4.3796963    4.3796963    1364.6338    17041.993   -69429.423    56481.331   -33021.298   -13978.404   -69815.826    84.010192 
   63900    1781.6885   -109.26175    1.6121092   -107.64964   -3876.9147    4.3853767    4.3853767    4.3853767   -3876.9147    18443.191   -59315.457    29241.522    14194.207    5695.1442   -43520.015    84.337501 
   64000     2546.237    -109.9395    2.3038887   -107.63562   -1913.4641    4.3921192    4.3921192    4.3921192   -1913.4641   -21706.046   -15065.651    31031.305    9262.5165   -602.45839    15553.507    84.727103 
   64100    1529.7699   -109.02017     1.384168     -107.636   -30350.264    4.3983241    4.3983241    4.3983241   -30350.264     15228.92   -80266.055   -26013.658   -27303.498   -4779.4683    -91812.19    85.086704 
   64200    1857.9557   -109.30228    1.6811173   -107.62117   -26039.409    4.3950905    4.3950905    4.3950905   -26039.409   -34473.582    -42311.87   -1332.7738    12246.165    12031.054     47682.54    84.899176 
   64300    1930.6212   -109.36332    1.7468666   -107.61645    5315.0307    4.3911914    4.3911914    4.3911914    5315.0307    32740.487   -15227.905   -1567.4902    12165.375   -3772.7972    -16766.71    84.673422 
   64400    2152.8679   -109.56557    1.9479601   -107.61761    6633.1863    4.3949578    4.3949578    4.3949578    6633.1863    3951.4908     15705.76    242.30855   -34365.251    5052.7683   -25060.499    84.891486 
   64500    1239.5221   -108.76161    1.1215457   -107.64006    -24855.82    4.3967536    4.3967536    4.3967536    -24855.82   -12142.905   -66346.317    3921.7634    32066.646   -102.91754    44360.362    84.995587 
   64600    2620.0675   -109.98894    2.3706921   -107.61825    6301.2012    4.3917815    4.3917815    4.3917815    6301.2012    14589.673    -10927.77    15241.701    18831.175   -10816.863   -903.39953    84.707559 
   64700    1746.8026   -109.20939    1.5805437   -107.62885    5920.1685    4.3947078    4.3947078    4.3947078    5920.1685   -1837.4992   -50925.135     70523.14   -19732.839    16659.758    -7086.074    84.876998 
   64800    1085.7363    -108.5979   0.98239704    -107.6155   -16086.701    4.4104431    4.4104431    4.4104431   -16086.701     7819.076   -109172.36     53093.18    46851.526   -7820.5094    40831.527    85.791977 
   64900    2412.5485   -109.77016    2.1829246   -107.58723    7412.5809    4.3976485    4.3976485    4.3976485    7412.5809    42570.674   -35635.034    15302.103   -12328.824    328.45712   -41650.474    85.047501 
   65000    1718.0406   -109.15232    1.5545192    -107.5978    30037.734    4.3789571    4.3789571    4.3789571    30037.734    13028.295   -6044.4795    83129.388    52488.467     8097.548    21666.537    83.967665 
   65100     1964.336   -109.39134    1.7773725   -107.61397   -10285.137    4.3893629    4.3893629    4.3893629   -10285.137    58161.317   -58663.776   -30352.951   -7477.5403    1324.4804   -17839.147     84.56769 
   65200    1992.9211   -109.41784    1.8032369    -107.6146    -9914.961    4.3940556    4.3940556    4.3940556    -9914.961    3579.0584   -27780.292   -5543.6497    32487.159   -7024.4863   -27774.156    84.839216 
   65300    2158.5676   -109.55855    1.9531173   -107.60543   -760.83751    4.3964949    4.3964949    4.3964949   -760.83751   -692.10054   -20062.238    18471.826    16264.366     18415.54    2559.1554    84.980585 
   65400    1126.6447   -108.63711    1.0194118    -107.6177    -25151.81    4.4023517    4.4023517    4.4023517    -25151.81    62480.606   -109867.28   -28068.752   -8818.9568    -883.2598   -39872.659    85.320659 
   65500     2623.029     -109.972    2.3733718   -107.59863    12187.952    4.3912079    4.3912079    4.3912079    12187.952   -8.9729284   -31556.735    68129.564    23904.291   -19758.041    15773.956    84.674376 
   65600    1720.3498   -109.17605    1.5566087   -107.61944    22549.368    4.3767863    4.3767863    4.3767863    22549.368    35086.755   -33184.822    65746.172   -16394.712   -3304.0943   -46920.188    83.842848 
   65700    1702.6415   -109.17735    1.5405858   -107.63677   -7614.1747    4.3869781    4.3869781    4.3869781   -7614.1747    57283.931    -56019.14   -24107.315   -5954.7882    7588.2779   -14822.879    84.429926 
   65800    2205.0681   -109.60596    1.9951919   -107.61077    7314.7227    4.4024583    4.4024583    4.4024583    7314.7227   -10738.352    15383.361    17299.159   -517.73747   -41597.683    13883.717    85.326856 
   65900    1555.5808   -109.01823    1.4075222   -107.61071   -26359.278    4.4093159    4.4093159    4.4093159   -26359.278     3817.031   -65271.579   -17623.287   -13544.997   -2720.6408   -65338.305    85.726213 
   66000    2522.7762   -109.86597    2.2826609   -107.58331    17392.258    4.3978761    4.3978761    4.3978761    17392.258    16709.224    1076.5782    34390.972    10097.109   -6440.2451    32035.983    85.060705 
   66100    1068.9124   -108.57192   0.96717438   -107.60474    17576.443    4.3795151    4.3795151    4.3795151    17576.443    17671.931     41395.92   -6338.5218   -2564.6404   -32599.454       -56410    83.999766 
   66200    2177.3525   -109.58613    1.9701143   -107.61601    17880.482    4.3867854    4.3867854    4.3867854    17880.482    43295.401    1764.2821    8581.7625   -14634.637    23394.965   -30645.649    84.418801 
   66300    2262.6951   -109.66666    2.0473341   -107.61932    18524.428    4.3920618    4.3920618    4.3920618    18524.428    29298.626    31230.414   -4955.7564    2073.3978   -24513.458    3870.4386    84.723779 
   66400    1276.7442   -108.78846     1.155225   -107.63323    13110.606    4.4042923    4.4042923    4.4042923    13110.606    61609.087    -4187.193   -18090.076    4957.2583    4550.5062   -70501.184    85.433541 
   66500    2583.9616   -109.91011    2.3380228   -107.57209   -21329.388     4.421882     4.421882     4.421882   -21329.388    3162.1312   -43248.287   -23902.008   -13760.979    6492.8627    39050.791     86.46124 
   66600    1066.9247   -108.55175    0.9653759   -107.58638   -13799.147    4.3945432    4.3945432    4.3945432   -13799.147    55631.342   -50196.876   -46831.907    489.65645   -13501.702   -87345.911    84.867461 
   66700    2575.9118   -109.88582    2.3307391   -107.55508     26735.13    4.3752644    4.3752644    4.3752644     26735.13    32131.906   -16278.381    64351.865    15322.541   -211.81084    26643.158    83.755417 
   66800    1584.1746   -109.03454    1.4333945   -107.60115   -14503.156    4.3798704    4.3798704    4.3798704   -14503.156    66904.687   -60144.535   -50269.621    -8294.553    410.23274   -40801.813    84.020213 
   66900    1865.6915   -109.31388    1.6881169   -107.62576    41385.238    4.3931449    4.3931449    4.3931449    41385.238    77981.266   -33844.572    80019.021    32789.629     819.2749   -14690.177    84.786476 
   67000    1807.2825   -109.23656    1.6352672    -107.6013    -37667.03      4.42398      4.42398      4.42398    -37667.03   -8827.2791   -67995.636   -36178.176    6234.2979    10866.474   -34875.788     86.58436 
   67100    1412.7372   -108.88674    1.2782743   -107.60846   -25020.036    4.3954095    4.3954095    4.3954095   -25020.036    26812.643   -76553.516   -25319.236    -6189.534    20428.327   -37048.443    84.917661 
   67200    2947.0988   -110.22759    2.6665969     -107.561    64069.223    4.3585361    4.3585361    4.3585361    64069.223    72383.077    28401.385    91423.207    11903.184   -18824.701    10002.089    82.798402 
   67300    907.41213   -108.45203   0.82104556   -107.63099   -17549.665    4.3770204    4.3770204    4.3770204   -17549.665    36637.716   -55017.667   -34269.044   -14518.626     1006.755    -78580.59    83.856305 
   67400    2467.7262   -109.85313    2.2328505   -107.62028   -6796.0653    4.4062447    4.4062447    4.4062447   -6796.0653   -5840.3029    -33811.06    19263.166   -21249.776    3316.5439    28063.679    85.547207 
   67500     1575.117   -109.03786     1.425199   -107.61267   -783.03776    4.4146113    4.4146113    4.4146113   -783.03776    42053.877   -31596.052   -12806.939    22720.659   -36880.932    -43545.22    86.035444 
   67600    2144.6736   -109.53522    1.9405457   -107.59468   -12887.905    4.3974089    4.3974089    4.3974089   -12887.905      18814.7    -43947.68   -13530.736   -27846.758    23290.249   -22454.248    85.033597 
   67700     2449.112   -109.80809     2.216008   -107.59208    8108.9197    4.3765138    4.3765138    4.3765138    8108.9197    2671.8003   -14034.471     35689.43    9178.0741   -17959.687    3526.0938    83.827191 
   67800    747.95076   -108.31487   0.67676157   -107.63811    18284.777    4.3759021    4.3759021    4.3759021    18284.777    78022.108   -27362.366    4194.5896    17678.769   -22056.413   -52728.862    83.792044 
   67900    3160.9436   -110.47566    2.8600882   -107.61558    13094.719    4.4047383    4.4047383    4.4047383    13094.719     34930.28   -5761.6951    10115.573   -18005.814    34557.053    13383.626    85.459497 
   68000    1015.1268   -108.53839    0.9185081   -107.61989   -26174.147    4.4185647    4.4185647    4.4185647   -26174.147    3002.2843   -48897.058   -32627.667    14300.614   -25243.489   -52077.048    86.266793 
   68100    2190.8167   -109.56701     1.982297   -107.58471    5409.9849    4.4047504    4.4047504    4.4047504    5409.9849    5999.0013   -10235.753    20466.706     1903.778    9552.9541   -11900.793    85.460201 
   68200    2047.2046   -109.42926    1.8523537   -107.57691    13703.564    4.3861568    4.3861568    4.3861568    13703.564    10295.015    29115.492    1700.1835   -26400.005   -3203.2683   -21384.229    84.382513 
   68300    1466.4437   -108.92431    1.3268691   -107.59745    10854.651    4.3768424    4.3768424    4.3768424    10854.651    30724.527    9558.5408   -7719.1162    15775.221   -27941.379   -58235.297    83.846075 
   68400    2755.8305   -110.08811    2.4935333   -107.59458   -14444.426    4.3982202    4.3982202    4.3982202   -14444.426   -15998.844   -50545.087    23210.653   -37347.221    23963.052    9052.1297    85.080669 
   68500    1210.7129   -108.70653    1.0954785   -107.61105   -32683.133    4.4120156    4.4120156    4.4120156   -32683.133   -996.21994   -43235.112   -53818.066   -2996.8601   -24998.757   -70852.574    85.883771 
   68600    2391.1844    -109.7606    2.1635939   -107.59701   -2697.6285    4.4003121    4.4003121    4.4003121   -2697.6285   -13132.183   -13953.878    18993.175   -4556.7468   -8289.0928    6502.3625     85.20213 
   68700    1605.2715   -109.05348    1.4524833   -107.60099    1136.6364    4.3814359    4.3814359    4.3814359    1136.6364    2919.5526   -35299.286    35789.643   -32688.265    10458.634   -22810.943     84.11034 
   68800    1642.5124    -109.0993    1.4861797   -107.61312    24453.473     4.384077     4.384077     4.384077    24453.473    9644.4435    5588.1927    58127.782    16459.677   -21651.939   -30005.721    84.262536 
   68900    2340.2773   -109.70948    2.1175321   -107.59195   -30739.966    4.4085837    4.4085837    4.4085837   -30739.966   -60052.379   -53602.998    21435.478    7386.9518    13042.002     2750.698    85.683514 
   69000    1268.2365   -108.74193     1.147527    -107.5944   -57.107479    4.4008286    4.4008286    4.4008286   -57.107479   -3522.4002   -42379.741    45730.819   -17369.121   -8791.1833   -50134.297    85.232133 
   69100    2383.6475   -109.74263    2.1567744   -107.58586   -15110.379    4.3934133    4.3934133    4.3934133   -15110.379    -43380.89   -43506.308    41556.062      66172.7   -13973.049    920.04201    84.802019 
   69200    1968.6901   -109.37097    1.7813122   -107.58966    21129.737    4.3835135    4.3835135    4.3835135    21129.737    18368.141   -14916.337    59937.408   -14187.341    2942.1483   -33748.695    84.230046 
   69300    1428.2872   -108.90751    1.2923443   -107.61517    284.43243    4.3941716    4.3941716    4.3941716    284.43243    23702.683   -33387.425    10538.039    64518.241    5522.6069   -32771.543    84.845935 
   69400     2540.588   -109.88515    2.2987774   -107.58637    -17118.36     4.411307     4.411307     4.411307    -17118.36    -16618.91   -47170.897    12434.727    32287.241   -11272.184    9230.0183    85.842399 
   69500    1597.2762    -109.0326    1.4452491   -107.58735    23172.721    4.3943632    4.3943632    4.3943632    23172.721    49574.564   -161.39482    20104.995    21179.269    229.80183   -48947.195    84.857037 
   69600    1874.9258   -109.28536    1.6964723   -107.58889    13220.308    4.3971605    4.3971605    4.3971605    13220.308    14454.525   -27469.486    52675.885    48924.129    11607.356    20266.384    85.019186 
   69700     1849.908   -109.24056    1.6738356   -107.56672   -14714.677    4.4083265    4.4083265    4.4083265   -14714.677    8914.6648   -2405.8445   -50652.853   -32344.736   -18245.563   -39826.479    85.668516 
   69800    1854.5391   -109.22973     1.678026    -107.5517   -13973.699    4.4105987    4.4105987    4.4105987   -13973.699   -59527.864   -10124.469    27731.235    72753.074    4976.2163   -9191.9325    85.801057 
   69900    2003.7641   -109.35669    1.8130479   -107.54364   -2437.7779     4.412557     4.412557     4.412557   -2437.7779     37260.88    -24583.19   -19991.025   -48014.547    25.428248    6871.4536    85.915396 
   70000    1573.1438   -108.98391    1.4234135    -107.5605   -29979.284    4.3982859    4.3982859    4.3982859   -29979.284   -4223.9455   -78272.659   -7441.2467    43498.739    18448.142   -48210.254    85.084482 
   70100    2566.9307   -109.87948    2.3226129   -107.55687    6558.6008    4.3799343    4.3799343    4.3799343    6558.6008    24269.258   -21626.011    17032.556   -789.12668   -19112.498    45208.299    84.023893 
   70200    1170.2144   -108.66504    1.0588346    -107.6062   -48831.289    4.3933323    4.3933323    4.3933323   -48831.289    14579.313   -99448.744   -61624.437   -30557.506    4782.4784   -48944.319    84.797329 
   70300    3032.3076   -110.31849    2.7436956   -107.57479    20183.611    4.4019735    4.4019735    4.4019735    20183.611    60854.614   -16769.363    16465.582    12390.874    -2248.289    5056.2793     85.29867 
   70400    740.59359   -108.28329   0.67010464   -107.61319   -7207.6752    4.4123634    4.4123634    4.4123634   -7207.6752    70865.457   -91325.127   -1163.3555   -14777.096   -14179.805   -13732.217    85.904083 
   70500    2755.7819    -110.0496    2.4934894   -107.55611    -18123.55    4.4131615    4.4131615    4.4131615    -18123.55   -16127.129   -56828.572    18585.051    -4402.317    11002.004    -12630.43    85.950708 
   70600    1737.0483   -109.15225    1.5717178   -107.58053    17313.349    4.3771271    4.3771271    4.3771271    17313.349     39022.88   -38928.998    51846.164    32533.764    2240.3028   -11719.911    83.862433 
   70700    1927.7236   -109.33223    1.7442448   -107.58799    25389.138     4.365349     4.365349     4.365349    25389.138    97370.434   -6560.1843   -14642.836   -10821.001   -5817.5327   -40611.664     83.18728 
   70800    2093.1095   -109.50206    1.8938895   -107.60817    17737.189    4.3887499    4.3887499    4.3887499    17737.189   -21667.071    24841.342    50037.296    32486.495    39078.857     13102.89    84.532262 
   70900    1546.8755   -109.00864    1.3996455     -107.609     12305.01    4.4157769    4.4157769    4.4157769     12305.01    55204.826    7787.2931   -26077.088    28527.564   -14396.257    -42940.48    86.103613 
   71000    2119.6557   -109.47433     1.917909   -107.55643   -34803.655    4.4297678    4.4297678    4.4297678   -34803.655   -72448.984    18769.129   -50731.109    3123.1489    46795.137    15767.299    86.924638 
   71100    1286.1325   -108.72507    1.1637197   -107.56135   -29523.425    4.3996467    4.3996467    4.3996467   -29523.425   -37665.545    7960.2633   -58864.993    22487.828    28524.068   -34011.834     85.16348 
   71200    2642.0448   -109.93857    2.3905777   -107.54799    21082.775    4.3590222    4.3590222    4.3590222    21082.775    32595.744    17164.318    13488.262    -6842.202   -1963.7726   -36621.946    82.826106 
   71300    1668.0916   -109.10771    1.5093244   -107.59838     40883.31    4.3581171    4.3581171    4.3581171     40883.31   -20880.029    68744.247    74785.711    18589.719    60784.141    2565.4694    82.774523 
   71400    1883.7841   -109.33082    1.7044875   -107.62634    14902.994    4.3971018    4.3971018    4.3971018    14902.994    37170.463   -11313.559    18852.079   -1951.9966   -11680.598   -58097.785    85.015781 
   71500    1728.3179   -109.14022    1.5638184    -107.5764   -51538.624     4.437474     4.437474     4.437474   -51538.624    -69756.64   -14529.248   -70329.986     5998.242    28527.749    18223.274    87.379078 
   71600    1974.2917   -109.33452    1.7863806   -107.54814   -50017.554    4.4157935    4.4157935    4.4157935   -50017.554    3087.4046   -80217.845   -72922.221    20469.025    14456.375   -51575.717    86.104586 
   71700    1891.1052   -109.24202    1.7111117   -107.53091    3682.7271    4.3575228    4.3575228    4.3575228    3682.7271    11890.874    24103.555   -24946.247   -20127.728   -20777.771   -22742.097    82.740662 
   71800    1704.7342   -109.10525    1.5424793   -107.56277    13208.764    4.3443646    4.3443646    4.3443646    13208.764    13866.163    59850.471   -34090.343    4549.0045    37186.868    10270.678    81.993384 
   71900    2858.9273   -110.17576    2.5868175   -107.58895     21367.06    4.3749543    4.3749543    4.3749543     21367.06    62257.473    17944.043   -16100.336    769.82934    -12596.09   -21951.498    83.737612 
   72000    913.50504   -108.45764   0.82655856   -107.63108    -21244.61    4.4148108    4.4148108    4.4148108    -21244.61   -33032.121    66559.555   -97261.264   -10380.601   -8450.4802    6326.8602    86.047107 
   72100    2477.8101   -109.80792    2.2419747   -107.56594   -33560.216    4.4228918    4.4228918    4.4228918   -33560.216    17202.729   -49817.692   -68065.685    19015.779    24786.201     23285.78    86.520486 
   72200    1756.4267   -109.17528    1.5892518   -107.58603    -5709.582    4.3752942    4.3752942    4.3752942    -5709.582   -28329.937    34149.858   -22948.666    13274.335   -43605.126   -3996.7643    83.757128 
   72300    2207.7337   -109.54312    1.9976038   -107.54552    34162.178    4.3414813    4.3414813    4.3414813    34162.178    43460.476    88880.367   -29854.309   -2133.2196     16089.91    18242.142    81.830237 
   72400     1655.532    -109.0836    1.4979601   -107.58564   -2419.6586    4.3637364    4.3637364    4.3637364   -2419.6586   -29284.976   -15851.885    37877.885    50744.461   -14134.281     7525.948    83.095119 
   72500    1824.8732    -109.2617    1.6511836   -107.61052   -17317.071    4.3990758    4.3990758    4.3990758   -17317.071   -33214.477    33111.117   -51847.852   -22816.498   -69178.486   -11743.656    85.130335 
   72600    2437.9347    -109.7818    2.2058946   -107.57591    -27980.77    4.4170985    4.4170985    4.4170985    -27980.77   -50560.292   -34579.487    1197.4685    60684.605    21706.342   -11659.648    86.180944 
   72700    1615.7982   -109.06153    1.4620081   -107.59953   -13067.415    4.3821626    4.3821626    4.3821626   -13067.415   -63623.735    18643.394    5778.0954    10184.203   -71607.372    6113.0697    84.152196 
   72800    2111.1137   -109.47954    1.9101801   -107.56936    30993.657    4.3451001    4.3451001    4.3451001    30993.657    14775.313    35395.941    42809.717    -3987.362   -14427.409    -28727.89    82.035033 
   72900    1846.2695   -109.26491    1.6705434   -107.59437    9296.9468    4.3597493    4.3597493    4.3597493    9296.9468   -27891.423    6427.5815    49354.682    62827.067   -13848.095   -3636.9801    82.867561 
   73000    1921.3301   -109.35059    1.7384599   -107.61213   -16577.812    4.3919841    4.3919841    4.3919841   -16577.812   -45581.375    14547.259   -18699.319   -24999.531   -70176.347    6358.4237    84.719284 
   73100    1876.5716   -109.29868    1.6979615   -107.60072   -3359.2587    4.3983423    4.3983423    4.3983423   -3359.2587   -29355.304   -30357.447    49634.975    23550.193    52743.441   -22698.578    85.087759 
   73200    1403.6021   -108.86757    1.2700087   -107.59756    7108.0864     4.383146     4.383146     4.383146    7108.0864   -20944.324    26087.605    16180.979    9739.9397   -75659.452    12352.148    84.208866 
   73300     2725.078   -110.03222    2.4657078   -107.56651    21294.803    4.3777072    4.3777072    4.3777072    21294.803    16194.694    3797.4345    43892.279   -13278.599    27268.439   -4789.3311    83.895785 
   73400    1392.7137   -108.86516    1.2601566   -107.60501   -5651.0642    4.3712266    4.3712266    4.3712266   -5651.0642   -32586.487    6891.5994    8741.6948    41685.688   -13734.724   -11233.011    83.523743 
   73500    2065.3734   -109.47736    1.8687933   -107.60857    12423.384     4.372366     4.372366     4.372366    12423.384   -19279.036    29248.015    27301.172   -45254.163    -35870.43    3630.9512    83.589079 
   73600    1843.3786   -109.27761    1.6679277   -107.60968   -5908.1071    4.3864158    4.3864158    4.3864158   -5908.1071   -24652.911   -21611.089    28539.679    -25774.38    15964.101   -4304.3785    84.397462 
   73700    1685.6466   -109.12988    1.5252085   -107.60467    8931.4959    4.3875794    4.3875794    4.3875794    8931.4959   -10689.906    8004.3111    29480.082    22937.084   -17016.906   -7555.7095    84.464647 
   73800    1471.6665   -108.93694    1.3315948   -107.60534   -1743.8587    4.3876257    4.3876257    4.3876257   -1743.8587   -23785.689   -41380.589    59934.702   -109760.38    -8688.198    14549.248    84.467322 
   73900    2819.7585   -110.12433    2.5513768   -107.57295    27557.904    4.3827989    4.3827989    4.3827989    27557.904    80771.325    3000.9574   -1098.5691    30377.492    6557.6394   -9793.1017    84.188861 
   74000    815.65703   -108.34332   0.73802363    -107.6053    -6416.269    4.3821133    4.3821133    4.3821133    -6416.269   -12493.281   -65774.089    59018.564   -104867.24   -12044.998   -12577.226    84.149358 
   74100    2855.0527   -110.15887    2.5833117   -107.57556    10646.851    4.3846042    4.3846042    4.3846042    10646.851     55600.74    261.64297   -23921.831    45533.964    15373.799    14903.559    84.292937 
   74200     1178.293   -108.67022    1.0661443   -107.60408   -1185.3792    4.3766694    4.3766694    4.3766694   -1185.3792   -16687.739   -29789.316    42920.918   -93949.466    16716.668   -15161.533    83.836131 
   74300    2384.9351   -109.75582    2.1579394   -107.59788    10309.193    4.3763376    4.3763376    4.3763376    10309.193    14080.274    18729.232   -1881.9281    3563.0502   -10339.628    -16227.29    83.817067 
   74400    1987.2589   -109.41448    1.7981136   -107.61636    -10007.03    4.3764599    4.3764599    4.3764599    -10007.03   -45064.529   -14049.899    29093.339   -39742.287    29035.169    32892.141    83.824094 
   74500    1216.4235   -108.72881    1.1006455   -107.62817    9018.8135    4.3738075    4.3738075    4.3738075    9018.8135    11321.429    -8889.659    24624.671   -51756.061   -4085.4876   -37665.163    83.671775 
   74600    2633.1208   -109.98993    2.3825031   -107.60743   -7529.0611     4.385363     4.385363     4.385363   -7529.0611    12414.771    -16371.98   -18629.974     34445.31    520.02199   -19615.523    84.336708 
   74700    1277.7352   -108.78458    1.1561217   -107.62846   -14674.529    4.3778361    4.3778361    4.3778361   -14674.529   -41771.514   -44579.406    42327.334   -76500.983    8547.8041     13029.87    83.903194 
   74800     2166.617   -109.57119    1.9604006   -107.61079    8133.5004    4.3689512    4.3689512    4.3689512    8133.5004    74214.045   -16158.803   -33654.741    14617.276    4294.0122   -48287.017    83.393383 
   74900    1626.6597   -109.09508    1.4718359   -107.62324   -26625.684    4.3744597    4.3744597    4.3744597   -26625.684   -59551.625   -51108.053    30782.627    3762.7174   -10886.026    3234.8047    83.709214 
   75000    1973.9608   -109.41394    1.7860812   -107.62786   -9022.0406    4.3674712    4.3674712    4.3674712   -9022.0406     18716.35   -46085.076    302.60333   -42933.019    5572.4759    -4104.382    83.308661 
   75100    2377.4552   -109.77427    2.1511714    -107.6231   -1163.7305    4.3747328    4.3747328    4.3747328   -1163.7305     21740.35   -27193.804    1962.2625     24554.18   -1263.4241   -14303.523     83.72489 
   75200    1191.9023    -108.7058    1.0784582   -107.62734   -36940.028    4.3842976    4.3842976    4.3842976   -36940.028   -75268.896   -92113.272    56562.083   -3361.7783   -13465.564    11105.156    84.275256 
   75300    2401.3403   -109.78311    2.1727831   -107.61033    637.29836    4.3748085    4.3748085    4.3748085    637.29836     72889.07   -34621.898   -36355.277   -21219.278    36084.908    8765.0497     83.72924 
   75400    1875.8877   -109.31757    1.6973426   -107.62023   -5390.2344    4.3667258    4.3667258    4.3667258   -5390.2344   -19852.984   -39378.931    43061.212    47198.855    14017.661   -8848.0429    83.266013 
   75500    1458.3496   -108.95677    1.3195453   -107.63722   -4860.6541    4.3651811    4.3651811    4.3651811   -4860.6541    18997.884   -74903.532    41323.686   -25887.549   -8256.6508    12408.333     83.17768 
   75600    2855.0175   -110.20186    2.5832799   -107.61858    4286.0567    4.3802551    4.3802551    4.3802551    4286.0567    40578.428    -5088.534   -22631.724     5633.786    29051.785    7811.3942    84.042357 
   75700    996.56993    -108.5484   0.90171742   -107.64668    7801.8264    4.3755065    4.3755065    4.3755065    7801.8264     19704.79   -76611.716    80312.406    18722.352    4111.7735    -14532.74    83.769324 
   75800    1992.3762   -109.43589    1.8027438   -107.63315    5270.2743    4.3787495    4.3787495    4.3787495    5270.2743    22233.918   -44914.565     38491.47   -55177.417   -5804.6525    4950.2048     83.95572 
   75900    2383.9094   -109.77078    2.1570113   -107.61377    19016.375    4.3773317    4.3773317    4.3773317    19016.375    67938.887   -15199.362    4309.6003    23832.759    661.19169   -2437.0287    83.874196 
   76000    1079.2407   -108.60772   0.97651971    -107.6312    5250.1509    4.3727956    4.3727956    4.3727956    5250.1509   -8924.4637   -55975.218    80650.135   -32730.062    7008.4661   -9073.9411    83.613715 
   76100     2888.224   -110.20748    2.6133258   -107.59415    7186.7558    4.3818396    4.3818396    4.3818396    7186.7558    60117.911   -13440.587   -25117.057    41.443103   -7439.5637    36359.307     84.13359 
   76200    1429.5446   -108.90492     1.293482   -107.61144   -1973.4422    4.3812199    4.3812199    4.3812199   -1973.4422     24153.86     -29179.9   -894.28651   -10585.751    8387.3815    12511.526    84.097898 
   76300    1814.4806   -109.25011    1.6417801   -107.60833    684.55219    4.3806094    4.3806094    4.3806094    684.55219    4718.9604   -30729.208    28063.904   -13011.143    14903.869     8636.019    84.062747 
   76400    2075.7588   -109.48286    1.8781902   -107.60467    -7980.745    4.3818506    4.3818506    4.3818506    -7980.745    62181.405   -25698.466   -60425.174    1068.0604   -12181.725    69142.809    84.134222 
   76500    2058.2016   -109.46344    1.8623041   -107.60113     3149.759    4.3813925    4.3813925    4.3813925     3149.759   -9847.3451   -27250.458    46547.081   -40661.845     2126.455    -25337.01    84.107841 
   76600    1883.5065   -109.30888    1.7042363   -107.60464    -2777.901    4.3797469    4.3797469    4.3797469    -2777.901    78334.493   -63258.102   -23410.094    23077.433    5410.3635    86266.606    84.013107 
   76700    2223.9205   -109.60767      2.01225   -107.59542   -4624.7971    4.3866139    4.3866139    4.3866139   -4624.7971    12767.152   -19438.244   -7203.2993   -38257.934   -1365.7787     10179.69      84.4089 
   76800    1397.4682    -108.8716    1.2644586   -107.60714   -10040.452    4.3855676    4.3855676    4.3855676   -10040.452    14072.093   -65514.859    21321.409   -8740.1503   -4595.8262    34263.056    84.348511 
   76900    2091.7356   -109.48926    1.8926463   -107.59661    7111.8619     4.377608     4.377608     4.377608    7111.8619     62542.93    -35760.44   -5446.9049    27402.364    17157.637     46047.15    83.890081 
   77000    2060.3674   -109.46504    1.8642637   -107.60078   -8788.3752    4.3803567    4.3803567    4.3803567   -8788.3752   -15771.271   -15291.632    4697.7779   -37534.141    -16063.46   -29767.254    84.048205 
   77100    1555.8542   -109.02843    1.4077695   -107.62066   -8527.7893    4.3775166    4.3775166    4.3775166   -8527.7893    5314.7235   -46174.344    15276.252    19515.854   -20639.189    71124.941    83.884828 
   77200    1950.0371   -109.37635    1.7644346   -107.61192    24635.047    4.3710119    4.3710119    4.3710119    24635.047    43677.008    -2837.991    33066.126    3513.2747    30297.537   -46791.105    83.511439 
   77300    1659.4373   -109.12381    1.5014938   -107.62231   -6589.6703    4.3832936    4.3832936    4.3832936   -6589.6703   -26506.329    1233.6721    5503.6459   -14294.715   -44995.356    5555.5789    84.217374 
   77400    2502.8643   -109.86526    2.2646442   -107.60061   -747.43815    4.3877847    4.3877847    4.3877847   -747.43815   -3817.0089   -6390.3216     7965.016    8258.5787    7753.6981   -12866.303    84.476502 
   77500    1182.2514     -108.684    1.0697259   -107.61427   -4481.1261    4.3789561    4.3789561    4.3789561   -4481.1261    22486.465     15909.54   -51839.384    758.91944    4625.8489   -38036.131    83.967609 
   77600    2173.6424   -109.56472    1.9667573   -107.59797    7217.4302    4.3750092    4.3750092    4.3750092    7217.4302   -36191.436    40602.725    17241.002   -5929.5009   -57184.461    10010.145     83.74076 
   77700    1904.1599   -109.33173    1.7229239    -107.6088   -2492.4318    4.3760047    4.3760047    4.3760047   -2492.4318    24995.087   -14556.806   -17915.576    13693.336    33112.841   -52717.609    83.797941 
   77800    1837.3685   -109.28003    1.6624896   -107.61754    15592.767    4.3727348    4.3727348    4.3727348    15592.767   -33258.053    92519.182   -12482.828    10276.748    -27111.14    6560.6223    83.610229 
   77900    2197.2653   -109.60259    1.9881318   -107.61446    10088.635    4.3793611    4.3793611    4.3793611    10088.635    35151.321    6505.8584   -11391.275    2231.7493   -13863.967    3035.1501    83.990908 
   78000    1603.6059   -109.07647    1.4509764    -107.6255   -10110.319    4.3805094    4.3805094    4.3805094   -10110.319    7061.0188    4967.3658   -42359.343    16934.921    11839.239   -10345.496    84.056995 
   78100    2092.7264   -109.49965    1.8935429   -107.60611    7729.0836    4.3784862    4.3784862    4.3784862    7729.0836   -44772.676     68542.98   -583.05272   -7993.4906   -16981.302     10109.66    83.940579 
   78200    1420.8719   -108.89532    1.2856347   -107.60968   -21234.744    4.3865735    4.3865735    4.3865735   -21234.744    41371.798   -44167.413   -60908.617     -15986.3    467.93463    -4376.845    84.406566 
   78300     2059.569   -109.46255    1.8635413   -107.59901    -4683.975    4.3814985    4.3814985    4.3814985    -4683.975   -32094.088    66410.995   -48368.832    9894.2447    23930.506    482.78593    84.113943 
   78400    2396.9366   -109.76043    2.1687986   -107.59164   -587.11162     4.374149     4.374149     4.374149   -587.11162    22591.848    6164.1304   -30517.313   -9780.8217   -15836.856   -6781.0803    83.691378 
   78500    1313.5345    -108.8021    1.1885136   -107.61359   -30404.693    4.3803743    4.3803743    4.3803743   -30404.693   -279.97471    6326.2762   -97260.382   -665.55504    41458.259   -7911.7383    84.049214 
   78600    2593.7149   -109.95358    2.3468478   -107.60673    5739.0945    4.3749868    4.3749868    4.3749868    5739.0945   -36585.303    81457.272   -27654.685    18004.064     31656.02     9237.037    83.739476 
   78700     1415.282   -108.91335    1.2805769   -107.63278   -5121.4091    4.3715816    4.3715816    4.3715816   -5121.4091    70265.429    -12981.81   -72647.846      -5796.2    -14471.51    -45043.56      83.5441 
   78800    1505.4986   -109.00535    1.3622068   -107.64315   -20103.105    4.3741814    4.3741814    4.3741814   -20103.105     31575.44   -399.72548   -91485.031   -1842.0864    49735.131    44653.837    83.693236 
   78900    2764.2754   -110.11814    2.5011745   -107.61696    5090.7817    4.3773397    4.3773397    4.3773397    5090.7817   -29174.802    82872.114   -38424.967   -8972.9724   -41558.811   -24987.261    83.874657 
   79000    1446.5897   -108.94768    1.3089048   -107.63877   -25719.976    4.3805811    4.3805811    4.3805811   -25719.976    31119.788   -21163.927    -87115.79    5569.7759    3832.2195    23805.548    84.061119 
   79100    1647.0571   -109.11897    1.4902918   -107.62868    16526.355    4.3702556    4.3702556    4.3702556    16526.355    12037.508    48170.288    -10628.73   -3437.5565   -29539.646    12297.328    83.468096 
   79200    2114.7961   -109.54641    1.9135119    -107.6329   -1390.6261    4.3756674    4.3756674    4.3756674   -1390.6261   -23746.339    54437.694   -34863.234   -1334.3738   -61200.442    4032.6185    83.778562 
   79300    2423.1371   -109.81934    2.1925053   -107.62683    10514.766    4.3786432    4.3786432    4.3786432    10514.766    52746.363    8150.1457   -29352.211   -6910.6642    7498.5307    24786.802    83.949609 
   79400    451.43283   -108.06782   0.40846591   -107.65935    13315.207    4.3782943    4.3782943    4.3782943    13315.207    44465.604    69223.969   -73743.951   -8850.0107   -96366.455   -12899.381    83.929541 
   79500    3105.2446   -110.41763    2.8096906   -107.60794    5241.4148     4.391788     4.391788     4.391788    5241.4148    27530.295    18035.045   -29841.095   -1210.3376     40943.77   -9122.8449    84.707938 
   79600    1883.8715   -109.33407    1.7045666    -107.6295   -9964.4103    4.3819092    4.3819092    4.3819092   -9964.4103   -31721.281    60416.249   -58588.199    3338.0575   -100198.65    4264.5875    84.137601 
   79700    1557.9732   -109.04262    1.4096869   -107.63293   -7053.3059    4.3661168    4.3661168    4.3661168   -7053.3059    14016.801   -6151.2861   -29025.433   -14517.832    23624.589    -18857.21    83.231177 
   79800     1380.764    -108.9061    1.2493443   -107.65675    -20095.92    4.3627693    4.3627693    4.3627693    -20095.92   -3217.9193    10679.219    -67749.06    5450.1282    3244.3641    5091.9592    83.039885 
   79900    3053.6206   -110.40382    2.7629801   -107.64084    33989.343    4.3670993    4.3670993    4.3670993    33989.343    1990.0643     96042.46    3935.5037     14077.55   -27582.735   -701.75371    83.287382 
   80000    1048.8443    -108.6244   0.94901632   -107.67538   -36058.624    4.3864727    4.3864727    4.3864727   -36058.624    3378.9402    6400.6792   -117955.49   -9870.8641      63008.1   -14489.467    84.400747 
   80100    2066.8502   -109.51612    1.8701295   -107.64599   -4763.2456    4.3850673    4.3850673    4.3850673   -4763.2456     24311.21    11857.479   -50458.426    7379.7568   -4333.3022    11320.009     84.31965 
   80200    2184.1317   -109.60295    1.9762482    -107.6267   -331.09369    4.3758853    4.3758853    4.3758853   -331.09369   -46664.008    66525.289   -20854.562   -4505.4703    27315.848   -5482.5883    83.791082 
   80300    1072.1557    -108.6181   0.97010902   -107.64799   -15499.598    4.3721544    4.3721544    4.3721544   -15499.598    24997.433   -10904.395   -60591.832   -8185.0891    43257.085   -3268.4336    83.576942 
   80400     2741.838   -110.09589    2.4808726   -107.61501    15554.029    4.3697895    4.3697895    4.3697895    15554.029   -13699.287    35837.374    24524.001   -6640.7621   -24741.852     16929.86    83.441396 
   80500    1222.6424   -108.74957    1.1062725    -107.6433   -33067.933    4.3857439    4.3857439    4.3857439   -33067.933   -96531.236    80274.748    -82947.31    3921.5125    31056.411    -16645.79    84.358683 
   80600    2781.2786   -110.13308    2.5165593   -107.61652    7050.0822    4.3818928    4.3818928    4.3818928    7050.0822    4909.5084   -13421.049    29661.787   -4507.8793    10116.052    6097.6812    84.136656 
   80700    1443.9453    -108.9488     1.306512   -107.64229   -6596.6404    4.3727729    4.3727729    4.3727729   -6596.6404   -71265.806    61301.213   -9825.3275   -1391.1857    -19618.86    2331.4346    83.612414 
   80800     1259.691   -108.79536    1.1397949   -107.65556   -23707.591    4.3782822    4.3782822    4.3782822   -23707.591   -91926.521     57437.53   -36633.781    505.88103    42459.627   -7247.6133    83.928848 
   80900    2892.6229   -110.23693     2.617306   -107.61963    27267.738    4.3788001    4.3788001    4.3788001    27267.738   -4773.4242    12254.907    74321.732   -5888.2507   -8019.9827    14136.832    83.958633 
   81000    828.02727   -108.40393   0.74921647   -107.65471   -24033.821    4.3874032    4.3874032    4.3874032   -24033.821    -97343.04    84994.978   -59753.401   -567.87503    28336.655   -9582.8741    84.454471 
   81100    2853.2539   -110.19522    2.5816841   -107.61353    407.76915    4.3852229    4.3852229    4.3852229    407.76915   -37171.998    30629.769     7765.536   -6108.1645   -12184.578    3446.5764    84.328625 
   81200    1661.4692   -109.12453    1.5033322    -107.6212    13753.984    4.3774914    4.3774914    4.3774914    13753.984    7276.9882    29480.271    4504.6932    1746.4526    44726.882    7860.8096    83.883378 
   81300    1709.4943   -109.16428    1.5467864    -107.6175   -12751.796    4.3845397    4.3845397    4.3845397   -12751.796   -78929.144    71942.533   -31268.778   -4132.7386       3516.5   -3026.5437    84.289215 
   81400    2154.6104   -109.55925    1.9495367   -107.60971    13702.305    4.3767335    4.3767335    4.3767335    13702.305    44012.256    -2870.594   -34.748297   -5016.7369   -4124.7174   -11972.987    83.839817 
   81500    1214.5523   -108.73434    1.0989524   -107.63538    5607.3365    4.3770739    4.3770739    4.3770739    5607.3365    9771.1297    59001.308   -51950.428   -5300.1691    66964.769     7886.991    83.859377 
   81600      3399.25   -110.67159    3.0757128   -107.59588    14750.624     4.389227     4.389227     4.389227    14750.624    1374.0505    40633.731    2244.0902    8305.1904    -16663.71   -556.46772    84.559833 
   81700    991.48759   -108.54097    0.8971188   -107.64386     -1500.43    4.3823265    4.3823265    4.3823265     -1500.43    13757.283    46527.203   -64785.776   -2354.3302    52795.509   -2271.2264    84.161638 
   81800    1838.8845    -109.2938    1.6638614   -107.62993   -1247.5393    4.3772906    4.3772906    4.3772906   -1247.5393   -3857.9509    5880.8939   -5765.5608    13111.222    9147.8003    9849.8567    83.871832 
   81900    2236.2662   -109.64739    2.0234207   -107.62397   -5726.0258     4.370176     4.370176     4.370176   -5726.0258   -47163.256    53380.212   -23395.034    16811.701   -40598.836    1457.4736    83.463535 
   82000    1823.3926   -109.28371    1.6498439   -107.63386    8678.0947    4.3733794    4.3733794    4.3733794    8678.0947   -21898.689    41926.642    6006.3312   -6106.5218    81901.271   -7442.2185    83.647213 
   82100    2355.3251   -109.74836    2.1311477   -107.61721   -27050.668    4.3910791    4.3910791    4.3910791   -27050.668   -65025.982   -22192.825    6066.8021    30319.736   -60273.607     4533.214    84.666925 
   82200    1049.1053   -108.59136   0.94925254   -107.64211   -12139.009    4.3756312    4.3756312    4.3756312   -12139.009   -100165.94    53229.317    10519.598    9093.9439    27449.615    5583.7372    83.776485 
   82300    2162.7436   -109.59567    1.9568958   -107.63878    8362.4177    4.3638103    4.3638103    4.3638103    8362.4177       -35380    4905.0707    55562.183   -27518.667    49058.964   -19877.513    83.099345 
   82400    2479.9831   -109.88502    2.2439408   -107.64108    21565.981    4.3638458    4.3638458    4.3638458    21565.981   -18299.318    32971.085    50026.176    -1868.265   -32108.682   -3327.9873    83.101372 
   82500    1126.2634   -108.68786    1.0190668   -107.66879   -40.655636    4.3790091    4.3790091    4.3790091   -40.655636   -93849.429    68215.419    25512.043   -10677.847    48222.608    1437.3599    83.970656 
   82600    2364.3555   -109.77513    2.1393185   -107.63581    -25598.25    4.3965495    4.3965495    4.3965495    -25598.25   -75626.962   -57959.603    56791.814   -50177.869   -5418.8411   -9522.5277     84.98375 
   82700    1832.4752   -109.29845    1.6580621   -107.64039    7321.7409    4.3709993    4.3709993    4.3709993    7321.7409   -60278.968    37445.779    44798.412    26009.751    38273.618    5436.2742    83.510714 
   82800    1543.1587   -109.03748    1.3962824    -107.6412    10822.351     4.353019     4.353019     4.353019    10822.351    -67555.44    88702.024    11320.468   -28133.174    7715.2928   -1418.4622    82.484376 
   82900    2374.5752   -109.78404    2.1485656   -107.63547    3299.0251    4.3665786    4.3665786    4.3665786    3299.0251   -42103.852   -30537.991    82538.918    27198.917   -15826.385   -188.14548    83.257594 
   83000    1773.1768   -109.25107    1.6044076   -107.64666    -8563.963    4.3792209    4.3792209    4.3792209    -8563.963   -64464.951    4485.8533    34287.208    29908.238    27347.767   -1615.7196    83.982841 
   83100    1696.6036   -109.18315    1.5351226   -107.64803   -17969.824    4.3882083    4.3882083    4.3882083   -17969.824   -76330.866    49614.774   -27193.379    372.38826   -29163.847    8192.6477     84.50097 
   83200    2496.0119   -109.89626    2.2584441   -107.63781   -2780.2788    4.3769701    4.3769701    4.3769701   -2780.2788   -34373.797   -44386.086    70419.047    47222.941    9693.6644   -19467.442    83.853413 
   83300    1240.4645   -108.77415    1.1223983   -107.65175    19189.077    4.3554088    4.3554088    4.3554088    19189.077   -41792.145    50698.956    48660.421   -15748.875   -23508.331   -15693.644    82.620302 
   83400    2015.5888   -109.47589    1.8237471   -107.65214    5805.7774    4.3709137    4.3709137    4.3709137    5805.7774   -40492.918    58266.419    -356.1681    -8454.686    2765.7625    2802.2659    83.505813 
   83500    2283.3853    -109.6907     2.066055   -107.62465    2415.4559    4.3874999    4.3874999    4.3874999    2415.4559    11025.846   -24373.226    20593.747    7462.3722    5026.9659   -59858.969    84.460055 
   83600    1756.1895   -109.21315    1.5890372   -107.62411   -1735.4125    4.3861073    4.3861073    4.3861073   -1735.4125    -59924.88    48908.454    5810.1884    -14669.38   -37077.254    17948.687    84.379655 
   83700    1453.3871   -108.93867    1.3150552   -107.62362    620.43285    4.3812639    4.3812639    4.3812639    620.43285     7657.247    8019.6829   -13815.631    12970.176    24578.435   -47659.083    84.100433 
   83800    2200.1315   -109.59552    1.9907252    -107.6048    28166.423    4.3723592    4.3723592    4.3723592    28166.423    29054.641    5031.9493     50412.68    20407.136   -11226.594   -23232.973    83.588685 
   83900    2148.4061   -109.55385     1.943923   -107.60993   -15850.772    4.3837253    4.3837253    4.3837253   -15850.772   -53078.106    37342.068   -31816.278   -9082.0082     -4117.33    4383.1626    84.242259 
   84000    751.82453   -108.33151   0.68026663   -107.65124   -41071.854    4.3834561    4.3834561    4.3834561   -41071.854   -31346.993   -41593.593   -50274.976    23738.571    22375.477   -65650.852    84.226736 
   84100    2686.6576   -110.07207    2.4309442   -107.64112    31547.319    4.3653833    4.3653833    4.3653833    31547.319   -17113.408    23950.704     87804.66    16841.418    -6324.794    42385.516    83.189237 
   84200    2232.3449   -109.67708    2.0198726   -107.65721    7631.8262    4.3664743    4.3664743    4.3664743    7631.8262    19970.028   -5192.8909    8118.3419   -7835.5382    7571.1719   -67471.389    83.251627 
   84300    1367.6647   -108.90423    1.2374918   -107.66674    3266.8935    4.3716301    4.3716301    4.3716301    3266.8935   -10706.731    3180.8001    17326.612    32342.916     16166.08   -19396.109    83.546876 
   84400     2092.578   -109.52899    1.8934086   -107.63558    -24497.21    4.3934917    4.3934917    4.3934917    -24497.21   -33994.866   -9594.5057   -29902.257   -5284.0516   -40519.012    6062.7703    84.806555 
   84500    1893.5318   -109.32241    1.7133073    -107.6091   -22953.051    4.3948368    4.3948368    4.3948368   -22953.051    8604.3581   -33015.163   -44448.347    7683.3741   -2107.9383   -70234.371    84.884475 
   84600    2059.7051   -109.45638    1.8636645   -107.59271    12534.436    4.3737088    4.3737088    4.3737088    12534.436   -3557.3954    32694.244    8466.4601    19776.719    30212.488    28863.773     83.66611 
   84700    1529.5914   -108.99398    1.3840065   -107.60998   -5736.9355      4.36883      4.36883      4.36883   -5736.9355    23114.108   -4187.9318   -36136.982   -11299.857   -53506.257   -47218.072    83.386442 
   84800    2270.9665   -109.66033    2.0548182   -107.60551    17469.676    4.3698161    4.3698161    4.3698161    17469.676    9388.6635    6839.8494    36180.514   -33450.206    38877.411    3816.7579    83.442918 
   84900    1934.7392   -109.37709    1.7505927   -107.62649   -8611.1303     4.384186     4.384186     4.384186   -8611.1303   -15079.787    24402.182   -35155.786    25511.151    11232.078   -5368.0348    84.268818 
   85000    1819.1754   -109.26758    1.6460281   -107.62155   -13787.983    4.3879582    4.3879582    4.3879582   -13787.983   -31074.516   -23549.508    13260.074   -46729.684     -28703.4   -22317.291    84.486523 
   85100    2336.5772   -109.71149    2.1141841    -107.5973    18271.498    4.3801251    4.3801251    4.3801251    18271.498   -1476.1628    24482.447    31808.209   -20939.974    48507.729    13161.467     84.03487 
   85200    1595.8187   -109.04591    1.4439303   -107.60198   -21721.252    4.3866249    4.3866249    4.3866249   -21721.252   -55699.533   -4628.2335   -4835.9898   -1314.6888    -28637.16    -26729.63    84.409532 
   85300    1374.2758   -108.86986    1.2434736   -107.62638   -8411.6196    4.3830851    4.3830851    4.3830851   -8411.6196   -19515.757   -57534.264    51815.162   -58854.192   -1940.4818   -985.97716    84.205352 
   85400    3114.9677    -110.4232    2.8184882   -107.60471    23929.587    4.3712795    4.3712795    4.3712795    23929.587    26521.638    32207.106    13060.017     19227.04     1496.699    9732.9767    83.526778 
   85500    876.89216   -108.44176   0.79343045   -107.64833   -7848.7623    4.3729846    4.3729846    4.3729846   -7848.7623   -3783.8892   -55625.599    35863.201   -81777.408   -33640.886   -17989.895    83.624562 
   85600    2688.9503    -110.0488    2.4330188   -107.61578    14854.708     4.378156     4.378156     4.378156    14854.708    -12724.67    14805.567    42483.225    8367.7528    21152.998    9615.1687    83.921587 
   85700    1437.1269   -108.93483    1.3003426   -107.63448   -1914.4645    4.3824605    4.3824605    4.3824605   -1914.4645    7427.9692   -57692.415    44521.053   -50421.402     16522.26    1596.5819    84.169361 
   85800    1697.1127   -109.16229    1.5355832   -107.62671   -19942.638    4.3833793    4.3833793    4.3833793   -19942.638   -16534.988   -52353.278    9060.3535   -51470.005   -11186.026   -29546.052    84.222313 
   85900    2395.9485   -109.78807    2.1679046   -107.62017    15898.554    4.3644966    4.3644966    4.3644966    15898.554   -7541.7819    35549.222    19688.222    30033.939    44904.643     1794.752    83.138557 
   86000    1536.3446   -109.03007    1.3901169   -107.63995    3767.7196    4.3657954    4.3657954    4.3657954    3767.7196   -3945.8662   -30577.557    45826.582   -105053.34   -7073.7618   -9463.7949    83.212802 
   86100     2112.815   -109.53623    1.9117194   -107.62451   -22779.603    4.3820709    4.3820709    4.3820709   -22779.603   -38766.611     -8798.33   -20773.868    34981.087    15022.901   -26006.942    84.146916 
   86200    1474.0173    -108.9707    1.3337218   -107.63697   -16722.618    4.3817713    4.3817713    4.3817713   -16722.618   -51011.399   -1200.0144    2043.5593    5362.7103     39705.13    10753.059    84.129654 
   86300    2418.0266   -109.80399    2.1878812   -107.61611    2282.8704    4.3776376    4.3776376    4.3776376    2282.8704     12748.27     -17119.3    11219.641   -59707.212   -15256.458   -16987.001    83.891783 
   86400    1286.0159   -108.79596    1.1636142   -107.63234   -10790.431    4.3713641    4.3713641    4.3713641   -10790.431   -33778.593    26686.234   -25278.936    53844.178    25519.675   -20296.276    83.531625 
   86500    2191.3841    -109.6164    1.9828103   -107.63359    13102.836    4.3734977    4.3734977    4.3734977    13102.836    28635.231   -1296.5576    11969.834    17748.723    14769.538    9559.5135    83.654001 
   86600    2240.1201   -109.65113    2.0269078   -107.62423    7499.3178    4.3788434    4.3788434    4.3788434    7499.3178     60305.76   -19881.967    -17925.84   -9007.3005   -4900.2745   -16171.176    83.961123 
   86700    1599.0036   -109.08148     1.446812   -107.63466   -12602.611    4.3818167    4.3818167    4.3818167   -12602.611   -42021.462    8178.3614   -3964.7332    48594.651    26372.667   -1388.6201    84.132274 
   86800    1650.9951   -109.11828    1.4938551   -107.62442   -11876.068    4.3807825    4.3807825    4.3807825   -11876.068    27067.048   -52561.775   -10133.477   -41969.846   -4312.9963    34531.569    84.072715 
   86900    1982.0062   -109.41894    1.7933609   -107.62558    -619.8768    4.3681442    4.3681442    4.3681442    -619.8768   -4230.7298   -27733.595    30104.694   -24575.673    7682.1415   -25783.396    83.347176 
   87000    2596.0063    -109.9666    2.3489211   -107.61768    15853.509    4.3700331    4.3700331    4.3700331    15853.509    8169.1192    15250.288    24141.119     5289.024   -5637.0455    18731.585    83.455349 
   87100    1191.5126   -108.72239    1.0781056   -107.64429   -12492.531    4.3781412    4.3781412    4.3781412   -12492.531   -4022.8908   -73781.193    40326.492   -61222.076    3854.0307    41893.903    83.920737 
   87200    2505.2109   -109.88525    2.2667675   -107.61848    6281.7457    4.3805426    4.3805426    4.3805426    6281.7457   -8292.2243    19636.435    7501.0267     16593.62   -18569.937   -36692.222    84.058907 
   87300     1214.064   -108.72855    1.0985106   -107.63003   -15116.712    4.3795937    4.3795937    4.3795937   -15116.712     9146.887   -47414.166   -7082.8561    16841.105   -8843.2827    63793.321    84.004292 
   87400    2533.3577   -109.90223    2.2922353   -107.60999     17611.77    4.3748567    4.3748567    4.3748567     17611.77    14990.493    2595.6605    35249.158   -28025.131    13906.553    8856.1286    83.732006 
   87500    1373.0186   -108.87098    1.2423361   -107.62864   -11081.314    4.3752359    4.3752359    4.3752359   -11081.314   -4107.4832    21116.422   -50252.881    26811.599   -15280.774   -8873.6742    83.753779 
   87600    2240.2184   -109.64633    2.0269967   -107.61933    10499.405    4.3777126    4.3777126    4.3777126    10499.405    56313.654   -25944.275    1128.8359    25647.814    8568.1265    43177.931    83.896095 
   87700      1978.19   -109.41337    1.7899079   -107.62346    13109.644    4.3771609    4.3771609    4.3771609    13109.644    66443.792   -5118.4134   -21996.446   -19142.926   -22836.927   -44935.907    83.864379 
   87800    1621.8199   -109.09511    1.4674567   -107.62766   -4588.9387     4.375843     4.375843     4.375843   -4588.9387    15958.983   -5994.3655   -23731.433    40774.028    5340.6358    13223.947    83.788648 
   87900    2178.9289   -109.59384    1.9715407    -107.6223    79.333136     4.371696     4.371696     4.371696    79.333136    22188.056   -52150.348    30200.291    -47123.32     2083.873   -21415.757    83.550655 
   88000    1921.8227   -109.36196    1.7389056   -107.62305      20383.4    4.3711246    4.3711246    4.3711246      20383.4    76263.404   -31564.007    16450.804   -9786.5643   -12087.641   -26008.016    83.517901 
   88100    1950.6715     -109.378    1.7650085   -107.61299   -20102.414    4.3825679    4.3825679    4.3825679   -20102.414   -26773.942   -37942.241    4408.9415   -13216.882    14586.684    26298.938    84.175549 
   88200    1497.0939    -108.9775    1.3546021   -107.62289   -25211.066    4.3815733    4.3815733    4.3815733   -25211.066   -21356.667   -74118.449    19841.917   -62830.444     8657.115   -45949.272    84.118253 
   88300    2336.8745   -109.71815    2.1144531    -107.6037    1465.7124    4.3748548    4.3748548    4.3748548    1465.7124     64688.32   -36400.293    -23890.89    14661.395   -9766.6114    29630.388    83.731896 
   88400    1663.1867   -109.11955    1.5048863   -107.61467   -24818.226    4.3798262    4.3798262    4.3798262   -24818.226    -62809.28    -56468.13    44822.731   -66071.248     18126.59     15901.01    84.017669 
   88500    2344.1572   -109.73172    2.1210427   -107.61068    4867.2086    4.3676453    4.3676453    4.3676453    4867.2086    19114.539   -37062.058    32549.145    18109.783    97.739223   -4045.9661    83.318624 
   88600     1322.146   -108.83042    1.1963055   -107.63412    1580.5175    4.3649513    4.3649513    4.3649513    1580.5175    49650.315    -49010.49    4101.7275   -39715.706    257.90142    48441.777    83.164544 
   88700    2089.9378   -109.51241    1.8910196   -107.62139   -25253.414    4.3868227    4.3868227    4.3868227   -25253.414   -78063.083   -30536.864    32839.704    -26316.69    12794.547   -20847.439    84.420953 
   88800    2047.9086   -109.45765    1.8529907   -107.60466   -5071.0219    4.3849487    4.3849487    4.3849487   -5071.0219    20901.509   -40777.988    4663.4135    33627.886    -7325.155    45208.386    84.312808 
   88900    1470.6915   -108.93588    1.3307126   -107.60517   -16092.699    4.3798837    4.3798837    4.3798837   -16092.699   -20210.166   -49928.097    21860.166   -68184.297    8786.1981   -9923.1989    84.020977 
   89000     2095.329   -109.49966    1.8958977   -107.60376   -15582.508    4.3765741    4.3765741    4.3765741   -15582.508   -49900.327    1117.2909    2035.5114    49201.615   -5880.9077   -2657.8839    83.830655 
   89100    2054.9596   -109.47153    1.8593707   -107.61216    30069.218    4.3604329    4.3604329    4.3604329    30069.218    23530.497   -4931.7185    71608.877   -54667.837    983.44535    18274.101    82.906544 
   89200    1792.8927   -109.25474     1.622247   -107.63249    6207.8242    4.3697334    4.3697334    4.3697334    6207.8242   -13234.637    -8691.912    40550.022   -33227.694     2456.019   -7885.8232    83.438179 
   89300    1763.6444   -109.21755    1.5957825   -107.62177    -7013.349    4.3840098    4.3840098    4.3840098    -7013.349   -49884.972    8572.5949     20272.33   -1384.3735   -5870.3866   -5283.1972    84.258657 
   89400    1325.4118   -108.83381    1.1992605   -107.63454   -1718.3277    4.3825138    4.3825138    4.3825138   -1718.3277   -55988.081    881.93623    49951.162   -86316.456   -4349.5198    6507.9989     84.17243 
   89500    2847.6799   -110.18262    2.5766406   -107.60598    20470.505    4.3775972    4.3775972    4.3775972    20470.505   -4889.5262    54118.707    12182.333     9952.956    419.72557    10486.274    83.889457 
   89600    1331.3212   -108.84108    1.2046074   -107.63647   -10929.988    4.3670875    4.3670875    4.3670875   -10929.988   -79513.088   -30446.569    77169.692   -114463.95   -6925.8387   -8384.3382    83.286704 
   89700    1797.7101   -109.25061    1.6266059     -107.624   -2670.7737    4.3692484    4.3692484    4.3692484   -2670.7737   -12979.403   -13074.434    18041.516    80089.813   -4131.2419    19406.131    83.410402 
   89800    2436.9178   -109.82114    2.2049744   -107.61616   -16209.901    4.3837056    4.3837056    4.3837056   -16209.901   -32918.972   -32775.196    17064.466   -50869.993    5533.9687   -7573.6653    84.241121 
   89900    1762.7498    -109.2119    1.5949731   -107.61693   -4827.2411    4.3866302    4.3866302    4.3866302   -4827.2411   -39252.501   -20826.679    45597.456    21531.628   -11575.633   -203.13161    84.409837 
   90000    1037.5632   -108.57014   0.93880903   -107.63133    1412.3407    4.3810062    4.3810062    4.3810062    1412.3407    -52624.29    27868.362     28992.95    45833.289    15212.389    9941.3951    84.085598 
   90100    3249.7273   -110.53513    2.9404216   -107.59471    12909.633    4.3828221    4.3828221    4.3828221    12909.633   -4455.9819    26759.181    16425.701   -16475.781    7737.2088   -9378.8542    84.190196 
   90200    1527.2787    -109.0271    1.3819138   -107.64519   -1316.5107     4.370156     4.370156     4.370156   -1316.5107   -22401.305   -2931.2936    21383.066    66534.803   -13907.302    3084.9915    83.462391 
   90300    1727.8785   -109.20524    1.5634208   -107.64181    15034.612    4.3637168    4.3637168    4.3637168    15034.612   -22091.397    28982.433    38212.801   -26720.973    15512.342    9825.8607    83.094001 
   90400    1981.9914   -109.43843    1.7933475   -107.64508   -3109.9903    4.3770907    4.3770907    4.3770907   -3109.9903   -34177.366   -13895.769    38743.164    -76592.64   -417.85437   -1080.9142    83.860346 
   90500    2565.1234   -109.95507    2.3209776    -107.6341    10751.448    4.3821839    4.3821839    4.3821839    10751.448   -19290.033    54509.767   -2965.3915    48134.157   -19675.008   -2039.2993    84.153424 
   90600    478.10846   -108.09882   0.43260259   -107.66622   -31158.056    4.3841725    4.3841725    4.3841725   -31158.056   -76192.314   -72204.055    54922.201   -101116.04   -2637.6422    4208.6908    84.268041 
   90700    3009.3727    -110.3348    2.7229437   -107.61186    15040.127    4.3769989    4.3769989    4.3769989    15040.127    4366.9611    38776.571    1976.8485    31090.798    23431.654   -2551.9823     83.85507 
   90800    1763.9005    -109.2135    1.5960143   -107.61748   -8420.4871    4.3822783    4.3822783    4.3822783   -8420.4871   -22963.157   -59605.379    57307.075   -100959.49   -8033.9034   -7344.7475    84.158865 
   90900    1710.8465   -109.15305    1.5480099   -107.60504   -28673.192    4.3872549    4.3872549    4.3872549   -28673.192   -40195.033   -15405.334   -30419.209    26977.312    647.65244    4925.7394    84.445906 
   91000    1875.1529   -109.31216    1.6966777   -107.61548   -4743.1358    4.3768333    4.3768333    4.3768333   -4743.1358   -50580.739   -4737.9314    41089.263     10790.76    13566.136     3288.939    83.845551 
   91100    2867.6316    -110.2019    2.5946933   -107.60721    14524.817    4.3735959    4.3735959    4.3735959    14524.817    10959.685    13402.992    19211.773   -22664.084   -5597.6458   -3817.5191    83.659633 
   91200    759.01087   -108.34204   0.68676899   -107.65527   -33338.564    4.3757738    4.3757738    4.3757738   -33338.564   -100180.47    9874.2763    -9709.501    76306.877     1525.979    2382.2034    83.784675 
   91300     2399.936   -109.79583    2.1715125   -107.62432    16969.027    4.3745583    4.3745583    4.3745583    16969.027   -15096.645    16668.847     49334.88   -9161.0386    2178.3019    -5470.365    83.714874 
   91400    1598.8185   -109.07499    1.4466446   -107.62834   -15000.544    4.3846191    4.3846191    4.3846191   -15000.544    4365.9547   -8709.3778    -40658.21   -17097.857   -4405.6483   -14609.852    84.293795 
   91500    2821.8874   -110.15497     2.553303   -107.60167    6532.1686    4.3823891    4.3823891    4.3823891    6532.1686    -21691.95    52285.119   -10996.664    17528.673   -14757.182    7168.1594    84.165246 
   91600    1216.5801   -108.72676    1.1007872   -107.62597     303.3879    4.3812839    4.3812839    4.3812839     303.3879    24625.152   -26981.501    3266.5134   -61866.063   -2546.7758   -18612.291    84.101588 
   91700    1814.5089    -109.2589    1.6418058   -107.61709   -21738.818    4.3869429    4.3869429    4.3869429   -21738.818    45179.868   -37515.415   -72880.907    16498.986   -16057.499   -2748.2413    84.427893 
   91800    2440.0971   -109.81103    2.2078511   -107.60318    7403.0858    4.3717142    4.3717142    4.3717142    7403.0858    -15072.34    7349.0049    29932.592    12968.251    -3995.603    2013.3786    83.551697 
   91900    1866.2427   -109.30707    1.6886156   -107.61845   -11086.477    4.3693393    4.3693393    4.3693393   -11086.477    60403.808   -29571.513   -64091.725   -31358.941   -270.78468   -25291.019    83.415608 
   92000     1275.629   -108.78866    1.1542159   -107.63444   -24408.427     4.375963     4.375963     4.375963   -24408.427   -34805.619   -49922.053    11502.391    75348.068   -9506.8492     11917.98    83.795543 
   92100    2778.0971   -110.12742    2.5136806   -107.61374    12160.933    4.3751472    4.3751472    4.3751472    12160.933     -23273.8    34074.112    25682.487    24610.254   -11445.733   -2355.2176    83.748685 
   92200    1506.8349   -109.00005    1.3634159   -107.63664   -3853.6449    4.3893622    4.3893622    4.3893622   -3853.6449   -26360.049   -735.62103    15534.735    40735.038    2418.7176   -19345.895    84.567649 
   92300    1528.9758   -108.98508    1.3834494   -107.60163   -17716.127    4.4000811    4.4000811    4.4000811   -17716.127   -42541.177   -51561.182    40953.977    36177.964   -5027.3388    4927.4167    85.188713 
   92400    2190.0735   -109.54998    1.9816245   -107.56835     3620.683    4.3889026    4.3889026    4.3889026     3620.683    11112.959   -18145.437    17894.527   -41253.186    2526.3016   -2332.9609     84.54109 
   92500    1961.9748   -109.34814    1.7752361    -107.5729   -4065.6725    4.3801565    4.3801565    4.3801565   -4065.6725   -13938.237   -33513.318    35254.538    96722.931    5088.0275   -5179.5167    84.036679 
   92600    1792.0705   -109.20276     1.621503   -107.58126    19452.491    4.3714425    4.3714425    4.3714425    19452.491    63172.578   -26635.084    21819.979   -76050.733   -2920.7504    3536.9246     83.53612 
   92700    1919.3387   -109.34524     1.736658   -107.60858   -8560.4345    4.3754964    4.3754964    4.3754964   -8560.4345    -44003.86   -30372.927    48695.484    24431.914    2021.1517   -1546.0359    83.768741 
   92800    2097.4771   -109.50186    1.8978414   -107.60402    22186.826    4.3791168    4.3791168    4.3791168    22186.826    58012.923    2564.7581    5982.7985    6408.1005     6930.611   -11356.086     83.97685 
   92900    1089.9594   -108.61381   0.98621816   -107.62759   -5115.4146    4.3914376    4.3914376    4.3914376   -5115.4146   -8290.5439   -24248.582    17192.882   -64891.136    5726.2268    8370.3929    84.687661 
   93000     3072.243   -110.33999      2.77983   -107.56016   -19414.428    4.4113427    4.4113427    4.4113427   -19414.428   -9349.0273    -6804.011   -42090.246    23231.437     6135.623   -12615.921    85.844482 
   93100    1042.3774   -108.49877   0.94316495   -107.55561   -35423.581    4.4057781    4.4057781    4.4057781   -35423.581   -17741.911   -86390.931   -2137.9007   -79289.129   -1409.8753   -12543.879     85.52003 
   93200    2848.3953    -110.0997     2.577288   -107.52241    3870.1082    4.3830084    4.3830084    4.3830084    3870.1082   -3260.9698   -2782.0024    17653.297    65795.144    6930.9309    8705.2355    84.200934 
   93300    1105.2753   -108.57887    1.0000763   -107.57879   -23719.878    4.3621198    4.3621198    4.3621198   -23719.878   -27343.116   -55855.303    12038.784   -43546.649   -5069.1913   -25570.446    83.002807 
   93400    2432.9923    -109.7808    2.2014226   -107.57938      33866.1    4.3553095    4.3553095    4.3553095      33866.1    61296.838   -4194.3221    44495.785    -6016.506   -457.33422   -14384.513    82.614648 
   93500    1519.2816   -108.98999    1.3746779   -107.61531    -16650.92    4.3846438    4.3846438    4.3846438    -16650.92    -53704.03   -28934.399    32685.669    64306.018     10533.81    3972.0428    84.295222 
   93600    2150.9177   -109.53104    1.9461955   -107.58485    -26566.05    4.4010488    4.4010488    4.4010488    -26566.05   -25972.025   -47228.426   -6497.7005   -58200.296   -16160.818   -23321.464    85.244927 
   93700    1635.5424   -109.06971    1.4798732   -107.58983    974.41307    4.3824929    4.3824929    4.3824929    974.41307   -36394.303   -25664.296    64981.838    72857.444    15271.535    29735.217     84.17123 
   93800    2054.3284   -109.44183    1.8587995   -107.58303    11132.713     4.367497     4.367497     4.367497    11132.713   -28510.234    25499.543     36408.83   -22650.586   -18116.315   -13501.004    83.310135 
   93900    2276.2425   -109.64822    2.0595921   -107.58863    21687.033    4.3687833    4.3687833    4.3687833    21687.033    19569.464    1587.1308    43904.505    26897.628    5066.6813    17241.419    83.383765 
   94000    892.05837   -108.44267   0.80715316   -107.63552   -9821.0075    4.3810733    4.3810733    4.3810733   -9821.0075   -51871.859    4991.6606    17417.176    55918.676    7760.8623    29811.996    84.089459 
   94100    3107.4867   -110.39907    2.8117193   -107.58735    6280.0202    4.3947692    4.3947692    4.3947692    6280.0202    4215.2314    22339.713   -7714.8837   -19968.922   -2513.6415   -25726.905    84.880553 
   94200    1007.3366   -108.52509   0.91145932   -107.61363   -26319.726    4.3894343    4.3894343    4.3894343   -26319.726   -31991.288   -54845.855     7877.965    59414.275    1283.4552    1397.5014    84.571817 
   94300    2866.0789   -110.15826    2.5932884   -107.56497   -2482.1785    4.3773024    4.3773024    4.3773024   -2482.1785    8026.2812    2430.3401   -17903.157   -12771.554      9652.04   -4083.8065    83.872512 
   94400    1094.0452   -108.58612   0.98991513   -107.59621   -38822.331    4.3775121    4.3775121    4.3775121   -38822.331    -35656.54   -99781.476    18971.023   -10044.372   -5473.0705   -43806.181    83.884565 
   94500    2777.6115   -110.08949    2.5132413   -107.57624    21273.496    4.3743781    4.3743781    4.3743781    21273.496    18145.139    34935.066    10740.283    51595.497    2365.2182    4706.5803    83.704526 
   94600    1263.4568   -108.74637    1.1432023   -107.60317   -25285.751    4.3877403    4.3877403    4.3877403   -25285.751    38502.972   -78407.848   -35952.377   -66434.057    -4715.329   -18546.942    84.473941 
   94700    2217.9661   -109.60339    2.0068623   -107.59653     6235.983    4.3858436    4.3858436    4.3858436     6235.983     23174.93    11348.253   -15815.234    14067.381    65.666412   -22055.593    84.364441 
   94800    1664.2231   -109.10636    1.5058241   -107.60054      3840.08    4.3814694    4.3814694    4.3814694      3840.08    65949.771   -18292.675   -36136.856   -24715.595    3406.9968    33725.876    84.112269 
   94900    1289.0614   -108.77602    1.1663699   -107.60965    -16072.94    4.3844915    4.3844915    4.3844915    -16072.94    51389.529   -65760.151     -33848.2    -38004.31   -1766.1501   -26655.371    84.286438 
   95000    2527.7033   -109.86428    2.2871191   -107.57716    6877.8231    4.3855483    4.3855483    4.3855483    6877.8231    16402.208    13553.421   -9322.1593    40515.951   -2439.8236    17786.207    84.347401 
   95100    1426.8741    -108.8992    1.2910657   -107.60813   -12014.579    4.3776063    4.3776063    4.3776063   -12014.579    40511.388   -72031.311   -4523.8144   -47338.651   -10405.668    16377.259    83.889981 
   95200    2304.2736    -109.6783    2.0849552   -107.59335    19190.297     4.366133     4.366133     4.366133    19190.297    2542.3152    23263.053    31765.524    20671.641     27950.16   -10286.577    83.232103 
   95300    1265.6071   -108.76955    1.1451479    -107.6244   -8217.5008    4.3783174    4.3783174    4.3783174   -8217.5008    8368.2667   -37477.374    4456.6052    57119.819   -8256.2244    21078.624    83.930872 
   95400    3190.8878   -110.47569    2.8871823    -107.5885    1405.0449    4.3902491    4.3902491    4.3902491    1405.0449    12242.721   -18312.559    10284.973   -26955.572    5861.6933    4859.8128    84.618924 
   95500     694.3718   -108.25439    0.6282822   -107.62611    3200.2143    4.3785109    4.3785109    4.3785109    3200.2143   -24939.762   -34046.451    68586.856    100634.45    8490.0559   -4401.2826    83.941999 
   95600    2722.1444    -110.0547    2.4630535   -107.59165    10083.592    4.3785459    4.3785459    4.3785459    10083.592    24944.058   -4563.8716    9870.5901   -31418.285   -12383.904    13225.325    83.944012 
   95700    1368.9221   -108.85581    1.2386294   -107.61718    3357.0458    4.3710997    4.3710997    4.3710997    3357.0458    12217.599   -55787.551     53641.09    43092.138    3313.2612   -5518.5144    83.516471 
   95800    2020.6507   -109.45044    1.8283272   -107.62211    15763.059    4.3719207    4.3719207    4.3719207    15763.059    50196.366   -9318.3176    6411.1279    34422.388     5604.429   -7677.5339     83.56354 
   95900    2126.6395   -109.52356    1.9242281   -107.59933    6724.2452    4.3830401    4.3830401    4.3830401    6724.2452    60617.027   -80874.806    40430.514    198.54924   -3766.0841     226.9263    84.202764 
   96000    1030.4929   -108.55688   0.93241163   -107.62447   -16522.947    4.3947967    4.3947967    4.3947967   -16522.947    26665.177    -108596.3    32362.277    43652.465    7205.8688   -3549.2347    84.882152 
   96100    3331.9385   -110.59877     3.014808   -107.58396      23559.3     4.384918     4.384918     4.384918      23559.3    80538.343   -25424.655    15564.213   -5922.0064    2539.5571   -827.26666    84.311039 
   96200    473.95387   -108.04563   0.42884342   -107.61679    11919.285    4.3637596    4.3637596    4.3637596    11919.285    12757.525   -102014.17     125014.5    60616.981   -689.02057    15828.018    83.096449 
   96300    2950.6314   -110.24538    2.6697933   -107.57558    20118.383    4.3747146    4.3747146    4.3747146    20118.383    48949.337    -25289.04    36694.853    -29777.54   -558.95459   -8448.5968    83.723846 
   96400    1132.0954   -108.63362    1.0243437   -107.60928    5669.4589     4.382078     4.382078     4.382078    5669.4589    10748.538   -44841.426    51101.264    65013.528    14614.527   -6.1758726    84.147323 
   96500    2535.9369   -109.86983     2.294569   -107.57526    1614.6239    4.4007492    4.4007492    4.4007492    1614.6239   -20371.366   -20435.068    45650.306   -9388.6583   -6289.5506    6007.4032    85.227522 
   96600      1345.96   -108.81066    1.2178529   -107.59281   -11224.743    4.3919806    4.3919806    4.3919806   -11224.743   -4673.7216    -5245.346    -23755.16    44140.155    26943.236   -27105.785     84.71908 
   96700    1936.0368   -109.32892    1.7517668   -107.57716    35329.187    4.3725942    4.3725942    4.3725942    35329.187      13709.4    28874.967    63403.193    51418.158   -6642.3426    10313.829    83.602164 
   96800    2125.5929   -109.49491    1.9232811   -107.57163    11930.057    4.3810299    4.3810299    4.3810299    11930.057    7694.6478   -13875.985    41971.509   -8785.3438    14306.142   -17374.452    84.086962 
   96900    1489.0043    -108.9288    1.3472824   -107.58151    16528.582    4.3946745    4.3946745    4.3946745    16528.582    10049.682    4282.1757    35253.888    59332.661     29487.33   -3021.6375    84.875072 
   97000    2072.2912   -109.42199    1.8750526   -107.54694   -17175.185    4.4084248    4.4084248    4.4084248   -17175.185   -11363.818   -29442.889   -10718.849    -29491.94   -12532.708    24239.066    85.674249 
   97100    1263.1081   -108.71332    1.1428868   -107.57043   -14685.822    4.3861828    4.3861828    4.3861828   -14685.822   -29401.969   -16617.581    1962.0829    57043.185    23639.809   -21726.179    84.384016 
   97200     2346.042   -109.66462    2.1227481   -107.54188    22979.077    4.3658535    4.3658535    4.3658535    22979.077    33917.569    48145.965   -13126.304   -21854.782    10244.836    34792.145    83.216121 
   97300     1069.147    -108.5643   0.96738666   -107.59691   -32635.375    4.3749109    4.3749109    4.3749109   -32635.375   -9324.5185   -73009.401   -15572.205   -288.05013   -11271.027   -649.53123    83.735119 
   97400    3282.3028   -110.54541    2.9698965   -107.57551    16674.285    4.3788772    4.3788772    4.3788772    16674.285    32437.133    27035.982   -9450.2591    15645.047    13755.872    5602.6784    83.963067 
   97500    725.84551    -108.2804   0.65676028   -107.62364   -18772.661    4.3895469    4.3895469    4.3895469   -18772.661    49258.396   -60335.438   -45240.942   -29586.408   -7333.8855    44422.296    84.578328 
   97600    2928.4826   -110.22345    2.6497526   -107.57369    2425.1702    4.3884366    4.3884366    4.3884366    2425.1702    3217.9096    20312.724   -16255.123    20513.757    5610.2907   -28820.915    84.514162 
   97700    935.80795    -108.4445    0.8467387   -107.59776    7961.8221    4.3789058    4.3789058    4.3789058    7961.8221    32432.087   -20886.632    12340.011   -29073.168    17855.149    62173.424    83.964715 
   97800    2561.0302   -109.89301     2.317274   -107.57573    4235.0849    4.3853681    4.3853681    4.3853681    4235.0849    43079.071   -29654.753    -719.0639    -4676.518   -1705.7825   -18553.026       84.337 
   97900    1921.7491   -109.32798     1.738839   -107.58914    14187.671    4.3811082    4.3811082    4.3811082    14187.671    31760.953    16583.005   -5780.9437    5026.6508    30055.452    41336.687    84.091469 
   98000    1450.4038   -108.91134    1.3123559   -107.59898    22607.608    4.3807625    4.3807625    4.3807625    22607.608     41652.43    -22060.07    48230.463   -27072.515    9886.2901    26131.454    84.071566 
   98100    2500.2615   -109.83822    2.2622892   -107.57593    10777.217    4.3829268    4.3829268    4.3829268    10777.217    41015.878    16416.411   -25100.639    15083.101   -27437.134   -4549.5971    84.196229 
   98200     1405.495   -108.86811    1.2717214   -107.59639    24713.657    4.3740477    4.3740477    4.3740477    24713.657    43061.111    6825.3773    24254.482    -42558.19    10994.089    51851.105    83.685563 
   98300    2374.6269    -109.7219    2.1486124   -107.57329    1266.0299    4.3857465    4.3857465    4.3857465    1266.0299    58.363465    26382.058   -22642.332   -18107.129   -23352.088    -18341.44    84.358833 
   98400    1540.8963   -108.99062    1.3942354   -107.59638   -27401.655    4.3810232    4.3810232    4.3810232   -27401.655    15247.538   -24530.346   -72922.156    8604.9803   -19977.061     34687.42    84.086572 
   98500    2654.8458   -109.98296    2.4021603    -107.5808    23049.124    4.3700385    4.3700385    4.3700385    23049.124    13605.356    20315.644    35226.374   -36065.988    2318.4405    7667.7749    83.455659 
   98600    1047.2599   -108.56389   0.94758276   -107.61631    -34658.59    4.3786216    4.3786216    4.3786216    -34658.59   -42346.499    2890.3733   -64519.644    14565.256   -40534.362   -11153.756    83.948364 
   98700    2531.4066   -109.89036    2.2904699   -107.59989     7885.012    4.3755326    4.3755326    4.3755326     7885.012   -531.15183   -16230.726    40416.913    14921.029    8625.3463    10250.429     83.77082 
   98800    1317.1071   -108.79726    1.1917461   -107.60552    -34658.33    4.3884308    4.3884308    4.3884308    -34658.33   -91041.344    61734.199   -74667.844   -10921.997    -53207.43   -884.24149    84.513829 
   98900    2187.3702   -109.56478    1.9791785    -107.5856   -17015.151    4.3928581    4.3928581    4.3928581   -17015.151   -32750.752   -13119.668   -5175.0342    10842.998    13479.757   -10329.235    84.769871 
   99000    2144.4343   -109.52639    1.9403293   -107.58606   -4756.8899    4.3847568    4.3847568    4.3847568   -4756.8899   -40420.489    32032.299   -5882.4792    -2645.468   -41048.703    10875.088     84.30174 
   99100    960.20896   -108.47608   0.86881725   -107.60727   -20745.419     4.380449     4.380449     4.380449   -20745.419   -79651.495    68571.843   -51156.606   -19616.671    -16499.04   -11731.612    84.053514 
   99200    2695.7346   -110.01519    2.4391573   -107.57603    31252.388    4.3744131    4.3744131    4.3744131    31252.388    35219.652    35346.381    23191.132    7233.9421    4281.5162     16067.77    83.706537 
   99300    1101.9056   -108.61026   0.99702731   -107.61323   -19767.669    4.3843981    4.3843981    4.3843981   -19767.669   -12948.827     45569.33   -91923.511   -6729.8954   -57689.693    9454.5438     84.28105 
   99400    3033.7264   -110.31822    2.7449794   -107.57324    35112.979    4.3787025    4.3787025    4.3787025    35112.979   -183.86667    66505.521    39017.283   -1949.1346    28350.792   -12220.322     83.95302 
   99500    529.61659   -108.09708   0.47920822   -107.61788   -14329.952    4.3825663    4.3825663    4.3825663   -14329.952    21828.907    7114.5834   -71933.346    15463.974   -76310.694    36859.848    84.175459 
   99600    2857.6048   -110.16398    2.5856208   -107.57836    3212.2729    4.3897992    4.3897992    4.3897992    3212.2729   -2534.7502    15056.324   -2884.7554   -12861.291   -8528.6089   -29337.248     84.59291 
   99700    1075.5764    -108.5612   0.97320409   -107.58799    9121.7331    4.3873708    4.3873708    4.3873708    9121.7331   -15076.173    27398.295    15043.077    1259.8443   -14414.805    45868.764    84.452598 
   99800    2291.5439    -109.6428    2.0734371   -107.56936   -7255.5803    4.3924178    4.3924178    4.3924178   -7255.5803   -29863.351    14987.565   -6890.9545     7735.815    -39991.28    1893.3143    84.744382 
   99900     2061.364   -109.43077    1.8651655    -107.5656    3152.7018    4.3840369    4.3840369    4.3840369    3152.7018   -11308.848   -24725.894    45492.848   -17836.363    16847.358   -3621.9446     84.26022 
  100000    1653.7664   -109.07237    1.4963626   -107.57601    9515.9056    4.3797255    4.3797255    4.3797255    9515.9056    15531.182    37326.594   -24310.059    23642.524    -34141.28      43510.5    84.011873 
Loop time of 21.7259 on 1 procs for 100000 steps with 8 atoms

Pair  time (%) = 6.42295 (29.5636)
Kspce time (%) = 5.37586 (24.744)
Neigh time (%) = 0.250753 (1.15417)
Comm  time (%) = 0.938109 (4.31793)
Outpt time (%) = 0.0256226 (0.117936)
Other time (%) = 8.7126 (40.1024)

Nlocal:    8 ave 8 max 8 min
Histogram: 1 0 0 0 0 0 0 0 0 0
Nghost:    1906 ave 1906 max 1906 min
Histogram: 1 0 0 0 0 0 0 0 0 0
Neighs:    2058 ave 2058 max 2058 min
Histogram: 1 0 0 0 0 0 0 0 0 0

Total # of neighbors = 2058
Ave neighs/atom = 257.25
Neighbor list builds = 3194
Dangerous builds = 0
unfix 20
unfix 21
print "seeds:8621133"
seeds:8621133
