LAMMPS (10 Feb 2015)
# ---- initialize simulations
clear
units metal
dimension 3
boundary p p p
atom_style charge
atom_modify map array
# ---- create atoms
read_data /Users/eugeneragasa/pyflamestk_git/pypospack/tests/tests_integration/workflow/WorkflowLammpsThermalExpansion/param_1256/MgO_NaCl_unit.npt.T300/lammps.structure
  triclinic box = (0 0 0) to (4.2565 4.2565 4.2565) with tilt (0 0 0)
  1 by 1 by 1 MPI processor grid
  reading atoms ...
  8 atoms
# ---- define interatomic potential
include potential.mod
mass 1 24.305
mass 2 15.999

group Mg type 1
4 atoms in group Mg
group O type 2
4 atoms in group O

set group Mg charge 1.66039996869
  4 settings made for charge
set group O charge -1.66039996869
  4 settings made for charge

variable R_cut equal 10.0

pair_style buck/coul/long ${R_cut}
pair_style buck/coul/long 10
pair_coeff 1 1 0.0 0.5 0.0 ${R_cut}
pair_coeff 1 1 0.0 0.5 0.0 10
pair_coeff 1 2 1528.2261267 0.282600919639 0.0 ${R_cut}
pair_coeff 1 2 1528.2261267 0.282600919639 0.0 10
pair_coeff 2 2 6677.06285722 0.138925130231 8.13419383626 ${R_cut}
pair_coeff 2 2 6677.06285722 0.138925130231 8.13419383626 10

kspace_style pppm 1.0e-5

neighbor 1.0 bin
neigh_modify every 1 delay 0 check yes
# ---- define settings
compute eng all pe/atom
compute eatoms all reduce sum c_eng
# ---- run minimization
reset_timestep 0
fix 1 all box/relax iso 0.0 vmax 0.001
thermo 10
thermo_style custom step pe lx ly lz xy xz yz press pxx pyy pzz pxy pxz pyz c_eatoms
min_style cg
minimize 1e-25 1e-25 5000 10000
PPPM initialization ...
  G vector (1/distance) = 0.352851
  grid = 8 8 8
  stencil order = 5
  estimated absolute RMS force accuracy = 3.9608e-05
  estimated relative force accuracy = 2.75062e-06
  using double precision FFTs
  3d grid and FFT values/proc = 3375 512
Neighbor list info ...
  1 neighbor list requests
  update every 1 steps, delay 0 steps, check yes
  master list distance cutoff = 11
Memory usage per processor = 4.06549 Mbytes
Step PotEng Lx Ly Lz Xy Xz Yz Press Pxx Pyy Pzz Pxy Pxz Pyz eatoms 
       0   -110.92329       4.2565       4.2565       4.2565            0            0            0    120138.29    120138.29    120138.29    120138.29 1.5343687e-10 -1.0407196e-10 -1.3145771e-10   -110.92329 
      10   -111.05478     4.299065     4.299065     4.299065            0            0            0    61836.089    61836.089    61836.089    61836.089 1.0666232e-10 -5.0344756e-11 -1.3613158e-10   -111.05478 
      20   -111.10767      4.34163      4.34163      4.34163            0            0            0    10591.608    10591.608    10591.608    10591.608 -1.2465538e-10 -9.1160209e-12 2.8254225e-10   -111.10767 
      25   -111.10952     4.351169     4.351169     4.351169            0            0            0   -6.6622077   -6.6622077   -6.6622077   -6.6622077 -1.5540302e-10 -3.5403029e-11 3.0098099e-10   -111.10952 
Loop time of 0.0155461 on 1 procs for 25 steps with 8 atoms

Minimization stats:
  Stopping criterion = linesearch alpha is zero
  Energy initial, next-to-last, final = 
        -110.923293971     -111.109518965     -111.109518965
  Force two-norm initial, final = 17.348 0.0010058
  Force max component initial, final = 17.348 0.0010053
  Final line search alpha, max atom move = 0.00777135 7.8125e-06
  Iterations, force evaluations = 25 41

Pair  time (%) = 0.00419521 (26.9857)
Kspce time (%) = 0.00280499 (18.0431)
Neigh time (%) = 0 (0)
Comm  time (%) = 0.000513554 (3.30343)
Outpt time (%) = 6.7234e-05 (0.432482)
Other time (%) = 0.00796509 (51.2353)

Nlocal:    8 ave 8 max 8 min
Histogram: 1 0 0 0 0 0 0 0 0 0
Nghost:    2189 ave 2189 max 2189 min
Histogram: 1 0 0 0 0 0 0 0 0 0
Neighs:    2344 ave 2344 max 2344 min
Histogram: 1 0 0 0 0 0 0 0 0 0

Total # of neighbors = 2344
Ave neighs/atom = 293
Neighbor list builds = 0
Dangerous builds = 0
unfix 1
# ---- define output variables ----
variable natoms equal "count(all)"
variable tot_energy equal "c_eatoms"
variable length_x equal "lx"
variable length_y equal "ly"
variable length_z equal "lz"
variable tilt_xy equal "xy"
variable tilt_xz equal "xz"
variable tilt_yz equal "yz"
variable tot_press equal "press"
variable press_xx equal "pxx"
variable press_yy equal "pyy"
variable press_zz equal "pzz"
variable press_xy equal "pxy"
variable press_xz equal "pxz"
variable press_yz equal "pyz"

# ---- output ----
print "pypospack:output_section:begin"
pypospack:output_section:begin
print "tot_energy = ${tot_energy}"
tot_energy = -111.109518965105
print "num_atoms = ${natoms}"
num_atoms = 8
print "xx = ${length_x}"
xx = 4.35116899821938
print "yy = ${length_y}"
yy = 4.35116899821938
print "zz = ${length_z}"
zz = 4.35116899821938
print "xy = ${tilt_xy}"
xy = 0
print "xz = ${tilt_xz}"
xz = 0
print "yz = ${tilt_yz}"
yz = 0
print "tot_press = ${tot_press}"
tot_press = -6.66220766530753
print "pxx = ${press_xx}"
pxx = -6.66220766529406
print "pyy = ${press_yy}"
pyy = -6.66220766581444
print "pzz = ${press_zz}"
pzz = -6.6622076648141
print "pxy = ${press_xy}"
pxy = -1.55403020158447e-10
print "pxz = ${press_xz}"
pxz = -3.54030294322521e-11
print "pyz = ${press_yz}"
pyz = 3.00980987063428e-10
print "pypospack:output_section:done"
pypospack:output_section:done
print "pypospack:lammps_sim:done"
pypospack:lammps_sim:done
#------------------------------------------------------------------------------
# RUN THERMOSTAT
# running using an NPT Nose-Hoover style thermostat
#------------------------------------------------------------------------------
variable tempdamp equal 0.1
variable pressdamp equal 1.0
# set initial velocities
velocity all create 300 5043869 mom yes dist gaussian loop all
# fix for Nose-Hoover style thermostat
fix 20 all npt temp 300 300 0.1 aniso 0.0 0.0 1.0 drag 1.0 couple xyz
variable boxx equal lx
variable boxy equal ly
variable boxz equal lz
variable boxp equal press
variable boxt equal temp
# calculate averages every 10000 steps
reset_timestep 0
fix 21 all ave/time 10 10 100 v_boxx v_boxy v_boxz v_boxp v_boxt file lattice.out
thermo_style custom step temp pe ke etotal press lx ly lz press pxx pyy pzz pxy pxz pyz vol
thermo_modify flush yes
thermo 100
run 100000
PPPM initialization ...
  G vector (1/distance) = 0.351894
  grid = 8 8 8
  stencil order = 5
  estimated absolute RMS force accuracy = 4.14019e-05
  estimated relative force accuracy = 2.8752e-06
  using double precision FFTs
  3d grid and FFT values/proc = 3375 512
Memory usage per processor = 3.06549 Mbytes
Step Temp PotEng KinEng TotEng Press Lx Ly Lz Press Pxx Pyy Pzz Pxy Pxz Pyz Volume 
       0          300   -111.10953    0.2714463   -110.83809    3510.6886     4.351169     4.351169     4.351169    3510.6886    2695.1489    3056.2168       4780.7    667.59367    2032.4145    34.139174    82.379254 
     100    100.57715   -110.88953  0.091004323   -110.79853   -1.2213331    4.3638125    4.3638125    4.3638125   -1.2213331   -3110.0059   -4000.1024    7106.4443      1073.69   -1101.1323    -554.5835    83.099471 
     200    241.56221   -110.94457   0.21857056     -110.726   -2034.0024    4.3595365    4.3595365    4.3595365   -2034.0024   -3363.5589    -3538.267     799.8186    1471.2798   -2605.7543    715.38241    82.855427 
     300    143.70037   -110.79224   0.13002311   -110.66222    10409.262    4.3598546    4.3598546    4.3598546    10409.262     6617.806    5985.7759    18624.204   -555.88029    -881.8582   -257.25537    82.873565 
     400    261.66647   -110.84921   0.23676132   -110.61245   -10561.233    4.3680289    4.3680289    4.3680289   -10561.233   -6456.7077   -10353.133   -14873.857    1459.0492   -1709.0929   -560.64168    83.340579 
     500    302.48574     -110.854   0.27369546    -110.5803   -38.369237    4.3624459    4.3624459    4.3624459   -38.369237   -5207.2255   -5253.8995    10346.017   -133.72825   -2863.1976    2016.9441     83.02142 
     600    410.18672   -110.93596   0.37114557   -110.56482    5353.7431    4.3632567    4.3632567    4.3632567    5353.7431     1683.469    568.28836    13809.472   -867.61991    1311.4189   -385.94796    83.067721 
     700    295.42032   -110.82978   0.26730251   -110.56248   -8137.9671    4.3704893    4.3704893    4.3704893   -8137.9671   -14866.917   -13987.186     4440.202    3154.0342   -2434.8939   -494.64382    83.481491 
     800     288.2346   -110.82372   0.26080072   -110.56292    5595.9019    4.3591809    4.3591809    4.3591809    5595.9019    4700.1899    6986.4564    5101.0593    1220.8863   -564.85483   -1892.5233    82.835154 
     900    266.97073   -110.80561   0.24156072   -110.56405   -4387.7419     4.368786     4.368786     4.368786   -4387.7419    -6139.076   -5845.1076   -1179.0422    1474.1517    1302.8803    1252.6154    83.383921 
    1000     182.3627    -110.7313    0.1650056    -110.5663   -3212.5618    4.3645357    4.3645357    4.3645357   -3212.5618   -5292.5513   -8813.7763    4468.6423    3582.4397   -1277.4723   -2187.2703    83.140791 
    1100     357.6111   -110.88829   0.32357404   -110.56471    1974.5099    4.3633987    4.3633987    4.3633987    1974.5099   -7518.5074   -3599.6102    17041.647    1874.8278   -1162.7977    2370.6594    83.075833 
    1200    400.80569   -110.92715   0.36265741    -110.5645   -3077.5344    4.3678912    4.3678912    4.3678912   -3077.5344   -5112.1309   -6378.5684    2258.0961   -17.792888   -1926.8191    2463.6892    83.332698 
    1300    305.52361   -110.84188   0.27644418   -110.56543    366.99061    4.3623659    4.3623659    4.3623659    366.99061   -8844.6843   -6251.6993    16197.355    3625.8715    432.70592    730.95497    83.016853 
    1400    275.91436   -110.81441   0.24965311   -110.56476    453.89025     4.368029     4.368029     4.368029    453.89025   -3379.9166   -799.64578    5541.2332   -720.98266    1708.0955   -2233.8773    83.340584 
    1500    248.01841   -110.78869   0.22441227   -110.56428    1871.3034    4.3612692    4.3612692    4.3612692    1871.3034   -1676.0343   -6326.3517    13616.296    486.39585    1879.2992   -26.760957    82.954259 
    1600    230.86332   -110.77436   0.20888998   -110.56547   -9019.4704     4.369575     4.369575     4.369575   -9019.4704   -12280.113   -9758.1308   -5020.1677    3076.6588   -3870.6214   -866.37983    83.429108 
    1700    381.38287   -110.90963   0.34508324   -110.56454    3634.1203      4.36153      4.36153      4.36153    3634.1203   -468.12038   -1898.3133    13268.794   -2532.7826    1410.2552   -2456.2142    82.969142 
    1800    314.17728    -110.8497   0.28427421   -110.56543   -895.06723    4.3670881    4.3670881    4.3670881   -895.06723    -9076.054   -4600.1276     10990.98    2995.0435   -965.19533    3371.9448    83.286738 
    1900    338.43256   -110.87178   0.30622089   -110.56556   -1679.2704     4.365056     4.365056     4.365056   -1679.2704   -4044.2304   -5514.5248    4520.9441   -225.65932   -2119.1391    565.10686    83.170529 
    2000    289.32159   -110.82592   0.26178425   -110.56413    1658.0408    4.3645406    4.3645406    4.3645406    1658.0408    2298.9483    2334.4084    340.76575    1904.3624    1004.7903    558.95486    83.141074 
    2100    219.90726   -110.76437   0.19897671   -110.56539   -1675.5901    4.3654684    4.3654684    4.3654684   -1675.5901   -5937.1242   -12029.868    12940.222    2454.9873   -3038.0094    417.28949    83.194101 
    2200    264.32657   -110.80535   0.23916824   -110.56618   -1966.7925    4.3648421    4.3648421    4.3648421   -1966.7925   -2959.3868   -4341.4883    1400.4976    554.46643   -2695.7147    1165.3984    83.158303 
    2300    303.63449   -110.84049   0.27473486   -110.56576   -346.47152    4.3673372    4.3673372    4.3673372   -346.47152   -7262.4661   -3379.7905     9602.842    1329.5753    1735.2597   -1230.5405    83.300993 
    2400    423.74239   -110.94819   0.38341102   -110.56478    1580.3948     4.359885     4.359885     4.359885    1580.3948   -444.09295   -357.13729    5542.4147   -233.90679     1615.198     781.5007    82.875297 
    2500    254.40015   -110.79605    0.2301866   -110.56587   -2338.6888    4.3730476    4.3730476    4.3730476   -2338.6888   -9968.4504   -2818.2796    5770.6635    1388.0591   -3600.4263   -370.58132    83.628174 
    2600    354.77397   -110.88485   0.32100694   -110.56385    8534.0197    4.3566188    4.3566188    4.3566188    8534.0197    2837.0076   -74.064934    22839.116   -3290.4224   -1013.3641    927.96001    82.689182 
    2700    158.73529   -110.70949   0.14362702   -110.56586   -2667.1842    4.3710862    4.3710862    4.3710862   -2667.1842   -6544.6926   -6571.4964    5114.6363    3091.7463   -969.43355    81.309804    83.515695 
    2800    349.52316   -110.88116    0.3162559   -110.56491   -4994.4852    4.3634796    4.3634796    4.3634796   -4994.4852   -8353.5642   -3680.7985    -2949.093   -2128.5293    -640.7603   -905.50046    83.080451 
    2900    304.52085    -110.8409   0.27553686   -110.56537    7241.8362    4.3625179    4.3625179    4.3625179    7241.8362    -559.8947    9581.0248    12704.378   -124.19872    10.513315   -1764.7431    83.025531 
    3000    347.00242    -110.8795   0.31397508   -110.56553   -3225.5141    4.3697353    4.3697353    4.3697353   -3225.5141   -14438.689   -7508.3433     12270.49    2461.7362   -1228.6268    1512.2277    83.438291 
    3100     308.6611   -110.84414   0.27928305   -110.56486     6422.917    4.3611939    4.3611939    4.3611939     6422.917    -1944.912    9298.7719    11914.891   -1350.4143   -1930.1058    825.57434    82.949959 
    3200    330.14067   -110.86319   0.29871821   -110.56447   -1987.1256    4.3664366    4.3664366    4.3664366   -1987.1256   -4724.7954   -7820.7946    6584.2132     3665.752   -394.58067    1206.2202    83.249469 
    3300    221.40691   -110.76671   0.20033363   -110.56638   -5702.6873    4.3663922    4.3663922    4.3663922   -5702.6873   -6585.9265   -7066.5937   -3455.5419    242.65632   -613.34471   -37.656134    83.246929 
    3400    253.18009   -110.79641   0.22908266   -110.56732    3889.7483    4.3633616    4.3633616    4.3633616    3889.7483   -4787.5842    5412.9734    11043.856    1535.3972   -1538.9365   -2114.2262    83.073715 
    3500    359.11191   -110.89057     0.324932   -110.56564    162.29319    4.3653382    4.3653382    4.3653382    162.29319   -6351.9308    614.37737     6224.433    -1233.639   -572.03129   -1995.6218    83.186661 
    3600    292.78864   -110.82995   0.26492131   -110.56503   -4182.6842    4.3680307    4.3680307    4.3680307   -4182.6842   -13802.526   -442.27922    1696.7524    1020.0875   -5395.1454    2328.7666    83.340684 
    3700    400.99243   -110.92639   0.36282638   -110.56357    2419.0092    4.3612706    4.3612706    4.3612706    2419.0092   -3664.7716    2645.5359    8276.2632   -1361.0509    1181.0043    986.26334    82.954339 
    3800    221.41962   -110.76657   0.20034512   -110.56623   -3119.9822    4.3687516    4.3687516    4.3687516   -3119.9822   -7664.7538    -13997.63    12302.437    437.46414     3517.399   -1838.0268    83.381954 
    3900    296.43933   -110.83482   0.26822453    -110.5666   -2172.0936    4.3637758    4.3637758    4.3637758   -2172.0936   -6006.9985   -5734.2877    5225.0053    3292.5534   -2646.3471    2026.9254    83.097371 
    4000    245.54934   -110.78687    0.2221782    -110.5647    3687.1836    4.3648598    4.3648598    4.3648598    3687.1836   -3902.6551    6458.4695    8505.7362   -1909.3739    519.60812   -767.48108    83.159315 
    4100     368.8991   -110.89697   0.33378766   -110.56318   -7624.5658    4.3664857    4.3664857    4.3664857   -7624.5658   -10736.883   -9635.5638   -2501.2509    4813.9713   -726.96551   -201.66518    83.252278 
    4200    241.98269   -110.78331   0.21895102   -110.56435    5376.4264    4.3650496    4.3650496    4.3650496    5376.4264    -9275.319    6939.4155    18465.183   -423.70724   -442.52326   -771.39871     83.17016 
    4300    412.22903   -110.93682   0.37299349   -110.56382   -5588.1929    4.3645525    4.3645525    4.3645525   -5588.1929   -6964.6548   -13835.624    4035.7006    1081.6258   -890.79396    4997.0666    83.141749 
    4400    229.67995   -110.77303   0.20781925   -110.56521    1152.3237    4.3650079    4.3650079    4.3650079    1152.3237   -1790.1635   -9085.0096    14332.144    2746.6195    973.82587   -2187.9062     83.16778 
    4500    320.66208   -110.85474   0.29014179    -110.5646    -5907.379    4.3682728    4.3682728    4.3682728    -5907.379   -11389.344   -5269.1165   -1063.6761   -851.00689   -656.44703    2422.8043     83.35454 
    4600    210.55783   -110.75528   0.19051715   -110.56476    8220.5058    4.3592414    4.3592414    4.3592414    8220.5058    4511.3564     5552.342    14597.819    1372.1923   -997.70662    2663.1706    82.838604 
    4700    346.33448   -110.87775   0.31337072   -110.56438   -13755.349    4.3732961    4.3732961    4.3732961   -13755.349   -19366.021   -8711.0314   -13188.994   -280.81363    1099.8258   -1908.4956    83.642431 
    4800    294.51754   -110.83032   0.26648566   -110.56384    7410.6092    4.3585073    4.3585073    4.3585073    7410.6092     1392.538    5964.0797     14875.21    192.21345   -1024.8741    878.97024    82.796759 
    4900    372.22817   -110.90082   0.33679987   -110.56402   -6172.3287    4.3682707    4.3682707    4.3682707   -6172.3287   -8709.6873   -14011.743    4204.4438    281.71491    -1097.211    808.55442     83.35442 
    5000    240.06009   -110.78297   0.21721142   -110.56576     3140.052    4.3665558    4.3665558    4.3665558     3140.052   -5624.8271   -6789.1986    21834.182    2391.7217     -3563.81    3743.8834    83.256288 
    5100    308.89603   -110.84553   0.27949562   -110.56603    2683.5336    4.3611019    4.3611019    4.3611019    2683.5336      2421.53    7137.5688   -1508.4982    -281.4745    610.23884   -1701.8726    82.944713 
    5200    296.97346   -110.83473   0.26870782   -110.56602    -6379.006    4.3704722    4.3704722    4.3704722    -6379.006    -11707.92   -7011.6697   -417.42854    1348.9075    317.69667    2325.7898    83.480511 
    5300    263.21902   -110.80337    0.2381661    -110.5652    9382.3999    4.3607591    4.3607591    4.3607591    9382.3999    1126.3483    13494.097    13526.754    1367.4893   -1325.2647   -3814.4669    82.925154 
    5400     316.5518   -110.85108   0.28642272   -110.56466   -1794.0291     4.367432     4.367432     4.367432   -1794.0291   -10833.572   -10122.455    15573.939   -1258.4626   -991.48676     2489.857    83.306418 
    5500    342.44675   -110.87407   0.30985302   -110.56421    107.37201    4.3650885    4.3650885    4.3650885    107.37201   -854.34478   -154.47787    1330.9387    906.87663   -327.92755    161.97368    83.172387 
    5600    306.12592   -110.84201   0.27698917   -110.56502    1356.7793    4.3652282    4.3652282    4.3652282    1356.7793   -4491.2088   -6498.5593    15060.106     785.0923   -288.62364    1997.9388    83.180371 
    5700    292.72455   -110.83071   0.26486332   -110.56585    -221.5697    4.3650692    4.3650692    4.3650692    -221.5697   -5235.7329    9956.2079   -5385.1842   -1036.7768   -272.32643   -624.61337    83.171284 
    5800    234.51973   -110.77837   0.21219838   -110.56617     3534.687    4.3654327    4.3654327    4.3654327     3534.687   -4646.6093   -6491.0983    21741.769   -1582.6507    1170.3037    94.240872    83.192065 
    5900     350.3101   -110.88201   0.31696794   -110.56505   -5396.1001    4.3657579    4.3657579    4.3657579   -5396.1001   -10074.814    1933.5696   -8047.0563   -157.82786   -2510.3046   -1837.0209    83.210655 
    6000    260.31941   -110.80065   0.23554247   -110.56511   -573.77336    4.3644691    4.3644691    4.3644691   -573.77336   -5910.0013   -7113.2125    11301.894   -1800.8142   -2173.4654   -349.89831    83.136987 
    6100    387.30633   -110.91466   0.35044291   -110.56422   -6722.8884    4.3678104    4.3678104    4.3678104   -6722.8884   -5884.6923   -13664.724   -619.24907    1595.3862    1039.1529     662.7524    83.328075 
    6200    237.75465     -110.782    0.2151254   -110.56687    5909.1852    4.3621666    4.3621666    4.3621666    5909.1852   -7413.2939    7272.2861    17868.563    1248.4685   -710.98519    -3170.998    83.005476 
    6300    294.36632   -110.83373   0.26634883   -110.56738    -2172.353    4.3686689    4.3686689    4.3686689    -2172.353   -6167.0172   -8056.6752    7706.6333   -43.054441    177.71421     2460.024    83.377214 
    6400    317.39405   -110.85284   0.28718481   -110.56566    700.95628    4.3614762    4.3614762    4.3614762    700.95628   -5922.1103    3701.7459    4323.2332    1163.0408   -1732.9722   -579.25814    82.966069 
    6500    292.54088   -110.82996   0.26469714   -110.56526   -11859.001    4.3711272    4.3711272    4.3711272   -11859.001   -14537.347   -11397.097   -9642.5589   -1246.6432   -293.67271   -773.55241     83.51805 
    6600    238.55292   -110.78035    0.2158477    -110.5645    8507.4278    4.3598497    4.3598497    4.3598497    8507.4278   -138.04367   -2281.1053    27941.432    -1533.899    354.54507   -1724.5001    82.873282 
    6700    412.14425   -110.93753   0.37291678   -110.56461   -9974.4445    4.3698878    4.3698878    4.3698878   -9974.4445   -10484.629   -14003.487   -5435.2169    202.89658    -640.9342   -2051.2783    83.447026 
    6800    205.62685   -110.75408    0.1860555   -110.56803    9923.9073     4.363199     4.363199     4.363199    9923.9073   -2630.6172    11495.426    20906.913   -1392.4323   -550.87246   -309.60973    83.064424 
    6900    396.37489   -110.92572   0.35864833   -110.56707   -5448.8456    4.3650452    4.3650452    4.3650452   -5448.8456   -8109.3403   -5766.0478   -2471.1486   -811.64699    726.68014    4125.4355    83.169912 
    7000    213.21723   -110.76022   0.19292343    -110.5673    -1936.331    4.3695824    4.3695824    4.3695824    -1936.331   -9690.3256   -2319.8416    6201.1744    512.80665    816.55155   -679.50882    83.429528 
    7100    352.48683   -110.88314   0.31893749    -110.5642   -871.30965    4.3605602    4.3605602    4.3605602   -871.30965   -5831.7518    791.11005    2426.7128   -1789.2836   -832.17895   -2631.1556    82.913805 
    7200    246.17456    -110.7871   0.22274391   -110.56436   -1856.9291    4.3695862    4.3695862    4.3695862   -1856.9291   -5935.0822   -10389.714    10754.009    2078.0756    2081.3346    1901.4884    83.429749 
    7300    342.98007   -110.87527   0.31033558   -110.56493     2791.064    4.3634439    4.3634439    4.3634439     2791.064   -2652.6592    7078.3358    3947.5155    1949.9849   -3624.3791    1151.1519    83.078411 
    7400    270.15581   -110.81097   0.24444265   -110.56653    3477.8895    4.3654472    4.3654472    4.3654472    3477.8895   -4317.0393    622.91048    14127.797   -49.783042   -2157.3395   -447.73738    83.192891 
    7500    364.67966   -110.89475   0.32996982   -110.56478   -3891.2649    4.3663098    4.3663098    4.3663098   -3891.2649   -4538.6365   -2273.0743   -4862.0838    -72.67831    9.4061722    2467.9724     83.24222 
    7600    265.07203   -110.80461   0.23984274   -110.56477    162.94593    4.3671868    4.3671868    4.3671868    162.94593    -9898.576   -1865.4385    12252.852   -640.17145    1062.6927   -1980.6649    83.292386 
    7700     309.9586   -110.84441   0.28045706   -110.56395    2548.2383    4.3608109    4.3608109    4.3608109    2548.2383    481.52261    3144.1273    4019.0649   -1153.3802   -2163.6249   -2089.1297    82.928109 
    7800    235.22576   -110.77768   0.21283721   -110.56484   -2813.2101    4.3724421    4.3724421    4.3724421   -2813.2101   -9792.4961   -9373.2988    10726.165   -504.82169    689.12584    3516.0987    83.593438 
    7900    352.53182   -110.88443    0.3189782   -110.56545    8729.5869    4.3581111    4.3581111    4.3581111    8729.5869    3614.3322    15049.467    7524.9612    1026.7159    432.91694    1097.6429    82.774183 
    8000    284.64991   -110.82466   0.25755722    -110.5671   -3404.0176    4.3714526    4.3714526    4.3714526   -3404.0176   -10368.003   -8778.4249    8934.3754   -1628.3461    1313.6006   -1658.7289    83.536698 
    8100     355.0198   -110.88697   0.32122938   -110.56574    2562.8647    4.3628496    4.3628496    4.3628496    2562.8647   -4835.3692   -1206.3571     13730.32    1188.7299   -169.44209    1343.2997    83.044469 
    8200    264.50877    -110.8041   0.23933309   -110.56477    370.11861     4.364838     4.364838     4.364838    370.11861     -5966.81   -2487.6367    9564.8026   -1421.8886    222.92455    1009.7778     83.15807 
    8300    286.79847   -110.82372   0.25950128   -110.56422   -9267.9137     4.369598     4.369598     4.369598   -9267.9137   -10945.772   -7136.1108   -9721.8584    643.40514    453.07705    -2865.291    83.430426 
    8400    276.70511   -110.81405    0.2503686   -110.56368    7876.7764     4.361219     4.361219     4.361219    7876.7764    2992.2382    3140.0863    17498.005    2025.8027   -1462.6756    521.07691    82.951394 
    8500    291.97627    -110.8291   0.26418626   -110.56492    -5263.883    4.3705785    4.3705785    4.3705785    -5263.883   -10550.344   -3512.3974    -1728.907    425.52464     737.0613   -1369.3164    83.486599 
    8600    292.40704   -110.82928   0.26457604   -110.56471    4184.6626    4.3607171    4.3607171    4.3607171    4184.6626   -2125.4692   -6170.4647    20849.922    304.91112    41.179767    256.41636    82.922758 
    8700    407.40097   -110.93227   0.36862496   -110.56365   -9339.6958    4.3706113    4.3706113    4.3706113   -9339.6958   -10764.703   -12294.863   -4959.5208   -1781.0544    583.69168    940.13103    83.488482 
    8800    212.62011   -110.75743   0.19238314   -110.56504    1657.9724    4.3616217    4.3616217    4.3616217    1657.9724   -6566.1625   -2185.1055    13725.185   -563.91157   -1905.8982   -1677.1112    82.974373 
    8900    342.56449   -110.87394   0.30995955   -110.56398   -7693.9385    4.3687355    4.3687355    4.3687355   -7693.9385    -5889.358   -10280.554   -6911.9034   -3049.4903    1056.1709    721.26306    83.381032 
    9000     211.6083    -110.7557   0.19146764   -110.56423    7066.4386    4.3650648    4.3650648    4.3650648    7066.4386   -1979.5393     121.6991    23057.156    1490.9161    168.85128   -5036.7614    83.171032 
    9100    326.27662   -110.85985   0.29522195   -110.56463   -5131.9644    4.3642779    4.3642779    4.3642779   -5131.9644   -6852.5116   -4030.8225   -4512.5592   -2604.5437   -3109.4745   -12.369795    83.126058 
    9200    312.34218   -110.84734   0.28261377   -110.56473    1232.3324    4.3681154    4.3681154    4.3681154    1232.3324   -6313.2306   -11359.014    21369.242   -616.15868    522.82866    -875.9734    83.345532 
    9300    396.29604   -110.92238   0.35857698    -110.5638   -4641.5951    4.3638808    4.3638808    4.3638808   -4641.5951   -7262.9977   -4944.4351   -1717.3526    364.33165    1095.1385    1115.9667    83.103371 
    9400    208.44743    -110.7538   0.18860761   -110.56519   -652.80311    4.3664793    4.3664793    4.3664793   -652.80311   -8163.4064   -7115.1804    13320.177   -2848.0956   -1212.1286   -342.35447    83.251913 
    9500    337.39058   -110.86854   0.30527808   -110.56326   -541.05084    4.3660568    4.3660568    4.3660568   -541.05084   -175.51307     -5581.98    4134.3405    3256.3921    1049.4272   -1764.7101    83.227749 
    9600    210.87699   -110.75588   0.19080593   -110.56507    1816.0285    4.3651222    4.3651222    4.3651222    1816.0285   -4090.0006    4796.1829    4741.9033   -1292.0264    1248.7711    2875.0727     83.17431 
    9700     291.8069   -110.82979   0.26403302   -110.56576    618.70411    4.3647278    4.3647278    4.3647278    618.70411   -3485.7461   -6237.7038    11579.562     835.2154   -2812.4872   -2366.3314     83.15177 
    9800     409.5192   -110.93505   0.37054158    -110.5645    -4148.266    4.3683686    4.3683686    4.3683686    -4148.266   -8370.1516   -5299.4757    1224.8292    -1399.452   -876.38603    620.60648    83.360026 
    9900     303.1267   -110.83982   0.27427541   -110.56555    2534.8585    4.3634001    4.3634001    4.3634001    2534.8585   -4375.9956   -5665.9573    17646.529   -2575.6671    1141.5115   -473.19644    83.075914 
   10000    315.43144   -110.85053   0.28540899   -110.56512   -5361.3697    4.3674721    4.3674721    4.3674721   -5361.3697   -5950.3627   -3193.1093   -6940.6371   -1661.9355   -1284.3741    865.77013    83.308714 
   10100    234.25158   -110.77643   0.21195576   -110.56448    4091.1101    4.3646176    4.3646176    4.3646176    4091.1101      3829.92   -1656.9938    10100.404     225.5473    4.3862896   -1406.5139    83.145473 
   10200    277.68444    -110.8165   0.25125472   -110.56525   -18.773258    4.3656143    4.3656143    4.3656143   -18.773258   -2142.2595    6449.9451   -4364.0053    879.19555    2736.0291    963.72324    83.202444 
   10300    249.70295   -110.79157   0.22593648   -110.56563    2098.7662    4.3661553    4.3661553    4.3661553    2098.7662   -570.59124   -7718.6431    14585.533   -1535.4201    -735.4797   -2007.6087     83.23338 
   10400    449.40264   -110.97063   0.40662895     -110.564   -1419.6684    4.3656069    4.3656069    4.3656069   -1419.6684   -5435.5935   -2811.5503    3988.1388     2650.671    -1076.765   -1299.4585     83.20202 
   10500    275.44474   -110.81444   0.24922819   -110.56521    2392.7999     4.364881     4.364881     4.364881    2392.7999   -750.12706   -582.19297    8510.7198   -2440.3845   -637.47807    2196.3903    83.160524 
   10600    307.78889    -110.8428   0.27849386    -110.5643    -5328.864    4.3669976    4.3669976    4.3669976    -5328.864   -3024.6833   -6554.3734   -6407.5353    1158.6128    344.09183   -3662.7183    83.281562 
   10700    257.96042   -110.79813   0.23340801   -110.56472    7220.8168    4.3647038    4.3647038    4.3647038    7220.8168    2870.3561    7494.0289    11298.065    577.46841   -488.53569    2497.4785    83.150397 
   10800    202.11209   -110.74866   0.18287527   -110.56579    953.40657    4.3656478    4.3656478    4.3656478    953.40657    1168.5868   -2971.6863    4663.3192   -1221.5531   -87.324516   -1999.0209    83.204361 
   10900    339.80298   -110.87193   0.30746088   -110.56447   -4192.5919    4.3673909    4.3673909    4.3673909   -4192.5919    -10102.91   -6661.9232    4187.0571   -266.91741    1382.8572    2548.5466    83.304066 
   11000    380.19766   -110.90742   0.34401083   -110.56341    5110.8791    4.3632642    4.3632642    4.3632642    5110.8791    3871.7624    -5481.331    16942.206   -2044.9348    355.14489   -287.74782    83.068148 
   11100    341.84317   -110.87468   0.30930688   -110.56538   -8313.0768    4.3674682    4.3674682    4.3674682   -8313.0768   -12859.322   -5143.3724   -6936.5364   -377.59755    206.67641   -913.94571    83.308491 
   11200    221.54464   -110.76629   0.20045825   -110.56583    6249.3559    4.3659955    4.3659955    4.3659955    6249.3559    1775.0256   -7261.0447    24234.087   -1516.6009   -2044.0779    3265.3278    83.224241 
   11300    344.08348   -110.87599   0.31133396   -110.56466   -2026.1227     4.364503     4.364503     4.364503   -2026.1227   -3232.9012    5355.4774   -8200.9442    2064.1658    112.83159    -930.1069     83.13892 
   11400    106.50499   -110.66349  0.096367955   -110.56712    -765.2575    4.3673311    4.3673311    4.3673311    -765.2575   -7522.4948   -10016.076    15242.798   -1955.9417   -1275.3057    1219.4762    83.300645 
   11500    440.96419   -110.96315   0.39899367   -110.56416   -3482.8892    4.3645837    4.3645837    4.3645837   -3482.8892   -4812.6565     -4950.03   -685.98124    716.74228    1037.3463   -2692.0647    83.143536 
   11600    311.56923   -110.84722   0.28191438    -110.5653    1366.4198    4.3661745    4.3661745    4.3661745    1366.4198   -7313.7629     -7069.96    18482.982   -2088.2733    47.136717    4937.2534     83.23448 
   11700    334.69611   -110.86824   0.30284008    -110.5654   -4525.3216    4.3659814    4.3659814    4.3659814   -4525.3216   -7187.1193   -7855.7522    1466.9069   -1379.1136   -411.98043   -1503.9567    83.223438 
   11800    318.59303    -110.8522   0.28826967   -110.56393    524.88036    4.3663545    4.3663545    4.3663545    524.88036   -2670.1314   -2199.9987    6444.7712    2616.7528   -494.86546    1444.0772    83.244776 
   11900    192.71655   -110.73887   0.17437399    -110.5645   -1337.1957    4.3649193    4.3649193    4.3649193   -1337.1957   -947.60475   -1233.7337   -1830.2487   -2919.8193    551.91797    1402.1397    83.162714 
   12000    255.22166   -110.79587   0.23092992   -110.56494    -5153.621    4.3661847    4.3661847    4.3661847    -5153.621   -11365.242    -7544.508     3448.887    341.65415    103.90637   -1875.9027    83.235065 
   12100    345.28651   -110.87614   0.31242249   -110.56372    1157.5348    4.3669097    4.3669097    4.3669097    1157.5348    1743.5407   -5022.1516    6751.2154   -1766.9281   -907.54193    128.11471     83.27653 
   12200    371.01513   -110.90025   0.33570228   -110.56455    -1063.092    4.3639353    4.3639353    4.3639353    -1063.092   -11604.276   -2877.7188    11292.719   -1969.6875    2875.3496   -1364.3943    83.106481 
   12300    324.10597   -110.85869   0.29325789   -110.56543    -2039.878     4.367271     4.367271     4.367271    -2039.878    1458.6453   -5951.7213    -1626.558   -1471.8595   -901.92736    3458.9312    83.297202 
   12400    274.74494    -110.8135     0.248595   -110.56491    2489.4102    4.3655445    4.3655445    4.3655445    2489.4102   -4874.8607     6088.241    6254.8502     1991.638    2101.0228   -1775.4493    83.198456 
   12500     233.9724   -110.77722   0.21170315   -110.56552    779.51353    4.3643356    4.3643356    4.3643356    779.51353   -127.51786   -3863.3056     6329.364    292.90695   -445.73554   -834.09303    83.129355 
   12600    242.53259   -110.78478   0.21944859   -110.56533    295.68904     4.366785     4.366785     4.366785    295.68904   -5190.0009   -37.424713    6114.4928   -734.63989   -170.03624    331.86702    83.269401 
   12700    377.95048    -110.9064   0.34197753   -110.56442   -840.51568    4.3664259    4.3664259    4.3664259   -840.51568   -4438.4441   -7268.4761    9185.3732    1275.5901   -1415.6903    183.15707    83.248858 
   12800    353.31315   -110.88499   0.31968517    -110.5653    3351.7039    4.3632832    4.3632832    4.3632832    3351.7039   -1636.7853    3720.9452     7970.952   -2724.3337    101.48886     -537.999    83.069236 
   12900    345.76288    -110.8788   0.31285352   -110.56595    -4236.245    4.3690661    4.3690661    4.3690661    -4236.245   -7520.8584   -7284.9061    2097.0295    1569.2927    1290.6533   -843.92856    83.399959 
   13000    251.02084   -110.79463   0.22712894    -110.5675    10026.305    4.3619681    4.3619681    4.3619681    10026.305    2748.8463    8126.9341    19203.135   -900.21845   -559.52577   -266.30301    82.994145 
   13100    250.32782   -110.79419   0.22650187   -110.56769   -4583.9166    4.3670264    4.3670264    4.3670264   -4583.9166   -4875.0231   -4957.3415   -3919.3853    144.00809   -332.83261    75.999146    83.283209 
   13200    221.27879   -110.76674    0.2002177   -110.56652   -4850.6993    4.3683747    4.3683747    4.3683747   -4850.6993   -7578.3164    -8047.587    1073.8054   -1891.6772    595.22114    177.39261    83.360373 
   13300    377.74416   -110.90584   0.34179085   -110.56404    5883.2569    4.3606449    4.3606449    4.3606449    5883.2569     1636.729     5115.357    10897.685   -429.68195    2410.7501   -2627.6875    82.918641 
   13400    348.93284   -110.88133   0.31572177    -110.5656   -7230.2771    4.3711083    4.3711083    4.3711083   -7230.2771   -9805.1821   -12005.974    120.32503   -314.27652   -1447.4241   -2519.4242    83.516962 
   13500    303.40988   -110.83996   0.27453164   -110.56543    5387.5759     4.363265     4.363265     4.363265    5387.5759   -2760.4206    7030.9774    11892.171    1235.2642    994.81519    553.08782    83.068193 
   13600    314.27266   -110.84837   0.28436051   -110.56401    357.26022    4.3659221    4.3659221    4.3659221    357.26022   -876.10752   -3243.4119    5191.3001    2746.6794   -717.39677    3377.9363    83.220047 
   13700    166.06826   -110.71514   0.15026205   -110.56488   -5817.0625    4.3675427    4.3675427    4.3675427   -5817.0625   -11789.167   -4272.7525   -1389.2679    -2512.374     1415.905   -2209.6722    83.312751 
   13800    332.91302    -110.8658   0.30122669   -110.56457   -3508.3531    4.3652691    4.3652691    4.3652691   -3508.3531   -1877.4125   -7067.7511   -1579.8957    2435.2565   -230.80181   -352.02773    83.182711 
   13900    310.53762   -110.84614   0.28098096   -110.56515    3967.5466    4.3643423    4.3643423    4.3643423    3967.5466    -8610.619    1014.6197    19498.639   -3797.9986    1271.4659   -1990.6481     83.12974 
   14000    313.81144   -110.85036   0.28394319   -110.56642   -2917.9679    4.3679668    4.3679668    4.3679668   -2917.9679   -6254.9635   -5040.7634    2541.8231    987.16102   -1980.7759   -804.50014    83.337026 
   14100    411.70326   -110.93887   0.37251776   -110.56635     1243.914    4.3637618    4.3637618    4.3637618     1243.914   -5049.3957    1935.5773    6845.5605    615.43126   -799.48231    914.51113     83.09657 
   14200    210.91444   -110.75956   0.19083982   -110.56872    1555.0487    4.3650805    4.3650805    4.3650805    1555.0487    209.23904     1406.636    3049.2712   -562.40885   -150.28213    2892.4603     83.17193 
   14300    299.13605   -110.83831   0.27066458   -110.56765   -9104.1965    4.3702748    4.3702748    4.3702748   -9104.1965   -13719.841   -11533.211    -2059.537   -625.91102    1382.2918   -1659.3924    83.469199 
   14400    254.57185   -110.79508   0.23034196   -110.56474    11183.668     4.359163     4.359163     4.359163    11183.668    7291.3457    9203.7241    17055.933   -700.47848   -839.53096    2.3545205    82.834134 
   14500    317.66404   -110.85108   0.28742909   -110.56365   -9026.1038    4.3724887    4.3724887    4.3724887   -9026.1038   -13142.504   -10054.992   -3880.8148    952.43418      -1304.9    2067.1962    83.596115 
   14600    349.27384   -110.88035   0.31603031   -110.56432    3574.2579    4.3621776    4.3621776    4.3621776    3574.2579    450.95213    7918.8288    2352.9928   -208.68346    1594.4614   -4139.2081    83.006106 
   14700    303.63873   -110.84028    0.2747387   -110.56555    3461.9902      4.36614      4.36614      4.36614    3461.9902     158.0896    2328.2303    7899.6507    3928.4954    1088.3377   -1502.7339    83.232509 
   14800    296.20882   -110.83432   0.26801597   -110.56631   -1470.4578    4.3674634    4.3674634    4.3674634   -1470.4578   -8376.8385   -5106.2655    9071.7306   -2437.5478   -1507.8989    790.78209    83.308212 
   14900    264.45987   -110.80543   0.23928885   -110.56614    1723.7327    4.3632282    4.3632282    4.3632282    1723.7327    2591.9696    8.1429704    2571.0855    58.662796    1492.4254    1708.9745    83.066094 
   15000    292.75987   -110.83071   0.26489528   -110.56581   -3857.7925     4.368966     4.368966     4.368966   -3857.7925   -9290.1499   -5870.1931    3586.9655   -1310.1314    -164.1352   -1150.7324    83.394228 
   15100    309.77784    -110.8456    0.2802935   -110.56531    3275.0172    4.3633136    4.3633136    4.3633136    3275.0172     2267.011    3267.6205    4290.4202   -1652.9424   -1397.1293    2753.6449    83.070971 
   15200    333.25286   -110.86727   0.30153419   -110.56574    281.82027    4.3677251    4.3677251    4.3677251    281.82027   -10688.596    411.44129    11122.616    1779.1727    1805.4906   -5464.3869    83.323189 
   15300    302.60971    -110.8398   0.27380762     -110.566    5429.3637    4.3640617    4.3640617    4.3640617    5429.3637    4708.9881    557.76323     11021.34    616.50087   -451.15177     2103.359    83.113707 
   15400     344.6586   -110.87757   0.31185434   -110.56571   -4130.4253    4.3669176    4.3669176    4.3669176   -4130.4253   -9998.4268   -8354.8006    5961.9516    880.64586   -674.55127   -1517.2062    83.276985 
   15500    187.94611   -110.73546   0.17005759   -110.56541    1658.9771    4.3647725    4.3647725    4.3647725    1658.9771    1046.6938    349.85271    3580.3848   -546.02098   -696.70753   -34.594038    83.154324 
   15600    358.57398   -110.88867   0.32444528   -110.56423    -10055.82    4.3683043    4.3683043    4.3683043    -10055.82   -9177.1714   -12747.829   -8242.4602    2709.1271    2960.9312   -2507.8944    83.356341 
   15700    254.57157   -110.79543   0.23034171   -110.56509    7459.2248    4.3627269    4.3627269    4.3627269    7459.2248    91.793215    4370.9924    17914.889   -805.49065   -1847.1834     -1285.36    83.037468 
   15800    331.45344   -110.86638   0.29990604   -110.56647   -5470.9788    4.3694536    4.3694536    4.3694536   -5470.9788   -10801.895    -4161.771   -1449.2706    3118.5215    1172.7641   -207.22907    83.422151 
   15900     365.3082   -110.89778   0.33053853   -110.56724    1070.7567    4.3621914    4.3621914    4.3621914    1070.7567    1258.4146   -4045.6634    5999.5188   -472.12902   -2367.6476    2980.4857    83.006893 
   16000    244.44627   -110.78904   0.22118012   -110.56786   -6456.7356     4.370298     4.370298     4.370298   -6456.7356   -13747.193    -7680.011    2056.9969   -3029.5036    2084.8267   -1857.2272    83.470526 
   16100    318.52427   -110.85442   0.28820745   -110.56621    -4489.566    4.3638567    4.3638567    4.3638567    -4489.566   -3028.9484   -6721.0748   -3718.6748    1804.2287    220.35665   -4015.3375    83.101994 
   16200    247.39676   -110.78935   0.22384978    -110.5655     2787.762    4.3658564    4.3658564    4.3658564     2787.762   -4992.9346   -2921.7031    16277.924   -2403.1766    1591.1297    1144.5023    83.216291 
   16300    325.26819    -110.8585   0.29430949   -110.56419   -5803.7104     4.368511     4.368511     4.368511   -5803.7104   -11263.643    561.33897   -6708.8267    2621.8425    513.01076   -4318.0321    83.368179 
   16400     293.5471   -110.83021   0.26560759    -110.5646    6143.8885     4.363063     4.363063     4.363063    6143.8885    3903.4798    3104.0432    11424.143    2307.1478    173.30196   -644.72487    83.056659 
   16500    360.43989   -110.89074   0.32613359   -110.56461    -4325.928     4.368599     4.368599     4.368599    -4325.928   -11258.737   -6664.6914    4945.6449    245.32554     1166.652   -9.0346269    83.373217 
   16600    302.32119   -110.83797   0.27354656   -110.56443   -90.243693    4.3648939    4.3648939    4.3648939   -90.243693   -1687.9659    2103.3909   -686.15608   -603.35773     66.12107    1762.3851    83.161262 
   16700    239.27188   -110.78074   0.21649823   -110.56424     2021.973    4.3669932    4.3669932    4.3669932     2021.973   -6972.4762   -4765.9808    17804.376     1755.792     2235.454   -2354.9561    83.281307 
   16800    286.88613   -110.82439    0.2595806   -110.56481    1395.3681    4.3636207    4.3636207    4.3636207    1395.3681   -462.45875    5676.7621    -1028.199   -693.43346   -2633.3134    5025.9227    83.088509 
   16900    320.79845   -110.85682   0.29026518   -110.56656   -2182.4722    4.3685312    4.3685312    4.3685312   -2182.4722   -9513.3443     3004.321   -38.393456    226.10903     713.4136   -2786.9415    83.369334 
   17000    298.29227   -110.83741   0.26990111   -110.56751    7025.6176    4.3624129    4.3624129    4.3624129    7025.6176    6026.8973    2702.5938    12347.362    1677.5393    385.37725   -3977.8622    83.019539 
   17100    421.12395   -110.94802    0.3810418   -110.56697   -8453.8628    4.3705841    4.3705841    4.3705841   -8453.8628    -15030.98   -7781.0869   -2549.5213     -3314.06   -42.706164   -252.48903    83.486919 
   17200    235.90044   -110.78013   0.21344767   -110.56668    8927.3151    4.3623419    4.3623419    4.3623419    8927.3151    4123.6185    3312.7367     19345.59   -384.68325   -576.13912    2708.4023    83.015486 
   17300    285.38737   -110.82377   0.25822449   -110.56554   -6947.8816    4.3675651    4.3675651    4.3675651   -6947.8816   -9808.0946   -2238.0839   -8797.4664    223.99612    1751.7955   -2048.5942    83.314036 
   17400    246.93025   -110.78825   0.22342768   -110.56482   -2609.8296    4.3684033    4.3684033    4.3684033   -2609.8296   -2905.1949    -293.0329    -4631.261    245.91524    -968.7059    4182.0496     83.36201 
   17500    286.77764   -110.82312   0.25948244   -110.56364    7673.8281    4.3619994    4.3619994    4.3619994    7673.8281   -123.69403    9162.2154    13982.963     2462.281    1840.1762   -1761.2497    82.995934 
   17600    366.81637   -110.89597   0.33190316   -110.56406   -5873.3664    4.3703827    4.3703827    4.3703827   -5873.3664   -4267.3492   -14257.116    904.36587    1011.6345   -769.76837   -1546.8229    83.475381 
   17700    317.21109   -110.85186   0.28701926   -110.56484    4915.0334    4.3633116    4.3633116    4.3633116    4915.0334   -3323.5785    2800.8164    15267.862   -1315.7533    96.997754    1605.6256    83.070858 
   17800     345.5152   -110.87775   0.31262941   -110.56512   -5132.3075    4.3666938    4.3666938    4.3666938   -5132.3075   -8346.1956   -7183.6274    132.90038    929.78747   -932.80757   -1300.3152    83.264181 
   17900    219.35699   -110.76536   0.19847882   -110.56688    -2236.071    4.3665608    4.3665608    4.3665608    -2236.071   -3190.5099   -4473.9921    956.28893    27.494334    229.82221    2197.8841    83.256575 
   18000    275.23142   -110.81593   0.24903518   -110.56689    3226.7668    4.3647361    4.3647361    4.3647361    3226.7668   -6575.8817    4974.4847    11281.697   -1032.9523    612.21054   -935.08101    83.152241 
   18100    327.15477   -110.86287   0.29601651   -110.56686    -2496.844    4.3665359    4.3665359    4.3665359    -2496.844   -1780.4034   -6413.3698     703.2412    1961.8533    375.43878    1227.1716    83.255151 
   18200    303.78039   -110.84253   0.27486688   -110.56766   -1703.1509    4.3673776    4.3673776    4.3673776   -1703.1509   -7935.2907   -5382.1807    8208.0188   -2738.0662   -876.56581   -2186.8742    83.303307 
   18300    364.50032   -110.89522   0.32980755   -110.56541    1255.3638    4.3632279    4.3632279    4.3632279    1255.3638    -5314.236    2024.7872    7055.5401   -2593.6087   -1383.3029    2566.7625    83.066076 
   18400     291.6396    -110.8292   0.26388164   -110.56532   -8383.3823    4.3695981    4.3695981    4.3695981   -8383.3823   -14192.135   -4920.4686   -6037.5432    3083.7184    1683.3926   -4121.5434     83.43043 
   18500     212.0837   -110.75751   0.19189779   -110.56561    5674.7011    4.3647732    4.3647732    4.3647732    5674.7011   -1955.6757    3988.6353    14991.144    418.64995   -1829.7842    1440.5769    83.154365 
   18600    317.39493   -110.85199   0.28718561   -110.56481   -1056.5069     4.365367     4.365367     4.365367   -1056.5069   -8589.6061    5008.3074    411.77792    1533.7264     2562.819   -337.05884    83.188309 
   18700    315.15044   -110.85107   0.28515474   -110.56592   -4979.5512    4.3683822    4.3683822    4.3683822   -4979.5512   -1645.4592   -8871.5255   -4421.6689    2755.5236   -1032.6592   -1848.8759    83.360801 
   18800    298.97702    -110.8376   0.27052069   -110.56708    6111.3456     4.364021     4.364021     4.364021    6111.3456   -6521.8733    6852.1723    18003.738   -2580.4388    2862.5549   -2659.9568     83.11138 
   18900    387.13423   -110.91704   0.35028719   -110.56675   -5263.9984     4.367598     4.367598     4.367598   -5263.9984   -9686.6107   -4196.2858   -1909.0987   -1545.2143    419.10381    4310.1389    83.315919 
   19000     241.5933   -110.78619    0.2185987   -110.56759    6066.2877    4.3650784    4.3650784    4.3650784    6066.2877   -7545.6418    1917.5541    23826.951    271.83517    125.57265   -3613.5362    83.171806 
   19100    272.41482   -110.81369   0.24648665    -110.5672   -2193.5943    4.3654619    4.3654619    4.3654619   -2193.5943   -4134.3678     1481.765   -3928.1801    -1018.896    390.40029    2148.3379    83.193732 
   19200    302.94404    -110.8397   0.27411013   -110.56559   -3143.7135    4.3676832    4.3676832    4.3676832   -3143.7135   -7616.4955   -4870.2678    3055.6229   -1415.9054   -1759.8373   -2026.1332    83.320791 
   19300    284.34066   -110.82164    0.2572774   -110.56437    5320.7798    4.3656793    4.3656793    4.3656793    5320.7798      3052.68    2969.4523    9940.2072   -242.44767    1996.4872   -2534.6393     83.20616 
   19400    340.34856   -110.87247   0.30795453   -110.56452   -1242.1491    4.3647881    4.3647881    4.3647881   -1242.1491   -8640.7665    -4681.416    9595.7353   -2831.7219   -1516.7783   -2091.1712    83.155216 
   19500    286.25828   -110.82423   0.25901251   -110.56522    256.63208    4.3693624    4.3693624    4.3693624    256.63208   -7134.3504   -265.51045     8169.757    1223.1044    145.14907    503.92216    83.416931 
   19600    336.24698   -110.86852   0.30424334   -110.56427   -1657.4371    4.3631622    4.3631622    4.3631622   -1657.4371   -1565.3202   -5606.7195    2199.7285    1405.3492   -943.66438   -1589.1257    83.062324 
   19700    262.25108   -110.80217   0.23729029   -110.56488   -3994.1853    4.3663646    4.3663646    4.3663646   -3994.1853    -5943.597   -1902.4083   -4136.5507   -610.40593    441.02603   -1896.1745    83.245351 
   19800    260.40442   -110.80195   0.23561939   -110.56633    428.39281    4.3698166    4.3698166    4.3698166    428.39281    1761.1552    -10543.53    10067.553    2314.3973     597.0007    2890.8747    83.442945 
   19900    368.44691   -110.90052    0.3333785   -110.56714    1238.6537     4.359927     4.359927     4.359927    1238.6537    340.74235     2440.093     935.1258    -4127.266    1015.4293   -2771.4574    82.877691 
   20000    214.59259   -110.76311   0.19416788   -110.56894   -2318.7057    4.3726037    4.3726037    4.3726037   -2318.7057   -6611.6311   -7935.6951    7591.2091   -2235.4119   -1657.3131    2292.6255    83.602711 
   20100    402.49859   -110.92921   0.36418918   -110.56502    764.62461    4.3603724    4.3603724    4.3603724    764.62461   -1777.9732    1296.9879    2774.8592    466.31557   -845.88014   -3240.8939    82.903094 
   20200    213.29207   -110.75842   0.19299115   -110.56543   -885.46204    4.3700354    4.3700354    4.3700354   -885.46204   -3840.9719   -7259.0055    8443.5912   -589.17098   -591.49664   -602.40287    83.455483 
   20300    358.88468   -110.88841    0.3247264   -110.56368   -187.66977     4.364661     4.364661     4.364661   -187.66977   -2055.2923   -4393.0126    5885.2956   -1677.3718    61.574172    40.457038     83.14795 
   20400     258.4268   -110.79823      0.23383    -110.5644    3567.1611    4.3664587    4.3664587    4.3664587    3567.1611   -390.70411    763.58255    10328.605    1705.7966    1486.6401    3553.8821    83.250733 
   20500    332.18808   -110.86547   0.30057076    -110.5649   -3510.8852    4.3658279    4.3658279    4.3658279   -3510.8852   -5314.2479   -3030.6593   -2187.7484   -1240.4714   -1754.3771   -4209.3008    83.214656 
   20600    258.28346   -110.79938   0.23370031   -110.56568    1556.1082    4.3664668    4.3664668    4.3664668    1556.1082   -7270.5395    3794.5374    8144.3266   -1919.7616    992.76588    1527.8414    83.251196 
   20700    368.92843    -110.8986    0.3338142   -110.56479   -1232.3888    4.3653628    4.3653628    4.3653628   -1232.3888   -7678.1066   -3849.5201    7830.4603    4322.4805   -2320.5956   -75.986724    83.188066 
   20800    249.85148   -110.79126   0.22607087   -110.56519    1253.0748    4.3670946    4.3670946    4.3670946    1253.0748   -3016.9053    -1318.858    8094.9875   -2016.7029    1476.4696    -1843.187    83.287114 
   20900    380.83548   -110.90944   0.34458795   -110.56486   -6424.8785    4.3662435    4.3662435    4.3662435   -6424.8785   -9124.6061   -6570.7671   -3579.2624   -712.45762   -1936.8162    2510.4317    83.238424 
   21000    205.63525   -110.75397    0.1860631    -110.5679    3884.3001    4.3652667    4.3652667    4.3652667    3884.3001   -1150.1038    4399.8033    8403.2007   -1415.6961    2702.5231   -703.32958    83.182571 
   21100    317.81919   -110.85566   0.28756948   -110.56809   -2413.8689    4.3665279    4.3665279    4.3665279   -2413.8689   -9933.9552    2811.4468   -119.09844    -2404.598   -1735.8814   -5544.5866    83.254693 
   21200    286.48279   -110.82634   0.25921565   -110.56712    814.62626      4.36521      4.36521      4.36521    814.62626   -9392.5432   -839.77214    12676.194   -820.11337    2182.4326    1967.1404     83.17933 
   21300    324.28032   -110.85946   0.29341565   -110.56604   -1029.1222    4.3684763    4.3684763    4.3684763   -1029.1222   -6998.1088   -758.87037    4669.6125    293.43677    1646.3578    898.91558    83.366192 
   21400    332.00237   -110.86468   0.30040272   -110.56428    226.01663    4.3628433    4.3628433    4.3628433    226.01663   -5161.9439   -8628.7932    14468.787   -39.060769   -2155.4321   -285.96917    83.044113 
   21500    266.06889   -110.80521   0.24074473   -110.56447    -7373.111    4.3706183    4.3706183    4.3706183    -7373.111   -7378.5199   -3649.6009   -11091.212   -1503.7457    1476.6877    540.16855    83.488879 
   21600    294.58722   -110.83133   0.26654871   -110.56479    6497.3245    4.3623002    4.3623002    4.3623002    6497.3245   -4531.7535    2941.3984    21082.329   -89.397394   -457.97672    620.25823    83.013102 
   21700    281.03514   -110.82128    0.2542865     -110.567   -4586.0147      4.36842      4.36842      4.36842   -4586.0147   -8340.7116    747.54602   -6164.8784   -3083.7537    924.99695   -1230.9558    83.362969 
   21800    285.73062   -110.82643   0.25853507    -110.5679    2697.1899    4.3655363    4.3655363    4.3655363    2697.1899   -9955.0298   -1830.0003      19876.6    3786.0876    -1334.023   -493.31694    83.197987 
   21900    383.43614   -110.91214   0.34694107    -110.5652   -2157.6374    4.3657433    4.3657433    4.3657433   -2157.6374   -1380.0493   -5815.2076    722.34481   -1126.6792     1735.608    66.022222    83.209823 
   22000    236.02542   -110.77902   0.21356076   -110.56546    -2793.043    4.3667339    4.3667339    4.3667339    -2793.043   -7651.8322   -12002.361    11275.065   -1642.8883   -3635.3972   -1653.3358    83.266476 
   22100    326.95724   -110.86089   0.29583778   -110.56505   -1539.0638    4.3675494    4.3675494    4.3675494   -1539.0638   -2967.1953    -555.5422    -1094.454    550.06416    1951.8035    2595.0525    83.313137 
   22200    241.91225   -110.78454   0.21888729   -110.56565    6455.6181    4.3622458    4.3622458    4.3622458    6455.6181    -2081.596    9949.1576    11499.293   -3134.8218   -2307.7123   -634.14305    83.009996 
   22300    290.01334   -110.82761   0.26241016    -110.5652   -7988.3064    4.3713552    4.3713552    4.3713552   -7988.3064   -10915.778   -3475.2652   -9573.8762   -1006.4127   -198.12079   -722.40938     83.53112 
   22400    332.46796   -110.86474     0.300824   -110.56391    3791.6885    4.3640253    4.3640253    4.3640253    3791.6885   -3153.6231    4966.1117    9562.5769    349.31149   -2211.6554   -1842.6914    83.111629 
   22500    360.91575   -110.89075   0.32656416   -110.56419   -1491.9817    4.3640912    4.3640912    4.3640912   -1491.9817   -36.275496   -9919.2138    5479.5441    1467.1346   -598.21318   -1713.1142    83.115394 
   22600    223.25622   -110.76816   0.20200692   -110.56615   -3285.0825    4.3727279    4.3727279    4.3727279   -3285.0825   -12571.078   -7381.2833    10097.114   -2513.6103   -876.61616   -204.11096    83.609833 
   22700    356.97354   -110.88787   0.32299716   -110.56487    7729.7347    4.3577157    4.3577157    4.3577157    7729.7347    8953.4651    12018.724    2217.0153    1778.1544    1758.0502    5617.1306    82.751652 
   22800    212.64226   -110.75915   0.19240319   -110.56674   -2247.7047    4.3729476    4.3729476    4.3729476   -2247.7047   -14962.498    2350.6075    5868.7761   -1751.8579   -181.86036    -2040.053    83.622434 
   22900    347.04003   -110.88034   0.31400912   -110.56633    4023.1544    4.3617845    4.3617845    4.3617845    4023.1544    2123.7943     6974.015    2971.6538     749.0231   -1799.3579   -641.55256    82.983665 
   23000    319.12511   -110.85377   0.28875111   -110.56502    2140.5853    4.3670301    4.3670301    4.3670301    2140.5853   -5403.2728   -4178.1709      16003.2    671.73079    2318.9832    -1592.846    83.283422 
   23100    325.54117    -110.8588   0.29455649   -110.56424   -4492.6262    4.3684538    4.3684538    4.3684538   -4492.6262   -7697.7755   -9315.8092     3535.706    -2560.842    -2023.926     664.6147      83.3649 
   23200    249.87356   -110.79106   0.22609085   -110.56497    3966.2556    4.3635725    4.3635725    4.3635725    3966.2556     1432.641    2085.6853    8380.4405   -226.17633   -233.59413   -3225.5841    83.085759 
   23300    308.67314   -110.84403   0.27929395   -110.56473   -589.21618    4.3671696    4.3671696    4.3671696   -589.21618   -9500.2603    11585.003   -3852.3909   -2667.9901   -1155.2221     1124.414    83.291403 
   23400    280.05798   -110.81916   0.25340235   -110.56576   -63.672294    4.3661971    4.3661971    4.3661971   -63.672294   -2963.4211   -2357.5984    5130.0026    -902.7054    1091.8963   -664.72504    83.235772 
   23500    350.85211   -110.88353   0.31745836   -110.56607   -3363.2937    4.3663357    4.3663357    4.3663357   -3363.2937   -9425.7961    181.58396   -845.66898    1416.0628     -2933.74   -1464.8581      83.2437 
   23600    296.64463   -110.83486   0.26841029   -110.56645   -773.45821    4.3653703    4.3653703    4.3653703   -773.45821   -4758.3833   -10135.586    12573.595    2184.4298    3354.6742     2761.316    83.188497 
   23700    327.74804   -110.86265   0.29655332    -110.5661   -7913.6131    4.3683284    4.3683284    4.3683284   -7913.6131   -9680.6098   -7105.2924    -6954.937   -3038.0543   -1015.2729   -1708.2916    83.357724 
   23800    178.84231   -110.72857   0.16182028   -110.56675    7155.5811    4.3639858    4.3639858    4.3639858    7155.5811   -2315.7356    9743.4401    14039.039    1014.2032   -2520.3838    -974.1204    83.109372 
   23900    394.61958   -110.92275   0.35706009   -110.56569   -4167.9927    4.3670228    4.3670228    4.3670228   -4167.9927   -9577.4797   -834.51873   -2091.9797   -2123.7756      1502.88    225.35947    83.283005 
   24000    260.20722   -110.80185   0.23544096   -110.56641    3399.6171    4.3665141    4.3665141    4.3665141    3399.6171   -3724.8288    351.22175    13572.458   -2258.5062   -2309.2875    1683.9232    83.253903 
   24100    360.88676   -110.89137   0.32653792   -110.56483   -6384.0023    4.3662901    4.3662901    4.3662901   -6384.0023   -12561.051   -4011.8706   -2579.0851    1327.6573    217.78018   -2725.0188    83.241091 
   24200    264.88016   -110.80411   0.23966914   -110.56444    2051.1147    4.3654792    4.3654792    4.3654792    2051.1147   -3294.9892    -2810.122    12258.455   -1123.9995    -226.1293    649.09565    83.194719 
   24300     308.5218    -110.8441   0.27915701   -110.56494   -4809.4943    4.3677408    4.3677408    4.3677408   -4809.4943   -13257.625   -2572.6262    1401.7678   -1036.8448   -2110.5498   -2633.5843    83.324089 
   24400    210.29356   -110.75685   0.19027803   -110.56657    8846.1489    4.3630669    4.3630669    4.3630669    8846.1489   -1849.6224    13187.875    15200.194   -745.91718    -1903.716    3116.8161    83.056881 
   24500    444.19642   -110.96759   0.40191826   -110.56567   -8977.7436    4.3699118    4.3699118    4.3699118   -8977.7436   -12217.089   -10425.962   -4290.1799    361.55569    1584.0262    2445.8939    83.448399 
   24600    206.99654   -110.75502   0.18729482   -110.56772    3049.5152    4.3642494    4.3642494    4.3642494    3049.5152   -6383.7627    4399.3137    11132.995    790.84091   -5573.1769     229.8317    83.124428 
   24700    390.38367   -110.91929   0.35322735   -110.56607     -5627.34    4.3658111    4.3658111    4.3658111     -5627.34   -10128.345   -1456.1377   -5297.5371    1116.2641    5.6033842   -2666.1661    83.213695 
   24800       226.56   -110.77184   0.20499625   -110.56685    230.73089    4.3681633    4.3681633    4.3681633    230.73089   -10273.013   -4895.2719    15860.478   -2780.3765   -882.52607    33.975282     83.34827 
   24900     283.9973   -110.82363   0.25696673   -110.56666    1285.7853    4.3642579    4.3642579    4.3642579    1285.7853   -5102.9009    10935.394   -1975.1375   -655.82327   -4340.5399   -66.615663    83.124914 
   25000    303.96113   -110.84082   0.27503041   -110.56579     1034.569    4.3665188    4.3665188    4.3665188     1034.569   -8079.8606   -4124.3545    15307.922    -1749.526    4206.8927   -9.2515272    83.254171 
   25100    315.92592   -110.85099   0.28585641   -110.56513   -4091.5584    4.3675096    4.3675096    4.3675096   -4091.5584   -5245.4581   -1283.6309   -5745.5861   -1270.6584   -1988.9851    1360.4274    83.310856 
   25200    323.74283    -110.8578   0.29292932   -110.56487   -2317.3974     4.366351     4.366351     4.366351   -2317.3974    -11531.47   -1340.1738    5919.4511    2341.9312    315.85682    668.81917    83.244572 
   25300    282.33576   -110.81987   0.25546333   -110.56441    4121.5705    4.3642882    4.3642882    4.3642882    4121.5705   -3070.1257     3520.695    11914.142    1545.3665   -569.54453   -860.96554    83.126647 
   25400    248.76616   -110.79004   0.22508885   -110.56496   -923.05388    4.3702348    4.3702348    4.3702348   -923.05388   -14315.555   -5211.4235    16757.816      -1221.9    1156.9197    2210.1871    83.466906 
   25500    344.94359   -110.87808   0.31211221   -110.56597    2378.9408    4.3606997    4.3606997    4.3606997    2378.9408   -1318.3149    9677.3618   -1222.2246   -183.96529   -3063.3871   -2384.9266    82.921768 
   25600    268.82406   -110.81124   0.24323766   -110.56801   -3286.6741    4.3703517    4.3703517    4.3703517   -3286.6741   -9126.8725   -14777.617    14044.467    734.51584     1880.497   -1774.2735    83.473604 
   25700    357.67764   -110.89136   0.32363425   -110.56772   -2614.2216    4.3663964    4.3663964    4.3663964   -2614.2216   -4609.9623   -2686.4662   -546.23642   -1777.6762    -3179.184    1462.5102    83.247171 
   25800    234.03423   -110.77931   0.21175909   -110.56755    5913.7976    4.3616397    4.3616397    4.3616397    5913.7976    -4445.181    6573.6623    15612.911    1569.6048   -1287.1167   -957.27953    82.975403 
   25900     321.6189   -110.85626   0.29100754   -110.56525   -11037.742    4.3749423    4.3749423    4.3749423   -11037.742   -10597.218   -10997.885   -11518.124   -1783.3854    971.91128   -643.73733    83.736921 
   26000    275.91893   -110.81364   0.24965725   -110.56398    8971.1527    4.3589032    4.3589032    4.3589032    8971.1527   -2052.5339     12815.23    16150.762   -880.01928   -1631.9558     -1949.77    82.819323 
   26100    317.75128   -110.85195   0.28750803   -110.56444   -6871.8615    4.3705742    4.3705742    4.3705742   -6871.8615   -2940.0634   -14534.725   -3140.7963   -672.83392   -1395.2761   -1701.2415    83.486355 
   26200    306.21685   -110.84173   0.27707144   -110.56466    383.17613    4.3673351    4.3673351    4.3673351    383.17613   -7642.3384   -6670.1175    15461.984    363.13429   -663.21041    9.5067976     83.30087 
   26300    335.45641   -110.86775   0.30352801   -110.56422    3670.0932    4.3633598    4.3633598    4.3633598    3670.0932    734.01822     5672.673    4603.5884    2296.1317   -2490.8962     1681.708     83.07361 
   26400    215.35581   -110.76005   0.19485847   -110.56519    950.69593    4.3686366    4.3686366    4.3686366    950.69593   -6803.8381    417.52025    9238.4057    1034.8144   -1227.0574   -1020.6614    83.375368 
   26500    396.49597     -110.923   0.35875789   -110.56424   -4596.2525    4.3671109    4.3671109    4.3671109   -4596.2525   -8779.0675    609.92395   -5619.6139    -983.0121    1895.7472   -1846.4365    83.288047 
   26600    197.00343   -110.74488   0.17825285   -110.56663    11559.346    4.3627227    4.3627227    4.3627227    11559.346    721.17807    3920.7385    30036.122   -1331.8427   -4447.7205   -1394.3601    83.037225 
   26700    335.07172   -110.87142   0.30317993   -110.56824   -7819.8005    4.3709412    4.3709412    4.3709412   -7819.8005   -10319.255   -10600.049   -2540.0968    459.51299    826.27455    47.213203    83.507388 
   26800    348.29571   -110.88264   0.31514528   -110.56749    3592.1424    4.3636103    4.3636103    4.3636103    3592.1424   -723.86104   -1850.0009    13350.289   -2699.2386   -1699.2266    2656.2515    83.087919 
   26900    267.16296   -110.80856   0.24173466   -110.56682    -685.8422    4.3677529    4.3677529    4.3677529    -685.8422   -5014.8252     8368.347   -5411.0483    2909.5725   -1305.8153    511.22928     83.32478 
   27000    298.84873   -110.83587   0.27040461   -110.56547   -2890.1744    4.3681665    4.3681665    4.3681665   -2890.1744   -10085.617   -3740.4602    5155.5537   -290.07671   -1999.8506   -3743.6054    83.348455 
   27100    311.72178   -110.84583   0.28205241   -110.56378    4925.7513    4.3631922    4.3631922    4.3631922    4925.7513   -2021.5442    7783.2216    9015.5765   -1935.2693      1471.27   -1759.8911    83.064038 
   27200    248.10146   -110.78966   0.22448741   -110.56517   -5180.5309    4.3697985    4.3697985    4.3697985   -5180.5309   -9394.0694   -9505.4138    3357.8905    232.15205   -5800.0859    178.39198    83.441908 
   27300    357.28486   -110.88797   0.32327885    -110.5647   -6467.2716    4.3662182    4.3662182    4.3662182   -6467.2716   -7362.6815   -12304.289    265.15527   -705.38975    2630.3369   -3006.4754    83.236976 
   27400    234.46663   -110.77732   0.21215034   -110.56517    5052.5545    4.3658212    4.3658212    4.3658212    5052.5545   -2990.7071    4249.2381    13899.132    1040.2259   -286.34973    2150.0617    83.214273 
   27500    387.94112    -110.9154   0.35101728   -110.56438   -7133.6899    4.3678452    4.3678452    4.3678452   -7133.6899   -11931.098    3024.3864   -12494.358    333.51145   -2825.1854    1771.0088    83.330062 
   27600    191.46062   -110.73885   0.17323759   -110.56561    5886.8205    4.3664709    4.3664709    4.3664709    5886.8205    -4876.841    28.035329    22509.267    1017.0921    3731.0031    522.27036    83.251431 
   27700     411.0791   -110.93742   0.37195301   -110.56547   -5322.6936    4.3655985    4.3655985    4.3655985   -5322.6936   -9082.5659   -3005.4354   -3880.0794   -2719.2378   -3536.5382   -176.08219    83.201545 
   27800    229.56981   -110.77554   0.20771959   -110.56782     -3895.27    4.3689361    4.3689361    4.3689361     -3895.27   -7169.4994   -14662.139    10145.828     258.8086    415.35281   -52.931615    83.392518 
   27900    330.41658   -110.86563   0.29896786   -110.56666   -816.07877    4.3635447    4.3635447    4.3635447   -816.07877   -3819.7245   -8048.8063    9420.2945   -1557.3331   -400.67815   -5717.1265     83.08417 
   28000    280.20914   -110.81923   0.25353912   -110.56569    1605.9515    4.3705348    4.3705348    4.3705348    1605.9515   -6187.0311     4785.582    6219.3035    1163.1281    70.750623   -647.40927    83.484094 
   28100     336.4492   -110.86921    0.3044263   -110.56479    1847.2977    4.3624489    4.3624489    4.3624489    1847.2977   -6591.6412    5302.1152    6831.4193    872.96027    -2246.184    1157.2641    83.021592 
   28200    244.75968   -110.78639    0.2214637   -110.56493    571.67884    4.3701014    4.3701014    4.3701014    571.67884   -6600.7333    260.81659    8054.9532   -2390.9502     1427.952    463.42835    83.459262 
   28300    387.98072   -110.91493   0.35105311   -110.56388   -6367.2544    4.3655408    4.3655408    4.3655408   -6367.2544   -7686.3029   -8679.1915   -2736.2687    1297.6918   -758.11844   -1474.0784    83.198242 
   28400    191.48847   -110.73969   0.17326279   -110.56643     1773.233    4.3648275    4.3648275    4.3648275     1773.233   -2437.3915   -9269.4367    17026.527   -825.94888     -2041.21   -151.36005    83.157469 
   28500    354.23754   -110.88756   0.32052157   -110.56704   -4991.3899     4.371679     4.371679     4.371679   -4991.3899   -7335.8465   -4954.4856   -2683.8375    1373.1065    1525.8511   -985.81312    83.549681 
   28600     278.3642    -110.8187   0.25186978   -110.56683     11074.87    4.3586468    4.3586468    4.3586468     11074.87    2938.1762    12433.241    17853.193     1061.283   -4570.8551   -3655.0298    82.804709 
   28700    299.15985   -110.83682   0.27068612   -110.56613   -7813.4747    4.3740124    4.3740124    4.3740124   -7813.4747   -10077.596   -3952.8451   -9409.9827    1102.8885   -300.89032    1359.3586    83.683538 
   28800     304.1554   -110.83898    0.2752062   -110.56377    4566.8766    4.3631217    4.3631217    4.3631217    4566.8766   -3765.3602     1320.656    16145.334   -3128.1075   -566.51791   -3796.3236     83.06001 
   28900    313.91388    -110.8475   0.28403588   -110.56346   -1186.5497    4.3657495    4.3657495    4.3657495   -1186.5497   -542.39175   -8688.1496    5670.8923   -1458.5706    -3317.851    2238.3744    83.210176 
   29000    249.28943   -110.79007   0.22556232   -110.56451   -3158.4191    4.3713576    4.3713576    4.3713576   -3158.4191   -9651.0545   -15349.236    15525.033   -842.34387    281.34145     -2943.34    83.531257 
   29100    361.82759    -110.8912   0.32738921   -110.56381    6518.6005    4.3610839    4.3610839    4.3610839    6518.6005    4436.2602    9999.4545    5120.0867   -1786.6119    1948.6809    105.49093    82.943682 
   29200    257.17409   -110.79789   0.23269652    -110.5652    3786.1942    4.3694056    4.3694056    4.3694056    3786.1942   -6200.4223    -566.6482    18125.653    2866.5743    -3243.621    252.37078    83.419402 
   29300    332.90979   -110.86575   0.30122378   -110.56452   -3055.1074    4.3675426    4.3675426    4.3675426   -3055.1074   -6954.4971    4128.5618   -6339.3871   -527.35349    330.92812   -460.49967    83.312745 
   29400    290.30554   -110.82762   0.26267455   -110.56494    5752.6016    4.3621554    4.3621554    4.3621554    5752.6016    -2059.611   -7009.2071    26326.623    445.14935   -1206.0565   -585.16844    83.004836 
   29500     270.3028   -110.81186   0.24457565   -110.56729   -8910.7097    4.3716888    4.3716888    4.3716888   -8910.7097   -6889.2754     -11035.6   -8807.2537   -449.59739   -3259.7356   -253.15513    83.550244 
   29600    316.62653   -110.85428   0.28649034   -110.56779   -544.44914    4.3638639    4.3638639    4.3638639   -544.44914   -7222.0368   -3770.5028    9359.1922   -1043.0472    28.799317   -2950.5401    83.102407 
   29700    278.68135     -110.819   0.25215674   -110.56685    5051.8274    4.3658062    4.3658062    4.3658062    5051.8274    1940.4247    8405.1295    4809.9281    307.39175    1023.3011   -1965.7519    83.213421 
   29800     326.3055   -110.86039   0.29524807   -110.56514   -7101.6237     4.371416     4.371416     4.371416   -7101.6237   -15557.158   -2597.5651   -3150.1477   -457.50319   -1573.4903    2338.6068    83.534601 
   29900    318.75445   -110.85174   0.28841573   -110.56332    3338.6461    4.3614669    4.3614669    4.3614669    3338.6461    984.33464   -1698.0218    10729.626    -3002.576    -996.2699   -71.714326    82.965538 
   30000    248.45965    -110.7892   0.22481151   -110.56439   -5387.2169     4.370656     4.370656     4.370656   -5387.2169   -11924.535   -9116.4226     4879.307   -1540.1464   -991.02589    2615.0074    83.491041 
   30100    365.34008   -110.89514   0.33056738   -110.56457   -7443.7712    4.3660123    4.3660123    4.3660123   -7443.7712   -5919.1525   -9542.7049   -6869.4562    28.973282   -2168.1723   -3658.3408    83.225202 
   30200    174.94038     -110.725   0.15828973   -110.56671    7960.8911    4.3659177    4.3659177    4.3659177    7960.8911   -4242.4215    5305.1496    22819.945   -812.95651    757.78051    1485.3874    83.219796 
   30300    420.64517     -110.946   0.38060859    -110.5654   -3543.7347    4.3668807    4.3668807    4.3668807   -3543.7347   -4532.9132   -1587.6357   -4510.6553    2677.8623   -2217.3183    -2914.159    83.274875 
   30400     212.3907   -110.75855   0.19217557   -110.56638    4701.4222    4.3679191    4.3679191    4.3679191    4701.4222   -8078.7197    1834.7526    20348.234    913.39601    1240.9035    3239.6176    83.334293 
   30500    381.13209   -110.90976   0.34485632    -110.5649   -4191.5238    4.3637569    4.3637569    4.3637569   -4191.5238   -4030.9479   -6238.2914   -2305.3322   -1647.7556   -51.728552    -2305.315     83.09629 
   30600    268.07123   -110.80835   0.24255648   -110.56579   -3770.0337    4.3707406    4.3707406    4.3707406   -3770.0337   -6666.5271   -9908.3374    5264.7633   -534.75498    845.00438    2896.0885    83.495891 
   30700    279.99384   -110.81953   0.25334431   -110.56619    3148.3822    4.3624663    4.3624663    4.3624663    3148.3822   -5221.9315    3866.7556    10800.323   -922.64213   -2333.4356   -3541.8429    83.022587 
   30800    267.82748   -110.80828   0.24233593   -110.56595    1192.3013    4.3688512    4.3688512    4.3688512    1192.3013   -431.72444     31.19556    3977.4327    -575.0195    1795.6805    1078.2602    83.387655 
   30900    346.53751   -110.87777   0.31355443   -110.56421   -1832.8887    4.3679207    4.3679207    4.3679207   -1832.8887   -9462.0139    2710.1358    1253.2121    978.84857   -3801.3913   -1517.3513    83.334386 
   31000    298.14594   -110.83395   0.26976871   -110.56419    1874.8831    4.3626466    4.3626466    4.3626466    1874.8831    1535.2622   -3678.9538    7768.3408   -1279.3379   -1588.9936   -3148.6633    83.032879 
   31100    358.56139   -110.88865   0.32443388   -110.56422   -9950.4292    4.3723711    4.3723711    4.3723711   -9950.4292   -11728.695    -5822.177   -12300.415   -2356.4557    1165.4881   -905.13817     83.58937 
   31200    229.23814    -110.7727   0.20741949   -110.56528    7954.5891    4.3620976    4.3620976    4.3620976    7954.5891    1992.6173   -2025.7134    23896.864   -909.46329   -1404.3345    1449.8183    83.001537 
   31300    289.59179   -110.82883   0.26202874    -110.5668   -1988.4196    4.3685432    4.3685432    4.3685432   -1988.4196   -7830.6077    6520.8515   -4655.5025    40.303754   -2404.7718   -299.11633    83.370018 
   31400    291.88699   -110.83123   0.26410548   -110.56712    1382.4975    4.3669239    4.3669239    4.3669239    1382.4975   -1279.5852   -2826.6911    8253.7687    1772.2226    1420.6047   -2236.5325    83.277343 
   31500    364.95769   -110.89607   0.33022139   -110.56585    2199.8315     4.364021     4.364021     4.364021    2199.8315   -2223.6443    785.34209    8037.7968     2298.568     123.8361   -251.52863    83.111379 
   31600     286.1644   -110.82501   0.25892756   -110.56609   -1568.7809    4.3702204    4.3702204    4.3702204   -1568.7809   -8959.7311   -4097.2142    8350.6025   -1683.2805   -29.608436   -1940.8759    83.466082 
   31700    326.08554    -110.8597   0.29504905   -110.56466    3250.6543    4.3633726    4.3633726    4.3633726    3250.6543   -156.90615   -3671.0221    13579.891   -496.69089    1010.1692    3374.3746    83.074341 
   31800    256.17725   -110.79649   0.23179456   -110.56469    1334.4179    4.3685045    4.3685045    4.3685045    1334.4179   -6273.1796    2380.0994    7896.3339    -170.5988   -3234.3274   -2416.1316    83.367805 
   31900    287.20864   -110.82412   0.25987242   -110.56424   -2640.5757    4.3666873    4.3666873    4.3666873   -2640.5757   -6435.5755   -1164.6956   -321.45596    -2829.512    139.86565   -1592.0742    83.263811 
   32000    289.78705   -110.82605   0.26220541   -110.56385    3849.2699    4.3652865    4.3652865    4.3652865    3849.2699   -1317.3246   -4047.7177    16912.852    849.33105   -2412.4182   -2907.4898    83.183703 
   32100    392.13685   -110.91828   0.35481366   -110.56346   -5769.4951    4.3688567    4.3688567    4.3688567   -5769.4951   -8323.3609   -6017.6132   -2967.5113   -1692.8042    1222.3187   -1867.5508     83.38797 
   32200    219.25737   -110.76363   0.19838868   -110.56524    4023.7445      4.36505      4.36505      4.36505    4023.7445   -6467.7316   -948.02189    19486.987   -2998.5712   -1078.0542   -2755.6585    83.170187 
   32300    395.76969   -110.92283   0.35810073   -110.56473   -5947.0826    4.3674726    4.3674726    4.3674726   -5947.0826    -3675.603   -5354.5771   -8811.0676    70.788414   -725.45253    3898.0711    83.308738 
   32400    180.67075   -110.73046   0.16347469   -110.56699    2778.1277    4.3660213    4.3660213    4.3660213    2778.1277   -12346.711    6826.2265    13854.868    489.88858   -3189.8361   -4020.5077    83.225718 
   32500    297.29843    -110.8361   0.26900187    -110.5671   -3754.1797    4.3668613    4.3668613    4.3668613   -3754.1797   -3056.4193   -11750.551    3544.4311    359.56236    1239.5962    2719.6071    83.273763 
   32600    368.60632   -110.89923   0.33352274   -110.56571   -2705.2243    4.3666057    4.3666057    4.3666057   -2705.2243    -10011.04   -5446.5523    7341.9196    1113.7316   -1640.5226   -292.26548     83.25914 
   32700    274.20676   -110.81393   0.24810804   -110.56582    142.16574    4.3678917    4.3678917    4.3678917    142.16574   -4933.4561    -34.20173    5394.1551   -1433.9356   -2852.4867   -2003.3744    83.332725 
   32800    335.80254   -110.86866   0.30384119   -110.56482   -1248.2759    4.3649824    4.3649824    4.3649824   -1248.2759   -5760.1036   -6798.0449    8813.3209   -4057.8039    1417.9016   -5198.5516    83.166321 
   32900    255.39571   -110.79533   0.23108741   -110.56424    1040.6268    4.3682593    4.3682593    4.3682593    1040.6268   -3840.0538    5603.3194    1358.6148    270.17156   -2720.3964    2835.1348    83.353769 
   33000    281.47068   -110.81845   0.25468058   -110.56377   -1245.3817    4.3659737    4.3659737    4.3659737   -1245.3817   -9644.7846   -5772.3936    11681.033   -3098.5434    344.18095   -221.71048    83.222997 
   33100    309.00439   -110.84298   0.27959366   -110.56339   -2039.9789    4.3664916    4.3664916    4.3664916   -2039.9789   -3613.0792   -9488.5059    6981.6484    295.55025   -742.08816    -2953.371    83.252616 
   33200    321.21287   -110.85439   0.29064016   -110.56375   -5.7018078    4.3679509    4.3679509    4.3679509   -5.7018078   -9091.1309   -438.86682    9512.8923   -59.088349    537.93287    7234.9288    83.336113 
   33300    337.01102   -110.86931   0.30493466   -110.56437   -1706.8963    4.3650534    4.3650534    4.3650534   -1706.8963    -7786.516   -3096.6891    5762.5164   -2816.0535    -1863.322    -4911.878    83.170379 
   33400    235.33069   -110.77834   0.21293215    -110.5654    3210.5316    4.3672779    4.3672779    4.3672779    3210.5316    259.87245   -1858.6216    11230.344    956.35255   -1041.1144   -2611.7612    83.297598 
   33500    341.37708   -110.87435   0.30888516   -110.56546   -2780.9917    4.3676322    4.3676322    4.3676322   -2780.9917   -7931.7833    1660.3264   -2071.5182   -1847.1548    440.02571   -769.51127    83.317875 
   33600    251.29044   -110.79382   0.22737287   -110.56644    1976.8226    4.3626587    4.3626587    4.3626587    1976.8226    548.84253   -9815.3246     15196.95    384.86022   -40.820607   -506.64489    83.033568 
   33700    296.84422   -110.83405   0.26859089   -110.56546   -8288.0582    4.3737231    4.3737231    4.3737231   -8288.0582   -10148.463   -10545.767   -4169.9452    808.78564    -556.7675   -2806.2294    83.666936 
   33800    366.09645   -110.89534   0.33125176   -110.56408     3492.556    4.3600256    4.3600256    4.3600256     3492.556    -2222.526    4903.9066    7796.2874   -1555.7374   -1632.1748    1413.5807    82.883314 
   33900    284.38205   -110.82288   0.25731486   -110.56557    -2726.381    4.3704044    4.3704044    4.3704044    -2726.381   -6235.8484   -3230.9648    1287.6701   -4184.4992   -263.24773     -3152.79    83.476625 
   34000     272.0548    -110.8123    0.2461609   -110.56614    4260.5538    4.3672693    4.3672693    4.3672693    4260.5538   -628.20816    525.34384    12884.526    801.73368     2231.583    2944.6085    83.297107 
   34100    340.20985   -110.87407   0.30782903   -110.56624    3593.9769    4.3610027    4.3610027    4.3610027    3593.9769    1368.1995    455.26473    8958.4664   -2370.6846   -192.60059    706.40022    82.939051 
   34200    180.05192   -110.72996   0.16291476   -110.56705    -5645.519    4.3757703    4.3757703    4.3757703    -5645.519   -9436.7489   -18529.239    11029.431   -1030.9471   -370.14576   -3526.2148    83.784472 
   34300    436.23753   -110.95851   0.39471688   -110.56379    1090.3166    4.3582725    4.3582725    4.3582725    1090.3166    750.83963     3684.549   -1164.4387    2291.3192   -2503.4499    2049.2142    82.783376 
   34400    213.51964   -110.75852   0.19319706   -110.56532     4457.864    4.3713984    4.3713984    4.3713984     4457.864   -6473.9313     -1559.29    21406.813   -3820.5671   -1383.7207   -2882.2512    83.533594 
   34500    395.90274   -110.92196   0.35822112   -110.56374   -2695.7166    4.3663565    4.3663565    4.3663565   -2695.7166   -7447.1297    423.56921   -1063.5893    442.18049    766.89088   -1825.6112    83.244891 
   34600    246.34807   -110.78845   0.22290091   -110.56555    8940.2214    4.3637578    4.3637578    4.3637578    8940.2214    7920.8978   -487.51204    19387.279   -96.630302    383.81556    181.52092    83.096342 
   34700    298.03192    -110.8356   0.26966555   -110.56594   -6788.9111    4.3692869    4.3692869    4.3692869   -6788.9111   -11432.952   -6211.7106   -2722.0707    311.75325   -744.27643   -783.45587    83.412606 
   34800    278.60394   -110.81748    0.2520867    -110.5654   -5265.5441    4.3672692    4.3672692    4.3672692   -5265.5441   -3248.8002   -9424.0174   -3123.8146    1293.0584    101.61255   -2975.0088    83.297101 
   34900    290.44109   -110.82744    0.2627972   -110.56464     7639.965    4.3632543    4.3632543    4.3632543     7639.965   -4522.2706    5966.5705    21475.595   -115.57172    78.420046    2357.4718    83.067582 
   35000     309.9261   -110.84621   0.28042764   -110.56578   -7021.7926    4.3717745    4.3717745    4.3717745   -7021.7926   -13996.998   -965.22287    -6103.157   -2128.1696   -691.44985    -164.1104    83.555156 
   35100    365.04074   -110.89571   0.33029653   -110.56541   -152.26666    4.3639903    4.3639903    4.3639903   -152.26666    488.15059   -4905.5445    3960.5939   -1953.0404    1233.1968   -7936.9375    83.109624 
   35200    269.97517   -110.80943    0.2442792   -110.56515    1789.0893    4.3671832    4.3671832    4.3671832    1789.0893   -4986.8423    1054.4038    9299.7065    21.207376   -4060.4446    2127.8949    83.292178 
   35300    280.43283   -110.81902   0.25374151   -110.56528   -7459.2184    4.3682833    4.3682833    4.3682833   -7459.2184   -8080.2451   -13152.081   -1145.3287   -1462.2254   -323.33078    -2115.262    83.355141 
   35400    255.39229   -110.79683   0.23108431   -110.56575    4417.5607    4.3657918    4.3657918    4.3657918    4417.5607   -5193.8781    -1668.561    20115.121    2380.7537    28.978926    765.51698    83.212597 
   35500    311.23504   -110.84771   0.28161201    -110.5661   -57.036476     4.365977     4.365977     4.365977   -57.036476    -8816.135    8010.8403     634.1853   -2042.3335     409.6181    1806.6587    83.223182 
   35600    343.63596    -110.8768   0.31092904   -110.56587   -4661.7766    4.3684089    4.3684089    4.3684089   -4661.7766   -14547.597   -8364.6605    8926.9277   -1064.8323    50.489616   -1309.1989    83.362332 
   35700    312.55121   -110.84725    0.2828029   -110.56445    5371.4334     4.366064     4.366064     4.366064    5371.4334   -872.49922    3412.8457    13573.954    1792.7366   -172.42993   -3928.4049    83.228159 
   35800     318.4476   -110.85239   0.28813808   -110.56425   -2668.5682    4.3656752    4.3656752    4.3656752   -2668.5682   -10999.415   -7407.7519    10401.462   -1502.9153    447.46869    1472.3931     83.20593 
   35900    187.45659   -110.73549   0.16961466   -110.56587    2322.6556    4.3692167    4.3692167    4.3692167    2322.6556   -5502.6241   -7594.3136    20064.905    39.897254   -1102.3849   -1068.4493    83.408583 
   36000    378.96992   -110.90673   0.34289995   -110.56383   -282.70614    4.3641791    4.3641791    4.3641791   -282.70614   -3324.1217    4763.3759   -2287.3726    986.09347    706.36872   -2647.8254    83.120412 
   36100    247.52662   -110.78934   0.22396728   -110.56537   -1110.9182    4.3683674    4.3683674    4.3683674   -1110.9182   -12794.029    -3800.534    13261.809   -3540.9058    294.13274    617.20126    83.359956 
   36200    353.87974   -110.88554   0.32019782   -110.56534    225.30542    4.3669834    4.3669834    4.3669834    225.30542   -6267.6449   -3062.2883    10005.849   -1279.7032    -856.2299   -2948.7687    83.280749 
   36300    362.03118   -110.89259   0.32757342   -110.56502   -716.14461    4.3657398    4.3657398    4.3657398   -716.14461   -4113.1042   -2833.7373    4798.4077   -48.660239     478.1608    2413.9566    83.209621 
   36400    207.66917   -110.75471   0.18790343    -110.5668       671.28    4.3672784    4.3672784    4.3672784       671.28    -8865.594   -6016.9524    16896.386    -1387.867    -3147.161   -810.86108     83.29763 
   36500    298.17633   -110.83609   0.26979621    -110.5663   -861.29786    4.3667093    4.3667093    4.3667093   -861.29786    2233.6407   -4865.2497    47.715415    1261.1416    2958.0487   -3080.9267    83.265068 
   36600      287.928   -110.82693    0.2605233   -110.56641   -102.44859    4.3666825    4.3666825    4.3666825   -102.44859   -9441.7878    991.22446    8143.2176   -346.31395   -608.55894   -1653.3201    83.263533 
   36700    299.00508   -110.83742   0.27054608   -110.56687    2175.9612    4.3666239    4.3666239    4.3666239    2175.9612    538.88583   -7596.1398    13585.138   -2008.5906   -2186.8843    4792.3318    83.260184 
   36800    406.66291   -110.93337   0.36795715   -110.56542   -2591.4101    4.3674269    4.3674269    4.3674269   -2591.4101   -9915.5907    2004.0737    137.28671   -1390.3288   -537.56148   -5700.1678    83.306124 
   36900     227.9385   -110.77188   0.20624354   -110.56563    6214.2578    4.3652642    4.3652642    4.3652642    6214.2578    1917.6867   -7707.8929     24432.98    337.21889     834.6036    970.52521    83.182432 
   37000    304.16125   -110.84019   0.27521149   -110.56497   -3443.4055    4.3686063    4.3686063    4.3686063   -3443.4055   -4859.5182   -5322.2765   -148.42186   -662.66628   -1198.5602   -1679.2627    83.373632 
   37100    219.67962   -110.76389   0.19877073   -110.56512    6285.6102    4.3655809    4.3655809    4.3655809    6285.6102   -32.648481   -4230.3411     23119.82    1420.4672    1529.9045   -1857.3597    83.200533 
   37200    368.35416   -110.89797   0.33329459   -110.56468     722.9896    4.3658627    4.3658627    4.3658627     722.9896    60.526679   -3214.5982    5323.0403   -629.40404     829.0253    971.40833    83.216649 
   37300    317.17708   -110.85218   0.28698849   -110.56519   -725.31948    4.3694969    4.3694969    4.3694969   -725.31948   -11467.197     -4844.27    14135.508   -1747.5046   -2077.7824    1879.8005    83.424634 
   37400    304.58558   -110.84032   0.27559543   -110.56472    3994.0622    4.3632519    4.3632519    4.3632519    3994.0622     780.8129   -2466.8331    13668.207    1978.0733    1088.1114   -3258.8649    83.067445 
   37500    320.36971   -110.85432   0.28987725   -110.56445   -4577.6863    4.3698549    4.3698549    4.3698549   -4577.6863   -8262.4167     -5345.54   -125.10237   -2795.0426    -980.1202   -1719.8873    83.445142 
   37600    227.14533   -110.77047   0.20552587   -110.56495    1503.2087    4.3651952    4.3651952    4.3651952    1503.2087    -3019.401   -7535.5525    15064.579    1678.0553   -786.12957    1585.0784    83.178484 
   37700    286.01686    -110.8246   0.25879407   -110.56581    341.13741    4.3665806    4.3665806    4.3665806    341.13741    -2628.406   -4787.0869    8438.9051   -979.30198    -3112.804   -4350.7862    83.257704 
   37800    374.11116   -110.90472   0.33850364   -110.56622   -3441.0594    4.3678112    4.3678112    4.3678112   -3441.0594   -11630.296   -7619.3502    8926.4682   -2259.0123    -175.0478    1168.1107    83.328118 
   37900    252.73931   -110.79623   0.22868384   -110.56755   -1016.7517     4.366491     4.366491     4.366491   -1016.7517   -8166.0784   -5191.2211    10307.044   -799.97461    222.96243   -5918.8382    83.252584 
   38000    389.97408   -110.91916   0.35285674    -110.5663   -4459.4765    4.3657566    4.3657566    4.3657566   -4459.4765   -6295.8007   -1208.3246   -5874.3042     95.09995    1919.9566   -3120.7502    83.210582 
   38100    195.83487   -110.74383   0.17719551   -110.56664   -153.90726    4.3693955    4.3693955    4.3693955   -153.90726   -12695.507   -9109.6374    21343.422   -291.48028    278.17148    294.83812    83.418827 
   38200    298.66818   -110.83518   0.27024125   -110.56494   -939.16411    4.3646048    4.3646048    4.3646048   -939.16411   -4017.5342   -4374.6533    5574.6951   -1180.2527   -1010.5055   -616.99705    83.144741 
   38300    327.76612   -110.86065   0.29656967   -110.56408   -706.55697    4.3680046    4.3680046    4.3680046   -706.55697   -10089.565   -6361.6809    14331.575     1986.848    568.86239   -1933.2669    83.339185 
   38400    292.08429   -110.83016     0.264284   -110.56588   -3536.2012    4.3668364    4.3668364    4.3668364   -3536.2012   -10561.764   -3533.6584    3486.8185   -5921.6195   -1887.2089    1775.7635    83.272339 
   38500    400.37637   -110.92821   0.36226896   -110.56594   -6653.1443    4.3674423    4.3674423    4.3674423   -6653.1443   -12957.951    -3241.159   -3760.3229    547.12777   -808.61724   -4215.3951    83.307006 
   38600    150.18493    -110.7028   0.13589048   -110.56691    9087.9016    4.3650681    4.3650681    4.3650681    9087.9016   -3959.1333    1229.5264    29993.312   -825.08782   -126.41441    1107.5209    83.171217 
   38700    373.78073   -110.90364   0.33820466   -110.56544   -8707.9386    4.3678828    4.3678828    4.3678828   -8707.9386    -14482.05    -10425.94    -1215.825   -2386.5216   -2317.5949   -1186.2779    83.332217 
   38800     273.6992   -110.81346   0.24764879   -110.56581    1933.7784    4.3680734    4.3680734    4.3680734    1933.7784   -3528.7709   -2116.3717    11446.478    2389.6337   -186.13166   -4088.2716    83.343123 
   38900    298.12256   -110.83624   0.26974756   -110.56649    756.31189    4.3630068    4.3630068    4.3630068    756.31189   -4877.4174   -8443.3519    15589.705   -4532.0211    1762.9512   -895.68654    83.053449 
   39000    368.78861   -110.90022   0.33368769   -110.56654   -9470.6968    4.3728789    4.3728789    4.3728789   -9470.6968   -17569.684    -6073.189   -4769.2176   -149.95855    185.05492    5636.8461    83.618495 
   39100    208.35146   -110.75423   0.18852078   -110.56571    11889.821    4.3611831    4.3611831    4.3611831    11889.821     2348.326    7956.0444    25365.092   -1318.7696   -1188.6811   -4346.0225    82.949346 
   39200    363.43336   -110.89349   0.32884214   -110.56465   -10167.344    4.3699635    4.3699635    4.3699635   -10167.344     -14919.5    -10364.49   -5218.0405   -1798.2499    56.647313    -1838.045    83.451363 
   39300    224.86156   -110.76889   0.20345946   -110.56543    3918.9976    4.3680207    4.3680207    4.3680207    3918.9976     -5930.91    332.74899    17355.154    1023.6383   -1549.2541    396.44272    83.340112 
   39400    351.80547   -110.88325   0.31832098   -110.56493   -455.80171    4.3632961    4.3632961    4.3632961   -455.80171   -2641.2003   -8252.5771    9526.3724    390.53029    913.01181    -6278.902    83.069971 
   39500    361.84424    -110.8936   0.32740427    -110.5662   -6611.2155    4.3694308    4.3694308    4.3694308   -6611.2155   -13191.365   -7846.6088    1204.3268    -2807.942   -716.40854    1552.6873    83.420845 
   39600    263.46215    -110.8061   0.23838609   -110.56771    7593.3169    4.3661261    4.3661261    4.3661261    7593.3169    -3979.482    6182.6699    20576.763   -785.90986   -597.10986      547.783    83.231709 
   39700    320.79504   -110.85741   0.29026209   -110.56715   -1313.7678    4.3639929    4.3639929    4.3639929   -1313.7678    -5358.593    398.66131    1018.6283     1382.716    1557.7341   -5924.6999    83.109774 
   39800    257.92644   -110.80014   0.23337726   -110.56676   -5511.4324    4.3717575    4.3717575    4.3717575   -5511.4324   -11979.085   -6439.6266    1884.4145   -3140.6167   -1128.7104   -1922.1291    83.554182 
   39900    288.27164   -110.82488   0.26083424   -110.56404    6598.8597    4.3625258    4.3625258    4.3625258    6598.8597    1373.1004    2797.3744    15626.104    1064.7302     305.9139    2142.1286    83.025982 
   40000    366.10641   -110.89513   0.33126077   -110.56387   -8364.4941    4.3684956    4.3684956    4.3684956   -8364.4941    -10264.23   -14345.787   -483.46523   -528.74165   -682.50585   -6558.5895    83.367294 
   40100     236.5476   -110.77923   0.21403324    -110.5652    3592.5247    4.3693082    4.3693082    4.3693082    3592.5247   -6378.6987     732.2812    16423.992   -2936.6642    2141.8983    1283.1634    83.413824 
   40200    385.03007   -110.91191    0.3483833   -110.56352    1946.2474    4.3624821    4.3624821    4.3624821    1946.2474   -3944.5633     6773.278    3010.0274   -3.8799229   -3819.4179   -2225.3078    83.023487 
   40300    207.36336   -110.75293   0.18762673   -110.56531   -1581.8684    4.3705026    4.3705026    4.3705026   -1581.8684   -8690.4044   -4162.4576     8107.257   -1843.1879    3718.5219    -3593.255    83.482253 
   40400    331.75855   -110.86483   0.30018211   -110.56465    1994.9213    4.3660853    4.3660853    4.3660853    1994.9213   -2635.2675   -821.82997    9441.8614     591.5582   -1660.4844   -2630.8072    83.229378 
   40500    358.21584   -110.88917   0.32412122   -110.56505    -831.1446    4.3643731    4.3643731    4.3643731    -831.1446   -5946.5189   -6917.5672    10370.652    1743.7572    1539.5613     1577.438    83.131498 
   40600    200.02295   -110.74847   0.18098497   -110.56749   -846.47461    4.3712513    4.3712513    4.3712513   -846.47461   -6527.2819   -14294.053    18281.911   -1801.0229   -533.59545   -2815.6119    83.525162 
   40700    402.91123   -110.93065   0.36456255   -110.56609    2059.4936    4.3622721    4.3622721    4.3622721    2059.4936   -5554.5064    6446.6166    5286.3707   -252.76273   -767.45111    482.48908    83.011499 
   40800     261.5713   -110.80357   0.23667521   -110.56689    1032.6049    4.3684428    4.3684428    4.3684428    1032.6049   -8680.3121    964.03887    10814.088    105.40415   -2788.7092   -2519.5312    83.364269 
   40900    286.15507   -110.82538   0.25891912   -110.56646    720.59146    4.3682265    4.3682265    4.3682265    720.59146   -4632.5802   -1280.6829    8075.0374   -3747.7061   -573.57344    -1232.071    83.351889 
   41000    347.92749   -110.87887   0.31481211   -110.56406    1062.9003    4.3635904    4.3635904    4.3635904    1062.9003    -8240.072   -237.50214    11666.275   -868.83539   -1523.3538    543.79836    83.086783 
   41100    229.95898   -110.77315   0.20807172   -110.56508   -4526.5928    4.3694422    4.3694422    4.3694422   -4526.5928   -7177.0219   -10878.539     4475.782    2412.2981   -3720.5656   -4790.2995    83.421499 
   41200    322.45423   -110.85665   0.29176336   -110.56488   -4619.4942    4.3666813    4.3666813    4.3666813   -4619.4942   -10771.578   -3727.5861    640.68194   -4395.4489    1010.4699   -1037.4104    83.263469 
   41300    303.77358   -110.83961   0.27486072   -110.56475    2984.9111    4.3646764    4.3646764    4.3646764    2984.9111   -9140.9346    9005.5319     9090.136   -384.19113   -4148.4512    1480.2017    83.148832 
   41400    295.44921   -110.83332   0.26732865   -110.56599   -3070.2096    4.3700389    4.3700389    4.3700389   -3070.2096   -8424.3927   -6668.2169    5881.9808    1331.5894    2638.4963    965.53108     83.45568 
   41500    357.31873   -110.88933    0.3233095   -110.56602   -2209.2987    4.3642807    4.3642807    4.3642807   -2209.2987   -8807.8705    -1322.241    3502.2155   -1590.7853   -1274.7646   -2100.8763    83.126217 
   41600    216.34629   -110.76308   0.19575467   -110.56732   -964.73703    4.3679058    4.3679058    4.3679058   -964.73703   -8013.4995   -10431.727    15551.016    2676.2202    376.22628    1729.8989    83.333533 
   41700    344.62159   -110.87899   0.31182086   -110.56717     -7997.18    4.3670677    4.3670677    4.3670677     -7997.18   -10560.538   -10917.899   -2513.1029   -456.16547   -2470.8977   -5444.6798    83.285572 
   41800    243.23305   -110.78755   0.22008237   -110.56747    3145.2511    4.3658437    4.3658437    4.3658437    3145.2511   -9331.9427   -640.74489    19408.441   -1411.0978    1490.4365    1232.2217    83.215562 
   41900    328.61796   -110.86358   0.29734044   -110.56624    805.36472    4.3665977    4.3665977    4.3665977    805.36472   -11986.138    4990.9394    9411.2924   -1156.5659   -5069.8069    2846.5609    83.258685 
   42000    349.42768   -110.88169   0.31616951   -110.56552   -1513.2078    4.3675594    4.3675594    4.3675594   -1513.2078   -5878.2505   -5551.0827    6889.7098   -2832.7996    3071.2721   -3415.8276     83.31371 
   42100    245.08359   -110.78717   0.22175679   -110.56541    1125.4047     4.365744     4.365744     4.365744    1125.4047   -6999.8462   -3781.3598     14157.42    -1304.146   -2526.2191    1749.4726    83.209859 
   42200    340.70246   -110.87345   0.30827475   -110.56518   -3063.8876    4.3667607    4.3667607    4.3667607   -3063.8876   -4282.6875   -11403.211    6494.2353    1805.8284    332.48279   -165.14801     83.26801 
   42300     214.6137   -110.76008   0.19418698    -110.5659    860.23534    4.3684554    4.3684554    4.3684554    860.23534   -7452.2849   -8823.7463    18856.737   -891.85667   -951.68548    1887.7479    83.364994 
   42400    317.08925   -110.85211   0.28690902    -110.5652    2472.9295     4.363168     4.363168     4.363168    2472.9295   -5856.4888     7658.021    5617.2563   -359.09545    -711.7306   -2150.1838    83.062656 
   42500    346.14362   -110.87763   0.31319802   -110.56443    53.969296    4.3702087    4.3702087    4.3702087    53.969296   -7773.1605   -2738.1854    10673.254    3251.3639   -1892.2569    2280.0381     83.46541 
   42600    304.77366   -110.83996   0.27576561   -110.56419   -488.08219    4.3649814    4.3649814    4.3649814   -488.08219   -2963.2974   -1729.0825    3228.1333   -3629.0079   -1140.7352    -3168.233    83.166262 
   42700    304.36911   -110.83956   0.27539957   -110.56416    232.39796    4.3661285    4.3661285    4.3661285    232.39796   -2483.4351   -10120.501     13301.13    1323.6163   -647.73585   -2070.2313    83.231847 
   42800    288.02723   -110.82477   0.26061309   -110.56416   -3252.7046    4.3694227    4.3694227    4.3694227   -3252.7046   -4156.4143   -6752.7974     1151.098    971.52161   -779.81754   -161.91955    83.420385 
   42900    204.78121   -110.75129   0.18529034     -110.566    4127.1067     4.362864     4.362864     4.362864    4127.1067   -1670.6571   -2159.7355    16211.713   -3353.6795     1164.062   -3515.0946    83.045293 
   43000    383.40813   -110.91255   0.34691573   -110.56563    -3606.535    4.3698435    4.3698435    4.3698435    -3606.535   -8215.4281    7455.5109   -10059.688   -374.69519   -947.69657    3989.1565    83.444487 
   43100    286.48845   -110.82641   0.25922077   -110.56719    2316.9294    4.3648067    4.3648067    4.3648067    2316.9294   -1802.6195   -4915.1341    13668.542   -1040.0652    975.67195   -5161.7534    83.156281 
   43200     358.7683   -110.89139    0.3246211   -110.56677   -3436.3128    4.3670078    4.3670078    4.3670078   -3436.3128   -5263.7867   -4628.0949   -417.05665    856.35432   -1525.8842   -121.64945    83.282146 
   43300     260.0885   -110.80067   0.23533354   -110.56534   -48.414014    4.3675652    4.3675652    4.3675652   -48.414014   -1809.0977    -8099.231    9763.0867    284.67284   -1426.1271   -1781.6123     83.31404 
   43400    245.52611   -110.78624   0.22215719   -110.56408   -1436.6995    4.3656915    4.3656915    4.3656915   -1436.6995   -5273.9373   -2209.8879    3173.7267    2940.8075   -1078.6677   -365.97168    83.206858 
   43500    292.57771   -110.82884   0.26473046   -110.56411    2292.4275     4.367465     4.367465     4.367465    2292.4275   -2981.5222    7664.7178     2194.087   -602.94923    1173.1103   -2653.2931    83.308306 
   43600    316.43616   -110.85093   0.28631809   -110.56461    2780.9947    4.3659379    4.3659379    4.3659379    2780.9947   -7475.6129   -1025.1005    16843.697    2300.3369   -2243.0728    5221.4927    83.220951 
   43700    383.45178   -110.91249   0.34695523   -110.56554   -809.34363    4.3664216    4.3664216    4.3664216   -809.34363   -2987.5823   -2117.7716     2677.323    -960.4067    1846.5695   -5830.6569    83.248614 
   43800     301.1104   -110.83766   0.27245101   -110.56521    390.84878    4.3681838    4.3681838    4.3681838    390.84878   -5577.5755   -8288.2522    15038.374   -1943.7347    527.92252   -146.47419    83.349444 
   43900    223.81645   -110.76751   0.20251383     -110.565    3181.9336    4.3634328    4.3634328    4.3634328    3181.9336   -1070.7351    5361.7854    5254.7504    4534.1194   -1704.5322    2619.1108    83.077776 
   44000      303.028    -110.8396    0.2741861   -110.56541   -4626.8042    4.3709005    4.3709005    4.3709005   -4626.8042   -9065.8438    -4126.476   -688.09288   -3322.4981   -1350.6557   -1740.3229    83.505056 
   44100    264.36148    -110.8042   0.23919982     -110.565    7870.4775     4.362019     4.362019     4.362019    7870.4775   -976.89152    9915.4023    14672.922    1507.9073    -170.4283    -1369.612    82.997053 
   44200    389.35462   -110.91729   0.35229624   -110.56499   -7007.3349     4.370745     4.370745     4.370745   -7007.3349   -12231.602   -8416.9566   -373.44594    444.39234   -3471.8207    812.52243    83.496141 
   44300    357.96854   -110.88929   0.32389746    -110.5654    472.86127    4.3653696    4.3653696    4.3653696    472.86127   -5018.3411    3194.7745    3242.1504    313.93779   -277.16963   -1448.3141    83.188457 
   44400    211.77169   -110.75867   0.19161547   -110.56706    849.57132    4.3645374    4.3645374    4.3645374    849.57132   -3416.5539   -431.66942    6396.9373   -91.262233   -2061.3325   -4613.4926    83.140888 
   44500    334.29497   -110.86923   0.30247712   -110.56675   -9965.1633    4.3721422    4.3721422    4.3721422   -9965.1633    -14844.91   -2386.5765   -12664.004    2306.8994   -244.98973    2367.4979     83.57624 
   44600    231.21324   -110.77434    0.2092066   -110.56514     7478.583    4.3606772    4.3606772    4.3606772     7478.583    2378.0263    3705.2023     16352.52   -1956.7501    969.90369   -7396.4309    82.920484 
   44700    343.54282   -110.87558   0.31084476   -110.56473    -11205.99    4.3718499    4.3718499    4.3718499    -11205.99   -16507.463   -7678.0876   -9432.4181   -1689.6435   -1749.6707     2059.974    83.559479 
   44800    344.89241   -110.87637    0.3120659   -110.56431    132.05503    4.3651535    4.3651535    4.3651535    132.05503   -7819.3917    769.82357    7445.7332    1975.4972   -586.74883   -220.80004    83.176101 
   44900    284.34451   -110.82194   0.25728089   -110.56466    1152.9293    4.3651784    4.3651784    4.3651784    1152.9293   -6482.3728    7309.8621    2631.2987   -4358.5872    236.78021    809.63987    83.177523 
   45000    298.09758   -110.83384   0.26972496   -110.56412   -6879.4094    4.3707847    4.3707847    4.3707847   -6879.4094    -15056.91   -370.87823   -5210.4405    2355.9313   -2486.6174   -3952.6523    83.498419 
   45100    249.06996   -110.78881   0.22536373   -110.56345    4634.2895    4.3640908    4.3640908    4.3640908    4634.2895   -4933.9097    727.40435    18109.374   -1304.7163   -2159.7802   -267.80209    83.115371 
   45200    350.94865   -110.88084   0.31754571   -110.56329   -4161.5323    4.3661072    4.3661072    4.3661072   -4161.5323   -6655.4104    -3950.231   -1878.9555   -2439.2342     1908.859   -2318.6556     83.23063 
   45300    221.64882   -110.76611   0.20055251   -110.56556   -3819.8162     4.371071     4.371071     4.371071   -3819.8162   -16459.763   -5562.1704    10562.485    2899.1386   -3533.4652     792.6347    83.514826 
   45400    385.99761   -110.91391   0.34925875   -110.56466    3151.8848    4.3608985    4.3608985    4.3608985    3151.8848   -1164.5558    10742.903   -122.69321   -2120.1025    239.94599   -834.16438     82.93311 
   45500    268.99133   -110.80936   0.24338901   -110.56597   -3080.7705    4.3719692    4.3719692    4.3719692   -3080.7705   -15154.893   -7939.8508    13852.432   -335.37593    518.94465   -2472.6185    83.566324 
   45600    293.89751   -110.83106   0.26592464   -110.56513    608.23804    4.3648802    4.3648802    4.3648802    608.23804   -7138.3458    4161.9745    4801.0854    1011.6236   -2418.6392    1644.1164    83.160478 
   45700    336.47332   -110.86803   0.30444813   -110.56358    2238.1193     4.364737     4.364737     4.364737    2238.1193   -2058.2385   -5451.7883    14224.385    -1570.364   -901.80427   -872.94063    83.152295 
   45800    208.36864   -110.75393   0.18853633    -110.5654    -5026.983    4.3716792    4.3716792    4.3716792    -5026.983   -14506.836    1700.1121   -2274.2252     234.2436   -691.01657   -2411.0404    83.549694 
   45900    337.74645   -110.87088   0.30560008   -110.56528    3675.0935    4.3614744    4.3614744    4.3614744    3675.0935   -351.49681    4260.7532     7116.024    1547.6289   -1697.6287    859.66752     82.96597 
   46000     270.1338   -110.80944   0.24442274   -110.56502    3718.1992    4.3704635    4.3704635    4.3704635    3718.1992   -10403.042    6241.5605    15316.079    1217.7684   -376.87551   -972.01003    83.480012 
   46100    399.00359   -110.92482   0.36102684   -110.56379     -4974.98    4.3653046    4.3653046    4.3653046     -4974.98   -6499.1283   -5393.9058   -3031.9059   -859.98269   -1497.2967   -2499.6175    83.184738 
   46200    238.80375   -110.78059   0.21607465   -110.56452    7447.4946    4.3666398    4.3666398    4.3666398    7447.4946   -3250.5037    9050.1595    16542.828    2559.7192   -935.57389    3344.1624    83.261093 
   46300     331.8648   -110.86463   0.30027824   -110.56436   -4890.7971    4.3675028    4.3675028    4.3675028   -4890.7971    -10011.44    3711.9844   -8372.9361   -1017.7994    878.01346    -4182.482    83.310467 
   46400    209.02446   -110.75504   0.18912973   -110.56591    1826.3547    4.3661121    4.3661121    4.3661121    1826.3547   -1763.4057    1593.5541    5648.9158     2115.247   -1601.7559    567.40019    83.230913 
   46500    330.36805   -110.86231   0.29892396   -110.56339    3070.9907    4.3673351    4.3673351    4.3673351    3070.9907   -9509.9662    13977.438    4745.5003     1884.668   -676.07646    301.08875     83.30087 
   46600    388.45104   -110.91473   0.35147866   -110.56325   -3233.3409    4.3655994    4.3655994    4.3655994   -3233.3409   -4395.8436   -8174.7492    2870.5702   -2564.7666    474.19782   -2687.0332    83.201595 
   46700    236.03136    -110.7799   0.21356614   -110.56633    2455.3172    4.3695105    4.3695105    4.3695105    2455.3172   -8933.0867    17894.575   -1595.5364    2970.5178   -2436.8227   -1712.9185     83.42541 
   46800    368.89095   -110.89823   0.33378028   -110.56445   -1585.9494    4.3642852    4.3642852    4.3642852   -1585.9494   -7226.7269   -844.94037    3313.8192   -1898.6832   -1221.7637    924.86787    83.126473 
   46900    201.08991   -110.74682   0.18195037   -110.56487   -1664.1251    4.3680825    4.3680825    4.3680825   -1664.1251   -4552.5325    2026.5838   -2466.4266    2393.8483    849.65549   -4374.6521    83.343646 
   47000    333.09543   -110.86607   0.30139175   -110.56468   -2810.5985    4.3671513    4.3671513    4.3671513   -2810.5985   -9122.2637   -3723.9643    4414.4326    2005.0666   -1980.4805    1545.6872    83.290354 
   47100    298.44746   -110.83536   0.27004153   -110.56532    2441.5273    4.3646351    4.3646351    4.3646351    2441.5273   -4392.8276    5002.2381    6715.1713    2316.2224     539.2427   -157.56006    83.146471 
   47200    322.81105   -110.85748   0.29208623   -110.56539   -6003.5235    4.3713981    4.3713981    4.3713981   -6003.5235   -9630.9177    1980.8198   -10360.472    -966.1594   -70.969946   -3961.6552    83.533578 
   47300    284.93356   -110.82192   0.25781388   -110.56411    3210.0183    4.3632247    4.3632247    4.3632247    3210.0183   -6626.0806    3084.4244    13171.711    1530.4338   -428.96187    327.57556    83.065895 
   47400    325.09196   -110.85716   0.29415004   -110.56301   -4253.6672    4.3675152    4.3675152    4.3675152   -4253.6672   -6430.5683   -3067.9312   -3262.5019    2406.5962    64.066158    668.36345    83.311176 
   47500    292.59081   -110.82913   0.26474232   -110.56439   -3712.1156    4.3701515    4.3701515    4.3701515   -3712.1156   -9116.9914   -10449.666    8430.3106    -1613.128   -491.76414    687.96195    83.462134 
   47600    223.13775   -110.76682   0.20189973   -110.56492    7189.2728    4.3616931    4.3616931    4.3616931    7189.2728   -5634.6325    17964.736    9237.7145    4888.6808   -3747.6106   -2178.3533     82.97845 
   47700     369.3387   -110.89796   0.33418542   -110.56377   -5910.2924    4.3717603    4.3717603    4.3717603   -5910.2924   -6916.8529   -4695.4258   -6118.5985   -3445.5289    253.22954    2396.7448    83.554344 
   47800    260.59345   -110.79994   0.23579043   -110.56414    4317.2867    4.3651452    4.3651452    4.3651452    4317.2867    -9039.244    14592.941    7398.1626    2561.3755   -1695.5722   -3108.3213    83.175626 
   47900    346.86289   -110.87733   0.31384883   -110.56349   -1208.1366    4.3641149    4.3641149    4.3641149   -1208.1366   -927.21259   -5386.7864    2689.5892    2837.2964   -1645.7235   -732.58112    83.116743 
   48000    296.45927   -110.83258   0.26824257   -110.56434   -1281.0859     4.372785     4.372785     4.372785   -1281.0859    -15268.78    8151.3004    3274.2215   -86.100553    2567.2259   -1507.0056     83.61311 
   48100    266.53685   -110.80604   0.24116815   -110.56487    6626.3931    4.3610409    4.3610409    4.3610409    6626.3931     216.4192     10835.99    8826.7704    3535.8547   -684.00986   -599.94101    82.941233 
   48200     290.2108   -110.82764   0.26258883   -110.56506     -1857.01    4.3689703    4.3689703    4.3689703     -1857.01   -12368.629    10236.968   -3439.3686   -985.42596   -26.349909    1795.6152    83.394477 
   48300    365.02333   -110.89437   0.33028078   -110.56409   -2342.3142     4.369161     4.369161     4.369161   -2342.3142   -7261.0031     2084.092   -1850.0315   -183.93993   -17.708665   -92.978748    83.405394 
   48400    268.26603    -110.8084   0.24273274   -110.56566    7063.2345    4.3611063    4.3611063    4.3611063    7063.2345    251.93182    15487.781    5449.9904     1126.538   -529.68649   -163.61793    82.944961 
   48500    303.07671   -110.83989   0.27423017   -110.56566     -4467.79    4.3729361    4.3729361    4.3729361     -4467.79    -16666.54    3763.3121   -500.14189     1791.754   -2939.0534   -799.85959    83.621775 
   48600    328.04719   -110.86122   0.29682399   -110.56439    6082.1182    4.3629963    4.3629963    4.3629963    6082.1182     2947.959    9413.4873    5884.9082   -4062.7637   -536.45717    -1772.664    83.052847 
   48700    263.67521   -110.80334   0.23857887   -110.56477   -2442.0245     4.366854     4.366854     4.366854   -2442.0245   -12949.851    6024.4963    -400.7192    663.71057    -1982.431   -2002.2566    83.273347 
   48800     300.8704    -110.8361   0.27223386   -110.56386   -6477.9768    4.3701571    4.3701571    4.3701571   -6477.9768   -6017.9618   -5082.7197   -8333.2491    2063.5065       474.33    937.38048    83.462452 
   48900    302.78433   -110.83715   0.27396562   -110.56318    3916.9199    4.3641443    4.3641443    4.3641443    3916.9199   -2715.1928    14669.667   -203.71479   -2770.0879    835.94754   -2311.5276    83.118424 
   49000    296.65165   -110.83344   0.26841665   -110.56502    -5399.289    4.3679736    4.3679736    4.3679736    -5399.289   -10437.405   -7496.9923    1736.5299    4863.6318   -823.19815   -312.53318    83.337415 
   49100    294.71978   -110.83213   0.26666865   -110.56546   -704.63015     4.368152     4.368152     4.368152   -704.63015     -6001.38    6043.3365    -2155.847   -2808.7165    1549.8055   -83.564777    83.347624 
   49200    380.56396   -110.90883   0.34434227   -110.56449   -3130.1464    4.3647829    4.3647829    4.3647829   -3130.1464   -7852.9084   -3773.1854    2235.6546    -713.3552   -2318.4361   -856.35778    83.154919 
   49300    174.37328   -110.72459   0.15777661   -110.56682   -3750.3203    4.3685592    4.3685592    4.3685592   -3750.3203   -9820.9925    6150.0678   -7580.0362    2399.0312   -3737.5932   -1444.7143    83.370935 
   49400    365.77225   -110.89555   0.33095842   -110.56459    -4540.538    4.3674666    4.3674666    4.3674666    -4540.538   -5466.4965   -5217.9684    -2937.149   -609.58971    178.13209    1089.5028    83.308398 
   49500    282.05171   -110.81993   0.25520631   -110.56472    3376.6027    4.3649392    4.3649392    4.3649392    3376.6027   -6056.1006    11092.969    5092.9396    1309.6414   -1642.4615   -184.21237    83.163851 
   49600    291.53539   -110.82895   0.26378735   -110.56517   -5167.3647    4.3689135    4.3689135    4.3689135   -5167.3647    -6916.463   -6639.6471   -1945.9839   -1057.0076   -2988.0558   -840.35428    83.391224 
   49700    346.32803   -110.87788   0.31336488   -110.56451    1879.6856    4.3663997    4.3663997    4.3663997    1879.6856   -7944.1998    12027.078    1556.1787    527.21392    2074.2257    2931.9699    83.247357 
   49800    256.92717   -110.79878    0.2324731   -110.56631    1750.9111    4.3650134    4.3650134    4.3650134    1750.9111   -2713.6306     5659.429     2306.935     244.1429    390.62755   -3202.1569    83.168091 
   49900    309.19953   -110.84588   0.27977023   -110.56611   -7862.8176    4.3711062    4.3711062    4.3711062   -7862.8176   -10346.935   -11304.263   -1937.2543    5017.9917   -1950.5537    170.30822    83.516842 
   50000    301.23486   -110.83681   0.27256363   -110.56424    9807.8114     4.362865     4.362865     4.362865    9807.8114    526.64929    20745.725    8151.0597   -3259.5079     960.0525    1064.5816    83.045352 
   50100     329.5776   -110.86271   0.29820874    -110.5645    -1867.353    4.3675325    4.3675325    4.3675325    -1867.353   -6147.5025   -3811.5857    4357.0292    2653.9285     -2043.08   -218.14573    83.312165 
   50200    216.88081   -110.76173   0.19623832   -110.56549    2718.2209    4.3698309    4.3698309    4.3698309    2718.2209   -10753.512        23570   -4661.8255    1605.8303   -1210.7406   -1616.5406    83.443766 
   50300    398.20542   -110.92376   0.36030463   -110.56346    3363.6171    4.3618639    4.3618639    4.3618639    3363.6171    2024.5335   -578.06398    8644.3817    -1621.857   -1226.2908    4229.8651    82.988198 
   50400     265.0266   -110.80468   0.23980163   -110.56488   -4005.5342    4.3712085    4.3712085    4.3712085   -4005.5342   -13856.559    3939.1526   -2099.1966    1592.2559    934.67943   -1394.0789     83.52271 
   50500    302.52917   -110.83783   0.27373475   -110.56409    1691.0958    4.3655121    4.3655121    4.3655121    1691.0958    1667.2514     2971.217    434.81909    488.23823   -856.56923   -798.54245    83.196601 
   50600    312.65203   -110.84657   0.28289412   -110.56368    5593.0474    4.3647931    4.3647931    4.3647931    5593.0474   -8093.2431    15009.307     9863.078    -342.6926    119.08922   -66.411047    83.155503 
   50700    255.29861   -110.79632   0.23099955   -110.56532   -5336.1107    4.3716483    4.3716483    4.3716483   -5336.1107   -7303.1086    4413.7079   -13118.932   -604.60886   -1546.7654   -2761.9597    83.547921 
   50800    326.31927   -110.85979   0.29526054   -110.56453    1324.1029    4.3623272    4.3623272    4.3623272    1324.1029   -3585.0449   -100.45702    7657.8105    7835.9719    610.67803   -471.00232    83.014642 
   50900    345.81408   -110.87695   0.31289985   -110.56405   -3224.1661    4.3694628    4.3694628    4.3694628   -3224.1661   -6991.1741    1074.7121   -3756.0364   -3079.0328   -1875.2993    69.247462    83.422678 
   51000    265.57041    -110.8051   0.24029369    -110.5648   -2450.2952     4.367673     4.367673     4.367673   -2450.2952    -3314.753   -1571.0171   -2465.1156    6807.3918   -1374.1057    2865.8908    83.320207 
   51100    265.45563   -110.80428   0.24018983   -110.56409    6121.3426     4.364439     4.364439     4.364439    6121.3426   -6894.5237    16963.319    8295.2322   -1298.6633    2717.0849   -2263.0924    83.135266 
   51200    346.81633   -110.87723    0.3138067   -110.56343   -6172.4592    4.3706849    4.3706849    4.3706849   -6172.4592   -716.20223   -7025.4392   -10775.736     549.4749   -2896.9363    1000.9583      83.4927 
   51300    240.40903    -110.7823   0.21752715   -110.56477   -195.51472    4.3634311    4.3634311    4.3634311   -195.51472   -9806.8472    6233.3701    2986.9329    3114.8645   -201.12074   -746.24694    83.077682 
   51400    362.91002   -110.89315   0.32836861   -110.56478   -4414.6804    4.3696437    4.3696437    4.3696437   -4414.6804   -808.27161   -1954.3619   -10481.408    -1179.414    470.87689   -213.00387     83.43304 
   51500    248.53066   -110.79049   0.22487576   -110.56561    4586.0491    4.3657042    4.3657042    4.3657042    4586.0491   -4872.8343    12344.809    6286.1723    2024.1883   -2086.5664    -23.15757    83.207588 
   51600    344.95984   -110.87775   0.31212691   -110.56562   -2165.6895    4.3665599    4.3665599    4.3665599   -2165.6895     -4375.28    3550.7204    -5672.509    1546.2553   -3092.1583    173.01923    83.256523 
   51700    262.14641   -110.80229   0.23719558   -110.56509    4572.9088    4.3688604    4.3688604    4.3688604    4572.9088   -115.37177    8640.9844    5193.1139    3804.4738     1768.618    -376.3785     83.38818 
   51800    367.66351   -110.89685   0.33266967   -110.56418   -3025.2384    4.3631305    4.3631305    4.3631305   -3025.2384   -8187.9721    5577.7683   -6465.5112     -78.2271    -1194.278    450.04623    83.060513 
   51900    182.58442   -110.73099   0.16520622   -110.56579    3922.5796    4.3704579    4.3704579    4.3704579    3922.5796   -3704.6885    22047.003   -6574.5758    6484.4605   -137.09639   -267.45437     83.47969 
   52000    389.85867   -110.91613   0.35275232   -110.56338    918.11566    4.3651484    4.3651484    4.3651484    918.11566   -5678.1725    2951.2528    5481.2667   -3543.3298    1997.2528   -2408.1225    83.175807 
   52100    312.67424   -110.84733   0.28291422   -110.56442    2876.6141    4.3653865    4.3653865    4.3653865    2876.6141   -3705.0276    16143.316   -3808.4461    3318.9151   -1146.3609     589.6062    83.189422 
   52200    249.04329   -110.79018   0.22533961   -110.56484    1734.6684    4.3709011    4.3709011    4.3709011    1734.6684   -4969.3954    61.203724    10112.197    1276.8683    -297.7555   -449.70494    83.505091 
   52300     365.9157   -110.89508   0.33108822   -110.56399    953.93723    4.3616332    4.3616332    4.3616332    953.93723   -5543.5571    14991.265   -6585.8961   -1670.0682   -3349.6877    3321.8808    82.975029 
   52400    167.70083   -110.71835   0.15173924   -110.56661     1853.713    4.3704483    4.3704483    4.3704483     1853.713   -3344.0504     7551.549    1353.6403    3301.6962   -1892.2284   -346.86948    83.479139 
   52500    434.60384   -110.95768   0.39323869   -110.56444   -7967.8501    4.3662791    4.3662791    4.3662791   -7967.8501   -11255.467   -7525.8777   -5122.2053     3871.228   -1372.7697    975.76093    83.240461 
   52600    215.60205   -110.76065   0.19508127   -110.56557    9513.6287    4.3647355    4.3647355    4.3647355    9513.6287    2601.9214    17532.832    8406.1324    1872.2341   -1889.0837   -731.47645    83.152211 
   52700    349.72429   -110.88107   0.31643789   -110.56464   -7150.9644     4.370277     4.370277     4.370277   -7150.9644   -11412.515    -6829.128   -3211.2501    873.56184     504.8971   -1926.9078    83.469322 
   52800    237.93754   -110.77968   0.21529089   -110.56439    2917.8286    4.3647816    4.3647816    4.3647816    2917.8286   -4702.7626    8730.2408    4726.0076    5672.3322    2069.2891   -261.29509    83.154843 
   52900    331.33981   -110.86352   0.29980322   -110.56372   -3270.0606    4.3671553    4.3671553    4.3671553   -3270.0606   -2445.8506   -4226.7205   -3137.6106   -1844.3441   -1266.6407   -152.65907    83.290582 
   53000    314.56198   -110.84931   0.28462229   -110.56469   -7793.3104    4.3690116    4.3690116    4.3690116   -7793.3104   -14261.365    1035.0706   -10153.636    4041.8827   -1320.0185   -1130.6549    83.396841 
   53100     241.7692   -110.78402   0.21875785   -110.56526    7033.2298    4.3640152    4.3640152    4.3640152    7033.2298    4833.9842    6222.0562    10043.649     96.29366    1358.5764   -49.481113    83.111047 
   53200    372.35573   -110.90119   0.33691529   -110.56427    -6709.461    4.3701884    4.3701884    4.3701884    -6709.461   -15286.827    5460.4913   -10302.047    246.10641   -4305.6466    3097.6905    83.464245 
   53300    191.22591   -110.73807   0.17302522   -110.56505    2876.1399    4.3649225    4.3649225    4.3649225    2876.1399    3991.7747   -6684.8043    11321.449    7297.3224   -840.46957   -419.26676    83.162898 
   53400    426.51598   -110.94915   0.38592063   -110.56323   -8063.2939    4.3680613    4.3680613    4.3680613   -8063.2939   -10557.055   -4164.2176   -9468.6091   -500.05246    436.25554   -386.54746    83.342435 
   53500     203.1447   -110.74892   0.18380959   -110.56511    3031.2956    4.3673622    4.3673622    4.3673622    3031.2956    4852.2374    3746.2272    495.42233    4305.3839   -1171.5681    -94.78634    83.302422 
   53600    358.33695   -110.88823    0.3242308     -110.564   -2364.5698    4.3651487    4.3651487    4.3651487   -2364.5698   -5452.5485    1806.0543   -3447.2153    490.92946    45.729132    1264.2168    83.175827 
   53700    248.72268   -110.78935   0.22504951    -110.5643    5830.0224    4.3695666    4.3695666    4.3695666    5830.0224    1000.6477    13652.726    2836.6933    729.96313    1512.0986   -1803.2579    83.428628 
   53800    342.86373   -110.87374   0.31023031   -110.56351   -1182.4329    4.3637178    4.3637178    4.3637178   -1182.4329     2506.143   -7084.5747    1031.1331    1349.6101   -1119.6955    2480.4416    83.094061 
   53900    317.24662   -110.85138   0.28705141   -110.56433   -4244.7366    4.3697611    4.3697611    4.3697611   -4244.7366   -4650.6409   -3964.0196   -4119.5495    3789.5976   -2567.0732   -1404.1531    83.439769 
   54000     262.0108   -110.80142   0.23707287   -110.56435    6426.7329    4.3650943    4.3650943    4.3650943    6426.7329    15927.702    56.643119    3295.8535   -1575.3813    637.18149   -2069.0007     83.17272 
   54100    351.08348     -110.882   0.31766771   -110.56433   -4133.5764    4.3667807    4.3667807    4.3667807   -4133.5764   -9065.3284    7493.2099   -10828.611    650.41126   -1399.5032    2535.0195    83.269152 
   54200    203.29539   -110.74987   0.18394594   -110.56593    6863.8857    4.3691454    4.3691454    4.3691454    6863.8857    10946.277    2799.9723    6845.4079    1964.9542   -1042.2504   -952.59571      83.4045 
   54300    430.94594   -110.95414   0.38992894   -110.56421   -3586.0326    4.3632012    4.3632012    4.3632012   -3586.0326   -5615.7197   -1712.6172   -3429.7608   -1293.6636   -230.58995    1414.8949    83.064549 
   54400    174.86463   -110.72454   0.15822119   -110.56632    747.09662    4.3702028    4.3702028    4.3702028    747.09662    7592.1421    -6130.981    780.12874     3963.535   -3581.7076    655.33943    83.465073 
   54500     395.1053   -110.92159   0.35749958   -110.56409   -4185.7427    4.3653747    4.3653747    4.3653747   -4185.7427   -381.08673   -9168.5543    -3007.587    885.83747   -1448.6382    101.70733    83.188746 
   54600    202.41811   -110.74852   0.18315216   -110.56537    6121.2587    4.3654622    4.3654622    4.3654622    6121.2587    6790.3801    11845.341   -271.94476   -87.081204   -2545.8714   -2345.7471     83.19375 
   54700    382.20618   -110.91037   0.34582819   -110.56454   -9225.8633    4.3709522    4.3709522    4.3709522   -9225.8633   -11773.088   -7106.0554   -8798.4468    3723.6741    594.47491    2550.9131    83.508017 
   54800    260.22765   -110.80089   0.23545945   -110.56543    6630.2577    4.3619033    4.3619033    4.3619033    6630.2577    11706.323    372.25061    7812.1998     5176.275   -1525.4882   -2267.5511    82.990449 
   54900    324.88253    -110.8592   0.29396054   -110.56524   -5374.5312    4.3697971    4.3697971    4.3697971   -5374.5312   -4725.8838    -3760.534   -7637.1759   -3362.7417    -1008.281   -1063.7058    83.441827 
   55000    276.51149   -110.81477   0.25019341   -110.56458   -3620.3203    4.3680679    4.3680679    4.3680679   -3620.3203    5801.8361   -12274.156   -4388.6406    4124.7246   -64.773242   -672.95686    83.342809 
   55100    279.54432   -110.81679   0.25293757   -110.56385    5162.3152    4.3625961    4.3625961    4.3625961    5162.3152    1262.0481    4237.1654    9987.7321    776.19065   -545.19171   -1557.0041    83.029998 
   55200    358.00001   -110.88752   0.32392593   -110.56359   -7775.2859    4.3723806    4.3723806    4.3723806   -7775.2859   -2078.2937   -4881.2081   -16366.356   -763.13701   -1801.4166    1666.0937    83.589911 
   55300    217.39808   -110.76121   0.19670635    -110.5645    6999.5502    4.3632448    4.3632448    4.3632448    6999.5502    4568.3131   -737.24733    17167.585    8402.5671   -1870.0417   -982.82576    83.067042 
   55400    423.87891   -110.94718   0.38353454   -110.56365   -3242.0297    4.3667065    4.3667065    4.3667065   -3242.0297    5127.7048   -2995.1817   -11858.612    525.90408   -44.108469     2916.383    83.264905 
   55500     173.5924   -110.72353   0.15707005   -110.56646    1437.4786    4.3698859    4.3698859    4.3698859    1437.4786    3874.4833   -6778.2779    7216.2303     2658.683   -3863.9664      13.0553    83.446914 
   55600    392.33622   -110.91979   0.35499406    -110.5648   -2819.1504    4.3628682    4.3628682    4.3628682   -2819.1504   -5332.4368    -4772.909    1647.8946     2285.876    2471.2546    -765.1578    83.045533 
   55700    239.48296   -110.78133   0.21668922   -110.56465    4610.9149    4.3703307    4.3703307    4.3703307    4610.9149    7771.4096    3168.8813    2892.4539   -28.988994    -730.2122   -2823.8759    83.472403 
   55800    316.56304   -110.85008   0.28643289   -110.56364   -2146.0337     4.365275     4.365275     4.365275   -2146.0337   -6040.9906   -4249.9555    3852.8449    1927.8671   -355.55039    487.07734    83.183047 
   55900    305.62691   -110.84113   0.27653765   -110.56459     1833.524     4.366917     4.366917     4.366917     1833.524    8903.7032   -4004.5314    601.40016    2089.5153   -1926.3312   -2598.8428    83.276951 
   56000    285.18032   -110.82328   0.25803714   -110.56525    1828.8268    4.3670101    4.3670101    4.3670101    1828.8268   -4699.5931    2918.2759    7267.7975    -1362.197    195.88972   -1677.8233    83.282275 
   56100    348.09088   -110.88052   0.31495994   -110.56556    -6771.713    4.3664312    4.3664312    4.3664312    -6771.713   -3156.7331   -9129.0165   -8029.3894      1307.16   -1973.3082    2389.5128     83.24916 
   56200    217.91316   -110.76222    0.1971724   -110.56505    6263.2853    4.3681663    4.3681663    4.3681663    6263.2853   -6502.5503     9693.656     15598.75    3508.6556   -727.05824   -331.35451    83.348446 
   56300    388.01325   -110.91496   0.35108254   -110.56388   -4286.2809    4.3648943    4.3648943    4.3648943   -4286.2809    1618.8135   -8124.6214   -6353.0349    -324.7206    277.83481   -646.60206    83.161288 
   56400     205.2636   -110.75209   0.18572682   -110.56636     887.8023    4.3687233    4.3687233    4.3687233     887.8023   -3932.0036     -2156.63    8752.0406    3293.6226   -4464.4932    954.20881    83.380334 
   56500    360.89753   -110.89121   0.32654767   -110.56466   -1644.0777    4.3663491    4.3663491    4.3663491   -1644.0777   -4430.4255    618.02578   -1119.8333   -1502.4895    -129.3091   -2883.6184    83.244467 
   56600    333.03007   -110.86625   0.30133261   -110.56492   -2057.5448    4.3652472    4.3652472    4.3652472   -2057.5448   -1133.2723   -4404.1545   -635.20765    66.908715   -2334.4574   -3632.0751     83.18146 
   56700    246.06172   -110.78831   0.22264182   -110.56567   -2043.0323    4.3703263    4.3703263    4.3703263   -2043.0323   -15937.751    4223.9263    5584.7279    2664.4936    -652.4194    1438.9802    83.472149 
   56800    349.16143   -110.87949    0.3159286   -110.56356    795.27423    4.3633016    4.3633016    4.3633016    795.27423    4612.0184   -2071.0885   -155.10724   -326.33156    1408.3826   -3604.3082    83.070283 
   56900     247.1623   -110.78799   0.22363764   -110.56436   -550.87177    4.3687775    4.3687775    4.3687775   -550.87177   -8876.9209   -886.29442       8110.6    1565.2791   -2804.0645    2397.4154    83.383433 
   57000      276.538   -110.81525   0.25021739   -110.56504   -655.71449    4.3672975    4.3672975    4.3672975   -655.71449   -2032.3349   -3933.6221    3998.8135    1936.4926   -2058.6292   -15.495048    83.298722 
   57100    378.21357   -110.90617   0.34221559   -110.56395    336.05927    4.3650825    4.3650825    4.3650825    336.05927    87.449535   -652.93064    1573.6589   -145.76225   -1949.8761   -2355.3584     83.17204 
   57200    245.57212   -110.78822   0.22219881   -110.56602    2035.8478    4.3691242    4.3691242    4.3691242    2035.8478   -7094.0798    1861.1049    11340.518   -2429.9224   -216.52646    346.77489    83.403286 
   57300    349.76591    -110.8817   0.31647554   -110.56523   -1752.1926     4.364428     4.364428     4.364428   -1752.1926   -3183.9153   -2185.4598    112.79733    5977.7315   -1234.3109    1182.6184    83.134634 
   57400    231.79267   -110.77465   0.20973088   -110.56492    4987.6691    4.3676774    4.3676774    4.3676774    4987.6691   -3258.0805   -1998.9528    20220.041    200.83105    689.27944   -1788.8477    83.320458 
   57500    337.07825   -110.86959   0.30499549   -110.56459   -4382.2035    4.3670428    4.3670428    4.3670428   -4382.2035    3198.1353   -9843.5826   -6501.1631    955.50862    -271.7348    873.68161    83.284148 
   57600    263.87589   -110.80445   0.23876045   -110.56569    3562.8488    4.3660128    4.3660128    4.3660128    3562.8488   -3213.2427   -3598.1952    17499.984    3780.4261     231.0577   -226.77772    83.225233 
   57700    348.27189   -110.87936   0.31512373   -110.56423    2928.5411    4.3670033    4.3670033    4.3670033    2928.5411    5169.1452    2717.5841    898.89393    -3311.315     1098.612   -2856.9736    83.281889 
   57800    309.54331   -110.84445   0.28008129   -110.56437   -3045.3487    4.3673804    4.3673804    4.3673804   -3045.3487   -7765.5875   -6355.0938    4984.6352    3444.2778   -1930.1426   -487.85278    83.303465 
   57900    226.18908   -110.76859   0.20466063   -110.56393    3527.1319    4.3655433    4.3655433    4.3655433    3527.1319   -450.00907    680.75915    10350.646   -196.39936     84.78704   -450.66128    83.198384 
   58000    380.08615   -110.90612   0.34390994   -110.56221   -8555.9593    4.3694946    4.3694946    4.3694946   -8555.9593    864.35478   -18281.511    -8250.722    377.64229   -3312.5229   -1672.0608      83.4245 
   58100    192.56111   -110.73846   0.17423334   -110.56423    4112.7731     4.363956     4.363956     4.363956    4112.7731   -1893.0341   -774.37056    15005.724   -458.93679    -1772.815   -2024.6432    83.107667 
   58200    381.90304   -110.90996    0.3455539    -110.5644    -5426.686    4.3692125    4.3692125    4.3692125    -5426.686   -1030.5907   -6549.9367   -8699.5306   -4.4334272    1524.3756    2421.3887    83.408347 
   58300     299.6652    -110.8364   0.27114337   -110.56526    3121.3507    4.3645085    4.3645085    4.3645085    3121.3507   -1529.8247    2267.3339    8626.5427    517.75418     464.4207   -5502.1595    83.139237 
   58400    273.19985   -110.81324   0.24719696   -110.56605   -4937.1615    4.3693579    4.3693579    4.3693579   -4937.1615    -9806.942   -2107.0238   -2897.5187    2402.2965    1431.3169    1835.3365    83.416671 
   58500     330.7784   -110.86365   0.29929524   -110.56436   -2495.8469    4.3648165    4.3648165    4.3648165   -2495.8469   -641.68027   -7416.3678     570.5075    3477.6863    1046.8713   -3491.2358    83.156837 
   58600    243.63792   -110.78512   0.22044871   -110.56467   -1309.4359    4.3680281    4.3680281    4.3680281   -1309.4359   -3760.8479   -5504.1084    5336.6486   -3678.3382    119.91442   -1612.5042    83.340533 
   58700    314.58661   -110.84961   0.28464458   -110.56497   -2212.6041    4.3675186    4.3675186    4.3675186   -2212.6041   -5899.2058    308.97628   -1047.5829    2618.0872   -2170.4332   -318.60239    83.311372 
   58800    312.79137   -110.84814    0.2830202   -110.56512    4617.4616    4.3642283    4.3642283    4.3642283    4617.4616   -440.24446    6750.8684    7541.7607   -4635.1122    301.17453    867.50891    83.123225 
   58900    324.30469   -110.85892    0.2934377   -110.56549   -2501.5585    4.3700552    4.3700552    4.3700552   -2501.5585   -8744.7792    1827.4486   -587.34496    943.58731   -2039.8143   -1910.5449    83.456618 
   59000    303.47456   -110.83917   0.27459016   -110.56458   -605.85905    4.3639935    4.3639935    4.3639935   -605.85905   -7244.8002    1152.7252    4274.4978    3067.4231   -673.92336   -626.80777    83.109811 
   59100    260.22434   -110.79995   0.23545645    -110.5645   -880.21783    4.3681989    4.3681989    4.3681989   -880.21783   -1465.4894   -10411.556    9236.3921   -903.87088     672.2468   -218.68254    83.350309 
   59200    313.44271   -110.84775   0.28360955   -110.56414   -89.738916    4.3665501    4.3665501    4.3665501   -89.738916   -6735.8186    6134.0283     332.5736      1215.52   -777.43772   -3330.9758    83.255962 
   59300    263.16751    -110.8033    0.2381195   -110.56518    3206.5022    4.3665899    4.3665899    4.3665899    3206.5022   -3606.1892    1444.5473    11781.148    1678.8413    1921.1384    2738.2468    83.258238 
   59400    368.61635   -110.89775   0.33353182   -110.56422    1752.9385    4.3654954    4.3654954    4.3654954    1752.9385   -1355.5879    5811.2051    803.19838     2110.541    208.46827   -2895.3031    83.195649 
   59500    324.14435   -110.85816   0.29329262   -110.56486   -6016.5269    4.3696689    4.3696689    4.3696689   -6016.5269   -13346.467   -1470.7418   -3232.3723   -1495.3406   -2764.6487     734.2711    83.434488 
   59600    227.14403   -110.77093   0.20552469   -110.56541    5705.4004    4.3628533    4.3628533    4.3628533    5705.4004    3193.6939    42.512568    13879.995    6073.9287   -861.36678   -3654.4731    83.044685 
   59700    353.81389   -110.88461   0.32013824   -110.56447   -7863.7603    4.3708855    4.3708855    4.3708855   -7863.7603   -11590.544   -6123.8215    -5876.915   -2697.6818   -784.12613    2280.3801    83.504197 
   59800    196.63334    -110.7436   0.17791798   -110.56568    6872.7229     4.363558     4.363558     4.363558    6872.7229    5949.0802    3108.3605    11560.728    1771.6205   -2349.7228   -3558.8351    83.084931 
   59900    390.38947   -110.91743    0.3532326    -110.5642   -3945.5339    4.3678397    4.3678397    4.3678397   -3945.5339   -6186.7557   -3441.2614   -2208.5846    2122.5582    359.69083     669.9373    83.329746 
   60000    310.70893   -110.84595   0.28113597   -110.56482   -1090.9694    4.3676139    4.3676139    4.3676139   -1090.9694   -1233.9237    51.521662   -2090.5061    1208.6988   -509.82854   -1919.4439    83.316827 
   60100    272.08827    -110.8112   0.24619119   -110.56501    580.08613    4.3645481    4.3645481    4.3645481    580.08613   -4163.8361    1229.6801    4674.4143    2762.7864   -1540.4779   -1614.0557    83.141499 
   60200    325.97692   -110.85891   0.29495077   -110.56396   -7525.6533    4.3699098    4.3699098    4.3699098   -7525.6533   -8279.2769   -12067.607   -2230.0761   -157.14067    1947.6161    297.24908    83.448284 
   60300     207.6737   -110.75213   0.18790753   -110.56422    5341.7434    4.3644548    4.3644548    4.3644548    5341.7434    8007.9943    3416.0681    4601.1678    564.81982   -1102.4844   -8041.0091    83.136169 
   60400    400.47003   -110.92621    0.3623537   -110.56385    -8140.635    4.3680246    4.3680246    4.3680246    -8140.635   -12316.793   -6006.5109   -6098.6013    2637.8423    -1117.992    3280.6545    83.340335 
   60500    197.85985   -110.74534   0.17902775   -110.56631    7083.3031    4.3664622    4.3664622    4.3664622    7083.3031    7527.5664    7274.3969    6447.9459    2849.4661   -303.44991     -7711.16    83.250932 
   60600    440.92042   -110.96445   0.39895407   -110.56549   -6594.4232    4.3659009    4.3659009    4.3659009   -6594.4232   -9875.9894   -107.12813   -9800.1522    -933.7116   -721.41515    2170.4938    83.218835 
   60700    188.28882   -110.73662   0.17036768   -110.56625    2148.8187    4.3684016    4.3684016    4.3684016    2148.8187   -4375.3752    2401.8424    8419.9888    4276.4796   -1754.1135   -2228.2858    83.361914 
   60800    340.54439   -110.87178   0.30813172   -110.56365   -1725.4766    4.3652748    4.3652748    4.3652748   -1725.4766    4219.6931   -3098.1639   -6297.9589   -3252.1562   -550.21027   -3159.1845    83.183037 
   60900    289.12513   -110.82543   0.26160649   -110.56383    23.517479    4.3676057    4.3676057    4.3676057    23.517479   -8826.6299    4396.6089    4500.5734    1095.0241   -2537.2692    279.53846    83.316354 
   61000    223.99314   -110.76699    0.2026737   -110.56432    4210.4123    4.3664974    4.3664974    4.3664974    4210.4123    4679.5986    7034.7911    916.84708    3127.3293   -702.48435   -2979.8356    83.252947 
   61100    438.32731   -110.95903   0.39660776   -110.56242   -4287.4658     4.366537     4.366537     4.366537   -4287.4658    -8090.405   -316.79495   -4455.1973   -2006.6696    203.11221     792.8924    83.255214 
   61200    204.87746   -110.74948   0.18537744    -110.5641    6500.2882    4.3678359    4.3678359    4.3678359    6500.2882   -2167.8849    10152.765    11515.985    2702.7724   -1667.2884   -5627.5536    83.329532 
   61300    398.51748   -110.92355   0.36058699   -110.56296   -5408.1704    4.3646229    4.3646229    4.3646229   -5408.1704   -5181.1184   -7399.7518   -3643.6409    2034.2641    1566.3054     1645.553    83.145772 
   61400    176.57792   -110.72479   0.15977141   -110.56502    6302.7434    4.3691508    4.3691508    4.3691508    6302.7434   -1307.7019    6848.9547    13366.977    1763.4396    -1788.757   -2914.8086    83.404813 
   61500    353.90776   -110.88439   0.32022318   -110.56417   -1439.4816     4.364378     4.364378     4.364378   -1439.4816   -1276.4059    428.18616   -3470.2253    1174.8279   -2137.9835       199.86    83.131781 
   61600    250.91248   -110.79203   0.22703089     -110.565     1716.971    4.3677734    4.3677734    4.3677734     1716.971   -4566.2641    1676.2123     8040.965    4731.5132    1051.6033    -800.0422    83.325957 
   61700    370.79773   -110.89936   0.33550558   -110.56386   -10.194946    4.3667506    4.3667506    4.3667506   -10.194946   -1782.4123   -4504.5345     6256.362   -3209.5978   -795.59904   -1568.3829    83.267432 
   61800    316.19901   -110.85042   0.28610351   -110.56431   -2635.0496    4.3658439    4.3658439    4.3658439   -2635.0496   -8542.1134   -3228.4453    3865.4098    505.04215   -2650.0985     1252.173    83.215574 
   61900    219.70598   -110.76366   0.19879459   -110.56487    2743.5704    4.3683538    4.3683538    4.3683538    2743.5704    1636.6166   -4668.2871    11262.382    2893.3267     428.0684   -1224.8173    83.359179 
   62000     378.4984   -110.90572   0.34247331   -110.56325   -2754.6881    4.3650027    4.3650027    4.3650027   -2754.6881   -4309.0449    751.48261    -4706.502   -935.14796   -556.74858    780.39411    83.167483 
   62100    156.43805   -110.70693   0.14154844   -110.56538    3292.9984    4.3679594    4.3679594    4.3679594    3292.9984    3665.8303   -6606.3237    12819.488    5890.9997   -1839.5941    -3642.409    83.336599 
   62200    447.00287   -110.96795   0.40445759   -110.56349   -6966.7546     4.366918     4.366918     4.366918   -6966.7546   -9655.1843    -9662.004   -1583.0753    307.54823     2893.554   -353.06672    83.277007 
   62300    238.89486   -110.78148   0.21615709   -110.56532    5454.6075    4.3651667    4.3651667    4.3651667    5454.6075    3052.4447    845.83816     12465.54    1551.8174   -1682.6921   -2410.1985    83.176858 
   62400    338.81295   -110.87126   0.30656508   -110.56469   -7231.5195    4.3690643    4.3690643    4.3690643   -7231.5195   -6756.0982    -11532.07   -3406.3899     2118.462   -1182.2444   -117.48328    83.399859 
   62500    276.45468   -110.81376   0.25014201   -110.56362    1739.0732    4.3652999    4.3652999    4.3652999    1739.0732   -818.06731     5548.848    486.43899   -2015.1221   -1031.4041    276.39583     83.18447 
   62600    248.70368   -110.78854   0.22503232   -110.56351     61.41193    4.3666292    4.3666292    4.3666292     61.41193    8053.9359   -12701.508    4831.8076    1479.9416   -668.28221   -3237.0175    83.260489 
   62700      329.282   -110.86125   0.29794127   -110.56331   -6429.8308    4.3687048    4.3687048    4.3687048   -6429.8308   -13148.889   -6089.2608   -51.342837    179.45103   -1610.3478    2318.3581    83.379275 
   62800    251.29515   -110.79088   0.22737713    -110.5635    7033.6876    4.3643557    4.3643557    4.3643557    7033.6876    8729.5567   -1802.3347    14173.841   -1207.2781    404.05402   -2905.2598    83.130502 
   62900     455.2971   -110.97552   0.41196239   -110.56356    -10082.12    4.3681599    4.3681599    4.3681599    -10082.12   -12248.844   -6779.0421   -11218.473    2080.6617   -1364.0343    567.29523    83.348078 
   63000    151.65852    -110.7042   0.13722382   -110.56698    5377.1183    4.3670623    4.3670623    4.3670623    5377.1183    4364.1492    3284.3854    8482.8204    3144.1095   -166.61522   -1882.0692    83.285262 
   63100    400.09669   -110.92714   0.36201589   -110.56512   -2072.9622     4.364281     4.364281     4.364281   -2072.9622   -211.65324   -7215.6088    1208.3753    -1940.128    1574.9968   -1653.2966    83.126235 
   63200    173.60218   -110.72344    0.1570789   -110.56636    2327.0486    4.3695073    4.3695073    4.3695073    2327.0486   -2529.3039   -2171.0085    11681.458    3363.0469   -2587.8941   -1516.9069     83.42523 
   63300    341.75637   -110.87329   0.30922834   -110.56406   -1834.4426    4.3649148    4.3649148    4.3649148   -1834.4426   -1904.5329   -3274.0199   -324.77509    1444.1929    309.25829   -270.75069    83.162458 
   63400    393.23515   -110.91847   0.35580743   -110.56266   -836.10603     4.367338     4.367338     4.367338   -836.10603   -6844.1031     984.2102    3351.5748   -4123.7082   -2328.3802    2655.4132    83.301036 
   63500    217.31027   -110.76056    0.1966269   -110.56394    2387.4537    4.3679058    4.3679058    4.3679058    2387.4537    949.07449    1534.8185     4678.468    3960.8887   -1518.6825   -2040.7452    83.333534 
   63600    385.39844   -110.91205   0.34871661   -110.56333    -2452.152    4.3649601    4.3649601    4.3649601    -2452.152   -7316.1879   -443.43633    403.16825    493.33609    489.91419    1516.8367    83.165044 
   63700    162.70159   -110.71198   0.14721582   -110.56477    9164.2214    4.3673498    4.3673498    4.3673498    9164.2214    6974.0938    767.32512    19751.245   -288.14028    418.57661   -3076.5663    83.301713 
   63800    392.44954   -110.91954   0.35509659   -110.56445   -11050.744    4.3669523    4.3669523    4.3669523   -11050.744   -14312.001   -7817.4844   -11022.747    2022.1653   -3512.9577    877.69464    83.278972 
   63900    220.62657   -110.76592   0.19962756   -110.56629    7946.2033    4.3655194    4.3655194    4.3655194    7946.2033    6239.5624     3962.109    13636.939    2698.2846    1864.5421   -2688.2434     83.19702 
   64000    419.15541    -110.9441   0.37926063   -110.56484   -4149.8095     4.367711     4.367711     4.367711   -4149.8095   -9510.3377    1025.5638   -3964.6545   -2093.0988   -2373.4108    2205.8312    83.322384 
   64100    245.93599   -110.78839   0.22252805   -110.56587    1737.3046     4.365999     4.365999     4.365999    1737.3046     1805.702   -1436.7877    4842.9996    3168.8956   -1871.7737   -1843.6718     83.22444 
   64200    278.92219   -110.81672   0.25237466   -110.56435    3742.8076    4.3670081    4.3670081    4.3670081    3742.8076    847.09683    4699.5242    5681.8019    3151.1257     1808.085   -1633.0153    83.282162 
   64300    340.09566   -110.87167    0.3077257   -110.56394   -5791.4832    4.3665038    4.3665038    4.3665038   -5791.4832   -2982.4724   -8349.7164   -6042.2609   -253.30625   -2165.4683   -183.47621    83.253312 
   64400    183.03747   -110.73138   0.16561615   -110.56577    1035.6577    4.3674541    4.3674541    4.3674541    1035.6577    483.76336    408.38581     2214.824    6368.3276   -2893.1157    178.98121    83.307679 
   64500    441.21633   -110.96247   0.39922181   -110.56325   -3486.2808    4.3659965    4.3659965    4.3659965   -3486.2808   -7834.6573    1042.5639    -3666.749   -3145.8367    1255.8947    1343.2444    83.224298 
   64600    224.43326   -110.76811   0.20307193   -110.56504    4263.6341    4.3667648    4.3667648    4.3667648    4263.6341    6261.1578   -1341.3478    7871.0925     3920.474   -985.88187   -2579.6536    83.268245 
   64700    369.55412   -110.89966   0.33438034   -110.56528    -5003.271    4.3679195    4.3679195    4.3679195    -5003.271   -12537.363    1549.8411   -4022.2912   -733.12672   -3067.2889    1358.1201    83.334319 
   64800    233.30335   -110.77648   0.21109777   -110.56538    5810.1774    4.3641781    4.3641781    4.3641781    5810.1774    9487.5217    4159.8583    3783.1522   -458.23101    2438.8775   -3526.3869    83.120355 
   64900    327.90164   -110.86206   0.29669229   -110.56537   -9432.1449    4.3691989    4.3691989    4.3691989   -9432.1449    -11531.49   -11019.785    -5745.159    3163.6729   -3022.4444     2961.555    83.407567 
   65000    238.26702   -110.78106     0.215589   -110.56547    3754.8217    4.3652646    4.3652646    4.3652646    3754.8217   -2022.6225    14530.005   -1242.9173    649.10313   -185.98144   -3741.3168    83.182454 
   65100    354.45581   -110.88464   0.32071906   -110.56393    1239.4383     4.365841     4.365841     4.365841    1239.4383    3169.2894   -3369.7821    3918.8076    1906.0241    438.09093    44.155302     83.21541 
   65200    320.72627   -110.85457   0.29019987   -110.56437   -2056.3311    4.3689503    4.3689503    4.3689503   -2056.3311   -12284.241    10691.156   -4575.9078    1603.7053   -1093.0358   -2568.6688    83.393329 
   65300    243.14489    -110.7837    0.2200026   -110.56369    5516.2388    4.3644779    4.3644779    4.3644779    5516.2388    6899.7737    4285.9859    5362.9567    3034.7737   -859.51136    1644.6532    83.137485 
   65400    419.26476   -110.94196   0.37935957    -110.5626   -6574.6761     4.367159     4.367159     4.367159   -6574.6761   -8874.4488   -5122.2432   -5727.3363   -4941.4571   -1409.1566    1501.6034    83.290794 
   65500    126.88322   -110.68039    0.1148066   -110.56558    4271.5907    4.3678107    4.3678107    4.3678107    4271.5907     1204.315    8328.8283    3281.6287    5132.6898   -3532.4071   -1980.6875    83.328089 
   65600    398.72227   -110.92478   0.36077229   -110.56401   -3540.2754    4.3650177    4.3650177    4.3650177   -3540.2754   -6838.9187   -1084.7576   -2697.1499    -4077.668   -1381.6135    4043.9198    83.168338 
   65700    257.37625   -110.79729   0.23287944   -110.56441    5914.6383    4.3671179    4.3671179    4.3671179    5914.6383    2496.5899    8115.4607    7131.8643    309.93556    291.62791   -4247.8479    83.288442 
   65800    332.59544   -110.86528   0.30093934   -110.56435    -4851.495    4.3681245    4.3681245    4.3681245    -4851.495   -9900.6923    1782.1381   -6435.9309     4757.664   -3587.3243    1303.8219    83.346053 
   65900    329.19286   -110.86096   0.29786062    -110.5631    3280.8786    4.3639535    4.3639535    4.3639535    3280.8786    3708.7002    4724.3939    1409.5418    -748.3279    2748.4033   -1787.2091    83.107525 
   66000    263.35316   -110.80256   0.23828748   -110.56428   -2280.3512    4.3695228    4.3695228    4.3695228   -2280.3512   -4018.8543   -6064.2343     3242.035    1102.1728   -3779.4605    1766.9105    83.426115 
   66100    283.24464   -110.82147   0.25628571   -110.56518    25.268644    4.3641434    4.3641434    4.3641434    25.268644   -5401.4982    11338.804   -5861.5002    1286.5675   -2960.9376   -2038.4703    83.118375 
   66200    242.66583   -110.78454   0.21956914   -110.56497    4818.3943    4.3682865    4.3682865    4.3682865    4818.3943    3242.3993   -3000.8524    14213.636    1625.5975    883.04361   -626.12453    83.355325 
   66300    412.46084    -110.9378   0.37320323    -110.5646   -5815.1955    4.3661352    4.3661352    4.3661352   -5815.1955   -11299.311    3952.4894   -10098.765   -2718.6414   -3529.4793    719.26934    83.232229 
   66400    205.50033   -110.75166   0.18594102   -110.56572    5906.0565    4.3657643    4.3657643    4.3657643    5906.0565    4470.8403     2068.792    11178.537    6098.9102   -2940.9109   -587.88105    83.211025 
   66500    435.74737   -110.95784   0.39427338   -110.56357    -7317.869     4.368777     4.368777     4.368777    -7317.869   -10144.235   -7739.2904   -4070.0818   -3278.4341    2048.4709    1082.2694    83.383408 
   66600    190.24938   -110.73714   0.17214163     -110.565    6755.6408    4.3634016    4.3634016    4.3634016    6755.6408    5206.3716    10187.749    4872.8018    1546.0018   -1634.1222   -3822.5956    83.075996 
   66700    277.62167   -110.81548   0.25119792   -110.56428   -4217.4874    4.3705744    4.3705744    4.3705744   -4217.4874   -9556.9637   -7720.7953    4625.2969    772.61044    -2275.454    2601.7568    83.486364 
   66800     359.3479   -110.88788   0.32514553   -110.56273    1829.4802    4.3631613    4.3631613    4.3631613    1829.4802    2249.4386    3754.6039   -515.60173    384.22089     3337.326   -3483.5458     83.06227 
   66900    234.66905   -110.77715   0.21233349   -110.56482     312.4743    4.3684443    4.3684443    4.3684443     312.4743   -3150.7424   -7725.7143     11813.88    4030.5651   -4195.4835    2948.2694    83.364356 
   67000    415.46245   -110.93922   0.37591916    -110.5633   -5826.7153    4.3666392    4.3666392    4.3666392   -5826.7153   -8149.4542    431.93366   -9762.6252   -1478.2599   -2413.5736   -1159.6875    83.261057 
   67100     213.0339   -110.75697   0.19275755   -110.56421    6854.0327    4.3656132    4.3656132    4.3656132    6854.0327    6258.3185    -1959.602    16263.382    2710.6803   -1060.5341   -1206.9311    83.202382 
   67200    338.54386    -110.8714    0.3063216   -110.56508   -8010.0534    4.3674846    4.3674846    4.3674846   -8010.0534   -14988.529   -417.43426   -8624.1969    891.29396   -2128.5343     235.0597    83.309428 
   67300    206.53719   -110.75266   0.18687919   -110.56578         3052    4.3659165    4.3659165    4.3659165         3052    5728.1197   -3221.8133    6649.6936    1900.0077   -1100.1408   -923.24345    83.219723 
   67400    376.83038   -110.90484   0.34096405   -110.56387   -6726.9427    4.3678851    4.3678851    4.3678851   -6726.9427   -11197.114   -7105.4997   -1878.2145   -978.28547      377.557    2505.5652    83.332346 
   67500    264.64549   -110.80353    0.2394568   -110.56407   -556.16479     4.365634     4.365634     4.365634   -556.16479   -2796.5195     4871.099   -3743.0739     2805.393   -4111.2365   -2508.5842    83.203573 
   67600    333.32198   -110.86435   0.30159673   -110.56275   -1843.5236    4.3678326    4.3678326    4.3678326   -1843.5236    -3897.666   -6364.8817     4731.977   -3587.5244   -755.83244    178.41182    83.329343 
   67700    337.66901   -110.86835   0.30553002   -110.56282   -1998.4947    4.3666914    4.3666914    4.3666914   -1998.4947    -7099.902     7727.429    -6623.011   -2298.2385   -2532.4389   -1080.6892    83.264047 
   67800    185.78067   -110.73291   0.16809826   -110.56481     1411.106    4.3654639    4.3654639    4.3654639     1411.106   -1303.5055   -3411.8777    8948.7012    4076.5684   -3794.5005   -250.30964    83.193849 
   67900     378.3493   -110.90575    0.3423384   -110.56341   -8305.6326    4.3691693    4.3691693    4.3691693   -8305.6326   -9179.5621   -5343.7511   -10393.585   -1883.8914    1639.1563    539.44388    83.405868 
   68000    228.88347   -110.77226   0.20709858   -110.56516    6021.7308     4.364386     4.364386     4.364386    6021.7308    2078.8112    7319.3367    8667.0445    3028.5239   -4656.6666    814.08858    83.132238 
   68100    355.64668   -110.88685   0.32179659   -110.56506   -5687.6268    4.3680512    4.3680512    4.3680512   -5687.6268   -12059.363     1640.287   -6643.8048     1023.664    -761.4304    632.49723    83.341856 
   68200    309.11227   -110.84387   0.27969127   -110.56418    6496.2398    4.3662331    4.3662331    4.3662331    6496.2398    2650.1984    10740.879    6097.6418   -363.86292    482.14677   -618.87157    83.237832 
   68300    305.93821   -110.84107   0.27681932   -110.56425   -476.52862     4.365836     4.365836     4.365836   -476.52862   -9627.6522    4133.0798    4064.9865   -586.49831   -2624.5932    1583.0776    83.215124 
   68400    261.52991   -110.80105   0.23663776   -110.56442   -3064.0511    4.3674556    4.3674556    4.3674556   -3064.0511   -169.79161   -6936.8885   -2085.4733    3064.0909   -3581.5655    774.11083    83.307767 
   68500    279.97741   -110.81707   0.25332945   -110.56374    4195.8462    4.3665259    4.3665259    4.3665259    4195.8462   -1587.0092    5037.5113    9137.0364   -3256.9222    1237.4889    82.149094     83.25458 
   68600    346.45776   -110.87791   0.31348226   -110.56443   -2923.0759    4.3660155    4.3660155    4.3660155   -2923.0759   -5193.1585     2398.692   -5974.7611    1.8024678   -4454.9623   -433.49427    83.225389 
   68700    248.83552   -110.79043   0.22515161   -110.56527    6718.9381    4.3660849    4.3660849    4.3660849    6718.9381    1129.1845    7814.5874    11213.042     3929.246   -2124.2677    1620.5859    83.229356 
   68800    447.28859   -110.96823   0.40471612   -110.56352   -4152.0974    4.3683966    4.3683966    4.3683966   -4152.0974   -10302.696   -166.72994   -1986.8661   -1709.1239    3836.7832   -681.78902    83.361625 
   68900    186.53293   -110.73487   0.16877891   -110.56609    4459.2096    4.3637046    4.3637046    4.3637046    4459.2096     4804.887   -606.95205    9179.6939    6592.8702   -4978.7258    -296.1512    83.093304 
   69000    296.91235   -110.83383   0.26865253   -110.56517    -4867.102     4.369019     4.369019     4.369019    -4867.102   -9483.8753   -6248.1007      1130.67    255.32651   -2128.6136    1019.5377    83.397266 
   69100    294.62645   -110.83142    0.2665842   -110.56484    3941.2911    4.3644563    4.3644563    4.3644563    3941.2911    7562.8828     7506.313   -3245.3226    651.39322    -746.1668    45.730889    83.136254 
   69200    264.40374   -110.80533   0.23923806    -110.5661   -1088.2392    4.3675622    4.3675622    4.3675622   -1088.2392   -8821.0314   -3408.9398    8965.2537    2224.6295   -2885.1808    516.67316    83.313865 
   69300    393.11669   -110.92017   0.35570025   -110.56447   -3174.1329    4.3680434    4.3680434    4.3680434   -3174.1329   -2914.2541    3639.6489   -10247.793   -1262.8703    -2780.285    2245.4202    83.341409 
   69400    279.11159   -110.81683   0.25254603   -110.56429    4313.0475    4.3633442    4.3633442    4.3633442    4313.0475    373.28467     -296.384    12862.242    394.32587    1211.7319   -796.81339    83.072717 
   69500    279.43817   -110.81737   0.25284153   -110.56453   -10525.682    4.3708637    4.3708637    4.3708637   -10525.682   -9082.8254   -11553.627   -10940.595   -115.86315   -4807.9319   -1006.8669    83.502944 
   69600    242.90313   -110.78339   0.21978386   -110.56361    5736.5683    4.3641179    4.3641179    4.3641179    5736.5683     4556.557    13899.059   -1245.9112     374.5054    131.78995   -138.19677    83.116915 
   69700    343.42103   -110.87443   0.31073456    -110.5637   -3999.7901    4.3670112    4.3670112    4.3670112   -3999.7901   -8444.3272   -6140.4388    2585.3956    1096.6391   -506.78741   -161.43356    83.282337 
   69800    256.23678   -110.79734   0.23184842   -110.56549    -1640.588    4.3689555    4.3689555    4.3689555    -1640.588   -7777.8425     14117.76   -11261.682    4634.0018   -3609.8943    -306.1904    83.393629 
   69900    385.24914   -110.91204   0.34858152   -110.56346    2991.1265    4.3626122    4.3626122    4.3626122    2991.1265   -1754.4876    1836.9952    8890.8717     22.73436    910.76927   -1926.9375    83.030915 
   70000    297.44991   -110.83404   0.26913893    -110.5649   -5885.3607     4.370773     4.370773     4.370773   -5885.3607   -6706.6345     1586.029   -12535.477   -804.00499   -5515.3323    1331.9141    83.497748 
   70100    207.19055   -110.75256   0.18747036   -110.56509    4426.2417     4.364082     4.364082     4.364082    4426.2417   -785.82588    13013.389    1051.1622    3068.5206   -3247.7151   -1380.2378    83.114868 
   70200    359.53201    -110.8886   0.32531212   -110.56329   -1640.1133    4.3667289    4.3667289    4.3667289   -1640.1133   -1704.7126    2664.1224   -5879.7496   -3661.9343    758.57347   -1792.7443    83.266191 
   70300    210.29441    -110.7551    0.1902788   -110.56482    1061.0349     4.368881     4.368881     4.368881    1061.0349   -10259.066     14925.51   -1483.3395    2926.0259   -2610.8958    335.56329    83.389362 
   70400    380.42614   -110.90805   0.34421757   -110.56384   -1357.4309    4.3630893    4.3630893    4.3630893   -1357.4309   -3091.6067    211.94794    -1192.634    -900.2006   -2010.1301   -3649.0084    83.058162 
   70500    323.98104   -110.85687   0.29314486   -110.56373    1527.5019    4.3692307    4.3692307    4.3692307    1527.5019   -6365.9459    15996.661   -5048.2099    2800.4575    2588.6852    801.59677    83.409388 
   70600    280.50497   -110.81857   0.25380679   -110.56477   -1306.8543    4.3664526    4.3664526    4.3664526   -1306.8543   -5772.4649    552.81041    1299.0916   -941.02913   -4944.9556   -466.45229    83.250386 
   70700     284.3755   -110.82124   0.25730893   -110.56393    2481.3982    4.3638782    4.3638782    4.3638782    2481.3982    1411.8723    12501.098   -6468.7755    3184.6397   -1747.9256    1318.6388    83.103219 
   70800    271.36628     -110.809   0.24553792   -110.56346   -2586.7233    4.3709474    4.3709474    4.3709474   -2586.7233   -8470.7714   -1833.0189    2543.6204    1590.0864    1419.6492   -879.16247    83.507742 
   70900    296.31361   -110.83197   0.26811078   -110.56386   -1859.6355    4.3635296    4.3635296    4.3635296   -1859.6355   -5028.7848     2552.599   -3102.7208    482.62417   -5198.9158   -2047.7682    83.083305 
   71000    296.32817   -110.83193   0.26812395    -110.5638    3316.0769     4.367402     4.367402     4.367402    3316.0769   -2767.2366    16096.174   -3380.7067    2728.5214   -1663.8156    -1058.892    83.304703 
   71100    406.28794   -110.93157   0.36761787   -110.56396   -6892.9725    4.3693989    4.3693989    4.3693989   -6892.9725   -11740.761   -11436.464    2498.3074   -3856.9038   -223.12631   -1231.2052    83.419019 
   71200     225.5625   -110.77005   0.20409369   -110.56595     6234.123    4.3609809    4.3609809    4.3609809     6234.123    2568.9785    17117.869   -984.47884    4855.4349   -2949.1007    73.860089    82.937811 
   71300    318.89873    -110.8536   0.28854627   -110.56505   -7610.1616    4.3730483    4.3730483    4.3730483   -7610.1616   -10236.687   -12992.816    399.01812   -3283.5842   -172.23275    1296.3261    83.628213 
   71400    243.08635   -110.78439   0.21994964   -110.56444    3687.6773    4.3622788    4.3622788    4.3622788    3687.6773    -3253.153    7946.2868    6369.8981    4651.6773    253.59691    1051.9303    83.011882 
   71500    289.49635   -110.82607   0.26194238   -110.56413    -1377.708    4.3675497    4.3675497    4.3675497    -1377.708   -3417.4639    3839.0092   -4554.6692   -803.25633   -3607.1737   -256.18142    83.313155 
   71600    381.30888   -110.90807   0.34501629   -110.56306   -668.69063    4.3683256    4.3683256    4.3683256   -668.69063    -9947.609    4420.1967    3521.3404     147.3028   -227.82548     3141.866    83.357562 
   71700    315.93757   -110.85055   0.28586695   -110.56469    2556.2748    4.3644324    4.3644324    4.3644324    2556.2748    2750.6446    7838.0515   -2919.8717    3394.5251   -3068.3422   -2357.3538    83.134886 
   71800    267.22812   -110.80729   0.24179362   -110.56549   -519.57997     4.367313     4.367313     4.367313   -519.57997   -11431.848    6691.7445    3181.3637    2477.4556    -2738.364    1083.3036     83.29961 
   71900    290.83822   -110.82695   0.26315654   -110.56379    46.468267    4.3671522    4.3671522    4.3671522    46.468267    2278.2672   -1507.2608   -631.60162    1110.4565    817.05905   -905.71986    83.290409 
   72000    284.39987   -110.82162   0.25733098   -110.56429   -1278.0105    4.3664455    4.3664455    4.3664455   -1278.0105   -8331.3464     5466.137   -968.82198   -1718.2545   -4144.6604    651.43267    83.249976 
   72100    281.19297   -110.81858   0.25442931   -110.56415    2642.0828    4.3652657    4.3652657    4.3652657    2642.0828   -3895.6145    12160.157   -338.29379    1066.9232   -3305.7813    11.205926    83.182515 
   72200     378.7868   -110.90668   0.34273426   -110.56395   -2656.6118    4.3700128    4.3700128    4.3700128   -2656.6118   -5929.0662    8606.9523   -10647.721   -4325.6816    1856.2073    795.41159    83.454189 
   72300    269.74344   -110.80969   0.24406954   -110.56562     3738.282    4.3621035    4.3621035    4.3621035     3738.282   -6901.6436    10094.884    8021.6053    2747.7403   -5478.7753   -2141.8645    83.001872 
   72400    290.44738   -110.82805    0.2628029   -110.56524   -5679.2034    4.3698094    4.3698094    4.3698094   -5679.2034   -4357.4111    860.36838   -13540.568    -261.7485   -3239.7626    1613.3966    83.442532 
   72500    335.23517   -110.86701   0.30332783   -110.56368   -2312.2949    4.3675749    4.3675749    4.3675749   -2312.2949   -7928.7039   -1457.6108    2449.4299    717.45031    1820.2613    1088.9791    83.314596 
   72600    199.14016   -110.74441    0.1801862   -110.56422    2346.4917    4.3631809    4.3631809    4.3631809    2346.4917   -1256.4522    13908.818   -5612.8911   -228.68825   -6634.0844   -1905.9957     83.06339 
   72700    365.01184   -110.89342   0.33027038   -110.56315   -8484.1193    4.3713656    4.3713656    4.3713656   -8484.1193   -13202.407   -737.03161    -11512.92    1533.7196    -767.9732     1304.008    83.531712 
   72800     287.3238   -110.82313   0.25997661   -110.56315    3967.8491    4.3644791    4.3644791    4.3644791    3967.8491    2240.1938    7982.3342    1681.0193   -843.51869    98.784042   -4581.2965    83.137556 
   72900    315.78883   -110.84956   0.28573237   -110.56383   -6055.5221    4.3657595    4.3657595    4.3657595   -6055.5221   -12294.878    4187.2912    -10058.98    126.78435   -4815.7103    2156.7698    83.210746 
   73000     318.0586   -110.85065   0.28778611   -110.56287   -5183.6862    4.3713884    4.3713884    4.3713884   -5183.6862    -4128.643   -8047.8935    -3374.522   -1274.7562    734.73314   -5403.8356    83.533019 
   73100    256.96771   -110.79547   0.23250978   -110.56296    3429.6564    4.3623941    4.3623941    4.3623941    3429.6564   -2833.8946    17437.653   -4314.7894   -2446.8727   -3148.3274     255.8719    83.018461 
   73200    279.10805   -110.81661   0.25254283   -110.56407   -7605.3576    4.3690678    4.3690678    4.3690678   -7605.3576   -8583.8505   -6032.0339   -8200.1882    913.46285   -3254.6708    -1019.503    83.400057 
   73300    279.25442   -110.81724   0.25267526   -110.56456    1386.8985     4.367971     4.367971     4.367971    1386.8985    3226.0912    9211.2733   -8276.6691     1117.579    1157.0036   -2497.5645    83.337263 
   73400    394.61586   -110.92213   0.35705672   -110.56507   -237.19469    4.3622449    4.3622449    4.3622449   -237.19469   -4914.8143    2631.4232     1571.807    950.42329   -1326.2433    2391.4829    83.009946 
   73500    231.64648   -110.77591   0.20959861   -110.56631   -3100.3611    4.3730085    4.3730085    4.3730085   -3100.3611    888.18252    1014.7112   -11203.977    1399.1997   -3246.7399   -2645.2925    83.625929 
   73600    390.40653   -110.91677   0.35324803   -110.56352    4764.0785    4.3617837    4.3617837    4.3617837    4764.0785   -3186.7428    16348.834    1130.1444   -439.72622     1925.631    2387.4739    82.983619 
   73700    209.05051   -110.75419   0.18915329   -110.56504    2449.6778    4.3680437    4.3680437    4.3680437    2449.6778    5485.5841    4664.9662   -2801.5167   -772.66727   -4006.2826   -5419.0449    83.341424 
   73800    294.67983    -110.8306    0.2666325   -110.56397   -7110.2328     4.369482     4.369482     4.369482   -7110.2328   -5617.1551   -6611.3569   -9102.1864    2364.9958   -1271.5695   -785.64676    83.423779 
   73900    326.07896    -110.8597   0.29504309   -110.56465    10173.452     4.361223     4.361223     4.361223    10173.452    8193.1231    10940.769    11386.465   -3748.2688    2247.2685   -2534.4802    82.951623 
   74000    291.10616   -110.83004   0.26339897   -110.56664   -3953.0657    4.3722681    4.3722681    4.3722681   -3953.0657   -4145.2022   -2175.9466   -5538.0483   -687.66887    -4689.999    1200.0763    83.583461 
   74100     330.6835   -110.86407   0.29920938   -110.56486    3660.5291    4.3622925    4.3622925    4.3622925    3660.5291   -4292.7095    16196.471   -922.17434   -184.20973   -1808.8701    860.89206    83.012666 
   74200    318.65407   -110.85216    0.2883249   -110.56383    1657.9454     4.369277     4.369277     4.369277    1657.9454    5255.1332    -2668.297    2386.9999    1177.3857   -1213.3719   -1743.4326    83.412038 
   74300    246.25678   -110.78745   0.22281831   -110.56464   -4266.0249    4.3660794    4.3660794    4.3660794   -4266.0249   -6090.4996   -2048.6609   -4658.9142   -846.89863   -2773.5201    1052.0473    83.229041 
   74400    286.92856   -110.82464   0.25961899   -110.56502      338.985    4.3668438    4.3668438    4.3668438      338.985    1883.3001   -3822.7309    2956.3858     2513.469   -1849.7999    47.345224    83.272761 
   74500    329.75502   -110.86302   0.29836927   -110.56465       2624.4    4.3666819    4.3666819    4.3666819       2624.4   -3604.5222    7461.8896    4015.8325   -2254.3531    2320.7204    1493.2273      83.2635 
   74600    291.27025   -110.82934   0.26354744   -110.56579   -3414.5595    4.3665293    4.3665293    4.3665293   -3414.5595   -7375.7495     4487.422   -7355.3509   -1205.2398   -5807.3762   -1841.5539     83.25477 
   74700    372.79376   -110.90237   0.33731163   -110.56506   -1439.1947    4.3690051    4.3690051    4.3690051   -1439.1947   -6518.2813   -21.416131    2222.1134    290.04077    23.836186   -349.87132    83.396469 
   74800    252.71742   -110.79373   0.22866403   -110.56507    3862.6878    4.3632644    4.3632644    4.3632644    3862.6878    2543.4654    3887.2048    5157.3932   -1861.4493   -42.349192   -2645.4334     83.06816 
   74900     288.2896   -110.82571   0.26085049   -110.56485   -10896.609    4.3710308    4.3710308    4.3710308   -10896.609   -15052.342   -12687.806   -4949.6784    -706.0011   -6101.1047    657.86917    83.512524 
   75000    260.35119   -110.80002   0.23557123   -110.56445    8898.7614    4.3641487    4.3641487    4.3641487    8898.7614    513.05901    18368.096    7815.1288   -2024.2299    1211.3178    459.28733    83.118678 
   75100    353.26929   -110.88569   0.31964548   -110.56604   -5454.1554    4.3663085    4.3663085    4.3663085   -5454.1554   -4808.4886   -3770.4946   -7783.4831    3349.1014   -3470.6837     300.7509    83.242141 
   75200    270.92407   -110.81236   0.24513779   -110.56722   -3721.6129    4.3705309    4.3705309    4.3705309   -3721.6129     -14362.9    6721.3364    -3523.275   -2219.8422   -2569.1997   -297.06404    83.483873 
   75300    339.98717   -110.87225   0.30762754   -110.56463     4672.075    4.3620701    4.3620701    4.3620701     4672.075    9574.9833    -2891.851    7333.0926    2168.4377    1477.9186    2027.9624    82.999966 
   75400    290.78891   -110.82801   0.26311192    -110.5649   -6428.5353    4.3698663    4.3698663    4.3698663   -6428.5353   -16883.486    3697.9118    -6100.032   -967.56342    1194.6146    963.32874    83.445792 
   75500    241.31526   -110.78298   0.21834712   -110.56463    33.275752    4.3678735    4.3678735    4.3678735    33.275752    1024.2787   -1416.6572    492.20571     1353.726   -3230.3341   -2351.2963    83.331683 
   75600    371.04589   -110.89885   0.33573012   -110.56312     1985.442    4.3620826    4.3620826    4.3620826     1985.442   -446.77957    8257.7337   -1854.6282   -637.02027    1908.1488   -408.36862     83.00068 
   75700    233.99147   -110.77641    0.2117204   -110.56469   -4121.5504    4.3727053    4.3727053    4.3727053   -4121.5504   -5649.5203   -4680.2185   -2034.9124   -1852.3359   -3605.4251   -2250.5892    83.608539 
   75800     347.3647   -110.87743   0.31430288   -110.56313   -793.53603    4.3649132    4.3649132    4.3649132   -793.53603    2767.9156   -5085.0742   -63.449497    3198.9508   -3081.5774    -2665.667    83.162364 
   75900    300.07127   -110.83428   0.27151079   -110.56277    6234.4421    4.3634175    4.3634175    4.3634175    6234.4421    3379.1471    9918.8647    5405.3146   -3211.9372    4058.2964    1169.6648    83.076904 
   76000    288.69858   -110.82542   0.26122054    -110.5642   -10442.093    4.3743012    4.3743012    4.3743012   -10442.093   -3864.1562   -16638.833   -10823.291    291.36618   -4620.5137    2354.7622    83.700116 
   76100    290.76059   -110.82768   0.26308629   -110.56459    7701.6124    4.3586138    4.3586138    4.3586138    7701.6124   -1110.2314    19046.051    5169.0171   -2062.6673   -593.06743   -786.55269     82.80283 
   76200    279.39017   -110.81867    0.2527981   -110.56587   -3290.0478    4.3726702    4.3726702    4.3726702   -3290.0478    9666.7366   -17962.978   -1573.9017    2599.4291    2428.6172    1472.1651    83.606522 
   76300    311.74706   -110.84787   0.28207529   -110.56579    -3106.531    4.3651071    4.3651071    4.3651071    -3106.531   -9825.1392    1589.2198   -1083.6737    -814.3303   -2704.3193   -676.53289     83.17345 
   76400    278.09427   -110.81695   0.25162554   -110.56532    7319.0887    4.3643046    4.3643046    4.3643046    7319.0887    15804.842    -2402.535    8554.9586    581.66523   -1004.7412    803.96777    83.127582 
   76500    376.45166   -110.90482   0.34062137    -110.5642   -8771.4776    4.3714783    4.3714783    4.3714783   -8771.4776   -11654.125    -3798.944   -10861.363   -419.45416     1653.101    -963.4219    83.538173 
   76600    219.20937   -110.76302   0.19834525   -110.56467    2472.8051    4.3639894    4.3639894    4.3639894    2472.8051   -839.90342    4847.0771    3411.2417   -4634.4647   -6880.3175   -941.56247    83.109572 
   76700     334.5475   -110.86565   0.30270561   -110.56295    516.63412     4.367561     4.367561     4.367561    516.63412    3803.3527   -3400.4823     1147.032    2319.5592    878.17965    -1106.882    83.313797 
   76800    263.55815   -110.80308   0.23847296    -110.5646   -3453.6359    4.3683313    4.3683313    4.3683313   -3453.6359    -4829.224   -4542.2613   -989.42244   -4814.6091    1989.3912   -884.29289    83.357886 
   76900    298.75254   -110.83614   0.27031758   -110.56582    114.76918    4.3650329    4.3650329    4.3650329    114.76918    6423.2166   -8914.8535    2835.9444   -894.63957    -4679.809    1977.8131    83.169205 
   77000    359.86741   -110.88943   0.32561559   -110.56382   -2204.7506    4.3691174    4.3691174    4.3691174   -2204.7506   -6353.4259    5323.9624   -5584.7882   -1080.4219    624.86431    511.86613    83.402901 
   77100    282.12877   -110.81891   0.25527604   -110.56363   -1625.9237    4.3648073    4.3648073    4.3648073   -1625.9237     4091.232   -8176.9452   -792.05786   -1966.1205    628.98636    1421.3355    83.156312 
   77200    263.79275   -110.80426   0.23868523   -110.56558    1214.5501    4.3693843    4.3693843    4.3693843    1214.5501   -698.59472    7442.6449   -3100.3998   -90.505071   -4029.7047   -2193.3312    83.418182 
   77300    303.74483   -110.84172   0.27483471   -110.56689    3504.2101    4.3627793    4.3627793    4.3627793    3504.2101      12720.5   -8557.1446    6349.2747    2522.2243    3220.7366    1259.3334    83.040457 
   77400     307.2556   -110.84587   0.27801133   -110.56786   -6039.4598    4.3714046    4.3714046    4.3714046   -6039.4598    1427.7391   -8574.6687    -10971.45   -2196.6345    371.64324    443.27526    83.533947 
   77500    307.16772    -110.8434   0.27793181   -110.56547    5329.6653    4.3636112    4.3636112    4.3636112    5329.6653    10257.181    2814.1187    2917.6967   -650.16446   -4970.9451   -479.64074    83.087971 
   77600     374.1883   -110.90211   0.33857344   -110.56353   -2978.4353    4.3662952    4.3662952    4.3662952   -2978.4353    1921.6593   -1301.9295   -9555.0358    1443.2257    1367.1363   -111.86118    83.241384 
   77700    211.24807   -110.75638   0.19114169   -110.56524      3213.61     4.371355     4.371355     4.371355      3213.61    8508.1143     2468.469   -1335.7532   -3944.7486    -375.2839   -2477.8852    83.531106 
   77800    333.73155   -110.86575   0.30196732   -110.56378     2715.901    4.3610212    4.3610212    4.3610212     2715.901    2818.5914    1533.1638    3795.9478   -1539.5178   -5262.8917   -356.83474     82.94011 
   77900     240.7686   -110.78273   0.21785249   -110.56488   -1501.9658    4.3707314    4.3707314    4.3707314   -1501.9658    8598.5535   -7544.2032   -5560.2476   -1782.0287    114.88634    398.73571    83.495362 
   78000    357.04579   -110.88758   0.32306254   -110.56452   -6405.5842    4.3677872    4.3677872    4.3677872   -6405.5842   -8143.8206   -7429.6413   -3643.2908   -250.60026    -633.0304     2384.506    83.326746 
   78100    272.34716   -110.81138   0.24642544   -110.56495    6461.0093    4.3604112    4.3604112    4.3604112    6461.0093    12027.092    10922.372   -3566.4356   -1143.6199   -3303.0991    1041.9341     82.90531 
   78200    357.84066   -110.88804   0.32378175   -110.56425   -10053.679    4.3765616    4.3765616    4.3765616   -10053.679   -11731.513   -12821.414   -5608.1115    1699.1502    4256.7014    824.00672    83.829934 
   78300    220.19366   -110.76302   0.19923585   -110.56378    7712.8376    4.3588634    4.3588634    4.3588634    7712.8376    6937.5471    15352.347    848.61836   -1123.6028   -7157.4911    1210.9894    82.817055 
   78400    325.94382    -110.8578   0.29492082   -110.56288   -7310.6503    4.3701186    4.3701186    4.3701186   -7310.6503   -9787.5126   -11341.998   -802.44048   -1081.2018   -1849.1802   -1493.8948    83.460247 
   78500    288.67826   -110.82426   0.26120215   -110.56305   -4335.4757    4.3694627    4.3694627    4.3694627   -4335.4757    1284.0699   -6819.7023   -7470.7948   -180.77871    737.50603     1337.805    83.422674 
   78600    319.47731   -110.85284   0.28906978   -110.56377    1943.0513    4.3606865    4.3606865    4.3606865    1943.0513    658.91004    2701.5782    2468.6657   -2022.5268   -5205.4884   -1514.1169    82.921012 
   78700    300.38939   -110.83614   0.27179863   -110.56434   -2917.2192    4.3736843    4.3736843    4.3736843   -2917.2192     3254.106   -5407.5511   -6598.2124   -1073.1512    383.69216   -892.75266    83.664706 
   78800    290.93332   -110.82663   0.26324258   -110.56339    4621.9977    4.3624657    4.3624657    4.3624657    4621.9977     5927.438    4595.5614    3342.9938   -252.82319    931.27879   -2165.1568    83.022551 
   78900      302.977   -110.83861   0.27413996   -110.56447   -776.42222    4.3674681    4.3674681    4.3674681   -776.42222    976.49154    -2750.288   -555.47026    340.19762    -1404.288   -246.68919    83.308482 
   79000    285.82615   -110.82331    0.2586215   -110.56469   -160.24837    4.3683883    4.3683883    4.3683883   -160.24837    8683.1188   -8075.3085   -1088.5554   -1495.5147   -1334.7518    2057.5529    83.361154 
   79100    360.91944   -110.89109    0.3265675   -110.56453    -343.3573    4.3638972    4.3638972    4.3638972    -343.3573    6887.9786   -8780.6052     862.5548    2377.8596    3839.1373    874.06627    83.104305 
   79200    234.65271   -110.77759   0.21231871   -110.56527    3944.4066      4.37017      4.37017      4.37017    3944.4066    14928.063   -1220.2239   -1874.6195   -2212.3776   -5526.4685    1091.4584     83.46319 
   79300     341.5472   -110.87303   0.30903908   -110.56399    1244.1241    4.3636905    4.3636905    4.3636905    1244.1241    3818.1472   -4631.0665    4545.2916    2053.5141    -486.3777   -1376.2716      83.0925 
   79400    269.77366   -110.80946   0.24409687   -110.56536    2561.6754    4.3678041    4.3678041    4.3678041    2561.6754    14588.816   -351.70354    -6552.086    29.968975   -183.87689    383.14225    83.327711 
   79500    326.47838    -110.8602    0.2954045    -110.5648   -3867.3579    4.3681263    4.3681263    4.3681263   -3867.3579   -3380.8814   -8461.1259    239.93347    1219.4915   -2640.7486   -1670.1927    83.346155 
   79600    291.06483    -110.8277   0.26336157   -110.56434    3212.9854    4.3624604    4.3624604    4.3624604    3212.9854    16371.398   -4920.7647   -1811.6772    3060.2501   -839.23469    1250.6888    83.022251 
   79700    317.38901   -110.85183   0.28718025   -110.56465   -6191.3464    4.3732256    4.3732256    4.3732256   -6191.3464   -467.00256   -15019.378   -3087.6587   -2613.6618    1425.9719    4.4392701    83.638385 
   79800     246.4366   -110.78731   0.22298102   -110.56433    5272.9309    4.3604901    4.3604901    4.3604901    5272.9309    6124.1153    5203.3341    4491.3433    2480.8077   -2140.4168   -1737.5385    82.909808 
   79900    331.62943   -110.86358   0.30006528   -110.56352   -5613.0096    4.3704407    4.3704407    4.3704407   -5613.0096     4747.443   -9947.5125   -11638.959   -2836.8645   -1293.3684    917.00826    83.478704 
   80000    318.56778   -110.85173   0.28824683   -110.56349   -4245.7791    4.3684459    4.3684459    4.3684459   -4245.7791    -7921.894   -2110.5179   -2704.9254   -647.65397    877.00595   -1415.3434    83.364446 
   80100    249.68999   -110.79031   0.22592475   -110.56438    3821.4798    4.3609845    4.3609845    4.3609845    3821.4798    14389.884    413.42792   -3338.8729   -2465.3867   -5983.6457    1693.1472    82.938011 
   80200    363.24771   -110.89261   0.32867416   -110.56394   -11509.485    4.3744661    4.3744661    4.3744661   -11509.485   -10197.497   -18792.634   -5538.3232     2075.045    2130.0228    797.63667    83.709582 
   80300    237.84766   -110.77963   0.21520956   -110.56442    4213.8049    4.3614941    4.3614941    4.3614941    4213.8049    6548.5354    5255.3392    837.54017    158.01602   -1151.2224   -184.34364    82.967094 
   80400    317.24213   -110.85137   0.28704735   -110.56433   -3801.5102    4.3674206    4.3674206    4.3674206   -3801.5102   -934.29863   -2960.9557   -7509.2763    664.63325   -4279.2805   -1103.2608    83.305764 
   80500    352.55455   -110.88315   0.31899876   -110.56415   -6629.7674    4.3710133    4.3710133    4.3710133   -6629.7674   -1510.7443   -7691.6191   -10686.939    2403.2807    3625.7816    934.28671    83.511521 
   80600    250.49583   -110.79156   0.22665389   -110.56491    7363.6578    4.3608956    4.3608956    4.3608956    7363.6578    9083.4716    8500.9232    4506.5786   -4117.8825   -3399.6471    450.14044    82.932942 
   80700    334.42695   -110.86777   0.30259653   -110.56517   -7313.6938    4.3714407    4.3714407    4.3714407   -7313.6938   -1587.7804   -12252.692   -8100.6088    1960.5598    878.67665    266.91358     83.53602 
   80800    277.67022   -110.81634   0.25124185    -110.5651    2898.1176    4.3644925    4.3644925    4.3644925    2898.1176    3679.4959   -3100.1723    8115.0292   -2555.9958   -1696.5067    627.72996    83.138324 
   80900    283.25057   -110.82226   0.25629107   -110.56597    3729.8673    4.3654827    4.3654827    4.3654827    3729.8673    9039.9496    6446.4216   -4296.7693    627.18893   -1602.6802   -2655.3881     83.19492 
   81000     338.1033   -110.87117   0.30592297   -110.56524   -3417.2703    4.3704525    4.3704525    4.3704525   -3417.2703    7575.2576   -11250.969   -6576.0994   -3200.4536   -1726.4637    463.03159    83.479377 
   81100    308.42591   -110.84372   0.27907025   -110.56465    8959.6152    4.3626144    4.3626144    4.3626144    8959.6152    8273.7996    12409.843    6195.2027    3642.7866    3778.3079    494.59558    83.031041 
   81200    295.01899   -110.83169   0.26693938   -110.56475   -743.83383    4.3694175    4.3694175    4.3694175   -743.83383    12811.852   -9557.0735   -5486.2802   -2530.0845   -3167.8905     1994.822    83.420087 
   81300    278.07885   -110.81528   0.25161159   -110.56367     3247.114    4.3654731    4.3654731    4.3654731     3247.114   -55.443363    1087.3964    8709.3889    1246.4273   -409.82739    311.44622    83.194371 
   81400    332.08715   -110.86494   0.30047943   -110.56446     1639.945    4.3666047    4.3666047    4.3666047     1639.945    15816.848   -6594.5821   -4302.4306    694.51436     1847.147    380.39792    83.259083 
   81500    256.96872    -110.7983    0.2325107   -110.56579    1277.8916    4.3666161    4.3666161    4.3666161    1277.8916    1534.2447    3458.7435   -1159.3135   -1352.2309   -3316.0214   -564.33967    83.259739 
   81600    342.94773   -110.87507   0.31030631   -110.56477   -638.96115    4.3670338    4.3670338    4.3670338   -638.96115    10793.009   -6902.2439   -5807.6482    3207.2254    839.22541   -1396.7239    83.283631 
   81700    320.96508   -110.85503   0.29041595   -110.56461    304.44414    4.3674676    4.3674676    4.3674676    304.44414     2748.682   -4220.4183    2385.0686   -41.783781   -970.18286    1042.9377    83.308453 
   81800    211.34336   -110.75669   0.19122791   -110.56546    522.99552    4.3647377    4.3647377    4.3647377    522.99552    3706.0677    1278.2133   -3415.2945     3643.351   -876.53869   -1462.5778    83.152338 
   81900    400.63043   -110.92732   0.36249884   -110.56482     -10031.2    4.3707589    4.3707589    4.3707589     -10031.2   -8276.2092   -17633.251   -4184.1413   -3597.9353   -1242.8473    1490.6872    83.496941 
   82000    220.57032   -110.76543   0.19957666   -110.56585    5377.0733    4.3619295    4.3619295    4.3619295    5377.0733     6760.915    10973.234   -1602.9293     2657.598    5559.0822   -1755.7083    82.991943 
   82100    331.38243   -110.86534   0.29984179    -110.5655    -13052.56     4.371548     4.371548     4.371548    -13052.56   -10481.043   -16523.444   -12153.194    -3509.154     -3692.61    1834.8792    83.542169 
   82200    263.55206   -110.80267   0.23846744   -110.56421     5526.427    4.3648769    4.3648769    4.3648769     5526.427    8258.6916    2573.8777    5746.7118    3322.5077    652.67185    907.71284     83.16029 
   82300    344.98728   -110.87643   0.31215174   -110.56428   -7171.9389    4.3668054    4.3668054    4.3668054   -7171.9389   -8516.6524   -6971.7307   -6027.4335    1660.8672   -1396.3001    114.88558    83.270566 
   82400    247.00482   -110.78881   0.22349515   -110.56531   -1642.8518    4.3680521    4.3680521    4.3680521   -1642.8518   -3464.2732    2096.3051   -3560.5874    2374.1263   -1381.4404    1836.4702    83.341909 
   82500    379.35683   -110.90762   0.34325003   -110.56437    -2013.385    4.3665892    4.3665892    4.3665892    -2013.385    2574.0831   -5439.9913   -3174.2468    3307.4888    1320.0962   -2015.3846    83.258198 
   82600    254.69385    -110.7967   0.23045235   -110.56624    1860.4752    4.3649528    4.3649528    4.3649528    1860.4752    155.12059    5948.9964    -522.6913   -1650.3886    427.32775    1588.8808     83.16463 
   82700    244.77979   -110.78741    0.2214819   -110.56592   -232.26472    4.3693398    4.3693398    4.3693398   -232.26472    5582.4173   -7570.0836    1290.8721    3868.6688   -1657.1094   -2304.3996    83.415635 
   82800    396.16733   -110.92177   0.35846052   -110.56331    34.285821    4.3654823    4.3654823    4.3654823    34.285821   -1926.7855   -5625.1877    7654.8306   -3544.8452    300.55114     2718.061    83.194899 
   82900    226.77055    -110.7698   0.20518676   -110.56462    4617.5069    4.3656636    4.3656636    4.3656636    4617.5069    7321.6548    11846.902   -5316.0357    1632.3743    222.56856   -2102.6907    83.205265 
   83000    390.14049   -110.91758   0.35300731   -110.56457   -6100.1361    4.3698264    4.3698264    4.3698264   -6100.1361   -5752.3489   -13635.005    1086.9454   -2200.5844   -2265.4143   -83.074684    83.443507 
   83100    249.53835   -110.79038   0.22578754   -110.56459    10433.834    4.3632126    4.3632126    4.3632126    10433.834    14882.176    14099.893     2319.433     2659.577    1592.8494    675.33242    83.065204 
   83200    289.80696   -110.82719   0.26222343   -110.56497    -6538.897    4.3697267    4.3697267    4.3697267    -6538.897   -7131.6488    -12858.13     373.0882   -551.99643   -1590.6825    77.764261    83.437796 
   83300    262.45779   -110.80186   0.23747733   -110.56438    3658.1472    4.3657245    4.3657245    4.3657245    3658.1472    6584.0376    1438.1415    2952.2625    2865.7705   -374.77654    1421.1583    83.208745 
   83400    374.17815   -110.90148   0.33856426   -110.56292   -274.82315    4.3665238    4.3665238    4.3665238   -274.82315    3773.8289     -1154.23   -3444.0684    1664.7322    1899.6976   -1572.3414    83.254459 
   83500    300.72553    -110.8365   0.27210278   -110.56439   -2600.2341    4.3673864    4.3673864    4.3673864   -2600.2341   -6876.3538    2572.4664    -3496.815   -2005.8883    35.568977    669.77162    83.303809 
   83600    265.76385   -110.80547   0.24046872     -110.565    2974.4711    4.3673516    4.3673516    4.3673516    2974.4711    11918.134   -2365.1217   -629.59848    3960.2019   -2748.7653    -5665.594    83.301815 
   83700    364.42396   -110.89447   0.32973846   -110.56473   -2306.2056    4.3656017    4.3656017    4.3656017   -2306.2056   -7362.1611   -948.70506    1392.2493   -2509.7452    1336.4899    2372.9414    83.201724 
   83800    158.63628   -110.71024   0.14353744    -110.5667   -365.94554    4.3676571    4.3676571    4.3676571   -365.94554    4089.4333   -2118.7605   -3068.5094    2880.4033   -2529.7071   -2884.5489    83.319298 
   83900    388.93783   -110.91603   0.35191912   -110.56411   -5802.3909    4.3672627    4.3672627    4.3672627   -5802.3909   -1216.4857   -10186.389   -6004.2979   -778.26243   -454.63141    -1091.912    83.296727 
   84000    289.45623   -110.82556   0.26190608   -110.56365    3125.4043     4.366037     4.366037     4.366037    3125.4043    651.38953    10567.228   -1842.4049    1621.0109     1761.436    386.23772    83.226616 
   84100    295.73723    -110.8322   0.26758926   -110.56461    -3479.053    4.3683079    4.3683079    4.3683079    -3479.053    3137.5525   -10992.065   -2582.6463   -2958.6712   -1831.6635    -3306.958    83.356549 
   84200    334.64875   -110.86701   0.30279722   -110.56422    1512.9945    4.3659865    4.3659865    4.3659865    1512.9945    405.46657    5239.3305   -1105.8136    4239.0785   -737.91078    298.47461    83.223728 
   84300    250.77043   -110.79167   0.22690236   -110.56477    1056.8772     4.366291     4.366291     4.366291    1056.8772    4577.4491    -8457.958    7051.1404    1272.0702    776.55729    162.75634     83.24114 
   84400    311.58174   -110.84672   0.28192571   -110.56479   -7655.4838    4.3686474    4.3686474    4.3686474   -7655.4838   -3902.7192   -7489.8215   -11573.911   -302.36757   -1194.1844   -1151.6184    83.375984 
   84500    257.85016   -110.79753   0.23330825   -110.56423    7723.1788    4.3655288    4.3655288    4.3655288    7723.1788    7806.7313    971.91299    14390.892    5043.9633   -1578.9498   -2926.8435    83.197558 
   84600    396.66168   -110.92239   0.35890782   -110.56348    -2318.957    4.3672231    4.3672231    4.3672231    -2318.957    849.94147   -1998.3206   -5808.4919   -2634.6823    1135.6981    1890.4067    83.294464 
   84700    213.49873   -110.75866   0.19317814   -110.56548    4009.9415    4.3673724    4.3673724    4.3673724    4009.9415    789.09539    1774.5943    9466.1349    3552.5776   -3056.6634   -1958.9437    83.303004 
   84800    390.52341   -110.91741   0.35335379   -110.56406   -53.174097    4.3651402    4.3651402    4.3651402   -53.174097     1929.911   -1138.0838   -951.34954   -1803.0805    2230.6693   -1293.4482     83.17534 
   84900    263.72903   -110.80404   0.23862756   -110.56542   -2010.0105    4.3686327    4.3686327    4.3686327   -2010.0105    -2811.085   -6637.6573    3418.7109    2523.9497    465.04279     455.1931    83.375142 
   85000    217.14496   -110.76221   0.19647732   -110.56574    622.04205    4.3660239    4.3660239    4.3660239    622.04205    1755.8543   -2531.1093    2641.3811   -782.36086   -828.02221   -2750.9202    83.225869 
   85100    394.16482   -110.92028   0.35664861   -110.56364    -606.4221    4.3674574    4.3674574    4.3674574    -606.4221   -1939.6562   -539.83628    660.22614   -63.198197     -629.086   -2223.9387    83.307872 
   85200    252.63256   -110.79373   0.22858725   -110.56514    3877.6348    4.3654914    4.3654914    4.3654914    3877.6348    2643.2361    1945.1678    7044.5005    2099.1403    2024.4747    1118.1521    83.195419 
   85300    357.93329    -110.8901   0.32386557   -110.56624    -7461.965    4.3683137    4.3683137    4.3683137    -7461.965   -10263.633   -1319.6586   -10802.603   -526.68521   -3399.7766    616.00256    83.356879 
   85400    288.92817   -110.82686   0.26142828   -110.56544     4047.392    4.3658853    4.3658853    4.3658853     4047.392    7372.7611   -5351.8833    10121.298    3438.5586    1324.7646   -1549.6543    83.217943 
   85500    261.38921   -110.80247   0.23651045   -110.56596   -6780.4018    4.3678642    4.3678642    4.3678642   -6780.4018   -6824.8739   -7123.9101   -6392.4213    -2482.107   -1050.2942   -8.2991245    83.331154 
   85600    246.69549   -110.78896   0.22321527   -110.56574    225.85179    4.3664991    4.3664991    4.3664991    225.85179    3386.6611   -6136.2405    3427.1347    4020.7779    -4407.806   -4186.9917    83.253047 
   85700    369.28428   -110.89735   0.33413617   -110.56321     1372.458    4.3672938    4.3672938    4.3672938     1372.458    4929.9529    2061.3418   -2873.9208   -1840.1407    1710.0914    328.80017    83.298511 
   85800    323.68819   -110.85701   0.29287988   -110.56413   -3517.5333    4.3664928    4.3664928    4.3664928   -3517.5333   -6496.2922   -2963.3741   -1092.9336     2150.468   -2164.5239   -2396.8824    83.252683 
   85900     250.0679   -110.79135    0.2262667   -110.56508    2312.6771    4.3682638    4.3682638    4.3682638    2312.6771    10098.805   -2818.5025   -342.27095    1251.4739   -1961.6027    1463.5128    83.354023 
   86000     388.3204   -110.91504   0.35136046   -110.56367   -2540.6959    4.3651117    4.3651117    4.3651117   -2540.6959   -5289.4613    -10048.15    7715.5235   -1905.6609   -622.58232    249.91678    83.173712 
   86100    162.43136   -110.71311   0.14697131   -110.56613    840.25023    4.3680631    4.3680631    4.3680631    840.25023    11571.012   -5262.1128   -3788.1488    2760.5442   -455.12704    -1575.473    83.342538 
   86200     360.9608   -110.89084   0.32660492   -110.56423   -2995.3804    4.3678454    4.3678454    4.3678454   -2995.3804   -4525.8926    -6837.404    2377.1555   -655.09549   -572.46706    1664.4681    83.330073 
   86300    354.96778   -110.88428   0.32118231    -110.5631    5162.8252    4.3638481    4.3638481    4.3638481    5162.8252    9734.5572    2367.7146    3386.2038     3930.616     38.39912   -460.61833    83.101502 
   86400     211.3917   -110.75696   0.19127165   -110.56569   -1137.2868    4.3714456    4.3714456    4.3714456   -1137.2868   -4710.5054   -6052.0656    7350.7104    -1381.224   -1247.9439   -85.189079      83.5363 
   86500    393.16478    -110.9205   0.35574375   -110.56475   -866.48206    4.3626079    4.3626079    4.3626079   -866.48206    3313.0523   -5237.7363   -674.76217    4179.6178   -1595.3013   -2421.8615    83.030671 
   86600     208.6227   -110.75444    0.1887662   -110.56567    5036.1608    4.3679907    4.3679907    4.3679907    5036.1608    9234.8696   -4260.5879    10134.201    894.00968    565.14928    2974.3298    83.338392 
   86700    373.22207   -110.90271   0.33769917   -110.56501   -14323.229    4.3702996    4.3702996    4.3702996   -14323.229   -11054.243   -17938.852   -13976.591    757.03457   -933.40485   -2575.8454     83.47062 
   86800    184.42308   -110.73227   0.16686987    -110.5654    14640.078    4.3605956    4.3605956    4.3605956    14640.078    15814.561    11766.497    16339.177    5349.1349   -894.02851    2576.5305    82.915826 
   86900    450.93744   -110.97178   0.40801767   -110.56376   -12455.893    4.3739258    4.3739258    4.3739258   -12455.893   -14286.954   -15866.948   -7213.7784   -2101.2352    -1129.229   -191.01404    83.678568 
   87000    152.62443   -110.70424   0.13809779   -110.56614    5910.0832    4.3622273    4.3622273    4.3622273    5910.0832    5675.5006    5945.8263    6108.9226    4925.8598   -3007.1579   -1577.0219    83.008939 
   87100    401.58887   -110.92759   0.36336605   -110.56422   -5395.8286    4.3679078    4.3679078    4.3679078   -5395.8286   -3814.8488    -10671.07   -1701.5674   -2124.0413    512.43146    337.89295    83.333644 
   87200    300.27244    -110.8362   0.27169281   -110.56451   -6831.7821    4.3702634    4.3702634    4.3702634   -6831.7821    2486.9178   -14920.342   -8061.9225    1455.2556    1142.9156   -683.44803    83.468543 
   87300    184.98986   -110.73262   0.16738271   -110.56524    2980.0221    4.3629607    4.3629607    4.3629607    2980.0221    -97.93494   -49.776088    9087.7772     2693.251   -3651.4013   -27.093545    83.050818 
   87400    402.39584   -110.92664   0.36409621   -110.56254   -2846.6361    4.3700042    4.3700042    4.3700042   -2846.6361    2281.2441   -6512.2435    -4308.909   -1534.9362   -175.98071   -187.48677    83.453696 
   87500    240.06923   -110.78124   0.21721969   -110.56402    2570.9041    4.3659156    4.3659156    4.3659156    2570.9041    3307.0027   -1734.1565     6139.866    5181.2503   -1157.6379    1385.8909    83.219676 
   87600    363.59888   -110.89493   0.32899191   -110.56594   -6021.7946    4.3667371    4.3667371    4.3667371   -6021.7946   -7474.6381   -2898.9604   -7691.7851   -714.46091   -1225.9734   -2777.8772    83.266656 
   87700    274.43009   -110.81422   0.24831012   -110.56591    2862.1223     4.368061     4.368061     4.368061    2862.1223    16427.265   -11112.861    3271.9631     2589.779   -434.93086    3680.9325    83.342413 
   87800     331.1382   -110.86442    0.2996208    -110.5648   -5738.9022    4.3659991    4.3659991    4.3659991   -5738.9022   -10147.462   -8764.4462    1695.2013   -649.57782   -52.527683   -2845.1886    83.224446 
   87900    161.71238   -110.71219   0.14632076   -110.56587    7404.7106    4.3671256    4.3671256    4.3671256    7404.7106     13790.58    303.32336    8120.2284    3064.8184   -1777.9209    2397.1945    83.288885 
   88000    432.53675   -110.95465   0.39136834   -110.56328   -3990.6377    4.3672566    4.3672566    4.3672566   -3990.6377    -3960.728   -3274.8684   -4736.3165   -2884.7773    776.26223     1651.916    83.296382 
   88100    280.50251   -110.81831   0.25380457    -110.5645    1389.6614    4.3668216    4.3668216    4.3668216    1389.6614    2325.7669    2408.4919   -565.27446    19.886342    2134.3164   -153.15363    83.271491 
   88200    295.04335   -110.83077   0.26696142   -110.56381   -1046.4998    4.3682803    4.3682803    4.3682803   -1046.4998    5628.1133   -4649.0664   -4118.5464    1683.6398   -2053.5565   -1654.9758    83.354969 
   88300     343.4062   -110.87337   0.31072115   -110.56265    72.211481    4.3645348    4.3645348    4.3645348    72.211481    2440.5276    -6572.349    4348.4558   -5338.6647    1420.5227   -231.45071    83.140738 
   88400    184.36116   -110.73196   0.16681385   -110.56515    1478.3365    4.3707536    4.3707536    4.3707536    1478.3365    6260.9489   -4131.4911    2305.5516    4973.6748   -2809.2376     2166.376    83.496634 
   88500    351.49868   -110.88241    0.3180434   -110.56437   -11.134159    4.3624204    4.3624204    4.3624204   -11.134159   -5710.9378    7607.5458   -1930.0104   -2158.8413   -2011.5911   -2868.1509    83.019965 
   88600    294.68885   -110.83135   0.26664066   -110.56471     511.2126    4.3702796    4.3702796    4.3702796     511.2126    3834.3028    865.69537   -3166.3603    1486.1459    795.93301    3892.4752    83.469471 
   88700    379.56335   -110.90861    0.3434369   -110.56517   -4335.3271     4.366569     4.366569     4.366569   -4335.3271   -8510.4325    3161.8534   -7657.4021    410.91542    -1570.021   -2252.7389    83.257043 
   88800    220.27002   -110.76567   0.19930494   -110.56637    4279.9499    4.3637569    4.3637569    4.3637569    4279.9499    5856.1011    5200.4446     1783.304     423.1139   -2703.4358     520.0508    83.096294 
   88900    357.57623   -110.88834   0.32354248    -110.5648   -6949.0908    4.3721641    4.3721641    4.3721641   -6949.0908   -9001.1385   -8532.2218    -3313.912   -2242.8574   -502.73955   -1384.0287      83.5775 
   89000    213.01527   -110.75787   0.19274069   -110.56513     5921.614    4.3626312    4.3626312    4.3626312     5921.614    1301.4618    15858.321     605.0593    2097.8125   -1940.3599    2368.8678    83.032003 
   89100    315.01518   -110.84961   0.28503236   -110.56457   -4819.0202    4.3686318    4.3686318    4.3686318   -4819.0202   -5081.7577   -1681.5029      -7693.8   -2111.3763    302.90419   -756.33065     83.37509 
   89200    381.72956   -110.90864   0.34539693   -110.56325   -4734.0779    4.3699118    4.3699118    4.3699118   -4734.0779   -4890.7967   -754.81504   -8556.6219   -1900.4381     83.98064    4.0122024    83.448401 
   89300    243.07832   -110.78396   0.21994237   -110.56402    6485.5778     4.361337     4.361337     4.361337    6485.5778    9414.3447    9510.5783    531.81028    4043.0154   -2659.6216    721.01662    82.958128 
   89400    382.57102   -110.90963    0.3461583   -110.56347   -12200.808    4.3729192    4.3729192    4.3729192   -12200.808    -13759.05   -14380.852   -8462.5234   -1850.4101    363.23363   -611.73503    83.620808 
   89500    160.30656   -110.70936   0.14504874   -110.56431    11785.242     4.364281     4.364281     4.364281    11785.242    14323.664    16164.401    4867.6613    3728.8413   -1585.0738    3957.3164    83.126234 
   89600    395.04893   -110.92162   0.35744857   -110.56417   -7729.1716    4.3663994    4.3663994    4.3663994   -7729.1716   -10326.968   -4163.6486   -8696.8984   -310.21431   -2065.7922    -1507.569    83.247342 
   89700    180.31723   -110.72933   0.16315482   -110.56617    3881.5084    4.3689816    4.3689816    4.3689816    3881.5084    12147.591    1749.0797   -2252.1453   -309.72807    836.74431    1925.5134    83.395122 
   89800    462.45007   -110.98287   0.41843455   -110.56443   -2896.8625    4.3648754    4.3648754    4.3648754   -2896.8625    1951.6539   -3887.4406   -6754.8007   -1418.6037   -1453.7794   -2532.2023    83.160206 
   89900    239.23155   -110.78218   0.21646173   -110.56572    2376.3512    4.3679706    4.3679706    4.3679706    2376.3512    4978.6154    6440.3236   -4289.8854    3513.3282   -1389.4627   -399.56838    83.337243 
   90000    286.76229   -110.82355   0.25946855   -110.56409    596.51983    4.3678895    4.3678895    4.3678895    596.51983    6931.9912   -3407.0572   -1735.3745   -4191.3553     1170.611    1879.8543      83.3326 
   90100    320.76518    -110.8535   0.29023508   -110.56326    4024.2653    4.3646157    4.3646157    4.3646157    4024.2653   -4074.9748    15667.898    479.87273    997.03137    682.00853    1565.7856    83.145363 
   90200    179.92185   -110.72804   0.16279707   -110.56524    2935.3646    4.3683043    4.3683043    4.3683043    2935.3646    15705.389   -6658.0681   -241.22735    293.73286   -588.09466    791.38762    83.356344 
   90300    452.99898   -110.97389     0.409883   -110.56401   -8855.0587    4.3683706    4.3683706    4.3683706   -8855.0587   -10273.222   -5743.5248    -10548.43   -2940.2136    27.862145   -188.91417     83.36014 
   90400    223.69937   -110.76738   0.20240789   -110.56497    12683.159    4.3633632    4.3633632    4.3633632    12683.159    15196.884    15009.895    7842.6979    1474.3843   -972.48367   -302.36131    83.073804 
   90500    389.39379   -110.91659   0.35233169   -110.56426   -11259.815    4.3712934    4.3712934    4.3712934   -11259.815   -9882.9224   -7865.0141   -16031.507   -483.82919   -2310.9096   -2040.5878    83.527574 
   90600    204.36433   -110.74988   0.18491314   -110.56496    8138.6659    4.3643505    4.3643505    4.3643505    8138.6659   -2636.5842    17133.228    9919.3543   -2256.3482   -491.62539    3068.2059     83.13021 
   90700    329.12808   -110.86213     0.297802   -110.56432   -2096.9961    4.3663806    4.3663806    4.3663806   -2096.9961    4078.8243   -9552.3404   -817.47215   -2091.8509   -1397.2236   -1971.5638    83.246265 
   90800    281.81449   -110.82026   0.25499167   -110.56527   -8884.1768    4.3713857    4.3713857    4.3713857   -8884.1768   -13771.734   -5533.6442   -7347.1524    1418.0309   -1534.0244   -536.40028    83.532865 
   90900    291.92868   -110.82876    0.2641432   -110.56462    5570.3486     4.361517     4.361517     4.361517    5570.3486    5360.5488    5742.1843    5608.3126   -9249.9538    239.81841    172.80532    82.968397 
   91000    380.12971   -110.90764   0.34394935   -110.56369   -8363.8899    4.3716368    4.3716368    4.3716368   -8363.8899   -13256.363    1469.3216   -13304.628    3444.7812   -1877.5815    1095.4213     83.54726 
   91100    204.81085   -110.74994   0.18531716   -110.56463      984.715    4.3658925    4.3658925    4.3658925      984.715   -6431.4611    6225.6417    3159.9643   -5412.2829   -190.67833     861.2285    83.218351 
   91200    368.40146   -110.89711   0.33333738   -110.56378   -4735.9827    4.3659765    4.3659765    4.3659765   -4735.9827   -7046.8729   -6027.7423   -1133.3329   -4794.7502    1394.3888   -235.79224    83.223157 
   91300    215.41672   -110.75964   0.19491358   -110.56472   -2004.5305     4.369725     4.369725     4.369725   -2004.5305   -1948.2539   -4553.2614    487.92364    3768.0699   -1724.7722   -1701.7639    83.437697 
   91400    325.35132   -110.85838   0.29438471   -110.56399   -6183.9944    4.3661888    4.3661888    4.3661888   -6183.9944   -6960.3819    -5348.926   -6242.6752   -6597.1661    84.444486   -1500.5976    83.235295 
   91500    322.31969     -110.855   0.29164163   -110.56336    3797.3886    4.3658292    4.3658292    4.3658292    3797.3886   -167.96061    10559.552     1000.574   -745.39783   -1150.3664     449.4873    83.214734 
   91600    311.80055    -110.8466   0.28212369   -110.56447    -5732.749    4.3701865    4.3701865    4.3701865    -5732.749   -3193.9418   -1709.0649    -12295.24   -2110.5293   -1549.4289   -295.59206    83.464138 
   91700    312.03498   -110.84731    0.2823358   -110.56497   -883.21416     4.363636     4.363636     4.363636   -883.21416   -7326.6678    1514.2422    3162.7831   -3582.1095    1878.2095    1120.3592    83.089387 
   91800    236.46785   -110.77967   0.21396108   -110.56571    3856.3656    4.3692828    4.3692828    4.3692828    3856.3656    8472.2365    3035.7653    61.095142   -3151.2721    527.11279    -2125.197     83.41237 
   91900    365.06221   -110.89566   0.33031596   -110.56534    -5435.344    4.3657796    4.3657796    4.3657796    -5435.344   -7140.6285   -5766.0295   -3399.3739    1392.8864   -1745.0814   -1931.3681    83.211898 
   92000    205.27937    -110.7521   0.18574109   -110.56636    7679.9867    4.3672925    4.3672925    4.3672925    7679.9867    5121.9197    17335.289    582.75096   -5496.3125    847.91702   -111.61181    83.298433 
   92100    426.90498   -110.94986    0.3862726   -110.56358   -2195.5623    4.3670829    4.3670829    4.3670829   -2195.5623    4731.7948   -2289.0169   -9029.4647   -116.84185   -94.896116    135.13559    83.286443 
   92200    252.08562   -110.79248   0.22809237   -110.56439    1214.8736    4.3668314    4.3668314    4.3668314    1214.8736   -3910.6135    10957.316   -3402.0816    2124.7862    1125.9759   -1112.9617    83.272052 
   92300    283.46401   -110.82019   0.25648419    -110.5637    1970.7694    4.3673396    4.3673396    4.3673396    1970.7694    8171.7385    -1877.482   -381.94835   -5325.2548    2577.8879    1164.4282     83.30113 
   92400    334.35292   -110.86491   0.30252955   -110.56238    596.65625    4.3667176    4.3667176    4.3667176    596.65625   -1835.1107    2172.5399    1452.5395    1693.5142   -60.246511   -308.69286    83.265541 
   92500    225.94652   -110.76882   0.20444116   -110.56437     4318.634    4.3672562    4.3672562    4.3672562     4318.634    5599.8177    6833.0645    523.01983   -2176.8228    400.23731   -1660.5588     83.29636 
   92600    363.66888   -110.89211   0.32905524   -110.56306   -468.16654    4.3673979    4.3673979    4.3673979   -468.16654    1487.9386    1262.3129   -4154.7511   -4807.5926   -555.30254    150.57842    83.304468 
   92700    289.61084   -110.82626   0.26204597   -110.56422     4314.641     4.365069     4.365069     4.365069     4314.641    6274.2162    8565.5102   -1895.8036   -15.503357   -188.19781   -367.35746    83.171274 
   92800    340.56168   -110.87391   0.30814737   -110.56576   -8397.8312    4.3706706    4.3706706    4.3706706   -8397.8312   -6810.2578   -9598.2529   -8784.9828   -845.54915    1181.9058   -2310.7679    83.491877 
   92900    211.97513   -110.75814   0.19179955   -110.56634    8928.0089    4.3627479    4.3627479    4.3627479    8928.0089    8740.3823    8137.3486    9906.2957   -5061.7921    -49.51992   -1566.3392    83.038664 
   93000    383.71824   -110.91206   0.34719633   -110.56487   -6844.1717    4.3706557    4.3706557    4.3706557   -6844.1717   -3947.9642   -12829.155   -3755.3959    1124.8932     -2116.88   -325.26289    83.491022 
   93100    200.75991   -110.74728   0.18165179   -110.56563    4664.6489    4.3656916    4.3656916    4.3656916    4664.6489    3355.8095    10162.506    475.63149   -3196.2085    118.91251    91.224365    83.206867 
   93200    371.64648   -110.89986   0.33627354   -110.56359   -2569.3735    4.3653152    4.3653152    4.3653152   -2569.3735    548.43139   -7729.5706   -526.98118    -3909.862    2125.4346    1078.8922    83.185344 
   93300    354.62514   -110.88438   0.32087228   -110.56351    -8058.249    4.3723367    4.3723367    4.3723367    -8058.249   -5379.8265   -2944.3788   -15850.542    1003.5752    43.132918   -1076.7016    83.587398 
   93400    199.25882   -110.74531   0.18029357   -110.56502    4085.6631    4.3619266    4.3619266    4.3619266    4085.6631    5684.0567   -215.31687    6788.2495   -7091.6402    69.938048    785.33136    82.991776 
   93500    364.00663   -110.89304   0.32936085   -110.56368   -5288.2906    4.3696461    4.3696461    4.3696461   -5288.2906   -5719.2057   -8235.4413   -1910.2249   -379.65605   -1604.1019   -1437.3116    83.433177 
   93600     226.2787   -110.76954   0.20474172    -110.5648    3034.9341    4.3687533    4.3687533    4.3687533    3034.9341    1652.4767     8188.708   -736.38231   -3580.2674   -561.37205   -1568.2003    83.382051 
   93700    328.82992   -110.86292   0.29753222   -110.56538   -3228.0513    4.3617919    4.3617919    4.3617919   -3228.0513   -6309.8047   -7048.5602    3674.2109   -4773.2911    126.50836     340.2074    82.984088 
   93800    303.67261    -110.8402   0.27476936   -110.56543   -3966.9766    4.3734334    4.3734334    4.3734334   -3966.9766   -1011.4311    5507.3596   -16396.858    -975.4236    1029.3546    298.52788    83.650309 
   93900    351.17641   -110.88293    0.3177518   -110.56518   -2904.5637    4.3625529    4.3625529    4.3625529   -2904.5637    2333.3504   -7952.8737   -3094.1679   -2775.2935   -1002.9523   -2703.8698    83.027533 
   94000    204.57342    -110.7516   0.18510233    -110.5665   -854.89294    4.3673439    4.3673439    4.3673439   -854.89294   -5921.7506    7811.7639   -4454.6921   -3716.7818   -98.382708    2448.8296    83.301375 
   94100    349.27185   -110.88056   0.31602851   -110.56453   -2213.8246    4.3707124    4.3707124    4.3707124   -2213.8246    1448.2831   -7588.1177    -501.6394    1564.2817    1528.5785   -1527.2659    83.494276 
   94200    268.08866   -110.80768   0.24257225   -110.56511    4468.7923    4.3614462    4.3614462    4.3614462    4468.7923    202.34562     9548.943    3655.0883   -1291.3562   -1458.6679    762.78884    82.964361 
   94300    267.09635   -110.80702   0.24167439   -110.56535   -5451.6694    4.3713876    4.3713876    4.3713876   -5451.6694   -95.506187   -9739.6568   -6519.8452   -3017.1802    2283.1575    520.55694    83.532972 
   94400    396.41328   -110.92126   0.35868307   -110.56258   -2506.7242    4.3670335    4.3670335    4.3670335   -2506.7242    7944.0715    -4071.371   -11392.873    1433.9072    342.64257    548.43586    83.283615 
   94500    250.10388   -110.79014   0.22629925   -110.56384    6049.9624    4.3630241    4.3630241    4.3630241    6049.9624    8156.2902     10287.22    -293.6233    -4328.291   -338.53818   -1230.7581    83.054436 
   94600    293.37116   -110.82938   0.26544839   -110.56393   -6371.9384    4.3732901    4.3732901    4.3732901   -6371.9384    2341.0455   -13497.662    -7959.199    -3178.902   -68.570963   -743.21816    83.642085 
   94700    330.51994   -110.86139   0.29906139   -110.56233    9778.0346    4.3614055    4.3614055    4.3614055    9778.0346    4704.1331    17377.573    7252.3979    660.20354   -564.50221    820.06809    82.962036 
   94800    255.86094   -110.79591   0.23150836   -110.56441    1377.8026    4.3699076    4.3699076    4.3699076    1377.8026    16605.833    -12707.76    235.33465   -2534.0986    2188.7414   -2144.3123    83.448161 
   94900    297.85265   -110.83458   0.26950334   -110.56507   -2436.1431    4.3667485    4.3667485    4.3667485   -2436.1431   -1920.0284     510.3601   -5898.7609   -3954.9221      113.367    2091.6301    83.267312 
   95000    365.51999   -110.89599   0.33073017   -110.56526    4036.5851    4.3645641    4.3645641    4.3645641    4036.5851    17114.972   -2780.8127   -2224.4045    5023.4137   -877.69497   -2179.3875    83.142415 
   95100    265.01152   -110.80584   0.23978799   -110.56605   -3453.9316     4.370356     4.370356     4.370356   -3453.9316   -3451.4884    3696.8645   -10607.171   -5929.3354   -1098.2588    797.82367    83.473852 
   95200    300.12395   -110.83665   0.27155846   -110.56509   -203.75369    4.3647695    4.3647695    4.3647695   -203.75369   -4638.1563   -1719.9361    5746.8314    223.21792    1823.9716   -343.50222    83.154152 
   95300    293.15387    -110.8297   0.26525178   -110.56445    5925.7439    4.3680328    4.3680328    4.3680328    5925.7439    11558.425     8085.463    -1866.656    556.38555    3017.0742    331.58131    83.340802 
   95400    278.87912   -110.81809   0.25233569   -110.56575   -5879.9367    4.3676317    4.3676317    4.3676317   -5879.9367   -8705.3849   -10803.243    1868.8181    -5744.166    1597.0214    279.97182    83.317847 
   95500    303.54114   -110.84095    0.2746504    -110.5663   -2142.5382    4.3651564    4.3651564    4.3651564   -2142.5382    1994.3081   -4111.0321   -4310.8907     197.8223    1438.1415    22.689886    83.176266 
   95600    374.23453   -110.90346   0.33861527   -110.56485   -4716.1959     4.370244     4.370244     4.370244   -4716.1959   -5542.6616    5083.4048   -13689.331    405.86511   -1687.3483   -892.30425    83.467434 
   95700    262.05436   -110.80253   0.23711229   -110.56542   -1999.1298     4.363426     4.363426     4.363426   -1999.1298   -1951.0676   -6217.9098    2171.5879   -3069.1508   -414.99612   -1572.2353    83.077389 
   95800    280.08945   -110.81933   0.25343082    -110.5659   -1453.7637    4.3710879    4.3710879    4.3710879   -1453.7637   -3746.4421    6864.5972   -7479.4462   -2837.0695    1793.5791    1047.1873    83.515794 
   95900    333.41289   -110.86633   0.30167899   -110.56465    3869.7653    4.3627211    4.3627211    4.3627211    3869.7653    11549.304   -7172.5786     7232.571    3032.3405    1098.4995   -3927.0686    83.037135 
   96000    239.23346   -110.78246   0.21646347     -110.566   -4211.1147    4.3699133    4.3699133    4.3699133   -4211.1147   -2965.2687   -5146.1959   -4521.8794   -5862.9731     419.8151   -165.79086    83.448484 
   96100    358.29051   -110.88833   0.32418878   -110.56414    -2471.242    4.3674928    4.3674928    4.3674928    -2471.242    6414.0365   -6563.1714   -7264.5911    2754.2719    28.936028   -1959.8648    83.309893 
   96200    300.51838   -110.83541   0.27191535    -110.5635    5323.3103     4.362998     4.362998     4.362998    5323.3103    8103.5005    11245.846   -3379.4153   -2473.2913    600.89325   -475.07473    83.052943 
   96300    280.61829   -110.81847   0.25390932   -110.56456   -5113.9482    4.3729487    4.3729487    4.3729487   -5113.9482    2948.7398   -9213.2965   -9077.2879    -2287.208    2347.2529    479.67404    83.622498 
   96400    315.36934   -110.84896    0.2853528   -110.56361    5506.3029    4.3621542    4.3621542    4.3621542    5506.3029    4021.1879    7672.1914    4825.5293   -1142.0698     2336.709   -24.341465     83.00477 
   96500    288.55616    -110.8253   0.26109168   -110.56421    1144.8857    4.3679684    4.3679684    4.3679684    1144.8857     7712.018   -3134.5282   -1142.8328   -476.53805   -772.89511     1012.609    83.337115 
   96600    321.97083   -110.85657   0.29132597   -110.56524   -9360.6484     4.370641     4.370641     4.370641   -9360.6484    -10707.21   -14307.249   -3067.4866    -3154.008    995.05399   -2681.3197    83.490181 
   96700    211.21104   -110.75703   0.19110818   -110.56592    8953.1234    4.3603797    4.3603797    4.3603797    8953.1234    9535.0694    23663.374   -6339.0736     1426.914    948.54268    72.959871    82.903509 
   96800    453.94207   -110.97564   0.41073633   -110.56491   -12769.038    4.3733247    4.3733247    4.3733247   -12769.038   -10462.587   -16761.277   -11083.251    1062.2947   -545.46207   -502.78852     83.64407 
   96900    163.42613   -110.71462    0.1478714   -110.56675    5440.9204    4.3641699    4.3641699    4.3641699    5440.9204    771.55046    16681.087    -1129.876   -99.380704    3441.7392    570.40209    83.119888 
   97000    385.37869   -110.91374   0.34869874   -110.56504   -5491.3023    4.3655016    4.3655016    4.3655016   -5491.3023   -8303.8796   -6934.6572     -1235.37    2104.7653    215.27028   -883.98372    83.196001 
   97100    236.40468   -110.77954   0.21390392   -110.56564    -164.8249    4.3713913    4.3713913    4.3713913    -164.8249    836.79871   -910.11022   -421.16319   -2574.1063   -1131.0284    835.43828    83.533186 
   97200    296.03931   -110.83294   0.26786259   -110.56508   -411.78283    4.3623153    4.3623153    4.3623153   -411.78283    -1587.111    6286.1229   -5934.3604    -1422.712    3326.7972   -854.51832    83.013965 
   97300    306.91709   -110.84149   0.27770503   -110.56378   -2046.1276    4.3704276    4.3704276    4.3704276   -2046.1276   -188.15289    3014.0643   -8964.2941   -114.86106    1350.8411     2206.148    83.477953 
   97400    332.64056   -110.86353   0.30098017   -110.56255    1069.9042    4.3668642    4.3668642    4.3668642    1069.9042    5946.5256     3909.462    -6646.275   -2188.4317    717.03059     326.4865     83.27393 
   97500    314.14217   -110.84817   0.28424244   -110.56393   -1102.6777    4.3651769    4.3651769    4.3651769   -1102.6777   -2393.8955    -1050.431    136.29347    817.85052    1814.3614    133.33717    83.177436 
   97600    210.13151   -110.75551   0.19013141   -110.56538    5289.6416    4.3691085    4.3691085    4.3691085    5289.6416    13525.333    3990.9189   -1647.3274   -198.94419   -1901.2338   -222.53596    83.402386 
   97700    432.51781   -110.95546   0.39135121   -110.56411   -1762.8925    4.3644873    4.3644873    4.3644873   -1762.8925    2912.3946   -7648.1467    -552.9253   -1037.5985   -1908.6581   -199.54414    83.138023 
   97800    160.04529   -110.71111   0.14481234    -110.5663    5893.1992    4.3690108    4.3690108    4.3690108    5893.1992    13351.254    11198.204   -6869.8602    1819.3309    4080.7431    2000.7441    83.396796 
   97900    434.49525    -110.9574   0.39314044   -110.56426   -3945.1733    4.3650054    4.3650054    4.3650054   -3945.1733    2294.6083   -4527.3136   -9602.8146    402.00527   -125.18138   -1627.0787    83.167635 
   98000    236.26505   -110.77979   0.21377759   -110.56601    6081.5678    4.3677724    4.3677724    4.3677724    6081.5678    12788.119    7287.5817    -1830.997    -556.0108    381.28435    775.13447    83.325899 
   98100    325.46191   -110.86039   0.29448478    -110.5659   -4890.0795    4.3671258    4.3671258    4.3671258   -4890.0795   -4866.4944   -3960.0962   -5843.6479   -933.03331    2427.0032   -3139.5162    83.288894 
   98200    244.02627   -110.78615    0.2208001   -110.56534    3479.5203    4.3656982    4.3656982    4.3656982    3479.5203     4534.965    4086.0153    1817.5807    3880.5191    -1019.062    1085.7336    83.207241 
   98300     377.9206   -110.90606    0.3419505   -110.56411   -2919.9818    4.3690183    4.3690183    4.3690183   -2919.9818   -1614.0416   -2705.7688    -4440.135   -4697.6591    -324.3447    122.64613    83.397226 
   98400    231.06304   -110.77403    0.2090707   -110.56496   -1165.9138    4.3655126    4.3655126    4.3655126   -1165.9138   -1650.9861    7146.2138   -8992.9691    2496.3353    1717.7021     2211.238    83.196631 
   98500    313.28827   -110.84761   0.28346981   -110.56414   -3628.7451    4.3679845    4.3679845    4.3679845   -3628.7451   -685.52764   -3116.9504   -7083.7573    -595.3482   -608.77689    -1847.408    83.338037 
   98600    366.29518    -110.8946   0.33143157   -110.56317    -4813.357    4.3682021    4.3682021    4.3682021    -4813.357   -402.43878   -5626.3011   -8411.3311   -1468.9661   -869.26713    810.78655    83.350494 
   98700    178.80099   -110.72741   0.16178289   -110.56563    958.35182    4.3648009    4.3648009    4.3648009    958.35182   -6532.9108    7908.0609    1499.9054    4324.1418    1556.4239   -596.46106    83.155945 
   98800    400.74764   -110.92682   0.36260489   -110.56422   -6509.3716    4.3698897    4.3698897    4.3698897   -6509.3716   -398.50157    -12956.36   -6173.2534    199.45087   -137.14705   -2659.5609    83.447134 
   98900    240.38185   -110.78291   0.21750255   -110.56541    8890.3681    4.3644051    4.3644051    4.3644051    8890.3681    5116.7267    19516.147     2038.231     4119.036     2776.355    1422.0371    83.133327 
   99000     336.3953   -110.86993   0.30437754   -110.56555   -7290.2815    4.3678395    4.3678395    4.3678395   -7290.2815   -1181.7861   -7554.5095   -13134.549    -1509.727   -288.95751   -1460.9536    83.329736 
   99100    246.36898   -110.78775   0.22291983   -110.56483    2771.8437    4.3691022    4.3691022    4.3691022    2771.8437    10158.852    5741.6037   -7584.9243    2701.2018   -1393.2756   -568.16294     83.40203 
   99200    408.74104    -110.9335   0.36983749   -110.56366   -543.23985    4.3630198    4.3630198    4.3630198   -543.23985   -2678.6379    1440.8789   -391.96064   -4335.6665    938.35354   -1806.7133    83.054192 
   99300    175.40459   -110.72472   0.15870976   -110.56601    1417.6491    4.3706717    4.3706717    4.3706717    1417.6491    10734.308    1067.3384   -7548.6988    2682.4061    460.60835    1771.9725     83.49194 
   99400    336.00855   -110.86828   0.30402759   -110.56425    4921.1453    4.3652248    4.3652248    4.3652248    4921.1453    764.46361    10286.547    3712.4251   -2904.3905    374.83485    364.03976    83.180179 
   99500    357.92269   -110.88851   0.32385597   -110.56465    3573.7892    4.3651917    4.3651917    4.3651917    3573.7892    14355.466    3604.7487   -7238.8472    2055.5529    1896.1685    992.86975    83.178288 
   99600    199.53679   -110.74697   0.18054508   -110.56643   -3256.7598    4.3714524    4.3714524    4.3714524   -3256.7598   -3939.8759    4901.3383   -10731.742    2931.3179   -861.69985   -1564.9143    83.536691 
   99700    438.02036    -110.9601   0.39633003   -110.56377   -1909.3933    4.3614831    4.3614831    4.3614831   -1909.3933    3182.5773   -1776.8725   -7133.8847    1048.0034   -3583.7754   -27.319038    82.966464 
   99800    222.38375   -110.76655   0.20121749   -110.56533    2421.6333    4.3715737    4.3715737    4.3715737    2421.6333    -1866.476    16473.208   -7341.8317     2440.453    3256.1975   -851.00696    83.543644 
   99900    285.32992   -110.82359   0.25817251   -110.56541   -3359.1403    4.3647431    4.3647431    4.3647431   -3359.1403   -3844.9482   -3118.8602   -3113.6126   -958.30902   -1725.6957    381.01489    83.152644 
  100000    304.17226   -110.84083   0.27522145   -110.56561    3707.5398    4.3664461    4.3664461    4.3664461    3707.5398   -1111.6694    15268.383   -3034.0943    2820.1519   -39.206574    460.37811    83.250015 
Loop time of 22.0887 on 1 procs for 100000 steps with 8 atoms

Pair  time (%) = 6.87386 (31.1194)
Kspce time (%) = 5.38637 (24.3852)
Neigh time (%) = 0 (0)
Comm  time (%) = 1.08892 (4.92978)
Outpt time (%) = 0.0277746 (0.125741)
Other time (%) = 8.71178 (39.44)

Nlocal:    8 ave 8 max 8 min
Histogram: 1 0 0 0 0 0 0 0 0 0
Nghost:    2189 ave 2189 max 2189 min
Histogram: 1 0 0 0 0 0 0 0 0 0
Neighs:    2056 ave 2056 max 2056 min
Histogram: 1 0 0 0 0 0 0 0 0 0

Total # of neighbors = 2056
Ave neighs/atom = 257
Neighbor list builds = 0
Dangerous builds = 0
unfix 20
unfix 21
print "seeds:5043869"
seeds:5043869
