LAMMPS (10 Feb 2015)
# ---- initialize simulations
clear
units metal
dimension 3
boundary p p p
atom_style charge
atom_modify map array
# ---- create atoms
read_data /Users/eugeneragasa/pyflamestk_git/pypospack/tests/tests_integration/workflow/WorkflowLammpsThermalExpansion/param_5378/MgO_NaCl_unit.npt.T300/lammps.structure
  triclinic box = (0 0 0) to (4.2565 4.2565 4.2565) with tilt (0 0 0)
  1 by 1 by 1 MPI processor grid
  reading atoms ...
  8 atoms
# ---- define interatomic potential
include potential.mod
mass 1 24.305
mass 2 15.999

group Mg type 1
4 atoms in group Mg
group O type 2
4 atoms in group O

set group Mg charge 1.67557694923
  4 settings made for charge
set group O charge -1.67557694923
  4 settings made for charge

variable R_cut equal 10.0

pair_style buck/coul/long ${R_cut}
pair_style buck/coul/long 10
pair_coeff 1 1 0.0 0.5 0.0 ${R_cut}
pair_coeff 1 1 0.0 0.5 0.0 10
pair_coeff 1 2 1405.50211521 0.282257384366 0.0 ${R_cut}
pair_coeff 1 2 1405.50211521 0.282257384366 0.0 10
pair_coeff 2 2 19860.1058829 0.143671361936 6.84969713079 ${R_cut}
pair_coeff 2 2 19860.1058829 0.143671361936 6.84969713079 10

kspace_style pppm 1.0e-5

neighbor 1.0 bin
neigh_modify every 1 delay 0 check yes
# ---- define settings
compute eng all pe/atom
compute eatoms all reduce sum c_eng
# ---- run minimization
reset_timestep 0
fix 1 all box/relax iso 0.0 vmax 0.001
thermo 10
thermo_style custom step pe lx ly lz xy xz yz press pxx pyy pzz pxy pxz pyz c_eatoms
min_style cg
minimize 1e-25 1e-25 5000 10000
PPPM initialization ...
  G vector (1/distance) = 0.352969
  grid = 8 8 8
  stencil order = 5
  estimated absolute RMS force accuracy = 4.01483e-05
  estimated relative force accuracy = 2.78815e-06
  using double precision FFTs
  3d grid and FFT values/proc = 3375 512
Neighbor list info ...
  1 neighbor list requests
  update every 1 steps, delay 0 steps, check yes
  master list distance cutoff = 11
Memory usage per processor = 4.06549 Mbytes
Step PotEng Lx Ly Lz Xy Xz Yz Press Pxx Pyy Pzz Pxy Pxz Pyz eatoms 
       0   -115.02334       4.2565       4.2565       4.2565            0            0            0    14836.064    14836.064    14836.064    14836.064 5.7083842e-11 -5.8546636e-11 3.613515e-11   -115.02334 
       4   -115.02629     4.268627     4.268627     4.268627            0            0            0   -3.7663252   -3.7663252   -3.7663252   -3.7663252 5.5364648e-11 -5.1262271e-11 1.3911233e-11   -115.02629 
Loop time of 0.00742507 on 1 procs for 4 steps with 8 atoms

Minimization stats:
  Stopping criterion = linesearch alpha is zero
  Energy initial, next-to-last, final = 
        -115.023341276       -115.0262927       -115.0262927
  Force two-norm initial, final = 2.14234 0.00179672
  Force max component initial, final = 2.14234 0.000546963
  Final line search alpha, max atom move = 0.00390625 2.13657e-06
  Iterations, force evaluations = 4 21

Pair  time (%) = 0.00212789 (28.6581)
Kspce time (%) = 0.00119019 (16.0293)
Neigh time (%) = 0 (0)
Comm  time (%) = 0.000250816 (3.37797)
Outpt time (%) = 0 (0)
Other time (%) = 0.00385618 (51.9346)

Nlocal:    8 ave 8 max 8 min
Histogram: 1 0 0 0 0 0 0 0 0 0
Nghost:    2189 ave 2189 max 2189 min
Histogram: 1 0 0 0 0 0 0 0 0 0
Neighs:    2344 ave 2344 max 2344 min
Histogram: 1 0 0 0 0 0 0 0 0 0

Total # of neighbors = 2344
Ave neighs/atom = 293
Neighbor list builds = 0
Dangerous builds = 0
unfix 1
# ---- define output variables ----
variable natoms equal "count(all)"
variable tot_energy equal "c_eatoms"
variable length_x equal "lx"
variable length_y equal "ly"
variable length_z equal "lz"
variable tilt_xy equal "xy"
variable tilt_xz equal "xz"
variable tilt_yz equal "yz"
variable tot_press equal "press"
variable press_xx equal "pxx"
variable press_yy equal "pyy"
variable press_zz equal "pzz"
variable press_xy equal "pxy"
variable press_xz equal "pxz"
variable press_yz equal "pyz"

# ---- output ----
print "pypospack:output_section:begin"
pypospack:output_section:begin
print "tot_energy = ${tot_energy}"
tot_energy = -115.026292700229
print "num_atoms = ${natoms}"
num_atoms = 8
print "xx = ${length_x}"
xx = 4.26862697136346
print "yy = ${length_y}"
yy = 4.26862697136346
print "zz = ${length_z}"
zz = 4.26862697136346
print "xy = ${tilt_xy}"
xy = 0
print "xz = ${tilt_xz}"
xz = 0
print "yz = ${tilt_yz}"
yz = 0
print "tot_press = ${tot_press}"
tot_press = -3.7663252179344
print "pxx = ${press_xx}"
pxx = -3.76632521787482
print "pyy = ${press_yy}"
pyy = -3.76632521789834
print "pzz = ${press_zz}"
pzz = -3.76632521803003
print "pxy = ${press_xy}"
pxy = 5.53646482695888e-11
print "pxz = ${press_xz}"
pxz = -5.12622707696674e-11
print "pyz = ${press_yz}"
pyz = 1.39112332535826e-11
print "pypospack:output_section:done"
pypospack:output_section:done
print "pypospack:lammps_sim:done"
pypospack:lammps_sim:done
#------------------------------------------------------------------------------
# RUN THERMOSTAT
# running using an NPT Nose-Hoover style thermostat
#------------------------------------------------------------------------------
variable tempdamp equal 0.1
variable pressdamp equal 1.0
# set initial velocities
velocity all create 300 4584802 mom yes dist gaussian loop all
# fix for Nose-Hoover style thermostat
fix 20 all npt temp 300 300 0.1 aniso 0.0 0.0 1.0 drag 1.0 couple xyz
variable boxx equal lx
variable boxy equal ly
variable boxz equal lz
variable boxp equal press
variable boxt equal temp
# calculate averages every 10000 steps
reset_timestep 0
fix 21 all ave/time 10 10 100 v_boxx v_boxy v_boxz v_boxp v_boxt file lattice.out
thermo_style custom step temp pe ke etotal press lx ly lz press pxx pyy pzz pxy pxz pyz vol
thermo_modify flush yes
thermo 100
run 100000
PPPM initialization ...
  G vector (1/distance) = 0.352845
  grid = 8 8 8
  stencil order = 5
  estimated absolute RMS force accuracy = 4.03767e-05
  estimated relative force accuracy = 2.80401e-06
  using double precision FFTs
  3d grid and FFT values/proc = 3375 512
Memory usage per processor = 3.06549 Mbytes
Step Temp PotEng KinEng TotEng Press Lx Ly Lz Press Pxx Pyy Pzz Pxy Pxz Pyz Volume 
       0          300    -115.0263    0.2714463   -114.75485    3723.4507     4.268627     4.268627     4.268627    3723.4507    5260.5878    2960.0593     2949.705     2101.971    807.97872   -422.73345    77.779404 
     100    111.72236   -114.81892   0.10108874   -114.71783   -5679.8704    4.2796255    4.2796255    4.2796255   -5679.8704   -4830.2899   -13350.991      1141.67   -5752.7366   -467.81993    208.62935    78.382174 
     200    201.97296   -114.82746   0.18274938   -114.64471    1378.8479    4.2694308    4.2694308    4.2694308    1378.8479    1240.9109   -4534.4306    7430.0635   -8813.5385   -1617.1434    3594.6213    77.823353 
     300    288.39294   -114.84014   0.26094399    -114.5792   -2819.5797    4.2851546    4.2851546    4.2851546   -2819.5797    20.537429   -11120.594    2641.3177    578.61028    164.44453   -483.24935    78.686364 
     400    414.74604   -114.90606   0.37527093   -114.53079    7592.2659    4.2706878    4.2706878    4.2706878    7592.2659    11579.678     2127.792    9069.3274     228.5855   -528.41367   -1703.5564    77.892111 
     500    207.20859   -114.68692   0.18748669   -114.49943   -615.91009    4.2815485    4.2815485    4.2815485   -615.91009   -571.13714   -11994.744    10718.151   -10750.933    914.77421    1502.5344     78.48788 
     600    288.95327   -114.74481   0.26145099   -114.48336   -696.82489    4.2812868    4.2812868    4.2812868   -696.82489    1743.7911   -4635.8071    801.54135   -5115.2074   -2186.4573    3973.7982     78.47349 
     700    436.21506   -114.87208   0.39469655   -114.47739    11825.672    4.2719534    4.2719534    4.2719534    11825.672    17301.392     2736.454    15439.171    2699.7264    2936.0701    1348.9802    77.961378 
     800    331.43831   -114.78118   0.29989235   -114.48128   -6997.0314    4.2865683    4.2865683    4.2865683   -6997.0314   -8061.5185   -10309.012   -2620.5642   -6670.7411   -1076.2354   -1271.3636    78.764268 
     900    167.07474   -114.63431   0.15117274   -114.48314    2148.9049    4.2731735    4.2731735    4.2731735    2148.9049    393.48039   -4755.6966    10808.931   -10057.437   -807.01247    3477.6192    78.028201 
    1000    412.91935    -114.8553   0.37361811   -114.48168   -7102.1156    4.2819847    4.2819847    4.2819847   -7102.1156   -6950.8825   -9035.5529   -5319.9116    1173.3191   -5905.1529    552.34649    78.511875 
    1100    341.50182    -114.7902   0.30899802    -114.4812     5011.468    4.2785172    4.2785172    4.2785172     5011.468    5047.4728   -2699.3338    12686.265   -1025.5658    3157.4218    1427.3821    78.321292 
    1200    202.43864   -114.66701   0.18317074   -114.48384   -6522.2955    4.2778064    4.2778064    4.2778064   -6522.2955   -14470.758   -16341.668    11245.539   -14508.556   -819.30854    1248.5596    78.282261 
    1300    288.17526   -114.74433   0.26074703   -114.48358   -4125.6596    4.2796297    4.2796297    4.2796297   -4125.6596   -8232.7468   -10606.215    6461.9833   -2723.3093   -490.59023    3566.6605    78.382401 
    1400    374.73933   -114.82017   0.33907202    -114.4811   -10.756356     4.281571     4.281571     4.281571   -10.756356    3905.6721   -6588.9903    2651.0491     991.4922   -1107.4399   -459.38272     78.48912 
    1500      254.621   -114.71233   0.23038643   -114.48194    4093.3276    4.2740338    4.2740338    4.2740338    4093.3276   -3106.2092   -8590.5511    23976.743   -7795.0081   -996.22046   -1006.6219    78.075336 
    1600    221.33368   -114.68398   0.20026736   -114.48371   -8598.5607     4.283404     4.283404     4.283404   -8598.5607    -6476.959   -16730.532   -2588.1914   -7112.1778   -1670.0946    3342.0477    78.589968 
    1700    288.26657   -114.74338   0.26082965   -114.48255    3092.5109    4.2774269    4.2774269    4.2774269    3092.5109    5983.7014    1232.3494    2061.4819    3044.8091   -2481.5391    3113.2681    78.261434 
    1800    375.36586   -114.82083   0.33963892   -114.48119    1805.2283    4.2768207    4.2768207    4.2768207    1805.2283    5159.1326   -5880.6548    6137.2072   -3791.9921    2510.8793    288.28351    78.228164 
    1900    172.82343   -114.63982   0.15637427   -114.48345   -3094.8987    4.2823287    4.2823287    4.2823287   -3094.8987   -9751.2267   -8344.1506    8810.6812   -9785.5411   -204.71468    333.63471    78.530794 
    2000    262.23158   -114.71951   0.23727264   -114.48224   -963.77728    4.2770352    4.2770352    4.2770352   -963.77728   -1783.1622    -695.1595   -413.01013    426.84647    -2165.066    6845.1309    78.239936 
    2100    299.44672   -114.75226   0.27094568   -114.48132    5317.2937    4.2792487    4.2792487    4.2792487    5317.2937    6085.2533   -4452.8968    14319.524    732.44387   -3063.4638   -2887.9439    78.361473 
    2200    300.44775   -114.75379   0.27185143   -114.48194   -1494.6025    4.2781115    4.2781115    4.2781115   -1494.6025   -13026.621    731.80395    7811.0099   -6464.0363    1002.3312    635.29918    78.299016 
    2300    188.73129   -114.65357   0.17076803   -114.48281    -3499.731    4.2803339    4.2803339    4.2803339    -3499.731    -12030.77   -14249.393     15780.97   -7501.0369   -513.14109   -710.34805    78.421106 
    2400    305.14697    -114.7576   0.27610339    -114.4815    1868.8671    4.2777257    4.2777257    4.2777257    1868.8671    4413.6218     76.86084    1116.1186    4558.9921   -1778.3327    6744.3721    78.277833 
    2500     279.3444   -114.73418   0.25275669   -114.48143    486.34318     4.278927     4.278927     4.278927    486.34318    -5496.606   -5748.4118    12704.047   -6809.5611   -850.75994   -3080.2301    78.343801 
    2600     254.1202   -114.71212   0.22993329   -114.48218    -7195.635    4.2800114    4.2800114    4.2800114    -7195.635   -8553.8958   -14741.699    1708.6898   -8942.6088    2008.9924    785.78864    78.403381 
    2700    267.86213   -114.72484   0.24236729   -114.48247    -1579.476    4.2783283    4.2783283    4.2783283    -1579.476   -2008.7834   -3013.9061     284.2614    888.33038   -2304.3343     3036.948     78.31092 
    2800    277.62591    -114.7331   0.25120176    -114.4819    3329.2521    4.2789293    4.2789293    4.2789293    3329.2521    6915.8981    -916.7984    3988.6565    817.07447    -3476.347    2042.4098    78.343924 
    2900    279.18059   -114.73451   0.25260847    -114.4819   -2570.8579    4.2788704    4.2788704    4.2788704   -2570.8579   -6681.5658   -13719.417    12688.409   -9077.5713   -1471.1524   -1123.5684    78.340691 
    3000    272.30127   -114.72838   0.24638391     -114.482   -2107.7297    4.2800438    4.2800438    4.2800438   -2107.7297   -4192.6059   -1.8650822   -2128.7181   -5609.0914    1477.4672    59.133072    78.405158 
    3100    292.46872   -114.74595   0.26463184   -114.48132    4974.3657    4.2781632    4.2781632    4.2781632    4974.3657    7526.2635    -3497.796     10894.63    5030.3939    100.54442    5973.5452    78.301854 
    3200    302.92765   -114.75604    0.2740953   -114.48194   -1775.8788    4.2779665    4.2779665    4.2779665   -1775.8788    -8604.051    -5406.063    8682.4775   -7721.0328    -2291.889   -2302.0428    78.291056 
    3300    254.63695   -114.71304   0.23040086   -114.48264   -2079.9216    4.2809224    4.2809224    4.2809224   -2079.9216   -11226.654   -5298.4618    10285.351   -7344.8769   -1188.0047    1459.3418    78.453454 
    3400    332.30466   -114.78178   0.30067624   -114.48111    -485.1637    4.2785644    4.2785644    4.2785644    -485.1637    1657.8719   -7005.2835    3891.9205    442.73564   -2287.9033   -1984.6462    78.323884 
    3500     287.7525   -114.74195   0.26036451   -114.48158    906.07673    4.2764071    4.2764071    4.2764071    906.07673    2029.5977   -598.97125    1287.6038    940.79827   -908.39893      6687.19    78.205467 
    3600    254.47845   -114.71221   0.23025745   -114.48195   -5831.0753    4.2839999    4.2839999    4.2839999   -5831.0753   -9728.2606   -12040.998    4276.0327   -8841.9398   -437.48881   -3833.0414    78.622772 
    3700    352.23171   -114.79914   0.31870666   -114.48043    564.21475    4.2760665    4.2760665    4.2760665    564.21475    291.74729   -4526.5757    5927.4726   -4134.4569   -1710.8222    4803.2186    78.186787 
    3800    319.93181   -114.77029   0.28948103   -114.48081    3955.1979    4.2772004    4.2772004    4.2772004    3955.1979    9216.8867    1052.8352    1595.8719    1695.1962   -2129.8844    1613.5372    78.249001 
    3900    270.57042   -114.72683    0.2448178   -114.48201   -4122.9444    4.2838702    4.2838702    4.2838702   -4122.9444   -5496.9889   -9940.1164    3068.2722   -8108.6897   -276.30135     490.5013    78.615632 
    4000     329.8244    -114.7797   0.29843204   -114.48126    2840.6511    4.2746961    4.2746961    4.2746961    2840.6511    1969.0046   -7381.7328    13934.682   -5686.7261    1424.1149   -586.21925    78.111637 
    4100    338.52136   -114.78749   0.30630124   -114.48118    6644.9954    4.2792596    4.2792596    4.2792596    6644.9954    4934.3847    4416.7007    10583.901    2236.6915   -4402.5919    2828.9735     78.36207 
    4200    338.19372   -114.78841   0.30600478   -114.48241   -5917.0536    4.2815665    4.2815665    4.2815665   -5917.0536   -6761.5229   -12592.872    1603.2345   -3412.5774    437.72884    2670.7598    78.488871 
    4300    235.00698   -114.69621   0.21263925   -114.48357    153.34204    4.2757913    4.2757913    4.2757913    153.34204   -6227.9861   -4780.5302    11468.542   -11967.317   -2732.0768   -1879.5912    78.171689 
    4400    394.94315   -114.83827   0.35735286   -114.48092   -1024.0167     4.281397     4.281397     4.281397   -1024.0167   -6674.8623   -4892.0217     8494.834    86.577103    3524.1315    2177.7152    78.479547 
    4500    351.39377   -114.79949   0.31794847   -114.48154   -1845.5267    4.2781617    4.2781617    4.2781617   -1845.5267      2409.36   -6976.0258   -969.91439    2470.2772   -7674.8264    2041.4872    78.301774 
    4600    234.36749   -114.69568   0.21206063   -114.48362   -3798.3368    4.2788562    4.2788562    4.2788562   -3798.3368    -10263.91   -7465.0661    6333.9658   -12179.659    37.289883    2286.8593    78.339911 
    4700    358.60714   -114.80755   0.32447527   -114.48307     -2499.45    4.2817427    4.2817427    4.2817427     -2499.45   -3918.8795   -9031.5685    5452.0979   -6130.3992   -1537.9891   -2679.9063    78.498561 
    4800    401.81961   -114.84548   0.36357483   -114.48191    6566.5096    4.2735001    4.2735001    4.2735001    6566.5096    10517.352     3020.067    6162.1102    4313.8792    762.61729    3600.3144    78.046094 
    4900    286.06551   -114.74222   0.25883809   -114.48338   -3397.2032    4.2840112    4.2840112    4.2840112   -3397.2032   -5077.4254   -10071.764      4957.58   -3388.1649   -4027.7405     2227.338    78.623396 
    5000    258.29514   -114.71636   0.23371087   -114.48265    3702.2891    4.2781242    4.2781242    4.2781242    3702.2891     2921.481   -6040.3844    14225.771   -11838.277     1910.772     821.6152    78.299715 
    5100    426.50857   -114.86674   0.38591391   -114.48082    5658.3258    4.2743436    4.2743436    4.2743436    5658.3258    3886.8915    717.60591     12370.48   -2201.0164    550.50163   -3154.1904    78.092313 
    5200    352.36699   -114.80066   0.31882906   -114.48183   -3877.0597    4.2859839    4.2859839    4.2859839   -3877.0597   -6875.5526   -7268.8252    2513.1988    2555.7592   -4052.6771     1685.412    78.732057 
    5300    227.39858   -114.68858   0.20575501   -114.48283   -1181.4505    4.2756557    4.2756557    4.2756557   -1181.4505    -3223.106   -6711.9443    6390.6989    -11437.63   -2608.6397    936.98054    78.164253 
    5400    318.11479   -114.77014   0.28783695    -114.4823    886.42035    4.2768241    4.2768241    4.2768241    886.42035   -7500.1751    -6039.949    16199.385   -5560.1756   -591.91255    775.23811     78.22835 
    5500    444.27478    -114.8823   0.40198916   -114.48031   -7521.1192    4.2851831    4.2851831    4.2851831   -7521.1192   -7423.6803   -7543.0301   -7596.6471    2151.2849     3707.386   -114.26959    78.687935 
    5600    243.54232   -114.70284   0.22036221   -114.48247   -1302.2568    4.2744516    4.2744516    4.2744516   -1302.2568   -5933.1202   -6036.7128    8063.0627     -8695.84   -7401.9404    3645.9312    78.098233 
    5700    244.80094   -114.70568   0.22150103   -114.48418   -1495.4279    4.2799134    4.2799134    4.2799134   -1495.4279   -7055.9388   -10290.045    12859.701   -10072.765   -670.94999   -1353.0205    78.397991 
    5800     400.5264    -114.8447   0.36240471    -114.4823    1257.4307    4.2809557    4.2809557    4.2809557    1257.4307    3703.0085   -3891.3901    3960.6737    2019.9547   -503.93519   -3134.9293    78.455284 
    5900    348.19165   -114.79774   0.31505113   -114.48269    3184.2063    4.2759875    4.2759875    4.2759875    3184.2063   -2224.9975   -4292.9466    16070.563   -488.48859    1385.5134     735.3349    78.182452 
    6000     170.9727   -114.63872   0.15469969   -114.48402    1218.8571    4.2813144    4.2813144    4.2813144    1218.8571    3422.7148   -8270.9931    8504.8495   -12788.347   -3940.3343    1290.0262    78.475006 
    6100    378.25639   -114.82448   0.34225433   -114.48222   -2083.5197    4.2781422    4.2781422    4.2781422   -2083.5197   -7215.8272    -5128.577    6093.8452   -2046.9077    54.139252     1921.461    78.300699 
    6200    354.65772   -114.80205   0.32090176   -114.48115    4792.6241    4.2786647    4.2786647    4.2786647    4792.6241    5069.1449   -2628.4837    11937.211    2807.0364    1360.2074    -2841.417    78.329393 
    6300    232.39826   -114.69441   0.21027883   -114.48413   -4110.2865    4.2812514    4.2812514    4.2812514   -4110.2865   -8450.2935   -4987.9326    1107.3666   -8052.6082   -946.10844    1973.0048    78.471542 
    6400    212.74188   -114.67679   0.19249333    -114.4843   -1044.4603    4.2749857    4.2749857    4.2749857   -1044.4603   -5850.5081   -4394.0222    7111.1494   -11169.567   -5285.7613    287.10128    78.127513 
    6500    392.43632   -114.83654   0.35508463   -114.48145   -4754.0505     4.283147     4.283147     4.283147   -4754.0505   -10893.214   -6998.8721    3629.9345    2715.5252     1338.579   -477.97125    78.575825 
    6600    315.84444   -114.76766   0.28578269   -114.48188    632.47148    4.2778589    4.2778589    4.2778589    632.47148   -536.85136   -2256.7041    4690.9699   -1100.2465   -1464.3213   -78.769549    78.285147 
    6700    151.52539   -114.62122   0.13710335   -114.48411    186.42308    4.2769191    4.2769191    4.2769191    186.42308   -6141.3116   -9130.4207    15831.002   -13065.964    1137.5334    1827.7423    78.233562 
    6800    308.35357   -114.76218   0.27900479   -114.48318    -3299.419    4.2827205    4.2827205    4.2827205    -3299.419    -3532.039   -10904.224    4538.0056   -1119.5954   -1911.2091    2456.6817    78.552354 
    6900     405.4365    -114.8477   0.36684747   -114.48085    2564.5554    4.2768461    4.2768461    4.2768461    2564.5554    369.25768    -1641.932    8966.3405    1906.8507    1548.1325   -2519.5622    78.229557 
    7000    188.51116   -114.65399   0.17056886   -114.48342    1276.8671      4.27826      4.27826      4.27826    1276.8671   -1448.4017   -9093.1443    14372.147   -8679.3171   -2692.0384    189.57073    78.307171 
    7100     220.0941   -114.68269   0.19914577   -114.48355     -5668.43    4.2815436    4.2815436    4.2815436     -5668.43   -4783.1718   -10733.921   -1488.1976   -8879.6563    49.986754    1580.5653    78.487612 
    7200    362.89163   -114.80949   0.32835197   -114.48114    1526.8965    4.2776635    4.2776635    4.2776635    1526.8965    -4058.702   -574.79845    9214.1899     4572.274    -961.5191    278.92287    78.274422 
    7300    277.47189   -114.73436   0.25106239    -114.4833    2472.9722    4.2786221    4.2786221    4.2786221    2472.9722    498.09673   -918.75297    7839.5728   -1836.2848    3781.3915    1121.8017    78.327056 
    7400    221.62646   -114.68568   0.20053228   -114.48515   -5509.6492     4.279547     4.279547     4.279547   -5509.6492   -14437.035   -765.76166   -1326.1515   -11326.589   -3848.4591    2028.6088     78.37786 
    7500    240.53812   -114.70166   0.21764395   -114.48402    2565.0373    4.2791136    4.2791136    4.2791136    2565.0373   -7376.9177   -2318.3095    17390.339   -1281.5896   -311.96033    2100.0728    78.354048 
    7600    417.87732   -114.85902   0.37810418   -114.48092    1239.4081    4.2781491    4.2781491    4.2781491    1239.4081   -4946.8499    4071.5836    4593.4906     1274.326   -65.782805   -3032.7955    78.301077 
    7700    197.72898   -114.66219   0.17890933   -114.48328    2784.1888    4.2791128    4.2791128    4.2791128    2784.1888    -3022.779   -2946.7901    14322.135   -8833.1748    3213.2358    520.99113    78.354005 
    7800    223.59176   -114.68591   0.20231052    -114.4836    -2870.215    4.2797162    4.2797162    4.2797162    -2870.215   -8222.0439   -9350.7701    8962.1689   -6301.0242    -4206.748     902.8651    78.387158 
    7900    389.02099   -114.83334   0.35199437   -114.48134   -1516.6733    4.2786107    4.2786107    4.2786107   -1516.6733    -792.5096    -1259.742   -2497.7682    3205.4759   -431.58241    4820.9815    78.326427 
    8000    288.11223   -114.74223      0.26069   -114.48154     872.7555    4.2796496    4.2796496    4.2796496     872.7555    200.85247   -4756.9952    7174.4093   -2979.6176    1379.0656    -1303.654    78.383495 
    8100    228.52506   -114.68978   0.20677427     -114.483   -3889.0744    4.2783602    4.2783602    4.2783602   -3889.0744   -8609.4334   -14238.476    11180.686   -11937.258    701.03137    1335.4182    78.312673 
    8200    312.84737   -114.76627   0.28307087    -114.4832   -2781.9991    4.2804966    4.2804966    4.2804966   -2781.9991    2160.9828   -3525.4789   -6981.5011    647.05114    -3855.346    1551.6356    78.430048 
    8300    350.75897   -114.79967   0.31737409   -114.48229    2047.1093    4.2787935    4.2787935    4.2787935    2047.1093   -2755.7712   -2283.4259    11180.525   -71.022833   -287.87217   -328.56604    78.336469 
    8400    303.05943   -114.75729   0.27421454   -114.48307    1119.3566    4.2767551    4.2767551    4.2767551    1119.3566   -402.94154   -1251.4421    5012.4534   -8693.4625    2131.4305    38.149758    78.224563 
    8500    232.28191   -114.69325   0.21017355   -114.48308   -446.41457     4.283007     4.283007     4.283007   -446.41457   -12600.437   -1108.2362    12369.429   -3806.7791   -2226.4338    1830.1718    78.568118 
    8600     401.5626   -114.84411   0.36334228   -114.48077    888.14685    4.2762386    4.2762386    4.2762386    888.14685    176.61013    2710.7812   -222.95078    2819.7958   -2100.9901    4410.4252    78.196223 
    8700    289.20811   -114.74342   0.26168157   -114.48174    4936.6618    4.2785548    4.2785548    4.2785548    4936.6618   -1398.0873     8273.554    7934.5186    -4510.641   -2655.1357   -2923.6257    78.323359 
    8800    306.50118   -114.75968   0.27732871   -114.48235    -6126.796    4.2826475    4.2826475    4.2826475    -6126.796    -11457.32   -10432.054    3508.9863   -10818.362    2611.1649    316.29491    78.548334 
    8900    290.39691   -114.74477   0.26275723   -114.48201    2710.2885    4.2750517    4.2750517    4.2750517    2710.2885   -80.051014    7522.8034    688.11316    2779.5194   -8403.5989   -400.52473    78.131129 
    9000    400.92468   -114.84376   0.36276508   -114.48099    -5283.633    4.2821945    4.2821945    4.2821945    -5283.633   -4516.7367    -3726.002   -7608.1604   -1703.4144    34.267287    4091.0453    78.523414 
    9100    243.14014   -114.70284   0.21999831   -114.48285    2445.7849    4.2782214    4.2782214    4.2782214    2445.7849   -4299.0816   -9183.4605    20819.897   -8622.5629   -1078.6416   -1226.7534    78.305048 
    9200    352.13449   -114.80171   0.31861869   -114.48309   -3307.5945    4.2778705    4.2778705    4.2778705   -3307.5945    711.19418   -5500.0495   -5133.9282   -4855.2384    1016.7173    2476.3535    78.285783 
    9300    319.45385   -114.77186   0.28904856   -114.48281    1026.3229     4.282334     4.282334     4.282334    1026.3229   -114.09586   -5943.9686    9137.0331    4389.9306   -6936.1432   -718.27391    78.531087 
    9400    331.77861   -114.78273   0.30020026   -114.48253    2325.8258    4.2747704    4.2747704    4.2747704    2325.8258   -3974.6159   -3789.7105    14741.804   -7526.3432    404.50987    2277.8782    78.115707 
    9500    279.62712   -114.73557   0.25301249   -114.48255   -1734.2672    4.2817151    4.2817151    4.2817151   -1734.2672   -8025.7704   -9215.0519    12038.021   -10350.085   -1240.6018   -2937.0754    78.497041 
    9600    393.04557   -114.83624   0.35563589   -114.48061   -4391.8478    4.2808921    4.2808921    4.2808921   -4391.8478   -4915.5359    -580.1943   -7679.8133    2310.3595   -1579.3979    1217.2972    78.451789 
    9700    265.52618   -114.72222   0.24025366   -114.48196    5437.8383    4.2737364    4.2737364    4.2737364    5437.8383   -402.82517    3251.1348    13465.205   -3506.6352   -5143.3772    1644.4535     78.05904 
    9800     350.7579   -114.80011   0.31737312   -114.48273   -10442.123    4.2850542    4.2850542    4.2850542   -10442.123   -18879.476    -8502.748   -3944.1436   -7335.7508    407.53648    2462.4863    78.680836 
    9900    246.16468    -114.7053   0.22273498   -114.48257     6865.761    4.2765526    4.2765526    4.2765526     6865.761    2349.6422    5365.0121    12882.629   -2115.6471   -4307.4626    147.12061     78.21345 
   10000    408.45933   -114.85074   0.36958258   -114.48116   -1252.4985    4.2764293    4.2764293    4.2764293   -1252.4985   -5270.8977    7154.4667   -5641.0646    2796.6537   -3584.2983   -566.86152    78.206687 
   10100    238.66115    -114.6986   0.21594562   -114.48265   -1588.6758    4.2840238    4.2840238    4.2840238   -1588.6758   -9348.4097   -11965.632    16548.014    -9691.451   -235.73236   -81.796069    78.624087 
   10200    315.17962   -114.76715   0.28518115   -114.48197    2368.5756    4.2756074    4.2756074    4.2756074    2368.5756    3178.7455   -831.68805    4758.6693   -6511.5316   -367.58643   -398.10623    78.161605 
   10300    361.68693   -114.80876   0.32726194    -114.4815    2578.7348     4.279354     4.279354     4.279354    2578.7348   -2107.8213   -2945.9029    12789.929    3020.4655   -1667.2934    3622.5404    78.367254 
   10400    240.83575   -114.70082   0.21791325    -114.4829   -1564.1546    4.2807754    4.2807754    4.2807754   -1564.1546    1993.7524    -9867.228    3181.0119   -3776.3062   -1723.4984   -30.837033    78.445375 
   10500    265.64011   -114.72298   0.24035676   -114.48262   -3812.2239    4.2766867    4.2766867    4.2766867   -3812.2239   -11507.119   -13639.167    13709.614   -11544.378    404.38001    1798.1478     78.22081 
   10600    371.59886   -114.81754   0.33623046   -114.48131   -3483.2991    4.2821528    4.2821528    4.2821528   -3483.2991    1805.5699   -5324.0269   -6931.4404   -704.71194   -1219.1523   -976.36324    78.521121 
   10700    260.99242    -114.7195   0.23615142   -114.48335    998.71668    4.2763046    4.2763046    4.2763046    998.71668   -3919.9006   -5211.9496        12128   -77.181436    -4166.637    3403.1085    78.199846 
   10800    250.27609    -114.7106   0.22645506   -114.48415   -9010.3374    4.2809455    4.2809455    4.2809455   -9010.3374   -15320.747   -14851.685      3141.42   -13291.442    532.13359   -208.77719    78.454722 
   10900    261.52634   -114.71894   0.23663453   -114.48231    4218.1231    4.2802937    4.2802937    4.2802937    4218.1231   -836.57297   -827.50441    14318.447   -4809.6378   -511.63162    1404.0421    78.418892 
   11000    403.94596   -114.84583   0.36549879   -114.48033    2655.1751    4.2751128    4.2751128    4.2751128    2655.1751    4111.8186    1759.4355    2094.2713    3621.5067   -466.98618    2383.3752    78.134479 
   11100    210.93557   -114.67358   0.19085894   -114.48272   -587.95863    4.2820235    4.2820235    4.2820235   -587.95863   -10678.619   -7065.8203    15980.564   -6828.6494   -1296.5975    928.40326    78.514008 
   11200    231.85759   -114.69242   0.20978962   -114.48263     1483.947    4.2799344    4.2799344    4.2799344     1483.947     8010.456   -9108.2975    5549.6826   -8733.0911    425.29984   -213.50696    78.399146 
   11300    385.37393   -114.82922   0.34869443   -114.48053    8753.6907    4.2736539    4.2736539    4.2736539    8753.6907    83.638381     6423.105    19754.329    1408.5753   -1818.0575   -1427.8751    78.054518 
   11400    291.17193   -114.74539   0.26345848   -114.48193   -4076.9374    4.2845728    4.2845728    4.2845728   -4076.9374    3725.7636   -10666.434   -5290.1412   -625.96699   -628.80987     2791.606     78.65432 
   11500    192.35487   -114.65695   0.17404673    -114.4829   -3323.8545    4.2773559    4.2773559    4.2773559   -3323.8545   -10784.054   -9614.7295     10427.22   -13331.069    551.06616     2821.636    78.257536 
   11600    325.15954   -114.77623   0.29421119   -114.48202    1733.7769    4.2769923    4.2769923    4.2769923    1733.7769    4655.0956   -4082.0271    4628.2621   -5370.0138    809.57701    84.050792     78.23758 
   11700    342.04584   -114.79171   0.30949027   -114.48222    -2947.564    4.2824435    4.2824435    4.2824435    -2947.564   -9736.4983   -8076.3849    8970.1913    3926.5248    -3792.391    1391.3221    78.537114 
   11800    234.10577   -114.69645   0.21182382   -114.48462   -5787.6524    4.2768554    4.2768554    4.2768554   -5787.6524   -12030.459   -12757.379    7424.8809   -11231.963   -752.33335   -227.99702    78.230065 
   11900    237.99641   -114.69978   0.21534415   -114.48444   -1872.9245    4.2802393    4.2802393    4.2802393   -1872.9245   -8130.4112   -13285.823    15797.461    -10277.45   -206.15149    828.44919    78.415905 
   12000    396.62684   -114.84045    0.3588763   -114.48158    2246.4608    4.2782685    4.2782685    4.2782685    2246.4608    4702.1024    -673.1795    2710.4595    2881.2272    1387.9202   -989.32615    78.307635 
   12100    303.19366   -114.75678     0.274336   -114.48244   -1602.0515    4.2793587    4.2793587    4.2793587   -1602.0515    -10258.73   -9457.0326    14909.608    -4341.625   -1709.7946    3560.5759    78.367517 
   12200    176.49574   -114.64398   0.15969705   -114.48428     256.2304    4.2798856    4.2798856    4.2798856     256.2304    7794.0477    -11117.74    4092.3839   -11152.126   -390.69686   -1481.0583    78.396466 
   12300    358.96099   -114.80744   0.32479545   -114.48265    3290.7758    4.2763713    4.2763713    4.2763713    3290.7758   -2810.4038    1487.8485    11194.883   -1761.1695    1237.1201    746.98055    78.203505 
   12400    410.08803   -114.85222   0.37105627   -114.48116   -1176.9741      4.28184      4.28184      4.28184   -1176.9741    7839.6691   -3816.5424    -7554.049    3151.1745   -946.14362   -332.51553    78.503915 
   12500    201.48596   -114.66572   0.18230873   -114.48342    1034.1424    4.2779273    4.2779273    4.2779273    1034.1424   -3488.6937   -4952.7939    11543.915   -10068.458   -3133.0055    1522.0059    78.288904 
   12600    264.24456   -114.72248   0.23909403   -114.48338   -1074.7709    4.2780162    4.2780162    4.2780162   -1074.7709   -1634.5977   -812.73577   -776.97929   -7213.7395   -2992.6308   -575.34296    78.293781 
   12700    394.03818   -114.83825   0.35653402   -114.48172    836.25505    4.2810004    4.2810004    4.2810004    836.25505   -3597.0573   -3918.7384    10024.561    1794.8621    1778.2692   -1772.0474    78.457741 
   12800    338.47129   -114.78974   0.30625594   -114.48348   -862.81156    4.2781772    4.2781772    4.2781772   -862.81156   -4171.3934   -1550.8098    3133.7685   -4212.2501   -504.47844     3007.322    78.302623 
   12900    204.97567    -114.6699   0.18546629   -114.48444   -1095.5674    4.2786778    4.2786778    4.2786778   -1095.5674   -5121.8071   -11896.121    13731.226   -12285.219   -1209.7979    346.31253    78.330113 
   13000    343.09598   -114.79292   0.31044045   -114.48248   -1811.2565    4.2810014    4.2810014    4.2810014   -1811.2565    5454.0428   -7777.2974   -3110.5148    2023.0015   -488.26015     975.4062    78.457799 
   13100    412.90655   -114.85451   0.37360653    -114.4809      3304.39    4.2776175    4.2776175    4.2776175      3304.39   -1387.3917   -895.75283    12196.314   -353.69454   -113.25919   -5110.2353    78.271895 
   13200    210.11495    -114.6736   0.19011642   -114.48348   -1529.0414    4.2814745    4.2814745    4.2814745   -1529.0414    8208.4883   -13730.237    934.62449   -12050.046   -1026.0227    2976.7501    78.483809 
   13300    262.09229    -114.7209   0.23714661   -114.48375   -924.70883    4.2758305    4.2758305    4.2758305   -924.70883   -6071.2784   -2970.3209    6267.4728    -6962.116   -3296.2072   -968.97741    78.173839 
   13400    434.48074   -114.87446   0.39312731   -114.48134   -3589.5956    4.2832458    4.2832458    4.2832458   -3589.5956    5663.4767   -4076.6158   -12355.648    5472.3059    2021.4051    1182.1644    78.581259 
   13500     300.0005   -114.75365   0.27144676    -114.4822    2328.6727    4.2771507    4.2771507    4.2771507    2328.6727   -1403.0575   -6956.6442     15345.72   -7522.4358    1674.9535   -762.82649     78.24627 
   13600    234.37309   -114.69531    0.2120657   -114.48325   -5025.5654    4.2778425    4.2778425    4.2778425   -5025.5654   -6676.0979   -6022.3715   -2378.2268   -13223.833   -4340.8922    2142.9002    78.284245 
   13700    315.26444   -114.76791   0.28525789   -114.48266   -1575.4984    4.2838383    4.2838383    4.2838383   -1575.4984   -4144.2609   -5470.8034     4888.569    1195.0487    -2708.856   -1510.6083    78.613874 
   13800    404.56932   -114.84734   0.36606283   -114.48128    5937.0358    4.2741177    4.2741177    4.2741177    5937.0358    7842.1416    4445.8308    5523.1349     634.6121    2347.1987    -2741.042    78.079933 
   13900    236.72131   -114.69777   0.21419042   -114.48358   -825.79675    4.2804881    4.2804881    4.2804881   -825.79675   -3187.1682   -7699.0144    8408.7923   -10263.779     1870.434    2052.5974    78.429579 
   14000    250.26255   -114.70936   0.22644281   -114.48291   -3394.0185    4.2826457    4.2826457    4.2826457   -3394.0185    6828.1699   -11201.093   -5809.1321   -4871.5995   -5227.8509    660.27589    78.548236 
   14100    429.93143   -114.86943   0.38901099   -114.48042     3868.192    4.2743281    4.2743281    4.2743281     3868.192    6568.3279    440.14011    4596.1081    3066.5878    863.55999    3078.5376    78.091466 
   14200    260.95114   -114.71861   0.23611408    -114.4825    1518.8616    4.2828163    4.2828163    4.2828163    1518.8616    11644.422   -7775.6428    687.80592   -6125.5541    1490.7885   -3788.4618    78.557625 
   14300    219.10816   -114.68332   0.19825366   -114.48507   -6094.9725    4.2782898    4.2782898    4.2782898   -6094.9725   -8884.1399   -10873.207    1472.4297   -10052.297   -1029.9024    4184.3628    78.308803 
   14400    334.90556   -114.78739   0.30302959   -114.48436   -690.48189    4.2769538    4.2769538    4.2769538   -690.48189    5614.8174    587.85124   -8274.1143    1075.5925   -8180.2218   -768.35278    78.235468 
   14500    346.55963    -114.7957   0.31357443   -114.48213      -3149.2    4.2839169    4.2839169    4.2839169      -3149.2   -7738.4344   -8312.2033    6603.0378   -1109.2208    1828.8151    1884.0128    78.618201 
   14600    251.66169   -114.70963   0.22770879   -114.48192   -1815.2142    4.2745166    4.2745166    4.2745166   -1815.2142   -3188.5811   -8329.3753    6072.3138    -13147.67   -985.91863   -555.49068    78.101799 
   14700    229.10024   -114.68987   0.20729471   -114.48257   -1180.4159    4.2827171    4.2827171    4.2827171   -1180.4159    420.74042   -7169.1635    3207.1755    -2856.337   -849.32054    2252.9694    78.552166 
   14800     357.2169   -114.80412   0.32321736   -114.48091    3176.0244    4.2784225    4.2784225    4.2784225    3176.0244    6269.5917   -3594.8398    6853.3214    4786.5409   -4365.8317     279.1703    78.316093 
   14900    326.81923   -114.77719   0.29571291   -114.48148    2072.4796    4.2755264    4.2755264    4.2755264    2072.4796   -1296.2848    -887.2791    8401.0028   -8256.5446    2095.0732   -958.75128    78.157161 
   15000    167.94213   -114.63499   0.15195757   -114.48303   -809.05263    4.2861229    4.2861229    4.2861229   -809.05263    11260.934   -15759.958    2071.8661   -8316.8131   -793.33744    2447.2427    78.739721 
   15100    363.04268   -114.80908   0.32848864   -114.48059    2804.8026    4.2730902    4.2730902    4.2730902    2804.8026    4858.7948    1485.4261     2070.187    1495.0578   -4258.4593    1500.1691    78.023635 
   15200    281.19684   -114.73586   0.25443281   -114.48142    1022.8094    4.2809634    4.2809634    4.2809634    1022.8094    8706.4338   -8510.3783    2872.3726    712.53906   -1595.2758    939.42083    78.455709 
   15300    270.41436   -114.72869   0.24467659   -114.48401   -6905.9478     4.282131     4.282131     4.282131   -6905.9478   -9835.6281   -11474.245    592.02987   -9709.4838    227.73168   -454.17755    78.519919 
   15400    249.27064   -114.70986   0.22554531   -114.48431    2280.7881    4.2730555    4.2730555    4.2730555    2280.7881    5555.5151   -113.27188    1400.1212   -3650.0683   -2604.4296    4957.3104    78.021733 
   15500     319.2605   -114.77118   0.28887361    -114.4823   -5273.0184    4.2849535    4.2849535    4.2849535   -5273.0184   -6630.4914   -9769.5314    580.96771    2170.5238    -4113.592    50.389951    78.675289 
   15600    260.40904   -114.71704   0.23562358   -114.48142    1321.0345    4.2778124    4.2778124    4.2778124    1321.0345   -5499.3051   -2741.0964    12203.505   -8599.8808    656.79221    239.12025    78.282591 
   15700    289.09529   -114.74318    0.2615795    -114.4816    446.06709    4.2765343    4.2765343    4.2765343    446.06709    4295.5513     -9667.22      6709.87   -7074.7619   -400.81866   -790.25508    78.212451 
   15800    245.56636   -114.70403   0.22219361   -114.48183    1071.4271    4.2835642    4.2835642    4.2835642    1071.4271    1825.7359    -3911.433    5299.9783    3703.2081   -4796.4761    2346.1685    78.598788 
   15900    387.99316   -114.83178   0.35106437   -114.48072   -516.89647    4.2749548    4.2749548    4.2749548   -516.89647   -4141.7867    2.6413215     2588.456   -1850.9242   -1250.8557    665.60234     78.12582 
   16000    173.27528   -114.63995   0.15678311   -114.48316     5784.226    4.2813692    4.2813692    4.2813692     5784.226    14270.246   -10219.059    13301.492    -8265.221   -952.42693     1081.088    78.478021 
   16100    337.33272   -114.78712   0.30522574   -114.48189   -6117.4064    4.2791306    4.2791306    4.2791306   -6117.4064   -11298.727   -1446.4249   -5607.0676   -2877.5799   -687.76471    926.37219    78.354985 
   16200    255.10781   -114.71233   0.23082691   -114.48151   -222.55639    4.2777523    4.2777523    4.2777523   -222.55639    678.03455   -2114.5646    768.86085    2809.1725   -8257.9506     1857.195    78.279294 
   16300    324.50361   -114.77562   0.29361769     -114.482   -4192.1169     4.281622     4.281622     4.281622   -4192.1169   -2156.4281   -7945.2042   -2474.7182   -8573.9347    1357.1616   -1575.6893    78.491924 
   16400    257.82403   -114.71649    0.2332846   -114.48321   -157.56929    4.2766179    4.2766179    4.2766179   -157.56929    -2299.701   -4282.5737    6109.5668   -4192.3238   -2965.1075    2504.0869    78.217035 
   16500    281.76708   -114.73754   0.25494877   -114.48259   -4093.7807    4.2811077    4.2811077    4.2811077   -4093.7807   -5235.8583   -1251.4639   -5794.0199    590.33239   -3065.0502    2285.5044    78.463642 
   16600    294.05297   -114.74772   0.26606531   -114.48166    3442.1127    4.2794432    4.2794432    4.2794432    3442.1127    2948.7016   -3571.7196    10949.356   -197.90193   -2883.6714    543.35824    78.372158 
   16700     341.2897   -114.79009   0.30880609   -114.48128    2311.4696    4.2766536    4.2766536    4.2766536    2311.4696    4177.1021    404.58276    2352.7239   -10145.555    1143.5788   -56.712609    78.218992 
   16800    210.36607   -114.67286   0.19034364   -114.48252    3196.6033    4.2816623    4.2816623    4.2816623    3196.6033    8700.0987   -9126.3374    10016.049   -110.82705    -3332.754    639.68258    78.494137 
   16900    387.54025   -114.83292   0.35065457   -114.48227    -2687.388    4.2776899    4.2776899    4.2776899    -2687.388   -4292.1685    3134.8653   -6904.8609   -335.96129   -3764.8019    753.44328    78.275866 
   17000    241.00181    -114.7011   0.21806351   -114.48304    5406.1958    4.2789902    4.2789902    4.2789902    5406.1958    10084.489   -4856.7849    10990.883   -5526.0891   -2085.4242   -2375.2112    78.347274 
   17100    351.22745   -114.79974   0.31779798   -114.48194   -8125.6819    4.2802576    4.2802576    4.2802576   -8125.6819   -11348.037    -11611.16   -1417.8491   -6494.1627    -1972.167    2113.0289    78.416912 
   17200    260.52302   -114.71798    0.2357267   -114.48225   -2317.5254    4.2786866    4.2786866    4.2786866   -2317.5254   -2642.0443    2967.6893   -7278.2211    1858.5852   -9067.5953    1676.0759    78.330596 
   17300    338.30257   -114.78723   0.30610328   -114.48112   -4849.5904    4.2798311    4.2798311    4.2798311   -4849.5904    -1785.504   -9933.0731   -2830.1941   -3441.3261   -111.21587    1789.0865    78.393473 
   17400    298.18289   -114.75128   0.26980214   -114.48148   -2350.2392    4.2786387    4.2786387    4.2786387   -2350.2392   -5183.8306   -10667.211    8800.3236   -12055.912    1155.1892   -3045.5402    78.327963 
   17500    335.10135   -114.78468   0.30320674   -114.48147   -3151.7052    4.2802514    4.2802514    4.2802514   -3151.7052   -1201.4518    -2147.857    -6105.807    538.70005   -5547.7992    2216.8232    78.416569 
   17600    277.65158   -114.73317   0.25122498   -114.48194     4370.172    4.2788471    4.2788471    4.2788471     4370.172    10708.453   -4037.4349    6439.4981   -2004.6609    -7773.921    299.43936    78.339413 
   17700    354.64804   -114.80218     0.320893   -114.48128    1846.3906    4.2769645    4.2769645    4.2769645    1846.3906    4092.7856   -5319.6159    6766.0022   -5230.1961    2414.8325   -307.61548    78.236056 
   17800    295.18467   -114.74891   0.26708929   -114.48182    2627.2489    4.2821626    4.2821626    4.2821626    2627.2489    7522.2088   -5889.2135    6248.7514   -3231.8742    733.72844   -98.544291    78.521659 
   17900    383.25968   -114.82875   0.34678141   -114.48197   -62.838063    4.2771558    4.2771558    4.2771558   -62.838063    2640.3337   -1260.4065   -1568.4414    2024.8134   -6200.6791    2645.5985     78.24655 
   18000    251.37641   -114.71089   0.22745066   -114.48344    4407.9259    4.2779359    4.2779359    4.2779359    4407.9259    12449.237   -504.99381    1279.5341   -4745.9575   -6705.8668    1219.6514    78.289374 
   18100    328.62989   -114.77987   0.29735123   -114.48252   -4973.3395     4.283038     4.283038     4.283038   -4973.3395   -4336.0681   -9968.2567   -615.69378   -8044.5005     4501.194   -1392.6092    78.569822 
   18200    379.22266   -114.82466   0.34312863   -114.48153   -478.14916    4.2750789    4.2750789    4.2750789   -478.14916    204.98085   -248.45311   -1390.9752    529.89148   -5164.1567    474.12329    78.132621 
   18300    278.26987   -114.73462   0.25178443   -114.48283   -1855.5197    4.2803804    4.2803804    4.2803804   -1855.5197   -416.52145    1394.6908   -6544.7284     497.9091   -8481.5364    649.98948    78.423659 
   18400    292.82511   -114.74777   0.26495431   -114.48281   -4680.8567    4.2816497    4.2816497    4.2816497   -4680.8567   -2152.8655   -15546.206    3656.5013   -10041.093   -2084.8802    821.64136    78.493446 
   18500    358.29133   -114.80573   0.32418953   -114.48154    3391.4085    4.2753577    4.2753577    4.2753577    3391.4085    7071.7476   -2466.4015    5568.8794   -3111.4328    2266.4502   -624.89094    78.147909 
   18600    316.94254   -114.76848   0.28677627   -114.48171     684.7114    4.2822622    4.2822622    4.2822622     684.7114    5975.0201   -4000.1141    79.228231    2678.1758   -4378.2228    2550.4911    78.527135 
   18700    305.92322    -114.7591   0.27680576   -114.48229   -1465.2261    4.2776878    4.2776878    4.2776878   -1465.2261   -4239.3159   -8125.5154    7969.1531   -4814.0055   -4504.5685   -102.00885    78.275752 
   18800    291.49581   -114.74653   0.26375153   -114.48277    3064.5397    4.2786145    4.2786145    4.2786145    3064.5397    14648.225   -10796.544    5341.9383   -7935.5847    906.29538    314.53083    78.326635 
   18900    362.55682    -114.8094   0.32804903   -114.48135    2815.1564    4.2803607    4.2803607    4.2803607    2815.1564    3541.4298   -1275.1502    6179.1896    386.75885   -3657.9963    -2376.145    78.422573 
   19000    276.17704     -114.732   0.24989079   -114.48211   -1441.7932    4.2780962    4.2780962    4.2780962   -1441.7932    6389.2658   -6022.1096    -4692.536    1378.2317   -4443.7977    4461.7391    78.298172 
   19100    249.99877   -114.70894   0.22620415   -114.48274   -2564.2686    4.2795096    4.2795096    4.2795096   -2564.2686   -3929.6083   -5224.8833    1461.6859   -8375.4604   -3928.4611     174.7765    78.375804 
   19200    371.77668   -114.81768   0.33639135   -114.48129   -3021.2635    4.2809046    4.2809046    4.2809046   -3021.2635   -5359.4983   -3472.4605   -231.83158     -2023.19    2534.7167    1823.4299    78.452473 
   19300    295.33974   -114.74931    0.2672296   -114.48208    2751.6704    4.2748724    4.2748724    4.2748724    2751.6704    3636.4913    4235.0218    383.49806    825.01337   -8456.2239   -646.20783    78.121302 
   19400    211.65526   -114.67526   0.19151013   -114.48375   -4425.3812    4.2840193    4.2840193    4.2840193   -4425.3812   -8049.0118   -2876.5845   -2350.5473   -4784.7777   -2127.1451    1918.9546    78.623841 
   19500    314.28875   -114.76618   0.28437506   -114.48181    1739.1909    4.2772625    4.2772625    4.2772625    1739.1909    2956.4373   -7951.3755    10212.511   -8561.9124   -1499.2159   -1307.3592     78.25241 
   19600    338.81392   -114.78753   0.30656596   -114.48096     4538.765    4.2769388    4.2769388    4.2769388     4538.765    3871.5401    3669.3917     6075.363    3689.9712   -1635.6009    309.06567    78.234643 
   19700    285.40916   -114.74051   0.25824421   -114.48226   -4100.7902    4.2834757    4.2834757    4.2834757   -4100.7902   -6479.1624   -7496.2456    1673.0373   -2647.0283   -3562.2919    1778.5142    78.593913 
   19800    205.28158   -114.66903   0.18574309   -114.48329     1414.779    4.2760235    4.2760235    4.2760235     1414.779    13342.566   -10387.706    1289.4772   -9687.1088   -69.545352    781.26103    78.184423 
   19900    291.45403   -114.74675   0.26371373   -114.48304    3080.2097    4.2773882    4.2773882    4.2773882    3080.2097    497.63768   -6525.4791     15268.47   -5072.5262    532.02498    1552.8337    78.259309 
   20000    399.26324     -114.843   0.36126177   -114.48174    -12814.98     4.285891     4.285891     4.285891    -12814.98    -10167.51   -11810.427   -16467.004    4944.4016   -4563.5849   -1556.6072    78.726939 
   20100    116.92974    -114.5889   0.10580048    -114.4831    3424.0204    4.2724253    4.2724253    4.2724253    3424.0204    6793.4129   -5791.5224    9270.1707   -9259.0289   -5230.8827    3848.2734    77.987219 
   20200    319.43749   -114.77118   0.28903376   -114.48214   -11364.936    4.2829384    4.2829384    4.2829384   -11364.936   -13983.532   -16312.346    -3798.931   -9661.5032    974.47128   -1192.1544    78.564341 
   20300    308.59685    -114.7608   0.27922491   -114.48158    842.51977    4.2801766    4.2801766    4.2801766    842.51977   -1315.1916   -473.32378    4316.0747    1505.3323   -1466.8713    2662.9523    78.412457 
   20400    284.92821   -114.74042   0.25780903   -114.48261   -60.430544    4.2751954    4.2751954    4.2751954   -60.430544     1703.026   -2075.6601    191.34242   -2083.0647   -2851.2655   -250.17533    78.139011 
   20500     185.6847   -114.65154   0.16801142   -114.48353    -1077.243    4.2833514    4.2833514    4.2833514    -1077.243   -1776.4342   -8592.3078    7137.0129   -10563.909   -2255.4454    1472.3292    78.587072 
   20600    329.80367   -114.77962   0.29841329   -114.48121    3761.8722    4.2771546    4.2771546    4.2771546    3761.8722    7685.4854    -1455.765    5055.8962   -2229.7528    2729.6444   -604.44159    78.246489 
   20700    338.37203   -114.78748   0.30616612   -114.48131    6571.1949    4.2777255    4.2777255    4.2777255    6571.1949    8059.4867    664.37449    10989.724    3899.8413   -5256.3788    489.37306    78.277822 
   20800    229.46346    -114.6911   0.20762336   -114.48348    -2379.927    4.2822695    4.2822695    4.2822695    -2379.927    1849.3347   -6003.6594   -2985.4563    -8463.345   -1506.8657    804.32316    78.527538 
   20900    208.77072   -114.67325   0.18890014   -114.48435    2397.0158    4.2744466    4.2744466    4.2744466    2397.0158   -1489.4303   -4404.6347    13085.112   -8989.9461   -2467.5781    78.118158    78.097959 
   21000    434.18947   -114.87512   0.39286376   -114.48226   -5483.1291    4.2840997    4.2840997    4.2840997   -5483.1291    -2230.485   -6814.6181   -7404.2842    2187.0879    4112.4808    749.46015    78.628267 
   21100    250.12317   -114.70982    0.2263167    -114.4835     1288.798    4.2764372    4.2764372    4.2764372     1288.798    3957.0818    -574.7107    484.02299   -1137.1051   -8452.7495    1804.4066     78.20712 
   21200    205.11261   -114.66913    0.1855902   -114.48354    -7733.132    4.2782941    4.2782941    4.2782941    -7733.132   -10623.929   -14696.907    2121.4408   -13171.688   -2715.4422    3183.1933    78.309044 
   21300    364.02402   -114.81079   0.32937658   -114.48141   -4604.3794    4.2842239    4.2842239    4.2842239   -4604.3794   -2776.1732   -11643.179    606.21349   -929.87434   -432.08859   -2258.7859    78.635108 
   21400     349.6368   -114.79694   0.31635873   -114.48058    7876.0227    4.2736454    4.2736454    4.2736454    7876.0227    11956.771    5839.1865    5832.1108    2380.2309   -2110.8095   -504.02493     78.05405 
   21500    256.28196    -114.7146   0.23188931   -114.48271   -4163.1197    4.2811054    4.2811054    4.2811054   -4163.1197    593.42031    -14602.77    1519.9909   -6332.8583   -2383.9851    1533.5937    78.463515 
   21600    251.10222   -114.70986   0.22720256   -114.48266   -1095.5895    4.2824523    4.2824523    4.2824523   -1095.5895   -4116.5447   -7982.8445    8812.6208    -9610.639   -3321.3276    2028.8854    78.537595 
   21700    437.30867   -114.87603   0.39568607   -114.48034    8625.1425    4.2725781    4.2725781    4.2725781    8625.1425    13246.708      4426.09    8202.6296    3758.8091    3244.4419   -223.60014    77.995585 
   21800    313.14914   -114.76572   0.28334392   -114.48237     -1615.22    4.2841477    4.2841477    4.2841477     -1615.22   -4328.1966   -8692.5647    8175.1013   -2563.2178   -3329.8381   -601.34798    78.630911 
   21900    195.28759   -114.66069   0.17670032   -114.48399   -2898.3865    4.2779705    4.2779705    4.2779705   -2898.3865    -8052.338   -4113.0785    3470.2571   -10395.883   -323.55461    1254.1861    78.291271 
   22000    371.64789    -114.8187   0.33627482   -114.48243    509.52381    4.2772957    4.2772957    4.2772957    509.52381   -1560.9366    -3627.584     6717.092   -192.81077   -4667.6847    640.32612    78.254231 
   22100    427.85688   -114.86789   0.38713389   -114.48075   -1789.4397    4.2827203    4.2827203    4.2827203   -1789.4397    2314.8094   -4072.5171   -3610.6112    1160.5046    1171.2864   -508.64807     78.55234 
   22200        199.1   -114.66345   0.18014986    -114.4833   -831.47568    4.2762906    4.2762906    4.2762906   -831.47568   -6819.6108   -5646.6052     9971.789   -11525.188   -3628.0026    1692.3476    78.199075 
   22300     315.3895    -114.7689   0.28537105   -114.48353   -6120.3907    4.2812407    4.2812407    4.2812407   -6120.3907    1210.5883   -16243.645   -3328.1159   -6840.1866    1289.7384    773.98162    78.470956 
   22400    390.72654     -114.835   0.35353758   -114.48146    6842.2837    4.2787897    4.2787897    4.2787897    6842.2837    10019.839    55.985898    10451.026    4913.1859   -1898.6208    838.26035    78.336257 
   22500    368.80032   -114.81591   0.33369828   -114.48221    304.07925    4.2773119    4.2773119    4.2773119    304.07925    5685.1472   -2825.5829   -1947.3265   -1969.1158   -2083.8821   -1302.7729     78.25512 
   22600    221.94436   -114.68514   0.20081992   -114.48432   -3671.6039    4.2826311    4.2826311    4.2826311   -3671.6039   -4141.3179   -17336.159    10462.665   -13289.829   -1240.9977    788.67613    78.547435 
   22700    326.31909   -114.77799   0.29526037   -114.48273    6937.0665    4.2756407    4.2756407    4.2756407    6937.0665    5912.4599    5838.2164    9060.5231   -215.59887    290.54339    357.02425    78.163428 
   22800    452.57663   -114.89033   0.40950085   -114.48083   -644.70888    4.2807033    4.2807033    4.2807033   -644.70888    295.01709   -7641.8358    5412.6921    2067.1233    266.51408     263.0977    78.441409 
   22900    212.71333    -114.6761   0.19246749   -114.48363   -1335.7346    4.2798728    4.2798728    4.2798728   -1335.7346   -5881.7603   -3835.6067    5710.1631   -9796.2589   -381.45682    33.157893    78.395763 
   23000    283.20978   -114.73947   0.25625416   -114.48322   -4756.8083    4.2775985    4.2775985    4.2775985   -4756.8083   -7734.8512   -6123.5329   -412.04073   -9087.7707   -1484.7799     796.7344     78.27085 
   23100    399.52398   -114.84278   0.36149769   -114.48128    991.41882    4.2808831    4.2808831    4.2808831    991.41882    5047.0367   -4783.5392    2710.7589    3561.1322    962.95174    2172.2978    78.451293 
   23200    306.11992   -114.75924   0.27698373   -114.48226      1611.88    4.2785889    4.2785889    4.2785889      1611.88    3994.5004   -3409.1916    4250.3312    -3763.165   -2395.9282   -1383.8825    78.325231 
   23300    248.45415   -114.70853   0.22480654   -114.48372   -5395.0925    4.2785703    4.2785703    4.2785703   -5395.0925   -2032.8314   -12712.527   -1439.9191   -11189.332    89.634322    1568.6237    78.324207 
   23400    288.93416   -114.74452    0.2614337   -114.48309    838.91482    4.2811457    4.2811457    4.2811457    838.91482    7914.8817   -7760.1077    2361.9704    228.67022   -1685.6755   -2081.4927    78.465731 
   23500    414.63115   -114.85648   0.37516698   -114.48132    2945.4096    4.2767072    4.2767072    4.2767072    2945.4096    10027.688   -698.89464   -492.56509    241.93359     3653.839    2005.5241    78.221936 
   23600    251.53419   -114.71167   0.22759342   -114.48408   -4411.9327     4.281705     4.281705     4.281705   -4411.9327    -3266.822    -7763.797   -2205.1791   -9185.3469   -3300.3122   -910.04548    78.496489 
   23700    188.54775   -114.65507   0.17060197   -114.48447    1077.2131    4.2774383    4.2774383    4.2774383    1077.2131   -4648.3104   -3398.1631    11278.113   -5529.7275    705.41134    3348.1313    78.262059 
   23800    400.72638   -114.84451   0.36258565   -114.48193   -1835.2949     4.280621     4.280621     4.280621   -1835.2949    -730.2094    1356.7308    -6132.406    5412.8248   -2089.0456   -2168.1335    78.436882 
   23900    308.37324   -114.76093   0.27902259    -114.4819     3404.448    4.2786215    4.2786215    4.2786215     3404.448    5354.1382      1889.54    2969.6658   -4936.7246    1760.0392   -506.73927    78.327022 
   24000    213.71504   -114.67643   0.19337386   -114.48306   -3343.1305     4.279265     4.279265     4.279265   -3343.1305   -11464.921    806.53634    628.99332   -12361.963   -2613.0681    539.53169    78.362366 
   24100    271.93777   -114.72847   0.24605501   -114.48241   -7.8009779    4.2802033    4.2802033    4.2802033   -7.8009779    4923.7748   -1700.9172   -3246.2605   -189.41262     -25.1336     3404.501    78.413927 
   24200    356.85323   -114.80336    0.3228883   -114.48047    3911.9963    4.2781937    4.2781937    4.2781937    3911.9963    10825.438    769.30647    141.24416    2497.6771    1537.8079    784.70997    78.303526 
   24300      252.936   -114.71073    0.2288618   -114.48187   -2247.3257    4.2799152    4.2799152    4.2799152   -2247.3257   -2965.7388   -6323.2026    2546.9645   -7581.3027   -406.27881    -3349.966    78.398094 
   24400    252.48973   -114.71077   0.22845801   -114.48231   -7075.7338     4.280213     4.280213     4.280213   -7075.7338   -3913.7361   -10260.586   -7052.8797   -6989.1923   -2703.4138    3643.9139     78.41446 
   24500    269.81142   -114.72644   0.24413104   -114.48231    4049.0478    4.2778984    4.2778984    4.2778984    4049.0478    10122.753    842.88033    1181.5096     2915.464   -2466.8923   -1665.0725    78.287312 
   24600    369.50305   -114.81618   0.33433413   -114.48185   -6565.7338    4.2816654    4.2816654    4.2816654   -6565.7338    -8347.492   -7502.0656    -3847.644    -3668.258    3643.6694    2438.9081    78.494312 
   24700    159.49457    -114.6282   0.14431404   -114.48388   -74.396414    4.2778242    4.2778242    4.2778242   -74.396414   -2284.2419   -3308.8852    5369.9379    -9135.436   -2436.9206   -2885.6323     78.28324 
   24800    314.13581   -114.76691   0.28423668   -114.48268   -2905.5413    4.2795891    4.2795891    4.2795891   -2905.5413   -4286.9563   -4000.1579   -429.50967   -625.77794   -2971.5472    4033.0965    78.380175 
   24900    315.49046   -114.76729   0.28546239   -114.48183    3369.9446    4.2800458    4.2800458    4.2800458    3369.9446      12374.4    3696.7766   -5961.3428     1764.366    640.70307   -1731.9777    78.405268 
   25000    270.09876   -114.72656   0.24439103   -114.48217     1219.221    4.2777101    4.2777101    4.2777101     1219.221   -5665.9739    3167.7932    6155.8438    -6236.882    685.35722    87.929527    78.276975 
   25100    233.98482   -114.69422   0.21171438   -114.48251   -410.12595    4.2811256    4.2811256    4.2811256   -410.12595     1875.565    -432.6412   -2673.3017   -6608.4614   -1713.7658     1500.113    78.464626 
   25200    288.49725   -114.74216   0.26103837   -114.48113    4191.5562    4.2778755    4.2778755    4.2778755    4191.5562    12537.855    482.61627   -445.80272    3155.8908   -4081.1859    1643.9101    78.286058 
   25300     331.3995    -114.7811   0.29985723   -114.48124    -2888.284    4.2793776    4.2793776    4.2793776    -2888.284   -1336.1888   -1586.5894   -5742.0737   -4221.9026    3996.9884   -322.72285    78.368553 
   25400    225.26657   -114.68633   0.20382593    -114.4825   -4517.1161     4.281622     4.281622     4.281622   -4517.1161   -6508.3502   -8842.2188    1799.2207   -6929.0797   -7.2008756   -2727.3981    78.491925 
   25500     256.9546   -114.71463   0.23249792   -114.48213   -577.46393    4.2763471    4.2763471    4.2763471   -577.46393    7757.2612    -2079.172    -7410.481   -3456.6519    -5053.786    5622.4474    78.202177 
   25600    327.26279   -114.77765   0.29611425   -114.48154   -5678.6387    4.2825515    4.2825515    4.2825515   -5678.6387   -8692.1863   -10159.697    1815.9673    2485.9287   -73.146883   -594.79808    78.543056 
   25700    261.48591   -114.71915   0.23659795   -114.48255   -1000.9801    4.2784699    4.2784699    4.2784699   -1000.9801    3265.1204   -7121.7314    853.67078   -8696.6449    2213.7189     997.4392    78.318693 
   25800    266.01557   -114.72338   0.24069648   -114.48268    1925.5854    4.2775173    4.2775173    4.2775173    1925.5854    1619.8012   -6001.3216    10158.277    -4271.275   -1743.2165   -3082.6554    78.266393 
   25900    305.03741   -114.75774   0.27600425   -114.48173   -79.667697    4.2820694    4.2820694    4.2820694   -79.667697    12162.032   -3918.6207   -8482.4143    346.28783   -5091.2133    2636.1562    78.516531 
   26000    280.84548   -114.73565   0.25411489   -114.48153    3652.5788    4.2774713    4.2774713    4.2774713    3652.5788    2842.5707    6286.0252    1829.1405   -3077.9943    3015.6262    654.96001    78.263871 
   26100    283.46023   -114.73855   0.25648078   -114.48207     1737.862    4.2790508    4.2790508    4.2790508     1737.862    3695.8042   -2473.7617    3991.5435   -5201.0813    1165.8333    571.98452    78.350599 
   26200    300.80321   -114.75367   0.27217306   -114.48149   -2678.3924    4.2817545    4.2817545    4.2817545   -2678.3924    4841.4519   -3154.8192   -9721.8099   -487.15995   -2555.5058    1790.6478    78.499211 
   26300    292.61214   -114.74614   0.26476161   -114.48138    941.42887    4.2766571    4.2766571    4.2766571    941.42887    5296.5142    -561.0564   -1911.1712   -78.555896   -4184.4728    1645.7386    78.219183 
   26400    331.97667   -114.78205   0.30037946   -114.48167   -8447.0631    4.2830955    4.2830955    4.2830955   -8447.0631   -12812.737   -3816.9844   -8711.4677   -6487.5166    5378.7207   -540.58541     78.57299 
   26500    220.20461   -114.68237   0.19924576   -114.48312    2936.7685    4.2757967    4.2757967    4.2757967    2936.7685    11209.368   -3322.0942     923.0321   -5143.1159   -3792.9346    910.72344    78.171988 
   26600    354.79787   -114.80309   0.32102857   -114.48206   -8462.8848    4.2825025    4.2825025    4.2825025   -8462.8848   -8711.8213   -6102.1735    -10574.66    1831.4848   -3332.7339    3646.3397    78.540359 
   26700     279.4831   -114.73499   0.25288218    -114.4821    2519.3967    4.2788438    4.2788438    4.2788438    2519.3967    10712.879   -7283.8144    4129.1254   -4846.0659    528.29274   -43.365545    78.339231 
   26800    311.81968   -114.76412     0.282141   -114.48198    1890.4198    4.2769495    4.2769495    4.2769495    1890.4198    6806.6305   -4699.6431     3564.272   -5953.3008    2556.8187    824.36136    78.235231 
   26900    315.60794   -114.76736    0.2855687    -114.4818   -37.737272    4.2823194    4.2823194    4.2823194   -37.737272    9902.7283   -8844.8141    -1171.126   -185.84407   -4899.4311    1837.4717    78.530284 
   27000    316.30013   -114.76726     0.286195   -114.48107    3006.0062    4.2789371    4.2789371    4.2789371    3006.0062    8043.8814    4359.0809   -3384.9437    1209.3513   -1937.7398    847.13573    78.344356 
   27100    296.31273   -114.74955   0.26810999   -114.48144      6635.78     4.275742     4.275742     4.275742      6635.78    9940.8321    4962.8658    5003.6419   -7319.8059      3172.02   -1360.4572    78.168983 
   27200    348.08554   -114.79644   0.31495511   -114.48148   -6500.5297    4.2841529    4.2841529    4.2841529   -6500.5297   -7964.3839   -6746.6083   -4790.5971   -1526.8643   -32.791559    2267.6142    78.631199 
   27300    282.84243   -114.73789   0.25592177   -114.48197      2229.45    4.2768582    4.2768582    4.2768582      2229.45    9696.5499    2338.9418   -5347.1416    2667.5965   -8955.1131    3139.7949    78.230221 
   27400    373.19242   -114.81955   0.33767235   -114.48188   -4219.9898     4.279538     4.279538     4.279538   -4219.9898   -7701.1171    211.62728   -5170.4794   -1519.2825   -43.998122     562.1772    78.377364 
   27500    286.71058   -114.74264   0.25942176   -114.48322   -3630.3063    4.2810588    4.2810588    4.2810588   -3630.3063   -256.98099   -3646.2834   -6987.6545    -10314.84    3154.7268   -3382.6526    78.460952 
   27600    312.53727   -114.76564   0.28279029   -114.48285   -1438.9389    4.2781725    4.2781725    4.2781725   -1438.9389    3754.7979    1112.2123   -9183.8268    647.17028   -3874.5532    5060.0051    78.302363 
   27700    348.37423   -114.79711   0.31521632    -114.4819    89.453769    4.2797975    4.2797975    4.2797975    89.453769    8132.6106    -1635.208   -6229.0413    1544.8343   -3950.1783    3892.9729    78.391624 
   27800    323.10141   -114.77445   0.29234895    -114.4821    514.41773    4.2787081    4.2787081    4.2787081    514.41773    4536.0755   -6229.4126    3236.5903   -4927.0848    2042.1138   -139.05104    78.331774 
   27900    312.34702   -114.76516   0.28261815   -114.48254    1520.1692    4.2795762    4.2795762    4.2795762    1520.1692    11106.186   -2899.9109   -3645.7675     -2485.24    104.55665   -2295.4847    78.379463 
   28000    359.47235   -114.80704   0.32525813   -114.48178     637.8307    4.2806691    4.2806691    4.2806691     637.8307   -893.50888    -2145.343     4952.344    500.99264   -4692.8271    3377.8302     78.43953 
   28100    291.60792   -114.74588   0.26385298   -114.48202    7083.4649    4.2756927    4.2756927    4.2756927    7083.4649    16686.941    7029.9016    -2466.448    2075.6656    290.86144    3095.9403    78.166279 
   28200    362.89906   -114.81043    0.3283587   -114.48208    -5683.053     4.283641     4.283641     4.283641    -5683.053   -14314.848   -8172.5632    5438.2524   -9481.0701    2815.8618   -1293.3434    78.603015 
   28300    300.80457   -114.75403    0.2721743   -114.48185    3174.6775    4.2770772    4.2770772    4.2770772    3174.6775    6235.9282    3064.0226    224.08173    3138.7536   -3267.1667    1092.9488    78.242236 
   28400    332.02188   -114.78231   0.30042038   -114.48189   -1883.0136    4.2782067    4.2782067    4.2782067   -1883.0136   -2818.5054    2415.9444   -5246.4796    -591.1927   -6278.2169    68.892869    78.304241 
   28500    342.21866   -114.79142   0.30964664   -114.48177   -4884.0484    4.2825143    4.2825143    4.2825143   -4884.0484   -3911.9418   -5633.9372   -5106.2661   -959.56326    2295.0123    2942.8116    78.541009 
   28600    306.15181    -114.7587   0.27701259   -114.48169    1678.6359    4.2779067    4.2779067    4.2779067    1678.6359    648.36559    8815.9417   -4428.3995   -4613.9444   -581.22467   -801.70189    78.287768 
   28700    309.57667   -114.76167   0.28011148   -114.48156    600.71804    4.2781739    4.2781739    4.2781739    600.71804    11216.566   -1615.1898   -7799.2222    2143.1585   -4761.9327    4031.2201    78.302442 
   28800    338.14184   -114.78761   0.30595785   -114.48165   -3499.7807    4.2811527    4.2811527    4.2811527   -3499.7807   -4811.6541   -4726.2627   -961.42539   -1441.4616   -410.45819    -6.519514    78.466116 
   28900    288.69221    -114.7435   0.26121478   -114.48229    4401.5443    4.2788396    4.2788396    4.2788396    4401.5443    17103.868   -4601.5523    702.31699   -5091.6571    5229.7814   -282.27682    78.338999 
   29000    377.33909   -114.82345   0.34142434   -114.48203    58.554824    4.2779891    4.2779891    4.2779891    58.554824   -1828.6447   -1868.2229    3872.5321    209.14981   -3577.5742    1357.9147    78.292297 
   29100    237.26977    -114.6978   0.21468667   -114.48312     1134.218    4.2809982    4.2809982    4.2809982     1134.218    7799.1818    -4002.572   -393.95562    2448.2837   -3546.4765    2859.3819    78.457623 
   29200    335.08922   -114.78514   0.30319577   -114.48194   -881.45544     4.279186     4.279186     4.279186   -881.45544    1339.9476   -1526.0544   -2458.2595   -1231.0382    754.45694    941.93225    78.358029 
   29300    290.99763   -114.74502   0.26330077   -114.48172    2667.7489     4.279151     4.279151     4.279151    2667.7489   -1621.2352   -3375.9542    13000.436   -6355.0887    2650.7138    226.60252    78.356103 
   29400    290.13867   -114.74412   0.26252357    -114.4816   -3625.1119    4.2792195    4.2792195    4.2792195   -3625.1119    1313.7416   -3401.5625   -8787.5149    2300.1744   -5468.1849    3679.7486    78.359869 
   29500    304.84855   -114.75744   0.27583337   -114.48161    -6046.848    4.2807225    4.2807225    4.2807225    -6046.848   -1263.5534   -10615.095   -6261.8958   -2452.4385    -1094.427    639.91513    78.442462 
   29600     287.4267   -114.74133   0.26006972   -114.48126    1957.9039    4.2791399    4.2791399    4.2791399    1957.9039   -465.89548    2866.9922     3472.615   -2455.5081    2822.5982   -2461.0335    78.355496 
   29700    287.96586   -114.74191   0.26055756   -114.48135    87.031402    4.2784605    4.2784605    4.2784605    87.031402    5125.1591   -247.83069   -4616.2342    -738.6666   -2845.2744    897.24169    78.318178 
   29800    264.73165   -114.72136   0.23953476   -114.48182   -2952.7183    4.2805314    4.2805314    4.2805314   -2952.7183    1936.5542    -6344.286   -4450.4231    2419.3759   -6686.5091    5083.2599    78.431958 
   29900    273.04912   -114.72876   0.24706058    -114.4817    2753.9404    4.2795646    4.2795646    4.2795646    2753.9404    6799.3413   -4523.6701      5986.15   -3241.2229    3002.5973    1002.0266    78.378828 
   30000    329.97703   -114.77961   0.29857015   -114.48104    2545.8849    4.2775821    4.2775821    4.2775821    2545.8849    11481.544   -4683.3963    839.50747   -2839.3197    4647.6975   -2562.0569    78.269952 
   30100    254.73429   -114.71226   0.23048894   -114.48177   -1850.2309    4.2803947    4.2803947    4.2803947   -1850.2309   -2752.5215   -9399.7868    6601.6158     94.18618   -5607.5406    2042.8191    78.424444 
   30200    231.76937   -114.69173   0.20970979   -114.48202    -911.6867    4.2807787    4.2807787    4.2807787    -911.6867    13561.569   -11645.202    -4651.427    808.30109   -2580.0682    3900.8125    78.445555 
   30300    291.62948   -114.74499   0.26387248   -114.48112    2888.1727    4.2767077    4.2767077    4.2767077    2888.1727   -1456.8301    1610.9904    8510.3579   -5427.2207    2654.2853   -940.60514     78.22196 
   30400     268.4392   -114.72478   0.24288943   -114.48189   -4720.3351    4.2809964    4.2809964    4.2809964   -4720.3351    1382.5642   -14507.023   -1036.5466    794.14542    38.024658    524.91972     78.45752 
   30500    269.63569   -114.72651   0.24397204   -114.48254   -8830.4142    4.2806779    4.2806779    4.2806779   -8830.4142   -1849.6712   -13692.464   -10949.108    654.16351   -6608.5902    1852.2321    78.440013 
   30600    260.93108   -114.71867   0.23609592   -114.48258    435.28525    4.2767382    4.2767382    4.2767382    435.28525    9993.3641   -8296.2287   -391.27961   -3927.8717    414.45125     3193.417    78.223636 
   30700    289.12703   -114.74361   0.26160821     -114.482   -1418.1736    4.2815248    4.2815248    4.2815248   -1418.1736   -4917.1263   -4394.4978    5057.1033   -3282.9003     4819.919   -2151.7837    78.486579 
   30800    255.62816   -114.71341   0.23129773   -114.48211   -932.59983    4.2794217    4.2794217    4.2794217   -932.59983    14298.221   -9557.3792   -7538.6416    467.26532   -4256.8369    3860.0314    78.370976 
   30900    253.08128   -114.71119   0.22899326    -114.4822    3579.1572    4.2775353    4.2775353    4.2775353    3579.1572    8616.9657   -4454.0347    6574.5407    194.36915   -4625.5127    1348.8985    78.267383 
   31000    273.51351   -114.72885   0.24748077   -114.48137    3971.8766     4.281486     4.281486     4.281486    3971.8766    16951.428   -7395.8888    2360.0905   -4089.9452    11.479181   -660.53267    78.484445 
   31100    385.90393   -114.82994   0.34917399   -114.48077   -2178.7926    4.2772404    4.2772404    4.2772404   -2178.7926   -1703.1654   -10448.487    5615.2751    1280.5385    3395.4414   -344.64058    78.251196 
   31200    164.79929   -114.63241   0.14911386    -114.4833    5448.2696    4.2801646    4.2801646    4.2801646    5448.2696    19267.229   -11326.559    8404.1385    712.50525   -4279.3549    2966.1606      78.4118 
   31300    358.72814   -114.80652   0.32458476   -114.48193   -7242.4659    4.2806773    4.2806773    4.2806773   -7242.4659   -4821.5274   -7812.6581   -9093.2123   -2528.6941   -204.54968    2838.9534    78.439978 
   31400    246.36797   -114.70499   0.22291892   -114.48207    3782.5808    4.2762243    4.2762243    4.2762243    3782.5808    4847.0075   -3700.5709    10201.306    -5665.669    893.91608   -2608.4685    78.195438 
   31500    339.69244   -114.78946   0.30736085    -114.4821   -9261.2754    4.2835738    4.2835738    4.2835738   -9261.2754   -3711.0798   -12770.236   -11302.511    2690.1545   -805.74606    2869.9636    78.599317 
   31600    250.59501   -114.70954   0.22674363   -114.48279   -653.47829    4.2767794    4.2767794    4.2767794   -653.47829    12514.959   -10792.956   -3682.4379     447.6643   -3883.0834   -189.86005    78.225895 
   31700    350.72942    -114.7989   0.31734735   -114.48155    -2767.138    4.2795801    4.2795801    4.2795801    -2767.138   -981.07544   -7087.7917   -232.54697   -5856.3008    34.895372   -27.425075    78.379678 
   31800    310.41308   -114.76228   0.28086828   -114.48141    2130.0538    4.2821921    4.2821921    4.2821921    2130.0538    16335.583   -11854.265    1908.8437    955.98228    2293.2329    232.44825    78.523279 
   31900    329.64726   -114.78005   0.29827177   -114.48178     873.3338     4.276084     4.276084     4.276084     873.3338    8825.2884   -1433.4291   -4771.8579    2474.1672   -3165.4127    3915.2559    78.187743 
   32000    246.96591   -114.70667   0.22345995   -114.48321    6099.7667     4.280255     4.280255     4.280255    6099.7667    16325.614   -5262.9056    7236.5922   -627.16824   -222.74135    75.651612    78.416766 
   32100    419.08075   -114.86065   0.37919307   -114.48145   -2211.5379    4.2809705    4.2809705    4.2809705   -2211.5379   -242.62998   -4390.5886   -2001.3951   -2901.1601   -1699.6447   -1891.6897      78.4561 
   32200    268.97544   -114.72587   0.24337463   -114.48249    5760.8537    4.2753904    4.2753904    4.2753904    5760.8537    9614.4638   -7512.2262    15180.324     5342.747    212.84485    1011.4951    78.149704 
   32300    316.40099   -114.76838   0.28628627    -114.4821   -6496.9249    4.2837974    4.2837974    4.2837974   -6496.9249   -3811.7968   -9735.8572   -5943.1207    674.74171   -4309.3517    1529.4066    78.611623 
   32400    360.13027   -114.80684   0.32585344   -114.48098   -1822.7251    4.2773795    4.2773795    4.2773795   -1822.7251    602.04821   -3956.4281   -2113.7954   -1998.6133    2356.6764    578.86029     78.25883 
   32500     321.7036    -114.7724   0.29108418   -114.48132    934.29181    4.2777023    4.2777023    4.2777023    934.29181    3496.9349   -5363.4566    4669.3972    2093.0424    379.28772   -920.56602    78.276549 
   32600     315.8732   -114.76788   0.28580871   -114.48207   -6064.8696    4.2840727    4.2840727    4.2840727   -6064.8696    2899.0506   -8507.1465   -12586.513    3872.8598   -3705.2591     2419.004    78.626782 
   32700    312.02825    -114.7641   0.28232972   -114.48177     3626.767    4.2744398    4.2744398    4.2744398     3626.767     13288.77   -3314.5817    906.11228    -3876.551   -1500.9007   -2780.1722    78.097589 
   32800    352.31523   -114.80051   0.31878222   -114.48173    1274.8243    4.2812351    4.2812351    4.2812351    1274.8243     14184.97   -10251.227   -109.26965   -324.13346    538.35331    400.66822    78.470649 
   32900    306.78178      -114.76    0.2775826   -114.48242    349.83178    4.2815987    4.2815987    4.2815987    349.83178    12202.995   -9228.6156   -1924.8838    5133.2182    1825.7382    1400.3365     78.49064 
   33000    314.29514   -114.76633   0.28438084   -114.48195    3477.3248    4.2747567    4.2747567    4.2747567    3477.3248    11578.933    214.04024   -1360.9983    2147.9093   -5157.1957    1469.5588    78.114959 
   33100    308.13515   -114.76003   0.27880716   -114.48122    832.12164    4.2831932    4.2831932    4.2831932    832.12164    13180.158   -10337.811   -345.98171   -3234.2238    1050.0752   -2814.4296    78.578368 
   33200    355.47152    -114.8026    0.3216381   -114.48097   -3350.1659    4.2783979    4.2783979    4.2783979   -3350.1659   -5597.5756   -8494.2788    4041.3568    4338.5112   -184.46736   -651.31966     78.31474 
   33300    216.55586   -114.67882   0.19594429   -114.48288    3835.3598     4.277196     4.277196     4.277196    3835.3598    8311.0547   -9781.4456     12976.47    8359.5939   -870.76016    1739.8028    78.248756 
   33400    374.66117    -114.8203    0.3390013    -114.4813   -9203.8097    4.2836453    4.2836453    4.2836453   -9203.8097   -3216.3716   -14421.986   -9973.0709   -3136.3501   -3720.4502    1213.8426     78.60325 
   33500     285.3561   -114.74015    0.2581962   -114.48195    1150.5499      4.27486      4.27486      4.27486    1150.5499    8084.0983   -8866.2486    4233.7999    1149.5019    183.33028   -384.06049    78.120624 
   33600    282.11382   -114.73837   0.25526251   -114.48311   -2749.5595    4.2826079    4.2826079    4.2826079   -2749.5595    2898.7931   -8778.7129   -2368.7586    4601.6396    2186.5538   -911.79492    78.546156 
   33700     290.1975   -114.74499    0.2625768   -114.48241    364.87809    4.2790808    4.2790808    4.2790808    364.87809    17207.924    -9029.399   -7083.8906    3433.0504   -3426.0028    1696.0823    78.352247 
   33800    305.46403   -114.75744   0.27639028   -114.48105    1732.7197    4.2760699    4.2760699    4.2760699    1732.7197    9778.5942    -4808.202    227.76684   -3047.9441   -1000.1018   -2723.1597    78.186972 
   33900    259.81242   -114.71675   0.23508373   -114.48167   -106.70167    4.2848186    4.2848186    4.2848186   -106.70167    17199.873   -17447.744   -72.234608    5191.0572   -1373.0554    1093.0001    78.667857 
   34000    298.69419   -114.75148   0.27026478   -114.48122    1766.5212    4.2754311    4.2754311    4.2754311    1766.5212    3656.5121    643.79887     999.2526    2620.3774    663.93414     243.8996    78.151933 
   34100    261.91513   -114.71838   0.23698631   -114.48139    2005.5388    4.2785396    4.2785396    4.2785396    2005.5388    19476.954   -9634.0775   -3826.2605   -100.15047   -2100.5696    476.10177    78.322522 
   34200    350.59769   -114.79823   0.31722816     -114.481   -8402.8425    4.2852093    4.2852093    4.2852093   -8402.8425   -7916.2717   -12600.364   -4691.8922    58.030594    1208.6827   -1251.0932    78.689377 
   34300    217.83786   -114.67909   0.19710428   -114.48198    6458.4022     4.272176     4.272176     4.272176    6458.4022    7439.6393   -3593.8674    15529.435    5247.8221   -534.95161   -1317.8252    77.973569 
   34400    284.39971   -114.73912   0.25733084   -114.48179   -5444.7673    4.2832676    4.2832676    4.2832676   -5444.7673   -2822.3533   -15546.728    2034.7791    3314.1164   -3121.5918    1192.5121    78.582459 
   34500    297.55552   -114.75064   0.26923449    -114.4814   -3351.3225    4.2807864    4.2807864    4.2807864   -3351.3225    4669.0455   -11626.592   -3096.4212   -4106.5264   -1511.2548    615.08551    78.445976 
   34600    283.32554   -114.73787   0.25635891   -114.48151    3247.9879    4.2746562    4.2746562    4.2746562    3247.9879    4701.7514   -3090.4278    8132.6401    8345.9538   -39.564903    1674.0537    78.109451 
   34700    262.20898   -114.71887    0.2372522   -114.48162   -2650.1555     4.284044     4.284044     4.284044   -2650.1555    9397.0014   -13047.529   -4299.9384    1571.6321    2372.2129   -1260.4761    78.625201 
   34800    326.54745   -114.77671     0.295467   -114.48125   -3222.2584    4.2777264    4.2777264    4.2777264   -3222.2584    4735.0361   -7795.1393    -6606.672    600.66369   -4740.5696   -61.149992    78.277873 
   34900    262.81015   -114.72044   0.23779615   -114.48264    6116.9464    4.2777943    4.2777943    4.2777943    6116.9464    22582.202   -7647.5286    3416.1662   -2597.5357   -216.48041   -1050.9608      78.2816 
   35000    311.87994   -114.76418   0.28219553   -114.48199   -2700.1079    4.2826358    4.2826358    4.2826358   -2700.1079   -894.73647    -10169.52    2963.9325    7574.4288   -920.77329     2361.903    78.547694 
   35100    229.93723   -114.68983   0.20805204   -114.48178    2029.9285    4.2753724    4.2753724    4.2753724    2029.9285    5388.2691      666.384    35.132531   -1014.5224   -1178.1562    962.95536    78.148716 
   35200    358.93025   -114.80647   0.32476764    -114.4817   -6025.9509    4.2832698    4.2832698    4.2832698   -6025.9509    6261.8857   -14252.373   -10087.365   -231.86257   -3152.7367   -1804.4379    78.582582 
   35300    296.24177   -114.74998   0.26804578   -114.48194    2636.6401    4.2778142    4.2778142    4.2778142    2636.6401    -2108.754     2199.093    7819.5812    233.20615    1629.5673   -698.68068    78.282691 
   35400     307.8223   -114.76015   0.27852409   -114.48162   -2156.0707    4.2767688    4.2767688    4.2767688   -2156.0707   -2805.1104   -10159.893    6496.7909    5400.3017     1063.839     1261.482    78.225313 
   35500    277.59979   -114.73364   0.25117813   -114.48246   -3115.9085    4.2851686    4.2851686    4.2851686   -3115.9085   0.54390214   -9790.8319    442.56261   -2791.5212   -2436.2534     1345.711    78.687136 
   35600    309.11019   -114.76151    0.2796894   -114.48182    6489.6032    4.2731148    4.2731148    4.2731148    6489.6032    11469.989    1044.0442    6954.7768   -1162.0092   -3068.6078   -1342.0181     78.02498 
   35700     322.5403   -114.77382   0.29184124   -114.48197   -1975.4989    4.2808752    4.2808752    4.2808752   -1975.4989   -598.34818   -8218.5533    2890.4048    5776.9754   -1139.6715   -293.45575     78.45086 
   35800    312.70293   -114.76481   0.28294019   -114.48187    -3387.795    4.2830598    4.2830598    4.2830598    -3387.795    6050.8987   -12232.665   -3981.6188    1282.2903    728.92582    2110.8487    78.571026 
   35900    321.82048   -114.77264   0.29118993   -114.48145    3335.3749    4.2736068    4.2736068    4.2736068    3335.3749    13729.388   -1523.8878   -2199.3751   -770.82565   -2958.6643   -521.91967    78.051937 
   36000    285.57096   -114.74007   0.25839061   -114.48168    797.99206    4.2822195    4.2822195    4.2822195    797.99206    8775.8811   -7378.4071    996.50209   -588.01293    1615.5943   -1575.4944    78.524786 
   36100    363.17046   -114.80966   0.32860426   -114.48106   -6454.6596    4.2811568    4.2811568    4.2811568   -6454.6596   -10942.618   -12046.747    3625.3863    5964.4143   -1879.0844    8.5406758     78.46634 
   36200     253.5734   -114.71163   0.22943854   -114.48219    6134.2128    4.2741964    4.2741964    4.2741964    6134.2128     15212.29    4350.6446   -1160.2965   -4566.7289   -1924.7765    2064.3581    78.084247 
   36300    391.75287   -114.83566   0.35446623   -114.48119   -8980.1376    4.2846486    4.2846486    4.2846486   -8980.1376   -5970.7639   -15710.512   -5259.1366    1758.1454   -2061.1878   -378.92685    78.658496 
   36400     278.2776   -114.73345   0.25179142   -114.48166    2700.7297    4.2767167    4.2767167    4.2767167    2700.7297   -2928.1785   -727.28556    11757.653    119.18576    972.73068    -1455.038    78.222456 
   36500    353.74764   -114.80196    0.3200783   -114.48188    13.179132    4.2787548    4.2787548    4.2787548    13.179132   -5833.8371   -4815.8395    10689.214     3887.232     402.9668    958.28954     78.33434 
   36600    276.14023   -114.73233   0.24985748   -114.48247     1327.762    4.2813703    4.2813703    4.2813703     1327.762    11176.889    -6994.024   -199.57948   -3554.1045   -1495.1322    1066.7144    78.478081 
   36700    319.27751   -114.77038     0.288889   -114.48149     -439.037    4.2759134    4.2759134    4.2759134     -439.037   -1238.8659   -995.69828    917.45318    1072.6312   -319.49286    239.38894    78.178384 
   36800    356.02703   -114.80364   0.32214074    -114.4815   -2066.2778    4.2824811    4.2824811    4.2824811   -2066.2778    4103.1027   -13067.885    2765.9493     3121.523   -1149.1802   -2218.8589    78.539178 
   36900    289.03391   -114.74328   0.26152396   -114.48176    4004.7372    4.2780945    4.2780945    4.2780945    4004.7372    12852.379   -2421.1165    1582.9491   -614.12248   -3152.2849     613.2282     78.29808 
   37000    298.01554   -114.75156   0.26965072   -114.48191   -1145.2736    4.2770084    4.2770084    4.2770084   -1145.2736    5835.2324   -8558.8295   -712.22368    679.46944   -3185.2465   -1249.0214    78.238462 
   37100    277.86406   -114.73352   0.25141724    -114.4821   -2767.0008     4.284993     4.284993     4.284993   -2767.0008     2805.483    -14466.49     3360.005    1534.4348    2002.1117    1378.5377    78.677464 
   37200    345.94156   -114.79385   0.31301519   -114.48083    3514.6133    4.2742192    4.2742192    4.2742192    3514.6133    3334.3295   -1946.8424    9156.3528    4520.5417    1874.6222   -342.02597    78.085496 
   37300    302.52532    -114.7552   0.27373126   -114.48147   -2053.7865    4.2803912    4.2803912    4.2803912   -2053.7865    6475.4455   -7687.1366   -4949.6685   -5064.2282   -2547.2816   -1520.3628    78.424254 
   37400    267.18332   -114.72344   0.24175308   -114.48168   -4832.4681    4.2832184    4.2832184    4.2832184   -4832.4681   -3781.2523   -17128.078    6411.9256    4828.0688   -2290.3213   -589.46682    78.579753 
   37500    292.54315   -114.74593   0.26469919   -114.48123    4689.3656    4.2737297    4.2737297    4.2737297    4689.3656    -1510.962    -25.21627    15604.275    113.46809   -1229.1358    690.08811    78.058672 
   37600     319.7219   -114.77042    0.2892911   -114.48113    -1045.371    4.2825099    4.2825099    4.2825099    -1045.371   -2227.9095   -7907.5372    6999.3337    950.49444    708.36014    1716.7669    78.540766 
   37700    253.73614   -114.71172   0.22958579   -114.48214   -3199.8933    4.2798185    4.2798185    4.2798185   -3199.8933    10556.143   -11157.512   -8998.3101   -3197.7425   -1473.0795   -717.37223    78.392778 
   37800    296.81481     -114.751   0.26856428   -114.48244   -1727.5879    4.2757417    4.2757417    4.2757417   -1727.5879   -3588.4586   -5280.7608    3686.4556    4683.2407   -217.07445   -1318.6924    78.168971 
   37900    280.22096   -114.73543   0.25354982   -114.48188    1332.5737    4.2831488    4.2831488    4.2831488    1332.5737    15176.623   -11216.755    37.852811    2294.6484    1117.3057    535.80875    78.575925 
   38000    300.16841   -114.75316   0.27159869   -114.48156    1441.9337     4.276376     4.276376     4.276376    1441.9337    2892.8943   -4441.2054    5874.1123   -2394.1742   -4184.3137    439.48217    78.203761 
   38100    252.92158   -114.71187   0.22884876   -114.48303   -1105.2372    4.2800825    4.2800825    4.2800825   -1105.2372    13475.986   -15306.232   -1485.4655     1158.059   -2081.6476   -647.62222    78.407284 
   38200    234.66608   -114.69457    0.2123308   -114.48224    1951.4891    4.2809255    4.2809255    4.2809255    1951.4891     3487.346   -7995.1904    10362.312    3721.7271    -566.1313   -775.26956    78.453622 
   38300    372.18084   -114.81709   0.33675704   -114.48034   -1080.8342    4.2752815    4.2752815    4.2752815   -1080.8342    -403.3589   -7642.3153    4803.1716    3487.5686    956.85319    1042.1334    78.143734 
   38400    245.17158   -114.70364   0.22183639   -114.48181   -944.03064    4.2832348    4.2832348    4.2832348   -944.03064    7324.2094   -13138.884    2982.5825   -4466.1194   -2064.2446   -1168.5419    78.580657 
   38500    259.27636     -114.717    0.2345987    -114.4824   -3511.3481    4.2778754    4.2778754    4.2778754   -3511.3481   -5389.2148   -12676.305    7531.4754    7209.3849    749.97419    257.06332    78.286054 
   38600    241.87468   -114.70134    0.2188533   -114.48249    1769.2946    4.2759624    4.2759624    4.2759624    1769.2946    -2655.452   -1709.1075    9672.4433   -523.83869    1544.8494    884.75079    78.181074 
   38700     351.2721   -114.79909   0.31783838   -114.48125   -6806.3602    4.2856359    4.2856359    4.2856359   -6806.3602    1118.7266   -14971.728   -6566.0797    363.45137   -2404.9507    210.17443    78.712882 
   38800    301.75655   -114.75453   0.27303567    -114.4815   -119.48596    4.2739063    4.2739063    4.2739063   -119.48596    7059.5487   -4019.3951   -3398.6115   -754.45314   -3032.9827    536.35947     78.06835 
   38900    205.12274   -114.66828   0.18559937   -114.48268   -426.34118      4.28065      4.28065      4.28065   -426.34118    1163.5744   -5623.1504    3180.5525      4519.96    189.59525   -1982.1806    78.438478 
   39000    322.29599   -114.77325   0.29162018   -114.48163    -846.9237    4.2821406    4.2821406    4.2821406    -846.9237    8289.8385   -13197.545    2366.9349    494.67007    3693.1037    3459.3523    78.520449 
   39100    335.98151   -114.78485   0.30400313   -114.48085    5958.8369    4.2742131    4.2742131    4.2742131    5958.8369    8670.6652    4198.8233    5007.0222   -1028.9941    -4691.848    113.05548    78.085159 
   39200    248.59884    -114.7071   0.22493745   -114.48216   -1136.5388    4.2831651    4.2831651    4.2831651   -1136.5388     11611.34    -11266.72   -3754.2367    3995.1883   -1123.4464   -1014.3544     78.57682 
   39300    313.49329    -114.7657   0.28365531   -114.48205   -3829.7018    4.2789772    4.2789772    4.2789772   -3829.7018   -9485.1886   -8397.7479    6393.8312    3114.9198    -297.5481   -2804.1317    78.346558 
   39400    311.06484   -114.76342   0.28145801   -114.48196    5102.1289    4.2762064    4.2762064    4.2762064    5102.1289    12892.389   -3161.4177    5575.4152   -864.22346   -1159.8066    1778.7164    78.194461 
   39500     349.5275   -114.79779   0.31625982   -114.48153   -6060.4092    4.2839596    4.2839596    4.2839596   -6060.4092    -6732.573   -11799.727    351.07198    975.87446    -2526.964    261.12614    78.620552 
   39600    215.30571   -114.67764   0.19481313   -114.48283    402.33391    4.2748681    4.2748681    4.2748681    402.33391   -2332.0744   -5967.4826    9506.5587    7709.1284    1308.7859   -731.01481    78.121068 
   39700    326.71435   -114.77811   0.29561801   -114.48249   -3022.4601    4.2812969    4.2812969    4.2812969   -3022.4601    172.56671   -6066.2344   -3173.7127   -2053.6708    1617.3614     30.51642    78.474048 
   39800    380.83065   -114.82549   0.34458358   -114.48091   -580.90831    4.2808254    4.2808254    4.2808254   -580.90831    7092.3613   -7343.7553   -1491.3309    159.72294   -3678.4615    252.80311    78.448121 
   39900    301.92445   -114.75474   0.27318759   -114.48155    1434.2217    4.2745218    4.2745218    4.2745218    1434.2217    2530.7972    3187.8772   -1416.0092    4859.7843   -2533.5812    1362.4038     78.10208 
   40000    262.16565   -114.71998   0.23721299   -114.48276    -1570.324    4.2843029    4.2843029    4.2843029    -1570.324    8629.3863   -15526.999     2186.641    1275.9887    1566.9574   -2109.1314    78.639454 
   40100    361.83863   -114.80856    0.3273992   -114.48116    3769.3545    4.2765674    4.2765674    4.2765674    3769.3545    8416.1604    2700.5708    191.33241   -4585.4129    291.69677    546.40738    78.214261 
   40200    310.92991   -114.76293   0.28133592   -114.48159     4355.878    4.2773958    4.2773958    4.2773958     4355.878    10876.324     2673.247   -481.93703    2153.0292   -5958.3816   -152.34993    78.259726 
   40300    338.20636   -114.78832   0.30601622   -114.48231   -7545.8541    4.2837252    4.2837252    4.2837252   -7545.8541   -1522.8073   -10054.306   -11060.449    5420.0146    218.04164    146.62069    78.607649 
   40400    268.16302   -114.72519   0.24263954   -114.48255    3854.9493    4.2742937    4.2742937    4.2742937    3854.9493    6371.2807   -4109.7382    9303.3054   -817.26126    1280.0696   -670.64238    78.089578 
   40500    364.80927   -114.81163    0.3300871   -114.48154   -4569.9977    4.2822532    4.2822532    4.2822532   -4569.9977   -4869.6561   -2764.3726   -6075.9643     -4216.13   -3473.3932   -1102.7329    78.526641 
   40600    327.16147   -114.77783   0.29602257   -114.48181   -2300.4968    4.2793252    4.2793252    4.2793252   -2300.4968   -1302.9218   -6871.6545     1273.086    6271.3708   -3844.0832   -2138.7947    78.365674 
   40700    251.97248   -114.71047      0.22799   -114.48248     3271.651     4.275928     4.275928     4.275928     3271.651     6824.083   -6478.2447    9469.1148    3863.7733    795.28189    148.69671    78.179188 
   40800    334.52051   -114.78469   0.30268119   -114.48201   -4117.4664    4.2840995    4.2840995    4.2840995   -4117.4664    2675.6215   -4866.0122   -10162.009   -5025.6788    1888.0775    1374.7391    78.628258 
   40900    358.09088   -114.80547   0.32400815   -114.48146     4173.297    4.2747203    4.2747203    4.2747203     4173.297    6088.8684   -1124.4104    7555.4332    1311.4031   -3861.8684   -796.20841    78.112965 
   41000    297.27246   -114.75105   0.26897837   -114.48207     2489.094    4.2803055    4.2803055    4.2803055     2489.094    18176.141   -6630.0269   -4078.8318    3386.5812   -1724.2802   -2464.9254     78.41954 
   41100    273.01159   -114.72942   0.24702663   -114.48239    299.07437    4.2813097    4.2813097    4.2813097    299.07437     7188.662    -12664.98    6373.5415   -1531.7246    1434.3636    496.57145    78.474749 
   41200    303.67224   -114.75658   0.27476903   -114.48182    3718.6235    4.2747866    4.2747866    4.2747866    3718.6235    7462.8342    561.79838    3131.2378   -7482.8885   -1746.3217    1940.2022    78.116599 
   41300    329.32429   -114.77941   0.29797954   -114.48143   -3717.5635    4.2828266    4.2828266    4.2828266   -3717.5635    5145.8275   -8015.6479     -8282.87     4421.999   -3382.9962    5.7985869    78.558193 
   41400    290.87268   -114.74515   0.26318771   -114.48196   -4496.8051    4.2778487    4.2778487    4.2778487   -4496.8051   -745.47395   -10904.855   -1840.0861   -3434.6593    -604.4485    -3702.818    78.284586 
   41500    248.16878   -114.70704   0.22454833   -114.48249   -2894.0797    4.2789652    4.2789652    4.2789652   -2894.0797    821.10037   -10185.902    682.56303   -4792.7238   -30.173813   -732.05733      78.3459 
   41600     338.6997   -114.78763   0.30646261   -114.48117    -4826.507     4.281632     4.281632     4.281632    -4826.507   -2429.0469   -6369.9087   -5680.5653   -908.64644   -7229.2387    1314.6193    78.492474 
   41700    280.96985   -114.73599   0.25422742   -114.48176    1992.6182    4.2758696    4.2758696    4.2758696    1992.6182    10215.616   -9003.9146    4766.1529    4231.3401   -531.54415    260.99025    78.175985 
   41800    237.08377   -114.69744   0.21451838   -114.48292    1141.0173    4.2815821    4.2815821    4.2815821    1141.0173    8560.3978   -9736.2007    4598.8549   -4942.8138     563.0223   -165.94674    78.489728 
   41900    306.56092   -114.75961   0.27738276   -114.48223    2603.6337     4.278546     4.278546     4.278546    2603.6337    16883.127   -4303.2936   -4768.9321    -5127.373    97.164634   -2.6588015    78.322874 
   42000    327.96712   -114.77798   0.29675154   -114.48123    4603.0086    4.2769037    4.2769037    4.2769037    4603.0086    16086.707   -6387.7352    4110.0538    3620.9664   -5476.8208   -310.53284    78.232717 
   42100    279.86165   -114.73494   0.25322471   -114.48171   -830.58498    4.2833274    4.2833274    4.2833274   -830.58498    13429.809   -12746.777    -3174.787   -1745.0424    297.19409    -1859.371    78.585753 
   42200    269.90052   -114.72594   0.24421166   -114.48173    367.90561    4.2759365    4.2759365    4.2759365    367.90561    626.43424   -10440.801    10918.084   -5966.0011    -465.0041    777.84483    78.179654 
   42300    231.52066   -114.69136   0.20948476   -114.48187    2223.5427    4.2780987    4.2780987    4.2780987    2223.5427    9896.6669   -5462.5609    2236.5222   -5136.4645   -3370.6487    902.23609    78.298314 
   42400    379.81047   -114.82462   0.34366049   -114.48096   -13218.944    4.2846328    4.2846328    4.2846328   -13218.944   -11649.437   -14018.423   -13988.972    3971.4764   -2224.6127    1239.8966    78.657626 
   42500     194.4084   -114.65813    0.1759048   -114.48223    3348.1328    4.2732219    4.2732219    4.2732219    3348.1328     5917.812   -5652.6513    9779.2376   -8977.6461     728.1625   -811.88356    78.030852 
   42600    330.19671   -114.78058   0.29876892   -114.48181   -10274.257     4.282916     4.282916     4.282916   -10274.257   -6601.3677   -15282.991   -8938.4109   -3663.1369   -2470.0777   -645.57801    78.563113 
   42700     283.2715   -114.73846   0.25631001   -114.48215   -223.90255    4.2793868    4.2793868    4.2793868   -223.90255    10648.677   -7008.2291   -4312.1553   -428.81325   -7496.6309   -442.00404    78.369059 
   42800    313.81422   -114.76594    0.2839457   -114.48199    3082.1517    4.2761023    4.2761023    4.2761023    3082.1517    7081.5953   -3207.8259    5372.6857   -2928.0048    900.61026    535.74294    78.188747 
   42900     236.9158   -114.69664   0.21436639   -114.48228    2459.4878    4.2818349    4.2818349    4.2818349    2459.4878     15548.65   -9126.9974    956.81048   -5232.7732    369.76116    2488.2408     78.50363 
   43000    308.62815    -114.7604   0.27925323   -114.48114   -200.77611    4.2774763    4.2774763    4.2774763   -200.77611    3663.9252    3510.8564     -7777.11    707.93547   -4890.2493    1674.5785    78.264143 
   43100    334.02236    -114.7838   0.30223045   -114.48157    3416.4433    4.2790002    4.2790002    4.2790002    3416.4433    15689.833   -5189.2351   -251.26808    696.91519   -1333.2929   -1967.6953    78.347821 
   43200    305.18923   -114.75784   0.27614163    -114.4817   -499.25605    4.2813856    4.2813856    4.2813856   -499.25605   -2131.6583      1952.54   -1318.6498   -4953.1556    1465.2077    778.41227    78.478922 
   43300    252.42011   -114.71069   0.22839502   -114.48229    751.18341    4.2743173    4.2743173    4.2743173    751.18341    1289.1554   -7436.4612     8400.856   -3562.2883   -922.64577    2113.8325    78.090871 
   43400    308.01238   -114.76099   0.27869608   -114.48229   -3545.7804    4.2845139    4.2845139    4.2845139   -3545.7804   -8575.2033    3375.2421   -5437.3801     555.1437   -8229.3076    1285.6812    78.651076 
   43500    355.30197   -114.80221   0.32148469   -114.48072    1334.0079    4.2767327    4.2767327    4.2767327    1334.0079    4375.7173   -1382.9689    1009.2753   -2385.4049    791.70124   -2690.2396    78.223332 
   43600    272.30465   -114.72791   0.24638697   -114.48153    643.43351    4.2760388    4.2760388    4.2760388    643.43351   -5491.2275   -283.72628    7705.2543   -8919.1373    1496.0869   -113.39019    78.185267 
   43700     336.8769   -114.78646    0.3048133   -114.48164   -9925.8917    4.2864481    4.2864481    4.2864481   -9925.8917   -4924.5023    -13252.62   -11600.552    1853.5133   -3317.0582    2902.6513    78.757642 
   43800    296.78722   -114.74961   0.26853931   -114.48107    8300.4339    4.2731064    4.2731064    4.2731064    8300.4339    9955.3648    10394.426    4551.5111   -1394.2272   -5275.8593    2057.1922    78.024522 
   43900    359.23969   -114.80601   0.32504762   -114.48096    457.07574    4.2790166    4.2790166    4.2790166    457.07574   -1097.7152   -2664.9232    5133.8656   -3761.9112   -695.40985   -1256.5047    78.348719 
   44000    261.04787   -114.71839    0.2362016   -114.48219   -4341.6548    4.2849413    4.2849413    4.2849413   -4341.6548    418.20596   -4642.1648   -8801.0057   -5226.8589   -1176.6867    27.142123    78.674615 
   44100    351.36807   -114.79958   0.31792522   -114.48166    1199.3369    4.2720874    4.2720874    4.2720874    1199.3369    2346.1495     6144.673    -4892.812    3879.0444   -9199.8958     2451.667    77.968717 
   44200    356.61028   -114.80452   0.32266847   -114.48185   -1214.5176    4.2832377    4.2832377    4.2832377   -1214.5176   -2597.8232    5239.7012    -6285.431   -3481.0886    3098.9773   -50.680004    78.580816 
   44300    320.72749   -114.77286   0.29020097   -114.48266   -1921.5071    4.2794761    4.2794761    4.2794761   -1921.5071    -4217.665   -2482.7048    935.84845   -698.52869   -1490.2535    1254.4756    78.373964 
   44400    273.95453   -114.73125   0.24787981   -114.48337    2314.0075    4.2755776    4.2755776    4.2755776    2314.0075   -3524.0305    8977.2988    1488.7543   -1853.2888    -3592.562    445.22674    78.159967 
   44500    325.61662   -114.77599   0.29462476   -114.48136    575.10537    4.2834688    4.2834688    4.2834688    575.10537     1050.675    2855.0736   -2180.4326    925.46832   -5324.5943    2841.7441    78.593537 
   44600    386.31582   -114.82989   0.34954667   -114.48034     1057.567     4.276144     4.276144     4.276144     1057.567    859.03022   -232.84225    2546.5129   -6952.4019    1963.5185   -2389.9943    78.191033 
   44700    333.22563   -114.78361   0.30150955    -114.4821   -1350.1952    4.2796599    4.2796599    4.2796599   -1350.1952   -5874.8845    -311.1348    2135.4336   -1494.9308   -1623.0324    993.25644    78.384063 
   44800    241.60825   -114.70136   0.21861222   -114.48275    1127.2032    4.2820038    4.2820038    4.2820038    1127.2032    10509.007   -581.31971   -6546.0777    1908.0798   -6286.8071   -443.41798    78.512925 
   44900    374.82245   -114.82043   0.33914723   -114.48128    3621.3492    4.2726103    4.2726103    4.2726103    3621.3492    -2821.142    7203.4833    6481.7061   -3816.5767   -224.09174    2854.1414     77.99735 
   45000    342.98995   -114.79227   0.31034452   -114.48192   -3388.8544    4.2855916    4.2855916    4.2855916   -3388.8544    682.37415   -6787.9383    -4060.999    -2145.827    517.09007    545.51246    78.710441 
   45100    282.51547   -114.73777   0.25562593   -114.48214   -2654.8423    4.2767649    4.2767649    4.2767649   -2654.8423   -2517.4196    2709.3838   -8156.4911    2658.1942   -6496.4655    3628.6057    78.225101 
   45200    288.40582    -114.7429   0.26095564   -114.48194   -2171.3114    4.2760428    4.2760428    4.2760428   -2171.3114   -2496.4222    5979.4975   -9997.0094    2134.0961   -7494.5504   -2058.4112    78.185487 
   45300    383.97356   -114.82847   0.34742735   -114.48104    -5002.331    4.2855275    4.2855275    4.2855275    -5002.331   -8303.7024   -126.29362   -6576.9969   -6575.5712    2934.0843   -1042.6285    78.706908 
   45400     302.0269   -114.75519   0.27328029   -114.48191    2759.9531    4.2739114    4.2739114    4.2739114    2759.9531    1445.9137    7302.7398   -468.79429    -864.5844   -4592.5556    1935.9323    78.068628 
   45500     221.9315   -114.68392   0.20080829   -114.48311   -1968.6645    4.2789426    4.2789426    4.2789426   -1968.6645   -4144.4598    4504.5813    -6266.115    3478.0226   -6195.4373    1425.7801    78.344657 
   45600    348.51366   -114.79713   0.31534248   -114.48179   -3936.6472    4.2845634    4.2845634    4.2845634   -3936.6472    5049.8447   -9757.4746   -7102.3116     838.2711    602.12368   -175.75792    78.653803 
   45700     391.0755   -114.83457   0.35385333   -114.48072    9278.7504    4.2717743    4.2717743    4.2717743    9278.7504    6043.3847    18944.387    2848.4799   -4441.8354    588.34848   -2138.2641    77.951573 
   45800     195.5555    -114.6609   0.17694272   -114.48396    733.59114    4.2834126    4.2834126    4.2834126    733.59114    14284.326   -8874.9645   -3208.5886   -397.51211   -7107.6499    4137.8938     78.59044 
   45900    263.46208   -114.72165   0.23838603   -114.48326   -1277.6063    4.2777673    4.2777673    4.2777673   -1277.6063    1664.1752   -2177.5838   -3319.4102    4146.4793     -5349.85    2127.4776    78.280115 
   46000    373.41173   -114.81972   0.33787078   -114.48185    4368.6628    4.2773794    4.2773794    4.2773794    4368.6628    6797.6343    2069.3873    4238.9668   -1844.0714    3033.2124   -1376.6024    78.258822 
   46100    290.97219   -114.74536   0.26327775   -114.48208   -447.82565    4.2816972    4.2816972    4.2816972   -447.82565    3120.5181    1208.9156   -5672.9106   -823.19168   -1543.3374   -1165.8904    78.496056 
   46200    207.93496   -114.67133   0.18814392   -114.48319   -7768.2287    4.2768968    4.2768968    4.2768968   -7768.2287   -7373.4629   -2868.8241   -13062.399    1441.0859   -9309.2635    3888.7164    78.232341 
   46300     268.1613   -114.72538   0.24263798   -114.48275   -996.23403    4.2809004    4.2809004    4.2809004   -996.23403   -1830.2794    7790.0639   -8948.4866    3531.3149   -681.05282    1088.7141    78.452247 
   46400    410.79317   -114.85195   0.37169429   -114.48026   -3006.1851    4.2805587    4.2805587    4.2805587   -3006.1851    379.30353   -6094.8043   -3303.0544   -1407.9862   -440.90159    700.63897     78.43346 
   46500    177.83812   -114.64372   0.16091167   -114.48281    719.93854     4.274592     4.274592     4.274592    719.93854    1711.7009    6626.5848   -6178.4702   -894.59069   -8261.4184   -728.21896    78.105932 
   46600    208.24183    -114.6718   0.18842159   -114.48338   -7252.7142    4.2849076    4.2849076    4.2849076   -7252.7142    4743.7297   -11368.761   -15133.111    1223.5769   -4889.4826   -234.62476    78.672757 
   46700    357.44087   -114.80441   0.32342001   -114.48099    6720.2354    4.2756517    4.2756517    4.2756517    6720.2354    4959.3327    13246.002    1955.3717   -624.35914    3913.7974   -1241.3078    78.164033 
   46800    314.57151   -114.76634   0.28463091   -114.48171   -86.831671    4.2788827    4.2788827    4.2788827   -86.831671    12302.888   -4551.1992   -8012.1837    1421.7607   -1964.5534    1324.1226    78.341368 
   46900    180.83427   -114.64761   0.16362265   -114.48399    -6531.444    4.2829422    4.2829422    4.2829422    -6531.444    265.60078   -12162.244   -7697.6891    1676.6251   -6313.6772     4558.883     78.56455 
   47000    270.91939   -114.72747   0.24513356   -114.48234    3915.2538    4.2756636    4.2756636    4.2756636    3915.2538    5839.4163    2523.4154    3382.9297    4526.9525   -898.80926      707.746    78.164688 
   47100    358.41681   -114.80487   0.32430306   -114.48057      3413.89    4.2795594    4.2795594    4.2795594      3413.89    6449.9896    2386.0457    1405.6346   -3238.3118   -610.82225   -2025.5661    78.378543 
   47200     199.8846   -114.66395   0.18085979   -114.48309   -3952.8732    4.2815447    4.2815447    4.2815447   -3952.8732   -3105.6359   -5907.8889   -2845.0948    461.57584    -3483.005    1729.7413    78.487673 
   47300    217.49821   -114.68045   0.19679695   -114.48365   -1804.5214    4.2761264    4.2761264    4.2761264   -1804.5214   -1103.4872    2976.1456   -7286.2228    2813.3529   -5769.5476    1391.9425     78.19007 
   47400    348.46311   -114.79675   0.31529674   -114.48145    727.41275    4.2819097    4.2819097    4.2819097    727.41275    5544.6218   -1934.1183   -1428.2652    2860.0159    3078.3296    -459.3903    78.507748 
   47500    366.14671   -114.81223   0.33129724   -114.48094   -1734.8883     4.277658     4.277658     4.277658   -1734.8883    3664.6629   -5912.2359    -2957.092   -2208.4437   -3777.3859     290.1256    78.274116 
   47600    141.29162   -114.61156   0.12784363   -114.48371    114.48952    4.2793414    4.2793414    4.2793414    114.48952    7138.1832    2201.8078   -8996.5225    1305.3459   -6575.8736    1397.8936    78.366564 
   47700    280.13476   -114.73619   0.25347182   -114.48272   -924.59888    4.2804571    4.2804571    4.2804571   -924.59888    5073.6921   -3002.2251   -4845.2637    3754.4267    -1980.415    631.56396    78.427877 
   47800    385.38554   -114.82955   0.34870494   -114.48085     2354.396    4.2763474    4.2763474    4.2763474     2354.396    3939.7782    769.67538    2353.7345    1067.0477    1398.4457   -2814.9371    78.202195 
   47900    289.33608   -114.74458   0.26179737   -114.48278   -6529.4579    4.2822607    4.2822607    4.2822607   -6529.4579    6975.4326   -12575.901   -13987.905   -2388.7846   -4478.6001    2747.7202    78.527054 
   48000    227.62387   -114.68937   0.20595886   -114.48341   -2738.3871    4.2781281    4.2781281    4.2781281   -2738.3871   -6015.1069   -1404.3659    -795.6885    4573.3333   -2135.0772    3740.2034    78.299927 
   48100     304.0006   -114.75715   0.27506613   -114.48209    2833.3316    4.2776741    4.2776741    4.2776741    2833.3316    5760.3612   -1954.8945    4694.5281    5708.9769    2337.2086   -242.16863    78.275002 
   48200    392.38818   -114.83639   0.35504107   -114.48135   -2321.9168     4.281628     4.281628     4.281628   -2321.9168   -5242.2525    887.73343   -2611.2314    558.75347   -2946.9897   -2734.2733    78.492253 
   48300    216.34662   -114.67966   0.19575497   -114.48391    2307.2791    4.2777606    4.2777606    4.2777606    2307.2791    10025.549   -4271.8183    1168.1062   -1524.8852   -4555.3994    3909.0392     78.27975 
   48400    321.76092   -114.77411   0.29113604   -114.48297   -2450.8218    4.2788185    4.2788185    4.2788185   -2450.8218   -2264.2454    1361.8273   -6450.0472     5605.479   -1248.4913    3273.5709     78.33784 
   48500     371.8478    -114.8179    0.3364557   -114.48145    3421.1084    4.2809484    4.2809484    4.2809484    3421.1084    12416.602   -5244.0104    3090.7339   -1173.5712    3059.6269   -1078.4361    78.454883 
   48600    357.41055   -114.80478   0.32339258   -114.48139     1545.713    4.2780718    4.2780718    4.2780718     1545.713    5093.5709    6147.5341    -6603.966    146.81005   -4324.4743   -2471.1597    78.296836 
   48700    190.31462   -114.65543   0.17220067   -114.48323    2975.8357    4.2783442    4.2783442    4.2783442    2975.8357    10739.292      2435.07   -4246.8551    681.30661   -4840.1772    565.92126    78.311794 
   48800    379.63195   -114.82513   0.34349896   -114.48163   -5244.0193    4.2814029    4.2814029    4.2814029   -5244.0193   -332.16217   -10845.523   -4554.3722    6223.2252    595.50743    3730.2727    78.479876 
   48900    395.02511   -114.83838   0.35742702   -114.48096    1081.1812    4.2779364    4.2779364    4.2779364    1081.1812    5714.2304   -1483.4193   -987.26754   -350.45139   -302.87745   -197.95926    78.289401 
   49000    318.38738   -114.77062   0.28808359   -114.48253   -5286.0546    4.2794396    4.2794396    4.2794396   -5286.0546   -371.18593   -1522.9033   -13964.075   -1843.6024   -6808.8515    2554.2804     78.37196 
   49100    242.25314   -114.70273   0.21919573   -114.48354   -2849.6768      4.28019      4.28019      4.28019   -2849.6768   -3850.5144   -3781.3902    -917.1259    6024.6061   -1697.5109   -126.31745    78.413195 
   49200    365.14574   -114.81183   0.33039154   -114.48144    1770.1268    4.2789692    4.2789692    4.2789692    1770.1268   -2413.4613    3607.1466    4116.6951   -444.83972    2871.5094   -1046.3295    78.346116 
   49300     421.8291   -114.86278   0.38167983    -114.4811   -680.65178    4.2789549    4.2789549    4.2789549   -680.65178    4017.4953    -3922.631   -2136.8196    1453.1062   -1843.3239    1973.1264    78.345334 
   49400    212.34378   -114.67563   0.19213311    -114.4835    2082.4003    4.2798791    4.2798791    4.2798791    2082.4003    6102.9501    -572.0308    716.28155    945.78324   -3357.6024    3938.2175     78.39611 
   49500    396.68133   -114.84092    0.3589256     -114.482   -2328.6398    4.2795178    4.2795178    4.2795178   -2328.6398    602.46451   -1253.9069    -6334.477    7440.3137   -1849.4264    706.89645    78.376256 
   49600    336.45643   -114.78569   0.30443285   -114.48126    9848.9451    4.2790267    4.2790267    4.2790267    9848.9451     21257.81    4174.7999    4114.2255   -3402.4299    1314.1469   -2672.8804    78.349275 
   49700    344.38368   -114.79396   0.31160559   -114.48235   -937.18746    4.2781989    4.2781989    4.2781989   -937.18746    1347.0679    3231.9878   -7390.6181    47.833539   -2732.6949    2394.6182    78.303813 
   49800    224.04435   -114.68677   0.20272004   -114.48405    -901.8131     4.280448     4.280448     4.280448    -901.8131    13313.693   -12928.562   -3090.5703    1400.2339   -3590.8675    3335.1608    78.427374 
   49900     392.9494   -114.83731   0.35554888   -114.48177   -2532.6715    4.2800478    4.2800478    4.2800478   -2532.6715   -2874.5575   -3607.1821   -1116.2748    5128.8254    359.86573   -1263.6448    78.405376 
   50000    349.40412    -114.7974   0.31614819   -114.48125    201.22957    4.2771534    4.2771534    4.2771534    201.22957    6557.3033   -1771.7907    -4181.824   -3470.7785   -2691.1815   -619.55668    78.246422 
   50100    274.25248   -114.73081   0.24814941   -114.48266   -8096.9951    4.2815953    4.2815953    4.2815953   -8096.9951   -4683.5641   -6780.3857   -12827.036    2895.4684   -2376.9932    5428.0083    78.490457 
   50200    235.76504   -114.69621   0.21332517   -114.48289    992.93984    4.2793989    4.2793989    4.2793989    992.93984    948.36857   -1530.0908    3560.5418    4370.8483    -2752.822    2156.3294    78.369723 
   50300    428.12462   -114.86804   0.38737615   -114.48067    219.66816    4.2769196    4.2769196    4.2769196    219.66816   -2767.9224   -1391.8419    4818.7687   -2592.6114    1536.2053   -3572.8123    78.233592 
   50400    252.75408   -114.71115    0.2286972   -114.48245    988.75836    4.2818936    4.2818936    4.2818936    988.75836    14256.063   -8563.6624   -2726.1257   -1253.5757   -3525.7015    1459.8255    78.506859 
   50500    262.64059   -114.72007   0.23764273   -114.48243   -1041.5005    4.2790397    4.2790397    4.2790397   -1041.5005   -6455.4185   -283.14593     3614.063    4176.7187   -167.25159    4756.5417    78.349989 
   50600    313.26849   -114.76487   0.28345191   -114.48142    6973.5588     4.277294     4.277294     4.277294    6973.5588     17180.66    3711.5816    28.434521    3734.0309   -581.27249    1464.0184    78.254136 
   50700    314.00178   -114.76513    0.2841154   -114.48102    2080.5419     4.280777     4.280777     4.280777    2080.5419    6741.0152   -2995.5718    2496.1822   -3233.0096   -330.13438   -1821.1196     78.44546 
   50800    283.17461    -114.7383   0.25622234   -114.48207   -5858.5409    4.2790299    4.2790299    4.2790299   -5858.5409    4330.6972   -14634.414   -7271.9057    384.64385   -2815.9885    2200.5295    78.349453 
   50900    185.17998   -114.65093   0.16755474   -114.48337    3818.8226    4.2784635    4.2784635    4.2784635    3818.8226    10123.348   -792.80454    2125.9239    5014.7561   -3215.3711    4282.7351    78.318344 
   51000    396.83472    -114.8402   0.35906439   -114.48113   -8092.4061    4.2809294    4.2809294    4.2809294   -8092.4061   -7987.7899   -13142.288   -3147.1401   -207.23921    3576.7822   -1166.5041    78.453837 
   51100    221.64301   -114.68252   0.20054725   -114.48197   -2050.6273    4.2782865    4.2782865    4.2782865   -2050.6273    6685.1098   -6082.2857    -6754.706   -5267.9723   -4461.7713    3348.1041    78.308623 
   51200    241.74689   -114.70105   0.21873767   -114.48231   -6091.6543    4.2809729    4.2809729    4.2809729   -6091.6543   -707.46882   -9194.3749    -8373.119    4252.9427   -1647.1956    2645.9165    78.456231 
   51300    268.30123   -114.72473   0.24276459   -114.48197    2553.1709    4.2774604    4.2774604    4.2774604    2553.1709   -2045.4452   -1687.7231    11392.681    2072.7822   -2918.2765    679.61434    78.263269 
   51400    347.34979   -114.79591   0.31428939   -114.48162   -2475.6219    4.2797365    4.2797365    4.2797365   -2475.6219    4023.8647   -10621.972   -828.75804    146.03441    1881.4593   -1133.9375    78.388273 
   51500    205.13807    -114.6686   0.18561324   -114.48299    2699.8663    4.2810259    4.2810259    4.2810259    2699.8663    4244.6649   -1859.4543    5714.3882   -2675.5194   -2458.4274    3899.7144    78.459144 
   51600    260.32191   -114.71744   0.23554474   -114.48189    3696.9663    4.2767351    4.2767351    4.2767351    3696.9663    1055.3234    8262.8987    1772.6769    4590.0619   -691.57318    2086.1168    78.223468 
   51700    277.26169   -114.73209    0.2508722   -114.48122    3014.1231    4.2800755    4.2800755    4.2800755    3014.1231    15600.409    -10037.34    3479.3005   -3219.2601    1407.4849   -1905.7027    78.406899 
   51800    325.29802   -114.77564   0.29433649    -114.4813    -4128.474    4.2811625    4.2811625    4.2811625    -4128.474   -3993.5837     -8159.05   -232.78831    407.54574   -1963.0585    1243.1711    78.466653 
   51900    191.32255   -114.65615   0.17311267   -114.48304    4122.3963    4.2754736    4.2754736    4.2754736    4122.3963    14886.899    903.76911   -3423.4788    942.33855   -3676.4757    5742.7637    78.154264 
   52000    294.23241   -114.74812   0.26622767   -114.48189   -6354.0017    4.2825347    4.2825347    4.2825347   -6354.0017   -6519.0733   -9092.1348   -3450.7972    5685.2327   -1130.0847    1672.7506    78.542131 
   52100    323.96385   -114.77376    0.2931293   -114.48063   -6292.2511    4.2804449    4.2804449    4.2804449   -6292.2511   -2780.1115   -10660.969   -5435.6725   -4383.9338    4114.2354   -527.83938    78.427206 
   52200    218.59156   -114.67957   0.19778623   -114.48178    2486.1643    4.2761355    4.2761355    4.2761355    2486.1643    11091.514    694.28822   -4327.3092   -3554.4558    -3512.285    3611.6214    78.190568 
   52300    314.55535   -114.76641   0.28461629    -114.4818   -7876.5775    4.2828159    4.2828159    4.2828159   -7876.5775   -4760.0593   -12622.509    -6247.164    4389.3603   -3611.4949     2047.757    78.557603 
   52400    253.74115   -114.71128   0.22959033   -114.48169    3279.7179    4.2776027    4.2776027    4.2776027    3279.7179   -3104.6793    1435.4177    11508.415   -2585.8519    1084.6459    -651.4912    78.271081 
   52500    370.67625    -114.8171   0.33539566   -114.48171   -280.07776    4.2783924    4.2783924    4.2783924   -280.07776    2816.2761    -3938.176     281.6666    718.23738    404.77973    2794.5914    78.314437 
   52600    187.13175   -114.65211   0.16932074   -114.48279    6158.2975    4.2811447    4.2811447    4.2811447    6158.2975    4124.3242    7872.0276    6478.5408   -2554.6804   -1305.1592    4915.7846    78.465679 
   52700    348.75752   -114.79636   0.31556314    -114.4808   -1983.6079    4.2771061    4.2771061    4.2771061   -1983.6079    2266.3389   -6306.5976   -1910.5652    5064.0305   -4152.4193   -839.93355    78.243827 
   52800    307.65856   -114.75959   0.27837593   -114.48121    2594.9562    4.2808138    4.2808138    4.2808138    2594.9562    2865.1052   -2957.0596    7876.8228   -3590.1389    4127.2734     -1854.34    78.447481 
   52900    316.13612   -114.76755    0.2860466   -114.48151   -1056.6913    4.2792811    4.2792811    4.2792811   -1056.6913    1603.5828     1661.352   -6435.0087    1161.7227   -3633.5203     5553.556    78.363251 
   53000    248.82526   -114.70769   0.22514233   -114.48254   -729.60367    4.2764313    4.2764313    4.2764313   -729.60367    4135.3635   -3123.1412   -3201.0333   -332.21632   -2371.1894    7513.7895    78.206795 
   53100    355.41898   -114.80343   0.32159056   -114.48184    -8253.877    4.2844217    4.2844217    4.2844217    -8253.877   -9095.9833   -8324.3393   -7341.3084    2850.9895   -196.36759    -3301.386       78.646 
   53200    290.21705    -114.7441   0.26259449    -114.4815    5070.1794    4.2755802    4.2755802    4.2755802    5070.1794    7919.4766    730.37609    6560.6856   -2464.3446    194.97885    2576.7139    78.160111 
   53300    332.30639   -114.78217    0.3006778   -114.48149   -5244.3827    4.2794491    4.2794491    4.2794491   -5244.3827    1428.4237   -5292.3374   -11869.235     541.2907   -3092.2749    5362.2872    78.372483 
   53400    258.52476   -114.71638   0.23391864   -114.48246   -2322.1787    4.2832077    4.2832077    4.2832077   -2322.1787   -13969.331   -3206.6576    10209.453    3104.5709   -2891.2057    3014.7266    78.579162 
   53500    385.25986   -114.82988   0.34859122   -114.48128    4076.7666    4.2736794    4.2736794    4.2736794    4076.7666   -3122.8894    6416.6206    8936.5685   -4030.8267    5131.2692   -3960.7862    78.055916 
   53600    307.03317   -114.75985   0.27781006   -114.48204    2521.2073    4.2817687    4.2817687    4.2817687    2521.2073    5020.5608    249.69264    2293.3685   -535.51723    -2629.178    3587.7158    78.499994 
   53700    274.55482   -114.73058   0.24842297   -114.48216   -1460.3684    4.2811879    4.2811879    4.2811879   -1460.3684   -4292.6402    688.83811   -777.30304   -1621.3804   -2486.7488    4106.9298    78.468053 
   53800    337.47183   -114.78708    0.3053516   -114.48173    2263.2037    4.2749667    4.2749667    4.2749667    2263.2037    57.819041   -1161.0753    7892.8674      4843.54   -2119.4395     1686.953    78.126472 
   53900    339.86678    -114.7893    0.3075186   -114.48178   -1732.8824    4.2839303    4.2839303    4.2839303   -1732.8824   -1920.3679    1091.8944   -4370.1738   -954.98784    3307.7378    -622.5642    78.618943 
   54000    319.57526   -114.77149   0.28915841   -114.48233   -4020.7305    4.2772787    4.2772787    4.2772787   -4020.7305   -3285.3598   -2727.7213   -6049.1105    528.58023   -4903.3312    5025.9489    78.253299 
   54100    272.90854   -114.72982   0.24693338   -114.48288   -1945.4705    4.2792383    4.2792383    4.2792383   -1945.4705    460.91858    367.16196    -6664.492   -220.56074   -3184.9642    3109.6654    78.360901 
   54200    364.10314   -114.81057   0.32944817   -114.48112   -2140.1165    4.2816988    4.2816988    4.2816988   -2140.1165   -2883.4898   -8755.9019    5219.0422    722.25709    4106.9019    146.49685    78.496145 
   54300    296.99025   -114.74968   0.26872302   -114.48095    4162.0641    4.2757468    4.2757468    4.2757468    4162.0641    10821.376    1491.2154    173.60051   -755.37505   -3859.7549    5816.8678    78.169248 
   54400     320.0126   -114.77132   0.28955413   -114.48177   -4119.1677    4.2825419    4.2825419    4.2825419   -4119.1677   -8588.2142   -6236.0722    2466.7831    847.49713    -3354.397    1145.4094    78.542525 
   54500    299.73344   -114.75272   0.27120512   -114.48152    2600.8907    4.2786854    4.2786854    4.2786854    2600.8907   -11224.104    5033.4573    13993.319    2169.0907   -834.09062    1378.3709    78.330531 
   54600    385.35409   -114.82928   0.34867648    -114.4806    3319.6813    4.2755385    4.2755385    4.2755385    3319.6813    6228.2645   -840.23301    4571.0124   -953.68049    4445.8959    659.05281    78.157827 
   54700    264.65998   -114.72143   0.23946991   -114.48196    -64.98615    4.2850855    4.2850855    4.2850855    -64.98615   -3417.6059    2460.8537    761.79373   -591.76448   -3779.2954    3505.2913     78.68256 
   54800    308.30879   -114.76061   0.27896428   -114.48164    655.26704    4.2748068    4.2748068    4.2748068    655.26704     644.5165     337.0631    984.22151   -214.64321   -4740.5706    -1729.241    78.117704 
   54900    299.14572   -114.75248   0.27067333    -114.4818    1516.7735    4.2800242    4.2800242    4.2800242    1516.7735   -589.81389    2812.1488    2327.9857    1577.7921    2384.2799    1409.1282     78.40408 
   55000    390.70568    -114.8349   0.35351871   -114.48138    -5827.758    4.2830748    4.2830748    4.2830748    -5827.758   -4750.3092   -4191.7301   -8541.2347    827.57685   -1224.3078    4055.3802    78.571849 
   55100     268.1521   -114.72501   0.24262966   -114.48238    1968.1401    4.2739083    4.2739083    4.2739083    1968.1401    4228.8943    6420.7041   -4745.1782    661.69743    -3949.695    4412.6744    78.068457 
   55200     278.6992   -114.73444    0.2521729   -114.48226   -3549.1846    4.2822524    4.2822524    4.2822524   -3549.1846    194.69814   -8037.0661   -2805.1859    3141.2479   -1930.0097   -2549.6652      78.5266 
   55300    350.79216   -114.79843   0.31740411   -114.48103   -833.45477    4.2805043    4.2805043    4.2805043   -833.45477   -1337.9932    -7666.274    6503.9028   -1826.9138    2086.7744     886.6361    78.430468 
   55400    314.96501   -114.76669   0.28498696    -114.4817    4734.3735    4.2746362    4.2746362    4.2746362    4734.3735    5587.4427    8655.4681   -39.790312    728.62962    -7158.128    3969.0916    78.108355 
   55500    286.03888   -114.74149   0.25881399   -114.48267   -5579.3664    4.2843706    4.2843706    4.2843706   -5579.3664   -14113.187   -8398.6563    5773.7445    1060.6184   -1838.6696    2621.8842    78.643182 
   55600    319.18853   -114.77054   0.28880849   -114.48173    2515.6414    4.2758727    4.2758727    4.2758727    2515.6414    902.65832    1794.6652    4849.6007    1708.2431    3435.9879   -3679.5123    78.176156 
   55700    352.72155   -114.80052   0.31914987   -114.48137    2801.8193    4.2794691    4.2794691    4.2794691    2801.8193    2346.3981   -814.62185    6873.6815   -850.79422   -1105.1449    2196.0745    78.373578 
   55800    257.19097    -114.7148   0.23271179   -114.48209    606.79209    4.2813688    4.2813688    4.2813688    606.79209    1434.7156    5373.6042   -4987.9435    -116.2697   -7189.4968    1501.6816       78.478 
   55900    279.62872   -114.73482   0.25301394   -114.48181   -1968.5119    4.2760095    4.2760095    4.2760095   -1968.5119   -3841.8076   -4960.0091    2896.2812    7449.2377    -1287.441    1304.8525    78.183658 
   56000    352.80681    -114.8005   0.31922701   -114.48127   -2000.5124    4.2826073    4.2826073    4.2826073   -2000.5124   -4252.3626    808.33926   -2557.5138   -168.34693    6372.3194   -2843.6751    78.546124 
   56100    356.77856   -114.80346   0.32282074   -114.48064   -1609.3212    4.2789384    4.2789384    4.2789384   -1609.3212    1289.2619    1437.9077   -7555.1333   -1489.1074    -6489.359     2505.837    78.344426 
   56200    216.18593   -114.67748   0.19560957   -114.48187    642.02455     4.276347     4.276347     4.276347    642.02455    3793.4703    1769.7925   -3637.1891   -499.92405   -6506.3329    2955.3098     78.20217 
   56300     311.7573   -114.76379   0.28208456   -114.48171   -4924.7265    4.2841158    4.2841158    4.2841158   -4924.7265   -3749.8145   -11743.653    719.28806    7667.1171    1027.3029     220.7719    78.629155 
   56400    311.84339   -114.76397   0.28216245    -114.4818    6806.8648    4.2750543    4.2750543    4.2750543    6806.8648     1027.629    17496.277    1896.6883   -674.48601    794.74108    1463.5119    78.131276 
   56500    318.37659   -114.77068   0.28807383   -114.48261   -4287.8837    4.2803595    4.2803595    4.2803595   -4287.8837    -5646.783    -4845.531    -2371.337   -726.20073    -5115.249    186.73931     78.42251 
   56600    270.98004   -114.72799   0.24518844    -114.4828   -4827.9804    4.2825695    4.2825695    4.2825695   -4827.9804    -13229.73    803.41939   -2057.6307   -542.08875   -1801.9862    850.73769    78.544044 
   56700    316.61933   -114.76785   0.28648382   -114.48136    5597.2347    4.2745422    4.2745422    4.2745422    5597.2347    830.52339    5806.6621    10154.519    4676.8701    2975.6889   -1851.9664    78.103201 
   56800    262.39807    -114.7191   0.23742329   -114.48167    2839.5625    4.2818004    4.2818004    4.2818004    2839.5625    1027.9077    10444.984   -2954.2042     -58.2669    -6774.162    4725.9193    78.501733 
   56900    287.13035   -114.74169   0.25980158   -114.48189   -6325.6696    4.2805196    4.2805196    4.2805196   -6325.6696   -5075.7507   -7931.6846   -5969.5735      1889.11   -3589.5468    241.35469     78.43131 
   57000    222.62847   -114.68343   0.20143892   -114.48199    4686.9093    4.2758624    4.2758624    4.2758624    4686.9093   -5803.7498    12168.361    7696.1163    6187.3114    1784.8406    2214.7086    78.175588 
   57100    426.37186    -114.8664   0.38579022   -114.48061   -9680.0548    4.2836961    4.2836961    4.2836961   -9680.0548   -7886.9763   -9305.3797   -11847.808    92.982997    296.80353   -2335.9932    78.606047 
   57200    181.29113    -114.6464   0.16403602   -114.48236    3186.2637     4.276761     4.276761     4.276761    3186.2637   -1507.0619    14880.891    -3815.038    66.857998   -5811.6884    4513.3959    78.224889 
   57300    305.54316   -114.75856   0.27646187   -114.48209   -5014.2763    4.2791057    4.2791057    4.2791057   -5014.2763   -4581.6874   -4923.8691   -5537.2725    3766.6368   -1617.2742   -202.30892    78.353616 
   57400    217.22071   -114.67854   0.19654586     -114.482    4734.5253    4.2815608    4.2815608    4.2815608    4734.5253   -7385.7074    14476.971    7112.3127    3003.5609    1444.6837    2846.7371    78.488557 
   57500    322.57235   -114.77316   0.29187024   -114.48129    623.80912    4.2753639    4.2753639    4.2753639    623.80912   -719.11768     5968.858    -3378.313     -2096.32   -8383.6856    395.12505    78.148251 
   57600    240.05232   -114.69961   0.21720438    -114.4824   -2712.3949    4.2824602    4.2824602    4.2824602   -2712.3949   -16139.245      12034.2   -4032.1399    1915.1698   -2637.1042    2051.2367    78.538032 
   57700     295.3708   -114.74844   0.26725771   -114.48119   -174.01888    4.2783204    4.2783204    4.2783204   -174.01888   -9071.8018    2205.9331    6343.8121    4115.8239    3268.6271   -1427.4188    78.310488 
   57800    267.76999   -114.72337   0.24228392   -114.48109    2027.7593    4.2773897    4.2773897    4.2773897    2027.7593   -4952.5468    13512.701   -2476.8763    1824.0347    -940.6893   -971.88447     78.25939 
   57900    282.29135   -114.73724   0.25542315   -114.48181   -5046.6155    4.2818302    4.2818302    4.2818302   -5046.6155   -3916.9095   -4679.0391    -6543.898   -2265.3876   -8243.0426    364.01063    78.503373 
   58000    206.71629   -114.67017   0.18704124   -114.48313    704.86582    4.2769066    4.2769066    4.2769066    704.86582   -6370.0175    8718.8641   -234.24909    6187.7871   -408.84139    2672.2699    78.232875 
   58100    296.68418   -114.75107   0.26844608   -114.48262   -5165.9936    4.2808413    4.2808413    4.2808413   -5165.9936   -10895.307   -4495.8441   -106.82977    4688.0376    2158.5984   -2345.0007    78.448997 
   58200    311.44914   -114.76356   0.28180573   -114.48176   -1481.4812    4.2788774    4.2788774    4.2788774   -1481.4812   -2102.9818    8430.1112   -10771.573   -1574.9181   -6479.3778    1016.7197    78.341074 
   58300    271.94445   -114.72779   0.24606106   -114.48173   -1546.6804    4.2787957    4.2787957    4.2787957   -1546.6804   -6259.6404    7537.4573   -5917.8581    2398.5292   -2623.6104    382.74627    78.336587 
   58400    235.07046   -114.69473    0.2126967   -114.48203    3833.0157    4.2791006    4.2791006    4.2791006    3833.0157   -3308.3346    10254.809    4552.5727    3304.7554    1413.6014   -829.08571    78.353336 
   58500    317.03656   -114.76849   0.28686134   -114.48163    622.58315    4.2792416    4.2792416    4.2792416    622.58315   -1052.2981    5520.5313   -2600.4838    1981.6356   -1703.3697   -1989.9456    78.361082 
   58600    252.90281   -114.71077   0.22883178   -114.48194    4629.5953    4.2778726    4.2778726    4.2778726    4629.5953   -5124.7937    24335.304    -5321.725   -2188.2657   -7531.5393    900.85265    78.285897 
   58700    340.01636   -114.78951   0.30765395   -114.48186    -5579.375    4.2806609    4.2806609    4.2806609    -5579.375   -9446.0453   -5860.9698     -1431.11    5398.9927   -267.69096    2402.0248    78.439077 
   58800    271.01261    -114.7274   0.24521791   -114.48218    270.38743    4.2785083    4.2785083    4.2785083    270.38743   -6783.0087    7207.1569    387.01404    4884.8588    1899.3985    -1227.785    78.320804 
   58900    319.35957   -114.77086   0.28896325   -114.48189   -3319.4941    4.2788679    4.2788679    4.2788679   -3319.4941   -3861.2231    3222.9593   -9320.2185    863.31677   -7843.2207     278.4549    78.340554 
   59000    265.73557   -114.72258   0.24044313   -114.48213   -1740.5583    4.2803821    4.2803821    4.2803821   -1740.5583   -1312.5201    2689.6249   -6598.7798   -544.58932   -3391.4483   -2706.0439    78.423754 
   59100    316.82573   -114.76792   0.28667058   -114.48125   -1778.2136      4.27861      4.27861      4.27861   -1778.2136   -5279.0086   -4782.4756    4726.8432    5229.8829    219.75403    2745.2709    78.326388 
   59200    286.10797   -114.74042   0.25887651   -114.48154   -192.70035    4.2791751    4.2791751    4.2791751   -192.70035    -4385.129    13270.371   -9463.3429    2400.1558   -2553.3682   -5350.1915    78.357427 
   59300    389.13315   -114.83285   0.35209585   -114.48076   -3439.6408    4.2793802    4.2793802    4.2793802   -3439.6408    325.58098    950.63874   -11595.142    1004.0894   -4781.9846    2937.9856    78.368696 
   59400    267.99972   -114.72402   0.24249178   -114.48153    4174.4037    4.2805784    4.2805784    4.2805784    4174.4037   -1858.7351    15697.465   -1315.5184    5264.6026    761.33192   -737.46538    78.434543 
   59500    359.53102   -114.80667   0.32531122   -114.48136    1493.9671    4.2761761    4.2761761    4.2761761    1493.9671    7634.3809   -4214.4764    1061.9969    539.40502    -1910.314    1002.7525    78.192796 
   59600    235.25669   -114.69532    0.2128652   -114.48246    3457.7324    4.2812597    4.2812597    4.2812597    3457.7324   -3533.9971    17352.778   -3445.5838   -764.22076   -9914.4562   -2536.5282    78.471998 
   59700    412.21371    -114.8544   0.37297963   -114.48142   -4050.3528    4.2788909    4.2788909    4.2788909   -4050.3528   -5585.9897   -1069.2084   -5495.8602    1667.9928   -718.16323    370.49204    78.341817 
   59800    318.62624   -114.77015   0.28829972   -114.48185    470.07992    4.2779791    4.2779791    4.2779791    470.07992   -2222.5873   -1864.1515    5496.9786    9033.9147    2922.4792    2884.4822    78.291747 
   59900    318.83976   -114.77021   0.28849292   -114.48172   -5436.3391    4.2815364    4.2815364    4.2815364   -5436.3391   -9908.6252    151.10901    -6551.501   -260.67054   -4201.2307   -2263.2221    78.487217 
   60000     341.7484   -114.79043   0.30922113   -114.48121   -1984.2662    4.2783288    4.2783288    4.2783288   -1984.2662   -4102.0284    6330.4802   -8181.2505   -2160.0368    -10306.14    571.18518    78.310947 
   60100    306.18802   -114.75833   0.27704536   -114.48129    3951.9234    4.2793187    4.2793187    4.2793187    3951.9234    2998.8916   -1776.6691    10633.548    5288.7422     777.4779    270.78052    78.365316 
   60200    334.46282   -114.78452   0.30262899   -114.48189   -2024.0934    4.2793528    4.2793528    4.2793528   -2024.0934   -7969.3549    7459.7701   -5562.6955    3270.6368   -1734.0937     2019.129    78.367188 
   60300    317.95146   -114.76969   0.28768916     -114.482   -1290.9498     4.278499     4.278499     4.278499   -1290.9498   -3339.7423    5553.2397   -6086.3468   -938.42803   -7936.3696   -4042.9247    78.320295 
   60400     374.5887   -114.82017   0.33893573   -114.48124    2150.3793     4.280616     4.280616     4.280616    2150.3793   -3046.9675    14114.558   -4616.4526   -1671.2344   -2185.9302    234.86156     78.43661 
   60500    353.41486   -114.80147   0.31977719   -114.48169    1488.7062    4.2774989    4.2774989    4.2774989    1488.7062    639.20137   -1642.5362    5469.4535    8532.6482    1698.5258     3174.634    78.265385 
   60600    243.89133   -114.70339     0.220678   -114.48271    1663.6642    4.2783286    4.2783286    4.2783286    1663.6642   -12.854435    4564.8666    438.98035    1155.8101   -5951.8784     1364.107    78.310934 
   60700    335.37533   -114.78502   0.30345464   -114.48157   -2420.1555    4.2827309    4.2827309    4.2827309   -2420.1555   -10178.283    3890.8815   -973.06534   -891.77225   -7477.3756   -1519.4416    78.552922 
   60800    365.33584   -114.81119   0.33056354   -114.48062    4635.9538    4.2741151    4.2741151    4.2741151    4635.9538    2176.3738    2869.5319    8861.9556   -77.405873     1697.156   -250.66112    78.079789 
   60900    308.19605   -114.76087   0.27886227   -114.48201   -6987.8525    4.2820845    4.2820845    4.2820845   -6987.8525   -13654.124   -7708.0316    398.59818    6642.2241   -1332.0201    3411.2165    78.517362 
   61000    258.33548   -114.71633   0.23374737   -114.48258    -2615.613    4.2807799    4.2807799    4.2807799    -2615.613    -16509.19    13102.702   -4440.3509   -1875.5033   -8333.8125    677.04145    78.445622 
   61100    344.39304   -114.79256   0.31161406   -114.48094    5976.0105    4.2743218    4.2743218    4.2743218    5976.0105    272.27037    5384.5283    12271.233    1851.7858    -2971.251   -2342.2256    78.091118 
   61200    318.64851   -114.77027   0.28831987   -114.48195   -4423.3912     4.283949     4.283949     4.283949   -4423.3912   -11190.713    4533.5916   -6613.0524    2711.3806   -292.86214    990.40101    78.619973 
   61300    219.39157   -114.68231    0.1985101    -114.4838     86.55684    4.2757705    4.2757705    4.2757705     86.55684   -9723.7276    10911.371   -927.97323    2061.8244   -8507.9638    2765.5636    78.170549 
   61400    326.30102   -114.77827   0.29524402   -114.48303   -1082.0905    4.2795788    4.2795788    4.2795788   -1082.0905   -10445.713     13836.83   -6637.3889   -2353.4427   -5042.9986    2276.4272    78.379609 
   61500    345.28895   -114.79348    0.3124247   -114.48105    1548.3991    4.2806147    4.2806147    4.2806147    1548.3991   -8331.4209    6288.2453     6688.373    27.181818    2980.3917   -2939.2977    78.436536 
   61600    255.73357   -114.71316   0.23139311   -114.48176   -3794.8307    4.2771502    4.2771502    4.2771502   -3794.8307   -8834.4763   -3730.0804    1180.0646    6233.6381   -5695.4734    3436.0372    78.246243 
   61700    195.54732   -114.66024   0.17693532    -114.4833    679.43938    4.2802121    4.2802121    4.2802121    679.43938   -11078.939    11850.745    1266.5126   -784.34104   -7209.1152   -319.39236    78.414407 
   61800    379.56433   -114.82467   0.34343778   -114.48123   -1157.4655    4.2796003    4.2796003    4.2796003   -1157.4655   -599.94348   -742.06638   -2130.3865    1470.4413    405.03751    2764.7221    78.380789 
   61900    292.01478   -114.74596   0.26422111   -114.48174    2551.3303    4.2764544    4.2764544    4.2764544    2551.3303    -3955.604    179.39484      11430.2    1692.6211    1169.5674   -1268.4553    78.208062 
   62000    210.64752   -114.67353    0.1905983   -114.48293   -5238.0396    4.2832505    4.2832505    4.2832505   -5238.0396   -16655.628    5013.4225   -4071.9136    3029.2791   -8474.9924    1878.2443    78.581522 
   62100    282.19752   -114.73768   0.25533825   -114.48234    2777.0002    4.2754449    4.2754449    4.2754449    2777.0002   -5347.6887     12581.11    1097.5791    -4442.934   -5708.5163    258.23459    78.152692 
   62200    392.18837   -114.83597   0.35486028   -114.48111   -703.53894    4.2800373    4.2800373    4.2800373   -703.53894   -1217.4566    3598.9826   -4492.1428    2211.7097    2589.9446     45.85468    78.404804 
   62300    197.10914   -114.66195    0.1783485   -114.48361   -225.41302    4.2813652    4.2813652    4.2813652   -225.41302    -8119.103    11864.401   -4421.5372     3735.982   -5623.3595    1605.8569      78.4778 
   62400    252.92746   -114.71199   0.22885408   -114.48314    -2344.189    4.2746813    4.2746813    4.2746813    -2344.189   -5488.6194    9033.1084   -10577.056    1089.6215   -8368.8079    709.53994    78.110827 
   62500      326.965   -114.77711    0.2958448   -114.48126   -1630.4375    4.2835534    4.2835534    4.2835534   -1630.4375   -8067.6777    6090.7532   -2914.3881   -1534.3697    2036.7993    675.43962    78.598191 
   62600    357.26967   -114.80433   0.32326511   -114.48107    -189.0403    4.2774447    4.2774447    4.2774447    -189.0403   -6059.3998    4159.0946    1333.1843    22.008052   -1845.3435   -53.767286     78.26241 
   62700    201.61046   -114.66602   0.18242138    -114.4836   -1464.7436    4.2776253    4.2776253    4.2776253   -1464.7436    -6448.987    6664.9571   -4610.2009    3634.3753   -9719.7154     1861.112    78.272324 
   62800      268.151   -114.72599   0.24262866   -114.48337   -721.23291    4.2824687    4.2824687    4.2824687   -721.23291    -726.9078    7840.8829   -9277.6739   -1138.3873   -2217.3249    1155.4591      78.5385 
   62900    419.81995   -114.86073   0.37986191   -114.48087    3310.2598    4.2760941    4.2760941    4.2760941    3310.2598    4452.6256    4798.0382    680.11546    1749.8298    5123.6524   -1109.6961    78.188297 
   63000    231.21806   -114.69236   0.20921096   -114.48315    4678.6277    4.2795259    4.2795259    4.2795259    4678.6277   -4636.6613    10723.928    7948.6162    1043.8826   -5670.6302    1489.6138      78.3767 
   63100    256.29734   -114.71471   0.23190322    -114.4828    -4696.338    4.2815655    4.2815655    4.2815655    -4696.338   -10458.438    12618.873   -16249.449    1597.9774   -8059.4897    -288.4014    78.488817 
   63200     396.8354   -114.83969   0.35906501   -114.48063    1172.9019    4.2758602    4.2758602    4.2758602    1172.9019    3391.2607    2338.9605   -2211.5155   -1466.8973      689.142    1555.6683    78.175468 
   63300    300.17803   -114.75325   0.27160739   -114.48164    3119.6763    4.2816272    4.2816272    4.2816272    3119.6763    184.21467    13710.101   -4535.2863   -34.571154    141.20105   -2967.4052    78.492209 
   63400    270.54347   -114.72821   0.24479342   -114.48341   -6071.1666    4.2783267    4.2783267    4.2783267   -6071.1666   -3928.5119   -905.26963   -13379.718    1292.1811   -9061.3867    4508.3174    78.310831 
   63500    233.52101   -114.69471   0.21129472   -114.48342   -364.22283    4.2787183    4.2787183    4.2787183   -364.22283    -2209.609    9516.3379   -8399.3974     316.8818   -2237.5111    1361.9964    78.332335 
   63600    453.88814   -114.89161   0.41068753   -114.48092   -5243.8187    4.2820775    4.2820775    4.2820775   -5243.8187   -7669.3023   -1201.6471   -6860.5066    2939.4944    4134.3428   -757.39775    78.516979 
   63700    256.26608   -114.71461   0.23187494   -114.48273    3828.9081    4.2756053    4.2756053    4.2756053    3828.9081   -3403.7188    16287.334   -1396.8912    113.84854   -7887.2787    273.80883    78.161489 
   63800    276.47223   -114.73297   0.25015789   -114.48281   -5098.0144    4.2818269    4.2818269    4.2818269   -5098.0144   -6346.4346    974.79616   -9922.4048   -170.56331   -6826.7455    2361.7228     78.50319 
   63900    323.38343   -114.77407   0.29260413   -114.48146    6865.9019    4.2782285    4.2782285    4.2782285    6865.9019    5387.6013    23117.654   -7907.5492   -3274.1274    2685.7375   -755.30542    78.305442 
   64000    379.12902   -114.82409    0.3430439   -114.48105    4275.5362    4.2773384    4.2773384    4.2773384    4275.5362    595.02542    1256.1899    10975.393    3484.9879     237.4023   -563.04888    78.256573 
   64100    211.03037   -114.67372   0.19094471   -114.48278    2064.4533    4.2813344    4.2813344    4.2813344    2064.4533   -6897.9125    22758.917   -9667.6445    2977.8592   -7223.5159    1013.9993    78.476109 
   64200    365.65861   -114.81229   0.33085559   -114.48144   -5150.5156    4.2783357    4.2783357    4.2783357   -5150.5156   -8286.8116   -309.38402   -6855.3512   -1201.0214   -2101.2525    3461.7291    78.311326 
   64300     347.3927   -114.79576   0.31432822   -114.48143    2591.1307    4.2779509    4.2779509    4.2779509    2591.1307    17.253418    12692.764   -4936.6258   -2055.0342    2861.2615   -1299.8889    78.290195 
   64400    295.91865    -114.7504   0.26775341   -114.48265   -5070.6133    4.2815625    4.2815625    4.2815625   -5070.6133   -6173.1995   -3316.2216   -5722.4189       2383.6   -6469.4316   -1449.6716    78.488649 
   64500     210.9084   -114.67398   0.19083436   -114.48315   -1666.2622    4.2773457    4.2773457    4.2773457   -1666.2622   -4351.9213    9009.7229   -9656.5881    2890.0104   -5603.8829     3388.289    78.256977 
   64600    378.18327   -114.82307   0.34218817   -114.48088    -4934.146     4.280637     4.280637     4.280637    -4934.146   -6242.6106   -2401.7427   -6158.0846   -3126.2412    4023.8814     689.7245    78.437765 
   64700    325.45585   -114.77554   0.29447929   -114.48106    870.47841     4.279773     4.279773     4.279773    870.47841   -8056.4467    11839.156   -1171.2741    738.86978   -2229.1493    847.53465    78.390275 
   64800    299.64313   -114.75312    0.2711234   -114.48199   -1819.2756    4.2770507    4.2770507    4.2770507   -1819.2756   -8876.9423    10814.673   -7395.5572    2775.4697   -9082.0178    734.40542    78.240783 
   64900    237.02393   -114.69772   0.21446424   -114.48326    3072.3098    4.2815325    4.2815325    4.2815325    3072.3098   -2978.1199    13696.307   -1501.2574    1811.9349   -578.53207    4927.2602    78.487001 
   65000    376.21816   -114.82203    0.3404101   -114.48162    6385.8817    4.2764459    4.2764459    4.2764459    6385.8817    1936.4588    14294.049    2927.1371   -3967.0464    5356.9017   -4437.2727    78.207597 
   65100    254.23431   -114.71282   0.23003654   -114.48278    3556.2269    4.2797747    4.2797747    4.2797747    3556.2269   -2513.6149    11654.203    1528.0931    1723.8003   -5590.6479    283.60449    78.390373 
   65200    238.57764   -114.69869   0.21587006   -114.48282   -2770.2943    4.2801747    4.2801747    4.2801747   -2770.2943   -10966.747    9386.3595   -6730.4959    2531.1753   -6960.2284   -434.66474    78.412356 
   65300    390.80603   -114.83483   0.35360951   -114.48122   -6694.7069     4.278674     4.278674     4.278674   -6694.7069   -9983.1848   -3555.5796   -6545.3563    1732.2934    1395.6041     7053.353    78.329902 
   65400    263.30411   -114.72016   0.23824309   -114.48192    2463.8711    4.2785339    4.2785339    4.2785339    2463.8711   -1659.2738    9765.0558   -714.16894   -2785.8889    586.49345   -4451.1368    78.322211 
   65500    260.69718   -114.71865   0.23588429   -114.48277   -9751.2466    4.2818278    4.2818278    4.2818278   -9751.2466   -12282.318   -6349.3088   -10622.113    3483.4676   -6035.9961    1286.7606    78.503241 
   65600    208.82179   -114.67174   0.18894635   -114.48279    1286.8722    4.2775015    4.2775015    4.2775015    1286.8722   -3088.9159    5969.2731    980.25929    2557.9193   -420.64296    3569.6135    78.265526 
   65700    376.89817    -114.8215   0.34102538   -114.48048   -1975.9869    4.2804383    4.2804383    4.2804383   -1975.9869   -5524.7126    4295.6556   -4698.9035   -2754.2808    2724.5571   -1705.4601    78.426839 
   65800    261.04517   -114.71785   0.23619916   -114.48166    526.15522    4.2789192    4.2789192    4.2789192    526.15522   -8028.2055    18245.339   -8638.6677     549.2616   -6739.5638    17.290585    78.343369 
   65900    279.36919   -114.73518   0.25277911    -114.4824   -2938.2853    4.2791088    4.2791088    4.2791088   -2938.2853   -10892.781   -332.26784    2410.1927    4098.3991    -5823.551    965.79621    78.353784 
   66000    255.65392   -114.71374   0.23132104   -114.48242    8122.2854    4.2796216    4.2796216    4.2796216    8122.2854     981.5669    27315.653   -3930.3635    2053.4483      3016.57    5704.5089     78.38196 
   66100    356.12075   -114.80368   0.32222554   -114.48145    476.99081    4.2780199    4.2780199    4.2780199    476.99081    1178.8763   -1364.3382    1616.4343   -5171.3814    1014.1587   -3922.1834    78.293987 
   66200    164.09979    -114.6321   0.14848094   -114.48362    1243.9933    4.2798209    4.2798209    4.2798209    1243.9933   -2320.2075    13874.526   -7822.3382    2011.8032   -4697.1303   -307.97449    78.392909 
   66300    326.29791   -114.77725    0.2952412   -114.48201   -5545.7786    4.2803165    4.2803165    4.2803165   -5545.7786   -11688.785   -1400.9533   -3547.5978    4590.5568   -3003.2072    1487.3821    78.420147 
   66400    324.64211   -114.77507     0.293743   -114.48133    737.82454    4.2767551    4.2767551    4.2767551    737.82454   -1154.2929    11249.487   -7881.7208    1150.2022    1724.0918    1924.0826    78.224563 
   66500    328.36263   -114.77888   0.29710941   -114.48177   -8024.1816    4.2820072    4.2820072    4.2820072   -8024.1816   -9190.9178    -3297.861   -11583.766   -3195.9701   -4408.4704   -2640.8347     78.51311 
   66600    165.28684   -114.63278   0.14955501   -114.48322    1491.2338    4.2794824    4.2794824    4.2794824    1491.2338   -6198.7597     16170.01   -5497.5489    2755.8076   -4006.2634    4420.3412    78.374311 
   66700    365.58384   -114.81211   0.33078794   -114.48132    327.03406    4.2758376    4.2758376    4.2758376    327.03406    1095.9646    1052.3126    -1167.175    4144.5144     3160.201    3832.0386    78.174226 
   66800    268.29544    -114.7243   0.24275935   -114.48154    814.70331    4.2839468    4.2839468    4.2839468    814.70331   -4856.8603    20716.363   -13415.393   -2220.2033   -1601.5276   -2391.5612    78.619847 
   66900    354.68592   -114.80279   0.32092728   -114.48186   -5194.1628    4.2761735    4.2761735    4.2761735   -5194.1628    -8446.971      52.8376    -7188.355    1912.3548   -5107.6723   -1594.6511    78.192652 
   67000    216.72968   -114.67952   0.19610156   -114.48342    4581.5344    4.2790103    4.2790103    4.2790103    4581.5344     -5645.19    19137.306    252.48753    5440.2935   -1472.6836    3352.3638    78.348377 
   67100    393.50395   -114.83846   0.35605064   -114.48241   -4224.9571    4.2821815    4.2821815    4.2821815   -4224.9571   -5754.1901    1317.8659   -8238.5472    1534.2192    2733.4024   -492.41497      78.5227 
   67200    295.91647   -114.75091   0.26775144   -114.48315    4106.7155    4.2743896    4.2743896    4.2743896    4106.7155    5768.3515    9719.9663   -3168.1713   -2238.7351   -3807.3896   -3896.8662    78.094835 
   67300    245.53743   -114.70559   0.22216743   -114.48343   -1345.1152    4.2829906    4.2829906    4.2829906   -1345.1152   -7476.3882    7839.0392   -4397.9967    3209.4546   -3619.2081    822.72156    78.567218 
   67400    329.64592    -114.7805   0.29827056   -114.48223    1182.7306    4.2772584    4.2772584    4.2772584    1182.7306   -594.96503     9043.892   -4900.7352    2607.8829    1263.5924    3172.3796    78.252184 
   67500     408.2532   -114.85085   0.36939608   -114.48146    -2432.756    4.2785275    4.2785275    4.2785275    -2432.756    -3491.957    2785.1102   -6591.4212      -55.886   -970.45948   -1673.1995    78.321857 
   67600    256.95628   -114.71559   0.23249944   -114.48309    -1449.526    4.2822725    4.2822725    4.2822725    -1449.526   -11003.729    17420.321    -10765.17     2036.404   -4065.4288   -3092.2095    78.527704 
   67700    282.69999   -114.73878   0.25579289   -114.48299    2290.4498    4.2751258    4.2751258    4.2751258    2290.4498   -1103.4835   -106.39217    8081.2249    5806.6343   -772.11416    5422.1904    78.135196 
   67800    361.02618   -114.80853   0.32666408   -114.48187   -1427.3798    4.2823054    4.2823054    4.2823054   -1427.3798   -4556.5187    8684.8789   -8410.4996    638.94342    2118.3204   -2692.3259    78.529515 
   67900    322.91816   -114.77429   0.29218314    -114.4821   -2068.9099    4.2787328    4.2787328    4.2787328   -2068.9099   -5501.4698    6976.3992   -7681.6592   -2110.4396   -4582.0361   -1796.2555    78.333131 
   68000    266.59782   -114.72377   0.24122331   -114.48255   -1111.9835    4.2773501    4.2773501    4.2773501   -1111.9835   -8158.5848    3355.9398    1466.6943    5484.2308   -3271.1678   -2330.4484    78.257215 
   68100    389.32179   -114.83322   0.35226654   -114.48095   -4546.3918    4.2828732    4.2828732    4.2828732   -4546.3918   -12362.837    5176.6153   -6452.9538    2804.1018    549.32295    5834.8434    78.560756 
   68200    327.91474   -114.77761   0.29670415   -114.48091    4064.7094    4.2762147    4.2762147    4.2762147    4064.7094    605.08084    9177.0935    2411.9539   -2476.8673   -1442.7436   -2399.3644    78.194912 
   68300    303.81917   -114.75721   0.27490197   -114.48231   -1369.0758    4.2801939    4.2801939    4.2801939   -1369.0758   -4864.3374     5073.092    -4315.982    1828.7424   -2028.5907   -5370.8507    78.413407 
   68400    246.44963   -114.70562    0.2229928   -114.48263    3715.0905    4.2808873    4.2808873    4.2808873    3715.0905   -379.51808    12320.062   -795.27228    7076.2929    92.894404    2813.2358    78.451523 
   68500    392.70059   -114.83627   0.35532375   -114.48095    4047.7048    4.2747391    4.2747391    4.2747391    4047.7048    3437.6085    3970.5003    4735.0057   -824.95002    446.56028   -651.62827    78.113995 
   68600    362.94727   -114.81002   0.32840232   -114.48162   -5666.8893    4.2846785    4.2846785    4.2846785   -5666.8893   -13056.777    9152.4211   -13096.312   -2137.9189   -5470.7346   -257.06427    78.660139 
   68700    229.17739   -114.68958   0.20736452   -114.48222     2694.162    4.2764552    4.2764552    4.2764552     2694.162   -4374.2072    3524.2116    8932.4817      4930.36   -3852.6026   -2817.8276    78.208109 
   68800     332.6327   -114.78277   0.30097306    -114.4818   -1615.2748    4.2784597    4.2784597    4.2784597   -1615.2748   -6520.7403    973.23245    701.68334    9654.8422    3297.7341    4256.9252    78.318137 
   68900    355.17181   -114.80267   0.32136692    -114.4813   -3451.9241    4.2833985    4.2833985    4.2833985   -3451.9241   -5241.8583    -2282.122   -2831.7922    -5143.365   -114.71595   -1395.6267    78.589667 
   69000    237.96966   -114.69821   0.21531995   -114.48289     1727.804    4.2748214    4.2748214    4.2748214     1727.804    -4374.861    9750.8661     -192.593    601.73894   -5138.9364   -2021.7066    78.118507 
   69100    288.41495   -114.74377    0.2609639    -114.4828   -6048.7437    4.2813498    4.2813498    4.2813498   -6048.7437   -13953.383   -5285.1448    1092.2963    7424.6199   -1922.0415   -1549.0254    78.476955 
   69200    341.93956   -114.79093    0.3093941   -114.48154    -683.0951    4.2807831    4.2807831    4.2807831    -683.0951   -12325.033    9193.3414    1082.4066    2277.3484    1100.1373    1129.6837    78.445793 
   69300    339.38474   -114.78854   0.30708245   -114.48146    3392.0871    4.2754173    4.2754173    4.2754173    3392.0871   -2972.2469    9265.0532    3883.4551   -3028.9931   -1564.4917   -172.38773    78.151176 
   69400    181.66031   -114.64732   0.16437007   -114.48295    993.49897    4.2822653    4.2822653    4.2822653    993.49897   -9373.9545    13080.358   -725.90679    4022.5439   -3130.9241    398.04101    78.527309 
   69500    324.04025   -114.77468   0.29319843   -114.48148   -1911.5185    4.2778632    4.2778632    4.2778632   -1911.5185   -694.73331   -6053.9024    1014.0803    7372.6208    1979.2759    1471.8381     78.28538 
   69600    309.43856   -114.76141   0.27998651   -114.48142    5926.6942    4.2784822    4.2784822    4.2784822    5926.6942   -4004.5391    17857.675    3926.9464   -2873.0459   -399.70175   -2478.3083    78.319369 
   69700    318.91179   -114.77074   0.28855809   -114.48218   -7430.9249    4.2816366    4.2816366    4.2816366   -7430.9249   -9566.8108   -5414.6254   -7311.3384    1301.2226   -3453.3055   -1336.1176    78.492727 
   69800     176.7309   -114.64338   0.15990984   -114.48347   -892.57873    4.2759913    4.2759913    4.2759913   -892.57873   -8040.0972   -2217.8801    7580.2411    7693.2712   -2233.5686    382.45931    78.182657 
   69900    362.48631   -114.81002   0.32798523   -114.48204    -5524.058    4.2832783    4.2832783    4.2832783    -5524.058   -8206.5094   -9392.9059    1027.2412     4555.594    2762.7386     251.7158    78.583049 
   70000    266.89868   -114.72349   0.24149553   -114.48199    4433.2144    4.2763947    4.2763947    4.2763947    4433.2144   -814.62071      13772.1    342.16387   -5805.2583   -2987.8839   -166.79437    78.204787 
   70100    229.29741   -114.69012   0.20747312   -114.48264   -6313.1154    4.2791922    4.2791922    4.2791922   -6313.1154   -7515.3463   -9239.6625   -2184.3373    7913.1325   -3007.3789   -1471.9226    78.358368 
   70200    244.97998   -114.70422   0.22166304   -114.48255   -1135.6215    4.2822937    4.2822937    4.2822937   -1135.6215   -15535.562    6121.1283    6007.5696    4939.0571    424.66299    2592.2187    78.528871 
   70300    390.78706   -114.83402   0.35359234   -114.48042    4123.5944    4.2752338    4.2752338    4.2752338    4123.5944   -3709.1911    14594.836    1485.1379   -972.57386    1210.9558   -2821.5419    78.141115 
   70400    211.68481    -114.6739   0.19153687   -114.48236    2201.6629      4.27988      4.27988      4.27988    2201.6629    -7707.478    12060.609    2251.8572    -1571.163   -67.011925   -1054.8699    78.396156 
   70500    260.14446   -114.71804   0.23538418   -114.48266   -8308.7924    4.2825227    4.2825227    4.2825227   -8308.7924   -7158.3897   -9282.9373   -8485.0501    10850.473   -2224.1262     -511.593    78.541471 
   70600    236.27603   -114.69609   0.21378751    -114.4823    10673.857    4.2741125    4.2741125    4.2741125    10673.857    4443.7588    14565.057    13012.755    3939.2792    2937.0698    1983.4534    78.079646 
   70700    421.88372   -114.86274   0.38172925   -114.48102   -9963.1025    4.2835593    4.2835593    4.2835593   -9963.1025   -9644.1652   -5803.1497   -14441.993    -3034.452   -2956.4602   -2177.4388    78.598519 
   70800    169.28665   -114.63623   0.15317412   -114.48305   -2012.4548    4.2781928    4.2781928    4.2781928   -2012.4548    -3494.955   -5507.8513    2965.4418    5437.4476   -1355.4252   -1714.5929     78.30348 
   70900    303.82781   -114.75758   0.27490978   -114.48267   -4143.6866    4.2789238    4.2789238    4.2789238   -4143.6866   -8686.3496   -6355.6414    2610.9312    9152.9329    593.41299    1389.8034    78.343625 
   71000    339.30742   -114.78815   0.30701248   -114.48114    3527.6537    4.2805796    4.2805796    4.2805796    3527.6537      4490.93    7379.3107   -1287.2796   -2614.8613    3295.5492     441.5082    78.434609 
   71100    281.60425   -114.73653   0.25480144   -114.48173    -1009.363    4.2784175    4.2784175    4.2784175    -1009.363    1450.0516   -1217.3895   -3260.7513    312.14874     -2780.95   -2493.4412    78.315815 
   71200    245.38776   -114.70501     0.222032   -114.48298   -2277.0931    4.2797116    4.2797116    4.2797116   -2277.0931    -9422.793     4389.894   -1798.3803     11815.69   -1934.6112   -282.45168    78.386903 
   71300    330.66612   -114.78055   0.29919365   -114.48136    4108.9662    4.2794702    4.2794702    4.2794702    4108.9662   -7228.8319    10662.504     8893.227    3338.6655    1016.2252    56.606702    78.373639 
   71400    388.93415   -114.83291    0.3519158     -114.481    1115.8125    4.2776679    4.2776679    4.2776679    1115.8125   -490.57073    11168.099   -7330.0904   -4584.1461   -70.765848    2132.7036    78.274658 
   71500    255.26465   -114.71425   0.23096882   -114.48328   -3189.8513     4.281163     4.281163     4.281163   -3189.8513   -5599.4949   -4240.9615    270.90232    5730.7486     -253.072   -2554.9028    78.466683 
   71600    217.36697   -114.68032    0.1966782   -114.48364    3185.5888    4.2781912    4.2781912    4.2781912    3185.5888    4556.7116    5041.8059   -41.751309    10527.187    1282.4131   -127.19691    78.303391 
   71700    434.07319   -114.87386   0.39275854    -114.4811   -2591.5148      4.27921      4.27921      4.27921   -2591.5148   -4090.2795   -862.16541   -2822.0995     562.0605    4595.1534   -1448.2817    78.359343 
   71800    329.53878   -114.78056   0.29817362   -114.48239   -1980.7096    4.2802338    4.2802338    4.2802338   -1980.7096   -1460.1207    3460.9818   -7942.9897   -1625.8111   -3267.6264   -426.07669    78.415603 
   71900    273.31434   -114.73054   0.24730055   -114.48324   -3464.3302    4.2788432    4.2788432    4.2788432   -3464.3302   -7071.3558    -4242.745    921.11002    10889.408   -778.10235    89.344016    78.339195 
   72000    308.17753   -114.76103    0.2788455   -114.48219    3595.7581    4.2790028    4.2790028    4.2790028    3595.7581    1229.5157    10771.874   -1214.1157    3389.1404    3095.5924   -1372.1619    78.347966 
   72100    407.46878   -114.84925   0.36868632   -114.48056    902.36696    4.2805059    4.2805059    4.2805059    902.36696    4519.0962    3278.7506   -5090.7459   -811.11262    707.22024    530.26418    78.430556 
   72200    269.09391   -114.72618   0.24348183    -114.4827    670.38358    4.2777107    4.2777107    4.2777107    670.38358   -7101.9661    11492.587   -2379.4702    4656.8909   -3993.5856    -230.5615     78.27701 
   72300    312.70252    -114.7659   0.28293981   -114.48296   -4216.5356    4.2797768    4.2797768    4.2797768   -4216.5356   -11826.395   -4187.6798    3364.4683    10531.025     68.03558    1986.1976    78.390485 
   72400    373.91269   -114.81977   0.33832406   -114.48145    3091.9797    4.2798194    4.2798194    4.2798194    3091.9797   -881.01667    12313.429    -2156.473   -1396.8702    3181.1983   -1885.4912    78.392826 
   72500    387.42941   -114.83219   0.35055427   -114.48164   -2180.3536    4.2785698    4.2785698    4.2785698   -2180.3536    582.07115   -2135.7648    -4987.367    2932.4702   -459.46915   -1803.1055    78.324183 
   72600    166.16564   -114.63481   0.15035016   -114.48446    2804.9089    4.2785541    4.2785541    4.2785541    2804.9089    953.53556    2318.6282    5142.5629    10614.032    -2403.409    -2449.891    78.323321 
   72700    388.36126   -114.83373   0.35139743   -114.48234    -4756.973    4.2824804    4.2824804    4.2824804    -4756.973   -6039.1564   -4584.7741   -3646.9884    2394.4097     2179.563    2150.0204     78.53914 
   72800    396.46962   -114.83988   0.35873404   -114.48115    6275.3245     4.275088     4.275088     4.275088    6275.3245    459.82888    18277.546    88.598965   -2911.3886    422.43338    1484.7612    78.133121 
   72900    303.27052   -114.75697   0.27440554   -114.48256   -3536.3955    4.2822114    4.2822114    4.2822114   -3536.3955   -3862.3587   -3733.4216   -3013.4062    7062.3817   -1607.7382    -2405.607    78.524345 
   73000    218.75436   -114.68071   0.19793355   -114.48277    2770.1256    4.2798974    4.2798974    4.2798974    2770.1256   -2573.5117    9427.5865     1456.302    9916.1014   -775.84428   -1418.3268    78.397113 
   73100    388.25196   -114.83179   0.35129854   -114.48049    4279.5143     4.276132     4.276132     4.276132    4279.5143    6641.8939    7396.2973   -1199.6483   -1508.1486    4158.0066    679.45773    78.190378 
   73200    295.89461   -114.74926   0.26773167   -114.48153   -1153.8233    4.2825316    4.2825316    4.2825316   -1153.8233   -9627.1786    6994.7762   -829.06751    951.90264    -161.9065   -184.91686    78.541961 
   73300    282.59132   -114.73818   0.25569457   -114.48248   -8843.1767     4.278748     4.278748     4.278748   -8843.1767   -15671.859   -12465.436    1607.7651    12347.242   -3503.0895   -642.88982    78.333967 
   73400    270.68557   -114.72742     0.244922    -114.4825    1904.5824    4.2772748    4.2772748    4.2772748    1904.5824   -4264.4962    6581.4955    3396.7478     2956.254    1688.5497   -1785.3116    78.253082 
   73500    369.62731   -114.81584   0.33444656    -114.4814   -4717.1247    4.2835531    4.2835531    4.2835531   -4717.1247   -3425.0124   -9405.1495   -1321.2122   -2278.0729   -1005.5384    5107.3441    78.598177 
   73600    215.82039   -114.67833   0.19527883   -114.48305    927.60163    4.2754794    4.2754794    4.2754794    927.60163    122.39556   -499.07132    3159.4806    10505.339    535.65825   -2672.9684    78.154583 
   73700    206.54131   -114.67025   0.18688291   -114.48337    1761.3642    4.2810937    4.2810937    4.2810937    1761.3642   -5668.1479   -917.53622    11869.777    9511.8565   -764.99748   -1126.2267    78.462874 
   73800    388.76243   -114.83291   0.35176041   -114.48115   -885.29333    4.2800475    4.2800475    4.2800475   -885.29333   -8091.8921    11243.967   -5807.9548   -3168.9946    4312.6374   -2972.4649    78.405361 
   73900    296.01109   -114.74962   0.26783706   -114.48178    2213.0256     4.275948     4.275948     4.275948    2213.0256    485.74832   -3256.4826     9409.811    1146.1599    -1597.509     4060.476    78.180283 
   74000    172.64267   -114.63938   0.15621072   -114.48317   -275.01099    4.2834791    4.2834791    4.2834791   -275.01099   -5787.3446    7005.2827   -2042.9711    10378.701    -541.5864    138.80483    78.594102 
   74100     297.9904    -114.7513   0.26962797   -114.48167    1328.2937    4.2763057    4.2763057    4.2763057    1328.2937    3727.6329   -1573.5058    1830.7538    3553.5372    271.02727   -9.6310929    78.199905 
   74200    273.15584   -114.72865   0.24715714    -114.4815    2790.4159    4.2785946    4.2785946    4.2785946    2790.4159   -446.57916    6725.2506    2092.5764   -2458.2264    2767.5785     2770.207    78.325546 
   74300    299.51121   -114.75283   0.27100403   -114.48182   -10288.736    4.2838515    4.2838515    4.2838515   -10288.736   -14175.457   -16479.426   -211.32539    7859.2351   -2418.6882   -645.38248    78.614602 
   74400    198.48115   -114.66191   0.17958992   -114.48232    2061.5644    4.2735913    4.2735913    4.2735913    2061.5644   -5698.2615    4793.9762    7088.9784     9695.401   -619.66053    236.11339     78.05109 
   74500    346.78564   -114.79522   0.31377893   -114.48144   -6095.6321    4.2836062    4.2836062    4.2836062   -6095.6321   -5801.3787   -12966.414    480.89608   -3180.8005    4884.9536   -3052.7483    78.601097 
   74600    268.53221   -114.72469   0.24297359   -114.48172    893.39767    4.2791933    4.2791933    4.2791933    893.39767   -880.75584   -949.34539    4510.2942    3609.7921   -1174.6712    4765.6485    78.358426 
   74700    170.34083   -114.63728   0.15412797   -114.48316    4719.5111    4.2750266    4.2750266    4.2750266    4719.5111    1640.3941    257.39277    12260.746    12127.652   -1465.7104   -1116.9566    78.129756 
   74800    335.31472   -114.78537    0.3033998   -114.48197   -6298.9133     4.284464     4.284464     4.284464   -6298.9133   -12783.211    604.90715   -6718.4357    2548.7006   -78.103662    1394.1559    78.648327 
   74900    348.34901   -114.79615    0.3151935   -114.48096    809.05778    4.2770009    4.2770009    4.2770009    809.05778    574.87145    -4346.882    6199.1839   -3602.3551    3864.6867   -363.44805    78.238053 
   75000    228.09841   -114.68912   0.20638823   -114.48273    3423.2126    4.2771389    4.2771389    4.2771389    3423.2126   -2634.4155    9641.3411    3262.7121    6741.6805   -816.65707    1528.7985    78.245627 
   75100    268.65069   -114.72623   0.24308079   -114.48315   -6537.1745    4.2843314    4.2843314    4.2843314   -6537.1745   -795.96986   -15789.212   -3026.3417    8332.2314   -995.57637   -1172.1029    78.641024 
   75200    293.13885   -114.74665   0.26523819   -114.48142    7071.6552    4.2741623    4.2741623    4.2741623    7071.6552    8261.4596     6296.342     6657.164   -2184.4678    4838.7317    916.44935    78.082375 
   75300    388.42582   -114.83249   0.35145584   -114.48104   -5087.9347    4.2820491    4.2820491    4.2820491   -5087.9347   -1979.2274   -9107.7124   -4176.8642    950.21753   -222.55049    1957.2563    78.515415 
   75400    219.61868    -114.6817    0.1987156   -114.48298   -852.06896    4.2796205    4.2796205    4.2796205   -852.06896   -6457.5728   -3949.3825    7850.7484    8734.9319   -3183.6571    532.88998      78.3819 
   75500    348.73763   -114.79776   0.31554513   -114.48222   -1671.9826    4.2770647    4.2770647    4.2770647   -1671.9826    143.29002   -5730.1118    570.87412    4505.0254   -1308.8705   -1790.2335    78.241553 
   75600    346.10504   -114.79471   0.31316311   -114.48154    1348.2879    4.2830286    4.2830286    4.2830286    1348.2879    2602.4103   -1109.3147    2551.7683    -2354.669    4835.2592    228.89265    78.569307 
   75700    276.85677    -114.7328   0.25050582   -114.48229    2986.4263    4.2753676    4.2753676    4.2753676    2986.4263    2451.5061    3165.7301    3342.0428    7722.9104     679.5508   -1591.5001    78.148454 
   75800    304.77404   -114.75826   0.27576596   -114.48249   -5236.1272    4.2810533    4.2810533    4.2810533   -5236.1272   -10941.884   -5359.8784    593.38102    4220.9835   -1834.7131    768.07429    78.460648 
   75900     385.9808   -114.83028   0.34924354   -114.48104    164.18479    4.2813056    4.2813056    4.2813056    164.18479   -9.5718528    4022.6777   -3520.5515   -479.69594    435.69462   -996.88861    78.474523 
   76000    357.49495   -114.80525   0.32346894   -114.48178    5314.1876    4.2740952    4.2740952    4.2740952    5314.1876    5026.6546    5667.1712    5248.7369    1349.9043    725.43652    5068.7115    78.078699 
   76100    276.09728    -114.7333   0.24981862   -114.48348   -4480.8711    4.2838291    4.2838291    4.2838291   -4480.8711    1777.3701   -9516.3166   -5703.6669    8674.5992    354.09114   -3139.5324     78.61337 
   76200     283.9604   -114.73946   0.25693334   -114.48253    2935.9702    4.2784543    4.2784543    4.2784543    2935.9702     6358.953   -725.63103    3174.5888    775.19036   -2717.6125    256.12976    78.317836 
   76300    468.68712   -114.90477   0.42407795   -114.48069    202.40832    4.2759733    4.2759733    4.2759733    202.40832    3376.3991    1583.9424   -4353.1165   -1117.8687    3366.6871   -1198.1142     78.18167 
   76400    294.05791   -114.74868   0.26606978   -114.48261   -2130.0549     4.284357     4.284357     4.284357   -2130.0549    1127.8974   -12144.989    4626.9274    4376.5721    -1093.816    1779.5462    78.642434 
   76500    281.49727   -114.73736   0.25470464   -114.48266   -1360.7221    4.2765256    4.2765256    4.2765256   -1360.7221    677.54699   -3630.9608   -1128.7526    7863.7354    1133.7738   -2302.5261     78.21197 
   76600    328.33366   -114.77897    0.2970832   -114.48188    2991.6345    4.2790437    4.2790437    4.2790437    2991.6345     8521.673   -2455.0965     2908.327   -2337.8399    567.04695   -2443.2669    78.350208 
   76700    407.06051   -114.84919    0.3683169   -114.48087   -3936.9216    4.2818577    4.2818577    4.2818577   -3936.9216   -6614.4442   -2704.0011   -2492.3195    3935.0011    -709.9472    3528.6803    78.504884 
   76800    285.62417   -114.74061   0.25843875   -114.48217   -2631.6949    4.2761076    4.2761076    4.2761076   -2631.6949   -5596.6392   -8627.7758    6329.3304    5568.6492   -2307.8458   -4116.4031    78.189041 
   76900    261.30201   -114.71917   0.23643155   -114.48273   -467.25988    4.2824602    4.2824602    4.2824602   -467.25988     455.2369     2202.159   -4059.1756    1941.4154   -861.94449   -691.49666    78.538028 
   77000    389.67759   -114.83396   0.35258848   -114.48137    3831.3642    4.2767813    4.2767813    4.2767813    3831.3642    15187.708   -813.50961   -2880.1061   -2841.9743    4459.5399   -3560.9206       78.226 
   77100    317.22396   -114.76924   0.28703091   -114.48221    456.56117    4.2797679    4.2797679    4.2797679    456.56117   -128.43174   -4134.2704    5632.3857    5848.8534   -277.65299    3592.9117    78.389997 
   77200    232.87163   -114.69357   0.21070714   -114.48287   -447.95036    4.2823612    4.2823612    4.2823612   -447.95036    8664.5257   -2961.8728    -7046.504    3458.6417   -3589.1985   -3153.7388    78.532585 
   77300    353.91376   -114.80155   0.32022861   -114.48132    2930.2455    4.2744864    4.2744864    4.2744864    2930.2455    5836.3382   -882.18305    3836.5813   -323.43288   -352.32156   -600.96948    78.100139 
   77400    320.92015   -114.77187   0.29037529   -114.48149    975.22946    4.2821709    4.2821709    4.2821709    975.22946     16916.77   -10004.516    -3986.566    452.66781     528.7647    707.89022    78.522114 
   77500    275.60566   -114.73259   0.24937379   -114.48322   -5023.8665    4.2803197    4.2803197    4.2803197   -5023.8665   -5083.1394   -13111.022    3122.5619    7710.4779   -446.71952   -1823.7042     78.42032 
   77600    195.28407   -114.66072   0.17669713   -114.48402    1833.1202    4.2745231    4.2745231    4.2745231    1833.1202    2368.2435   -1142.2009    4273.3181    2327.6756   -4274.1447   -2677.7226    78.102155 
   77700    383.56782   -114.82837   0.34706022   -114.48131   -9533.5865    4.2849518    4.2849518    4.2849518   -9533.5865   -4373.5616   -13786.571   -10440.627   -3027.1044    2937.7133   -3573.1161    78.675193 
   77800     262.2114   -114.71885   0.23725439    -114.4816    689.19721    4.2771438    4.2771438    4.2771438    689.19721    8599.8896   -13435.152    6902.8539    7038.0706   -405.51314    4070.7877    78.245896 
   77900    207.87565   -114.67097   0.18809026   -114.48288   -2682.9092    4.2784733    4.2784733    4.2784733   -2682.9092   -2953.4319   -3604.8213   -1490.4744     3298.455    -1816.459   -4283.6752    78.318884 
   78000    270.23365   -114.72666   0.24451309   -114.48215   -2329.1769     4.282741     4.282741     4.282741   -2329.1769    10634.583   -9090.4261   -8531.6875    803.90083   -3327.7164   -215.33513    78.553483 
   78100    368.96403   -114.81404   0.33384641   -114.48019    3507.4279    4.2750437    4.2750437    4.2750437    3507.4279    5362.3787   -2133.8859    7293.7909   -942.57998    746.30464   -952.04407    78.130693 
   78200     190.4627   -114.65516   0.17233466   -114.48283    3356.9041    4.2820662    4.2820662    4.2820662    3356.9041    18155.776   -7667.4838   -417.57977    6004.2814   -688.68405   -1170.0717    78.516353 
   78300    227.59904   -114.68851    0.2059364   -114.48257    1358.2804     4.278031     4.278031     4.278031    1358.2804    5583.9497    1301.8384    -2810.947   -254.81844   -3382.5301   -1955.2928    78.294595 
   78400    326.82453   -114.77659    0.2957177   -114.48087    2151.8704    4.2777772    4.2777772    4.2777772    2151.8704    10174.375   -5965.1155    2246.3512    49.396268    2831.7087    -1451.714    78.280663 
   78500    334.70632   -114.78387   0.30284931   -114.48102   -3412.8447    4.2831875    4.2831875    4.2831875   -3412.8447    5010.1842   -11940.733   -3307.9853    4068.3936   -258.08202    2656.0731    78.578053 
   78600    127.24886    -114.5985   0.11513744   -114.48337    3606.4985    4.2753596    4.2753596    4.2753596    3606.4985    5039.1114   -811.47588      6591.86    5527.3878   -2028.4454   -3333.1747    78.148013 
   78700    290.91755   -114.74556   0.26322831   -114.48233   -7946.9004    4.2812562    4.2812562    4.2812562   -7946.9004   -3641.5202   -10267.012   -9932.1689   -1630.5371   -5335.9966   -591.22492    78.471806 
   78800    340.30286    -114.7892   0.30791318   -114.48129   -3738.5068    4.2815501    4.2815501    4.2815501   -3738.5068    1022.8126   -13071.406    833.07336    2257.3526   -54.662771   -27.567555    78.487969 
   78900    272.99802   -114.73004   0.24701435   -114.48302   -431.96136    4.2738552    4.2738552    4.2738552   -431.96136   -547.80232    -5325.754    4577.6723    7328.2054    1186.4768    290.77262    78.065547 
   79000     176.8108   -114.64408   0.15998213    -114.4841   -4086.1501    4.2840475    4.2840475    4.2840475   -4086.1501    8113.3335   -11530.698   -8841.0857    -315.3203   -4692.3235   -3556.3143    78.625395 
   79100    337.98448   -114.78731   0.30581546    -114.4815    2076.1243    4.2780136    4.2780136    4.2780136    2076.1243    10199.343   -686.47938   -3284.4906      -1802.4    545.53802   -748.88786    78.293639 
   79200    373.49626   -114.81943   0.33794726   -114.48148    3710.7162    4.2771315    4.2771315    4.2771315    3710.7162    12520.645   -6875.3785    5486.8821    4613.3521   -234.35326    2455.9853    78.245218 
   79300    173.35448    -114.6406   0.15685478   -114.48375    1562.5228    4.2829419    4.2829419    4.2829419    1562.5228     8285.095   -1406.7501   -2190.7766    4577.9091   -862.94022   -2218.9156    78.564534 
   79400    329.35863   -114.78036   0.29801061   -114.48235   -6.0154672    4.2751929    4.2751929    4.2751929   -6.0154672    5052.3403   -3369.6307   -1700.7561    -3779.939   -4928.5996   -529.77736    78.138875 
   79500    340.28155   -114.78953    0.3078939   -114.48163    2706.7222    4.2821281    4.2821281    4.2821281    2706.7222    7824.9847   -2639.0143    2934.1961    668.66867    -1405.398    869.45228     78.51976 
   79600    331.61895   -114.78223   0.30005579   -114.48217   -4243.7186    4.2786682    4.2786682    4.2786682   -4243.7186   -9939.8771    -1993.553   -797.72586    4012.6131    1759.1046   -582.89899    78.329587 
   79700     206.6377   -114.66993   0.18697013   -114.48296   -1317.3195      4.27683      4.27683      4.27683   -1317.3195   -5179.8801   -4806.2464     6034.168     6277.362   -5175.1301   -1354.7073    78.228674 
   79800    363.83024   -114.81044   0.32920125   -114.48124   -4935.2876    4.2847341    4.2847341    4.2847341   -4935.2876    1673.1423     -4769.65   -11709.355   -4501.5859   -371.16522   -927.19205    78.663201 
   79900    358.17126   -114.80474   0.32408088   -114.48066    2224.9985    4.2749077    4.2749077    4.2749077    2224.9985    8141.7333   -6701.3685    5234.6305    7288.8575   -123.75902    3490.8576    78.123237 
   80000    272.38049    -114.7286   0.24645559   -114.48214   -3759.3521    4.2804367    4.2804367    4.2804367   -3759.3521   -3690.3433   -4332.5823   -3255.1306    1826.3912   -1209.7027   -1883.9356    78.426755 
   80100    325.44355   -114.77634   0.29446816   -114.48187   -3825.5504     4.283237     4.283237     4.283237   -3825.5504    9319.0877   -8654.7779   -12140.961    391.89767   -6234.8778   -401.35638    78.580779 
   80200    378.94662   -114.82332   0.34287887   -114.48044    8159.7604    4.2730366    4.2730366    4.2730366    8159.7604    11296.623    5831.4528    7351.2059   -711.36954   -385.67672    2294.5803    78.020699 
   80300     313.7038   -114.76559   0.28384579   -114.48174   -880.60983    4.2832165    4.2832165    4.2832165   -880.60983    12572.658   -7896.7107   -7317.7773    4189.5154    3962.1166   -618.48663     78.57965 
   80400    292.87899   -114.74781   0.26500306    -114.4828   -2924.1226     4.278927     4.278927     4.278927   -2924.1226   -10258.053   -502.29755    1987.9829   -330.07553   -3839.7955   -1790.9567    78.343799 
   80500    355.74758   -114.80445   0.32188788   -114.48256    3071.9162    4.2762493    4.2762493    4.2762493    3071.9162    6116.7877    5121.5213   -2022.5604   -2532.0739    -3397.193    241.77099     78.19681 
   80600    372.17301   -114.81792   0.33674996   -114.48117   -1895.9021    4.2839332    4.2839332    4.2839332   -1895.9021   -3894.7102   -206.18467   -1586.8114    3221.2987   -730.08509    4326.3238    78.619098 
   80700     278.0612    -114.7336   0.25159562     -114.482    487.81718     4.275449     4.275449     4.275449    487.81718     2918.904    -5786.486    4331.0335    1281.7825    1821.9794   -4173.2494    78.152915 
   80800    282.43474   -114.73846   0.25555288   -114.48291    119.81614    4.2808309    4.2808309    4.2808309    119.81614   -3883.3421    7512.8117   -3270.0212   -41.898207   -5074.1866    700.42304    78.448425 
   80900    392.77748   -114.83636   0.35539332   -114.48097   -1777.7467    4.2814697    4.2814697    4.2814697   -1777.7467    5152.6776   -7969.3672   -2516.5506   -1196.6394   -922.43858    1386.7153    78.483549 
   81000    327.52937   -114.77765   0.29635546    -114.4813    2848.1456    4.2733656    4.2733656    4.2733656    2848.1456    1218.6594    2931.8072    4393.9704    4960.0065    1202.1642    3971.8808    78.038721 
   81100    267.89965   -114.72541   0.24240124   -114.48301   -4331.2484    4.2858022    4.2858022    4.2858022   -4331.2484    6609.1203   -11927.551    -7675.314    651.61704   -2232.0759   -3999.4782    78.722046 
   81200     301.4376   -114.75459   0.27274707   -114.48184    4255.4026    4.2756726    4.2756726    4.2756726    4255.4026    7642.9684    7705.5985   -2582.3591    141.68027     -1162.13    3214.4121    78.165177 
   81300     337.7166   -114.78626   0.30557308   -114.48069    1317.6986    4.2772853    4.2772853    4.2772853    1317.6986    10325.717   -6095.6995   -276.92195     1298.413    848.10618    4902.4654     78.25366 
   81400    356.08632   -114.80364   0.32219439   -114.48145   -8512.4523    4.2851928    4.2851928    4.2851928   -8512.4523   -10698.561   -8375.9036   -6462.8928   -929.76508   -655.53269   -2183.1717    78.688469 
   81500    218.85017   -114.68039   0.19802023   -114.48237    5515.9092    4.2738902    4.2738902    4.2738902    5515.9092    2854.8368    10145.815    3547.0756   -1936.3902    -6362.738   -57.130593    78.067464 
   81600    332.17503   -114.78206   0.30055894    -114.4815   -2689.4025     4.280866     4.280866     4.280866   -2689.4025    4939.2822   -3772.1713   -9235.3183    1473.1896    220.11318    1309.8239    78.450353 
   81700    302.60458   -114.75494   0.27380298   -114.48114   -1894.6251    4.2825114    4.2825114    4.2825114   -1894.6251    1081.1645   -10994.608    4229.5686    1929.2832    3225.8023    2434.5573    78.540848 
   81800    260.17114   -114.71735   0.23540831   -114.48194    4687.1332    4.2735828    4.2735828    4.2735828    4687.1332    1023.2032    9414.4428    3623.7537    872.89753   -3928.5031   -4283.7636     78.05062 
   81900    271.58292   -114.72819   0.24573393   -114.48245   -4340.1389    4.2841407    4.2841407    4.2841407   -4340.1389   -1935.9889   -11001.207   -83.220598   -3224.0948   -3609.1061    4307.1341    78.630525 
   82000    317.15928   -114.76877   0.28697238    -114.4818    -1385.745    4.2775285    4.2775285    4.2775285    -1385.745    5051.6065   -7596.7747   -1612.0667    3189.6398   -22.699894    3100.0844    78.267008 
   82100    283.62786   -114.73877   0.25663245   -114.48214    4033.1874    4.2770637    4.2770637    4.2770637    4033.1874    7665.0057   -2625.7586     7060.315   -362.07615    3633.1906   -1227.0774    78.241498 
   82200    231.14467   -114.69137   0.20914455   -114.48222    -2052.638    4.2837284    4.2837284    4.2837284    -2052.638    1012.4772   -2758.3304    -4412.061    1188.9256   -6566.9184   -1589.4943    78.607824 
   82300    244.24288   -114.70244   0.22099609   -114.48145   -159.14314    4.2743094    4.2743094    4.2743094   -159.14314    5053.1047   -5631.5308    100.99667   -3249.4869    895.37555    7708.4816    78.090438 
   82400    341.81393   -114.79062   0.30928043   -114.48134   -4204.3972    4.2821067    4.2821067    4.2821067   -4204.3972   -2956.5716   -5942.4641   -3714.1559    3423.1483    1441.5155    1791.6899    78.518581 
   82500    270.48387   -114.72613   0.24473949   -114.48139   -135.26938    4.2800446    4.2800446    4.2800446   -135.26938   -7306.1913    6654.2566    246.12659   -696.43484    -1667.717   -1723.6384    78.405203 
   82600    217.03184    -114.6783   0.19637497   -114.48193   -569.84268    4.2747447    4.2747447    4.2747447   -569.84268    4724.1236   -3600.6287   -2833.0229   -1241.6078   -4425.7818    780.88349    78.114303 
   82700    281.42327   -114.73652   0.25463769   -114.48188   -4761.0471    4.2848122    4.2848122    4.2848122   -4761.0471   -1182.9472   -7164.5367   -5935.6574   -240.38704    560.44699    5548.0151    78.667507 
   82800    286.82685   -114.74058   0.25952696   -114.48105    5444.9985    4.2763183    4.2763183    4.2763183    5444.9985    4982.6515     389.5689    10962.775   -543.40277    3015.9285   -4267.5101    78.200597 
   82900    291.54107    -114.7455   0.26379249   -114.48171   -3569.0165     4.277696     4.277696     4.277696   -3569.0165   -5496.8955    224.71781   -5434.8718    1359.8148   -6905.5003   -637.66715    78.276204 
   83000    206.50317   -114.66964   0.18684841   -114.48279    -5067.764    4.2848717    4.2848717    4.2848717    -5067.764     2245.697   -16367.538   -1081.4514   -1180.4205   -709.31408    4794.1355    78.670783 
   83100    355.30501   -114.80224   0.32148744   -114.48075    3785.7058    4.2735797    4.2735797    4.2735797    3785.7058    6474.0869   -482.17019    5365.2009    3290.2351   -370.48833    2956.7286    78.050453 
   83200    285.20218   -114.73924   0.25805692   -114.48118    2143.7877    4.2807695    4.2807695    4.2807695    2143.7877    3384.9962    -649.8029    3696.1697   -493.96983     1692.537   -4192.2086    78.445046 
   83300    203.46636    -114.6666   0.18410064    -114.4825   -3555.4053    4.2817984    4.2817984    4.2817984   -3555.4053    1953.1327   -7295.4168   -5323.9318   -2536.2279   -4767.5263    6167.3969    78.501624 
   83400    304.01083   -114.75702   0.27507539   -114.48194    1094.5265     4.274532     4.274532     4.274532    1094.5265    4424.6314   -4346.5402    3205.4882   -1224.7555    2163.1992    7031.3181    78.102642 
   83500    368.50972   -114.81441   0.33343534   -114.48098   -199.34622    4.2828051    4.2828051    4.2828051   -199.34622     -6049.27    10045.802   -4594.5703    539.67761    218.44672   -3661.1046    78.557009 
   83600    293.60484   -114.74832   0.26565983   -114.48266   -2315.4626    4.2779638    4.2779638    4.2779638   -2315.4626   -5161.3968   -8159.4638    6374.4728    4467.0957   -2965.7852   -714.66705    78.290903 
   83700    209.98502   -114.67396   0.18999886   -114.48396   -295.79401    4.2781387    4.2781387    4.2781387   -295.79401    3163.6713    4474.2309   -8525.2842   -1159.8486   -1897.8403     7695.969    78.300506 
   83800    351.62268   -114.79959   0.31815559   -114.48144    552.67124    4.2818485    4.2818485    4.2818485    552.67124    395.80874   -3041.1224    4303.3274    102.80607    25.592172    4373.9007    78.504378 
   83900    393.38706   -114.83674   0.35594488    -114.4808    610.90229    4.2759863    4.2759863    4.2759863    610.90229   -541.33991    4144.5447    -1770.498   -1910.8993   -780.04882   -8145.6204    78.182386 
   84000     223.1176   -114.68539   0.20188149   -114.48351   -2041.4867    4.2817772    4.2817772    4.2817772   -2041.4867   -468.82922   -4525.3942   -1130.2368    1688.1757   -6243.1197    4800.8705    78.500459 
   84100    343.52506   -114.79338   0.31082869   -114.48255   -3113.7338    4.2795126    4.2795126    4.2795126   -3113.7338    2896.8714   -9628.9498   -2609.1228   -385.66619    2724.6413    7918.4783    78.375968 
   84200     368.4249   -114.81423   0.33335859   -114.48087    6968.2674    4.2753988    4.2753988    4.2753988    6968.2674    7711.7408    5835.3095    7357.7518   -386.48291   -317.82668    912.52504    78.150162 
   84300    331.11717    -114.7818   0.29960177   -114.48219   -3276.0618    4.2838433    4.2838433    4.2838433   -3276.0618    2086.0155   -3649.9329   -8264.2681    1159.5873   -3164.4639   -4472.4253    78.614149 
   84400    263.33887   -114.72162   0.23827454   -114.48335   -739.88128    4.2765337    4.2765337    4.2765337   -739.88128       1588.2    -6429.655    2621.8111   -1528.1474   -2951.7367    9392.2206    78.212415 
   84500    354.93003   -114.80337   0.32114815   -114.48223    2535.7819    4.2779397    4.2779397    4.2779397    2535.7819    780.48134     7321.809   -494.94476    2975.7297    1688.4232    5866.4757    78.289581 
   84600    436.65435    -114.8761   0.39509403   -114.48101   -3918.8346    4.2836126    4.2836126    4.2836126   -3918.8346   -7099.2881   -7165.5558      2508.34   -3849.3898    324.82633   -2705.5261    78.601451 
   84700    240.69615    -114.7007   0.21778693   -114.48291    2622.3331    4.2753805    4.2753805    4.2753805    2622.3331    5193.5983    4789.5329   -2116.1319    1861.5219   -2035.1836    2278.9422    78.149159 
   84800    286.48122   -114.74234   0.25921423   -114.48312   -2134.7409    4.2804081    4.2804081    4.2804081   -2134.7409    1057.3577   -3447.5415    -4014.039   -3208.0337   -2407.0433    5787.2663     78.42518 
   84900    406.94023   -114.84891   0.36820807    -114.4807    109.36077    4.2806645    4.2806645    4.2806645    109.36077     272.2814   -5673.7056    5729.5065    4941.3341   -311.02624    167.09741    78.439274 
   85000    348.56083   -114.79665   0.31538516   -114.48127    926.13196    4.2772493    4.2772493    4.2772493    926.13196   -1302.2003    4207.9131    -127.3169    1238.2315   -5348.8842   -516.84694    78.251687 
   85100    247.55283   -114.70683   0.22399101   -114.48284   -3724.6296     4.280783     4.280783     4.280783   -3724.6296    61.267917   -9380.0843   -1855.0724   -1408.4197   -3043.2405    8006.7004    78.445791 
   85200    324.37816   -114.77581   0.29350418    -114.4823    -616.3262    4.2788003    4.2788003    4.2788003    -616.3262    4360.3719   -4680.9516   -1528.3989   -2286.0578     1034.022    3410.7112    78.336843 
   85300    407.65238   -114.84987   0.36885244   -114.48101    530.72021     4.279314     4.279314     4.279314    530.72021    263.41353    -2897.869    4226.6161    -1623.555   -227.11621   -3383.3769    78.365061 
   85400    241.22389   -114.70136   0.21826444   -114.48309    264.28548    4.2796665    4.2796665    4.2796665    264.28548    2685.8324    204.40394   -2097.3799    2780.3036   -4950.5808    5707.8894    78.384427 
   85500     209.7643   -114.67326   0.18979915   -114.48346   -1293.9923    4.2779719    4.2779719    4.2779719   -1293.9923    5715.6133   -12834.782    3237.1913   -2587.1689    29.240101    8448.8339    78.291349 
   85600    443.84599   -114.88227   0.40160118   -114.48067   -4421.3381    4.2808624    4.2808624    4.2808624   -4421.3381   -7560.0009   -3378.2779   -2325.7355    1981.2472    -156.1082    -868.2963    78.450157 
   85700     262.6654   -114.72023   0.23766517   -114.48256    7556.5619    4.2784244    4.2784244    4.2784244    7556.5619    7218.8544    4456.3633    10994.468   -207.53596   -1967.5481   -1083.6746    78.316196 
   85800    237.29697   -114.69816   0.21471129   -114.48345   -3524.7434    4.2778322    4.2778322    4.2778322   -3524.7434    885.72928   -7688.4594   -3771.4999    1031.8292   -3418.3365    10063.961    78.283682 
   85900    230.98302   -114.69179   0.20899829   -114.48279   -272.73433    4.2815206    4.2815206    4.2815206   -272.73433    3341.2653   -13610.433    9450.9649   -2998.9562   -1519.4773    4060.9215    78.486344 
   86000    405.41303   -114.84691   0.36682623   -114.48009    1894.0105    4.2778132    4.2778132    4.2778132    1894.0105    2712.2766    304.81786     2664.937   -572.65259    2944.1668   -3875.2614     78.28264 
   86100    244.86539     -114.704   0.22155935   -114.48244   -1426.2237     4.279032     4.279032     4.279032   -1426.2237   -4439.0339   -5462.9752    5623.3379    1651.3317   -6417.5446    4115.9631    78.349565 
   86200    165.67165   -114.63374   0.14990319   -114.48383   -5567.3276    4.2804723    4.2804723    4.2804723   -5567.3276     8103.664    -16023.38   -8782.2665    -1084.467   -662.41878    9479.7738    78.428713 
   86300    344.16461   -114.79303   0.31140737   -114.48162    -1307.964    4.2788839    4.2788839    4.2788839    -1307.964   -2787.0577   -11660.296    10523.461   -1528.8871   -3708.9524    787.60757    78.341431 
   86400    303.51456     -114.756   0.27462635   -114.48137    2376.8054    4.2791205    4.2791205    4.2791205    2376.8054    4610.5738    3399.5313   -879.68882    249.25371   -1302.8451   -1259.1334    78.354431 
   86500    168.68963   -114.63586   0.15263392   -114.48322    -5161.176    4.2792586    4.2792586    4.2792586    -5161.176    2567.5344   -14831.143   -3219.9193   -295.11484   -2420.5165    11077.825    78.362014 
   86600    282.61744   -114.73817   0.25571819   -114.48245   -6297.5571    4.2805554    4.2805554    4.2805554   -6297.5571    178.05365   -15102.704   -3968.0209   -2033.1894    1858.1322    4115.8017    78.433277 
   86700    312.83091   -114.76429   0.28305598   -114.48123    7978.8709    4.2783531    4.2783531    4.2783531    7978.8709    -1837.853    9620.7575    16153.708   -2100.6987    535.02533   -4766.9452     78.31228 
   86800     306.0295   -114.75954   0.27690192   -114.48264   -1768.3423    4.2780533    4.2780533    4.2780533   -1768.3423    6626.9169   -11275.746   -656.19768    1789.0623    -5547.358    4938.4943    78.295821 
   86900     121.2951   -114.59406   0.10975036   -114.48431   -740.55253    4.2817631    4.2817631    4.2817631   -740.55253    2995.7758    -11060.69    5843.2562   -175.46773   -1039.3732    9192.3199    78.499686 
   87000    374.56222   -114.82033   0.33891177   -114.48142     709.9809    4.2778839    4.2778839    4.2778839     709.9809    4967.4112   -4943.4436     2105.975     735.0642   -1812.0029     345.9015    78.286516 
   87100    316.97865   -114.76811   0.28680894    -114.4813    5069.9176     4.278765     4.278765     4.278765    5069.9176   -1644.5063    5861.6607    10992.598    -1059.765    3533.8267    -2992.516    78.334902 
   87200    214.35193   -114.67713   0.19395013   -114.48318    -6890.464    4.2815642    4.2815642    4.2815642    -6890.464    265.64219   -14503.457   -6433.5773    -667.8181   -6384.8626    9257.3986    78.488744 
   87300    257.49518   -114.71616   0.23298705   -114.48317   -3394.4395    4.2783054    4.2783054    4.2783054   -3394.4395   -1970.0071   -10079.875    1866.5634    -4025.371    2282.3244    5215.2139    78.309662 
   87400     391.2032   -114.83442   0.35396888   -114.48045    2095.7553    4.2790602    4.2790602    4.2790602    2095.7553    2437.4652     1671.502    2178.2989   -800.34729   -1809.8951   -2688.8428    78.351116 
   87500    282.02021    -114.7374   0.25517781   -114.48222   -2908.8119    4.2803087    4.2803087    4.2803087   -2908.8119     1430.765   -5684.5098   -4472.6908    3405.8518   -1239.6538    3314.6439    78.419719 
   87600    212.69953   -114.67611   0.19245501   -114.48366    -4611.188    4.2788791    4.2788791    4.2788791    -4611.188     2555.986   -9651.6089   -6737.9412   -3236.8681    -1901.804    9839.1131    78.341171 
   87700    338.67826   -114.78869   0.30644321   -114.48225    2300.9464    4.2802292    4.2802292    4.2802292    2300.9464   -1923.5597    546.72878    8279.6702    753.23349    347.29243     890.2869    78.415348 
   87800    430.26701   -114.87012   0.38931463    -114.4808    982.31277    4.2779225    4.2779225    4.2779225    982.31277   -2847.2569     1111.342    4682.8532   -1581.0712     1215.246   -1786.1485    78.288636 
   87900    228.15616   -114.68959   0.20644049   -114.48315   -1340.4873    4.2804169    4.2804169    4.2804169   -1340.4873     6375.408   -6609.1148   -3787.7551    1686.8746   -3151.2161    7249.2412    78.425663 
   88000    276.20293   -114.73261   0.24991422    -114.4827    1311.5046    4.2797989    4.2797989    4.2797989    1311.5046   -5172.5781   -1977.9339    11085.026   -3622.9627    580.14645    4441.4792      78.3917 
   88100    419.09401   -114.85985   0.37920507   -114.48064    6380.8255    4.2764805    4.2764805    4.2764805    6380.8255    6072.3209    5561.8982    7508.2574    441.46271    138.86906   -1866.4427    78.209499 
   88200    321.61113   -114.77357   0.29100051   -114.48257   -421.24765    4.2818691    4.2818691    4.2818691   -421.24765   -5525.2004   -439.38132    4700.8388    2113.9703   -1925.8384    2795.7594    78.505513 
   88300    293.43981   -114.74939    0.2655105   -114.48388   -5716.2375    4.2787945    4.2787945    4.2787945   -5716.2375   -4086.6677   -8381.2255   -4680.8192   -860.90517   -1885.4884    8341.5049     78.33652 
   88400    313.71569   -114.76725   0.28385655    -114.4834    4155.2063    4.2773809    4.2773809    4.2773809    4155.2063    373.36279    6417.6244    5674.6318   -2638.4986    25.636394    1494.5163    78.258906 
   88500    454.08639   -114.89221   0.41086691   -114.48134    -3449.016    4.2823165    4.2823165    4.2823165    -3449.016   -8918.3855   -4186.8408    2758.1783   -2328.4408    1413.7284   -1376.1648    78.530127 
   88600    195.44007    -114.6601   0.17683829   -114.48326    2511.6193    4.2778781    4.2778781    4.2778781    2511.6193    2092.3722    5860.3598   -417.87419     1578.443   -2481.0988    6107.8411    78.286199 
   88700    347.21748    -114.7967   0.31416967   -114.48253   -6140.4354    4.2786107    4.2786107    4.2786107   -6140.4354   -4921.3831    -8610.757   -4889.1662   -2789.9505   -205.94083    4483.4745    78.326428 
   88800    365.78029    -114.8122   0.33096569   -114.48123    1702.5253    4.2818473    4.2818473    4.2818473    1702.5253   -5755.2073    421.53917    10441.244    1995.4079    478.18656   -957.23692    78.504316 
   88900    382.49577    -114.8275   0.34609021   -114.48141   -475.76121    4.2768886    4.2768886    4.2768886   -475.76121   -4082.5426    4998.4045   -2343.1455   -569.67465   -3734.4341    5332.8108    78.231886 
   89000    222.03002   -114.68418   0.20089743   -114.48328   -629.81909    4.2800897    4.2800897    4.2800897   -629.81909    -2104.319   -4555.0767    4769.9384    -261.8899   -1006.4033    5523.2638    78.407681 
   89100    324.13144   -114.77554   0.29328094   -114.48226   -316.20007    4.2802465    4.2802465    4.2802465   -316.20007   -200.60528   -2753.3827    2005.3878    975.62711    -826.4417   -578.82285    78.416299 
   89200     389.1539    -114.8328   0.35211463   -114.48069    4361.7959    4.2774619    4.2774619    4.2774619    4361.7959   -920.38608    4707.3338    9298.4399   -707.54077    1669.7684   -2014.5187    78.263352 
   89300    290.18917   -114.74493   0.26256926   -114.48236   -2123.1178    4.2813991    4.2813991    4.2813991   -2123.1178    1518.0776   -2931.2514   -4956.1795    130.68667    -4339.415    9737.2634    78.479666 
   89400    217.14423   -114.67958   0.19647666    -114.4831    693.92046    4.2775889    4.2775889    4.2775889    693.92046   -4107.8552   -42.000929    6231.6176   -5289.3541    1247.6392    2837.0822    78.270322 
   89500    394.05885   -114.83789   0.35655273   -114.48133   -282.33028    4.2797838    4.2797838    4.2797838   -282.33028    455.35011   -1733.2323    430.89134    2652.5434   -35.362624   -2595.3302    78.390871 
   89600    315.91429   -114.76719   0.28584589   -114.48134    1817.7217    4.2810336    4.2810336    4.2810336    1817.7217   -3467.0348    4082.7613    4837.4385    1758.0645   -535.12244    2285.9438    78.459566 
   89700      249.056    -114.7078    0.2253511   -114.48245   -4266.8052    4.2769358    4.2769358    4.2769358   -4266.8052    2412.2819   -6069.6738   -9143.0238    -448.9168   -3255.6302    11190.195    78.234477 
   89800     246.9027   -114.70611   0.22340275   -114.48271    -1122.951    4.2817411    4.2817411    4.2817411    -1122.951   -2720.5356   -10060.165    9411.8473   -3398.7615   -2625.5548   -1293.2462    78.498476 
   89900    364.21731    -114.8104   0.32955148   -114.48085    1329.2148    4.2794106    4.2794106    4.2794106    1329.2148   -6859.6568    9317.9708    1529.3304   -197.24707    1027.8894   -4157.8353    78.370363 
   90000    262.45594   -114.71971   0.23747565   -114.48223   -2153.5684    4.2770994    4.2770994    4.2770994   -2153.5684   -2319.2078    -6084.947    1943.4497    964.70442   -4559.7407    7014.1431    78.243458 
   90100    257.12084   -114.71541   0.23264834   -114.48276    -8359.198    4.2826987    4.2826987    4.2826987    -8359.198   -7671.9596   -10895.642   -6509.9924   -166.73547    1266.1018    7509.2817    78.551154 
   90200    305.98685   -114.75839   0.27686334   -114.48153    2563.9988    4.2785408    4.2785408    4.2785408    2563.9988   -776.74451   -47.010775    8515.7517    1005.2527   -1482.3981   -2753.9248     78.32259 
   90300    319.81881   -114.77018   0.28937878    -114.4808    2773.7493    4.2773948    4.2773948    4.2773948    2773.7493    658.66702    3722.7483    3939.8326   -470.22991    -2623.191    -913.6453    78.259667 
   90400    204.42568   -114.66749   0.18496865   -114.48252    -3231.222    4.2826141    4.2826141    4.2826141    -3231.222   -726.45517   -8684.2988   -282.91196    -2143.662   -4007.3355    7153.5557    78.546496 
   90500    276.33866   -114.73186   0.25003703   -114.48182      853.208    4.2774276    4.2774276    4.2774276      853.208   -1024.5549    -2858.193    6442.3719   -1969.9368    994.25203    993.59345    78.261472 
   90600    353.42233   -114.80062   0.31978395   -114.48083    4593.4921    4.2785176    4.2785176    4.2785176    4593.4921   -999.60657    5562.3842    9217.6987    1961.0743    841.92885     -2252.09    78.321315 
   90700    259.61214   -114.71663   0.23490252   -114.48173    -966.8703    4.2815647    4.2815647    4.2815647    -966.8703   -2769.5216   -4008.8346    3877.7453   -187.90755   -1490.7195    3493.1305    78.488773 
   90800    270.01944   -114.72628   0.24431926   -114.48196   -3663.5242    4.2778248    4.2778248    4.2778248   -3663.5242   -1919.9233   -11815.719    2745.0698   -3579.0676   -2334.6426    6142.0633    78.283277 
   90900     216.6684   -114.67832   0.19604612   -114.48228    6905.0097     4.279677     4.279677     4.279677    6905.0097   -455.09627    9516.7212    11653.404    988.22368   -403.87633   -1251.5077    78.385003 
   91000    398.12079   -114.84163   0.36022805    -114.4814   -6452.3894    4.2794434    4.2794434    4.2794434   -6452.3894   -2116.5849   -12697.585   -4542.9982    1946.4376   -2642.4594   -2033.0867    78.372169 
   91100    205.39297   -114.66954   0.18584388    -114.4837   -1958.4296     4.278999     4.278999     4.278999   -1958.4296   -2912.5035   -4800.2756    1837.4903   -1315.4664   -4767.2727    5795.8086    78.347753 
   91200    278.20037   -114.73469   0.25172154   -114.48297   -3529.8887    4.2803693    4.2803693    4.2803693   -3529.8887   -6836.5193     453.1959   -4206.3427   -1713.6348    1343.4523    1154.7208    78.423048 
   91300    291.59946   -114.74569   0.26384532   -114.48185    1593.8684    4.2777509    4.2777509    4.2777509    1593.8684   -5959.6324    397.80902    10343.428    1333.5285   -1421.9843   -2779.9749    78.279217 
   91400    322.40463   -114.77315   0.29171848   -114.48144   -4974.3482    4.2812613    4.2812613    4.2812613   -4974.3482   -41.539389   -5323.2521   -9558.2531    277.85061   -1466.1996    1144.3343    78.472089 
   91500    245.18368   -114.70422   0.22184735   -114.48238    2835.7956    4.2781881    4.2781881    4.2781881    2835.7956    1034.7832    2545.7851    4926.8184   -3757.8289   -2946.1127    5289.9144    78.303221 
   91600    280.03564   -114.73557   0.25338213   -114.48219    2414.5039    4.2781819    4.2781819    4.2781819    2414.5039    2533.6263   -823.54887    5533.4343    400.94247    1336.7526   -701.15961     78.30288 
   91700    285.52931   -114.74006   0.25835292    -114.4817    2675.6297    4.2809368    4.2809368    4.2809368    2675.6297   -3283.9321    4518.0739    6792.7473    3336.5433   -2972.0877   -2456.2513    78.454245 
   91800    355.68909   -114.80287   0.32183496   -114.48104   -1284.0021    4.2788148    4.2788148    4.2788148   -1284.0021    3153.0476   -8425.3409     1420.287   -762.99452   -729.97718    2839.7763    78.337639 
   91900    217.19307   -114.67869   0.19652086   -114.48216    5687.9122    4.2770087    4.2770087    4.2770087    5687.9122    89.772307    8036.5046    8937.4596    -1639.724   -5.9862058    846.98213     78.23848 
   92000    323.58804   -114.77462   0.29278926   -114.48184   -7241.4683    4.2827678    4.2827678    4.2827678   -7241.4683    -7659.789   -14927.216     862.6001    1874.4729   -100.40388   -1484.7889    78.554955 
   92100    297.55133   -114.75108    0.2692307   -114.48185    1205.6369    4.2774438    4.2774438    4.2774438    1205.6369    7543.9987    1340.8639    -5267.952    2734.3333   -785.47909   -1583.2107    78.262358 
   92200    291.74471   -114.74585   0.26397674   -114.48188    363.92277    4.2786729    4.2786729    4.2786729    363.92277   -5254.4344    5077.6899    1268.5129   -1436.4235   -4302.1393    6044.3313    78.329846 
   92300    300.40518   -114.75399   0.27181292   -114.48217   -8553.7755    4.2813577    4.2813577    4.2813577   -8553.7755   -10223.459   -8801.0289   -6636.8388   -1888.9161    2216.9193   -5785.4995     78.47739 
   92400    269.26818   -114.72592   0.24363951   -114.48228   -207.35639    4.2785216    4.2785216    4.2785216   -207.35639    2268.8439   -834.09222   -2056.8209    2057.7622   -5757.4249   -3223.9551    78.321534 
   92500    374.11265   -114.81961   0.33850499   -114.48111    747.94687    4.2789455    4.2789455    4.2789455    747.94687   -261.11718    9385.1783   -6880.2205    845.08836    1137.0757    1443.0133    78.344817 
   92600    272.80968   -114.72918   0.24684393   -114.48234    1945.1692    4.2792889    4.2792889    4.2792889    1945.1692     2934.895     -1995.12    4895.7326    1024.0512   -59.752971    5397.2053    78.363683 
   92700    261.86008   -114.71948    0.2369365   -114.48255   -502.09128    4.2803107    4.2803107    4.2803107   -502.09128    -3837.463    2007.3797    323.80946    727.65276    667.18551   -5011.9652    78.419828 
   92800    380.74392   -114.82547    0.3445051   -114.48097    1436.0907    4.2787125    4.2787125    4.2787125    1436.0907    1157.7715   -3034.5202    6185.0207     309.9234   -3119.6163   -3251.0705    78.332016 
   92900    332.69952    -114.7821   0.30103352   -114.48106    5084.1951    4.2779724    4.2779724    4.2779724    5084.1951    3394.3846     7320.453    4537.7476   -2443.8468   -2622.9419    3657.4359     78.29138 
   93000    310.84689    -114.7633    0.2812608   -114.48204   -5185.4167    4.2819166    4.2819166    4.2819166   -5185.4167   -10239.723    -10680.86    5364.3321    2198.6982    2265.8733    43.453036    78.508125 
   93100    240.43893   -114.70048    0.2175542   -114.48293     2484.442    4.2784947    4.2784947    4.2784947     2484.442    5924.9677   -1512.9212    3041.2795    2512.5245   -1900.1852   -6562.5508    78.320058 
   93200    381.00405   -114.82582   0.34474047   -114.48108    372.66774    4.2778381    4.2778381    4.2778381    372.66774    1095.6579    561.86533   -539.52006   -888.79543    1173.2353   -5655.2488    78.284003 
   93300    363.70929   -114.81041   0.32909181   -114.48132   -7273.1509    4.2826276    4.2826276    4.2826276   -7273.1509   -11980.901   -9000.9652   -837.58701   -2564.8176   -2498.9803    5419.5778    78.547241 
   93400    247.72163   -114.70677   0.22414373   -114.48263   -2210.8768    4.2781413    4.2781413    4.2781413   -2210.8768   -1440.3499   -2232.2065   -2960.0741    1507.1229    1785.1824   -5291.9677     78.30065 
   93500    346.96393   -114.79657   0.31394026   -114.48263     82.62038    4.2778094    4.2778094    4.2778094     82.62038    5356.4093   -568.47456   -4540.0736    1103.6486   -5596.4763   -3611.0084    78.282428 
   93600     369.8239   -114.81641   0.33462444   -114.48179    1559.6126    4.2812632    4.2812632    4.2812632    1559.6126    1005.7951    1553.7978    2119.2449   -1860.6144    158.17678   -2761.2039    78.472192 
   93700    294.00577    -114.7487    0.2660226   -114.48268    2316.8979    4.2788795    4.2788795    4.2788795    2316.8979    6259.9621   -2306.6448    2997.3765     228.7758    1217.6828    440.54411    78.341192 
   93800    308.76325   -114.76212   0.27937548   -114.48274    991.57167    4.2780851    4.2780851    4.2780851    991.57167   -149.16445    -2812.103    5935.9825    4140.1662    1195.3955    -3361.594    78.297565 
   93900    338.93911   -114.78861   0.30667923   -114.48193    4115.8789    4.2798623    4.2798623    4.2798623    4115.8789     4434.584    57.023154    7856.0296   -503.96087   -2130.7403   -899.93917    78.395185 
   94000    420.52886   -114.86185   0.38050335   -114.48135   -450.74974    4.2791982    4.2791982    4.2791982   -450.74974   -1605.3064   -4535.7009    4788.7581   -2339.1945   -2309.1505    547.47671    78.358696 
   94100     195.1488   -114.66013   0.17657474   -114.48355    3552.5261     4.279103     4.279103     4.279103    3552.5261   -2181.5267   -3954.4402    16793.545   -159.13944    571.13147   -4360.4318     78.35347 
   94200    329.98161   -114.78082   0.29857429   -114.48225   -5855.4717    4.2784532    4.2784532    4.2784532   -5855.4717     -1344.22   -11233.495   -4988.7002    3442.8005    135.97902   -5497.8097    78.317776 
   94300    371.55789   -114.81674   0.33619338   -114.48054   -3204.7731     4.281075     4.281075     4.281075   -3204.7731   -415.06252   -10540.631    1341.3741   -3113.9227   -1122.6398   -1115.1063    78.461846 
   94400    341.97472   -114.79097   0.30942591   -114.48154   -3426.9846    4.2791693    4.2791693    4.2791693   -3426.9846   -8054.3462    -3282.481    1055.8733   -3317.8584   -1360.0618    -1542.236    78.357111 
   94500    194.88381   -114.66003   0.17633496   -114.48369   -1231.1202    4.2773861    4.2773861    4.2773861   -1231.1202    13488.646   -15417.733   -1764.2745    3571.5707    -222.2821   -9553.1127    78.259194 
   94600    341.21862   -114.79069   0.30874177   -114.48195   -4331.8727    4.2812152    4.2812152    4.2812152   -4331.8727     3408.054   -8311.5796   -8092.0923    2605.0662     504.0557   -1348.5579    78.469552 
   94700    367.30323   -114.81335   0.33234368   -114.48101    3559.1668    4.2800089    4.2800089    4.2800089    3559.1668    4597.3795   -6008.9084    12089.029   -2830.5402   -1613.0711    1254.0418     78.40324 
   94800    289.17474   -114.74418   0.26165138   -114.48252    2211.6146    4.2762463    4.2762463    4.2762463    2211.6146    10951.454   -4302.2505   -14.360034   -1014.0436   -1349.1044   -4587.8873    78.196646 
   94900    210.71013   -114.67449   0.19065495   -114.48384   -683.51247    4.2823093    4.2823093    4.2823093   -683.51247   -1804.4485   -11803.923    11557.834     2931.397   -1377.9914   -5865.9361    78.529729 
   95000    395.70159   -114.83924   0.35803911   -114.48121    1018.1555    4.2793293    4.2793293    4.2793293    1018.1555    6942.6347   -6761.8415    2873.6733    1075.3641    3643.3684    809.11459    78.365902 
   95100    261.24815   -114.71863   0.23638282   -114.48225    7396.2437    4.2765481    4.2765481    4.2765481    7396.2437    3564.9817    5110.6411    13513.108    -1417.649   -411.02482    -1086.765    78.213203 
   95200    229.15734   -114.69053   0.20734638   -114.48318    -7516.893    4.2817376    4.2817376    4.2817376    -7516.893     -9439.89    -17770.61    4659.8214    774.81797   -208.92393   -4090.6895    78.498282 
   95300    306.20624   -114.75899   0.27706184   -114.48193   -5351.8469    4.2795654    4.2795654    4.2795654   -5351.8469    3502.5132   -11361.553   -8196.5007    1800.2285   -5363.2194   -2895.8318    78.378871 
   95400    329.60545   -114.77899   0.29823394   -114.48076    2962.2324    4.2782444    4.2782444    4.2782444    2962.2324    3359.1778   -2461.7433    7989.2628   -3694.4778    939.91169    1496.9612    78.306311 
   95500    255.11926    -114.7129   0.23083727   -114.48207   -4880.5841    4.2808687    4.2808687    4.2808687   -4880.5841    -453.4129   -12448.114   -1740.2248    1500.2455    1111.1948   -5220.7979    78.450504 
   95600    174.13045   -114.64026   0.15755689   -114.48271   -934.47628    4.2781096    4.2781096    4.2781096   -934.47628    14714.447   -13350.389   -4167.4864    1965.1844   -182.45239   -7831.3509    78.298913 
   95700    402.02646   -114.84417   0.36376199   -114.48041   -3596.1191    4.2810692    4.2810692    4.2810692   -3596.1191   -3854.8286   -10984.654    4051.1258    809.88173   -664.73376    2291.8789    78.461523 
   95800    247.25722   -114.70502   0.22372353    -114.4813     6628.167     4.277978     4.277978     4.277978     6628.167    15434.603   -209.35292     4659.251   -2737.3045   -1624.1122   -2843.6503    78.291682 
   95900    256.32263   -114.71393    0.2319261     -114.482   -6151.4844    4.2792913    4.2792913    4.2792913   -6151.4844    939.60606   -18121.168   -1272.8913    3393.9478    1102.9143    -3859.865    78.363814 
   96000      222.057   -114.68344   0.20092184   -114.48251    1819.7248    4.2818098    4.2818098    4.2818098    1819.7248    5688.3099   -7878.6302    7649.4949    2311.0128   -2006.1462   -1843.0223    78.502252 
   96100    356.73175   -114.80399   0.32277838   -114.48121    2123.0184    4.2764669    4.2764669    4.2764669    2123.0184    1600.1854    1622.3274    3146.5423   -969.61113    650.55655    3465.7337     78.20875 
   96200    239.13198   -114.69904   0.21637164   -114.48267   -983.64548    4.2786629    4.2786629    4.2786629   -983.64548   -3789.3833   -5518.2253    6356.6721   -1096.2506   -717.18295   -4617.8163    78.329294 
   96300     254.3739   -114.71308   0.23016285   -114.48292   -7986.1505    4.2837001    4.2837001    4.2837001   -7986.1505   -4821.1004   -11240.201   -7897.1505    2264.3978    1268.8853   -3378.4103    78.606266 
   96400    272.98098   -114.72892   0.24699893   -114.48192    6199.2923    4.2742409    4.2742409    4.2742409    6199.2923    13378.359   -542.63089    5762.1487    915.21978   -1600.0302    2222.1019    78.086684 
   96500    316.87748   -114.76882    0.2867174    -114.4821   -2628.3129    4.2822124    4.2822124    4.2822124   -2628.3129   -5404.6104    3022.5008   -5502.8292   -313.43274    125.29634    1575.7187    78.524398 
   96600    245.56294   -114.70494   0.22219051   -114.48275   -2424.9603    4.2805974    4.2805974    4.2805974   -2424.9603    8669.6811    -12849.69   -3094.8722    2058.9515   -3098.7114    -3446.022    78.435588 
   96700    303.34926   -114.75635   0.27447679   -114.48187    2251.1623     4.275902     4.275902     4.275902    2251.1623    1840.5554   -315.92016    5228.8516    327.81039   -36.741004   -2863.9705    78.177763 
   96800    279.05565   -114.73392   0.25249542   -114.48142    3001.5521    4.2823378    4.2823378    4.2823378    3001.5521    9198.4865   -3450.6635    3256.8333    -1378.246    933.78491    3947.0605    78.531298 
   96900    337.14947    -114.7862   0.30505992   -114.48114   -2521.6755    4.2779582    4.2779582    4.2779582   -2521.6755    2996.5432   -8370.4211   -2191.1487    1235.2961    2444.3814   -3078.7754    78.290601 
   97000    232.00881   -114.69247   0.20992645   -114.48254    3458.9205    4.2791439    4.2791439    4.2791439    3458.9205    2314.5256   -6345.8649    14408.101    4400.2509   -2130.9545   -1863.0682    78.355716 
   97100    385.98626   -114.83012   0.34924848   -114.48087   -6459.7736     4.281585     4.281585     4.281585   -6459.7736   -8323.0251   -6743.2744   -4313.0213   -1273.7581    261.62862      1595.49    78.489887 
   97200    229.00034   -114.68939   0.20720432   -114.48219    4029.3288    4.2757638    4.2757638    4.2757638    4029.3288    8087.5924    2552.1086    1448.2853   -2514.0378   -4368.5813    2577.0018    78.170184 
   97300    365.85984   -114.81262   0.33103767   -114.48158   -7564.9685    4.2828751    4.2828751    4.2828751   -7564.9685   -5813.1364   -14088.698   -2793.0708    1962.0631    2097.8073   -681.16566    78.560859 
   97400    265.86016   -114.72219   0.24055586   -114.48164    2257.5133     4.278621     4.278621     4.278621    2257.5133    6812.4062   -1252.9723    1213.1058     2577.075    -2321.463    1961.3497    78.326992 
   97500    367.00918   -114.81347   0.33207761    -114.4814   -4646.8263      4.27711      4.27711      4.27711   -4646.8263   -3663.0329   -1197.7458   -9079.7001   -1871.0633    2601.9091    3095.0682    78.244036 
   97600    305.75976   -114.75915   0.27665786    -114.4825   -1867.6966    4.2838546    4.2838546    4.2838546   -1867.6966    2437.7146   -7276.5266    -764.2777   -1070.9283   -1857.4125   -2004.6325    78.614772 
   97700    322.03753   -114.77338   0.29138633     -114.482     6353.733    4.2756519    4.2756519    4.2756519     6353.733    4563.8648    1695.3642     12801.97    4373.8962    797.12738   -1117.9875    78.164043 
   97800    341.44749   -114.79106   0.30894887   -114.48211    764.97448    4.2788623    4.2788623    4.2788623    764.97448    4609.8732   -3080.1663    765.21645     134.9621     -960.116    5751.3171    78.340247 
   97900    285.50466   -114.74037   0.25833061   -114.48204   -28.438313    4.2831115    4.2831115    4.2831115   -28.438313   -3522.2951   -3822.9123    7259.8924   -1881.2625   -134.34614     1693.328    78.573869 
   98000    397.72121   -114.84117   0.35986651   -114.48131    3027.5361    4.2745022    4.2745022    4.2745022    3027.5361    2614.7194   -4404.7868    10872.676    1495.4812   -643.04775   -1598.4339     78.10101 
   98100    329.73102   -114.78101   0.29834756   -114.48266   -538.47801      4.28266      4.28266      4.28266   -538.47801   -4093.1591   -4693.4539    7171.1789    3089.3442    1410.4026    349.79513    78.549023 
   98200    267.19776   -114.72501   0.24176615   -114.48325   -2232.5829    4.2785961    4.2785961    4.2785961   -2232.5829    5160.6669    -4511.347   -7347.0686   -689.98895    2082.6971    7882.0007    78.325623 
   98300    347.56637    -114.7967   0.31448536   -114.48221   -3021.3266    4.2775694    4.2775694    4.2775694   -3021.3266   -1522.5091   -8091.4206    549.95003   -1892.7022   -3354.2261    -319.6638    78.269252 
   98400     379.4541    -114.8241   0.34333805   -114.48076   -2914.7316    4.2833923    4.2833923    4.2833923   -2914.7316   -4262.2246   -6477.5763    1995.6061    2657.3969   -1094.1366   -3717.6853    78.589327 
   98500    297.81159   -114.75064   0.26946619   -114.48118   -1438.2561    4.2766974    4.2766974    4.2766974   -1438.2561    3663.5582   -4105.5796   -3872.7468    955.73384   -4887.8286    5893.7318    78.221397 
   98600    287.57743   -114.74201    0.2602061    -114.4818   -2800.5616    4.2794721    4.2794721    4.2794721   -2800.5616    270.76136   -8529.1377   -143.30853   -855.61362    7275.3349    3036.6937    78.373745 
   98700    331.08843   -114.78092   0.29957577   -114.48135    931.51813    4.2825123    4.2825123    4.2825123    931.51813    1120.1222   -7557.0969     9231.529   -1624.4542   -3043.2819    1953.2474    78.540895 
   98800      380.992   -114.82571   0.34472957   -114.48098    4050.2975    4.2742092    4.2742092    4.2742092    4050.2975    2301.0062    2998.7639    6851.1223    1865.0094    538.07124   -2473.8108    78.084947 
   98900    236.59413   -114.69658   0.21407534    -114.4825   -317.86666    4.2830005    4.2830005    4.2830005   -317.86666   -1444.6623   -8729.8609    9220.9232    393.51118   -411.10871    5212.0947    78.567762 
   99000    333.63496   -114.78342   0.30187992   -114.48154   -1540.3545    4.2789093    4.2789093    4.2789093   -1540.3545   -6001.3996   -5842.8625    7223.1985    570.46148    3985.3113   -541.11913    78.342827 
   99100     325.9045   -114.77587   0.29488524   -114.48098     6839.561    4.2767302    4.2767302    4.2767302     6839.561    9287.1276    671.73486    10559.821    1372.3526   -2889.0186   -535.06217    78.223199 
   99200    310.13272   -114.76254   0.28061461   -114.48193    -2219.047    4.2827963    4.2827963    4.2827963    -2219.047   -5105.7925   -5763.4223    4212.0737   -1779.8705   -2191.4215    3379.3911    78.556523 
   99300    251.72593    -114.7106   0.22776691   -114.48283   -2096.2339     4.276226     4.276226     4.276226   -2096.2339    2390.2724   -4032.7003   -4646.2737   -695.86753    1977.4563    2696.7028    78.195535 
   99400    311.22448   -114.76406   0.28160245   -114.48246   -1372.8007    4.2808879    4.2808879    4.2808879   -1372.8007    -6423.142   -6445.3278    8750.0678    514.18279    3308.3371    632.65926    78.451558 
   99500    324.83861   -114.77543    0.2939208   -114.48151     1778.757    4.2806761    4.2806761    4.2806761     1778.757    5785.4148    -892.1648    443.02103    1852.3794   -2388.6397    -762.7269    78.439913 
   99600    267.87572    -114.7246   0.24237958   -114.48222   -1633.8314    4.2756576    4.2756576    4.2756576   -1633.8314    1168.9399   -4724.5966   -1345.8374   -1929.7102   -2604.0491    4769.0815    78.164354 
   99700     240.8763   -114.70054   0.21794994   -114.48259   -4861.4802    4.2836999    4.2836999    4.2836999   -4861.4802    679.11921   -13642.349   -1621.2106   -248.60288    3075.0902   -113.59344    78.606255 
   99800     336.6489   -114.78552     0.304607   -114.48091    3429.3418    4.2774462    4.2774462    4.2774462    3429.3418   -2601.9292    751.56797    12138.387    1609.9676   -1675.2961   -2392.2798     78.26249 
   99900    295.48887   -114.74884   0.26736454   -114.48148    1792.6533    4.2774201    4.2774201    4.2774201    1792.6533    4710.8181   -6341.2211     7008.363    235.45587    343.68543     2065.537    78.261058 
  100000    231.63717   -114.69196   0.20959018   -114.48237   -7046.3888    4.2837751    4.2837751    4.2837751   -7046.3888   -6959.1516    -14519.24    339.22543   -1626.1181    1459.6722    4253.0114    78.610399 
Loop time of 22.3967 on 1 procs for 100000 steps with 8 atoms

Pair  time (%) = 7.1761 (32.0408)
Kspce time (%) = 5.39581 (24.0919)
Neigh time (%) = 0 (0)
Comm  time (%) = 1.07498 (4.7997)
Outpt time (%) = 0.0233598 (0.1043)
Other time (%) = 8.7265 (38.9633)

Nlocal:    8 ave 8 max 8 min
Histogram: 1 0 0 0 0 0 0 0 0 0
Nghost:    2189 ave 2189 max 2189 min
Histogram: 1 0 0 0 0 0 0 0 0 0
Neighs:    2344 ave 2344 max 2344 min
Histogram: 1 0 0 0 0 0 0 0 0 0

Total # of neighbors = 2344
Ave neighs/atom = 293
Neighbor list builds = 0
Dangerous builds = 0
unfix 20
unfix 21
print "seeds:4584802"
seeds:4584802
