LAMMPS (10 Feb 2015)
# ---- initialize simulations
clear
units metal
dimension 3
boundary p p p
atom_style charge
atom_modify map array
# ---- create atoms
read_data /Users/eugeneragasa/pyflamestk_git/pypospack/tests/tests_integration/workflow/WorkflowLammpsThermalExpansion/param_2217/MgO_NaCl_unit.npt.T1600/lammps.structure
  triclinic box = (0 0 0) to (4.2565 4.2565 4.2565) with tilt (0 0 0)
  1 by 1 by 1 MPI processor grid
  reading atoms ...
  8 atoms
# ---- define interatomic potential
include potential.mod
mass 1 24.305
mass 2 15.999

group Mg type 1
4 atoms in group Mg
group O type 2
4 atoms in group O

set group Mg charge 1.63539617609
  4 settings made for charge
set group O charge -1.63539617609
  4 settings made for charge

variable R_cut equal 10.0

pair_style buck/coul/long ${R_cut}
pair_style buck/coul/long 10
pair_coeff 1 1 0.0 0.5 0.0 ${R_cut}
pair_coeff 1 1 0.0 0.5 0.0 10
pair_coeff 1 2 1445.86118726 0.28350177361 0.0 ${R_cut}
pair_coeff 1 2 1445.86118726 0.28350177361 0.0 10
pair_coeff 2 2 14001.7361193 0.0970682303871 13.3227844282 ${R_cut}
pair_coeff 2 2 14001.7361193 0.0970682303871 13.3227844282 10

kspace_style pppm 1.0e-5

neighbor 1.0 bin
neigh_modify every 1 delay 0 check yes
# ---- define settings
compute eng all pe/atom
compute eatoms all reduce sum c_eng
# ---- run minimization
reset_timestep 0
fix 1 all box/relax iso 0.0 vmax 0.001
thermo 10
thermo_style custom step pe lx ly lz xy xz yz press pxx pyy pzz pxy pxz pyz c_eatoms
min_style cg
minimize 1e-25 1e-25 5000 10000
PPPM initialization ...
  G vector (1/distance) = 0.35265
  grid = 8 8 8
  stencil order = 5
  estimated absolute RMS force accuracy = 3.8734e-05
  estimated relative force accuracy = 2.68993e-06
  using double precision FFTs
  3d grid and FFT values/proc = 3375 512
Neighbor list info ...
  1 neighbor list requests
  update every 1 steps, delay 0 steps, check yes
  master list distance cutoff = 11
Memory usage per processor = 4.06549 Mbytes
Step PotEng Lx Ly Lz Xy Xz Yz Press Pxx Pyy Pzz Pxy Pxz Pyz eatoms 
       0   -107.83625       4.2565       4.2565       4.2565            0            0            0    103722.55    103722.55    103722.55    103722.55 -7.9651797e-11 -6.6040977e-11 3.4954802e-10   -107.83625 
      10   -107.94585     4.299065     4.299065     4.299065            0            0            0    48505.206    48505.206    48505.206    48505.206 -1.814552e-10 -8.0829294e-11 -4.0355362e-11   -107.94585 
      20   -107.98099     4.341612     4.341612     4.341612            0            0            0  -0.16598057  -0.16598057  -0.16598058  -0.16598057 -1.539671e-10 -9.8603927e-12 -7.0562295e-11   -107.98099 
      24     -107.981    4.3416118    4.3416118    4.3416118            0            0            0 -0.022137581 -0.022137581 -0.022137581 -0.022137581 -7.2866315e-11 -1.1353573e-10 -3.1341588e-11     -107.981 
Loop time of 0.012727 on 1 procs for 24 steps with 8 atoms

Minimization stats:
  Stopping criterion = linesearch alpha is zero
  Energy initial, next-to-last, final = 
        -107.836253395     -107.981002151     -107.981002151
  Force two-norm initial, final = 14.9776 3.56003e-06
  Force max component initial, final = 14.9776 3.3258e-06
  Final line search alpha, max atom move = 0.5 1.6629e-06
  Iterations, force evaluations = 24 36

Pair  time (%) = 0.00337124 (26.4888)
Kspce time (%) = 0.00215578 (16.9386)
Neigh time (%) = 0 (0)
Comm  time (%) = 0.000406027 (3.19027)
Outpt time (%) = 6.07967e-05 (0.477698)
Other time (%) = 0.00673318 (52.9046)

Nlocal:    8 ave 8 max 8 min
Histogram: 1 0 0 0 0 0 0 0 0 0
Nghost:    2189 ave 2189 max 2189 min
Histogram: 1 0 0 0 0 0 0 0 0 0
Neighs:    2344 ave 2344 max 2344 min
Histogram: 1 0 0 0 0 0 0 0 0 0

Total # of neighbors = 2344
Ave neighs/atom = 293
Neighbor list builds = 0
Dangerous builds = 0
unfix 1
# ---- define output variables ----
variable natoms equal "count(all)"
variable tot_energy equal "c_eatoms"
variable length_x equal "lx"
variable length_y equal "ly"
variable length_z equal "lz"
variable tilt_xy equal "xy"
variable tilt_xz equal "xz"
variable tilt_yz equal "yz"
variable tot_press equal "press"
variable press_xx equal "pxx"
variable press_yy equal "pyy"
variable press_zz equal "pzz"
variable press_xy equal "pxy"
variable press_xz equal "pxz"
variable press_yz equal "pyz"

# ---- output ----
print "pypospack:output_section:begin"
pypospack:output_section:begin
print "tot_energy = ${tot_energy}"
tot_energy = -107.981002151143
print "num_atoms = ${natoms}"
num_atoms = 8
print "xx = ${length_x}"
xx = 4.34161184326772
print "yy = ${length_y}"
yy = 4.34161184326772
print "zz = ${length_z}"
zz = 4.34161184326772
print "xy = ${tilt_xy}"
xy = 0
print "xz = ${tilt_xz}"
xz = 0
print "yz = ${tilt_yz}"
yz = 0
print "tot_press = ${tot_press}"
tot_press = -0.0221375810241508
print "pxx = ${press_xx}"
pxx = -0.0221375810918532
print "pyy = ${press_yy}"
pyy = -0.0221375807194137
print "pzz = ${press_zz}"
pzz = -0.0221375812611855
print "pxy = ${press_xy}"
pxy = -7.28663154154814e-11
print "pxz = ${press_xz}"
pxz = -1.13535727889352e-10
print "pyz = ${press_yz}"
pyz = -3.13415884666446e-11
print "pypospack:output_section:done"
pypospack:output_section:done
print "pypospack:lammps_sim:done"
pypospack:lammps_sim:done
#------------------------------------------------------------------------------
# RUN THERMOSTAT
# running using an NPT Nose-Hoover style thermostat
#------------------------------------------------------------------------------
variable tempdamp equal 0.1
variable pressdamp equal 1.0
# set initial velocities
velocity all create 1600 9461073 mom yes dist gaussian loop all
# fix for Nose-Hoover style thermostat
fix 20 all npt temp 1600 1600 0.1 aniso 0.0 0.0 1.0 drag 1.0 couple xyz
variable boxx equal lx
variable boxy equal ly
variable boxz equal lz
variable boxp equal press
variable boxt equal temp
# calculate averages every 10000 steps
reset_timestep 0
fix 21 all ave/time 10 10 100 v_boxx v_boxy v_boxz v_boxp v_boxt file lattice.out
thermo_style custom step temp pe ke etotal press lx ly lz press pxx pyy pzz pxy pxz pyz vol
thermo_modify flush yes
thermo 100
run 100000
PPPM initialization ...
  G vector (1/distance) = 0.3518
  grid = 8 8 8
  stencil order = 5
  estimated absolute RMS force accuracy = 4.02804e-05
  estimated relative force accuracy = 2.79732e-06
  using double precision FFTs
  3d grid and FFT values/proc = 3375 512
Memory usage per processor = 3.06549 Mbytes
Step Temp PotEng KinEng TotEng Press Lx Ly Lz Press Pxx Pyy Pzz Pxy Pxz Pyz Volume 
       0         1600   -107.98101    1.4477136    -106.5333    18893.044    4.3416118    4.3416118    4.3416118    18893.044    34928.764    9395.1781    12355.189    2940.9636   -2671.2415   -870.18015    81.837618 
     100    658.40136   -106.95308   0.59573538   -106.35735    17301.963    4.3722162    4.3722162    4.3722162    17301.963    60686.159   -5059.3237   -3720.9468   -1378.2557   -2035.3761     7156.616    83.580485 
     200    659.14686   -106.55218   0.59640994   -105.95577   -16814.501    4.4208233    4.4208233    4.4208233   -16814.501    42642.618   -56154.616   -36931.505     1028.144   -15504.052    3379.7473    86.399148 
     300    2050.3912   -107.45932     1.855237   -105.60409   -44568.216    4.4239773    4.4239773    4.4239773   -44568.216   -7037.8077   -69160.182   -57506.658     4748.364   -1121.4562    8727.0154    86.584204 
     400    1044.2839   -106.27807      0.94489   -105.33318     21549.26    4.4003953    4.4003953    4.4003953     21549.26    124843.36   -37196.206   -22999.371   -7691.4343    3627.1074   -3228.2855    85.206963 
     500    1319.2486   -106.36683    1.1936839   -105.17315    27485.443    4.4055124    4.4055124    4.4055124    27485.443     110871.8   -19019.334   -9396.1411    4568.0949    6999.7109    5749.1833     85.50456 
     600    1527.8953   -106.48634    1.3824718   -105.10387   -15929.851    4.4387516    4.4387516    4.4387516   -15929.851    56845.687   -73349.125   -31286.114   -10434.438   -10111.404    7084.1905    87.454572 
     700    1544.9108   -106.43658    1.3978677   -105.03871   -13089.538    4.4396646    4.4396646    4.4396646   -13089.538    56571.849   -82290.144   -13550.318   -8801.9876   -7976.4777    1503.6511    87.508549 
     800    1636.3044   -106.49626    1.4805626   -105.01569    -2249.389    4.4294131    4.4294131    4.4294131    -2249.389    51846.463   -38611.886   -19982.744   -8050.6885   -12978.309   -218.08047    86.903759 
     900    1459.7225   -106.34834    1.3207876   -105.02755    3019.2417    4.4305611    4.4305611    4.4305611    3019.2417   -8910.4231   -50985.872     68954.02   -4200.6529   -19503.966    1715.5108    86.971344 
    1000    1750.7965   -106.62005    1.5841575   -105.03589    1304.2427    4.4357278    4.4357278    4.4357278    1304.2427    51880.385   -47929.508   -38.147964   -591.34039    15393.162    5926.7646    87.275967 
    1100    1031.9799   -105.98306   0.93375706    -105.0493    3220.0137    4.4450646    4.4450646    4.4450646    3220.0137    29403.956    -93242.42    73498.505   -832.91075   -4979.7359    3841.2209    87.828251 
    1200    1691.4919   -106.54703    1.5304974   -105.01654   -7464.8328    4.4414963    4.4414963    4.4414963   -7464.8328    22142.906   -79146.082    34608.678    1612.5991   -6699.7474    7373.4336    87.616905 
    1300     1489.607   -106.36825    1.3478277   -105.02042    2245.5994    4.4316689    4.4316689    4.4316689    2245.5994    87086.816   -76061.401   -4288.6169   -8985.8659   -11082.607   -4532.4465    87.036599 
    1400    1490.2843   -106.38946    1.3484406   -105.04102    17056.476    4.4224697    4.4224697    4.4224697    17056.476    52764.348   -63548.345    61953.424   -8990.1076    872.77815   -3469.3029    86.495715 
    1500    1667.5406   -106.54644    1.5088258   -105.03761     6684.147     4.426931     4.426931     4.426931     6684.147    35664.421    -53026.74     37414.76    4872.1741   -30690.482   -1697.6237    86.757744 
    1600    1226.7375   -106.16205    1.1099779   -105.05208   -16843.324    4.4400633    4.4400633    4.4400633   -16843.324   -32975.277   -70717.608    53162.914    6479.9185    13918.308    2875.2057    87.532128 
    1700    2213.5516   -107.02859     2.002868   -105.02572   -11233.558    4.4365464    4.4365464    4.4365464   -11233.558    4284.6943   -61123.604    23138.236    4251.6483   -287.75218   -9304.4114    87.324297 
    1800    1324.3839   -106.23231    1.1983304   -105.03397   -7507.5002    4.4375407    4.4375407    4.4375407   -7507.5002    44679.176   -65818.919   -1382.7578     3624.788   -1239.7716   -162.34307    87.383022 
    1900    1156.1665   -106.07165    1.0461237   -105.02553    15084.129    4.4353493    4.4353493    4.4353493    15084.129    74357.229   -64972.273     35867.43     2992.904   -4830.4089   -469.42672    87.253624 
    2000    2073.8991   -106.89993    1.8765075   -105.02343   -13117.571    4.4318865    4.4318865    4.4318865   -13117.571    63244.081   -76074.662   -26522.132    9201.4482   -19037.373    -7697.601    87.049423 
    2100    1068.2512   -106.02002   0.96657615   -105.05344    9700.2024    4.4303359    4.4303359    4.4303359    9700.2024    57235.342   -59444.507    31309.772    2158.5999    15147.755   -4141.3272    86.958085 
    2200    2069.4917   -106.92823    1.8725196   -105.05571   -11242.281    4.4254892    4.4254892    4.4254892   -11242.281    38534.603   -53166.538   -19094.909    7184.8873   -1926.0362    466.00467    86.673003 
    2300    1448.5583   -106.39627     1.310686   -105.08558   -8922.3903     4.430165     4.430165     4.430165   -8922.3903    -5922.321   -66407.929     45563.08    1199.9262   -8678.6142   -4575.6463    86.948022 
    2400    1709.1958   -106.61436    1.5465163   -105.06784   -1911.5587     4.446834     4.446834     4.446834   -1911.5587    81140.917   -60852.121   -26023.472    7566.7785   -18256.049   -7025.7259    87.933172 
    2500    1582.7415   -106.47891    1.4320978   -105.04681   -14878.235    4.4536968    4.4536968    4.4536968   -14878.235     12305.39   -77034.206     20094.11    9052.8095   -6924.2063     -639.544    88.340924 
    2600    1879.1226   -106.73976    1.7002696   -105.03949   -18062.478    4.4304245    4.4304245    4.4304245   -18062.478    45134.477   -79985.194   -19336.717     12874.34   -8773.3517     1792.367    86.963302 
    2700    1282.1735   -106.20625    1.1601375   -105.04611    55683.239    4.4085682    4.4085682    4.4085682    55683.239    127309.21   -36354.057     76094.56   -2380.6464   -12181.288   -3621.7166     85.68261 
    2800    1467.7497   -106.41647    1.3280508   -105.08842   -35749.152    4.4292723    4.4292723    4.4292723   -35749.152   -33861.901   -64125.719   -9259.8349   -3128.5043   -1713.0738   -2844.2748    86.895468 
    2900    2266.5161   -107.12154    2.0507914   -105.07075   -40151.143     4.440854     4.440854     4.440854   -40151.143   -37725.679   -58425.797   -24301.952     7314.925    16746.375    2810.2789    87.578898 
    3000    829.68057   -105.81983   0.75071242   -105.06912    9199.9823    4.4327891    4.4327891    4.4327891    9199.9823    19586.113   -82093.704    90107.538    22020.981    11892.734   -7236.2727     87.10262 
    3100    1808.4282   -106.68124    1.6363039   -105.04494    24185.181    4.4239834    4.4239834    4.4239834    24185.181    13590.289   -36786.021    95751.274   -8112.5206    22054.925   -1590.2817    86.584562 
    3200    1391.1414   -106.32099     1.258734   -105.06225   -28250.788    4.4412946    4.4412946    4.4412946   -28250.788    12344.539   -75016.545   -22080.359   -13130.674   -15166.741      2183.44     87.60497 
    3300    1991.8447   -106.85925    1.8022629   -105.05698    -4270.289    4.4387256    4.4387256    4.4387256    -4270.289    2335.0779   -26818.628    11672.683   -2285.4103   -1698.4426    1877.1137    87.453034 
    3400    1705.2512   -106.61313    1.5429472   -105.07018   -20981.921    4.4491274    4.4491274    4.4491274   -20981.921   -44880.305   -60265.745    42200.288    2683.2027   -2916.8527    5557.6125    88.069297 
    3500    1431.2264   -106.33794    1.2950037   -105.04293    9594.8785    4.4525274    4.4525274    4.4525274    9594.8785    32579.298   -44230.308    40435.645    417.74238   -15016.716    9198.2312    88.271357 
    3600    1786.0864   -106.62265    1.6160885   -105.00657    1149.6389    4.4416021    4.4416021    4.4416021    1149.6389    11535.304   -33680.293    25593.906   -1642.6777    15452.319   -278.22722    87.623169 
    3700    2171.0326   -106.97334     1.964396   -105.00894   -9055.4014    4.4273434    4.4273434    4.4273434   -9055.4014    6241.9468   -37637.807    4229.6554    -10657.98    -18182.71    1800.7596    86.781995 
    3800    1366.9391   -106.28146    1.2368352   -105.04462    4931.3995    4.4473279    4.4473279    4.4473279    4931.3995    35361.355   -31909.553    11342.396    12226.461     18572.91    7794.1111    87.962477 
    3900    1170.1638   -106.08042    1.0587888   -105.02163   -2944.0099    4.4620822    4.4620822    4.4620822   -2944.0099    35453.693   -59787.171    15501.449   -11494.115     26579.26   -5354.3307     88.84085 
    4000    2174.5061   -106.95498    1.9675388   -104.98745   -42874.962    4.4448126    4.4448126    4.4448126   -42874.962   -41061.376   -63351.818   -24211.694   -945.45995   -27950.134   -57.774487    87.813313 
    4100     1669.381   -106.50793     1.510491   -104.99744    2019.2872    4.4225708    4.4225708    4.4225708    2019.2872   -24927.494     -45275.6    76260.955    1159.9029     9463.797   -6736.8151     86.50165 
    4200    1135.9545   -106.07248    1.0278355   -105.04465    35103.325    4.4266416    4.4266416    4.4266416    35103.325    118563.64   -12375.848   -877.81942    16495.773    12554.658    -3720.707    86.740732 
    4300    1749.0644   -106.66063    1.5825902   -105.07804   -23832.925    4.4485558    4.4485558    4.4485558   -23832.925   -25768.342   -67590.212    21859.779   -11875.428   -17860.065   -473.90762    88.035354 
    4400    1826.2414   -106.69366    1.6524216   -105.04124   -47270.463    4.4541349    4.4541349    4.4541349   -47270.463   -28591.312   -77463.275     -35756.8   -12803.937    10503.706    1885.9228    88.366996 
    4500    2068.6412   -106.88073      1.87175   -105.00898    1520.4522    4.4264002    4.4264002    4.4264002    1520.4522     48376.57   -30190.063    -13625.15     8471.778    4942.6518   -3295.3617    86.726545 
    4600    1094.2068   -106.05231   0.99006129   -105.06225     25586.44    4.4321958    4.4321958    4.4321958     25586.44    117345.48   -28183.453   -12402.707    -20099.13    15316.337    499.20399    87.067649 
    4700    1507.3242   -106.42968    1.3638587   -105.06582   -3271.3588    4.4424693    4.4424693    4.4424693   -3271.3588    74365.963   -44899.742   -39280.298    4969.3472    10182.969    5981.7832    87.674504 
    4800    1162.2639   -106.12112    1.0516408   -105.06948     635.1643     4.430328     4.430328     4.430328     635.1643    51373.362   -45722.229   -3745.6399   -8948.4926   -20993.199    -4175.685    86.957621 
    4900    2081.3623   -106.94275    1.8832603   -105.05949    7623.7139    4.4217567    4.4217567    4.4217567    7623.7139    66739.978   -40315.901   -3552.9355    8958.5694    16420.175   -9228.2746    86.453885 
    5000    2083.9412   -106.97144    1.8855938   -105.08585   -22271.911    4.4405404    4.4405404    4.4405404   -22271.911   -11487.118   -33762.872   -21565.742   -6679.3014    2388.1437   -2187.0137    87.560347 
    5100    1757.3891   -106.66427    1.5901226   -105.07414   -3558.2908    4.4376191    4.4376191    4.4376191   -3558.2908    61588.534   -45152.708   -27110.699   -1778.4364    5836.1337    6128.1269     87.38765 
    5200    815.25402     -105.816   0.73765897   -105.07834    8586.5403    4.4371554    4.4371554    4.4371554    8586.5403    101524.78   -65781.927   -9983.2364     4839.156    14551.007    211.54712     87.36026 
    5300    2277.0397   -107.11779    2.0603133   -105.05748   -10140.461    4.4356104    4.4356104    4.4356104   -10140.461    39579.375   -60474.298   -9526.4603    3773.3541    10235.216    13086.168    87.269039 
    5400    1574.4703   -106.48807    1.4246139   -105.06346    -21867.28    4.4335666    4.4335666    4.4335666    -21867.28   -27105.514   -30662.586   -7833.7387    913.47865   -534.46373     13806.13    87.148456 
    5500    1072.9833   -106.02354   0.97085785   -105.05268    39704.685    4.4239818    4.4239818    4.4239818    39704.685    100846.58   -14640.709    32908.181   -563.16582     17323.85    10303.455    86.584469 
    5600    2405.4957   -107.22404    2.1765431    -105.0475   -34145.468     4.436697     4.436697     4.436697   -34145.468   -29334.027   -72503.844   -598.53338    10959.545   -1571.8637    5054.0703    87.333187 
    5700    836.79113   -105.80371    0.7571462   -105.04656    27892.173    4.4458327    4.4458327    4.4458327    27892.173    46552.184   -30044.395    67168.731    620.17611    13960.897    3201.1436    87.873788 
    5800    1926.7176   -106.76032    1.7433346   -105.01698   -29650.242    4.4509445    4.4509445    4.4509445   -29650.242   -34344.189   -52443.213    -2163.323   -571.67056   -13833.156   -1989.7715    88.177248 
    5900    1514.1365   -106.38467    1.3700225   -105.01465   -5510.9626    4.4367049    4.4367049    4.4367049   -5510.9626    29099.842   -18551.549   -27081.181    7942.4957    25910.865   -2479.1804    87.333652 
    6000    1863.2748   -106.71289    1.6859302   -105.02696    2778.2804    4.4223875    4.4223875    4.4223875    2778.2804   -36607.841    -42068.93    87011.612    6436.4813   -3298.3006   -7302.9341    86.490893 
    6100    1526.3492   -106.42292    1.3810729   -105.04184    15246.851    4.4217446    4.4217446    4.4217446    15246.851    50757.801   -25234.403    20217.154    8988.2408    7374.9405   -8011.8413     86.45318 
    6200     1547.495   -106.44572     1.400206   -105.04552    102.85422    4.4344042    4.4344042    4.4344042    102.85422   -36509.665   -38843.105    75661.333    5375.9152    990.59719    9827.9023    87.197863 
    6300    1667.9079   -106.53641    1.5091581   -105.02725   -163.42508    4.4507665    4.4507665    4.4507665   -163.42508    22790.474   -65529.177    42248.428    -8689.977   -6466.3588   -4680.9923     88.16667 
    6400    1818.4253   -106.65454    1.6453495   -105.00919   -45157.304    4.4439109    4.4439109    4.4439109   -45157.304   -46064.022   -56712.904   -32694.987   -7992.3749    45097.021   -16645.449    87.759879 
    6500    1668.2679   -106.51439    1.5094838   -105.00491    20544.028    4.4175025    4.4175025    4.4175025    20544.028     -7339.89   -6298.5069    75270.482    5385.5791   -19976.691   -343.92344    86.204592 
    6600    1654.8835   -106.53673    1.4973734   -105.03936    20166.269    4.4260212    4.4260212    4.4260212    20166.269    2186.4536    890.21424    57422.138   -5812.0999   -4722.2148    2188.3748    86.704269 
    6700    1603.1654   -106.50375    1.4505777   -105.05317   -51747.941    4.4449825    4.4449825    4.4449825   -51747.941   -42800.482   -52623.405   -59819.937    4822.4505    37384.076    -2148.765    87.823385 
    6800    1954.2995   -106.80005    1.7682913   -105.03176    -11177.18    4.4350566    4.4350566    4.4350566    -11177.18   -30467.479   -57450.279    54386.219     8787.053    6676.7901    16840.399    87.236354 
    6900    1251.8285   -106.16602    1.1326807   -105.03334      32380.6    4.4263986    4.4263986    4.4263986      32380.6    10192.912   -3241.5888    90190.477    6835.4291    9516.8983    2465.9826    86.726446 
    7000    1767.2802   -106.63933    1.5990723   -105.04026    -23028.72    4.4323995    4.4323995    4.4323995    -23028.72    1704.4361   -46496.306    -24294.29    7211.4184    2858.9276    -2828.941    87.079655 
    7100    1819.7255   -106.69913    1.6465258    -105.0526   -9005.5412    4.4351954    4.4351954    4.4351954   -9005.5412   -38103.598   -55565.111    66652.086   -8531.9198   -20536.398   -2636.6456    87.244546 
    7200     1119.699   -106.06382    1.0131272   -105.05069    26184.079    4.4186607    4.4186607    4.4186607    26184.079     79142.99   -25062.267    24471.514    13984.419    13042.848   -13331.731    86.272414 
    7300    1452.0314   -106.37058    1.3138285   -105.05676    19641.949    4.4226779    4.4226779    4.4226779    19641.949    43473.187   -30013.564    45466.223   -4465.1207   -12320.709    6075.8447    86.507933 
    7400    1908.9905   -106.79194    1.7272947   -105.06465   -45704.886    4.4418718    4.4418718    4.4418718   -45704.886   -55409.438   -72047.893   -9657.3274    5816.7763    17202.476   -296.80057    87.639128 
    7500     1856.981   -106.73349    1.6802354   -105.05326   -34355.932     4.440194     4.440194     4.440194   -34355.932    -42998.44   -43042.418   -17026.939   -1518.5995    892.03296   -776.35673    87.539855 
    7600     1347.987   -106.27649     1.219687    -105.0568    33670.868    4.4149631    4.4149631    4.4149631    33670.868    118625.95   -12300.172    -5313.176    1642.4978    13803.887     -5901.53    86.056016 
    7700    1553.2637   -106.49468    1.4054256   -105.08925      7873.65    4.4142191    4.4142191    4.4142191      7873.65    67974.673   -43917.319   -436.40441    1416.2366    14693.082   -6407.2445    86.012519 
    7800    1742.8684   -106.67641    1.5769839   -105.09943    344.86835    4.4383822    4.4383822    4.4383822    344.86835    15536.359   -26821.956    12320.202     5479.343    4210.7616    2520.7751    87.432742 
    7900    1324.0085   -106.27028    1.1979907   -105.07229   -18726.169    4.4464188    4.4464188    4.4464188   -18726.169   -29352.566   -26795.194   -30.746508    2683.8179   -2228.5231    1978.0727    87.908548 
    8000    1526.6208   -106.42097    1.3813185   -105.03965    28769.352    4.4269343    4.4269343    4.4269343    28769.352    86024.861   -42906.354    43189.549   -6149.7899    39686.921   -10497.151    86.757942 
    8100    1715.4824   -106.59624    1.5522045   -105.04404   -11507.887    4.4272991    4.4272991    4.4272991   -11507.887   -13609.806   -62372.435    41458.581    7234.9274   -5748.0269    1235.6489    86.779392 
    8200    1467.0598   -106.37364    1.3274266   -105.04622    8246.6969    4.4264699    4.4264699    4.4264699    8246.6969    12246.913   -32517.518    45010.696   -6643.0512    10329.467    11638.157    86.730638 
    8300    1603.2456   -106.49999    1.4506503   -105.04934    4730.8414    4.4324247    4.4324247    4.4324247    4730.8414   -10441.328   -37205.745    61839.598    13425.183    -153.4194   -926.38743    87.081138 
    8400    1176.5907    -106.1182     1.064604   -105.05359    17838.659    4.4245517    4.4245517    4.4245517    17838.659   -26044.858   -38763.033    118323.87     8006.973    4502.5377    3440.6736    86.617934 
    8500    1957.4502    -106.8304     1.771142   -105.05925   -22497.482    4.4198108    4.4198108    4.4198108   -22497.482   -24937.627   -55637.115    13082.295    7029.4568    26359.306     7267.477      86.3398 
    8600    1819.4935   -106.69815     1.646316   -105.05183    14011.869    4.4260606    4.4260606    4.4260606    14011.869    -28413.77   -22868.872    93318.249    10662.618    7227.7934    3941.4889    86.706583 
    8700    1221.2482   -106.15153     1.105011   -105.04652   -34004.458    4.4404722    4.4404722    4.4404722   -34004.458   -50079.491   -44630.356   -7303.5273    3009.2741    21256.428    10638.971    87.556311 
    8800    1708.1594   -106.57634    1.5455785   -105.03076    3276.4055    4.4182007    4.4182007    4.4182007    3276.4055   -26246.915   -54183.521    90259.653    8229.6831    7232.3454    6869.3147    86.245476 
    8900    2098.6396    -106.9301    1.8988932   -105.03121    27040.162    4.3943852    4.3943852    4.3943852    27040.162    770.79859    26734.533    53615.156   -6463.9456    26861.223   -9326.1218    84.858309 
    9000    1289.2425   -106.26081    1.1665337   -105.09427    -144.3658    4.4214083    4.4214083    4.4214083    -144.3658   -25304.239   -31216.723    56087.865     19660.23   -7496.0378    17894.104    86.433451 
    9100     1766.489   -106.65629    1.5983564   -105.05793   -16007.512    4.4386254    4.4386254    4.4386254   -16007.512   -38401.204   -61267.789    51646.456   -8708.2361    8777.3869    8794.6212    87.447116 
    9200    1111.7757   -106.05207     1.005958   -105.04611     737.0063    4.4153113    4.4153113    4.4153113     737.0063   -51325.696    15885.153    37651.562    18469.204    23180.273   -7074.1433    86.076379 
    9300    2501.1689   -107.29593    2.2631102   -105.03282    9401.3546    4.3974054    4.3974054    4.3974054    9401.3546   -17593.551   -8820.0032    54617.618   -8437.4155   -8716.3521    23949.752    85.033394 
    9400    948.61059   -105.95884    0.8583228   -105.10052    2661.1444    4.4320638    4.4320638    4.4320638    2661.1444    2510.9179    40356.437   -34883.922    15966.754    12406.552    3776.4358    87.059871 
    9500    1591.1631   -106.48018    1.4397178   -105.04047   -36520.157    4.4563653    4.4563653    4.4563653   -36520.157   -29269.823    -17990.72   -62299.927   -2189.2363    22048.354    6892.1054    88.499816 
    9600     1740.993   -106.55249     1.575287    -104.9772    3612.9236    4.4295122    4.4295122    4.4295122    3612.9236    -24980.96    22936.321     12883.41    2819.2565    9013.5024    12308.811    86.909592 
    9700    1676.1219   -106.50243    1.5165903   -104.98584   -28593.313    4.4153235    4.4153235    4.4153235   -28593.313   -17476.823   -29135.669   -39167.447    14958.936    2669.9189     25755.98    86.077094 
    9800    1919.8632   -106.74428    1.7371326   -105.00715    6652.4224     4.420403     4.420403     4.420403    6652.4224    31532.837    17730.054   -29305.624   -11452.837    3162.6358    4949.6367    86.374509 
    9900    1468.7608   -106.37348    1.3289657   -105.04451    -13229.46    4.4412423    4.4412423    4.4412423    -13229.46    -49426.53   -44092.727    53830.878    6741.3691    16887.173    18862.757    87.601876 
   10000    1752.4405   -106.59556     1.585645   -105.00992   -30514.976    4.4536258    4.4536258    4.4536258   -30514.976    -40055.96   -22329.777   -29159.192   -10767.915   -22015.983    14277.812      88.3367 
   10100    1748.4543   -106.55435    1.5820382   -104.97231   -7733.4997     4.425388     4.425388     4.425388   -7733.4997    15085.755   -16264.387   -22021.867   -10245.712   -3116.8917    572.35359    86.667062 
   10200    1881.5097   -106.69211    1.7024296   -104.98968   -2905.3131    4.4115692    4.4115692    4.4115692   -2905.3131    510.55135    8491.0088   -17717.499   -4465.6108    1012.6469     8228.217    85.857706 
   10300    1976.1967    -106.8228    1.7881043    -105.0347   -33759.162    4.4435345    4.4435345    4.4435345   -33759.162   -48049.021    15046.257   -68274.722   -6516.5118    3818.0779    5695.2486    87.737582 
   10400    1323.6914   -106.20755    1.1977038   -105.00985   -31336.885     4.455128     4.455128     4.455128   -31336.885   -58422.976    5558.8224   -41146.501    27233.359    6557.1943    22683.041     88.42612 
   10500    1188.7558   -106.05488    1.0756112   -104.97927    34866.525    4.4231614    4.4231614    4.4231614    34866.525    82520.548    4567.5227    17511.503     17405.36    -7955.106     7630.414    86.536308 
   10600    1751.6971   -106.58526    1.5849724   -105.00028    15279.571     4.409455     4.409455     4.409455    15279.571    15313.376    43171.668   -12646.329    10530.963    18115.548    10946.434     85.73433 
   10700    1328.4087    -106.2391    1.2019721   -105.03712    32674.695     4.434708     4.434708     4.434708    32674.695    29275.239    52164.299    16584.546    16843.198   -274.78171   -3299.2799    87.215786 
   10800    1231.3794    -106.1412     1.114178   -105.02702   -21111.915    4.4514137    4.4514137    4.4514137   -21111.915    17327.664   -8416.5398   -72246.869     20027.18    9557.4662    9998.8804    88.205137 
   10900    1705.6987   -106.54746    1.5433521   -105.00411    7775.5098     4.428881     4.428881     4.428881    7775.5098   -20422.152    13721.839    30026.842    3269.5785   -5821.8836    8225.5808    86.872441 
   11000    1591.8795   -106.44226     1.440366    -105.0019    32525.167     4.401983     4.401983     4.401983    32525.167    59590.873    64554.803   -26570.174    6795.2469    12381.947   -14951.589    85.299227 
   11100    1599.2022   -106.48613    1.4469918   -105.03914    17079.777    4.4146808    4.4146808    4.4146808    17079.777    5910.7026    9882.7338    35445.895    17919.311    13194.912   -698.70485    86.039507 
   11200    1576.4281   -106.48105    1.4263853   -105.05467   -21042.938     4.438138     4.438138     4.438138   -21042.938   -4248.7087   -20507.322   -38372.785   -16353.495    2653.1324   -2351.9495     87.41831 
   11300    1530.5828   -106.40884    1.3849035   -105.02394   -2945.2172    4.4421784    4.4421784    4.4421784   -2945.2172   -13883.738    11282.958    -6234.872    12360.272    16100.327    2449.3758    87.657279 
   11400    1240.8229   -106.11782    1.1227226    -104.9951   -2451.5143    4.4296769    4.4296769    4.4296769   -2451.5143    57706.239   -15232.665   -49828.117   -9162.6231    -2681.907   -18755.689    86.919286 
   11500    1948.2527   -106.75347      1.76282   -104.99065   -31416.444    4.4128662    4.4128662    4.4128662   -31416.444    -34744.73   -25158.597   -34346.006   -12722.882     20383.79    612.54635    85.933458 
   11600    1551.1136   -106.42691    1.4034802   -105.02343    29197.959    4.4121062    4.4121062    4.4121062    29197.959    73744.747    30563.818   -16714.687    10915.008    8100.7937    21818.795    85.889063 
   11700    1497.9975   -106.40503    1.3554196   -105.04961   -31769.183    4.4335765    4.4335765    4.4335765   -31769.183   -41043.445   -9893.3616   -44370.744   -16421.728    11161.116    3149.4446    87.149042 
   11800    1979.0465   -106.79307    1.7906829   -105.00239   -17442.572    4.4456651    4.4456651    4.4456651   -17442.572    10295.123   -45226.937   -17395.902   -5946.2376   -7479.8084    10684.837    87.863853 
   11900    1376.0598    -106.2347    1.2450878   -104.98961   -561.53928    4.4316341    4.4316341    4.4316341   -561.53928     22784.12    10193.652    -34662.39   -5496.5807    31852.541   -20419.989    87.034551 
   12000    1728.0053   -106.53935    1.5635355   -104.97581    30988.861    4.4056764    4.4056764    4.4056764    30988.861   -36690.904    77390.378    52267.109   -5052.6877    -4712.003     27926.99    85.514113 
   12100    1347.9258    -106.2468    1.2196316   -105.02717    1632.7633    4.4130369    4.4130369    4.4130369    1632.7633   -43192.921    56513.637   -8422.4258   -2369.0164    27068.492    12877.367    85.943431 
   12200    1612.6429   -106.48339    1.4591532   -105.02423   -3697.0294     4.435744     4.435744     4.435744   -3697.0294   -27256.938    25648.517   -9482.6674    13611.499   -1777.0383   -3192.6439    87.276924 
   12300     1207.888   -106.10188    1.0929225   -105.00896   -10858.084    4.4394453    4.4394453    4.4394453   -10858.084   -37143.958    10664.757   -6095.0519   -2107.0907    28206.872    25170.466    87.495581 
   12400    1748.9695   -106.57994    1.5825044   -104.99744   -8825.6204    4.4204605    4.4204605    4.4204605   -8825.6204    27182.508   -36533.834   -17125.535    3152.6878    4331.4625   -19225.691    86.377878 
   12500    1373.5025    -106.2516    1.2427739   -105.00883    15938.649    4.4075672    4.4075672    4.4075672    15938.649   -5095.1177    20957.388    31953.677   -3261.6746    33287.223    9552.2125    85.624261 
   12600     1720.408   -106.57505    1.5566613   -105.01839   -15489.146    4.4052718    4.4052718    4.4052718   -15489.146   -38281.621     24961.53   -33147.347   -332.94405    15164.213   -5984.8097    85.490551 
   12700    1426.8715   -106.32756    1.2910633   -105.03649     29746.74    4.4187709    4.4187709    4.4187709     29746.74    65005.737   -3944.2841    28178.766   -1707.3536    2737.5033   -219.16382    86.278871 
   12800    1538.4356    -106.4229    1.3920088   -105.03089   -40124.953    4.4352168    4.4352168    4.4352168   -40124.953   -39459.683   -20942.919   -59972.257    10131.863    32428.102    7586.0468    87.245805 
   12900    1653.3078   -106.50696    1.4959476   -105.01101    11673.705    4.4140117    4.4140117    4.4140117    11673.705    25712.238   -12658.091    21966.967   -6896.1712   -9307.6892   -27190.701    86.000394 
   13000    1555.5525   -106.41826    1.4074966   -105.01076    29591.462    4.4047156    4.4047156    4.4047156    29591.462    48746.964    61452.594   -21425.172    -5387.297    23160.725     6133.234    85.458174 
   13100    1591.4107   -106.46659    1.4399418   -105.02665    3.1126154    4.4163811    4.4163811    4.4163811    3.1126154    13416.824   -751.48663   -12655.999   -10031.491   -4347.0076   -30847.852    86.138961 
   13200    1365.3014   -106.26441    1.2353534   -105.02905     15420.69    4.4322844    4.4322844    4.4322844     15420.69    42717.631    832.19364    2712.2443   -225.26691    9764.5414   -7360.6697    87.072868 
   13300    1450.5693   -106.32907    1.3125056   -105.01656   -27709.821    4.4307343    4.4307343    4.4307343   -27709.821   -59022.611   -29459.288     5352.435    873.40484    16023.944   -25253.588    86.981547 
   13400    1543.9194   -106.39608    1.3969707   -104.99911     13655.06    4.4006306    4.4006306    4.4006306     13655.06    69555.018   -37841.755    9251.9158    8249.1483   -12942.725   -10079.721    85.220633 
   13500    1376.3888   -106.28615    1.2453855   -105.04076     2284.347    4.4080391    4.4080391    4.4080391     2284.347    11664.656    2769.9303   -7581.5458   -3340.1302    35553.536   -3679.9879    85.651764 
   13600    1912.1088   -106.78282    1.7301162   -105.05271    -27219.62    4.4202888    4.4202888    4.4202888    -27219.62   -27960.128   -45030.077   -8668.6551    11340.241   -6394.7294   -28030.785    86.367817 
   13700    1675.8603   -106.57604    1.5163536   -105.05969    3960.3129    4.4186107    4.4186107    4.4186107    3960.3129    25907.927   -6036.8278   -7990.1604    10314.632    7353.5075   -1114.9845     86.26949 
   13800    1459.4074   -106.37291    1.3205025   -105.05241   -6836.5566    4.4239045    4.4239045    4.4239045   -6836.5566    71828.414   -46763.306   -45574.777   -16488.481   -5703.0483   -22962.621    86.579927 
   13900    1901.0362     -106.744    1.7200975   -105.02391   -23984.406    4.4187364    4.4187364    4.4187364   -23984.406   -32553.355   -34887.096    -4512.768   -25853.757   -11132.914    6121.1105    86.276851 
   14000    1181.1081   -106.08404    1.0686915   -105.01535    28152.306     4.401216     4.401216     4.401216    28152.306    126591.63   -36223.354   -5911.3589    654.17529    13707.753   -3712.1047    85.254643 
   14100     1486.888   -106.38352    1.3453675   -105.03815    4423.8564    4.4116021    4.4116021    4.4116021    4423.8564    18274.849     18964.08    -23967.36   -1190.5459   -20589.413   -13606.256    85.859626 
   14200    2102.1373   -106.94367     1.902058   -105.04162   -31250.659    4.4236696    4.4236696    4.4236696   -31250.659   -39154.039   -10267.167   -44330.772    12104.881     17768.38    4004.6678    86.566141 
   14300    1233.8214   -106.15722    1.1163876   -105.04083    17631.379    4.4133849    4.4133849    4.4133849    17631.379    22067.518    23648.781    7177.8365    7301.2686   -18280.097    -482.3325    85.963762 
   14400    1419.0603   -106.32295    1.2839956   -105.03895    17418.358    4.4167788    4.4167788    4.4167788    17418.358   -10270.114    82443.339   -19918.152    32410.988    5618.3029   -721.38118    86.162231 
   14500    1536.8222   -106.42288     1.390549   -105.03233   -297.13428    4.4242652    4.4242652    4.4242652   -297.13428    9755.8566    37852.979   -48500.239    9389.2814   -7953.8513    -10749.89     86.60111 
   14600    1578.0971   -106.44084    1.4278954   -105.01294     15906.76    4.4145954    4.4145954    4.4145954     15906.76   -32653.838    62826.219    17547.901    11965.282   -12599.189    1358.6063    86.034514 
   14700    1819.4453   -106.66791    1.6462724   -105.02164   -26842.768      4.41877      4.41877      4.41877   -26842.768   -5815.2835   -25778.565   -48934.454   -2322.8955   -15102.827   -757.31262    86.278818 
   14800      1268.94   -106.18711    1.1481636   -105.03894    13863.967    4.4125734    4.4125734    4.4125734    13863.967    44645.141    34610.813   -37664.053    21928.695   -27844.489   -11007.194     85.91635 
   14900     2221.936     -107.043    2.0104544   -105.03254    82.769415    4.4120366    4.4120366    4.4120366    82.769415   -29091.663   -1676.1204    31016.092    3815.4494   -1769.9499     14967.97    85.885001 
   15000    625.90111   -105.62652   0.56632848    -105.0602    5039.5902    4.4216308    4.4216308    4.4216308    5039.5902    67978.644   -30231.864    -22628.01    3463.8788   -32959.296   -6445.1758    86.446505 
   15100    1945.6759   -106.79076    1.7604884   -105.03028    9781.6583    4.4286272    4.4286272    4.4286272    9781.6583    38735.287   -18911.595    9521.2829    20092.036   -1854.7677    5605.9314    86.857509 
   15200    1494.1769    -106.3671    1.3519626   -105.01514   -24278.818    4.4410097    4.4410097    4.4410097   -24278.818   -2124.9017   -3041.5305   -67670.021   -7314.7978   -31400.752   -3487.3121    87.588112 
   15300    1527.2164   -106.37828    1.3818575   -104.99642   -15811.549    4.4188674    4.4188674    4.4188674   -15811.549    40043.653   -67493.651   -19984.649    6988.9084    1217.7765   -4523.6736    86.284524 
   15400    1936.6568   -106.75122    1.7523278    -104.9989     14273.96    4.3852681    4.3852681    4.3852681     14273.96   -1631.6783    24783.658    19669.899    6822.3844   -28409.919    3284.9595    84.331233 
   15500    1576.4343   -106.47994    1.4263909   -105.05355    25912.972    4.3967657    4.3967657    4.3967657    25912.972    49851.747    22634.893    5252.2769    2130.1943   -17432.228   -51.510822    84.996293 
   15600    1483.9075   -106.40808    1.3426707   -105.06541   -4120.8548    4.4354607    4.4354607    4.4354607   -4120.8548   -1836.6586    9062.0814   -19587.987    17585.658    -13600.66    4028.9633      87.2602 
   15700    1660.1558    -106.5319    1.5021438   -105.02975   -25347.261    4.4391005    4.4391005    4.4391005   -25347.261   -47421.145    1845.9606   -30466.598    1776.0984   -32705.622   -607.26011    87.475199 
   15800    1679.2611   -106.53356    1.5194308   -105.01413   -2792.3839    4.4212215    4.4212215    4.4212215   -2792.3839   -12663.806   -5389.8554    9676.5099    1024.2573     6413.857    11559.685    86.422501 
   15900    1326.4741   -106.22672    1.2002216    -105.0265    19897.611    4.4078865    4.4078865    4.4078865    19897.611    30560.769    70033.586   -40901.521   -6454.5612   -31596.571    1151.8725     85.64287 
   16000    2092.6687    -106.9317    1.8934906   -105.03821   -27802.157    4.4248179    4.4248179    4.4248179   -27802.157   -34044.328   -37394.242   -11967.901    10532.911    -1959.124    6411.2025    86.633567 
   16100    1322.4206   -106.23207     1.196554   -105.03552      16005.2    4.4294226    4.4294226    4.4294226      16005.2    54996.386    43046.602   -50027.389   -12013.388   -22145.765    3066.9171    86.904319 
   16200    1537.4513   -106.40853    1.3911183   -105.01741     17093.78    4.4256475    4.4256475    4.4256475     17093.78   -6599.8608    60392.548   -2511.3477    13204.018    8678.2427   -545.02795    86.682309 
   16300    1942.0694   -106.77719    1.7572252   -105.01997   -30020.022    4.4215501    4.4215501    4.4215501   -30020.022   -28027.217   -2526.1447   -59506.703   -277.83729   -25458.891   -10915.678     86.44177 
   16400     1553.979   -106.43541    1.4060728   -105.02934    6626.6462    4.4198341    4.4198341    4.4198341    6626.6462    54935.697    -2721.045   -32334.714    6250.0558   -21629.723   -9331.8265    86.341163 
   16500    1238.2294   -106.16917    1.1203759    -105.0488    12961.293    4.4246021    4.4246021    4.4246021    12961.293    59721.968   -28983.624    8145.5352   -25307.761    5470.1793   -8746.5286    86.620895 
   16600    1755.1511   -106.63553    1.5880976   -105.04743   -52983.364    4.4347837    4.4347837    4.4347837   -52983.364    -64126.13   -42091.623   -52732.341    -5100.045   -29351.767    286.37882     87.22025 
   16700     2484.478   -107.28818    2.2480079   -105.04017   -30566.949    4.4163626    4.4163626    4.4163626   -30566.949   -11422.665    -52392.96   -27885.223   -6000.3011    13483.301   -2594.8309     86.13788 
   16800    1412.7193   -106.33996    1.2782581    -105.0617    16404.588    4.4168747    4.4168747    4.4168747    16404.588    39967.215     36182.47   -26935.921    16908.074   -8192.0449    3098.5699    86.167845 
   16900     1943.944   -106.81486    1.7589214   -105.05594   -32321.215    4.4342564    4.4342564    4.4342564   -32321.215   -34359.154   -4324.5358   -58279.955   -3571.3204    1374.1515    17647.381    87.189145 
   17000    1842.1562   -106.70687    1.6668216   -105.04005    -17925.02    4.4476533    4.4476533    4.4476533    -17925.02    9741.0653    1104.6809   -64620.808   -4539.6128   -15566.299    787.23617    87.981787 
   17100    1843.9037   -106.68548    1.6684029   -105.01707   -40419.014    4.4499214    4.4499214    4.4499214   -40419.014   -72244.711    21015.237   -70027.568    13484.271   -1732.6025    20612.083    88.116457 
   17200    1738.4337   -106.56733    1.5729714   -104.99436    4280.8959    4.4273936    4.4273936    4.4273936    4280.8959    65895.948   -20628.862   -32424.399   -9895.5195   -2589.1903   -4664.4033    86.784944 
   17300    1648.9636   -106.50184    1.4920169   -105.00982   -2851.6028    4.4219102    4.4219102    4.4219102   -2851.6028   -11727.642     39378.52   -36205.686     2397.935   -13490.863   -18308.896    86.462894 
   17400    1738.8521   -106.60237    1.5733499   -105.02902    20311.255    4.4312903    4.4312903    4.4312903    20311.255     47111.69    44945.597   -31123.521   -20.290821   -5224.3803    4014.5367    87.014293 
   17500    1508.0486   -106.40648    1.3645141   -105.04197   -56535.892    4.4509658    4.4509658    4.4509658   -56535.892   -68799.772   -52260.586   -48547.319    12728.294    -3139.109   -699.30208    88.178516 
   17600    1765.5673   -106.61138    1.5975224   -105.01386   -223.18347    4.4246665    4.4246665    4.4246665   -223.18347     13657.14    25304.828   -39631.519   -20226.359   -1676.6059    7118.7628    86.624676 
   17700    1864.5094   -106.69104    1.6870472   -105.00399    4415.5066    4.4027346    4.4027346    4.4027346    4415.5066   -5525.5319    8389.0744    10382.977    20565.895   -22917.423   -24944.317    85.342924 
   17800     1750.964   -106.62232     1.584309   -105.03801   -32097.861    4.4280729    4.4280729    4.4280729   -32097.861   -56892.704   -17469.958   -21930.922    667.50058   -1192.1952   -14356.601    86.824899 
   17900    1506.0883   -106.37876    1.3627403   -105.01602    6150.8287    4.4403494    4.4403494    4.4403494    6150.8287    24773.362    13035.265   -19356.141   -11308.736   -9938.2319   -8269.2918    87.549048 
   18000    1905.0644   -106.72565    1.7237423    -105.0019   -43639.262    4.4406004    4.4406004    4.4406004   -43639.262   -60195.662   -24906.487   -45815.638     19274.99   -9385.8405   -7143.4962    87.563897 
   18100    1731.4575    -106.5558    1.5666591   -104.98914    24833.978    4.4279327    4.4279327    4.4279327    24833.978    42398.626   -19440.841    51544.149   -5378.9659    16835.832   -4458.9765    86.816649 
   18200    1346.1585   -106.22279    1.2180325   -105.00476    10976.732    4.4289903    4.4289903    4.4289903    10976.732    25228.057    19617.853   -11915.714   -200.41464   -5776.1051    2371.7808    86.878875 
   18300    2035.1252   -106.83225     1.841424   -104.99082   -12230.152    4.4467873    4.4467873    4.4467873   -12230.152   -12787.376   -13357.253   -10545.825    6518.6227   -7360.3972   -4263.6891    87.930407 
   18400     1264.867   -106.11729    1.1444782   -104.97282    9034.5159    4.4392546    4.4392546    4.4392546    9034.5159    57380.351   -35382.684    5105.8806    5172.7362    4163.5295    14837.306    87.484309 
   18500    1782.2673    -106.5943    1.6126329   -104.98167   -13036.849    4.4209578    4.4209578    4.4209578   -13036.849    3714.5949   -8302.7555   -34522.387   -12540.234   -11824.409    5430.7675    86.407036 
   18600    2164.5025   -106.97383    1.9584874   -105.01534    1999.5329    4.4175465    4.4175465    4.4175465    1999.5329     21382.46    4056.2579   -19440.119    9233.2603   -10505.875    15415.595    86.207173 
   18700    1284.3901   -106.22323    1.1621432   -105.06109   -5280.3282    4.4390315    4.4390315    4.4390315   -5280.3282    34699.001   -21665.253   -28874.733    16616.529   -21955.257    2071.0216    87.471117 
   18800    1390.3112   -106.27648    1.2579828    -105.0185    -10220.49    4.4556705    4.4556705    4.4556705    -10220.49     94482.33   -56681.516   -68462.283    5472.8487    10987.815    3878.3492    88.458423 
   18900    1972.2683   -106.76801    1.7845498   -104.98346   -29603.554    4.4382087    4.4382087    4.4382087   -29603.554    5241.6491   -44863.707   -49188.603    2871.1793   -13554.623    67.861603    87.422487 
   19000    1325.1454   -106.18538    1.1990194   -104.98636    12761.411    4.4111912    4.4111912    4.4111912    12761.411    64188.457    23828.849   -49733.074    10100.217   -16915.358   -11615.635    85.835641 
   19100    1623.5292   -106.49376    1.4690033   -105.02476   -2756.9889    4.4027771    4.4027771    4.4027771   -2756.9889   -20894.543    29472.555   -16848.979    13017.356   -9442.3155    10951.004    85.345394 
   19200    1483.3802   -106.41218    1.3421935   -105.06998    6911.0275     4.415733     4.415733     4.415733    6911.0275    -25150.56    73729.967   -27846.325    22415.356   -6162.7064   -2836.5356    86.101045 
   19300    1316.1882   -106.25226    1.1909147   -105.06134   -6270.4082    4.4354522    4.4354522    4.4354522   -6270.4082   -1191.4018    55507.779   -73127.602   -13026.377    8193.3053   -3438.6782    87.259701 
   19400    1403.7408    -106.2937    1.2701342   -105.02356   -571.86063    4.4405391    4.4405391    4.4405391   -571.86063   -28666.299    59175.638   -32224.921    -3409.356   -10076.295   -761.02566    87.560272 
   19500    1638.6076   -106.48607    1.4826466   -105.00342    1513.5986    4.4257651    4.4257651    4.4257651    1513.5986    28441.841   -10300.892   -13600.153   -16034.023   -10381.085   -2740.5455    86.689215 
   19600    1807.0476   -106.64216    1.6350547   -105.00711    8427.0695    4.4166356    4.4166356    4.4166356    8427.0695    51531.229    16942.663   -43192.684    4456.8974   -2618.2905    450.49111    86.153856 
   19700    1836.1577   -106.67922    1.6613941   -105.01783    -18346.46    4.4328259    4.4328259    4.4328259    -18346.46   -25983.855    16985.099   -46040.625    7380.9881   -3675.4098   -4286.5956    87.104788 
   19800      1329.41   -106.22129    1.2028781   -105.01842   -19708.973    4.4370801    4.4370801    4.4370801   -19708.973   -41738.149    13146.268   -30535.039   -16276.889    3189.7427    27953.595    87.355809 
   19900    2010.0918   -106.82295    1.8187733   -105.00417    15082.463    4.4209269    4.4209269    4.4209269    15082.463    4073.7115    38940.651    2233.0271     6119.199   -9098.7768    1585.2279    86.405226 
   20000    1390.9432   -106.27122    1.2585547   -105.01267   -163.09974    4.4108625    4.4108625    4.4108625   -163.09974   -3332.7199    39508.995   -36665.574    5598.4682   -3173.5666    14458.845    85.816452 
   20100    1114.2372    -106.0468    1.0081852   -105.03861    17938.731    4.4241954    4.4241954    4.4241954    17938.731     34802.13   -672.05444    19686.118    3282.8346   -2350.9115    5046.2787    86.597008 
   20200    1929.7975   -106.76272    1.7461213    -105.0166   -1183.8268     4.429519     4.429519     4.429519   -1183.8268    64790.471   -24116.933   -44225.017     18925.97   -2772.4667    6117.0552    86.909992 
   20300    1122.5525   -106.02911    1.0157091    -105.0134    21971.324    4.4092378    4.4092378    4.4092378    21971.324    59124.723   -16690.063    23479.311   -5107.5096   -7153.3792    2075.3135    85.721658 
   20400    1631.1409   -106.49868    1.4758905   -105.02279    18451.481    4.4093106    4.4093106    4.4093106    18451.481    50287.713    25400.057   -20333.326    6631.6747   -10047.764   -3750.4289    85.725906 
   20500    1452.2682    -106.3433    1.3140428   -105.02925    -7907.759    4.4277117    4.4277117    4.4277117    -7907.759    27401.849   -56256.239    5131.1138    937.13894    -3788.108   -15446.212    86.803653 
   20600    1808.2842   -106.65321    1.6361736   -105.01703   -27840.735    4.4204533    4.4204533    4.4204533   -27840.735    5139.0182   -59920.978   -28740.246    5190.4518   -14657.526   -16307.976    86.377459 
   20700    1635.0052   -106.50354     1.479387   -105.02416    827.90482    4.4123449    4.4123449    4.4123449    827.90482   -9549.1859     4710.442    7322.4583   -3090.7134   -14887.712    17824.176    85.903003 
   20800    1539.3514   -106.42243    1.3928375   -105.02959    -26880.23    4.4105769    4.4105769    4.4105769    -26880.23   -25588.875   -54293.809   -758.00668   -3985.5818   -11695.028   -11914.719    85.799783 
   20900    2093.4655    -106.9207    1.8942115   -105.02649   -9695.6842    4.4154362    4.4154362    4.4154362   -9695.6842   -29631.745   -29170.505    29715.197    15162.401   -3205.3451    9858.0704    86.083681 
   21000    1081.0917   -106.00882   0.97819452   -105.03063   -28588.776    4.4346153    4.4346153    4.4346153   -28588.776   -73865.358   -27114.089    15213.119   -12029.987    757.39224   -10260.695    87.210316 
   21100    1461.1783   -106.33579    1.3221048   -105.01369   -22393.369    4.4204685    4.4204685    4.4204685   -22393.369   -15232.817   -45377.097   -6570.1921    5730.4423    78.918606    3446.8835    86.378352 
   21200    2211.0038   -106.99447    2.0005627    -104.9939    4922.2167    4.4080756    4.4080756    4.4080756    4922.2167   -13363.571   -26684.835    54815.057   -9202.6264     20231.68    2637.8972    85.653895 
   21300    1232.0152    -106.1439    1.1147532   -105.02915   -20530.836    4.4171508    4.4171508    4.4171508   -20530.836   -38028.901   -40680.923    17117.316    8686.0427    20690.661   -4978.7747    86.184006 
   21400    1754.9797   -106.60831    1.5879425   -105.02036     11557.03    4.4239667    4.4239667    4.4239667     11557.03    1370.4369    20431.571    12869.083    3861.8818    19950.243    18050.218    86.583583 
   21500    941.68704   -105.86946   0.85205822   -105.01741    4099.2897    4.4202458    4.4202458    4.4202458    4099.2897   -41539.942    -5475.067    59312.879   -1856.6149     33522.65    1662.0791    86.365294 
   21600    2076.7088   -106.86659    1.8790497   -104.98754   -11954.707    4.4123867    4.4123867    4.4123867   -11954.707   -20564.809   -24947.285    9647.9725   -1212.7734   -3521.0008    7009.6334    85.905449 
   21700    1393.0801   -106.27729    1.2604882    -105.0168   -5972.8902    4.4119103    4.4119103    4.4119103   -5972.8902   -23787.255     -42210.8    48079.385    2925.5422    9625.3763    7738.5926    85.877622 
   21800    1953.9783   -106.79959    1.7680006   -105.03159    2266.1073    4.4099057    4.4099057    4.4099057    2266.1073   -3091.2188   -25763.206    35652.746    22925.095    3696.1922   -5546.6573    85.760617 
   21900    1322.9532   -106.24054    1.1970358   -105.04351    2204.9895    4.4210396    4.4210396    4.4210396    2204.9895   -9954.4839   -29881.368    46450.821   -4132.5449    11821.975   -12401.342    86.411834 
   22000    1437.7742   -106.33884    1.3009283   -105.03791   -24342.761    4.4170774    4.4170774    4.4170774   -24342.761   -71916.655   -38305.306     37193.68    23293.816    14058.219    -21164.93    86.179713 
   22100    1771.7514   -106.63243    1.6031179   -105.02931    32406.089     4.399193     4.399193     4.399193    32406.089    29280.398   -2761.2745    70699.143    -5300.771   -9415.7438    5087.6572    85.137137 
   22200    1247.8302   -106.19244     1.129063   -105.06337   -30531.382      4.41167      4.41167      4.41167   -30531.382   -78667.434   -57288.044    44361.333    29025.458    1407.6084   -3369.1391    85.863592 
   22300    1994.4176   -106.85324     1.804591   -105.04865   -14896.049    4.4168883    4.4168883    4.4168883   -14896.049   -33731.496   -23473.021    12516.369   -6122.6768    9077.6833    1704.4324    86.168641 
   22400    1251.7012   -106.19388    1.1325655   -105.06131    12130.633    4.4140087    4.4140087    4.4140087    12130.633   -33554.293    1568.3975    68377.795    11427.555    -5444.195    7449.0987     86.00022 
   22500    1668.7647    -106.5538    1.5099333   -105.04387    7292.9128    4.4120039    4.4120039    4.4120039    7292.9128   -65628.955   -6629.6575     94137.35     2965.209   -3634.5489    6974.1449     85.88309 
   22600    1320.9088   -106.23577     1.195186   -105.04058     12773.77    4.3961812    4.3961812    4.3961812     12773.77   -3283.4511    -7231.112    48835.873    4921.3241   -25232.076   -1939.4195    84.962395 
   22700    1972.2758   -106.83766    1.7845566    -105.0531    788.19157    4.4041225    4.4041225    4.4041225    788.19157   -15674.039   -10360.452    28399.066    3191.9497    12261.197   -18517.418    85.423657 
   22800    1340.5529    -106.2604    1.2129605   -105.04744   -24989.586    4.4166456    4.4166456    4.4166456   -24989.586    -46341.27   -41241.757    12614.268   -19812.684    7021.6522   -3920.2649     86.15444 
   22900    1639.5921   -106.51681    1.4835374   -105.03327   -18904.117    4.3994525    4.3994525    4.3994525   -18904.117   -50301.672   -33614.569     27203.89    26824.824   -25053.486   -2657.3785    85.152204 
   23000    1745.2516   -106.61614    1.5791403   -105.03699    24202.051     4.397556     4.397556     4.397556    24202.051     64378.53   -24027.179    32254.803   -21892.045    16728.108   -13608.333    85.042129 
   23100      1540.76   -106.45121    1.3941121    -105.0571   -11934.016    4.4171558    4.4171558    4.4171558   -11934.016   -15389.004   -58414.654    38001.611    7395.1417   -17901.358     2382.176    86.184302 
   23200    1894.1141   -106.74077    1.7138342   -105.02694   -17135.089    4.4235503    4.4235503    4.4235503   -17135.089    6560.7967   -23590.694   -34375.369   -4827.5094    8530.7247   -17083.915    86.559138 
   23300    1192.4997   -106.09384    1.0789988   -105.01484    19722.378    4.4081198    4.4081198    4.4081198    19722.378    36604.145   -13151.992    35714.981    3322.3951    1500.3811   -4582.8812    85.656468 
   23400    2074.1258   -106.88536    1.8767126   -105.00864    2949.0645    4.4015356    4.4015356    4.4015356    2949.0645    20996.602   -18296.389    6146.9805    12622.991   -1618.4344    -8226.407    85.273216 
   23500    1025.4628   -105.96536   0.92786027    -105.0375   -1474.6796    4.4109603    4.4109603    4.4109603   -1474.6796   -3936.7268   -1384.4226    897.11049   -4702.7193    35718.072   -10885.807    85.822163 
   23600     1815.034   -106.68358    1.6422809    -105.0413   -4799.9953    4.4226878    4.4226878    4.4226878   -4799.9953   -47929.714   -8852.9318     42382.66    7182.9646    6875.4196   -7341.3595    86.508516 
   23700    1477.5866   -106.35855    1.3369514    -105.0216   -18230.364    4.4287853    4.4287853    4.4287853   -18230.364    17335.747   -48565.355   -23461.482   -12459.999    9671.1375   -10612.654    86.866812 
   23800    1645.7719   -106.49432     1.489129    -105.0052   -12756.507    4.4095837    4.4095837    4.4095837   -12756.507   -41788.755   -12452.397    15971.632    7179.6359    19133.199   -9980.4269    85.741833 
   23900    1537.1183   -106.40098    1.3908169   -105.01017    45209.548    4.4009647    4.4009647    4.4009647    45209.548    88460.999    7629.9685    39537.676    -2878.078    28903.365   -4643.9946    85.240041 
   24000    1231.3869   -106.16035    1.1141847   -105.04616    7983.5151    4.4257966    4.4257966    4.4257966    7983.5151   -8580.0009   -43961.263    76491.809    4801.4071     25764.94   -4004.7174    86.691066 
   24100    2094.9125   -106.90172    1.8955209    -105.0062   -26753.109    4.4457365    4.4457365    4.4457365   -26753.109   -21188.188   -52428.437   -6642.7022    3229.4285   -11987.612   -3527.2097    87.868084 
   24200    1078.0686   -105.96464   0.97545911   -104.98918    5463.6189    4.4340254    4.4340254    4.4340254    5463.6189   -8601.8211     -47582.4    72575.078   -4620.5823    13291.237   -7162.3208    87.175516 
   24300    2231.2194   -106.99781    2.0188542   -104.97896   -10453.999    4.4151723    4.4151723    4.4151723   -10453.999    33805.853   -49002.093   -16165.757    1183.4486    11418.477    12831.863    86.068249 
   24400    1094.3896   -106.02675   0.99022668   -105.03652    14214.226    4.4078009    4.4078009    4.4078009    14214.226    28886.345   -9961.3353    23717.669   -10839.987    -4331.732    17032.845    85.637881 
   24500    1466.6161   -106.37547    1.3270251   -105.04845    41058.908    4.4173255    4.4173255    4.4173255    41058.908     88007.09    34311.955    857.67803    -21048.76    86.344495    5500.0516    86.194231 
   24600     1556.574   -106.45902    1.4084208    -105.0506   -30846.245    4.4443453    4.4443453    4.4443453   -30846.245    17567.506   -29042.333   -81063.907   -5789.2398   -8485.2177    13174.053    87.785618 
   24700    2028.2393   -106.83822    1.8351935   -105.00303    3156.7565    4.4279088    4.4279088    4.4279088    3156.7565    2197.2211    25461.004   -18187.955    -12281.35   -2657.1198   -1596.7742    86.815249 
   24800      1053.99   -105.95214   0.95367234   -104.99846    12693.683    4.4063295    4.4063295    4.4063295    12693.683   -10976.597    50748.339   -1690.6926    4452.7268    6266.5804    42704.706    85.552149 
   24900    1621.4192   -106.46926    1.4670942   -105.00217    30553.274    4.4068923    4.4068923    4.4068923    30553.274    -5206.139    65253.317    31612.644   -10397.668    18631.214    7893.5273     85.58493 
   25000    1415.2019   -106.31492    1.2805044   -105.03442    5425.3271    4.4278956    4.4278956    4.4278956    5425.3271    11184.972    13719.506   -8628.4968    11314.144   -3090.5637    37797.219    86.814467 
   25100    1380.1764   -106.26366    1.2488126   -105.01485   -11470.013     4.455951     4.455951     4.455951   -11470.013    -27593.19   -5305.2624   -1511.5874   -3379.6875   -1239.1799    8606.1616    88.475133 
   25200    1537.5637   -106.36738    1.3912199   -104.97616   -27454.756     4.438787     4.438787     4.438787   -27454.756    -24662.78    -40453.64   -17247.849     2778.409    4207.4117    45961.379    87.456666 
   25300    1301.5332   -106.14247    1.1776546   -104.96482    24625.008    4.3950368    4.3950368    4.3950368    24625.008    25293.915   -16838.213    65419.321   -6791.5602   -11563.294    25978.856    84.896061 
   25400    1711.4006   -106.56089    1.5485113   -105.01238    14934.481    4.4014843    4.4014843    4.4014843    14934.481   -10800.633   -45150.118    100754.19   -222.78254    18673.718    7666.4611    85.270237 
   25500      1261.92   -106.18341    1.1418117    -105.0416   -30817.635    4.4385106    4.4385106    4.4385106   -30817.635   -24280.792   -61446.912   -6725.2012     7265.697   -6643.3483    48750.889    87.440327 
   25600    1948.6316   -106.77645    1.7631628   -105.01329    1762.1292    4.4295343    4.4295343    4.4295343    1762.1292    -12966.58    12088.144    6164.8228   -3479.2647     12581.18   -5023.4023    86.910893 
   25700    1539.7288   -106.40893    1.3931789   -105.01575   -12561.977    4.4225764    4.4225764    4.4225764   -12561.977   -26381.257    -33274.53    21969.856    750.14014    9033.2226    34434.825    86.501977 
   25800    1281.9408   -106.18028     1.159927   -105.02036    13936.697     4.423113     4.423113     4.423113    13936.697    17944.176    -28418.97    52284.883   -3238.9775    1799.9022   -11518.864     86.53347 
   25900     1316.346   -106.20654    1.1910575   -105.01549    20882.341    4.4121281    4.4121281    4.4121281    20882.341    34718.428   -31105.741    59034.335    6766.2084    18996.485    43238.441    85.890345 
   26000    1709.3186   -106.57635    1.5466274   -105.02972   -394.44417    4.4120156    4.4120156    4.4120156   -394.44417    8391.4436   -7627.6408   -1947.1353    1843.4421    3600.7047    17265.677    85.883773 
   26100    1904.7592   -106.75123    1.7234662   -105.02777   -26544.263    4.4382316    4.4382316    4.4382316   -26544.263   -30363.028   -28127.959   -21141.803     854.2817    13693.016    9510.9898     87.42384 
   26200    2264.9127   -107.04358    2.0493406   -104.99424    -42883.14    4.4358965    4.4358965    4.4358965    -42883.14   -22485.948    -81013.45   -25150.023    5027.9378    10266.141    36058.223    87.285924 
   26300    1246.1839   -106.11703    1.1275734   -104.98945    27803.913    4.4043252    4.4043252    4.4043252    27803.913     64573.15   -33966.229    52804.817    2125.8051    8565.8815   -10544.383    85.435452 
   26400    1660.6552   -106.52319    1.5025957    -105.0206    22836.042    4.3959572    4.3959572    4.3959572    22836.042    15624.378   -10988.788    63872.536     3729.741    4705.0778     23143.47    84.949409 
   26500    1936.3405   -106.80958    1.7520415   -105.05754    4218.1036     4.407363     4.407363     4.407363    4218.1036    1395.5889   -14049.132    25307.854    503.03404    14753.912   -7521.6961    85.612357 
   26600    1277.2036   -106.22454    1.1556407    -105.0689   -1564.1415    4.4315098    4.4315098    4.4315098   -1564.1415    37545.337    -27971.17   -14266.592    16615.297    10268.653   -9692.1457    87.027226 
   26700    1667.6759   -106.54001    1.5089482   -105.03107   -11012.975     4.433175     4.433175     4.433175   -11012.975   -45694.641   -28004.632    40660.347    8701.9857   -7523.7505   -590.59194    87.125371 
   26800    1814.9246   -106.65324    1.6421819   -105.01106    5167.2292    4.3993277    4.3993277    4.3993277    5167.2292   -12042.859    10534.231    17010.316   -8049.1061    24731.832   -34164.146    85.144959 
   26900    1618.0584    -106.4941    1.4640532   -105.03005    34037.988    4.3985203    4.3985203    4.3985203    34037.988    36022.629    5176.8116    60914.524    19257.578    7636.9164   -4029.0352    85.098088 
   27000    943.03177   -105.89389   0.85327497   -105.04062   -30302.059    4.4415403    4.4415403    4.4415403   -30302.059   -40565.618   -75295.716    24955.158    8622.2014    15799.112   -28912.337    87.619511 
   27100    1885.6224   -106.70151    1.7061508   -104.99536   -8061.6764    4.4369505    4.4369505    4.4369505   -8061.6764   -11336.287   -24468.352     11619.61   -1680.7368    23335.441   -7241.3109     87.34816 
   27200    1267.2694   -106.14183     1.146652   -104.99517    14650.145    4.4202054    4.4202054    4.4202054    14650.145    40215.121    11773.713   -8038.3978   -2652.6371    5135.9861   -11735.439    86.362926 
   27300    779.55785   -105.71897   0.70536033   -105.01361    22257.207    4.3978865    4.3978865    4.3978865    22257.207    98615.935   -6983.4309   -24860.882    1960.8944    30017.604   -15872.175    85.061306 
   27400    2083.5187   -106.91863    1.8852115   -105.03341    8166.4745     4.398685     4.398685     4.398685    8166.4745    77082.823   -51021.808   -1561.5914    2835.8553    9669.5662   -2498.4672     85.10765 
   27500    1632.0958    -106.5417    1.4767546   -105.06494   -43530.728    4.4359008    4.4359008    4.4359008   -43530.728   -15921.185   -74574.453   -40096.548    1179.1424    1061.9246   -14916.967    87.286179 
   27600    1814.0883   -106.66363    1.6414252   -105.02221   -38410.582     4.443585     4.443585     4.443585   -38410.582   -62852.431   -37301.804   -15077.511   -1553.5881    13958.807    7147.3637    87.740573 
   27700    1782.8329   -106.60609    1.6131447   -104.99294   -5281.6508    4.4225553    4.4225553    4.4225553   -5281.6508    24065.316   -44726.657    4816.3885    3071.7324   -16140.695   -13352.749    86.500739 
   27800    1676.2737   -106.51666    1.5167277   -104.99993    12708.913    4.4081169    4.4081169    4.4081169    12708.913    35795.894   -25997.533    28328.378   -14278.781   -7139.3224    1796.4359    85.656299 
   27900    1466.9748   -106.37047    1.3273497   -105.04312    26738.361    4.4097162    4.4097162    4.4097162    26738.361    72227.196    16876.032    -8888.145    11157.859   -2082.0801   -9957.6949    85.749563 
   28000    1069.2807   -106.02677   0.96750767   -105.05927   -4306.9628    4.4265847    4.4265847    4.4265847   -4306.9628    37727.382   -20577.246   -30071.025     11376.05   -973.42096     13245.01    86.737389 
   28100    1601.7092   -106.48705    1.4492601   -105.03779   -5116.5391     4.413864     4.413864     4.413864   -5116.5391    34234.213   -49655.844    72.013955   -7726.6247    12716.385   -3285.5528    85.991758 
   28200     1936.737   -106.78514    1.7524004   -105.03274    276.90937    4.4149304    4.4149304    4.4149304    276.90937    14001.921   -14430.756    1259.5634    8605.2677    10659.876   -16552.117    86.054105 
   28300     1531.448   -106.41315    1.3856863   -105.02746   -38665.714    4.4342204    4.4342204    4.4342204   -38665.714   -47310.144   -24555.407    -44131.59   -7791.8352   -4282.0157    14159.659    87.187017 
   28400    1707.2312   -106.55656    1.5447387   -105.01183    1060.6493    4.4188303    4.4188303    4.4188303    1060.6493   -3347.7837   -57652.342    64182.073    22716.731   -533.27893   -16865.565    86.282349 
   28500     1510.159   -106.38248    1.3664236   -105.01605    25977.224    4.4107015    4.4107015    4.4107015    25977.224    20022.393   -11502.736    69412.015    -2755.286    25034.724    8824.4548    85.807058 
   28600    1631.7466   -106.50539    1.4764386   -105.02896   -22014.803    4.4173813    4.4173813    4.4173813   -22014.803   -48526.724    516.25263   -18033.936    14415.893   -2075.9796    3725.6632      86.1975 
   28700    1518.4039   -106.40124    1.3738837   -105.02736    7351.9275    4.4236414    4.4236414    4.4236414    7351.9275      7669.61   -44073.552    58459.724    13398.965    4701.1731    4326.5147    86.564483 
   28800    2090.4948   -106.91503    1.8915236    -105.0235   -20859.301    4.4222256    4.4222256    4.4222256   -20859.301   -24204.775   -16664.744   -21708.384   -11649.603    5380.2063    2315.3335    86.481394 
   28900    1225.5797    -106.1457    1.1089303   -105.03677   -9258.7939    4.4102632    4.4102632    4.4102632   -9258.7939   -17120.994     -14164.7    3509.3128    24525.861   -4985.9573    10339.484    85.781477 
   29000    2158.2343   -106.99397    1.9528158   -105.04115    7654.8841    4.4009205    4.4009205    4.4009205    7654.8841     688.7157   -16243.629    38519.565   -13766.645    1379.9644    26752.151    85.237472 
   29100    1388.8098   -106.32266    1.2566243   -105.06603    22983.925    4.4037105    4.4037105    4.4037105    22983.925    22757.518   -1033.1918    47227.451     26742.58    3148.8483   -16247.028    85.399687 
   29200    1529.6942   -106.44471    1.3840994   -105.06062   -17457.252    4.4213422    4.4213422    4.4213422   -17457.252    6642.0662   -63060.447    4046.6231   -7683.5567   -5982.8787    19267.182     86.42958 
   29300    1608.2598   -106.47935    1.4551873   -105.02416    5464.9731    4.4235757    4.4235757    4.4235757    5464.9731    25537.403   -38767.167    29624.683    9358.0041    1680.3486   -11643.428    86.560629 
   29400    1662.2176   -106.51947    1.5040094   -105.01546   -1382.9992    4.4084579    4.4084579    4.4084579   -1382.9992   -32430.316   -32969.482      61250.8      6671.86   -8108.6936    22724.328    85.676181 
   29500    1754.4011   -106.60946     1.587419   -105.02204    15865.364    4.4105378    4.4105378    4.4105378    15865.364    10718.968    10178.575    26698.549   -15245.997    12701.209    14329.129    85.797503 
   29600    1638.6698   -106.50649    1.4827029   -105.02379   -3476.6331    4.4175682    4.4175682    4.4175682   -3476.6331   -33701.577   -10528.424    33800.102    17757.448   -1038.5915   -3309.2139    86.208443 
   29700    1794.5316   -106.65002    1.6237299   -105.02629   -14898.123     4.418151     4.418151     4.418151   -14898.123    -24705.35   -10120.741    -9868.277   -430.23048   -3716.8373    35889.414    86.242566 
   29800    1733.7616   -106.59315    1.5687439   -105.02441    28547.088    4.4189756    4.4189756    4.4189756    28547.088    1128.9019    50819.044    33693.318   -3430.5014   -9553.6772   -10888.127    86.290861 
   29900    1253.5691   -106.16766    1.1342556   -105.03341   -26060.805    4.4159727    4.4159727    4.4159727   -26060.805   -21176.188    7840.9105   -64847.138   -3535.8757   -8858.9045    38452.532    86.115068 
   30000    1927.3893   -106.76269    1.7439424   -105.01874   -8086.5731    4.4107781    4.4107781    4.4107781   -8086.5731   -23382.098    4190.6755    -5068.297    3027.2005    7527.8645   -1626.8527    85.811525 
   30100     1822.671   -106.66954     1.649191   -105.02035   -5045.5054    4.4132314    4.4132314    4.4132314   -5045.5054   -6617.2731     15496.35   -24015.593   -5171.5139    407.61107    22574.088    85.954791 
   30200    924.27175   -105.86787    0.8363005   -105.03156   -17771.384    4.4254339    4.4254339    4.4254339   -17771.384   -23490.674   -17566.397   -12257.082   -9326.3047    367.42422    18197.148    86.669756 
   30300    2018.7996   -106.83379    1.8266523   -105.00714    11371.026    4.4113731    4.4113731    4.4113731    11371.026    15096.882    10623.835    8392.3618    601.56442   -269.20172   -14388.762    85.846256 
   30400    1662.5897   -106.52431    1.5043461   -105.01996   -2420.5202    4.4092268    4.4092268    4.4092268   -2420.5202   -15422.293   -8160.9169    16321.649    -2908.314   -2877.5217    17187.717    85.721018 
   30500    1151.8845   -106.07941    1.0422493   -105.03716    18022.003    4.4250902    4.4250902    4.4250902    18022.003    41221.679   -30656.583    43500.914   -10289.983    3741.2488   -16748.698    86.649564 
   30600    1817.3336   -106.67207    1.6443616   -105.02771   -36291.839    4.4361974    4.4361974    4.4361974   -36291.839   -45116.514   -31069.413   -32689.589    2862.0911    735.49015    6415.5351    87.303691 
   30700    1476.1623    -106.3446    1.3356627   -105.00894   -3339.6699    4.4246218    4.4246218    4.4246218   -3339.6699    15626.427   -8462.9793   -17182.457    10786.665    2107.8163     6130.141    86.622054 
   30800    1618.9073   -106.46442    1.4648214    -104.9996   -438.48137    4.4029136    4.4029136    4.4029136   -438.48137   -11283.917   -14450.421    24418.894   -6332.7926    10472.413    10902.048    85.353336 
   30900    1578.1911   -106.45104    1.4279805   -105.02305    2405.4636    4.3996289    4.3996289    4.3996289    2405.4636    20422.736    -14650.95    1444.6047    5377.2067    -5247.915   -1770.9182    85.162446 
   31000    1769.3032   -106.64517    1.6009027   -105.04427   -18502.485    4.4224776    4.4224776    4.4224776   -18502.485   -12363.425   -16882.373   -26261.657   -3985.8022    23745.242    9026.6505    86.496182 
   31100    1306.0978   -106.21229    1.1817848   -105.03051   -734.32234    4.4330501    4.4330501    4.4330501   -734.32234    42266.212   -25579.229    -18889.95   -5798.3481   -8543.1747    11216.192    87.118002 
   31200     1856.217   -106.69337    1.6795442   -105.01383   -33892.068    4.4213866    4.4213866    4.4213866   -33892.068   -26702.025    -24828.21    -50145.97   -1941.0446    13246.773   -2126.6073    86.432182 
   31300    1732.2157   -106.59327    1.5673451   -105.02592    7934.0305    4.4013291    4.4013291    4.4013291    7934.0305    39796.906   -6084.0074   -9910.8076    12527.117      8775.08    20311.545     85.26122 
   31400    1689.8549   -106.58492    1.5290162   -105.05591   -1778.3413    4.4054627    4.4054627    4.4054627   -1778.3413    10084.367   -26550.691      11131.3   -22437.899   -12957.936   -1462.6796    85.501666 
   31500    1554.8223    -106.4749    1.4068359   -105.06806   -13338.183    4.4307639    4.4307639    4.4307639   -13338.183    250.20872   -5072.8399   -35191.919      11315.2    22541.567   -413.72393    86.983288 
   31600    1699.4914   -106.57463    1.5377356    -105.0369   -27280.716    4.4335564    4.4335564    4.4335564   -27280.716    -31460.62    -34815.34   -15566.189   -15327.856   -17878.515   -8712.5902    87.147855 
   31700    1009.7396   -105.93483   0.91363361    -105.0212    40922.584    4.4047085    4.4047085    4.4047085    40922.584    35001.166    81321.368     6445.219    2474.8816    6585.4508    3209.7037    85.457765 
   31800    2467.7699   -107.25617      2.23289   -105.02328   -16622.404    4.4009732    4.4009732    4.4009732   -16622.404   -5492.8272   -25235.077   -19139.308   -183.96977    375.84098   -14800.766    85.240539 
   31900    629.94474   -105.62613   0.56998724   -105.05614    20137.457    4.4117616    4.4117616    4.4117616    20137.457   -1799.1092    60347.215     1864.266   -10211.124   -21339.716    1955.1102    85.868942 
   32000    2125.7037   -106.96107    1.9233814   -105.03769   -11189.366    4.4224289    4.4224289    4.4224289   -11189.366   -11137.428   -25119.101    2688.4318    1124.6133    11342.798    -26409.16    86.493324 
   32100     1172.597    -106.0893    1.0609905   -105.02831   -27074.871    4.4295406    4.4295406    4.4295406   -27074.871   -45598.521     25018.47   -60644.563    8806.8219   -14820.408    6589.9913    86.911261 
   32200    1924.9664   -106.76404      1.74175   -105.02229    9755.9398     4.397524     4.397524     4.397524    9755.9398    19628.839    17040.789   -7401.8085   -19899.709   -2376.1816    -14891.62    85.040278 
   32300    1279.4577   -106.21236    1.1576802   -105.05468    34119.952    4.3977014    4.3977014    4.3977014    34119.952    17871.018     73669.87    10818.966    30746.517   -4073.9189    8397.2467    85.050569 
   32400    1552.8909   -106.46242    1.4050884   -105.05733   -14536.773     4.427268     4.427268     4.427268   -14536.773   -3218.9372   -42008.301    1616.9182   -26152.495   -2814.9158    9841.6485     86.77756 
   32500    1556.0514   -106.43792     1.407948   -105.02997   -13674.735    4.4296392    4.4296392    4.4296392   -13674.735   -31057.919   -7154.7661   -2811.5215    17100.393   -2812.5294    1448.4514    86.917069 
   32600    1870.7941   -106.70862    1.6927339   -105.01588   -27086.501    4.4266482    4.4266482    4.4266482   -27086.501   -46137.341   -11831.166   -23290.997    12108.438   -1037.2331    7546.4368    86.741122 
   32700    1317.9957   -106.20721    1.1925502   -105.01466    34671.966    4.4115739    4.4115739    4.4115739    34671.966    72063.705   -11583.989    43536.181   -17550.636   -1155.9369    16704.059    85.857981 
   32800    1629.0667   -106.50784    1.4740138   -105.03383    -12626.33    4.4074422    4.4074422    4.4074422    -12626.33   -27799.192    22067.434   -32147.232    27065.294   -10584.623   -14022.703    85.616976 
   32900    1924.8369   -106.78099    1.7416329   -105.03936   -8565.2186    4.4254535    4.4254535    4.4254535   -8565.2186   -3383.4552    2641.7557   -24953.956   -24352.141    2865.2398    10107.934    86.670905 
   33000    1101.1459   -106.02542   0.99633992   -105.02908    10253.635    4.4219436    4.4219436    4.4219436    10253.635    46843.383   -21329.655    5247.1773    14976.603    113.32035    4741.6087     86.46485 
   33100    1650.8682   -106.52902    1.4937403   -105.03528   -1541.1854    4.4114311    4.4114311    4.4114311   -1541.1854   -20669.567     37612.99   -21566.979    2400.7133   -17948.913    6860.4607    85.849646 
   33200    1932.0167    -106.7945    1.7481293   -105.04637    24530.368    4.4047211    4.4047211    4.4047211    24530.368    21238.819    29657.461    22694.825    8261.5098    9562.7908   -8354.4586    85.458498 
   33300    1441.8385   -106.37331    1.3046058   -105.06871   -485.61557    4.4230174    4.4230174    4.4230174   -485.61557    -4213.183   -861.32159    3617.6579    19628.294   -16738.719    1764.4622    86.527855 
   33400    1530.1498   -106.42043    1.3845117   -105.03592   -3801.5112    4.4397291    4.4397291    4.4397291   -3801.5112   -38281.369    42739.693   -15862.857   -5136.8539    2596.8949    22024.265    87.512362 
   33500    2137.6958   -106.94566     1.934232   -105.01143   -16258.512    4.4217792    4.4217792    4.4217792   -16258.512   -51442.581    -13748.37    16415.415    15889.612    204.01732   -14219.791    86.455207 
   33600    1432.6766    -106.3096    1.2963159   -105.01329    21291.778    4.4160175    4.4160175    4.4160175    21291.778    5025.8561    10221.593    48627.886   -2752.7198    5766.8246    19461.409    86.117687 
   33700    1736.2566   -106.59175    1.5710014   -105.02075   -28916.642    4.4333715    4.4333715    4.4333715   -28916.642   -52508.107    -37074.21    2832.3915    14453.928    982.37268   -14237.398    87.136953 
   33800    1308.6053     -106.205    1.1840535   -105.02094    21024.622    4.4241532    4.4241532    4.4241532    21024.622   -34955.003    124691.43   -26662.556    6569.0247   -11019.611   -8039.8528    86.594535 
   33900    1402.7812   -106.28842    1.2692659   -105.01916    19080.926    4.4137915    4.4137915    4.4137915    19080.926   -35494.846    15962.496    76775.127   -7885.9438    6812.7718    24035.504    85.987523 
   34000    1896.7805   -106.74178    1.7162469   -105.02553   -10791.916    4.4218662    4.4218662    4.4218662   -10791.916    -70880.79    44186.421   -5681.3779   -148.29537   -9706.6273    -34132.98    86.460313 
   34100    1534.6374   -106.41995    1.3885721   -105.03138   -10686.103    4.4315656    4.4315656    4.4315656   -10686.103   -34869.462   -27874.043    30685.195   -7661.6005    14300.737   -247.18111    87.030511 
   34200    1248.4414   -106.16683     1.129616   -105.03722   -9637.6906    4.4212785    4.4212785    4.4212785   -9637.6906   -16441.143   -49953.586    37481.657    14600.076    -15690.54    15050.159    86.425842 
   34300     1832.232   -106.69859     1.657842   -105.04075    2234.6983    4.3987489    4.3987489    4.3987489    2234.6983   -31073.267    37038.266     739.0961   -21241.286     17479.32   -10331.743    85.111357 
   34400    2085.4538   -106.96374    1.8869624   -105.07678   -20219.224    4.4111877    4.4111877    4.4111877   -20219.224   -16478.632   -30636.918   -13542.122    4166.2928   -566.07885    28076.307    85.835438 
   34500    1549.4197   -106.48044    1.4019475   -105.07849    -5033.336    4.4343154    4.4343154    4.4343154    -5033.336   -56004.028    4007.8396     36896.18    -6147.963   -9413.2987   -23756.807    87.192623 
   34600    1788.2931   -106.67122    1.6180851   -105.05313   -33618.201    4.4418138    4.4418138    4.4418138   -33618.201   -39151.673   -37889.327   -23813.604   -1541.8513    5723.4649    13092.677    87.635696 
   34700    2265.0769   -107.07668    2.0494892   -105.02719   -38342.477     4.428075     4.428075     4.428075   -38342.477   -53680.527    -36459.59   -24887.313     13446.74   -19727.327    2261.0319    86.825023 
   34800    1450.2125   -106.33987    1.3121827   -105.02769    2521.3182    4.4159121    4.4159121    4.4159121    2521.3182   -43947.378   -11226.041    62737.374   -8528.9756   -3805.9512    2532.3029    86.111521 
   34900    1944.0015   -106.79824    1.7589734   -105.03927   -10829.876    4.4252494    4.4252494    4.4252494   -10829.876   -17477.099   -11007.362   -4005.1655    18526.791   -15100.127   -18450.314    86.658915 
   35000    1654.2714   -106.52272    1.4968195    -105.0259   -13488.448    4.4290201    4.4290201    4.4290201   -13488.448   -25210.426   -8259.7318   -6995.1862      4570.77   -456.24782    5544.6598    86.880626 
   35100    2113.2758   -106.91316    1.9121364   -105.00102   -31978.357    4.4340737    4.4340737    4.4340737   -31978.357   -40314.612   -12829.004   -42791.456    7524.9404    137.90329    6740.8751    87.178363 
   35200    1389.3382   -106.25907    1.2571024   -105.00197   -11058.517    4.4405212    4.4405212    4.4405212   -11058.517    13192.336   -13430.314   -32937.574    15455.619    5038.6374   -3778.3812    87.559211 
   35300    1764.6328   -106.59252    1.5966769   -104.99584   -6451.1934    4.4218622    4.4218622    4.4218622   -6451.1934     24785.64   -19291.317   -24847.904    6827.2598   -10243.498    10018.217    86.460077 
   35400    1574.2839   -106.43752    1.4244451   -105.01307    23769.653    4.4102744    4.4102744    4.4102744    23769.653    40472.881    27818.621    3017.4563    17916.721    19580.678   -13163.148    85.782132 
   35500    1457.9736   -106.35521    1.3192052     -105.036   -2096.9659     4.438789     4.438789     4.438789   -2096.9659    40500.023   -33193.668   -13597.253    14641.049    15218.893    4097.4034    87.456784 
   35600    1278.7705   -106.16262    1.1570584   -105.00556   -26426.755    4.4481717    4.4481717    4.4481717   -26426.755   -16324.696    -76979.14     14023.57    24388.987    3451.5032    10493.977    88.012554 
   35700    1518.5263   -106.34269    1.3739945   -104.96869    6714.9882    4.4170241    4.4170241    4.4170241    6714.9882    27929.389    18590.459   -26374.883   -9603.2751   -4138.2602    245.50009    86.176592 
   35800    1285.6747   -106.15138    1.1633055   -104.98807    43332.218    4.4070146    4.4070146    4.4070146    43332.218    9589.6867    104267.41    16139.559    10607.692    -4904.149   -1724.0522    85.592058 
   35900     1509.776   -106.39809     1.366077   -105.03201   -17241.893    4.4239914    4.4239914    4.4239914   -17241.893   -29016.827    9881.1387   -32589.991    26.831612    9871.7274    3158.7775    86.585034 
   36000    1605.0598   -106.47378    1.4522918   -105.02149   -8457.9754    4.4402313    4.4402313    4.4402313   -8457.9754   -7071.4022    42217.047    -60519.57   -779.15853    11278.396      2041.89    87.542064 
   36100    1937.1639   -106.75908    1.7527866   -105.00629   -32383.727    4.4340238    4.4340238    4.4340238   -32383.727   -54604.301   -18579.785   -23967.094    6234.1413      9503.82   -9591.5346    87.175424 
   36200    821.96298   -105.76046   0.74372938   -105.01673     39998.87    4.4139612    4.4139612    4.4139612     39998.87    67678.407    14230.546    38087.657    28044.093    15130.488    7664.7651    85.997442 
   36300    1786.0309   -106.63268    1.6160383   -105.01665    2302.9956    4.4180867    4.4180867    4.4180867    2302.9956   -166.43578     2977.059    4098.3636    -2170.774   -1197.8444    11204.739    86.238801 
   36400    1523.2338   -106.39563    1.3782539   -105.01737   -9229.8081    4.4303563    4.4303563    4.4303563   -9229.8081   -18185.234    59081.289    -68585.48    5283.7194    21572.987   -1915.4218    86.959287 
   36500    1276.5206    -106.1715    1.1550227   -105.01647    8973.1315    4.4248765    4.4248765    4.4248765    8973.1315    61711.141   -2158.5693   -32633.177    4698.8288    8425.6965    27553.214     86.63701 
   36600    1898.0154   -106.73097    1.7173642   -105.01361    6611.5565    4.4109027    4.4109027    4.4109027    6611.5565    -23941.86    34992.865    8783.6651    1700.8137    15605.937   -343.34208    85.818801 
   36700    1294.8084   -106.20631    1.1715699   -105.03474    16003.688     4.412842     4.412842     4.412842    16003.688     23501.22    37977.613    -13467.77    -8734.609    10713.545    10016.761    85.932042 
   36800    1836.8513   -106.68886    1.6620217   -105.02684    15008.036    4.4300603    4.4300603    4.4300603    15008.036    43614.123    -11286.49    12696.476   -19126.821    2605.5386    4517.1185    86.941856 
   36900    1111.4886   -106.02366    1.0056982   -105.01796    11643.929    4.4416011    4.4416011    4.4416011    11643.929   -28054.067    57244.365    5741.4886   -7546.6336    7664.5856    24239.358    87.623107 
   37000    1732.2144   -106.55245     1.567344   -104.98511   -14912.121    4.4337078    4.4337078    4.4337078   -14912.121    -60934.34   -28024.386    44222.363   -23245.221    6986.2755     18436.97    87.156787 
   37100    1610.3422   -106.43401    1.4570715   -104.97693    13247.569    4.4135402    4.4135402    4.4135402    13247.569   -38443.955    69099.318    9087.3428   -8473.5072    16494.696    22938.927    85.972836 
   37200    1483.9436   -106.34553    1.3427034   -105.00283   -7731.6515    4.4107957    4.4107957    4.4107957   -7731.6515   -45403.949    34983.767   -12774.772   -11031.649   -12985.409    48103.187    85.812556 
   37300    1826.7657   -106.68621     1.652896   -105.03331   -12330.164    4.4202521    4.4202521    4.4202521   -12330.164   -74115.909   -8181.0111    45306.429    1406.6957    12917.976   -9095.4149    86.365664 
   37400    1807.7469   -106.67059    1.6356874    -105.0349   -6614.2157    4.4226343    4.4226343    4.4226343   -6614.2157   -37980.682    12403.947    5734.0885   -12653.499   -7170.5622    27438.277    86.505374 
   37500    986.79934   -105.93064   0.89287678   -105.03776    22400.859    4.4161702    4.4161702    4.4161702    22400.859   -34726.108    99204.375    2724.3118    -7126.145    12939.827    -13153.96    86.126622 
   37600    1666.2761   -106.55934    1.5076817   -105.05166    12517.039     4.418771     4.418771     4.418771    12517.039   -35903.015     19836.99    53617.141    3691.2178    2897.7608   -7998.9822    86.278879 
   37700    2076.2097   -106.93522    1.8785982   -105.05662   -19587.068     4.419754     4.419754     4.419754   -19587.068   -24957.177   -95.321727   -33708.705   -18568.508   -1999.1457    3635.6836    86.336473 
   37800    1247.5662   -106.18935    1.1288241   -105.06053    14156.244    4.4139288    4.4139288    4.4139288    14156.244   -34704.959    41795.246    35378.444   -1799.1219    5927.5652   -10103.888    85.995546 
   37900    2312.9811   -107.13509    2.0928339   -105.04226   -16304.546    4.4251347    4.4251347    4.4251347   -16304.546   -15859.557   -2543.5609   -30510.521    3198.6849    6205.8271   -22855.059    86.652176 
   38000    1283.4386   -106.18582    1.1612822   -105.02453    19452.749    4.4396875    4.4396875    4.4396875    19452.749    8402.9259    32323.056    17632.265    -8788.538    20790.997   -4101.5141    87.509904 
   38100    1677.0019   -106.50732    1.5173866   -104.98994   -13287.657    4.4519485    4.4519485    4.4519485   -13287.657   -46421.753    24121.846   -17563.065    -10911.25    4657.8265    -36535.27    88.236929 
   38200    1915.5242   -106.68623    1.7332065   -104.95302   -6256.7763    4.4502352    4.4502352    4.4502352   -6256.7763   -23625.057   -46666.664    51521.392    -11200.51   -12044.415   -14530.884    88.135098 
   38300    1877.2892   -106.65007    1.6986107   -104.95146   -19597.766    4.4373215    4.4373215    4.4373215   -19597.766   -12651.003   -37222.245   -8920.0508   -11574.797   -8479.0542   -31444.213    87.370071 
   38400    1821.9627   -106.63138    1.6485501   -104.98283   -6455.0094    4.4369538    4.4369538    4.4369538   -6455.0094    31931.272   -11803.568   -39492.733    -870.5886    5181.9846   -2247.6522    87.348352 
   38500    1868.0712   -106.69244      1.69027   -105.00217   -38150.457     4.435192     4.435192     4.435192   -38150.457    -13455.06   -71420.535   -29575.777   -11688.625   -2500.9423    4777.2875    87.244341 
   38600    1970.9992   -106.78205    1.7834015   -104.99865    486.15479    4.4210689    4.4210689    4.4210689    486.15479    24776.721   -29602.513    6284.2565    6978.1709    10306.125   -27422.287     86.41355 
   38700    1460.1695   -106.33816    1.3211921   -105.01697   -7235.3202    4.4350901    4.4350901    4.4350901   -7235.3202    5194.6021    -20217.45   -6683.1121   -6452.2121   -5651.9099    20309.944    87.238327 
   38800    1123.4298   -106.03678    1.0165029   -105.02027   -2129.8006    4.4287327    4.4287327    4.4287327   -2129.8006    23804.208   -57699.237    27505.627     12996.55   -1057.7708   -25666.608    86.863717 
   38900     1540.277   -106.39313     1.393675   -104.99945    40824.213    4.4042085    4.4042085    4.4042085    40824.213    30955.405    22040.598    69476.635   -12771.897   -6951.1994     31647.43    85.428664 
   39000    1523.9858   -106.41369    1.3789344   -105.03475    21566.626    4.4177138    4.4177138    4.4177138    21566.626    11530.504    51515.028    1654.3448   -6289.7562    6612.2487   -4281.5506    86.216967 
   39100    1462.8831   -106.35533    1.3236474   -105.03169    6299.3729    4.4371004    4.4371004    4.4371004    6299.3729   -10161.864    16253.368    12806.615   -11845.834    8076.1003    6123.6288    87.357012 
   39200    1236.8255   -106.13358    1.1191057   -105.01448    22922.998    4.4406292    4.4406292    4.4406292    22922.998   -58792.967    39446.904    88115.056     10180.54   -14363.287    58128.801    87.565603 
   39300      1204.54   -106.09728    1.0898931   -105.00739    24700.418    4.4312566    4.4312566    4.4312566    24700.418    10649.398    20669.462    42782.394    12836.223   -5012.5359   -5253.8185     87.01231 
   39400     1341.204   -106.20246    1.2135496   -104.98891    50807.596    4.4168687    4.4168687    4.4168687    50807.596    40520.391     41054.94    70847.455    19936.821   -20308.544    26991.506    86.167496 
   39500    1403.4746   -106.26884    1.2698933   -104.99895    13039.425    4.4441361    4.4441361    4.4441361    13039.425   -35079.463    57880.328    16317.411    15693.835   -15042.983    26143.718    87.773225 
   39600    1218.0312   -106.07591    1.1021002   -104.97381   -6466.1963     4.459798     4.459798     4.459798   -6466.1963    59762.489   -32383.216   -46777.862     14382.57    2334.4383    133.35047    88.704481 
   39700    2131.6874   -106.86664    1.9287956   -104.93784   -35400.211    4.4452389    4.4452389    4.4452389   -35400.211    -495.0684   -80729.972   -24975.592     9773.723    6240.7892   -3455.6102    87.838584 
   39800    1893.1628   -106.65261    1.7129734   -104.93963   -16195.696    4.4211649    4.4211649    4.4211649   -16195.696   -11924.782   -51346.228    14683.922    3622.4568    11259.531   -28361.614    86.419182 
   39900    1838.1616   -106.63984    1.6632072   -104.97664    15730.095    4.4129968    4.4129968    4.4129968    15730.095    75490.287   -37589.122    9289.1203     7352.851   -2254.4555   -11145.456    85.941083 
   40000    1993.2624    -106.8096    1.8035457   -105.00606    -29896.06    4.4403693    4.4403693    4.4403693    -29896.06   -23806.569    -19032.75   -46848.861   -12934.587    30791.611   -13185.678    87.550226 
   40100    1243.7151   -106.11442    1.1253396   -104.98908   -19681.633    4.4520759    4.4520759    4.4520759   -19681.633   -25531.666   -44665.807    11152.575    21937.703    5084.7631    2379.2042    88.244509 
   40200    1881.2524   -106.66268    1.7021967   -104.96049    19819.078    4.4377433    4.4377433    4.4377433    19819.078    11473.124    25368.956    22615.153   -298.48002   -3421.9357   -3449.7745    87.394991 
   40300    1427.7202   -106.26065    1.2918312   -104.96882    -18520.45    4.4316701    4.4316701    4.4316701    -18520.45    31533.702   -39736.118   -47358.933    24316.889    1465.8202   -15845.429    87.036672 
   40400    1986.2219   -106.76034    1.7971753   -104.96316   -9943.9943    4.4371356    4.4371356    4.4371356   -9943.9943   -21902.622    546.86056   -8476.2219    -6143.946   -2066.0899   -9563.0305     87.35909 
   40500    1633.1759   -106.45206    1.4777319   -104.97433    2460.3245    4.4376922    4.4376922    4.4376922    2460.3245   -14361.619    18656.944    3085.6484    30378.019    12799.234    30307.406    87.391972 
   40600    1283.0248   -106.15141    1.1609078    -104.9905   -29352.655    4.4417823    4.4417823    4.4417823   -29352.655   -17399.459   -71829.742    1171.2351   -3942.3274   -22099.344   -23880.278    87.633835 
   40700    1634.3045   -106.47496    1.4787531    -104.9962    28406.152    4.4181837    4.4181837    4.4181837    28406.152     6678.645    79386.446   -846.63442   -9939.6746   -1722.0949   -15158.063    86.244477 
   40800    1553.7741   -106.43702    1.4058875   -105.03113   -11841.435    4.4153467    4.4153467    4.4153467   -11841.435    44487.107   -30691.102   -49320.311    17144.727    1738.0168    3343.5659    86.078448 
   40900    1429.8793   -106.33046    1.2937848   -105.03667     3717.378    4.4350407    4.4350407    4.4350407     3717.378    2633.5578    47701.746   -39183.169   -24322.264    -7140.828    3665.4868    87.235417 
   41000    1923.0461   -106.74848    1.7400126   -105.00847   -13132.941    4.4368383    4.4368383    4.4368383   -13132.941    -28130.19    12153.247   -23421.878   -6527.4683    9307.8213   -10185.627    87.341534 
   41100    1565.2091   -106.43157    1.4162341   -105.01533   -10701.626    4.4252342    4.4252342    4.4252342   -10701.626   -24625.613      25083.9   -32563.166   -4622.0509   -9589.6736   -14888.835    86.658023 
   41200    2164.2816   -106.97441    1.9582875   -105.01613    6545.3571    4.4175485    4.4175485    4.4175485    6545.3571   -41500.114    53395.353    7740.8321   -11759.834    5794.0538    1572.3429    86.207289 
   41300    981.76962   -105.93821   0.88832578   -105.04989    14017.607    4.4289948    4.4289948    4.4289948    14017.607   -23601.742     52986.56    12668.003      21389.4   -19553.451   -9902.0468    86.879142 
   41400    1747.7184    -106.6108    1.5813723   -105.02943    1720.4885    4.4350384    4.4350384    4.4350384    1720.4885   -11233.869    14877.624     1517.711   -227.73003   -6160.5144   -7452.7102     87.23528 
   41500    1837.0387   -106.67372    1.6621913   -105.01153   -1222.5944    4.4232127    4.4232127    4.4232127   -1222.5944   -48877.505     62766.28   -17556.558   -1761.5228   -3737.7427   -3137.5457    86.539319 
   41600    922.39677   -105.86207   0.83460398   -105.02746    26600.173    4.4125556    4.4125556    4.4125556    26600.173   -36536.953    90710.386    25627.085    10529.433   -13953.266    6615.5608    85.915315 
   41700    2041.4848   -106.88354    1.8471783   -105.03636    3791.7333    4.4129579    4.4129579    4.4129579    3791.7333   -34593.383   -14513.262    60481.845   -16319.241   -2328.2459    1856.2604    85.938814 
   41800    1764.9456   -106.64729    1.5969598   -105.05033   -7079.8037     4.412202     4.412202     4.412202   -7079.8037    -63761.58    10009.165    32513.004    23331.193   -8797.4622   -9376.0725    85.894657 
   41900    1312.8437   -106.24353    1.1878886   -105.05565    11230.896    4.4224647    4.4224647    4.4224647    11230.896   -27964.913    10092.703    51564.897   -11078.811   -6770.8888   -4351.5722    86.495421 
   42000    1728.7699   -106.59291    1.5642273   -105.02869   -16364.901    4.4348904    4.4348904    4.4348904   -16364.901   -55667.814   -45131.455    51704.565   -351.36307   -6616.6823    3131.5079    87.226545 
   42100    2022.8164    -106.8323    1.8302868   -105.00201   -26610.727    4.4215903    4.4215903    4.4215903   -26610.727   -8380.9152   -52586.983   -18864.282   -8311.6553    1081.7543   -9711.2824     86.44413 
   42200    1021.5917   -105.94941   0.92435763   -105.02505    13600.824    4.4072679    4.4072679    4.4072679    13600.824   -33481.203   -29194.103    103477.78    6547.5446   -11618.196   -15252.838    85.606814 
   42300    2197.3294   -107.01916    1.9881898   -105.03097     18700.69    4.3994183    4.3994183    4.3994183     18700.69   -27905.878     -11352.8    95360.746   -870.07163   -2146.8153     2439.953    85.150217 
   42400    1276.3114   -106.22802    1.1548334   -105.07319   -21970.982    4.4205038    4.4205038    4.4205038   -21970.982   -50803.504    -39749.66    24640.219    3307.2132    1741.8342     17575.77    86.380416 
   42500    2244.3581   -107.06645    2.0307424    -105.0357   -32973.007     4.440512     4.440512     4.440512   -32973.007   -74289.153    -16145.42   -8484.4484    4019.3957   -12882.403   -3223.2148    87.558668 
   42600    1271.2749   -106.16654    1.1502763   -105.01626     14676.64    4.4261501    4.4261501    4.4261501     14676.64    -11960.97      -8246.5     64237.39   -18147.064   -11326.169    15407.765    86.711842 
   42700    1464.3107   -106.32344    1.3249391    -104.9985    21411.711    4.4161129    4.4161129    4.4161129    21411.711   -3869.7437     23373.37    44731.507   -9254.2409   -6236.8891   -11265.088    86.123267 
   42800    1855.5361   -106.67545    1.6789281   -104.99652    17585.155    4.4091027    4.4091027    4.4091027    17585.155   -15275.803     58013.21    10018.057   -18490.369    2953.4571   -139.70914    85.713779 
   42900     1347.642   -106.24966    1.2193748   -105.03028     13910.01    4.4127371    4.4127371    4.4127371     13910.01    -17262.46    32592.452     26400.04    8828.1142    -1807.132    546.85508    85.925915 
   43000    1896.3723   -106.75098    1.7158775    -105.0351   -5152.5799    4.4208676    4.4208676    4.4208676   -5152.5799   -35554.456   -9240.6667    29337.383    -14301.46   -3794.2808   -2950.3864    86.401745 
   43100    1950.8185   -106.79545    1.7651415   -105.03031   -29518.214    4.4266395    4.4266395    4.4266395   -29518.214   -31904.449   -74726.035    18075.842    5411.7551    3480.6416   -7458.5029    86.740607 
   43200    1840.9145   -106.68309    1.6656981   -105.01739   -20808.399    4.4308551    4.4308551    4.4308551   -20808.399   -58313.978   -49148.762    45037.544   -11608.812   -9025.0341   -14672.974    86.988661 
   43300    1260.2878   -106.15245    1.1403349   -105.01211   -14548.345    4.4167613    4.4167613    4.4167613   -14548.345   -43945.721    3884.7699   -3584.0836   -10274.016    5163.3355    47481.821    86.161211 
   43400    2061.7099   -106.85907    1.8654784   -104.99359    5408.9827    4.3965587    4.3965587    4.3965587    5408.9827    15264.618     21128.96    -20166.63     14449.85   -2637.5267   -10408.699    84.984285 
   43500    1499.3094   -106.39501    1.3566066    -105.0384    -40742.29    4.4314716    4.4314716    4.4314716    -40742.29   -31115.378   -42658.826   -48452.666   -39593.532   -2350.8923   -13840.468    87.024973 
   43600    1684.7994   -106.51955    1.5244419   -104.99511   -45036.784    4.4478818    4.4478818    4.4478818   -45036.784   -26431.905   -73902.043   -34776.404    20046.318    10170.574    28340.024     87.99535 
   43700    1628.9375   -106.43557    1.4738968   -104.96168    20176.629    4.4145133    4.4145133    4.4145133    20176.629   -23914.285   -22207.463    106651.63   -26495.036   -86.471648     13583.44    86.029717 
   43800    1673.5019   -106.50596    1.5142197   -104.99174   -1539.1398    4.4046139    4.4046139    4.4046139   -1539.1398   -11846.984    14438.383   -7208.8183    9531.8371     9442.371     16298.48    85.452257 
   43900    2186.3684   -106.98379    1.9782721   -105.00552   -18010.371    4.4125864    4.4125864    4.4125864   -18010.371   -29551.355   -22855.727   -1624.0298   -9847.2245     9180.937    2390.1128    85.917112 
   44000    853.16776   -105.79916   0.77196412    -105.0272    68677.599    4.4133697    4.4133697    4.4133697    68677.599    29930.476    85655.257    90447.064   -18430.995   -9652.9511    33127.163    85.962873 
   44100    1933.9294   -106.77289    1.7498599   -105.02303   -26326.497    4.4424397    4.4424397    4.4424397   -26326.497   -23282.043   -14655.908   -41041.541   -761.58612    9416.8822   -3206.5749    87.672751 
   44200    1804.0483   -106.63076    1.6323408   -104.99842   -28272.405    4.4302829    4.4302829    4.4302829   -28272.405   -46072.328    13152.928   -51897.814   -28826.827     7881.333   -9514.3236    86.954965 
   44300    1471.4082   -106.32205     1.331361   -104.99069   -4301.1865     4.398294     4.398294     4.398294   -4301.1865    22318.364   -39506.599    4284.6748    19024.785   -1959.1647    30047.388    85.084952 
   44400    1418.9206   -106.29935    1.2838691   -105.01549    23886.091    4.3931164    4.3931164    4.3931164    23886.091    103655.85   -8880.8304   -23116.742   -2764.4875   -16524.498   -30423.052    84.784824 
   44500    1377.1912   -106.30713    1.2461115   -105.06101   -12375.143    4.4168265    4.4168265    4.4168265   -12375.143    35040.307   -42450.828   -29714.907   -7123.0891    8449.3706    36618.677    86.165023 
   44600    1419.2219   -106.32331    1.2841418   -105.03917   -19843.348    4.4386251    4.4386251    4.4386251   -19843.348    47319.509    -43188.89   -63660.664    12917.661   -9519.4227   -40092.145    87.447098 
   44700    1732.2888   -106.57047    1.5674113   -105.00305   -17529.067    4.4174096    4.4174096    4.4174096   -17529.067   -4204.0738   -11459.193   -36923.934   -11445.543   -11394.194    33404.428    86.199156 
   44800    1320.1952   -106.19137    1.1945403   -104.99683    7663.3426    4.3909071    4.3909071    4.3909071    7663.3426    58765.841   -19474.128   -16301.685     2419.202    7970.7457   -36973.262    84.656977 
   44900    2181.5925   -106.99765    1.9739508    -105.0237    5250.4548    4.4021636    4.4021636    4.4021636    5250.4548    17161.611    26351.585   -27761.832   -11992.635   -3759.5081     9434.295    85.309725 
   45000    1248.7165   -106.18447    1.1298649    -105.0546   -18839.333    4.4155105    4.4155105    4.4155105   -18839.333    70361.157   -52111.366    -74767.79    -1841.912    5270.5258   -20467.422    86.088027 
   45100    1363.1597   -106.27664    1.2334156   -105.04323    13141.849    4.4143177    4.4143177    4.4143177    13141.849    30116.452    52721.134   -43412.039   -20063.638   -132.51529   -17294.544     86.01828 
   45200    1816.0871   -106.68507    1.6432338   -105.04184   -11580.433    4.4083054    4.4083054    4.4083054   -11580.433   -25488.828    45574.476   -54826.948   -6194.5027   -1301.0733     -15336.8    85.667289 
   45300    862.76014   -105.83865    0.7806435     -105.058   -11495.025    4.4075713    4.4075713    4.4075713   -11495.025    27041.989    24210.186   -85737.249   -5327.2538     13952.36   -37739.312    85.624498 
   45400    2462.2295   -107.25847     2.227877   -105.03059   -12244.519    4.3985076    4.3985076    4.3985076   -12244.519    6361.1613   -5912.8086   -37181.908    16541.631    10893.394     6339.591    85.097348 
   45500    1200.9078   -106.15664    1.0866066   -105.07004    1696.7089     4.402375     4.402375     4.402375    1696.7089    94797.089    -14123.35   -75583.613     2864.946    14566.372   -48445.548    85.322015 
   45600       1507.7   -106.43352    1.3641987   -105.06932   -16534.787    4.4127839    4.4127839    4.4127839   -16534.787    8752.3349   -12731.861   -45624.836     12929.26    25616.723    15784.774    85.928646 
   45700     1520.668     -106.427    1.3759324   -105.05107    15461.582    4.4273609    4.4273609    4.4273609    15461.582    66764.103    17978.971   -38358.328   -6826.2986   -9652.5639   -21493.871    86.783021 
   45800    1415.0728   -106.31508    1.2803876   -105.03469   -8345.3366    4.4188786    4.4188786    4.4188786   -8345.3366   -17026.862    47024.592   -55033.739   -388.77623    21773.021    251.14876    86.285182 
   45900    1510.0989   -106.38944    1.3663692   -105.02307    9737.1618    4.4001601    4.4001601    4.4001601    9737.1618    41108.993    17619.211   -29516.718    1406.4439    12190.512     14318.98    85.193296 
   46000    1938.7482     -106.786    1.7542201   -105.03178    12456.596    4.4097393    4.4097393    4.4097393    12456.596   -3532.1683    75903.931   -35001.975    7565.7272   -518.28577   -8699.7387     85.75091 
   46100    971.57039   -105.93056   0.87909731   -105.05147   -10145.258    4.4257251    4.4257251    4.4257251   -10145.258    40514.574   -9309.2934   -61641.056   -7588.2525    11085.436    20019.835    86.686867 
   46200    2199.3509   -107.01363    1.9900189   -105.02361   -7602.1362    4.4295487    4.4295487    4.4295487   -7602.1362   -23.286009    8762.1473    -31545.27    21305.315   -1606.4444   -3483.6733     86.91174 
   46300    849.40361   -105.80918   0.76855824   -105.04063   -6950.3501    4.4190547    4.4190547    4.4190547   -6950.3501   -19648.686    42079.123   -43281.487   -4154.6075    6820.7395    11978.378    86.295494 
   46400    1819.1408   -106.67776    1.6459968   -105.03177    32540.895    4.3887706    4.3887706    4.3887706    32540.895    7636.0426    75831.179    14155.462    20380.386    4342.9593    3705.4125    84.533457 
   46500    1575.5223   -106.50022    1.4255657   -105.07465   -21384.053    4.3958639    4.3958639    4.3958639   -21384.053   -3958.2115   -1418.0186   -58775.929    -2970.831    5423.8305   -12803.756    84.944001 
   46600    1973.3312    -106.8625    1.7855115   -105.07699   -16471.708    4.4048158    4.4048158    4.4048158   -16471.708   -33518.141     32128.78   -48025.763   -1605.0817    5763.9643    13626.118     85.46401 
   46700    1544.7306   -106.45782    1.3977047   -105.06011   -37133.524    4.4276742    4.4276742    4.4276742   -37133.524   -7784.6289   -38519.295   -65096.648    2808.0642   -3002.5728   -22052.083    86.801449 
   46800    1412.5893   -106.30938    1.2781405   -105.03124   -30591.084    4.4113495    4.4113495    4.4113495   -30591.084   -48717.691    11045.533   -54101.093    2482.9355    12137.391    18870.844    85.844883 
   46900    1498.5046   -106.38367    1.3558785   -105.02779    20229.141    4.3621079    4.3621079    4.3621079    20229.141    57183.377    18738.114   -15234.068   -6843.0062   -2722.2439   -26501.625    83.002127 
   47000    1672.8827   -106.58917    1.5136595   -105.07551    12272.772    4.3685644    4.3685644    4.3685644    12272.772    9027.9619    61250.731   -33460.378    34030.167    17432.986   -11575.377    83.371236 
   47100    1755.6653   -106.66078    1.5885629   -105.07222    -20704.36    4.4111951    4.4111951    4.4111951    -20704.36    4515.1988   -13343.191   -53285.089   -397.76647   -4487.0544   -4075.7548    85.835867 
   47200    1541.1811   -106.43868    1.3944931   -105.04419   -34443.935    4.4127443    4.4127443    4.4127443   -34443.935    2106.0327   -58844.804   -46593.033    10887.597    6443.9834   -29882.132    85.926333 
   47300    1673.3065   -106.53479    1.5140429   -105.02075    2393.3922    4.3999437    4.3999437    4.3999437    2393.3922   -56008.207    79895.936   -16707.553    19234.942    4683.9405    21320.749    85.180731 
   47400    1956.8573    -106.7911    1.7706056    -105.0205   -5540.0484    4.3846094    4.3846094    4.3846094   -5540.0484    23083.958    -12464.74   -27239.364   -5804.5984    -7400.609   -27675.406    84.293238 
   47500    1239.1943    -106.1636    1.1212491   -105.04235    13693.151    4.3756619    4.3756619    4.3756619    13693.151    9261.8972    34926.442   -3108.8867    17615.364    11113.743    9385.0511    83.778245 
   47600    2166.5578   -107.02277    1.9603471   -105.06243   -23253.613     4.401355     4.401355     4.401355   -23253.613   -32849.998    15249.586   -52160.425    8304.9026    5970.8029    19051.351    85.262723 
   47700    1862.6039   -106.73313    1.6853232   -105.04781   -495.25415    4.4092036    4.4092036    4.4092036   -495.25415    1884.2825    31626.104   -34996.149    289.92592     6957.369    -12744.68    85.719667 
   47800    970.45552   -105.93221   0.87808855   -105.05412    30.235253     4.410635     4.410635     4.410635    30.235253    6842.4829    26126.038   -32877.815    3741.7355   -5096.2102    16676.096    85.803174 
   47900    2138.0683   -106.95611    1.9345691   -105.02154    1078.7185    4.4045023    4.4045023    4.4045023    1078.7185   -15553.191     12733.07    6056.2768   -25039.305    1451.0883   -4777.6083    85.445762 
   48000    1319.1493   -106.21751     1.193594   -105.02392    26326.669    4.3747433    4.3747433    4.3747433    26326.669   -21057.739    93743.618    6294.1273    19773.885    2909.6437    22858.991    83.725495 
   48100    1708.9799   -106.58876    1.5463209   -105.04244    7822.6761    4.3927534    4.3927534    4.3927534    7822.6761    15715.782     5736.801    2015.4456   -12460.851   -7953.7989    8856.3914     84.76381 
   48200     1551.719   -106.43107    1.4040279   -105.02704   -37930.732    4.4167446    4.4167446    4.4167446   -37930.732   -45290.507   -39147.647   -29354.043   -2245.5065   -10864.893   -12139.433    86.160235 
   48300    1695.7018   -106.53649    1.5343066   -105.00219    18106.551    4.4004629    4.4004629    4.4004629    18106.551   -1666.7643    67778.787    -11792.37    13845.298   -11348.098    17977.645    85.210888 
   48400    1127.4847    -106.0294    1.0201719   -105.00922    -3795.321     4.394092     4.394092     4.394092    -3795.321   -17600.681   -39633.372     45848.09    3410.4516   -3140.6087   -29968.541    84.841326 
   48500    1775.2043   -106.62313    1.6062421   -105.01688   -12890.309    4.3942567    4.3942567    4.3942567   -12890.309   -58785.857   -8672.8794    28787.811   -5749.9661   -5403.4425    7581.1791    84.850867 
   48600    1850.4172   -106.69284    1.6742964   -105.01854    25101.818    4.3978092    4.3978092    4.3978092    25101.818    397.32598    41663.752    33244.376    -8355.348   -3677.0572   -1105.3998    85.056819 
   48700    580.83242   -105.56706   0.52554938   -105.04151   -1545.4148    4.4001469    4.4001469    4.4001469   -1545.4148    8313.2416   -60765.662    47816.176    23903.699    8971.0834   -10265.448    85.192534 
   48800    2057.3172   -106.87191    1.8615038   -105.01041    27078.218    4.3985346    4.3985346    4.3985346    27078.218    4994.4571    55406.233    20833.965   -8820.3149   -10545.465    30402.866    85.098916 
   48900    1553.9331    -106.4363    1.4060313   -105.03027   -6931.8073    4.3990766    4.3990766    4.3990766   -6931.8073    -55411.25   -8053.8031    42669.631   -5544.3855    8219.3094   -3444.9155    85.130379 
   49000    1334.5941   -106.23184    1.2075688   -105.02427    33147.018    4.3983834    4.3983834    4.3983834    33147.018    40634.512    32220.546    26585.997   -6354.7295    7552.8104    14256.265    85.090141 
   49100     1408.926   -106.29909    1.2748259   -105.02426   -14958.557    4.4105021    4.4105021    4.4105021   -14958.557   -11401.406   -24500.214   -8974.0527    1068.0727    21307.211    28247.946    85.795418 
   49200    1367.7288     -106.254    1.2375498   -105.01645    4811.5586    4.3990322    4.3990322    4.3990322    4811.5586   -38935.427   -10988.466    64358.569   -2115.7287     20195.52   -3116.9693    85.127805 
   49300    1527.9723   -106.38951    1.3825414   -105.00697    18429.561    4.3808911    4.3808911    4.3808911    18429.561    26152.894    15585.011    13550.779   -6312.9557    57.332633    53026.214    84.078967 
   49400    1776.4651   -106.63923    1.6073829   -105.03184   -19459.961    4.4041021    4.4041021    4.4041021   -19459.961   -30910.145   -34751.433    7281.6951    5863.7217    13752.359   -11946.742     85.42247 
   49500    1387.3349   -106.28659    1.2552897    -105.0313   -20931.786    4.4103657    4.4103657    4.4103657   -20931.786    35409.412   -48756.003   -49448.766   -8086.9991    12786.395    53670.703    85.787457 
   49600    1749.7027   -106.59429    1.5831677   -105.01112    23367.533    4.3891327    4.3891327    4.3891327    23367.533    33123.672    33099.711    3879.2157   -3649.0984   -4453.5449   -15145.237    84.554382 
   49700    1444.2826   -106.33995    1.3068172   -105.03314   -11641.416    4.4007198    4.4007198    4.4007198   -11641.416   -52.780663   -44592.211    9720.7436    -552.6529    4571.5402     42308.28    85.225811 
   49800    1859.4671    -106.7084    1.6824849   -105.02592   -4548.0183    4.4085117    4.4085117    4.4085117   -4548.0183    26271.656   -49313.772    9398.0608    14252.208   -12459.362   -6825.0098    85.679314 
   49900    1374.7823   -106.27052    1.2439319   -105.02659    5878.5659    4.4009997    4.4009997    4.4009997    5878.5659    45335.415   -28506.614    806.89647    4929.9643   -237.50434    10710.389    85.242075 
   50000    1681.6648    -106.5488    1.5216056    -105.0272   -10926.766    4.4075829    4.4075829    4.4075829   -10926.766     22041.27   -45940.284   -8881.2846   -3334.3438   -12420.334    17416.944    85.625173 
   50100     1596.522   -106.47263    1.4445666   -105.02806    -27344.35     4.410652     4.410652     4.410652    -27344.35    1680.8129   -55584.705   -28129.159    12360.959   -6199.8971   -27681.261    85.804168 
   50200    1671.1716   -106.53158    1.5121112   -105.01947   -3500.4672    4.3897243    4.3897243    4.3897243   -3500.4672   -13524.348   -9083.2524    12106.199   -13263.408    3721.3137    27619.877    84.588578 
   50300    1412.6676   -106.31113    1.2782114   -105.03291   -16419.306    4.3908291    4.3908291    4.3908291   -16419.306   -2932.5114   -49020.846    2695.4398     11323.96   -9318.2624    -32040.13    84.652462 
   50400    2057.5442   -106.89078    1.8617092   -105.02907   -24395.646      4.40553      4.40553      4.40553   -24395.646    -42775.05   -20629.331   -9782.5566   -17523.817    559.44552    11670.539    85.505586 
   50500     1436.622   -106.32671    1.2998857   -105.02682    24732.753    4.3999543    4.3999543    4.3999543    24732.753   -1670.8513    20470.236    55398.874    11232.266   -19244.918   -16673.044    85.181346 
   50600    1273.3017    -106.2026    1.1521101   -105.05049   -839.15772    4.4039382    4.4039382    4.4039382   -839.15772   -51623.823   -19893.162    68999.512   -11019.881   -643.34104   -4007.5671    85.412936 
   50700     2177.718   -106.99646     1.970445   -105.02601    6747.1227    4.4150083    4.4150083    4.4150083    6747.1227   -8455.2408    -7633.454    36330.063   -4888.5145   -9169.2249    78.624328    86.058659 
   50800    869.08026   -105.81086   0.78636208    -105.0245    22665.831    4.3995821    4.3995821    4.3995821    22665.831    1519.4536    14401.525    52076.515     13193.63   -13420.296   -11495.354    85.159732 
   50900    1964.5961   -106.78643    1.7776078   -105.00882    5727.6157    4.4106515    4.4106515    4.4106515    5727.6157    4422.5701   -2520.9124    15281.189   -3957.9963   -10318.291    4550.7279     85.80414 
   51000    1043.2126   -105.96019   0.94392068   -105.01627   -28787.204    4.4187774    4.4187774    4.4187774   -28787.204   -15042.892   -64786.551   -6532.1679      18178.4    2544.2068    4864.3424     86.27925 
   51100    1518.7505   -106.37178    1.3741974   -104.99758    31681.371     4.391176     4.391176     4.391176    31681.371    45822.049    32217.958    17004.107   -5586.0334    -9040.932   -2841.7887    84.672528 
   51200    1769.3705   -106.62268    1.6009636   -105.02172    -6821.007     4.395775     4.395775     4.395775    -6821.007    35306.875   -33244.007   -22525.889    19000.454   -11157.859     22045.46    84.938849 
   51300    1590.8374   -106.46146    1.4394232   -105.02203   -30966.642     4.417027     4.417027     4.417027   -30966.642   -41966.182   -39034.916   -11898.827   -16222.028   -3944.0073    -18045.76    86.176758 
   51400    1354.5271   -106.23034    1.2256046   -105.00474    47681.023    4.4039357    4.4039357    4.4039357    47681.023    56158.477    38081.038    48803.554   -4190.4264    537.45519    49919.144     85.41279 
   51500    1432.8088   -106.30543    1.2964356   -105.00899    20744.575    4.4106524    4.4106524    4.4106524    20744.575    13109.098   -5109.1668    54233.794    16082.278   -11043.532   -1207.5048    85.804191 
   51600    1668.6076   -106.50898    1.5097913   -104.99919   -43964.099    4.4118517    4.4118517    4.4118517   -43964.099   -2778.8149   -59052.165   -70061.318   -8503.4238   -3607.2326    51404.003    85.874203 
   51700    1961.1596    -106.7706    1.7744984    -104.9961    11337.563    4.3902007    4.3902007    4.3902007    11337.563    5925.0511     8682.625    19405.014    25767.806    2449.6021   -10210.771    84.616124 
   51800    1073.4584   -106.00104   0.97128775   -105.02975    7645.7738    4.3887851    4.3887851    4.3887851    7645.7738    32856.966   -10338.513    418.86896   -7738.3223   -1254.3255    34825.581    84.534298 
   51900    1864.4319   -106.73352    1.6869772   -105.04654   -12883.708    4.3991935    4.3991935    4.3991935   -12883.708    5412.9042    -9253.983   -34810.046     2201.749   -3383.7049    8222.1448    85.137168 
   52000     1523.455   -106.43233    1.3784541   -105.05387    -17036.67    4.4202943    4.4202943    4.4202943    -17036.67   -16314.546   -4196.8911   -30598.573   -7850.4981   -11508.911    19502.963    86.368139 
   52100    1125.4173   -106.05756    1.0183012   -105.03925   -30919.366    4.4223247    4.4223247    4.4223247   -30919.366     55387.34   -67357.681   -80787.758   -14301.314   -4880.9242    32568.103     86.48721 
   52200    2056.1187    -106.8572    1.8604194   -104.99678    14102.324    4.3934743    4.3934743    4.3934743    14102.324   -11833.408    23079.559    31060.821    12861.935    7.5303963   -15562.148    84.805547 
   52300    1190.7913   -106.11386     1.077453    -105.0364   -13711.058    4.3921434    4.3921434    4.3921434   -13711.058    40670.709    -59930.29   -21873.592    -18513.37   -927.41965    59363.605      84.7285 
   52400    1923.7796   -106.77827    1.7406762   -105.03759      7075.13    4.4023624    4.4023624    4.4023624      7075.13    5189.4942    4252.0744    11783.821    11353.423   -4583.1539   -12061.437    85.321283 
   52500     1509.459   -106.40623    1.3657902   -105.04044    2610.1482    4.4041631    4.4041631    4.4041631    2610.1482    2357.2313    13691.589   -8218.3763   -528.62137   -845.30989    43242.411    85.426023 
   52600    1645.7324   -106.50837    1.4890933   -105.01928    18409.444     4.415204     4.415204     4.415204    18409.444    36483.069    8.3127118    18736.949    3587.8426    6033.0488   -21567.621    86.070106 
   52700    1676.9422    -106.5339    1.5173326   -105.01656   -44774.725    4.4085991    4.4085991    4.4085991   -44774.725   -13623.935   -54944.867   -65755.373    10866.188    6343.1366    34084.085    85.684413 
   52800    1388.8142   -106.27119    1.2566283   -105.01456    47025.054    4.3847903    4.3847903    4.3847903    47025.054    60345.819     14710.85    66018.492   -21599.273   -5058.2944    7904.3831    84.303669 
   52900    2115.0207   -106.94004    1.9137151   -105.02633   -9789.3224    4.3908381    4.3908381    4.3908381   -9789.3224    13253.565   -34970.937   -7650.5953    18776.843   -1000.8013    20782.864    84.652984 
   53000    1039.8515    -105.9855   0.94087947   -105.04462   -11633.638    4.4016438    4.4016438    4.4016438   -11633.638     28566.29     -75726.4    12259.196   -15433.026    4975.7138    45427.332    85.279508 
   53100    2198.3713    -107.0056    1.9891325   -105.01646    -7363.913      4.40795      4.40795      4.40795    -7363.913   -7814.0234    -46156.22    31878.505   -36.352067   -11728.663    2440.2872    85.646573 
   53200    1350.1414   -106.24686    1.2216363   -105.02522   -32186.718    4.4033502    4.4033502    4.4033502   -32186.718    38853.414   -72395.022   -63018.545   -9023.0991    16778.577    58413.559    85.378726 
   53300    1792.2907   -106.62959    1.6217023   -105.00788    25166.222     4.386274     4.386274     4.386274    25166.222    35025.885   -10180.696    50653.478      -1343.4    -6378.716   -10844.518     84.38928 
   53400    1605.3478   -106.47858    1.4525524   -105.02603    -3413.603    4.3875618    4.3875618    4.3875618    -3413.603    72115.359   -51980.312   -30375.857    7265.5938    10939.971    60891.939    84.463627 
   53500    1550.3347   -106.42971    1.4027754   -105.02693     21021.31    4.4014516    4.4014516    4.4014516     21021.31    71182.506   -22985.627    14867.051   -4587.0602    4027.1233   -28370.332    85.268336 
   53600    1504.8365   -106.39282    1.3616077   -105.03122   -16952.328    4.4122149    4.4122149    4.4122149   -16952.328    64062.858    -55485.64   -59434.202   -9065.4714    5871.2553    50924.431    85.895416 
   53700    1723.8417   -106.57896    1.5597682   -105.01919     1650.084    4.4033413    4.4033413    4.4033413     1650.084    33916.912   -24727.413   -4239.2468   -2378.3249   -1503.9866   -24065.114    85.378213 
   53800    1499.6918   -106.37556    1.3569526    -105.0186   -3196.4715    4.3895846    4.3895846    4.3895846   -3196.4715    27410.942   -24321.968   -12678.388   -16969.772    1317.8795    23712.772    84.580507 
   53900    1975.8327   -106.81118     1.787775    -105.0234   -12087.062     4.401978     4.401978     4.401978   -12087.062   -5743.4696   -10118.732   -20398.983   -3507.4308    1384.3712   -11231.424    85.298936 
   54000    1595.1192   -106.45949    1.4432974   -105.01619    -763.7309    4.4220994    4.4220994    4.4220994    -763.7309   -4797.0144   -23067.334    25573.156    -9640.223    6836.7254    374.46092    86.473993 
   54100    1792.7879   -106.62224    1.6221522   -105.00009   -33787.772    4.4261321    4.4261321    4.4261321   -33787.772    10586.513   -51321.993   -60627.835   -1138.2891    6272.5623   -4836.4934    86.710786 
   54200    1417.6392   -106.28027    1.2827097   -104.99756    20343.921    4.3998049    4.3998049    4.3998049    20343.921    114544.12   -18173.039   -35339.317   -9623.0333   -4635.3883   -6195.8643    85.172668 
   54300    1375.1751   -106.26105    1.2442873   -105.01676    38126.877    4.3988022    4.3988022    4.3988022    38126.877    104186.34   -14488.955    24683.242   -9722.0322    16839.097    4929.2782    85.114453 
   54400     1325.073   -106.22627    1.1989539   -105.02732   -10980.983    4.4219818    4.4219818    4.4219818   -10980.983    39868.924   -23431.045   -49380.829    3507.7668   -6728.3639   -16896.913    86.467091 
   54500    1810.3376   -106.64749    1.6380315   -105.00946   -25676.314    4.4227302    4.4227302    4.4227302   -25676.314   -16582.854   -42910.356   -17535.733   -15155.457    13989.017    17665.362       86.511 
   54600    1132.7337   -106.04001    1.0249213   -105.01509   -21870.106    4.4005476    4.4005476    4.4005476   -21870.106    1081.2772   -34177.447   -32514.147   -12184.959   -9467.6642   -34585.039    85.215808 
   54700    2220.7823   -107.01229    2.0094105   -105.00288    6374.6348    4.3870399    4.3870399    4.3870399    6374.6348   -2230.8069     12628.21    8726.5015    4278.4181   -10462.973    14659.494    84.433492 
   54800    1522.6967   -106.40989     1.377768   -105.03212   -20777.634     4.411702     4.411702     4.411702   -20777.634    39915.425   -63298.438   -38949.889    -4392.572    8917.3908   -42454.749    85.865461 
   54900    1630.9946   -106.50007    1.4757582   -105.02431   -12000.519    4.4204524    4.4204524    4.4204524   -12000.519   -12835.143    8170.8221   -31337.236    16993.278   -21604.425    13296.374    86.377404 
   55000    1865.8461   -106.69335    1.6882568    -105.0051   -8083.8223    4.4160374    4.4160374    4.4160374   -8083.8223    46850.995    -40327.55   -30774.912    10058.588    10005.947   -28051.305     86.11885 
   55100    1616.1393   -106.47068    1.4623168   -105.00836    -896.6321    4.4060103    4.4060103    4.4060103    -896.6321    16927.476   -40702.726    21085.353    1265.5951   -9871.9296   -8163.8514    85.533553 
   55200    1500.9947   -106.37677    1.3581316   -105.01864    14848.146    4.4030428    4.4030428    4.4030428    14848.146    773.99136   -47809.863    91580.308   -1057.9118   -16293.978   -6848.0555    85.360846 
   55300    1724.2603   -106.59229    1.5601469   -105.03214   -5515.3458    4.4131338    4.4131338    4.4131338   -5515.3458    2543.9794   -62368.084    43278.067    8980.9306   -17734.257   -26865.192    85.949091 
   55400    1536.8747   -106.40772    1.3905965   -105.01712   -12814.294    4.4227276    4.4227276    4.4227276   -12814.294   -19073.354   -41344.547    21975.019   -3194.8772   -37529.594    7281.3133    86.510851 
   55500    1302.7918   -106.19242    1.1787934   -105.01362   -9856.2549     4.409628     4.409628     4.409628   -9856.2549    33457.253    -52294.69   -10731.328    -16115.12   -12404.312   -30377.692    85.744416 
   55600    1923.2247    -106.7414    1.7401741   -105.00123    43953.936    4.3856585    4.3856585    4.3856585    43953.936    94440.979    4124.1557    33296.673     2442.952   -32875.384   -311.35322     84.35376 
   55700    1173.4865   -106.11535    1.0617953   -105.05355   -8449.7163    4.4009467    4.4009467    4.4009467   -8449.7163    59618.204   -49794.775   -35172.578   -7686.1965   -16234.601   -34678.569    85.238994 
   55800    1537.2487   -106.42156    1.3909349   -105.03062    2432.1249    4.4162626    4.4162626    4.4162626    2432.1249    38867.453     -21953.3    -9617.778   -13632.192    17491.529    -1711.287    86.132028 
   55900    1220.6228   -106.13258    1.1044452   -105.02814    28210.842    4.4051687    4.4051687    4.4051687    28210.842    55856.273    13125.343    15650.912   -14024.422   -13960.819   -40173.937    85.484549 
   56000    1825.5721   -106.66327     1.651816   -105.01146   -11920.325    4.4104851    4.4104851    4.4104851   -11920.325    8079.7552   -8522.0731   -35318.657     -5398.81    15341.566    4786.3321     85.79443 
   56100    1586.7645   -106.43743    1.4357379   -105.00169   -1456.4881    4.4058442    4.4058442    4.4058442   -1456.4881    37337.803   -32015.138   -9692.1291   -8922.8423   -2317.5519   -23907.709    85.523881 
   56200    1685.9033   -106.53932    1.5254408   -105.01388    3710.3259    4.3999838    4.3999838    4.3999838    3710.3259   -3006.2464    30927.754    -16790.53   -5464.9657   -10323.338   -13888.838    85.183059 
   56300    1602.0089   -106.47393    1.4495314   -105.02439   -22851.967    4.4076711    4.4076711    4.4076711   -22851.967   -5022.4285   -33175.739   -30357.734    939.00434    17358.798   -30226.578    85.630315 
   56400    1668.2428   -106.52691    1.5094611   -105.01745    2939.5958    4.4136458    4.4136458    4.4136458    2939.5958    104537.98   -60229.935   -35489.256   -18139.774   -11136.598   -8019.1477     85.97901 
   56500     1207.954   -106.11205    1.0929822   -105.01907    -16160.13    4.4150597    4.4150597    4.4150597    -16160.13    14667.214   -18236.546   -44911.059   -118.35297    29578.813    -8578.322    86.061663 
   56600    1753.7449   -106.60275    1.5868252   -105.01592   -1927.4951    4.4112207    4.4112207    4.4112207   -1927.4951    77042.558   -34363.767   -48461.276     8971.346   -12355.133    -22139.26     85.83736 
   56700    1628.7639   -106.49507    1.4737398   -105.02133    25943.134    4.3923662    4.3923662    4.3923662    25943.134     9479.235    49777.229    18572.938    1191.5875    735.52895    13464.484    84.741395 
   56800    1149.5148   -106.08615    1.0401052   -105.04605   -2868.5328    4.3897721    4.3897721    4.3897721   -2868.5328    12300.274    36250.428   -57156.301    -3162.471    15336.296   -46515.175    84.591341 
   56900    2066.5241    -106.9108    1.8698344   -105.04097    3720.8834    4.4176362    4.4176362    4.4176362    3720.8834    646.61443   -1063.4837    11579.519    5691.4233   -4363.9789    13752.109     86.21242 
   57000    878.59567   -105.81364   0.79497183   -105.01867    1221.2688    4.4266869    4.4266869    4.4266869    1221.2688    26023.978      10088.5   -32448.671    2414.7211    18603.162   -25064.669    86.743395 
   57100    1603.4466    -106.4387    1.4508322   -104.98787    15539.482    4.4064244    4.4064244    4.4064244    15539.482    66669.264   -25018.553    4967.7343    4001.8464   -17134.564   -1026.1666    85.557672 
   57200    1606.9118   -106.44634    1.4539676   -104.99237    19825.486    4.3892799    4.3892799    4.3892799    19825.486    48223.284   -17425.062    28678.237    10702.815    15345.785   -12945.464    84.562893 
   57300     1147.008   -106.07447    1.0378369   -105.03663    10460.794    4.3895083    4.3895083    4.3895083    10460.794    11451.441    2878.3412      17052.6   -10798.366    12771.915   -21008.098    84.576095 
   57400    2296.9933   -107.12037    2.0783678     -105.042   -27870.909     4.417088     4.417088     4.417088   -27870.909   -38687.043   -16353.106   -28572.579    -5365.778   -9866.1469   -303.12941    86.180332 
   57500    1351.7796   -106.24342    1.2231186    -105.0203    -57806.34    4.4328635    4.4328635    4.4328635    -57806.34   -21061.431    -69205.56    -83152.03   -6959.7868    11926.554   -42046.189    87.107006 
   57600    1417.7471   -106.28758    1.2828074   -105.00477    22092.143    4.3866922    4.3866922    4.3866922    22092.143    -18636.37    23908.097    61004.701   -14007.421   -13216.657    2780.8058    84.413419 
   57700    1947.8917   -106.76426    1.7624933   -105.00177    25618.044    4.3697868    4.3697868    4.3697868    25618.044    58321.729    12881.082    5651.3214   -95.271221   -11223.513   -15713.757    83.441236 
   57800    1318.1483   -106.23261    1.1926883   -105.03992    -11404.25    4.4092032    4.4092032    4.4092032    -11404.25    -20807.48   -28642.825    15237.554    -15815.61    13340.215    2435.7043    85.719642 
   57900    1524.9853   -106.40061    1.3798387   -105.02077   -6499.3808    4.4124316    4.4124316    4.4124316   -6499.3808   -51084.038     37818.38   -6232.4841   -2239.0695   -28309.857    2615.6569    85.908067 
   58000    1994.2404   -106.81958    1.8044306   -105.01515    -3908.833    4.4023344    4.4023344    4.4023344    -3908.833    48341.081    -33850.17    -26217.41   -12694.503   -1533.4285   -25775.994    85.319655 
   58100    1172.4192   -106.10096    1.0608295   -105.04013   -4333.1029    4.3896118    4.3896118    4.3896118   -4333.1029   -15403.229    8128.0711   -5724.1506   -17911.032   -32814.127    10529.239    84.582077 
   58200    1664.2014   -106.55467    1.5058044   -105.04887    16955.261    4.3824517    4.3824517    4.3824517    16955.261    28052.762    33831.556   -11018.535     17758.96   -6129.2128   -6387.4295    84.168852 
   58300    1732.3531   -106.62834    1.5674695   -105.06087   -21263.033    4.4071131    4.4071131    4.4071131   -21263.033   -950.67447   -18613.408   -44225.016   -13972.444   -15997.607   -10656.678      85.5978 
   58400    1705.3385   -106.59159    1.5430261   -105.04856   -17085.266    4.3989463    4.3989463    4.3989463   -17085.266   -35404.964    17617.878    -33468.71   -11683.192   -30399.861    -7430.574    85.122815 
   58500    1476.7875   -106.37404    1.3362284   -105.03781    34056.892    4.3829901    4.3829901    4.3829901    34056.892    27461.936    65186.471    9522.2686    16041.293    24121.782   -2262.3163    84.199877 
   58600    1570.4091   -106.46456    1.4209391   -105.04362    2777.8449    4.4015184    4.4015184    4.4015184    2777.8449    -37713.68     24766.76    21280.455   -28038.716   -26160.552    4062.2551    85.272218 
   58700    1742.1835   -106.60576    1.5763642   -105.02939   -12988.409    4.4041946    4.4041946    4.4041946   -12988.409    -32999.26    7845.9534   -13811.921    402.91786    19071.627   -12055.574    85.427852 
   58800    1886.8663   -106.73948    1.7072763   -105.03221   -12670.795    4.4069081    4.4069081    4.4069081   -12670.795   -26822.052    13627.467   -24817.799    2872.4206    16177.303    8458.5604    85.585851 
   58900    1743.9602   -106.61214    1.5779719   -105.03417   -12110.756     4.404921     4.404921     4.404921   -12110.756   -68068.315    11628.873    20107.175   -31927.125   -11841.091    10532.314    85.470132 
   59000    1334.3834    -106.2319    1.2073782   -105.02452    48093.375    4.3738942    4.3738942    4.3738942    48093.375   -7964.3085    93390.381    58854.054    19470.314    33567.262   -12834.255    83.676753 
   59100    1644.5883    -106.5462    1.4880581   -105.05815   -34044.688    4.3954784    4.3954784    4.3954784   -34044.688   -54730.966   -45406.813   -1996.2855   -27197.281   -16185.912     22741.74    84.921657 
   59200    1755.2623   -106.62993    1.5881982   -105.04173   -29173.586    4.4123763    4.4123763    4.4123763   -29173.586   -85749.389    39094.299   -40865.668   -15275.595    20794.316    5706.7798    85.904842 
   59300    1640.8896   -106.51003    1.4847114   -105.02532    13457.247    4.4016172    4.4016172    4.4016172    13457.247   -9847.2685    25720.939    24498.072   -2880.8039   -8502.7724   -3322.9985    85.277964 
   59400    957.46827   -105.90742   0.86633741   -105.04108   -15550.403    4.4058358    4.4058358    4.4058358   -15550.403   -15653.645   -39540.216    8542.6528   -20675.667   -2545.2315    37404.837    85.523395 
   59500    2472.9662   -107.25442    2.2375918   -105.01683    1147.4193    4.3962698    4.3962698    4.3962698    1147.4193   -5413.3009    10714.525   -1858.9664    339.37649    2703.8897   -14107.742    84.967532 
   59600    1093.9307   -106.03798   0.98981147   -105.04817     1179.254    4.3962904    4.3962904    4.3962904     1179.254   -55091.737   -7302.6973    65932.197   -9194.0089   -17491.203   -2828.7952    84.968727 
   59700    1866.3193    -106.7292    1.6886849   -105.04052   -4682.6211    4.4093105    4.4093105    4.4093105   -4682.6211   -16687.578    7118.2111   -4478.4969    284.00178   -1362.3901   -11578.311    85.725897 
   59800    1277.5324   -106.19138    1.1559381   -105.03544   -21319.472    4.4269685    4.4269685    4.4269685   -21319.472   -77966.063   -10776.079    24783.727   -30423.753   -1393.3315   -24124.238    86.759949 
   59900    1630.7918   -106.48096    1.4755747   -105.00539   -5517.5098    4.4224913    4.4224913    4.4224913   -5517.5098   -61340.249    38776.459    6011.2613    17512.108    5260.8427    5357.5241    86.496986 
   60000    1358.4553   -106.22739    1.2291589   -104.99823    31183.774    4.3797472    4.3797472    4.3797472    31183.774    9214.4346    23929.557     60407.33   -36179.797    370.54073   -25329.273    84.013124 
   60100    1168.3945    -106.0984    1.0571879   -105.04122    5402.7469    4.3776826    4.3776826    4.3776826    5402.7469   -35454.938    34481.583    17181.595   -3027.4238   -9535.3704    5994.0011    83.894368 
   60200    2270.6536   -107.10001    2.0545351   -105.04547   -3479.9126    4.3984651    4.3984651    4.3984651   -3479.9126   -19019.724    47.864866    8532.1219    3380.3171   -4599.8643   -5047.2554    85.094887 
   60300    1061.8384   -106.02661   0.96077374   -105.06583    10330.783    4.4088309    4.4088309    4.4088309    10330.783    9326.2206     11824.48    9841.6477   -22902.263    2208.7751   -13462.892    85.697927 
   60400    1435.0299   -106.33963    1.2984452   -105.04119   -4425.1587    4.4119952    4.4119952    4.4119952   -4425.1587   -9343.1495    31252.855   -35185.182     11844.11    564.68391    5396.4891    85.882583 
   60500    1711.9822   -106.58013    1.5490375    -105.0311   -5791.0014    4.3865917    4.3865917    4.3865917   -5791.0014   -1029.8791    10469.565    -26812.69   -17430.254    14798.959    -18135.87    84.407619 
   60600    1538.8039    -106.4336    1.3923421   -105.04126    33927.818    4.3758011    4.3758011    4.3758011    33927.818    27114.902    17754.961     56913.59   -7562.8873   -688.24621    3493.4828    83.786241 
   60700    1517.7955   -106.42686    1.3733333   -105.05352    3209.6757    4.3938203    4.3938203    4.3938203    3209.6757   -1853.3207    38699.269   -27216.922    9395.6882    19472.699    13704.518    84.825585 
   60800    1577.9082   -106.46851    1.4277245   -105.04079    7864.7018    4.4004819    4.4004819    4.4004819    7864.7018   -8004.7388    -9750.103    41348.947   -19388.718   -2414.5356   -11362.416    85.211992 
   60900    1764.4727   -106.62615     1.596532   -105.02962   -7826.6264    4.4109509    4.4109509    4.4109509   -7826.6264    6135.6793   -10533.495   -19082.064   -1003.7825    2137.9671    25988.571     85.82161 
   61000    1351.9211   -106.25232    1.2232466   -105.02907   -6890.5152    4.3970457    4.3970457    4.3970457   -6890.5152   -23581.098    27982.724   -25073.171   -3630.1835    33096.603     107.8174    85.012531 
   61100    1616.5825   -106.48738    1.4627178   -105.02466    34598.794    4.3836219    4.3836219    4.3836219    34598.794    29768.352   -9400.1967    83428.227    -15928.04   -21196.652   -2850.5272    84.236298 
   61200    1702.6591   -106.58552    1.5406017   -105.04492   -24352.371    4.4066976    4.4066976    4.4066976   -24352.371   -44271.837    14497.223     -43282.5    2705.6649     22384.39     23288.78    85.573587 
   61300    1462.5932   -106.35256     1.323385   -105.02917   -17994.477    4.4099983    4.4099983    4.4099983   -17994.477   -13134.894   -29753.356   -11095.181   -20877.504    14611.706   -24480.697    85.766021 
   61400    1745.6812   -106.59903    1.5795291    -105.0195    8759.1528    4.4033247    4.4033247    4.4033247    8759.1528    63922.197   -28483.218   -9161.5204   -2789.6095   -6486.2396    3607.4085    85.377245 
   61500    1542.7534   -106.42828    1.3959157   -105.03237   -24222.445    4.3915187    4.3915187    4.3915187   -24222.445   -50191.055    46.427383   -22522.708    -16261.01      29586.2    7729.8785    84.692357 
   61600    1536.9656   -106.43389    1.3906788   -105.04321    14340.114    4.3758456    4.3758456    4.3758456    14340.114     70171.21   -46276.178     19125.31   -11831.055    1857.4414   -42003.494      83.7888 
   61700    1938.4646   -106.81082    1.7539635   -105.05686    6997.8001    4.4077247    4.4077247    4.4077247    6997.8001    16122.213   -3013.7677    7884.9548     829.5013    19104.213     3780.471    85.633442 
   61800    920.31121   -105.86795   0.83271692   -105.03523   -12676.215    4.4187436    4.4187436    4.4187436   -12676.215   -41281.271   -27364.452    30617.078    -27789.37     7395.392   -39304.283    86.277272 
   61900    2029.1611   -106.81856    1.8360276   -104.98254    15485.279    4.4079585    4.4079585    4.4079585    15485.279    23556.803   -20911.442    43810.477    18147.625    10062.148   -3770.9321    85.647067 
   62000    1202.8182   -106.08889    1.0883352   -105.00056   -10930.357    4.4188609    4.4188609    4.4188609   -10930.357    17070.637   -52334.836    2473.1283   -21048.815    24977.474   -19660.466    86.284144 
   62100    1886.2342     -106.694    1.7067044    -104.9873   -19562.473    4.4086675    4.4086675    4.4086675   -19562.473    2024.4136    -30226.09   -30485.744   -9222.5912   -6637.1865    1105.2375      85.6884 
   62200    1679.1336   -106.50999    1.5193154   -104.99067   -4720.4532    4.3899643    4.3899643    4.3899643   -4720.4532   -15721.461    17985.013   -16424.911    12423.732    17976.869    10425.346    84.602452 
   62300    1542.8587   -106.41669     1.396011   -105.02068   -10563.712    4.3997849    4.3997849    4.3997849   -10563.712    4131.1434   -25711.096   -10111.184   -34586.904   -3543.0275   -15062.868    85.171508 
   62400    1613.7935   -106.49857    1.4601943   -105.03838   -20927.099    4.3922974    4.3922974    4.3922974   -20927.099   -31286.572    29254.997   -60749.723    15182.642   -19540.959    12129.208    84.737417 
   62500    1546.2314   -106.44482    1.3990626   -105.04575    2254.9021    4.3862412    4.3862412    4.3862412    2254.9021    12027.861   -2342.5231   -2920.6313   -14203.732    20361.057    5054.0923    84.387384 
   62600    1856.1288   -106.72613    1.6794644   -105.04666   -24534.257    4.4070781    4.4070781    4.4070781   -24534.257   -29930.027   -12518.882   -31153.863    2366.6505   -17795.368   -8168.5444    85.595757 
   62700    1236.3204   -106.16711    1.1186487   -105.04846   -6750.8996    4.3937512    4.3937512    4.3937512   -6750.8996    16785.873    26682.643   -63721.215    8016.1532    9951.8379    28881.667    84.821583 
   62800    1921.2899   -106.76745    1.7384235   -105.02903    39770.832     4.375499     4.375499     4.375499    39770.832    24987.581    28871.539    65453.377   -18583.419   -11737.645   -11425.204     83.76889 
   62900    1306.1356    -106.2325    1.1818189   -105.05068   -27495.516    4.4000519    4.4000519    4.4000519   -27495.516   -11369.875   -20990.965   -50125.707    3470.8856    11769.831    24263.032    85.187013 
   63000    1503.4208   -106.40406    1.3603267   -105.04373   -12789.919     4.401408     4.401408     4.401408   -12789.919   -2690.3862   -12794.183   -22885.187    -11783.69    7349.8422    27024.383    85.265804 
   63100    1798.0747   -106.66119    1.6269358   -105.03426    16166.252    4.3840869    4.3840869    4.3840869    16166.252   -6833.1587    58738.092   -3406.1784   -4040.9211   -7312.5006   -25162.139    84.263106 
   63200    1210.3136   -106.14334    1.0951171   -105.04823   -217.94723    4.3852999    4.3852999    4.3852999   -217.94723    5522.9673    30126.733   -36303.542    10270.503    13017.762    37775.786    84.333066 
   63300    2117.1999   -106.96422     1.915687   -105.04853   -4303.0669    4.3936099    4.3936099    4.3936099   -4303.0669   -4044.8282   -2962.8143   -5901.5581   -8516.0632    3473.0597   -50226.591      84.8134 
   63400    1134.8084   -106.08151    1.0267985   -105.05472   -29614.009    4.4088917    4.4088917    4.4088917   -29614.009   -44973.552    22347.377   -66215.851     10239.78    16890.605    23813.456    85.701472 
   63500    2084.3957   -106.91652     1.886005   -105.03051   -15439.597    4.3916359    4.3916359    4.3916359   -15439.597   -8715.7248   -27978.982   -9624.0852   -2443.0978   -1478.8704   -26890.132    84.699136 
   63600     1181.624   -106.11506    1.0691583   -105.04591    3601.4829    4.3864919    4.3864919    4.3864919    3601.4829     22033.19    15183.469    -26412.21   -298.23834    15415.337   -19487.008    84.401856 
   63700    1647.1809   -106.53155    1.4904039   -105.04114    -11914.38    4.3981057    4.3981057    4.3981057    -11914.38    2515.6848   -10255.218   -28003.608    5586.8267   -5284.2983    8284.3626    85.074024 
   63800    1573.5035   -106.46745     1.423739   -105.04371   -11841.774     4.402109     4.402109     4.402109   -11841.774   -7929.9111   -6109.4033   -21486.006   -1621.1055    12789.676   -55889.858    85.306551 
   63900    1735.2108   -106.60475    1.5700552   -105.03469    11628.784     4.395166     4.395166     4.395166    11628.784    8286.9994    13878.679    12720.674    4888.2989    17933.151    19975.458    84.903548 
   64000    1006.6478   -105.96041    0.9108361   -105.04958    1184.3033    4.3953776    4.3953776    4.3953776    1184.3033    14534.926   -11152.792    170.77633    10171.883   -7483.1989   -36452.683     84.91581 
   64100    2286.8653   -107.09563    2.0692038   -105.02642    7875.8332    4.3965131    4.3965131    4.3965131    7875.8332   -25507.834    12601.183     36534.15   -2299.6954    18953.561    1741.4352    84.981642 
   64200    1106.8784   -106.04578    1.0015268   -105.04425   -6583.5156    4.3944878    4.3944878    4.3944878   -6583.5156   -17568.441    -16707.13    14525.024    17597.802    9619.4357   -13405.393    84.864249 
   64300    1331.1783   -106.24391    1.2044781   -105.03943    7976.8149    4.3976462    4.3976462    4.3976462    7976.8149    10458.076    5336.2562    8136.1125   -943.04432   -3691.0682   -27947.802    85.047366 
   64400    2056.3349   -106.88905    1.8606151   -105.02843   -22472.325    4.3981412    4.3981412    4.3981412   -22472.325   -62918.745   -32584.848    28086.618    21641.772     14535.44    10911.852    85.076084 
   64500    1306.6294   -106.22366    1.1822657    -105.0414   -15728.052    4.4029692    4.4029692    4.4029692   -15728.052   -21345.171    19748.684   -45587.668   -517.19732   -5.4560263   -51405.142    85.356565 
   64600    1580.7413   -106.45794     1.430288   -105.02766    7200.2882     4.393455     4.393455     4.393455    7200.2882   -25402.829   -798.11658     47801.81    24474.109    2427.7947   -4650.5669    84.804433 
   64700    1193.7996   -106.11264     1.080175   -105.03246    1168.8365    4.3901349    4.3901349    4.3901349    1168.8365    8671.3503   -9679.8876    4515.0469    25132.742    9250.9788   -17702.585    84.612321 
   64800    2137.1433   -106.95406    1.9337322   -105.02033   -6870.5899    4.4019207    4.4019207    4.4019207   -6870.5899   -24380.195    48109.395    -44340.97    8876.8226    -79.57566   -3030.9887    85.295602 
   64900    878.91205   -105.82734    0.7952581   -105.03208    25191.376    4.3929618    4.3929618    4.3929618    25191.376   -15272.334    28882.314    61964.148    33452.362    6183.8811   -9872.1832    84.775872 
   65000    1724.9462   -106.59891    1.5607676   -105.03814    12754.715    4.3966273    4.3966273    4.3966273    12754.715    30302.529    6978.1606    983.45472   -10928.096    2545.5029   -15139.044    84.988261 
   65100    1949.2323   -106.79907    1.7637064   -105.03536   -21797.854    4.4076883    4.4076883    4.4076883   -21797.854   -64220.965    11697.223   -12869.819    25942.751   -4521.1019      12500.9    85.631317 
   65200    1079.3766   -106.00906   0.97664259   -105.03242    30081.147     4.387247     4.387247     4.387247    30081.147    35943.157   -2047.8024    56348.087   -24419.948    8831.5029   -42337.141    84.445451 
   65300    1798.3817   -106.65628    1.6272136   -105.02907    21706.016    4.3991738    4.3991738    4.3991738    21706.016    66316.682   -14547.813     13349.18   -109.97432        -2261    9998.6986    85.136021 
   65400    1634.7833   -106.49895    1.4791863   -105.01976   -27918.114    4.4173966    4.4173966    4.4173966   -27918.114   -63033.033   -19682.491   -1038.8187   -14712.598    11229.403   -16982.093    86.198392 
   65500     1648.851   -106.49441     1.491915    -105.0025    25653.822    4.4051058    4.4051058    4.4051058    25653.822    67462.373   -21951.346    31450.437   -14175.556    2308.9503   -8303.2605    85.480892 
   65600    1374.4815   -106.24939    1.2436597   -105.00573     2447.865    4.4009169    4.4009169    4.4009169     2447.865    18565.507   -40283.836    29061.924   -15582.116   -13665.401   -2047.5509    85.237267 
   65700    1195.1268   -106.10872    1.0813759   -105.02734   -21978.021    4.3910455    4.3910455    4.3910455   -21978.021   -29624.095    -54159.65    17849.682   -49413.204     864.2866   -25401.784    84.664982 
   65800    2002.8922   -106.83578     1.812259   -105.02352    43326.125    4.3796292    4.3796292    4.3796292    43326.125    48928.745    20747.205    60302.423    26142.676     823.3984    20767.183    84.006335 
   65900    1034.1694   -105.99713    0.9357382    -105.0614   -23413.193    4.4021776    4.4021776    4.4021776   -23413.193    -45434.32   -60742.379    35937.121   -48934.216    -24317.29   -26370.623    85.310537 
   66000    1516.8492   -106.41478     1.372477   -105.04231   -27741.406    4.4073963    4.4073963    4.4073963   -27741.406   -22178.869   -40635.133   -20410.216   -3865.2151     10080.73    12654.585    85.614298 
   66100    1832.3392      -106.68     1.657939   -105.02206    23663.113    4.3867697    4.3867697    4.3867697    23663.113    51318.259    13530.641    6140.4401   -1179.8877   -5445.5019   -73.039592    84.417892 
   66200    1232.2093   -106.16474    1.1149289   -105.04981    -33212.54    4.3883314    4.3883314    4.3883314    -33212.54   -21371.219   -57583.034   -20683.366    -36511.22   -7129.4479   -29050.778    84.508084 
   66300    2008.2197   -106.85574    1.8170794   -105.03866    12039.744    4.3936039    4.3936039    4.3936039    12039.744    39770.936   -3235.4225    -416.2828    14961.023    13858.414    18664.498    84.813055 
   66400    892.43042   -105.86895   0.80748979   -105.06146    -18801.24    4.4080886    4.4080886    4.4080886    -18801.24    16258.168   -58457.666   -14204.222   -11099.388    985.90231       -39798     85.65465 
   66500    1974.7359   -106.80918    1.7867825    -105.0224     1422.772     4.407444     4.407444     4.407444     1422.772    18964.945    -17889.13    3192.5009   -2106.0683    9608.3177    -16051.69    85.617078 
   66600    1293.4575   -106.18788    1.1703476   -105.01754    42656.971    4.3855694    4.3855694    4.3855694    42656.971    53104.999     43703.56    31162.355    17971.161   -2582.8246   -25814.949    84.348615 
   66700    1401.2761   -106.29683    1.2679041   -105.02892     4836.065    4.3985651    4.3985651    4.3985651     4836.065   -5598.9855     7839.826    12267.354   -24701.298    116.68234    -10419.86     85.10069 
   66800    1814.6174   -106.65363    1.6419039   -105.01172    21405.922     4.398384     4.398384     4.398384    21405.922    100719.95   -290.43171   -36211.754    32945.638    7857.2412    11778.345    85.090178 
   66900    1423.1468   -106.31709    1.2876931   -105.02939    7015.3372    4.3880278    4.3880278    4.3880278    7015.3372    9029.1868    37902.292   -25885.467   -17572.852   -1530.7364   -41217.561    84.490547 
   67000     2057.915   -106.89604    1.8620447     -105.034   -11358.158    4.3862252    4.3862252    4.3862252   -11358.158   -294.41259   -11731.877   -22048.186   -18375.134    2573.8802    37481.911    84.386461 
   67100    1353.9637   -106.27514    1.2250948   -105.05005    20678.432     4.391403     4.391403     4.391403    20678.432    70978.406    34994.516   -43937.626    16395.249    2770.8273   -41469.471     84.68566 
   67200    1867.2693   -106.72947    1.6895445   -105.03993   -22320.017    4.4157034    4.4157034    4.4157034   -22320.017    29571.268   -29230.517     -67300.8   -8959.3589     -165.193     26977.48    86.099315 
   67300    1339.3743   -106.24849     1.211894    -105.0366    17001.139    4.3928918    4.3928918    4.3928918    17001.139    36132.793    47759.963   -32889.339   -8997.7875   -4433.7723   -1395.4701    84.771822 
   67400    1484.9961   -106.37908    1.3436557   -105.03543    19197.994    4.3676272    4.3676272    4.3676272    19197.994   -3889.2397      35057.7    26425.523    36151.533   -3794.4177   -41783.489    83.317586 
   67500     2091.136   -106.94788    1.8921038   -105.05578    23046.634    4.3799235    4.3799235    4.3799235    23046.634    734.70702    87426.749   -19021.554   -9520.9716    3458.8976    35364.724    84.023269 
   67600    1388.5154   -106.32665    1.2563579   -105.07029   -53153.037    4.4225776    4.4225776    4.4225776   -53153.037   -48963.652   -49424.704   -61070.755    25331.212    2484.3721   -56828.218    86.502047 
   67700    2109.7955   -106.93621    1.9089873   -105.02722   -26614.394    4.4082722    4.4082722    4.4082722   -26614.394   -55105.879   -1473.8113   -23263.491     29670.11   -1849.7656    2374.8303    85.665352 
   67800    1719.9856   -106.55056    1.5562791   -104.99428    28710.425      4.36851      4.36851      4.36851    28710.425    22995.026    76665.979    -13529.73   -617.95078    2901.9927   -14400.314    83.368121 
   67900    972.56167    -105.9246   0.87999423   -105.04461   -7616.5275    4.3801521    4.3801521    4.3801521   -7616.5275    15433.589    -58906.24    20623.069    28751.013    1815.8377    -38354.48    84.036427 
   68000    2136.4894   -106.96392    1.9331405   -105.03078    17496.193    4.4025555    4.4025555    4.4025555    17496.193   -20962.475    46300.555      27150.5   -16669.484     3979.779    3315.7711    85.332507 
   68100    1055.5622   -105.99139   0.95509485   -105.03629   -33784.313    4.4258038    4.4258038    4.4258038   -33784.313   -67231.127   -7198.6198   -26923.194    51469.671   -6928.5682   -35161.783    86.691494 
   68200    2065.7204   -106.86732    1.8691073   -104.99822   -25327.751    4.4058264    4.4058264    4.4058264   -25327.751   -48893.455   -36979.956    9890.1573   -3196.4355   -5390.5257    27274.073    85.522846 
   68300    1483.7243   -106.32673    1.3425049   -104.98423    31225.824    4.3705636    4.3705636    4.3705636    31225.824    38225.554    27929.359    27522.559    3315.2645    -4331.351    -50575.55    83.485746 
   68400    1708.9326   -106.57954    1.5462781   -105.03326    13654.042    4.3955243    4.3955243    4.3955243    13654.042   -21490.003   -22706.889    85159.017    32266.493    -8769.483   -771.70449    84.924318 
   68500    1490.6478   -106.36531    1.3487695   -105.01654   -5959.0932    4.4125258    4.4125258    4.4125258   -5959.0932    75587.155   -51939.605    -41524.83   -12488.292   -10721.056   -36857.806    85.913571 
   68600    1668.3294   -106.51624    1.5095395    -105.0067    -16912.32    4.4083645    4.4083645    4.4083645    -16912.32    1958.2393   -41344.371   -11350.827    32386.528    -5974.546   -4741.8255    85.670733 
   68700     2043.702   -106.84131    1.8491845   -104.99213   -26056.652    4.4129631    4.4129631    4.4129631   -26056.652    38905.182   -55101.144   -61973.994    -18580.51   -21515.801   -25575.789    85.939119 
   68800    1474.8592   -106.32361    1.3344836   -104.98912   -9380.4029    4.4018232    4.4018232    4.4018232   -9380.4029    43753.307   -64662.684   -7231.8314    22905.382   -5925.8302   -25067.564    85.289937 
   68900     1541.945   -106.38468    1.3951842    -104.9895    35580.043    4.3829555    4.3829555    4.3829555    35580.043     103120.7    3375.3764    244.05295   -767.86938   -8503.4148   -11369.213    84.197882 
   69000    1722.7337   -106.58403    1.5587656   -105.02526    10911.771    4.3866326    4.3866326    4.3866326    10911.771    41758.716   -13627.524    4604.1214    18454.336    3897.0039   -25285.999    84.409978 
   69100    1575.0661   -106.46992    1.4251529   -105.04476   -12981.065    4.4022307    4.4022307    4.4022307   -12981.065    42174.575    -56381.92   -24735.849    19718.033    2395.7904    9138.3086    85.313625 
   69200     1903.117   -106.75861    1.7219802   -105.03663    12777.563    4.3981751    4.3981751    4.3981751    12777.563    78380.209    8812.7161   -48860.236   -9825.0696    10443.578   -25590.252    85.078055 
   69300    1248.5932   -106.16864    1.1297534   -105.03889     13251.24    4.3870529    4.3870529    4.3870529     13251.24    73839.408   -45001.183    10915.494    20284.994   -1028.1818    6269.2861    84.434244 
   69400    1551.7116   -106.44879    1.4040213   -105.04477   -2165.5812    4.3887836    4.3887836    4.3887836   -2165.5812    46065.026   -17657.874   -34903.895   -2129.4057    8841.2175   -22341.221    84.534211 
   69500    1877.1262    -106.7357    1.6984633   -105.03724    15577.732    4.3880172    4.3880172    4.3880172    15577.732    84970.689   -20374.903   -17862.589    22316.825    2230.3492    13484.465    84.489935 
   69600    1291.0899   -106.23023    1.1682053   -105.06202   -26144.517      4.40243      4.40243      4.40243   -26144.517    53450.501   -80586.323   -51297.729    2994.4172    1928.7939   -15748.347    85.325211 
   69700    2035.8146   -106.87332    1.8420478   -105.03127    14528.261    4.4020794    4.4020794    4.4020794    14528.261    67816.171    12254.243   -36485.632   -2671.2033   -1881.5579     12134.52    85.304827 
   69800     1228.384   -106.15969    1.1114676   -105.04822   -34129.702    4.3841632    4.3841632    4.3841632   -34129.702   -15702.982   -78607.933   -8078.1904     36421.45    3525.9141    9155.4075    84.267506 
   69900    2130.7323   -106.95967    1.9279314   -105.03173    46358.442    4.3749088    4.3749088    4.3749088    46358.442    92853.525    45674.261    547.53903   -14070.666   -3635.3699   -687.80181    83.734999 
   70000    941.00763   -105.91713   0.85144347   -105.06569   -25524.656    4.4002347    4.4002347    4.4002347   -25524.656    15393.264   -53017.115   -38950.116     35060.47    7637.1151    11786.927    85.197632 
   70100    1836.5134   -106.69275    1.6617159   -105.03103   -12537.133    4.4095088    4.4095088    4.4095088   -12537.133    16854.451   -20393.442   -34072.407    9080.9996     106.1232    -13177.59    85.737465 
   70200    1597.8184   -106.47259    1.4457397   -105.02685    10265.624    4.3823742    4.3823742    4.3823742    10265.624    65765.365    4739.0412   -39707.533    26873.373    7941.1914    26167.057    84.164392 
   70300    1206.6956   -106.13319    1.0918436   -105.04134    11901.589    4.3854433    4.3854433    4.3854433    11901.589    25409.641    25361.363   -15066.238    43721.485   -5211.7666   -22363.018    84.341342 
   70400    2301.5868   -107.10937    2.0825241   -105.02685   -1817.7207    4.4006711    4.4006711    4.4006711   -1817.7207   -8950.6736    45235.289   -41737.778   -4449.9027    3056.7464    18251.674    85.222981 
   70500    698.28986   -105.68388   0.63182734   -105.05205    7327.8961    4.3971562    4.3971562    4.3971562    7327.8961     65304.28   -14078.716   -29241.875    41780.336    1274.2333   -1735.9689    85.018938 
   70600     2777.521   -107.53194    2.5131594   -105.01878   -16767.048    4.3947684    4.3947684    4.3947684   -16767.048   -3408.7743   -11858.064   -35034.305   -8478.3765   -4941.0612    -4305.432     84.88051 
   70700    694.62901   -105.68665   0.62851492   -105.05813    10231.181    4.3899993    4.3899993    4.3899993    10231.181    47331.132   -1385.4576   -15252.131    17858.649    4689.0319    9874.4481    84.604476 
   70800    2443.7485   -107.23949     2.211155   -105.02833   -5416.6929    4.3974375    4.3974375    4.3974375   -5416.6929   -7298.0573    16133.272   -25085.294    18591.084   -7296.1906   -7338.5724    85.035257 
   70900    938.36219   -105.88647   0.84904983   -105.03742    7006.2748    4.3946209    4.3946209    4.3946209    7006.2748    34148.623   -8441.7938    -4688.005   -16739.264   -1432.1964    4917.7454    84.871964 
   71000    1721.9369   -106.57165    1.5580447    -105.0136    38055.046    4.3881596    4.3881596    4.3881596    38055.046    56240.887    52269.675    5654.5776     41527.45   -563.73521    3988.0714     84.49816 
   71100    1477.5613    -106.3529    1.3369286   -105.01597   -18301.225    4.4072625    4.4072625    4.4072625   -18301.225    12792.605   -31546.858   -36149.422   -14634.988   -3725.5572   -12071.769    85.606502 
   71200    1215.4914   -106.11894    1.0998022   -105.01914   -9986.7618    4.3954809    4.3954809    4.3954809   -9986.7618    -8169.312   -25731.063    3940.0897    23789.631    8245.7616    10642.556    84.921801 
   71300     1880.913   -106.71317    1.7018896   -105.01128     28988.38    4.3821695    4.3821695    4.3821695     28988.38    57734.985    24895.938    4334.2163   -1919.7981   -6065.0747   -16965.613    84.152598 
   71400    1050.1164   -105.99713   0.95016736   -105.04696   -20374.688    4.3985404    4.3985404    4.3985404   -20374.688   -22170.344    -19292.48   -19661.239    -20540.28    3595.1862    4501.3849    85.099255 
   71500    2289.6687   -107.09331    2.0717404   -105.02157    6743.6279    4.3964676    4.3964676    4.3964676    6743.6279    13820.138    37890.229   -31479.483    8354.1941    7245.5863   -7727.2006    84.979001 
   71600    919.32229   -105.86748   0.83182213   -105.03566     27360.32    4.3882156    4.3882156    4.3882156     27360.32    40635.431    63264.737   -21819.209   -15139.728   -470.68954   -23036.327    84.501396 
   71700    2225.0624    -107.0399    2.0132832   -105.02662    -3737.163    4.3983822    4.3983822    4.3983822    -3737.163    12043.003    10928.033   -34182.524    11553.264    10370.143    14831.746    85.090072 
   71800    1080.2068   -106.01039   0.97739385     -105.033    25350.043    4.3902986    4.3902986    4.3902986    25350.043     84560.02    42454.807   -50964.699   -19376.231    -93.01762   -30858.539    84.621784 
   71900    1695.4817   -106.55912    1.5341075   -105.02501    19684.434    4.3956299    4.3956299    4.3956299    19684.434    14286.809    25832.465    18934.027   -8560.0743    6323.7185    18026.301    84.930437 
   72000    1420.9124   -106.30418    1.2856714   -105.01851    8071.3968    4.3988435    4.3988435    4.3988435    8071.3968    78733.959    -4601.384   -49918.384   -1159.8519    1121.8571   -50107.781    85.116847 
   72100    1340.2501   -106.22498    1.2126864    -105.0123    12517.767     4.402111     4.402111     4.402111    12517.767    43466.854    3330.7651   -9244.3178   -25793.457   -3348.5208    21599.704    85.306667 
   72200    1698.4064   -106.53993    1.5367538   -105.00318    27819.012    4.3971596    4.3971596    4.3971596    27819.012    101858.32   -6798.3362   -11602.943     6432.024   -9265.7205   -29348.135    85.019136 
   72300    1115.2983   -106.02009    1.0091454   -105.01095    49935.391     4.398796     4.398796     4.398796    49935.391    80999.422    53275.493    15531.257   -8783.5171   -13789.871    10722.062     85.11409 
   72400    1518.4193   -106.37061    1.3738977   -104.99671   -6662.3146    4.4185291    4.4185291    4.4185291   -6662.3146    59170.683   -43064.035   -36093.592    6329.6718   -15220.243   -39013.473    86.264708 
   72500    1447.4961   -106.28425    1.3097249   -104.97453    17281.349    4.4077371    4.4077371    4.4077371    17281.349     68602.96   -19304.121    2545.2072    352.67054   -23354.786    4869.1412    85.634162 
   72600    1381.1226    -106.2334    1.2496687   -104.98373    12275.874    4.4017555    4.4017555    4.4017555    12275.874    8337.3076   -27354.635    55844.948   -14501.234   -16720.187   -3765.0005    85.285999 
   72700     1797.155   -106.61063    1.6261036   -104.98452    9318.9766    4.4000562    4.4000562    4.4000562    9318.9766     12001.89    -16951.93     32906.97    15340.382   -3140.7121   -13655.016    85.187265 
   72800    1206.2575   -106.09014    1.0914471    -104.9987    42281.808    4.4032108    4.4032108    4.4032108    42281.808   -2683.1123    52292.496    77236.042   -36271.473   -641.82894    20383.101    85.370618 
   72900    1714.6661   -106.54408    1.5514659   -104.99262    -24259.95    4.4220179    4.4220179    4.4220179    -24259.95    9591.1932   -64354.649   -18016.393    9501.8485   -3491.7211   -29913.688    86.469212 
   73000    1334.0476   -106.20556    1.2070743   -104.99848   -18103.979    4.3954601    4.3954601    4.3954601   -18103.979   -57713.187   -54938.662    58339.912   -61640.019   -132.47118    18627.971    84.920595 
   73100    2000.6054   -106.78117    1.8101898   -104.97098    47281.228     4.371994     4.371994     4.371994    47281.228    30701.647    31146.568    79995.469    29246.339   -72.081494   -1011.3875    83.567745 
   73200    1334.7112   -106.22735    1.2076747   -105.01967   -38902.347    4.4030842    4.4030842    4.4030842   -38902.347   -73396.893   -76992.076     33681.93   -63363.236   -1001.4463   -5574.4255    85.363255 
   73300    1831.1686    -106.6635    1.6568799   -105.00662    5713.8993    4.4136945    4.4136945    4.4136945    5713.8993    2518.4244   -22368.456     36991.73    14685.639   -9541.0106    6158.1698    85.981854 
   73400    1391.8802    -106.2624    1.2594025     -105.003    10415.252    4.4075482    4.4075482    4.4075482    10415.252   -16446.384   -5916.1766    53608.316   -53665.438   -11139.877   -7936.1016    85.623151 
   73500    1637.4726   -106.47804    1.4816197   -104.99642     10071.72    4.4077022    4.4077022    4.4077022     10071.72    28374.468    5942.2721   -4101.5815   -1401.1364   -923.57605    16317.972    85.632125 
   73600     1242.664   -106.12482    1.1243885   -105.00043    15841.034    4.3989774    4.3989774    4.3989774    15841.034    71852.797   -48033.145     23703.45   -38303.725   -25379.261   -5357.5144     85.12462 
   73700    1613.2634   -106.46784    1.4597146   -105.00813    3889.3392     4.395247     4.395247     4.395247    3889.3392     4596.398    -42939.86    50011.479   -37518.641      -6636.5    -755.4869    84.908244 
   73800    1394.6492   -106.28244    1.2619079   -105.02053    2469.1581    4.4028176    4.4028176    4.4028176    2469.1581    42311.023   -38303.726    3400.1778   -24041.809   -6955.2191    8114.2386    85.347752 
   73900    1531.8234   -106.41474     1.386026   -105.02872   -25362.153    4.4076875    4.4076875    4.4076875   -25362.153   -35084.123   -70414.224    29411.888   -46562.999    2705.9452   -12128.309    85.631273 
   74000    2227.2017   -107.02546    2.0152189   -105.01024   -624.22839    4.3965375    4.3965375    4.3965375   -624.22839    43595.514   -35750.305   -9717.8943    2459.9076   -11555.454    2926.6209    84.983054 
   74100    928.42803   -105.88036   0.84006119    -105.0403   -7937.7068    4.3986994    4.3986994    4.3986994   -7937.7068    10578.333   -57847.991    23456.537   -54998.671    11256.337   -3027.2237    85.108482 
   74200    2091.4317   -106.91433    1.8923714   -105.02196     24337.83    4.3934901    4.3934901    4.3934901     24337.83     47159.76    13038.676    12815.053    35170.889   -3102.5578    -6423.289    84.806466 
   74300    1035.3203   -105.97661   0.93677956   -105.03983    30837.207    4.3965546    4.3965546    4.3965546    30837.207     19044.27    28386.238    45081.113   -70911.608   -10931.299   -1292.7816    84.984049 
   74400    1866.2461   -106.71367    1.6886187   -105.02505   -9003.0955    4.4134642    4.4134642    4.4134642   -9003.0955   -24411.582    2648.0347   -5245.7393    30888.282   -4309.4367   -6398.8517    85.968394 
   74500    1149.4946   -106.06417    1.0400868   -105.02408    18198.373    4.3955912    4.3955912    4.3955912    18198.373   -27641.782   -10472.369    92709.269   -56417.651   -4824.3387     3692.871    84.928193 
   74600    2081.0615   -106.88246    1.8829882   -104.99947    31357.131    4.3900038    4.3900038    4.3900038    31357.131   -436.96575    69554.282    24954.076     634.0741     2325.387   -20432.676    84.604738 
   74700    1269.4493   -106.16578    1.1486244   -105.01715   -18097.358    4.4052692    4.4052692    4.4052692   -18097.358   -46426.768   -7000.1701   -865.13705   -51347.578    3420.9694   -4763.2128    85.490404 
   74800    1951.9537   -106.78195    1.7661687   -105.01578     17377.99    4.4128051    4.4128051    4.4128051     17377.99   -17471.555    54295.839    15309.685   -6577.4384    8899.9184    5538.2119    85.929889 
   74900    1321.8727   -106.21857    1.1960582   -105.02252   -15818.275    4.4128434    4.4128434    4.4128434   -15818.275    -47845.22   -45662.166    46052.562   -40886.056   -499.26725   -4995.7666    85.932127 
   75000    1393.4011   -106.26636    1.2607786   -105.00558    21738.944    4.3883093    4.3883093    4.3883093    21738.944    -62.96608     10960.56    54319.239   -6669.5521   -5594.3185    15083.231    84.506809 
   75100    1656.4278   -106.51327    1.4987707    -105.0145    13997.015    4.3914727    4.3914727    4.3914727    13997.015   -21020.091    47954.541    15056.596   -23957.072    89.080146    22980.975    84.689696 
   75200    1594.9751   -106.46827     1.443167    -105.0251   -24266.831    4.4084212    4.4084212    4.4084212   -24266.831   -79005.625   -39575.636    45780.768   -43359.299    756.21386    2974.5988    85.674039 
   75300     1736.551   -106.57611    1.5712678   -105.00485   -10326.481    4.4257545    4.4257545    4.4257545   -10326.481   -19196.997   -13592.323    1809.8773   -2711.1443   -7374.6434    22235.642    86.688593 
   75400    1301.7223   -106.17619    1.1778257   -104.99836   -48101.691    4.4138974    4.4138974    4.4138974   -48101.691    -72517.31   -87638.197    15850.433   -76567.067   -5899.1266    10188.981    85.993716 
   75500    2714.8514   -107.41431    2.4564546   -104.95785   -2794.3144    4.3854822    4.3854822    4.3854822   -2794.3144    428.12965    -11340.27     2529.197    12591.418   -17284.336    2088.1195    84.343585 
   75600    1234.3584   -106.12728    1.1168735   -105.01041   -54305.836    4.4052701    4.4052701    4.4052701   -54305.836   -79305.143   -78869.158   -4743.2077   -96398.115   -8535.9433    20015.742    85.490453 
   75700    2497.4954   -107.24675    2.2597863   -104.98696   -12853.109    4.4221558    4.4221558    4.4221558   -12853.109   -16712.863   -7013.1279   -14833.336    27272.657   -24081.715   -302.53348    86.477302 
   75800     834.1821    -105.7367    0.7547855   -104.98191    -39506.58    4.4315472    4.4315472    4.4315472    -39506.58   -100520.31   -57871.954    39872.528   -80434.743   -5837.8904    16962.728    87.029428 
   75900    2357.0293   -107.09001    2.1326896   -104.95732    12571.757    4.4043138    4.4043138    4.4043138    12571.757    25349.592    39048.252   -26682.573    27516.044   -12613.851    -313.8753    85.434792 
   76000    951.52435   -105.85653   0.86095923   -104.99557    32283.895    4.3769272    4.3769272    4.3769272    32283.895    67609.041   -32203.723    61446.367   -63879.868   -3862.1079    13500.411    83.850948 
   76100    1662.2005   -106.54252     1.503994   -105.03853    37301.307    4.3943722    4.3943722    4.3943722    37301.307    112554.13    4121.4928   -4771.7069    21421.771   -11971.276   -13608.065    84.857557 
   76200    1348.7101   -106.25831    1.2203412   -105.03797    -16688.25    4.4261234    4.4261234    4.4261234    -16688.25    -12728.48   -26460.416   -10875.855   -39431.133    -3690.211    -7739.643    86.710275 
   76300    1570.7669   -106.43275    1.4212629   -105.01148   -32117.734    4.4145026    4.4145026    4.4145026   -32117.734   -20270.947   -37158.849   -38923.407   -22126.169    15228.164    2657.5286    86.029093 
   76400    1879.0286   -106.69015    1.7001846   -104.98997    10542.733    4.3817936    4.3817936    4.3817936    10542.733    7565.0037    27123.462   -3060.2664   -10105.118    16492.414   -3308.9709    84.130943 
   76500    1710.6387   -106.56474    1.5478218   -105.01692   -21894.637    4.3898226    4.3898226    4.3898226   -21894.637   -45460.235   -15415.551   -4808.1255   -70182.564    1371.4212    3354.1232     84.59426 
   76600    2061.5248   -106.88836     1.865311   -105.02305   -25972.162    4.4102949    4.4102949    4.4102949   -25972.162    9183.3279   -28573.251   -58526.562    11217.481    30183.424    1745.2571     85.78333 
   76700     1144.451   -106.06749    1.0355233   -105.03196    4380.3708    4.3994978    4.3994978    4.3994978    4380.3708    -28041.73    2311.6266    38871.216   -48706.918    11489.849    385.95327    85.154833 
   76800    1921.2886   -106.76057    1.7384223   -105.02215    27842.161    4.3891378    4.3891378    4.3891378    27842.161    58759.151     40955.33   -16187.998    5306.0454    13500.189    20186.633    84.554682 
   76900    1482.8602   -106.38527     1.341723   -105.04354    16916.648    4.3899631    4.3899631    4.3899631    16916.648    20562.877    28624.548    1562.5184   -6883.9776    20714.489   -13381.751    84.602386 
   77000    1091.0432   -106.05281   0.98719886   -105.06561     18450.58    4.3948454    4.3948454    4.3948454     18450.58    14554.273    21099.634    19697.834   -27055.597    -2909.211     12202.02    84.884969 
   77100    1989.4379    -106.8402    1.8000852   -105.04011   -6430.9961    4.4126473    4.4126473    4.4126473   -6430.9961    14109.227    2065.9085   -35468.124    2206.2859    14002.403    3040.0208    85.920669 
   77200    1333.5317   -106.24371    1.2066075    -105.0371   -19524.085    4.4050944    4.4050944    4.4050944   -19524.085   -32541.988   -39119.312    13089.043   -48377.629    10537.319   -1026.2021    85.480224 
   77300    1698.7255    -106.5592    1.5370425   -105.02216    2140.9726    4.3948653    4.3948653    4.3948653    2140.9726   -819.03027    40508.813   -33266.865    4253.2341   -6202.5187    11077.074    84.886127 
   77400    1681.4314   -106.55329    1.5213944    -105.0319   -1712.5821    4.3765009    4.3765009    4.3765009   -1712.5821   -31966.934    7642.5886    19186.599   -36712.657    6929.4855    -15442.71    83.826446 
   77500     1522.953   -106.43411    1.3779999   -105.05611    17017.736    4.3870654    4.3870654    4.3870654    17017.736   -21144.633    80008.454   -7810.6131   -13287.734   -9436.2394     591.2726    84.434962 
   77600    1860.9832   -106.72935    1.6838567   -105.04549    -20714.07     4.404572     4.404572     4.404572    -20714.07    -22579.85     489.5437   -40051.904    2478.3371   -11976.574    -16826.32    85.449819 
   77700      1035.43   -105.98606   0.93687885   -105.04919    20947.124    4.3887702    4.3887702    4.3887702    20947.124   -5681.2906    49179.479    19343.184   -45169.371    18322.227   -5588.4798    84.533436 
   77800    2063.7364   -106.91244    1.8673121   -105.04513    12447.003     4.387924     4.387924     4.387924    12447.003     29228.86    35273.644   -27161.496    21956.339   -26047.848   -5987.9918    84.484552 
   77900    1338.6698   -106.26455    1.2112566   -105.05329    8421.6829    4.3977066    4.3977066    4.3977066    8421.6829    3615.2828    4298.1767    17351.589   -60411.812    14732.573   -22998.736    85.050871 
   78000    1375.7372   -106.27932     1.244796   -105.03452    32.814421    4.4182881    4.4182881    4.4182881    32.814421   -25113.739    60208.697   -34996.515   -11617.464   -19141.277    12339.784    86.250593 
   78100    1681.0866   -106.53183    1.5210825   -105.01074   -22344.937    4.4115709    4.4115709    4.4115709   -22344.937   -34462.064   -3246.6091   -29326.138   -23088.804   -10472.259   -20166.281    85.857805 
   78200    1229.2721   -106.12153    1.1122713   -105.00926    24193.546    4.3818091    4.3818091    4.3818091    24193.546    769.87954    68308.769    3501.9906   -47070.091    7202.6966    9973.9446    84.131832 
   78300    1420.3595   -106.30659    1.2851711   -105.02142    45398.755     4.386501     4.386501     4.386501    45398.755    51712.147    80251.306    4232.8123   -14128.448   -16520.149   -3251.2928     84.40238 
   78400    1405.0454   -106.31308    1.2713146   -105.04177   -13331.259    4.4129477    4.4129477    4.4129477   -13331.259    20549.834   -41211.359    -19332.25    -48153.49    4552.4087    7431.3344     85.93822 
   78500    1161.6034   -106.08156    1.0510431   -105.03052    13182.558    4.4104853    4.4104853    4.4104853    13182.558    55322.945    43259.622   -59034.892   -14497.172   -3501.7419    7598.8001    85.794438 
   78600    1779.8749   -106.62513    1.6104682   -105.01467    15319.247     4.392703     4.392703     4.392703    15319.247    3377.5979    18578.515    24001.629   -24003.839    243.07455    7180.8715    84.760892 
   78700    1362.0486   -106.26568    1.2324102   -105.03327   -5895.1747    4.3916671    4.3916671    4.3916671   -5895.1747   -12800.558    28456.852   -33341.818   -7050.1744   -436.95242    6908.4625    84.700943 
   78800    2025.2821    -106.8585    1.8325178   -105.02598   -8990.4898    4.3954901    4.3954901    4.3954901   -8990.4898    -13357.44    -7868.294   -5745.7355    1479.4731    1862.3324    6183.7234    84.922331 
   78900    959.52936    -105.9108   0.86820233    -105.0426    256.85707     4.398635     4.398635     4.398635    256.85707   -50609.456   -42686.527    94066.555    2778.3317    9062.5541   -18047.985    85.104745 
   79000    2090.4715   -106.90192    1.8915026   -105.01041   -1599.2552    4.4070152    4.4070152    4.4070152   -1599.2552   -2936.9613    -23607.93    21747.125    679.43944    14409.172    3066.5684    85.592091 
   79100    908.27237   -105.84274   0.82182393   -105.02091   -1271.5727    4.4044338    4.4044338    4.4044338   -1271.5727   -42104.723   -65771.354    104061.36   -13594.678   -7348.5684   -22304.603    85.441773 
   79200    1959.8606   -106.77732    1.7733231   -105.00399    4203.8143    4.4022561    4.4022561    4.4022561    4203.8143   -19263.404   -1770.6379    33645.485    12325.434    13735.709   -13458.238    85.315104 
   79300    1485.9635   -106.36141     1.344531   -105.01688    3229.9767    4.4014244    4.4014244    4.4014244    3229.9767   -17001.214   -10824.991    37516.135   -14431.431    4355.1202   -16661.098    85.266754 
   79400     1490.676   -106.36608    1.3487949   -105.01729    1218.4935    4.4038356    4.4038356    4.4038356    1218.4935   -2127.9374   -17518.767    23302.184    13647.415    1622.1276   -6562.4789    85.406967 
   79500    1754.4823   -106.59763    1.5874925   -105.01014   -18938.589    4.4068736    4.4068736    4.4068736   -18938.589   -5714.2919   -65846.869    14745.395   -14990.067    11278.556    20070.091    85.583841 
   79600    1545.9318   -106.40466    1.3987916   -105.00586     -8433.28    4.4003969    4.4003969    4.4003969     -8433.28   -3287.4508   -48664.389        26652    22845.013   -11716.395   -6767.8116    85.207054 
   79700    1739.8133   -106.58537    1.5742196   -105.01115    20650.985    4.3969198    4.3969198    4.3969198    20650.985    43243.107    -1125.317    19835.165   -21978.037    17258.166    14259.209    85.005227 
   79800    1050.2532   -105.98588   0.95029116   -105.03559   -2155.1451    4.3983725    4.3983725    4.3983725   -2155.1451    4566.1747   -70487.704    59456.094     17339.25    361.70035    20629.638    85.089508 
   79900     1737.916   -106.59412    1.5725029   -105.02161    32296.891    4.4025032    4.4025032    4.4025032    32296.891    24802.966   -31177.963    103265.67   -10155.285      20842.6   -3180.1004    85.329469 
   80000    1298.4492   -106.20671    1.1748642   -105.03185    10095.109    4.3970135    4.3970135    4.3970135    10095.109   -8218.0163   -49719.093    88222.435    7156.1722    7238.6707    15118.233    85.010659 
   80100    1755.7874   -106.61138    1.5886733   -105.02271    1948.7672     4.402974     4.402974     4.402974    1948.7672   -563.95389   -26532.395     32942.65    2653.6043    11676.932   -8997.7341    85.356849 
   80200    1337.5692   -106.24004    1.2102607   -105.02978   -37434.187    4.4027712    4.4027712    4.4027712   -37434.187   -41983.897   -66881.155     -3437.51    3879.6394    6466.7334   -30343.592    85.345053 
   80300    2098.9781   -106.91061    1.8991995   -105.01141    33088.376    4.3836828    4.3836828    4.3836828    33088.376   -4173.0493    6794.6782    96643.498     4046.469     2906.184   -7928.9719    84.239805 
   80400    782.34322   -105.76353   0.70788059   -105.05565     868.5185    4.4016935    4.4016935    4.4016935     868.5185   -28013.075   -45978.067    76596.698    4613.7059    -8005.506   -43121.053    85.282398 
   80500    2172.2486   -106.98529    1.9654962    -105.0198   -7920.3087    4.4194088    4.4194088    4.4194088   -7920.3087   -55150.379   -37938.142    69327.596    11510.353    5947.5347   -5222.2177    86.316243 
   80600    1195.7752   -106.11153    1.0819625   -105.02957   -8441.7516    4.4095055    4.4095055    4.4095055   -8441.7516   -4506.9768     12379.85   -33198.128   -4048.6127   -21473.659   -15737.006    85.737273 
   80700    2032.2735   -106.85106    1.8388438   -105.01221    11576.238    4.4048954    4.4048954    4.4048954    11576.238     44.74078   -5855.8528    40539.827   -1867.2703    8330.4047    90.725349    85.468642 
   80800    1281.9236   -106.18495    1.1599114   -105.02504   -12154.924    4.3909494    4.3909494    4.3909494   -12154.924   -29085.549    8300.2219   -15679.446    -9856.271    2885.5366    25874.068    84.659421 
   80900     1961.216   -106.79091    1.7745494   -105.01637    43566.701     4.385609     4.385609     4.385609    43566.701    28511.568    12060.231    90128.303   -7405.6062    551.34842   -10038.152    84.350903 
   81000    963.61811   -105.90752   0.87190192   -105.03562   -21061.821    4.4167947    4.4167947    4.4167947   -21061.821   -1533.8411   -63741.105    2089.4841   -1665.1055    34701.593    22859.023    86.163163 
   81100    1903.9175   -106.70701    1.7227046    -104.9843   -13833.351    4.4183911    4.4183911    4.4183911   -13833.351   -14789.683   -35315.178    8604.8061   -9127.9937   -13536.521    -13467.93    86.256624 
   81200    1280.0106   -106.13912    1.1581805   -104.98094   -20116.912    4.4074421    4.4074421    4.4074421   -20116.912   -11911.441    -19398.24   -29041.055    -2208.607    50071.431     26482.51    85.616968 
   81300    1603.0837   -106.45074    1.4505038   -105.00024    1692.1289    4.3914601    4.3914601    4.3914601    1692.1289    42576.339   -29715.486   -7784.4657    -8282.968    13817.781   -12907.469    84.688965 
   81400    1338.7125   -106.22112    1.2112952   -105.00983    50825.857    4.3745656    4.3745656    4.3745656    50825.857    68902.159    16347.934    67227.477   -9554.0568    18987.382    31610.161    83.715295 
   81500    1391.7519   -106.30103    1.2592864   -105.04174   -16169.249    4.4144828    4.4144828    4.4144828   -16169.249   -2661.2462   -6283.8363   -39562.664    5577.2466    22034.117    1671.8829     86.02793 
   81600    2021.3083   -106.82539    1.8289222   -104.99647   -17857.294    4.4192663    4.4192663    4.4192663   -17857.294    10479.211   -40820.361   -23230.731   -4482.8366   -4071.2264    12728.795    86.307894 
   81700    959.93813   -105.86786   0.86857219   -104.99928    1363.1441    4.3887849    4.3887849    4.3887849    1363.1441   -23903.039   -18705.083    46697.554   -8007.9052    32733.135    29519.544    84.534285 
   81800    2353.5654   -107.11671    2.1295555   -104.98715     22938.12    4.3792656    4.3792656    4.3792656     22938.12    36457.606    7707.0101    24649.743   -3342.9818   -12050.699   -15605.842    83.985412 
   81900    961.01491   -105.90179   0.86954649   -105.03224   -11364.396    4.3905559    4.3905559    4.3905559   -11364.396    2109.4422   -2118.1552   -34084.475    8497.6769    28046.106    35323.453    84.636666 
   82000    2107.5482   -106.93168    1.9069539   -105.02473   -27318.654    4.4131147    4.4131147    4.4131147   -27318.654   -58868.616    1468.6178   -24555.965   -11152.274   -9975.0562   -9455.8412    85.947972 
   82100    1060.5797   -105.99366   0.95963478   -105.03402   -39165.157    4.4043438    4.4043438    4.4043438   -39165.157   -3947.7524   -21698.964   -91848.754    3469.0046   -29555.265    13307.708    85.436535 
   82200    2026.0399   -106.82602    1.8332035   -104.99282    42986.181    4.3605374    4.3605374    4.3605374    42986.181    61741.273    55056.875    12160.396    2538.2609    16209.809    11245.301    82.912506 
   82300    1093.1875    -106.0324   0.98913903   -105.04326   -13853.808    4.3808436    4.3808436    4.3808436   -13853.808    29941.149   -16882.236   -54620.336   -6673.1729   -31513.443   -11761.063    84.076231 
   82400     1387.238   -106.28607    1.2552021   -105.03086   -13411.161    4.4068039    4.4068039    4.4068039   -13411.161    27569.982   -22038.696    -45764.77    4831.0262    245.19173    21284.397    85.579779 
   82500      2029.28   -106.85284    1.8361352   -105.01671   -13089.101    4.4031206    4.4031206    4.4031206   -13089.101   -26115.719    5592.8079   -18744.391   -20155.053   -12825.514   -4189.6294    85.365373 
   82600    1329.3506     -106.221    1.2028243   -105.01818   -7036.3694    4.3984654    4.3984654    4.3984654   -7036.3694    44154.529   -27054.713   -38208.923   -347.34563   -5862.4209    14968.176    85.094904 
   82700    1676.0375   -106.51479    1.5165139   -104.99828    26241.341    4.3809118    4.3809118    4.3809118    26241.341    -67.48716     65458.63    13332.879   -3680.5785    13974.735    538.34141    84.080161 
   82800    1470.8952   -106.35558    1.3308969   -105.02469    12541.085    4.3926952    4.3926952    4.3926952    12541.085   -10276.116    35388.964    12510.407   -7415.9683    -14602.54     7727.924    84.760442 
   82900    1855.0629   -106.68917    1.6784999   -105.01067   -24502.943    4.4128826    4.4128826    4.4128826   -24502.943   -67041.308    30591.277   -37058.797   -1640.4107    26275.213    5429.3616    85.934416 
   83000    1362.6253   -106.25098     1.232932   -105.01805    3139.2331    4.3899756    4.3899756    4.3899756    3139.2331   -47562.742    24853.276    32127.166    3085.9626    9485.4205   -21762.152    84.603108 
   83100    1768.8504   -106.62635     1.600493   -105.02586    23034.986    4.3705806    4.3705806    4.3705806    23034.986    -1954.746    12335.631    58724.072   -1653.5114   -7657.5138   -4017.5058    83.486723 
   83200    1600.5093   -106.49623    1.4481744   -105.04805    11095.654    4.3758571    4.3758571    4.3758571    11095.654   -37224.035    54472.936    16038.062    3261.1174    48315.303    395.32903    83.789461 
   83300    1731.5689   -106.61534    1.5667599   -105.04858   -15200.267    4.4055579    4.4055579    4.4055579   -15200.267   -31216.533   -29850.591    15466.323    -8576.852   -31989.275   -20534.849    85.507211 
   83400     1557.767   -106.44271    1.4095003   -105.03321   -6445.8589    4.3985678    4.3985678    4.3985678   -6445.8589    -42915.91    5957.8063    17620.527   -3648.5354    45418.934    15113.929    85.100845 
   83500    1515.3389   -106.39004    1.3711104   -105.01893    30373.796    4.3730354    4.3730354    4.3730354    30373.796    7133.1223    56127.315    27860.952    4357.4235   -12117.546   -10989.204    83.627476 
   83600    1533.6453   -106.43243    1.3876745   -105.04476   -18870.915    4.3775527    4.3775527    4.3775527   -18870.915   -42669.288   -4725.9624   -9217.4936    -19344.08    12859.909   -15437.048    83.886902 
   83700    1513.5096   -106.42195    1.3694553   -105.05249   -4973.9193    4.3913917    4.3913917    4.3913917   -4973.9193   -49566.277    23966.325    10678.194    3770.4815    47994.508    3339.9539    84.685008 
   83800    1917.5857   -106.77191    1.7350718   -105.03684   -17349.536    4.3992193    4.3992193    4.3992193   -17349.536   -15761.472   -1926.5638   -34360.571   -1603.9433   -27156.415    -32192.07    85.138665 
   83900    1036.7963   -105.97795   0.93811508   -105.03984   -1714.6282    4.3914401    4.3914401    4.3914401   -1714.6282   -49185.159    26887.791    17153.484   -825.91963    62462.479    6607.3336    84.687807 
   84000    2081.5366   -106.90673    1.8834181   -105.02331    18500.319    4.3796042    4.3796042    4.3796042    18500.319    28082.429   -22644.377    50062.905    15584.719   -26783.531    -17977.53    84.004894 
   84100    1128.6265   -106.06522    1.0212049   -105.04401    10110.736    4.3869698    4.3869698    4.3869698    10110.736   -3661.8174   -21968.017    55962.043    -13497.21    26244.526   -8985.1535    84.429447 
   84200    1466.8572   -106.37289    1.3272432   -105.04565   -20973.032    4.4005452    4.4005452    4.4005452   -20973.032   -34283.148   -36451.253    7815.3051    24928.947    13435.966   -4460.1994    85.215672 
   84300    1871.2057   -106.72385    1.6931062   -105.03074    253.64959    4.3915509    4.3915509    4.3915509    253.64959    46137.024   -47755.166    2379.0911   -3564.9564   -7669.1745   -30471.577    84.694219 
   84400    1154.2848   -106.08674    1.0444212   -105.04232   -7651.8199    4.3732944    4.3732944    4.3732944   -7651.8199     -10602.3    5927.7274   -18280.887    741.30226    51534.245   -1573.3038    83.642333 
   84500    2012.9669   -106.86837    1.8213748     -105.047    9077.0875    4.3799763    4.3799763    4.3799763    9077.0875     31254.68   -49922.992    45899.575    11676.189    -10684.72   -6243.9859    84.026311 
   84600      1624.33   -106.52168    1.4697279   -105.05196   -6347.1654    4.3956215    4.3956215    4.3956215   -6347.1654    385.88251   -34735.648    15308.269    -6395.264    35589.078   -20344.548    84.929948 
   84700    1113.5354   -106.05824    1.0075502   -105.05069    15533.782     4.388969     4.388969     4.388969    15533.782   -7449.5303   -37319.295     91370.17     24431.22    10701.463    10920.103    84.544926 
   84800    1829.1884   -106.68519    1.6550881    -105.0301     22552.26    4.3828666    4.3828666    4.3828666     22552.26    4716.5006    20146.104    42794.173   -7274.8057   -10809.059    3473.4896    84.192763 
   84900    1380.0809   -106.28128    1.2487262   -105.03256   -2160.5718    4.3882959    4.3882959    4.3882959   -2160.5718    -16723.18   -17755.721    27997.186    21676.037    24591.147     3148.436    84.506033 
   85000    1467.2315   -106.34925    1.3275819   -105.02167    19836.865    4.3869439    4.3869439    4.3869439    19836.865    94795.203   -28805.294   -6479.3133   -2594.8797   -22682.138    10119.072     84.42795 
   85100    1824.9344   -106.67902     1.651239   -105.02778   -19910.756     4.384573     4.384573     4.384573   -19910.756   -26780.093    -9133.891   -23818.284    14967.572   -12898.268   -10724.154    84.291137 
   85200    1597.4401   -106.47681    1.4453974   -105.03141    17577.782    4.3794915    4.3794915    4.3794915    17577.782    89886.765   -24940.964   -12212.456    14337.066    5175.1593    25029.729    83.998409 
   85300    1359.4239   -106.27735    1.2300353   -105.04731   -8102.7925    4.3919169    4.3919169    4.3919169   -8102.7925    -23775.39    6789.8142   -7322.8016   -6629.5982   -57644.384   -10006.858    84.715398 
   85400    1906.7895   -106.75591    1.7253032   -105.03061    5147.9963    4.3912188    4.3912188    4.3912188    5147.9963   -1591.2361    3458.1866    13577.039    14230.456    20309.846   -1884.7228    84.675007 
   85500    1339.5889    -106.2457    1.2120882   -105.03361    2997.4177    4.3787571    4.3787571    4.3787571    2997.4177   -24072.233    48564.029   -15499.543   -743.18404   -58511.928    14900.632     83.95616 
   85600    2085.7431   -106.91184    1.8872242   -105.02461   -5293.3883    4.3873994    4.3873994    4.3873994   -5293.3883   -31981.383   -14143.291    30244.509     10854.37    14208.489   -16261.772     84.45425 
   85700    1422.6117   -106.32415     1.287209   -105.03694   -4880.1335    4.3800922    4.3800922    4.3800922   -4880.1335   -38763.045    18038.202    6084.4433    1257.5751   -37877.106    15713.818     84.03298 
   85800    1787.1977   -106.65976    1.6170941   -105.04266    10174.301    4.3851428    4.3851428    4.3851428    10174.301    -22470.31    18201.081    34792.132    -2888.432   -16563.309   -1046.3759    84.324005 
   85900     1464.901    -106.3582    1.3254732   -105.03272   -9185.0401    4.3956911    4.3956911    4.3956911   -9185.0401   -59985.684    37582.417   -5151.8535    23765.318   -2115.6965   -5201.2208    84.933983 
   86000    1262.3196   -106.15696    1.1421733   -105.01479    17978.596    4.3893638    4.3893638    4.3893638    17978.596    -34997.57    52237.005    36696.352   -7224.0392   -28908.431    8379.0622     84.56774 
   86100    1954.0233    -106.7786    1.7680414   -105.01055    11568.258    4.3820836    4.3820836    4.3820836    11568.258   -29484.071    35347.016    28841.829    31874.153   -152.37248   -7907.7716    84.147644 
   86200      1151.22   -106.06674     1.041648    -105.0251    6521.6665    4.3763319    4.3763319    4.3763319    6521.6665   -41641.928    34043.157    27163.771    4131.3939   -52282.307    -2263.047    83.816738 
   86300    1853.6398   -106.69794    1.6772123   -105.02073    9799.3792    4.3825932    4.3825932    4.3825932    9799.3792   -10697.496    13757.761    26337.873    8556.3282    25557.871    11473.658    84.177009 
   86400    1277.5281   -106.19048    1.1559342   -105.03455   -22690.035    4.3916573    4.3916573    4.3916573   -22690.035   -77298.763    16938.285   -7709.6264    26393.942   -72409.379   -7496.1926    84.700372 
   86500    2407.7949    -107.1901    2.1786234   -105.01148     20008.55    4.3849823    4.3849823    4.3849823     20008.55   -1767.9584    -877.7184    62671.326   -12132.327    29762.526    36.715265    84.314748 
   86600    701.32521   -105.68026   0.63457378   -105.04568   -23969.324    4.3773511    4.3773511    4.3773511   -23969.324   -82420.703    56565.002    -46052.27    28547.704   -63861.086    15502.319    83.875313 
   86700     2031.466   -106.87424    1.8381131   -105.03613    12500.222    4.3716039    4.3716039    4.3716039    12500.222   -6443.4587    21371.457    22572.667    -89.49915    9325.8274   -22091.531    83.545374 
   86800    1527.3227    -106.4378    1.3819537   -105.05585   -20331.032    4.3770798    4.3770798    4.3770798   -20331.032   -44911.141    5905.2502   -21987.205    8257.1567   -42968.622    21916.754    83.859715 
   86900    1229.1018   -106.17512    1.1121172     -105.063   -13587.107    4.3803958    4.3803958    4.3803958   -13587.107    -57474.22    18997.527   -2284.6268        24864   -28677.187   -12625.989    84.050453 
   87000    1894.2247   -106.75386    1.7139343   -105.03993   -1291.4675    4.3821011    4.3821011    4.3821011   -1291.4675    16962.823    883.59859   -21720.824     3455.309   -6821.1435   -9128.8885    84.148657 
   87100     1269.868    -106.1911    1.1490033   -105.04209   -16388.338    4.3830326    4.3830326    4.3830326   -16388.338   -39337.319    27529.411   -37357.105    12233.834   -49159.407    10531.431    84.202326 
   87200    1766.7667   -106.62354    1.5986076   -105.02493    28552.414    4.3702882    4.3702882    4.3702882    28552.414    24282.307     47564.05    13810.884    13882.919    16136.255   -32357.947    83.469967 
   87300    1682.6387   -106.56373    1.5224869   -105.04124   -7019.4734    4.3723027    4.3723027    4.3723027   -7019.4734   -8941.5764    27671.631   -39788.475   -566.09041   -56455.861    2014.5996    83.585448 
   87400    1935.7772   -106.79358    1.7515319   -105.04205   -2189.0425    4.3770259    4.3770259    4.3770259   -2189.0425   -9645.4326    9609.0057   -6530.7007    38368.011    12233.571    2289.4402    83.856621 
   87500    1161.4631   -106.10584    1.0509162   -105.05493   -7216.0502     4.377625     4.377625     4.377625   -7216.0502   -10901.775   -3491.5821   -7254.7937    1405.8875    -40572.75   -39453.608    83.891059 
   87600    2079.5741   -106.92336    1.8816423   -105.04172    1924.6839    4.3806476    4.3806476    4.3806476    1924.6839   -11588.783    3410.6818    13952.153     19175.76    -5455.823    20155.298     84.06495 
   87700    1177.6263   -106.11251     1.065541   -105.04697    932.47454    4.3806222    4.3806222    4.3806222    932.47454   -10481.886    5681.6462    7597.6634    19803.283   -19030.006   -26292.687    84.063488 
   87800    1830.3175   -106.69576    1.6561097   -105.03965    4639.6814    4.3786375    4.3786375    4.3786375    4639.6814   -18584.497    32526.915   -23.373521    4115.3725   -41217.676    -334.2166    83.949283 
   87900    1898.3079   -106.74965    1.7176289   -105.03202   -1544.4833    4.3768611    4.3768611    4.3768611   -1544.4833    9202.0974   -20951.102    7115.5544    6810.6467    17374.442   -10692.861    83.847147 
   88000    845.38715   -105.82129   0.76492406   -105.05637    4461.6136    4.3670166    4.3670166    4.3670166    4461.6136   -18195.962    59262.591   -27681.788    8670.1481   -60161.263   -26843.405     83.28265 
   88100    2443.9074   -107.25145    2.2112988   -105.04015    15640.358    4.3753729    4.3753729    4.3753729    15640.358    8933.6168    27069.662    10917.795   -14162.937     18950.16    17089.263    83.761649 
   88200    1289.6449   -106.21881    1.1668978   -105.05191   -22854.467    4.3881268    4.3881268    4.3881268   -22854.467   -8055.3631   -24070.527    -36437.51    9158.4286   -39796.977   -32033.314    84.496265 
   88300    1718.4222   -106.58212    1.5548645   -105.02726    32.525501    4.3837588    4.3837588    4.3837588    32.525501    6211.4691   -11737.491    5623.5988    -12636.29   -1436.2814    6269.1902     84.24419 
   88400    1688.1151   -106.55352     1.527442   -105.02608    4995.6342    4.3774298    4.3774298    4.3774298    4995.6342    10926.743    21902.947   -17842.787    -9829.885   -19937.888   -7839.5064    83.879835 
   88500     1509.482   -106.40585     1.365811   -105.04004   -5159.7609    4.3724216    4.3724216    4.3724216   -5159.7609    17370.023   -9556.9095   -23292.396    1034.4635   -26259.109   -23789.199    83.592267 
   88600    2334.7898   -107.13706    2.1125669   -105.02449   -1280.4219    4.3736009    4.3736009    4.3736009   -1280.4219   -11909.606   -23152.044    31220.385   -29220.787    5787.7923    10101.022    83.659922 
   88700    1014.0548   -105.96355    0.9175381   -105.04601   -24295.181    4.3881134    4.3881134    4.3881134   -24295.181   -2866.1611   -8762.4945   -61256.888    10489.721   -53246.687   -24281.242    84.495489 
   88800     1963.544   -106.80189    1.7766558   -105.02523   -27600.952    4.3925301    4.3925301    4.3925301   -27600.952   -36987.872   -54209.231    8394.2482   -31327.614    13397.512    861.18618    84.750883 
   88900    1551.0405   -106.42873     1.403414   -105.02531    1518.1564    4.3736299    4.3736299    4.3736299    1518.1564    9047.0447    11464.984   -15957.559   -3760.2758   -37215.609   -17670.349    83.661586 
   89000    1600.3617    -106.4773    1.4480409   -105.02926    15992.723    4.3644864    4.3644864    4.3644864    15992.723    46689.631   -11114.713    12403.252    9940.5788   -12562.911   -3148.9423    83.137975 
   89100    1543.4889    -106.4391    1.3965812   -105.04252    13023.874    4.3673163    4.3673163    4.3673163    13023.874     27081.63   -3535.1169    15525.109   -8609.8964    -14767.09    9219.1968    83.299795 
   89200    1462.1372   -106.37447    1.3229725    -105.0515   -428.85693    4.3833797    4.3833797    4.3833797   -428.85693    13477.768   -3219.4436   -11544.895    3898.1078   -51472.925   -10200.023    84.222333 
   89300    1901.0711   -106.76097     1.720129   -105.04084   -14525.875    4.3848157    4.3848157    4.3848157   -14525.875   -32430.273    -44014.95    32867.598    19278.483    13896.911    14438.443    84.305138 
   89400    1492.6617   -106.38676    1.3505917   -105.03617    23835.975    4.3664906    4.3664906    4.3664906    23835.975    38880.143    34581.148   -1953.3665   -23155.361   -46461.665     2988.131    83.252556 
   89500    1855.1342   -106.71123    1.6785644   -105.03267   -11837.948    4.3686903    4.3686903    4.3686903   -11837.948   -23185.378    -40052.25    27723.784    49976.498    8702.9606    7415.9762    83.378439 
   89600    1082.0795   -106.03282   0.97908823   -105.05374    4999.7415    4.3666536    4.3666536    4.3666536    4999.7415   -10829.582   -21612.458    47441.265   -17512.422     2970.048    7758.4258     83.26188 
   89700    2261.6835   -107.08635    2.0464188   -105.03993    11704.459    4.3736921    4.3736921    4.3736921    11704.459    17765.433   -5201.0375     22548.98    25233.495   -16866.866     6286.639    83.665156 
   89800    1211.7095   -106.14113    1.0963802   -105.04475   -38143.583    4.3855682    4.3855682    4.3855682   -38143.583   -62226.548    -59503.84    7299.6403    22283.979     9416.316    5027.1549    84.348549 
   89900    1772.4678   -106.63401    1.6037661   -105.03024    5265.5723    4.3662169    4.3662169    4.3662169    5265.5723    10174.485    -24642.96    30265.192   -38113.471    1119.1775    5471.4395    83.236902 
   90000     1714.109   -106.58679    1.5509618   -105.03582    9092.8466    4.3617479    4.3617479    4.3617479    9092.8466   -707.24978   -29030.315    57016.104    56326.657    4513.7492   -4468.1126    82.981576 
   90100     1482.796   -106.38912     1.341665   -105.04745   -9619.2609    4.3710216    4.3710216    4.3710216   -9619.2609   -24057.981   -21871.676    17071.875   -64727.469    12402.686    10817.634    83.511993 
   90200    1865.6375   -106.72355     1.688068   -105.03548     9274.893    4.3740221    4.3740221    4.3740221     9274.893    59272.673   -20338.515    -11109.48     27197.62    451.53974   -12930.927    83.684095 
   90300    887.32914   -105.85394   0.80287405   -105.05106    -12261.17    4.3791278    4.3791278    4.3791278    -12261.17   -33304.744   -39072.068    35593.303   -45432.572    11809.872    1600.2551    83.977487 
   90400    2104.2028   -106.93124    1.9039269   -105.02731    8173.7921     4.373955     4.373955     4.373955    8173.7921    57738.537   -16572.596   -16644.565   -13164.123    12471.864   -10743.083    83.680241 
   90500    1402.3388   -106.30532    1.2688656   -105.03645   -6657.1165    4.3679872    4.3679872    4.3679872   -6657.1165   -3643.1103   -28707.929    12379.689   -21806.856    531.17183   -15450.898    83.338193 
   90600    1403.3144   -106.31552    1.2697483   -105.04577   -12572.802    4.3698321    4.3698321    4.3698321   -12572.802   -23771.327   -33351.319    19404.241   -34089.679    7146.1993    6856.7986    83.443836 
   90700     2037.721   -106.88449    1.8437728   -105.04071   -4963.8542    4.3719613    4.3719613    4.3719613   -4963.8542    44965.295   -13889.717    -45967.14    6277.9226    -5911.237    -22606.98    83.565869 
   90800    1140.4659   -106.09183    1.0319175   -105.05991   -25448.974    4.3776522    4.3776522    4.3776522   -25448.974   -51217.771   -59880.359    34751.209   -59276.895    5259.8717   -925.60864    83.892618 
   90900    2327.0547    -107.1442     2.105568   -105.03863    9331.5608    4.3729138    4.3729138    4.3729138    9331.5608    42550.523   -14202.543   -353.29675    31941.109   -2920.2632   -7258.7577    83.620498 
   91000    1137.6022   -106.09087    1.0293264   -105.06154   -11608.064    4.3747511    4.3747511    4.3747511   -11608.064     6210.242   -53715.917    12681.483   -76743.209   -5163.4795   -5172.0469    83.725941 
   91100    1887.0324   -106.75838    1.7074266   -105.05096    11569.645    4.3760573    4.3760573    4.3760573    11569.645   -5620.8311    47639.389   -7309.6235   -595.01143    1902.6578    3302.8838    83.800962 
   91200    1284.1076   -106.22099    1.1618875    -105.0591    14377.642    4.3733749    4.3733749    4.3733749    14377.642    36603.062    17355.184   -10825.322   -30751.938   -3827.0664   -6172.6626    83.646953 
   91300    1460.9272   -106.38501    1.3218776   -105.06313   -4420.1088    4.3782952    4.3782952    4.3782952   -4420.1088   -62.543944    -17483.77    4285.9877   -51635.541   -1479.1936    5081.9593    83.929591 
   91400    2362.4967   -107.17684    2.1376367   -105.03921    13734.728    4.3780784    4.3780784    4.3780784    13734.728    38809.656    19048.736   -16654.208   -604.89158   -6072.1624    246.67674    83.917126 
   91500    905.84704   -105.89082   0.81962944   -105.07119   -33429.859    4.3694915    4.3694915    4.3694915   -33429.859   -15577.274   -62643.285   -22069.019    -68362.13    734.99367   -10880.198    83.424324 
   91600    1920.6387   -106.79522    1.7378343   -105.05738      25655.4     4.360279     4.360279     4.360279      25655.4    72738.357     36752.42   -32524.578    25943.934    2474.3903    16933.872    82.897766 
   91700    1436.8579   -106.37288    1.3000992   -105.07279   -4455.1228    4.3766589    4.3766589    4.3766589   -4455.1228   -12080.721   -25898.795    24614.147   -43410.135    1548.4859    -5789.976    83.835525 
   91800    1556.5367   -106.45917    1.4083871   -105.05078   -18513.866    4.3883889    4.3883889    4.3883889   -18513.866     15376.97   -19856.829    -51061.74   -8332.0703   -717.98446   -10514.801    84.511408 
   91900    1657.8783   -106.54039    1.5000832   -105.04031    4839.0053     4.373527     4.373527     4.373527    4839.0053    16970.397    5345.4971   -7798.8777   -434.45484    376.09854    13222.165    83.655679 
   92000    1441.1172   -106.35251    1.3039531   -105.04856   -2709.6352    4.3612529    4.3612529    4.3612529   -2709.6352    18821.041   -44954.478    18004.531   -36592.652    4495.2477    -13079.27    82.953329 
   92100    1970.0914   -106.83233    1.7825801   -105.04975    14997.176    4.3653793    4.3653793    4.3653793    14997.176    73864.694    6188.8375   -35062.003    13252.544   -8858.6588   -2645.0676    83.189009 
   92200    1149.7088   -106.10113    1.0402806   -105.06085   -14070.431     4.383885     4.383885     4.383885   -14070.431   -3098.6092   -52934.298    13821.613   -26589.614     1315.808    2241.3625    84.251466 
   92300    1578.2592   -106.48096    1.4280421   -105.05292   -14082.137    4.3848824    4.3848824    4.3848824   -14082.137    34660.048   -32766.128   -44140.331    5441.6161     7945.396   -19801.518    84.308985 
   92400    2014.9072   -106.85958    1.8231304   -105.03645    23383.633    4.3693454    4.3693454    4.3693454    23383.633    50319.213   -1396.1169    21227.804   -17540.707   -7313.6394    9919.5945    83.415956 
   92500    1014.4533   -105.97576   0.91789865   -105.05786   -34533.686    4.3693414    4.3693414    4.3693414   -34533.686   -37817.444   -77866.869    12083.257    -13763.38    7905.1476   -18972.789    83.415729 
   92600    2181.9562   -107.01442    1.9742798   -105.04014    25690.273    4.3703848    4.3703848    4.3703848    25690.273    64937.033     25603.73   -13469.944   -1120.7831     169.4129     3650.258    83.475498 
   92700    935.08386   -105.91111   0.84608353   -105.06503   -30234.467    4.3834835    4.3834835    4.3834835   -30234.467    -31950.99   -71071.278    12318.866   -28601.511   -2001.8874   -1282.9023    84.228319 
   92800    1757.4558   -106.63382     1.590183   -105.04364   -764.06146    4.3754143    4.3754143    4.3754143   -764.06146    18831.505   -29485.993    8362.3042    24535.544    2705.8004   -9435.8455    83.764027 
   92900    1701.7508   -106.57873    1.5397799   -105.03895    12372.133    4.3602978    4.3602978    4.3602978    12372.133    39315.594    -12194.14    9994.9462   -26535.196   -1356.5339    36159.022    82.898841 
   93000    1409.0396   -106.32829    1.2749286   -105.05336   -20890.494    4.3732253    4.3732253    4.3732253   -20890.494   -31671.147   -57802.231    26801.898    16515.264    3041.6114   -20508.657    83.638368 
   93100    1915.3855   -106.77345     1.733081   -105.04037    -3866.843    4.3754993    4.3754993    4.3754993    -3866.843    51689.101   -43874.478   -19415.152    5653.8725    -3145.674    45795.954     83.76891 
   93200    1526.3965   -106.42913    1.3811157   -105.04801   -9009.2911    4.3787795    4.3787795    4.3787795   -9009.2911     -17287.2   -54189.931    44449.258   -9567.0249    6579.3505   -2037.1369    83.957451 
   93300    1622.2969   -106.51011    1.4678883   -105.04222   -20721.721    4.3778611    4.3778611    4.3778611   -20721.721    -5619.027   -51043.316   -5502.8193    15622.441    5157.5811    27749.875    83.904632 
   93400    1669.0562   -106.54878    1.5101971   -105.03858    10548.605    4.3620109    4.3620109    4.3620109    10548.605    64536.455   -29295.965   -3594.6757   -13835.776   -762.87776    40965.134    82.996587 
   93500    1585.9717   -106.47722    1.4350205    -105.0422    4289.4647    4.3718419    4.3718419    4.3718419    4289.4647   -235.15245   -14685.104    27788.651    13726.915   -11249.763    -10343.57    83.559023 
   93600    901.73931   -105.87412   0.81591268   -105.05821   -24014.957    4.3838133    4.3838133    4.3838133   -24014.957    28210.882   -52686.597   -47569.155    3176.8505    6101.7341    65450.575    84.247328 
   93700     2342.776   -107.14296     2.119793   -105.02316    14270.403    4.3807738    4.3807738    4.3807738    14270.403    10552.898    -8117.084    40375.395   -12106.345   -6702.6055   -25416.823    84.072217 
   93800    829.77647   -105.79518   0.75079919   -105.04439   -17450.819    4.3814253    4.3814253    4.3814253   -17450.819    38008.569   -75225.664   -15135.362    15811.654   -13167.451    66807.323    84.109729 
   93900     2113.992   -106.93272    1.9127844   -105.01994    10694.131    4.3771191    4.3771191    4.3771191    10694.131    19929.326    13490.739   -1337.6732   -8795.1372    14253.433   -32452.205    83.861978 
   94000    1415.8433    -106.3169    1.2810848   -105.03582    3103.9771    4.3661507    4.3661507    4.3661507    3103.9771    34927.553    -7069.979   -18545.643    6297.6159   -21977.302    55912.952    83.233117 
   94100    1375.2894   -106.29328    1.2443907   -105.04889   -3117.2046    4.3655697    4.3655697    4.3655697   -3117.2046    39879.375   -29326.896   -19904.092    7001.6658    13473.558   -3565.2872    83.199894 
   94200    1893.6214   -106.76245    1.7133884   -105.04906    11816.289    4.3746457    4.3746457    4.3746457    11816.289    42777.433    761.44181   -8090.0065   -9399.3321    12601.774    14690.224     83.71989 
   94300    1489.7543   -106.39125     1.347961   -105.04329   -2158.4153    4.3855559    4.3855559    4.3855559   -2158.4153    9491.1213   -24640.463    8674.0954    16229.344     -4902.59    36254.853    84.347836 
   94400     1187.342   -106.11252     1.074332   -105.03819   -11963.354    4.3810383    4.3810383    4.3810383   -11963.354   -23878.405   -32771.844    20760.186   -3197.9009    19443.681   -19278.053    84.087445 
   94500    1877.0201   -106.73167    1.6983672    -105.0333     26192.67    4.3622737    4.3622737    4.3622737     26192.67    49622.293   -10451.377    39407.095   -9708.3502     1511.589    36430.396     83.01159 
   94600    1538.8424   -106.43645     1.392377   -105.04407    19433.916    4.3632647    4.3632647    4.3632647    19433.916    25512.393   -13180.561    45969.916    35023.013    16986.467    -8189.736     83.06818 
   94700    1219.6051   -106.15598    1.1035243   -105.05245   -10613.973    4.3822195    4.3822195    4.3822195   -10613.973   -14350.509   -49714.228    32222.817    -42769.28    24947.248    4053.8493    84.155476 
   94800    1871.6612   -106.73124    1.6935184   -105.03772    3745.0098    4.3804395    4.3804395    4.3804395    3745.0098     10167.81   -24781.599    25848.819    37099.185   -10275.472    15381.386    84.052968 
   94900    1287.6486   -106.21257    1.1650915   -105.04748    12819.281    4.3661845    4.3661845    4.3661845    12819.281    3390.7069   -8063.4588    43130.596   -15654.957    31051.323   -7631.7035    83.235052 
   95000    1456.7211   -106.37022    1.3180719   -105.05214    2183.2253    4.3664734    4.3664734    4.3664734    2183.2253    7544.7292   -10458.939    9463.8858   -15886.045    5877.6904   -8880.7694    83.251573 
   95100    1673.0252    -106.5615    1.5137883   -105.04772    28172.619    4.3706104    4.3706104    4.3706104    28172.619    33049.039   -292.90742    51761.724    15456.282   -5834.8966    7893.0359    83.488427 
   95200    1340.6765   -106.27113    1.2130723   -105.05806   -24424.451    4.3848627    4.3848627    4.3848627   -24424.451   -36741.448   -36294.046   -237.85971   -40552.389    36250.409   -16576.443    84.307846 
   95300    1717.9461   -106.60108    1.5544337   -105.04665    18097.037    4.3698628    4.3698628    4.3698628    18097.037    30092.966     18542.27    5655.8753    15403.794   -36284.141   -6351.5422    83.445591 
   95400    1679.6627    -106.5679    1.5197941    -105.0481    25431.924     4.352701     4.352701     4.352701    25431.924    21079.127    20912.457    34304.188   -31496.822    17523.156    7229.9284    82.466298 
   95500     1279.067   -106.22798    1.1573267   -105.07065   -23093.909    4.3657982    4.3657982    4.3657982   -23093.909   -26572.593   -11069.764   -31639.371   -9682.9006    1131.0236   -39751.013    83.212961 
   95600    1971.7468   -106.83632     1.784078   -105.05224    19139.403      4.37148      4.37148      4.37148    19139.403     2754.686    24630.355    30033.167    5302.8151   -21256.041    18607.927    83.538272 
   95700     1232.835   -106.17773     1.115495   -105.06224   -36184.403    4.3853152    4.3853152    4.3853152   -36184.403   -7841.7289   -39083.409   -61628.072   -31006.289    25193.921   -12206.132    84.333948 
   95800     2062.792   -106.90921    1.8664576   -105.04275   -3060.2826    4.3739661    4.3739661    4.3739661   -3060.2826   -12311.083   -6598.6453     9728.881     17056.16    -9192.346   -24407.004    83.680882 
   95900    1519.6246   -106.41918    1.3749883   -105.04419    8528.0964    4.3527084    4.3527084    4.3527084    8528.0964    5882.7954   -7549.5994    27251.093   -3574.9336   -2544.9417     26144.25    82.466718 
   96000    1172.8349   -106.12383    1.0612057   -105.06262   -4450.8071    4.3630762    4.3630762    4.3630762   -4450.8071    3368.9377    980.34886   -17701.708   -11921.728    17714.304   -16070.407    83.057411 
   96100    2057.7448   -106.91635    1.8618907   -105.05446   -11576.646    4.3824793    4.3824793    4.3824793   -11576.646   -31212.758   -49197.911     45680.73    41842.422   -17035.686    6078.9618    84.170446 
   96200    1404.6534   -106.30871    1.2709599   -105.03775   -20912.038     4.392905     4.392905     4.392905   -20912.038    271.26976   -29807.014   -33200.368   -30833.515    15901.021    5349.5715    84.772584 
   96300    970.75128   -105.91729   0.87835616   -105.03894   -15948.052    4.3772398    4.3772398    4.3772398   -15948.052   -14101.455   -32784.378    -958.3243    56789.129    3200.2139   -16934.542    83.868912 
   96400    2561.3749   -107.34224    2.3175859   -105.02466    28062.203    4.3478131    4.3478131    4.3478131    28062.203    28514.008   -4245.0522    59917.653   -9585.1478   -12560.864    9536.2569    82.188791 
   96500    1066.6242   -106.03303     0.965104   -105.06792    7048.6536    4.3534628    4.3534628    4.3534628    7048.6536   -20715.477   -1602.2194    43463.657     14229.14     13978.07    5748.2078    82.509607 
   96600    1149.1757    -106.1216    1.0397984    -105.0818   -24084.522    4.3817896    4.3817896    4.3817896   -24084.522   -27348.611   -58360.521    13455.567    41881.597   -6619.3388   -11707.577    84.130709 
   96700    2334.1586   -107.15063    2.1119957   -105.03864   -14236.186    4.3966706    4.3966706    4.3966706   -14236.186   -8902.2873   -22852.379   -10953.892   -7410.7576    1024.3042    8677.4361    84.990777 
   96800    808.99976   -105.77559   0.73199999   -105.04359   -13697.752    4.3790285    4.3790285    4.3790285   -13697.752   -21910.849   -36696.335    17513.928    63477.567    11708.316   -4306.2551    83.971769 
   96900    1893.3036   -106.73208    1.7131009   -105.01898    20475.548     4.355713     4.355713     4.355713    20475.548    35064.619    2826.6375    23535.387   -20234.444   -13831.011    165.12873    82.637612 
   97000    1748.9535    -106.6253    1.5824898   -105.04281    8285.8345    4.3633716    4.3633716    4.3633716    8285.8345   -22049.257   -5040.4281    51947.189    51852.943    15794.787    8445.4591    83.074284 
   97100    1689.6473   -106.57885    1.5288284   -105.05002   -18770.132    4.3799394    4.3799394    4.3799394   -18770.132    6740.0159   -52861.907   -10188.504   -12612.218    5617.3767    -13656.32    84.024186 
   97200    1416.3745   -106.32556    1.2815654     -105.044   -12392.347    4.3835017    4.3835017    4.3835017   -12392.347    -31043.88   -18258.738    12125.576    16276.421   -4004.3087    12627.729    84.229368 
   97300    1656.3541    -106.5334     1.498704   -105.03469   -119.13549    4.3803147    4.3803147    4.3803147   -119.13549   -1754.5114   -8305.6608    9702.7657    19867.157    19203.319   -8996.1433    84.045783 
   97400     1746.586   -106.61747    1.5803477   -105.03712   -7476.9719    4.3704175    4.3704175    4.3704175   -7476.9719    43785.211   -53026.468   -13189.659   -24082.271   -4597.5014    11027.219    83.477372 
   97500     1996.715   -106.84079    1.8066697   -105.03412    9240.5645    4.3630524    4.3630524    4.3630524    9240.5645   -10437.899    1688.2522    36471.341    22154.283    12591.655    5625.0851    83.056051 
   97600    1305.5997   -106.23476    1.1813341   -105.05342   -16990.507    4.3752568    4.3752568    4.3752568   -16990.507    2650.9954   -46040.587   -7581.9278   -21839.791    2583.1631   -4996.8543    83.754979 
   97700    1455.3025   -106.37648    1.3167883   -105.05969   -23784.017    4.3813611    4.3813611    4.3813611   -23784.017    8159.0264   -60256.855   -19254.221   -9252.7774    2933.3316    31029.136     84.10603 
   97800    2564.9606   -107.35647    2.3208303   -105.03564    11542.899    4.3754432    4.3754432    4.3754432    11542.899    15805.022   -16758.177    35581.852   -10348.289    5887.4346   -17801.165    83.765688 
   97900    589.72797   -105.59164   0.53359826   -105.05804    -26895.48    4.3831735    4.3831735    4.3831735    -26895.48    54801.919   -77772.865   -57715.494   -29462.435   -5794.4463    27230.187    84.210448 
   98000    2505.7918   -107.29035    2.2672931   -105.02306    11223.334    4.3791433    4.3791433    4.3791433    11223.334    7124.2589   -2702.3612    29248.106    2450.7514   -5916.1941   -2349.0685    83.978375 
   98100    1123.4034   -106.06154     1.016479   -105.04506    1906.3302    4.3752094    4.3752094    4.3752094    1906.3302    44141.352   -28338.228   -10084.133   -18156.454    5062.1822    16942.971     83.75226 
   98200     1581.772   -106.47174    1.4312206   -105.04052   -2555.5411    4.3776604    4.3776604    4.3776604   -2555.5411    34665.062   -4940.1583   -37391.527   -18372.702   -11816.306    1693.2878     83.89309 
   98300    1566.4236   -106.45982     1.417333   -105.04249    35206.951    4.3665531    4.3665531    4.3665531    35206.951     33345.01    20636.658    51639.184     23215.46    2378.5669    4629.2017    83.256135 
   98400     1392.725   -106.31447    1.2601668    -105.0543    4617.8646    4.3770321    4.3770321    4.3770321    4617.8646    29116.846   -18561.259    3298.0072   -25345.487   -3747.2227    13734.209    83.856978 
   98500     1812.065   -106.67514    1.6395945   -105.03555   -2501.0144    4.3884508    4.3884508    4.3884508   -2501.0144   -4500.7685     1510.173   -4512.4478    31179.917    5956.8581    -11492.37     84.51498 
   98600    1166.0109   -106.10216    1.0550312   -105.04713   -2979.5029    4.3792061    4.3792061    4.3792061   -2979.5029    15773.095   -38136.149    13424.545    18992.577    6278.8862    21719.655    83.981986 
   98700    2563.9061   -107.33803    2.3198761   -105.01816    8850.6278    4.3755584    4.3755584    4.3755584    8850.6278    1302.2621    3810.1458    21439.475    4174.5807    1733.9503   -1392.5458    83.772302 
   98800    883.56558   -105.84141   0.79946871   -105.04194   -29855.875    4.3814416    4.3814416    4.3814416   -29855.875   -23390.853   -37680.642    -28496.13    60614.058    1754.7179    18489.697    84.110667 
   98900    2168.3384   -106.99359    1.9619581   -105.03164    10980.223    4.3749121    4.3749121    4.3749121    10980.223   -1016.0977    14771.846    19184.921   -33130.748    11125.094    4750.6505    83.735186 
   99000    1519.0315   -106.41703    1.3744517   -105.04258    3950.3669    4.3730738    4.3730738    4.3730738    3950.3669   -13898.022   -20376.587    46125.709    59925.822    -2029.802    13560.526    83.629675 
   99100    1536.5712   -106.43798    1.3903219   -105.04766   -1268.8356    4.3804781    4.3804781    4.3804781   -1268.8356    44099.911    -24149.19   -23757.227   -7000.1871    7200.6755     20995.18    84.055189 
   99200    1619.7579   -106.50478     1.465591   -105.03919    20208.408     4.373985     4.373985     4.373985    20208.408    30911.834    5976.2475    23737.142    24576.923   -6094.2116   -8222.9229    83.681962 
   99300    1169.7089   -106.11154    1.0583772   -105.05316    9629.6224    4.3817745    4.3817745    4.3817745    9629.6224    26881.611   -32766.669    34773.925    25175.706    14571.267    33820.409    84.129844 
   99400    2072.2093   -106.88867    1.8749786   -105.01369    1252.4591    4.3926998    4.3926998    4.3926998    1252.4591   -20820.188   -19274.819    43852.385    6132.2489    8634.8614   -4431.2663    84.760709 
   99500    793.20567   -105.74292   0.71770916   -105.02521   -12395.622    4.3771991    4.3771991    4.3771991   -12395.622   -22096.218   -33300.573    18209.925    48142.293   -6660.6637    19006.548    83.866577 
   99600    2381.4323   -107.16233      2.15477   -105.00756    6332.3217    4.3739124    4.3739124    4.3739124    6332.3217    8767.7099   -13979.672    24208.927    26.993939    3276.7027    25313.691    83.677799 
   99700    1306.5689   -106.21291     1.182211    -105.0307   -15027.973    4.3751968    4.3751968    4.3751968   -15027.973   -49114.764   -75332.596    79363.441    79530.522    4678.5701   -4794.0123    83.751533 
   99800    1877.4885   -106.72254     1.698791   -105.02375    1523.7825     4.376271     4.376271     4.376271    1523.7825    29975.276   -21426.852    -3977.076   -18333.462   -22761.614    36140.355    83.813239 
   99900     1388.181   -106.28816    1.2560554   -105.03211   -34489.184    4.3968338    4.3968338    4.3968338   -34489.184   -62715.524   -71367.796    30615.768    78774.912    6033.4484   -14729.529    85.000238 
  100000    2519.6119   -107.28263    2.2797978   -105.00283   -11651.293    4.3919775    4.3919775    4.3919775   -11651.293    20899.371   -34932.626   -20920.624   -17316.006   -20981.223    25658.642    84.718904 
Loop time of 21.4338 on 1 procs for 100000 steps with 8 atoms

Pair  time (%) = 6.38568 (29.7926)
Kspce time (%) = 5.3342 (24.8869)
Neigh time (%) = 0.177775 (0.829414)
Comm  time (%) = 0.899635 (4.19728)
Outpt time (%) = 0.0243151 (0.113443)
Other time (%) = 8.61216 (40.1803)

Nlocal:    8 ave 8 max 8 min
Histogram: 1 0 0 0 0 0 0 0 0 0
Nghost:    1720 ave 1720 max 1720 min
Histogram: 1 0 0 0 0 0 0 0 0 0
Neighs:    2050 ave 2050 max 2050 min
Histogram: 1 0 0 0 0 0 0 0 0 0

Total # of neighbors = 2050
Ave neighs/atom = 256.25
Neighbor list builds = 2359
Dangerous builds = 0
unfix 20
unfix 21
print "seeds:9461073"
seeds:9461073
