LAMMPS (10 Feb 2015)
# ---- initialize simulations
clear
units metal
dimension 3
boundary p p p
atom_style charge
atom_modify map array
# ---- create atoms
read_data /Users/eugeneragasa/pyflamestk_git/pypospack/tests/tests_integration/workflow/WorkflowLammpsThermalExpansion/param_5861/MgO_NaCl_unit.npt.T1600/lammps.structure
  triclinic box = (0 0 0) to (4.2565 4.2565 4.2565) with tilt (0 0 0)
  1 by 1 by 1 MPI processor grid
  reading atoms ...
  8 atoms
# ---- define interatomic potential
include potential.mod
mass 1 24.305
mass 2 15.999

group Mg type 1
4 atoms in group Mg
group O type 2
4 atoms in group O

set group Mg charge 1.63577302612
  4 settings made for charge
set group O charge -1.63577302612
  4 settings made for charge

variable R_cut equal 10.0

pair_style buck/coul/long ${R_cut}
pair_style buck/coul/long 10
pair_coeff 1 1 0.0 0.5 0.0 ${R_cut}
pair_coeff 1 1 0.0 0.5 0.0 10
pair_coeff 1 2 1558.72850733 0.278190610155 0.0 ${R_cut}
pair_coeff 1 2 1558.72850733 0.278190610155 0.0 10
pair_coeff 2 2 26609.5495557 0.148782776904 9.00084075824 ${R_cut}
pair_coeff 2 2 26609.5495557 0.148782776904 9.00084075824 10

kspace_style pppm 1.0e-5

neighbor 1.0 bin
neigh_modify every 1 delay 0 check yes
# ---- define settings
compute eng all pe/atom
compute eatoms all reduce sum c_eng
# ---- run minimization
reset_timestep 0
fix 1 all box/relax iso 0.0 vmax 0.001
thermo 10
thermo_style custom step pe lx ly lz xy xz yz press pxx pyy pzz pxy pxz pyz c_eatoms
min_style cg
minimize 1e-25 1e-25 5000 10000
PPPM initialization ...
  G vector (1/distance) = 0.352653
  grid = 8 8 8
  stencil order = 5
  estimated absolute RMS force accuracy = 3.87471e-05
  estimated relative force accuracy = 2.69083e-06
  using double precision FFTs
  3d grid and FFT values/proc = 3375 512
Neighbor list info ...
  1 neighbor list requests
  update every 1 steps, delay 0 steps, check yes
  master list distance cutoff = 11
Memory usage per processor = 4.06549 Mbytes
Step PotEng Lx Ly Lz Xy Xz Yz Press Pxx Pyy Pzz Pxy Pxz Pyz eatoms 
       0   -109.00108       4.2565       4.2565       4.2565            0            0            0    61252.417    61252.417    61252.417    61252.417 -3.6848803e-11 -3.3369169e-11 3.6549969e-10   -109.00108 
      10    -109.0509     4.299065     4.299065     4.299065            0            0            0    8703.9294    8703.9294    8703.9294    8703.9294 1.5032756e-10 -1.0327816e-11 -1.1009458e-10    -109.0509 
      15   -109.05203    4.3066964    4.3066964    4.3066964            0            0            0 0.0034250328 0.0034250327  0.003425033 0.0034250328 -1.8553982e-10 4.3823803e-11 -1.4551403e-10   -109.05203 
Loop time of 0.00756788 on 1 procs for 15 steps with 8 atoms

Minimization stats:
  Stopping criterion = linesearch alpha is zero
  Energy initial, next-to-last, final = 
        -109.001077098     -109.052033723     -109.052033723
  Force two-norm initial, final = 8.84488 3.43431e-05
  Force max component initial, final = 8.84488 7.26821e-06
  Final line search alpha, max atom move = 0.5 3.63411e-06
  Iterations, force evaluations = 15 22

Pair  time (%) = 0.00208592 (27.5629)
Kspce time (%) = 0.00120902 (15.9757)
Neigh time (%) = 0 (0)
Comm  time (%) = 0.000234127 (3.09369)
Outpt time (%) = 1.5974e-05 (0.211077)
Other time (%) = 0.00402284 (53.1567)

Nlocal:    8 ave 8 max 8 min
Histogram: 1 0 0 0 0 0 0 0 0 0
Nghost:    2189 ave 2189 max 2189 min
Histogram: 1 0 0 0 0 0 0 0 0 0
Neighs:    2344 ave 2344 max 2344 min
Histogram: 1 0 0 0 0 0 0 0 0 0

Total # of neighbors = 2344
Ave neighs/atom = 293
Neighbor list builds = 0
Dangerous builds = 0
unfix 1
# ---- define output variables ----
variable natoms equal "count(all)"
variable tot_energy equal "c_eatoms"
variable length_x equal "lx"
variable length_y equal "ly"
variable length_z equal "lz"
variable tilt_xy equal "xy"
variable tilt_xz equal "xz"
variable tilt_yz equal "yz"
variable tot_press equal "press"
variable press_xx equal "pxx"
variable press_yy equal "pyy"
variable press_zz equal "pzz"
variable press_xy equal "pxy"
variable press_xz equal "pxz"
variable press_yz equal "pyz"

# ---- output ----
print "pypospack:output_section:begin"
pypospack:output_section:begin
print "tot_energy = ${tot_energy}"
tot_energy = -109.052033723467
print "num_atoms = ${natoms}"
num_atoms = 8
print "xx = ${length_x}"
xx = 4.30669636930156
print "yy = ${length_y}"
yy = 4.30669636930156
print "zz = ${length_z}"
zz = 4.30669636930156
print "xy = ${tilt_xy}"
xy = 0
print "xz = ${tilt_xz}"
xz = 0
print "yz = ${tilt_yz}"
yz = 0
print "tot_press = ${tot_press}"
tot_press = 0.00342503281246904
print "pxx = ${press_xx}"
pxx = 0.00342503266517326
print "pyy = ${press_yy}"
pyy = 0.00342503296687446
print "pzz = ${press_zz}"
pzz = 0.00342503280535941
print "pxy = ${press_xy}"
pxy = -1.85539817051957e-10
print "pxz = ${press_xz}"
pxz = 4.38238030577261e-11
print "pyz = ${press_yz}"
pyz = -1.45514027090344e-10
print "pypospack:output_section:done"
pypospack:output_section:done
print "pypospack:lammps_sim:done"
pypospack:lammps_sim:done
#------------------------------------------------------------------------------
# RUN THERMOSTAT
# running using an NPT Nose-Hoover style thermostat
#------------------------------------------------------------------------------
variable tempdamp equal 0.1
variable pressdamp equal 1.0
# set initial velocities
velocity all create 1600 1269109 mom yes dist gaussian loop all
# fix for Nose-Hoover style thermostat
fix 20 all npt temp 1600 1600 0.1 aniso 0.0 0.0 1.0 drag 1.0 couple xyz
variable boxx equal lx
variable boxy equal ly
variable boxz equal lz
variable boxp equal press
variable boxt equal temp
# calculate averages every 10000 steps
reset_timestep 0
fix 21 all ave/time 10 10 100 v_boxx v_boxy v_boxz v_boxp v_boxt file lattice.out
thermo_style custom step temp pe ke etotal press lx ly lz press pxx pyy pzz pxy pxz pyz vol
thermo_modify flush yes
thermo 100
run 100000
PPPM initialization ...
  G vector (1/distance) = 0.352152
  grid = 8 8 8
  stencil order = 5
  estimated absolute RMS force accuracy = 3.96483e-05
  estimated relative force accuracy = 2.75342e-06
  using double precision FFTs
  3d grid and FFT values/proc = 3375 512
Memory usage per processor = 3.06549 Mbytes
Step Temp PotEng KinEng TotEng Press Lx Ly Lz Press Pxx Pyy Pzz Pxy Pxz Pyz Volume 
       0         1600   -109.05204    1.4477136   -107.60433    19356.925    4.3066964    4.3066964    4.3066964    19356.925    14074.213    12699.129    31297.432   -538.69007    11576.779   -11498.635    79.879026 
     100    452.97635   -107.83502   0.40986252   -107.42516    33761.609    4.3372628    4.3372628    4.3372628    33761.609    42413.758   -32900.018    91771.087   -4430.0651   -6904.4954    13739.973     81.59193 
     200    802.69317   -107.75618   0.72629365   -107.02989   -36527.909    4.3865439    4.3865439    4.3865439   -36527.909   -40821.291   -80831.088    12068.653   -1393.5023   -3088.4992   -468.28773    84.404855 
     300    1970.0836   -108.46241    1.7825731   -106.67983   -32336.268    4.3755678    4.3755678    4.3755678   -32336.268    -40939.87   -52205.843   -3863.0917    1721.1932   -5612.0923   -8495.0857    83.772844 
     400    990.43234   -107.30758   0.89616399   -106.41142     34958.16    4.3392757    4.3392757    4.3392757     34958.16    50663.339   -49567.574    103778.71   -3837.8561    11342.555     44951.66    81.705584 
     500    1381.9577   -107.50672    1.2504244   -106.25629    41616.118    4.3481581    4.3481581    4.3481581    41616.118    10837.183   -26635.492    140646.66   -2801.2438    7856.1012   -18480.345    82.208358 
     600    1958.2161   -107.94219    1.7718351   -106.17035   -59175.586    4.4061261    4.4061261    4.4061261   -59175.586   -72941.952   -83429.773   -21155.033   -6471.0396   -22252.736    1913.6921    85.540297 
     700    1718.3812    -107.6605    1.5548274   -106.10567   -5195.3586    4.4040769    4.4040769    4.4040769   -5195.3586   -37059.713   -75079.319    96552.956   -2924.3537   -6282.9644    11689.065    85.421004 
     800    900.17132   -106.93372   0.81449393   -106.11922    11507.498    4.3667492    4.3667492    4.3667492    11507.498    23064.474   -36519.436    47977.455   -384.02571   -2087.1322   -21447.494    83.267354 
     900    2073.4354   -108.00849    1.8760879   -106.13241    9202.8775    4.3481679    4.3481679    4.3481679    9202.8775    11506.883   -17041.447    33143.196   -13055.445   -5376.3067    4722.0496    82.208913 
    1000    1606.3016   -107.62908    1.4534154   -106.17566    3285.9119    4.3852036    4.3852036    4.3852036    3285.9119    14422.827   -58834.157    54269.067    3372.4427    3935.4677   -9699.1659    84.327514 
    1100    1046.3897   -107.10031   0.94679536   -106.15351   -11633.575    4.4023661    4.4023661    4.4023661   -11633.575   -78408.791   -41035.523     84543.59   -5522.1596   -11930.323   -3855.1585    85.321495 
    1200    2075.5252   -108.00282    1.8779788   -106.12484   -13864.946    4.3833664    4.3833664    4.3833664   -13864.946   -47400.459   -4760.6293     10566.25   -5315.6037   -18488.952   -2559.1663    84.221566 
    1300    1382.4927   -107.37081    1.2509084   -106.11991    37122.326    4.3670036    4.3670036    4.3670036    37122.326    19230.253   -35425.525    127562.25   -21369.139    80.227771   -22746.549    83.281905 
    1400    1165.4157   -107.18745    1.0544926   -106.13296   -5660.7043    4.3746312    4.3746312    4.3746312   -5660.7043   -26829.211   -13875.674    23722.772   -2694.5925   -41055.885   -14490.141    83.719059 
    1500    1724.5338   -107.67962    1.5603944   -106.11922   -7215.8083    4.3864523    4.3864523    4.3864523   -7215.8083   -32828.742   -20522.371    31703.688    2309.1657    11374.311    -7855.989    84.399572 
    1600    1886.7132   -107.81149    1.7071377   -106.10435    -34135.65    4.4015008    4.4015008    4.4015008    -34135.65   -64243.274    -54384.16    16220.483   -9060.1415   -7321.6484   -12779.892    85.271194 
    1700     1064.235   -107.05129   0.96294216   -106.08835    20235.977    4.3842848    4.3842848    4.3842848    20235.977   -46223.818    3775.7924    103155.96    7439.4895    5935.5791    17157.094    84.274516 
    1800    1818.3492   -107.73008    1.6452806    -106.0848    20779.318    4.3722709    4.3722709    4.3722709    20779.318   -19353.858   -9578.6317    91270.444   -8689.8836    7683.7333    1895.4267    83.583623 
    1900    1929.6064   -107.85296    1.7459484   -106.10701   -9200.0184    4.3763366    4.3763366    4.3763366   -9200.0184   -46187.264    8591.4403     9995.768    13687.576   -12676.398    7342.6406    83.817006 
    2000    1175.9066   -107.19206     1.063985   -106.12808    11245.119    4.3905765    4.3905765    4.3905765    11245.119   -50787.735    22664.094        61859   -9490.9654    7591.4946   -8115.4664    84.637853 
    2100    2042.8564   -107.94118    1.8484194   -106.09276   -21988.488    4.4038005    4.4038005    4.4038005   -21988.488   -26345.177    -59534.24    19913.952   -2028.2928    3697.0893    -6287.362    85.404925 
    2200    1012.7793   -107.00644   0.91638404   -106.09006   -20332.347     4.387465     4.387465     4.387465   -20332.347   -49414.317   -29483.721    17900.997    -7939.148   -2743.7843    698.57126    84.458037 
    2300    1556.6094   -107.48378    1.4084529   -106.07533    27741.638    4.3470515    4.3470515    4.3470515    27741.638   -19128.912    25489.865    76863.962   -65.558602    24608.157    1348.2662     82.14561 
    2400    1664.6794   -107.63785    1.5062369   -106.13161    21251.697    4.3605704    4.3605704    4.3605704    21251.697   -17671.103   -11831.647    93257.841    10623.575   -19712.398    -6989.106    82.914392 
    2500    1712.9666   -107.68991    1.5499281   -106.13998   -40151.514    4.3881949    4.3881949    4.3881949   -40151.514   -25224.957   -62565.825    -32663.76   -23369.066    3502.7626    6141.3063    84.500196 
    2600    1723.0617   -107.69733    1.5590624   -106.13827   -16166.502    4.3764441    4.3764441    4.3764441   -16166.502   -49700.511   -51399.768    52600.774     25773.33    17792.228    381.79868    83.823188 
    2700    1712.3805   -107.68611    1.5493979   -106.13671    21210.004    4.3652416    4.3652416    4.3652416    21210.004    19489.775    -24178.83    68319.066    -7363.127    14408.925   -10808.235    83.181137 
    2800    1818.7754   -107.77809    1.6456662   -106.13243   -4890.1264    4.3566905    4.3566905    4.3566905   -4890.1264   -9207.1998   -27124.744    21661.565   -403.80635    11308.615    600.46276    82.693264 
    2900    1271.8272   -107.31073     1.150776   -106.15995   -32470.404    4.3653387    4.3653387    4.3653387   -32470.404   -14859.798   -58561.313   -23990.102    37200.226    9798.5966   -25973.505    83.186691 
    3000     1846.585   -107.81574    1.6708289   -106.14491    14453.398    4.3796321    4.3796321    4.3796321    14453.398   -7764.0073   -31646.872    82771.074    -24712.62   -3042.2419   -5580.5086    84.006502 
    3100    1602.6127   -107.58149    1.4500777   -106.13141   -22779.934    4.3839501    4.3839501    4.3839501   -22779.934   -31597.862   -59602.734    22860.794    15099.023   -7384.9221    4585.1782    84.255218 
    3200    1722.5556   -107.68495    1.5586045   -106.12634   -35502.087     4.371953     4.371953     4.371953   -35502.087   -18601.431    -47235.11   -40669.719   -2117.4016    4200.6845   -25444.735    83.565394 
    3300    1523.7976     -107.515    1.3787641   -106.13623    21928.207    4.3601258    4.3601258    4.3601258    21928.207    32583.096   -13682.139    46883.663    5411.0692   -6745.5669    25906.501    82.889029 
    3400    1612.4877   -107.61767    1.4590127   -106.15866   -4209.5135    4.3695968    4.3695968    4.3695968   -4209.5135   -23202.883   -46528.189    57102.532     19461.17    30769.084   -12455.261    83.430354 
    3500    1367.1014   -107.38544    1.2369821   -106.14845    19422.984    4.3722868    4.3722868    4.3722868    19422.984     36839.37   -13001.666    34431.248   -733.98745    -3094.149   -18059.834    83.584537 
    3600    1506.6072   -107.50588    1.3632099   -106.14267   -19461.445    4.3698868    4.3698868    4.3698868   -19461.445    16261.524   -40665.457   -33980.403    27018.332   -6507.2349    20388.989    83.446967 
    3700     1768.088   -107.72456    1.5998032   -106.12476    8114.9508    4.3743417    4.3743417    4.3743417    8114.9508    16336.026   -38674.759    46683.585    7892.2758   -6026.3763   -12024.962    83.702437 
    3800    1521.7674   -107.49545    1.3769271   -106.11852    14773.297    4.3710553    4.3710553    4.3710553    14773.297    50600.616    -4897.366   -1383.3587    15645.539     1252.754    4612.3348    83.513927 
    3900    1035.6616    -107.0733   0.93708836   -106.13622    1659.9391    4.3790236    4.3790236    4.3790236    1659.9391   -307.19743   -36427.471    41714.486    21236.483   -6659.3859    9010.0765    83.971492 
    4000     2429.963   -108.31012    2.1986816   -106.11144   -7582.4484    4.3804266    4.3804266    4.3804266   -7582.4484   -6332.0677   -40322.546    23907.269   -17649.104    2492.4288    6446.4456    84.052224 
    4100    1176.5893   -107.20533    1.0646027   -106.14073   -32637.051     4.382948     4.382948     4.382948   -32637.051   -11500.851   -61889.085   -24521.217    17638.208    2982.3685    20934.655    84.197453 
    4200    1365.3574   -107.37026    1.2354041   -106.13485    44582.309    4.3668031    4.3668031    4.3668031    44582.309    107831.28   -15431.841    41347.484    10838.493   -20085.379   -3751.9737    83.270435 
    4300    1343.0286   -107.36277    1.2152005   -106.14757    26387.344    4.3680307    4.3680307    4.3680307    26387.344    88953.927       -37699    27907.104    6812.4162   -6791.0828    2100.6664    83.340682 
    4400    1446.3671   -107.46587    1.3087033   -106.15717   -35753.876    4.3864616    4.3864616    4.3864616   -35753.876   -29156.054   -59954.298   -18151.276    22433.148    1986.5063    25141.096    84.400104 
    4500    2604.9555   -108.48539    2.3570185   -106.12838   -25578.266    4.3799149    4.3799149    4.3799149   -25578.266   -35857.191   -31775.229   -9102.3776   -11129.062    22397.566   -12856.125    84.022774 
    4600     1452.619   -107.45312    1.3143602   -106.13876   -14614.401    4.3737216    4.3737216    4.3737216   -14614.401    8128.8331   -41648.551   -10323.487    21731.324   -15627.027    20027.217     83.66685 
    4700    1170.2747   -107.21359    1.0588892    -106.1547   -1725.5594    4.3748411    4.3748411    4.3748411   -1725.5594    46129.369    -38733.85   -12572.198   -10123.394     3499.898   -626.90512    83.731111 
    4800    1725.4855   -107.70659    1.5612556   -106.14534    14885.585     4.373684     4.373684     4.373684    14885.585    41893.009    1163.9357    1599.8089    5562.9165     13390.99    -1049.596    83.664692 
    4900    1699.7668   -107.69772    1.5379847   -106.15974   -24765.517    4.3944099    4.3944099    4.3944099   -24765.517   -17160.618   -51352.203   -5783.7304    21990.586   -2446.9852    23522.012    84.859741 
    5000    1288.4924   -107.31825     1.165855   -106.15239   -33986.015    4.3864569    4.3864569    4.3864569   -33986.015   -67997.095    11206.383   -45167.333   -14607.399    12880.485     2035.114    84.399833 
    5100    2224.2646   -108.13904    2.0125614   -106.12648   -20774.927    4.3669225    4.3669225    4.3669225   -20774.927   -26637.702   -43444.856     7757.778   -3288.8741   -1017.5826   -3861.5917    83.277268 
    5200    1378.8656   -107.39948    1.2476266   -106.15186     5866.233     4.376244     4.376244     4.376244     5866.233    29163.931    1940.5065   -13505.739    7419.1955   -6021.9759    5186.6058    83.811689 
    5300    993.81034   -107.05637   0.89922048   -106.15715   -7517.0971    4.3834185    4.3834185    4.3834185   -7517.0971    72742.793   -51939.175   -43354.909   -13157.083    43770.275   -8884.2734     84.22457 
    5400    1831.4609   -107.80235    1.6571443   -106.14521   -9561.2918    4.3844586    4.3844586    4.3844586   -9561.2918    5697.4039   -47596.204    13214.924    1852.6407   -6550.8289    3439.3841    84.284542 
    5500    1436.3635   -107.44617    1.2996519   -106.14651   -21503.381    4.3800915    4.3800915    4.3800915   -21503.381   -37190.317   -20570.492   -6749.3336   -13872.104    13300.593   -616.76512    84.032935 
    5600    1689.9317   -107.66722    1.5290857   -106.13813   -33218.278    4.3676949    4.3676949    4.3676949   -33218.278    -23236.95    -36025.08   -40392.803   -34669.463    9096.8932    -2268.167     83.32146 
    5700    2419.1406   -108.33453    2.1888892   -106.14564    2496.5054    4.3664161    4.3664161    4.3664161    2496.5054    12006.721    -32650.02    28132.816    8797.8983   -8370.9963    14690.929    83.248298 
    5800    1209.0879    -107.2693    1.0940081   -106.17529   -19382.582    4.3891851    4.3891851    4.3891851   -19382.582     2252.428   -41105.225   -19294.949   -6639.0665    24659.707   -11403.755    84.557414 
    5900    1098.6394   -107.14763   0.99407202   -106.15356     20249.51    4.3786825    4.3786825    4.3786825     20249.51    78258.706   -9784.6505    -7725.524   -8248.7795   -9319.3869    11554.538    83.951871 
    6000    1890.7362   -107.84911    1.7107778   -106.13833    16775.617     4.372276     4.372276     4.372276    16775.617     36708.88   -2827.1642    16445.134   -4842.6322   -19585.706    10043.153    83.583916 
    6100    1713.8577   -107.69246    1.5507344   -106.14172   -9770.9994    4.3776126    4.3776126    4.3776126   -9770.9994   -19829.289    10646.657   -20130.366   -19403.651    13510.559   -9393.8426    83.890347 
    6200    1927.2583   -107.88314    1.7438238   -106.13932   -13862.857    4.3872307    4.3872307    4.3872307   -13862.857   -12044.715    822.88487   -30366.741   -4458.3848   -5632.6423    15743.026    84.444509 
    6300    1098.6968   -107.10875   0.99412399   -106.11462    18330.873    4.3968307    4.3968307    4.3968307    18330.873    62637.309   -6092.4529   -1552.2378   -18332.785    6615.7924    1005.8163     85.00006 
    6400    1295.4562   -107.27269     1.172156   -106.10054    -21927.56    4.3872417    4.3872417    4.3872417    -21927.56   -45927.296    24484.854   -44340.237   -17297.337   -15395.326    7975.6234    84.445146 
    6500    1947.9249   -107.84324    1.7625234   -106.08072    7831.9768    4.3623532    4.3623532    4.3623532    7831.9768    -24142.85    77438.087   -29799.306    1117.1955    -17132.97    9576.9904    83.016129 
    6600    1239.8473   -107.24158    1.1218399   -106.11974    9566.3071    4.3822523    4.3822523    4.3822523    9566.3071    35428.691    8486.9934   -15216.764   -38837.334    10566.124    3435.4429    84.157369 
    6700    1012.6376   -107.02777    0.9162558   -106.11151   -16712.136    4.3916105    4.3916105    4.3916105   -16712.136    19763.987     9935.484    -79835.88    -2901.361   -28133.372   -2167.3961    84.697667 
    6800    2275.9639    -108.1526      2.05934   -106.09326   -10163.442    4.3717871    4.3717871    4.3717871   -10163.442   -14543.031   -10404.264   -5543.0302   -635.04302    12716.416    6736.5507    83.555878 
    6900    1436.2413   -107.41866    1.2995414   -106.11911    8434.4701    4.3631457    4.3631457    4.3631457    8434.4701    44024.377   -8944.2059   -9776.7612   -9031.8688    -6985.484     1957.789    83.061383 
    7000    1500.3486   -107.49518    1.3575469   -106.13763     -39235.1     4.368187     4.368187     4.368187     -39235.1   -49430.362   -7649.0545   -60625.883    1532.4926   -29800.293   -8430.5551    83.349629 
    7100    1804.6234   -107.75675    1.6328612   -106.12389    -14880.34    4.3690494    4.3690494    4.3690494    -14880.34   -35658.088     14551.72   -23534.651   -42.302728    19809.734    8929.8724    83.399002 
    7200    1187.5159   -107.20132    1.0744893   -106.12683   -6728.3214    4.3718549    4.3718549    4.3718549   -6728.3214    31345.968   -30194.169   -21336.763   -17790.715   -38585.179    -10769.36    83.559769 
    7300    1511.2239    -107.5019    1.3673872   -106.13451   -18179.744    4.3593797    4.3593797    4.3593797   -18179.744    20812.905   -4431.5956   -70920.542    6739.8936    25376.737    8898.0945    82.846484 
    7400     1523.622   -107.51012    1.3786052   -106.13152    20758.125    4.3530511    4.3530511    4.3530511    20758.125   -13609.572    71444.436    4439.5111   -7370.1537    11783.595    7774.2032    82.486198 
    7500    1993.4498   -107.93472    1.8037153     -106.131   -23009.899     4.367273     4.367273     4.367273   -23009.899   -39622.671   -11978.953   -17428.071    9605.4028    -1534.618   -14014.563    83.297316 
    7600      950.411    -106.9948   0.85995185   -106.13485   -38976.775    4.3752328    4.3752328    4.3752328   -38976.775   -59144.351    516.62286   -58302.596   -6077.7602    38151.651    5660.7073    83.753605 
    7700    1799.8886   -107.74633    1.6285771   -106.11776    19857.263    4.3636065    4.3636065    4.3636065    19857.263    32041.155    37248.852   -9718.2167   -6543.8358     -4981.34     5972.122    83.087703 
    7800    1902.7729   -107.84875    1.7216689   -106.12708    5084.2371    4.3588525    4.3588525    4.3588525    5084.2371   -36798.476     65011.58   -12960.392    7000.7871    8211.6191   -308.13751     82.81643 
    7900    1331.3875   -107.34391    1.2046674   -106.13924   -15270.684     4.363667     4.363667     4.363667   -15270.684    7431.3081   -24066.904   -29176.455   -9121.8924    12470.858    4253.1155    83.091156 
    8000    1468.0467   -107.45235    1.3283195   -106.12403    29693.713    4.3705109    4.3705109    4.3705109    29693.713    25704.542    53574.043    9802.5541   -10952.387   -19726.189    7679.3956    83.482728 
    8100     2212.007   -108.10179    2.0014704   -106.10032   -40788.643      4.38338      4.38338      4.38338   -40788.643   -28352.296   -42769.748   -51243.885   -15655.673    2767.6018   -18620.412    84.222354 
    8200     1421.837   -107.37817     1.286508   -106.09166     3970.126    4.3614756    4.3614756    4.3614756     3970.126    42122.165    8617.4278   -38829.215    8937.5014   -5458.2767   -1982.3649    82.966037 
    8300    1758.6413   -107.69015    1.5912556   -106.09889    27492.203    4.3453064    4.3453064    4.3453064    27492.203   -3888.6837     76658.76     9706.532   -15631.167   -25434.949    14200.364    82.046719 
    8400    1615.8204   -107.59787    1.4620283   -106.13585   -33903.869    4.3722514    4.3722514    4.3722514   -33903.869   -46985.691   -30485.919   -24239.999    14484.875    405.19904   -12155.155    83.582501 
    8500    1330.3751   -107.32807    1.2037514   -106.12432   -28808.397    4.3938641    4.3938641    4.3938641   -28808.397   -40558.205    -324.5545   -45542.431    -9833.095   -23467.842    21912.832    84.828122 
    8600    2263.3691   -108.13175     2.047944   -106.08381   -16125.609    4.3871453    4.3871453    4.3871453   -16125.609   -35996.193    12138.724   -24519.357   -4418.0419   -50.677671    7473.4251    84.439578 
    8700    1816.7564   -107.73896    1.6438394   -106.09512   -25961.009    4.3538487    4.3538487    4.3538487   -25961.009   -40419.773   -15744.534   -21718.721    7547.1808   -24739.323   -21923.244    82.531551 
    8800    943.11994   -106.96969   0.85335474   -106.11634    40951.264     4.339946     4.339946     4.339946    40951.264   -39145.212       118587    43412.006   -7263.6377   -10488.616    17407.148    81.743455 
    8900    1858.0946   -107.82133     1.681243   -106.14009   -735.84839    4.3787115    4.3787115    4.3787115   -735.84839   -47283.902    15343.091    29733.265    607.29495    17327.988   -29181.487    83.953534 
    9000    1805.2792    -107.7572    1.6334545   -106.12375    -22043.57    4.3840914    4.3840914    4.3840914    -22043.57   -40671.929   -22162.622   -3296.1569   -6637.4725   -29443.318    17416.823    84.263364 
    9100    789.20517   -106.83377   0.71408943   -106.11968   -2095.2489    4.3608237    4.3608237    4.3608237   -2095.2489   -49873.754    40525.723    3062.2847   -2308.1458     18497.32    15742.516    82.928841 
    9200    1958.8348   -107.89139    1.7723949   -106.11899    17911.243    4.3473995    4.3473995    4.3473995    17911.243   -14374.694    39212.619    28895.802   -3484.7283    9051.9925    6430.7406    82.165341 
    9300     2275.544   -108.20898      2.05896   -106.15002   -20133.804     4.368087     4.368087     4.368087   -20133.804    -21755.89   -8695.4595   -29950.064    11051.587    13069.226   -7104.3045    83.343903 
    9400    853.88959   -106.92775   0.77261724   -106.15513   -12001.258    4.3921874    4.3921874    4.3921874   -12001.258   -19485.889    17777.186   -34295.071   -1573.9437    8228.2351    14680.939    84.731051 
    9500    2077.2768   -107.99009    1.8795637   -106.11052   -24069.095    4.3785011    4.3785011    4.3785011   -24069.095   -39239.233    -13982.85   -18985.203    7888.2932   -9942.9161   -21839.703    83.941434 
    9600    1944.8603   -107.85966    1.7597505   -106.09991   -1977.2721    4.3449641    4.3449641    4.3449641   -1977.2721   -31481.227     6376.135    19173.276   -2325.2813    40836.836    21622.091    82.027329 
    9700    1283.5029   -107.30713    1.1613404   -106.14579   -3506.3349    4.3460436    4.3460436    4.3460436   -3506.3349    1142.8819    3309.3505   -14971.237   -2351.6495   -9697.8862    8940.5918    82.088486 
    9800    1785.4331   -107.76865    1.6154974   -106.15315    12438.729    4.3681632    4.3681632    4.3681632    12438.729   -48278.844    82378.274    3216.7575    5762.0341    1998.0767   -2737.4897    83.348265 
    9900    1769.2661   -107.73113    1.6008691   -106.13026   -36175.612     4.383073     4.383073     4.383073   -36175.612   -53104.117   -40594.593   -14828.127   -5459.3855    12229.637         1940    84.204658 
   10000    992.83448   -107.02167    0.8983375   -106.12334   -23549.341     4.366191     4.366191     4.366191   -23549.341   -83066.598    33410.125    -20991.55   -9677.8896   -32592.438    5368.1107    83.235424 
   10100    2010.3984   -107.93331    1.8190507   -106.11426    37045.166    4.3397654    4.3397654    4.3397654    37045.166    37916.735      62037.9    11180.862   -5574.5812    8156.6683   -2406.5144     81.73325 
   10200    1929.2184   -107.87776    1.7455974   -106.13216    31555.506    4.3426126    4.3426126    4.3426126    31555.506     17141.52    34215.429    43309.567     6766.917   -6289.1096    12204.392    81.894224 
   10300    1275.5739   -107.30827    1.1541661   -106.15411   -30564.271    4.3788333    4.3788333    4.3788333   -30564.271   -49995.819   -7336.4065   -34360.587   -9120.5438   -27967.901    2992.7578    83.960545 
   10400    1749.5545   -107.70323    1.5830336    -106.1202   -8426.2635    4.3743254    4.3743254    4.3743254   -8426.2635   -26684.797    863.27536      542.731    10799.151    24100.548    9261.9569    83.701506 
   10500     1651.028   -107.59227    1.4938849   -106.09838    41935.099     4.342108     4.342108     4.342108    41935.099    14686.696    21719.221     89399.38   -8783.7739   -19031.775   -11836.183     81.86568 
   10600    1464.4193   -107.45668    1.3250374   -106.13164   -1260.9911    4.3428645    4.3428645    4.3428645   -1260.9911   -9533.0171    21022.414    -15272.37   -13309.633    -5942.554    12996.056    81.908472 
   10700    1675.0039   -107.66331    1.5155787   -106.14773    2853.0472    4.3681252    4.3681252    4.3681252    2853.0472   -35649.501    5469.1415    38739.501     7948.113    23134.248   -22075.252    83.346089 
   10800    1515.4838   -107.49877    1.3712416   -106.12753    11849.506    4.3757851    4.3757851    4.3757851    11849.506   -25065.875    31696.619    28917.775    10308.474   -7347.9027    2574.8118    83.785325 
   10900    1166.6198   -107.16497    1.0555821   -106.10939    515.19602    4.3633096    4.3633096    4.3633096    515.19602   -7264.6226    40388.057   -31577.846   -17534.396    15123.879     12177.46    83.070739 
   11000      1895.12   -107.81679    1.7147444   -106.10205    19747.542    4.3547804    4.3547804    4.3547804    19747.542   -15057.874    26929.118    47371.381    14476.344   -1132.2638   -10825.587    82.584544 
   11100    1616.1687   -107.57854    1.4623434   -106.11619    27169.257    4.3635746    4.3635746    4.3635746    27169.257    971.89129    47157.082    33378.799    4026.4511    11885.408   -6930.7998    83.085879 
   11200    1008.5361   -107.03052    0.9125447   -106.11797   -19024.377    4.3803016    4.3803016    4.3803016   -19024.377   -101364.54    55292.358   -11000.945    3681.7621    21131.029   -16.552743    84.045032 
   11300    1885.6147   -107.79723    1.7061438   -106.09109   -19842.882    4.3764763    4.3764763    4.3764763   -19842.882   -67835.227   -16331.084    24637.665    15564.647   -13899.339    3329.5624    83.825037 
   11400     2143.177   -108.02061    1.9391916   -106.08142    19775.956    4.3562256    4.3562256    4.3562256    19775.956    7527.8991    22554.144    29245.826    -12497.56    11893.538   -10401.998    82.666793 
   11500    1236.0305   -107.22904    1.1183864   -106.11065   -2404.5814    4.3567578    4.3567578    4.3567578   -2404.5814   -45907.129   -20382.161    59075.546    19566.231   -9364.1254    16953.659    82.697095 
   11600    1898.8446   -107.83431    1.7181145    -106.1162   -8300.1261    4.3756088    4.3756088    4.3756088   -8300.1261   -35102.365   -21718.199    31920.186    -1225.774   -13129.658   -13085.276    83.775196 
   11700    1478.6254   -107.44612    1.3378914   -106.10823    9788.6069     4.377348     4.377348     4.377348    9788.6069    11805.214    596.57085    16964.036    8211.8948   -1513.3502    15598.888    83.875133 
   11800    1632.2167   -107.57688    1.4768639   -106.10001   -21479.802    4.3562116    4.3562116    4.3562116   -21479.802    -61469.42   -5831.8564    2861.8705    23859.669   -13259.003    3251.9822    82.665994 
   11900    2179.0804   -108.07236    1.9716777   -106.10068    35303.278    4.3422027    4.3422027    4.3422027    35303.278    57034.772    4215.7686    44659.294   -18809.701       51.519    7349.6314    81.871036 
   12000    1702.8708     -107.672    1.5407933   -106.13121   -25192.177    4.3673239    4.3673239    4.3673239   -25192.177   -50129.314   -29999.855    4552.6375    20482.445   -14276.451    19813.623     83.30023 
   12100    1311.2059   -107.30671    1.1864066    -106.1203   -45665.863    4.3896954    4.3896954    4.3896954   -45665.863   -85626.319   -25443.226   -25928.043   -1867.4052   -599.05622    1721.9066     84.58691 
   12200    2057.7741   -107.94223    1.8619173   -106.08031   -18243.082    4.3825725    4.3825725    4.3825725   -18243.082   -24533.839   -31625.948    1430.5413   -5649.9768     14455.05    10072.406    84.175813 
   12300    1921.6188   -107.80925    1.7387211   -106.07053   -5672.2763    4.3581261    4.3581261    4.3581261   -5672.2763   -6237.2196   -36140.478    25360.869    20699.806   -16894.284    6305.7063    82.775038 
   12400     1260.775   -107.23459    1.1407757   -106.09381    33148.361    4.3441476    4.3441476    4.3441476    33148.361    54840.226    19572.002    25032.856   -25547.728    9871.0169    9329.6987    81.981094 
   12500    1924.9345   -107.86269    1.7417212   -106.12096   -26109.718    4.3780572    4.3780572    4.3780572   -26109.718   -59985.157   -4546.0434   -13797.952    27956.709    11972.062     1581.001    83.915906 
   12600    1565.9178   -107.51362    1.4168753   -106.09674   -37499.181    4.3936195    4.3936195    4.3936195   -37499.181   -38373.858   -40212.702   -33910.983   -23298.034   -7025.0877    11688.153    84.813957 
   12700    1928.8724   -107.81876    1.7452843   -106.07347   -14748.853    4.3608411    4.3608411    4.3608411   -14748.853   -9589.8559   -20355.936   -14300.767   -28384.829    16021.686   -11841.693    82.929831 
   12800    1927.5887   -107.81062    1.7441228   -106.06649      12044.5     4.345848     4.345848     4.345848      12044.5   -18908.493    48001.324    7040.6698    14341.649   -3930.8905    25404.774    82.077401 
   12900    1109.2352   -107.10994    1.0036594   -106.10629   -4377.6111    4.3566108    4.3566108    4.3566108   -4377.6111    -46992.48    284.37831    33575.268    -22828.21    3527.8152    1765.1404    82.688722 
   13000    1697.8401   -107.65597    1.5362414   -106.11973    5575.5415    4.3695059    4.3695059    4.3695059    5575.5415   -675.57139    25557.182   -8154.9859   -7917.9348    3673.3554    1336.0193    83.425152 
   13100    2032.4551   -107.94921    1.8390081    -106.1102   -8464.3572    4.3741824    4.3741824    4.3741824   -8464.3572   -14536.276   -26800.238    15943.441    -1140.904   -11905.746    23810.642    83.693296 
   13200    1146.5332   -107.14285    1.0374073   -106.10544   -2286.7351    4.3572963    4.3572963    4.3572963   -2286.7351   -32582.652    15108.969    10613.478   -20789.757    20183.154   -21658.123    82.727763 
   13300     1372.308   -107.34588    1.2416931   -106.10419    10954.232    4.3485063    4.3485063    4.3485063    10954.232   -8043.9249    9038.9514     31867.67    585.09507    2732.3147    22822.291    82.228111 
   13400    1946.2484   -107.87964    1.7610065   -106.11863     -7733.17    4.3643531    4.3643531    4.3643531     -7733.17    2278.3502   -31217.191    5739.3311   -4138.8449     3266.591    3301.3334    83.130358 
   13500    1678.6618   -107.65046    1.5188885   -106.13157   -15928.001    4.3703999    4.3703999    4.3703999   -15928.001   -42520.443   -26646.181    21382.621   -25502.277    22630.192   -5054.4057    83.476368 
   13600    1398.1043    -107.3907    1.2650341   -106.12567   -6302.4396    4.3658422    4.3658422    4.3658422   -6302.4396   -42877.496   -43843.273    67813.451    27857.902   -7554.2242     13056.19    83.215476 
   13700    2041.9256   -107.94954    1.8475772   -106.10196   -10464.917    4.3690672    4.3690672    4.3690672   -10464.917   -37556.091   -12668.374    18829.714    -13859.14    7604.3303    -2747.561    83.400025 
   13800    1067.7935   -107.06844   0.96616202   -106.10228    27468.313    4.3710711    4.3710711    4.3710711    27468.313    38071.736    19543.618    24789.587   -4040.3926    4470.2725   -12177.613    83.514835 
   13900    1596.2427   -107.53958    1.4443139   -106.09527    215.98391    4.3743548    4.3743548    4.3743548    215.98391   -9322.1136    24207.967   -14237.902    1579.6247   -11596.434    23209.792    83.703189 
   14000    1845.3674   -107.76004    1.6697272   -106.09031    4498.6734    4.3753178    4.3753178    4.3753178    4498.6734   -3651.4102     41718.75    -24571.32   -21930.526    5182.4956   -9449.9961    83.758483 
   14100    1195.9194   -107.19794     1.082093   -106.11585     2012.527    4.3573761    4.3573761    4.3573761     2012.527    20534.209   -19773.163    5276.5344     12764.74   -15235.831    8089.8652     82.73231 
   14200    2228.8824   -108.13518    2.0167396   -106.11844   -640.69408    4.3526203    4.3526203    4.3526203   -640.69408    -12109.27    9995.1854    192.00224    14309.988   -4448.3297    12147.897    82.461714 
   14300    1553.9155   -107.53927    1.4060154   -106.13326    5672.2131     4.375791     4.375791     4.375791    5672.2131    19953.742    616.17064   -3553.2737   -19589.988    16088.397   -2322.7292    83.785662 
   14400    1008.4176   -107.03349   0.91243742   -106.12105    -14469.13    4.3870049    4.3870049    4.3870049    -14469.13   -3081.5536    20007.171   -60333.007    13593.884   -15756.866    11903.164    84.431471 
   14500    2427.3743   -108.28589    2.1963392   -106.08955   -24108.441    4.3722207    4.3722207    4.3722207   -24108.441   -45746.666    7001.6067   -33580.263   -13437.269     6350.154   -11522.296    83.580741 
   14600     1304.923   -107.27217    1.1807218   -106.09145    55441.652    4.3428863    4.3428863    4.3428863    55441.652    75589.431    56365.169    34370.355    7103.6282    5823.1996    11407.542    81.909709 
   14700    1493.8842   -107.49324    1.3516978   -106.14154   -10909.945    4.3607068    4.3607068    4.3607068   -10909.945   -32770.429     25776.58   -25735.986    19058.682   -13473.675     9482.834    82.922171 
   14800     2446.356    -108.3133    2.2135143   -106.09979   -23236.473    4.3877335    4.3877335    4.3877335   -23236.473   -22463.397   -32106.859   -15139.163   -15222.317    13790.129     -5708.05    84.473545 
   14900    1003.7301   -107.00692   0.90819612   -106.09872    25109.066    4.3733351    4.3733351    4.3733351    25109.066    42406.675    55596.414   -22675.889    14898.179   -13070.747    27023.086    83.644667 
   15000    1754.6999   -107.68115    1.5876893   -106.09346    -6777.555    4.3637886    4.3637886    4.3637886    -6777.555   -27750.693    4479.1408    2938.8873    -3868.589    10495.266    4145.2715    83.098106 
   15100    2195.1076   -108.08945    1.9861795   -106.10327    22094.498    4.3552759    4.3552759    4.3552759    22094.498    -19116.65    80604.447    4795.6974   -11411.501   -9371.6844   -3079.1018    82.612738 
   15200    1030.9581   -107.08352   0.93283255   -106.15069    9760.8769    4.3714249    4.3714249    4.3714249    9760.8769    65821.833   -8471.8483   -28067.354    13892.643   -6072.9618    16799.732    83.535114 
   15300     1662.335   -107.63204    1.5041156   -106.12793   -50827.101    4.3891212    4.3891212    4.3891212   -50827.101   -57350.756   -55636.127   -39494.421   -5649.5794    17635.219   -14532.459    84.553718 
   15400    1897.1257   -107.82889    1.7165592   -106.11233    38873.036    4.3548449    4.3548449    4.3548449    38873.036    49892.621    59103.706    7622.7818   -20771.834   -17318.075    25946.384    82.588213 
   15500    1544.1414   -107.51708    1.3971716   -106.11991    23754.974    4.3452593    4.3452593    4.3452593    23754.974    14301.914    6787.0773    50175.931    37191.754    15783.156   -887.09839    82.044049 
   15600    1501.3667   -107.48666    1.3584681   -106.12819   -11561.699    4.3743291    4.3743291    4.3743291   -11561.699    4403.0031   -18487.936   -20600.166    2108.0237    9548.3907    -12637.29    83.701716 
   15700    1796.4338   -107.74045     1.625451     -106.115    21158.642    4.3777416    4.3777416    4.3777416    21158.642    -3276.197    24789.181    41962.944    -6557.757   -1538.8781    26856.501    83.897763 
   15800    1510.7928   -107.48519    1.3669971   -106.11819    2605.8167    4.3705488    4.3705488    4.3705488    2605.8167   -8916.0897    401.34648    16332.193    3989.2485    16059.179   -8223.6367    83.484898 
   15900    1653.3993   -107.61147    1.4960305   -106.11544   -11215.583    4.3577012    4.3577012    4.3577012   -11215.583    9699.7061   -25456.222   -17890.232    -17109.02    16887.803   -2700.3661    82.750829 
   16000     1991.029   -107.91402    1.8015249    -106.1125    19645.905    4.3646968    4.3646968    4.3646968    19645.905    -1214.433    25938.526    34213.622   -19331.513   -14020.736    8040.1939        83.15 
   16100    1310.5376   -107.29175     1.185802   -106.10595   -20005.101    4.3947619    4.3947619    4.3947619   -20005.101   -4762.6189   -36012.823   -19239.862    8091.2182     11831.68     11682.14    84.880134 
   16200    1297.4351   -107.27049    1.1739466   -106.09655   -26698.062    4.3749189    4.3749189    4.3749189   -26698.062    18224.682   -74642.606   -23676.262   -21572.014    15640.633    34923.389    83.735576 
   16300    2373.0362   -108.21717     2.147173      -106.07    33112.918    4.3378828    4.3378828    4.3378828    33112.918    15610.937    61466.527    22261.288    12697.395   -21761.196   -15972.808    81.626929 
   16400    1492.4576   -107.47612     1.350407   -106.12572   -6417.1048    4.3605648    4.3605648    4.3605648   -6417.1048    18486.509    -3920.409   -33817.414   -4153.7623    8922.5044    24896.462    82.914068 
   16500    1571.4968   -107.53195    1.4219234   -106.11003   -24872.483    4.3890937    4.3890937    4.3890937   -24872.483    -10876.58   -50936.178   -12804.692   -5934.5092   -16300.697    5962.5368    84.552132 
   16600    1605.6476   -107.53711    1.4528237   -106.08428     -7804.98    4.3890572    4.3890572    4.3890572     -7804.98   -11508.593    7147.6329    -19053.98    18787.228    6220.1987   -5572.3476    84.550023 
   16700    1778.6967    -107.6871    1.6094021    -106.0777   -31482.235    4.3661279    4.3661279    4.3661279   -31482.235   -28332.423   -40145.094   -25969.189   -16404.816    11463.898    28899.324    83.231813 
   16800    1524.8402   -107.45638    1.3797075   -106.07667    24124.547    4.3507398    4.3507398    4.3507398    24124.547    38596.889    16648.981     17127.77    11760.497    8775.3507   -14921.581     82.35488 
   16900    1195.9843   -107.20178    1.0821518   -106.11962    1133.4179    4.3710926    4.3710926    4.3710926    1133.4179    -48897.64    78907.799   -26609.905    3373.6478      24607.1     15969.92    83.516065 
   17000    1756.5387   -107.70561    1.5893531   -106.11626   -4943.5919    4.3863779    4.3863779    4.3863779   -4943.5919   -13404.627   -8625.8079    7199.6589   -8573.9798   -4127.3259   -372.01575    84.395274 
   17100    1619.5848   -107.57488    1.4654343   -106.10945    9485.4696    4.3731557    4.3731557    4.3731557    9485.4696    -69347.46    20548.111    77255.757    19949.106    10467.488    13098.396    83.634375 
   17200    1087.7594   -107.09473    0.9842276    -106.1105    24158.505    4.3575042    4.3575042    4.3575042    24158.505   -12157.373     72751.52    11881.368    2085.0819    10762.057    16080.455    82.739603 
   17300    1903.9014   -107.84766      1.72269   -106.12497   -19008.517    4.3625337    4.3625337    4.3625337   -19008.517    -41539.06   -25017.811    9531.3205    11758.395   -6499.9381    28479.878    83.026434 
   17400    2019.5864   -107.96466    1.8273642   -106.13729   -29487.724    4.3763901    4.3763901    4.3763901   -29487.724   -54656.276   -18566.834   -15240.062    12204.926     26214.75   -23965.612    83.820084 
   17500    1816.9804   -107.78975    1.6440421   -106.14571   -50311.252    4.3798115    4.3798115    4.3798115   -50311.252   -54627.316   -11954.906   -84351.535    3147.7646   -12752.471    3205.4496    84.016824 
   17600    1220.9361   -107.25047    1.1047286   -106.14574    4449.3063    4.3567726    4.3567726    4.3567726    4449.3063   -41373.121    61094.771   -6373.7311    30992.289    9345.2169    819.03236    82.697935 
   17700    1949.8175    -107.8961    1.7642359   -106.13187    24670.526    4.3556369    4.3556369    4.3556369    24670.526   -35864.283    38559.892    71315.969    1951.0445   -1769.7176    18602.272    82.633285 
   17800     1561.707   -107.55078    1.4130654   -106.13771   -33310.161    4.3784932    4.3784932    4.3784932   -33310.161   -53195.385   -13689.968   -33045.129    21817.788   -6922.8448   -4088.5364    83.940982 
   17900    1376.6067   -107.35224    1.2455826   -106.10665    21809.966    4.3887347    4.3887347    4.3887347    21809.966   -29008.724    12584.394    81854.227    11821.016    263.39729    5256.2912    84.531387 
   18000    1806.2091   -107.72008    1.6342959   -106.08578   -15806.084     4.377883     4.377883     4.377883   -15806.084    1173.3405   -39299.261   -9292.3323   -871.71151   -5877.0754    2490.7126    83.905888 
   18100    981.32291   -106.98632   0.88792159   -106.09839    -17142.48    4.3546096    4.3546096    4.3546096    -17142.48   -23019.209   -23217.433   -5190.7973    42595.944     8421.531    14566.529    82.574829 
   18200    2089.9578   -108.00429    1.8910377   -106.11325    46741.838    4.3558922    4.3558922    4.3558922    46741.838    28936.159    93592.866    17696.489   -6878.3163   -8351.0654   -13419.813    82.647813 
   18300     1105.402   -107.13718     1.000191   -106.13699   -51392.265     4.395705     4.395705     4.395705   -51392.265    -34586.58   -89400.586    -30189.63    30832.237   -8285.2569    21969.498    84.934788 
   18400    1807.1529   -107.71544    1.6351499   -106.08029   -16132.807    4.3899559    4.3899559    4.3899559   -16132.807   -26876.925   -222.01721   -21299.478    2586.8256    19873.228   -7122.7811    84.601967 
   18500    2106.1054   -107.96716    1.9056484   -106.06151   -21828.696    4.3673563    4.3673563    4.3673563   -21828.696   -42484.812   -14074.378   -8926.8974    15618.111    2377.9292    11894.628    83.302084 
   18600    1130.1887   -107.11139    1.0226185   -106.08877   -1296.2535    4.3525119    4.3525119    4.3525119   -1296.2535   -19372.575   -30145.082    45628.896    47675.037   -454.08435    10353.938    82.455551 
   18700    1850.4597   -107.79814    1.6743348   -106.12381    27730.897    4.3726539    4.3726539    4.3726539    27730.897   -24838.212    66032.587    41998.315   -19354.672     7411.909   -4088.8884    83.605587 
   18800    1517.7392    -107.4861    1.3732823   -106.11282   -43252.655    4.3957034    4.3957034    4.3957034   -43252.655   -17328.655   -94704.977   -17724.333    35541.828    -7347.942    2911.3031    84.934697 
   18900    1361.2656   -107.31417    1.2317017   -106.08247    40534.005    4.3562434    4.3562434    4.3562434    40534.005   -18354.812    14862.566    125094.26    237.74833   -10851.295    3214.2191    82.667809 
   19000    1639.8158   -107.58182    1.4837398   -106.09808    12757.255     4.360903     4.360903     4.360903    12757.255    26343.456    10912.801    1015.5093     11179.83    19680.228   -4982.7929    82.933364 
   19100    1392.2079   -107.35435     1.259699   -106.09465   -24159.056    4.3868822    4.3868822    4.3868822   -24159.056   -17810.037   -66256.134    11589.002    13119.036   -4389.2547    8179.7402    84.424386 
   19200    1780.4352   -107.68635    1.6109752   -106.07537    2592.8295    4.3819418    4.3819418    4.3819418    2592.8295     35403.29   -26947.944   -676.85834   -4059.4322    13167.374    5840.0371    84.139476 
   19300    1188.8532   -107.16711    1.0756994   -106.09141   -33234.678    4.3843303    4.3843303    4.3843303   -33234.678   -51073.173   -68856.003    20225.143    34562.406    4604.6133   -7180.4814    84.277143 
   19400    1484.1019   -107.42974    1.3428466    -106.0869    11545.092    4.3633003    4.3633003    4.3633003    11545.092    43458.216    989.09634   -9812.0352   -2701.1802   -9885.1218    16288.076    83.070211 
   19500    1814.3668   -107.74243    1.6416772   -106.10076    16620.546    4.3623506    4.3623506    4.3623506    16620.546    1040.9339   -29500.045    78320.749    31483.162    12427.419    7127.0238    83.015982 
   19600    1316.3855   -107.30941    1.1910932   -106.11832   -11048.718    4.3794701    4.3794701    4.3794701   -11048.718     39712.06   -44803.834    -28054.38    13661.504   -3803.8163    17442.415     83.99718 
   19700    1935.1379   -107.84667    1.7509534   -106.09572   -504.98348    4.3786572    4.3786572    4.3786572   -504.98348   -17184.695    -22242.76    37912.505   -548.39698   -3099.1304   -4245.9403    83.950415 
   19800    1473.9316   -107.42969    1.3336443   -106.09605   -31314.845    4.3827285    4.3827285    4.3827285   -31314.845   -21483.124   -77353.508    4892.0975    42458.151   -2863.8984    21003.794    84.184803 
   19900    1765.5628   -107.68443    1.5975184   -106.08691    2116.9612    4.3673016    4.3673016    4.3673016    2116.9612    12566.621   -16010.886    9795.1487   -11385.994     572.5138    18568.367    83.298953 
   20000    1592.2469   -107.54832    1.4406984   -106.10762    3809.7311    4.3623341    4.3623341    4.3623341    3809.7311    10891.813   -33234.917    33772.297    47005.469   -8352.0514   -1830.1965    83.015035 
   20100    1823.8299   -107.78329    1.6502396   -106.13305   -18790.724     4.383513     4.383513     4.383513   -18790.724   -1166.5788   -49150.577   -6055.0155   -2793.9811    12999.695    14070.691    84.230017 
   20200    1114.1983   -107.12351      1.00815   -106.11536   -19923.663    4.3961467    4.3961467    4.3961467   -19923.663   -26658.527   -57102.066    23989.605    23231.349   -379.24004   -8436.5127    84.960396 
   20300    1772.3365    -107.6863    1.6036473   -106.08265   -7578.2501    4.3729251    4.3729251    4.3729251   -7578.2501    5158.7106   -45031.136    17137.675    28722.117    2092.2184    411.08724    83.621147 
   20400    1960.1699   -107.86906    1.7736029   -106.09546    2907.7003    4.3607178    4.3607178    4.3607178    2907.7003    31070.977   -20722.386   -1625.4904    3341.0288   -2992.5638    8183.5537    82.922799 
   20500    1229.4179    -107.2643    1.1124032    -106.1519   -14617.507    4.3733264    4.3733264    4.3733264   -14617.507   -29275.187   -44215.613    29638.279    25640.271   -20608.441   -10218.627    83.644169 
   20600     1298.867    -107.3213    1.1752422   -106.14606    23468.825    4.3786125    4.3786125    4.3786125    23468.825    22422.891   -37016.401    84999.985   -10941.148    10632.689    1909.3859    83.947842 
   20700    1617.2721   -107.60306    1.4633418   -106.13972   -31791.126    4.3778838    4.3778838    4.3778838   -31791.126   -40234.936   -68031.479    12893.038    27780.697    26586.388   -15.450677    83.905937 
   20800    1921.9106   -107.87283    1.7389851   -106.13384   -22566.832    4.3696026    4.3696026    4.3696026   -22566.832   -22198.383   -55990.277    10488.164   -8833.8147   -17277.403   -29135.397    83.430688 
   20900    1962.0131   -107.91631    1.7752707   -106.14104   -14482.762    4.3602548    4.3602548    4.3602548   -14482.762   -6305.1158   -35125.454   -2017.7158    15390.335    27196.479   -441.49783    82.896385 
   21000    1891.5892   -107.87428    1.7115497   -106.16273   -28081.583    4.3668383    4.3668383    4.3668383   -28081.583   -34508.445    -43136.69   -6599.6128   -18.467324    548.37309   -754.66343    83.272446 
   21100    1529.1276   -107.53211    1.3835868   -106.14852    4510.6301    4.3777012    4.3777012    4.3777012    4510.6301    7251.6943   -56189.435    62469.631   -3345.5596    9516.7026   -15584.606    83.895438 
   21200    1327.0858   -107.33508    1.2007751   -106.13431    -6126.686    4.3801268    4.3801268    4.3801268    -6126.686    -34215.03   -56315.235    72150.207    13261.147    32503.521    12195.486    84.034967 
   21300    2164.2324   -108.07548     1.958243   -106.11724   -4560.7055    4.3658771    4.3658771    4.3658771   -4560.7055   -12286.552   -31600.654    30205.089   -12570.377   -2530.9655   -20553.247    83.217473 
   21400     1679.671   -107.65218    1.5198016   -106.13238    24538.927    4.3491779    4.3491779    4.3491779    24538.927    71841.405    -13895.51    15670.888    12787.754    20526.152    6626.9966    82.266218 
   21500    1218.8173   -107.27076    1.1028115   -106.16795   -13498.428    4.3677346    4.3677346    4.3677346   -13498.428   -8097.7921   -31256.186    -1141.305   -16013.714    21270.579    6727.3278    83.323737 
   21600       1692.2   -107.65854    1.5311381    -106.1274    22764.046    4.3852604    4.3852604    4.3852604    22764.046    34014.668   -17565.352    51842.823    10600.469   -15540.405    -9641.158    84.330787 
   21700    1594.8741   -107.55423    1.4430756   -106.11115   -55513.985    4.3824236    4.3824236    4.3824236   -55513.985   -64079.928   -54844.407    -47617.62   -10288.385    49093.455    12544.051    84.167233 
   21800    1236.5848   -107.21888    1.1188879   -106.09999   -2346.1769    4.3607381    4.3607381    4.3607381   -2346.1769   -24100.357   -22727.098    39788.925   -18786.528     15423.67   -6811.2694    82.923958 
   21900    2089.9162   -107.98257    1.8910001   -106.09157    17757.222    4.3445898    4.3445898    4.3445898    17757.222    27410.797     18016.98    7843.8892    2168.7488   -25630.868    15277.779    82.006133 
   22000    1246.7962   -107.27624    1.1281274   -106.14811   -24087.539    4.3684795    4.3684795    4.3684795   -24087.539   -41394.689   -18132.431   -12735.496   -36170.129    41917.716    4905.6515    83.366373 
   22100    1715.2434   -107.68506    1.5519882   -106.13307    -20012.23    4.3803704    4.3803704    4.3803704    -20012.23   -10883.649   -40875.957   -8277.0852    4209.3566   -27576.208    3138.0953    84.048994 
   22200    1693.4847   -107.65531    1.5323005   -106.12301   -23648.249    4.3702261    4.3702261    4.3702261   -23648.249   -16507.516    -5595.495   -48841.736   -3740.4718   -32914.297    697.08895    83.466408 
   22300    1315.7359   -107.29791    1.1905055    -106.1074    8387.8008    4.3542478    4.3542478    4.3542478    8387.8008    6462.2246    5878.3156    12822.862   -8883.4113    30737.583    3764.9823    82.554247 
   22400    1738.2592   -107.68695    1.5728135   -106.11413    -12885.11    4.3620262    4.3620262    4.3620262    -12885.11    17524.432   -5306.2113   -50873.552    4064.6866   -66303.214   -12583.213    82.997463 
   22500    1674.6711   -107.62399    1.5152776   -106.10871   -4730.8386    4.3747569    4.3747569    4.3747569   -4730.8386    874.61824   -27927.556    12860.422   -5234.1735    14203.083    4951.2874    83.726273 
   22600    1501.7552   -107.45762    1.3588197    -106.0988   -9962.6966    4.3735972    4.3735972    4.3735972   -9962.6966    41945.884   -22318.926   -49515.048   -6286.4553     -8995.51   -6078.9203    83.659707 
   22700    1158.2094     -107.159    1.0479722   -106.11103   -27414.314    4.3644577    4.3644577    4.3644577   -27414.314   -50773.021   -16860.797   -14609.123    12165.193   -60631.305    4975.9316    83.136332 
   22800    1993.4221    -107.9029    1.8036902   -106.09921    14543.147    4.3340353    4.3340353    4.3340353    14543.147    10567.839    3750.2561    29311.344    1068.1736    30567.362    6583.0475    81.409923 
   22900    1455.1418   -107.44951    1.3166429   -106.13287   -20837.451    4.3529364    4.3529364    4.3529364   -20837.451   -37151.166    13188.567   -38549.755    476.41926   -46693.761   -403.95171     82.47968 
   23000    1344.0485   -107.33898    1.2161233   -106.12286   -33589.099    4.3714418    4.3714418    4.3714418   -33589.099   -53086.178   -36123.709   -11557.409    39172.474   -21419.676    9196.3235    83.536083 
   23100     1833.391   -107.75226    1.6588907   -106.09337    220.95802    4.3688649    4.3688649    4.3688649    220.95802    4494.4596   -6413.7763    2582.1907   -7928.6402    2753.3012    2530.4105    83.388441 
   23200    1337.2283   -107.31207    1.2099522   -106.10211   -49051.839    4.3685963    4.3685963    4.3685963   -49051.839   -93635.648   -35030.309    -18489.56    37686.611   -35432.611    115.25079    83.373059 
   23300    1741.6429   -107.67768    1.5758751    -106.1018    14753.373    4.3458341    4.3458341    4.3458341    14753.373    1384.6947   -8630.3659     51505.79    21662.795   -10934.786    7375.9515    82.076612 
   23400     1808.623   -107.75566    1.6364801   -106.11918    5212.6942    4.3514899    4.3514899    4.3514899    5212.6942    7962.4955   -23207.595    30883.182    9215.4915   -3228.4171     4930.741    82.397481 
   23500    1117.9928   -107.14623    1.0115834   -106.13464   -56118.256    4.3746657    4.3746657    4.3746657   -56118.256   -106677.19   -53337.421   -8340.1594    63864.326   -22607.085    8726.1053    83.721042 
   23600    2130.0596   -108.02921    1.9273227   -106.10189    3138.3742    4.3689589    4.3689589    4.3689589    3138.3742   -8504.8371   -13184.963    31104.923   -23028.867    10792.114    5241.2519    83.393821 
   23700    1405.0852   -107.37301    1.2713506   -106.10166    -5481.815    4.3633121    4.3633121    4.3633121    -5481.815   -52074.946    8378.5048    27250.996    46268.748   -3011.6125    3643.3537    83.070884 
   23800    1427.7816   -107.39521    1.2918868   -106.10332   -8383.5737    4.3612939    4.3612939    4.3612939   -8383.5737   -75623.797    19844.864    30628.212     3601.346   -7088.8242    -15900.28    82.955668 
   23900    1695.8363   -107.64168    1.5344283   -106.10726   -516.29167    4.3654017    4.3654017    4.3654017   -516.29167   -51652.179    1966.3156    48136.989   -8071.8423    15689.288   -19279.016    83.190288 
   24000    1748.5774   -107.67139    1.5821496   -106.08924   -9204.2961    4.3796842    4.3796842    4.3796842   -9204.2961   -60261.806    5832.9563    26815.961    27941.731   -7777.1635   -15853.982    84.009501 
   24100    1200.4731   -107.17386    1.0862133   -106.08765    11848.288    4.3728299    4.3728299    4.3728299    11848.288   -52902.044    3857.8974    84589.009   -22590.986    6150.6239   -15232.267    83.615684 
   24200    1490.7094   -107.42209    1.3488252   -106.07326    19767.425     4.355967     4.355967     4.355967    19767.425   -9153.7842   -13492.578    81948.636    7361.9543    7540.7812   -9797.6158     82.65207 
   24300    1407.8182   -107.36332    1.2738235    -106.0895   -483.23207    4.3636304    4.3636304    4.3636304   -483.23207   -43672.913    2834.6286    39388.588   -9779.8923   -33218.392    11867.177    83.089066 
   24400    1954.3546   -107.85943    1.7683411   -106.09109   -27782.771    4.3757812    4.3757812    4.3757812   -27782.771   -39163.701   -67460.512    23275.899   -3265.4189    3264.3345   -3478.8155    83.785098 
   24500    1700.9082   -107.62522    1.5390175   -106.08621   -3739.9641    4.3656662    4.3656662    4.3656662   -3739.9641   -17718.564    23595.298   -17096.626   -3173.4843   -34052.659    8164.6087    83.205415 
   24600    1247.6373   -107.22481    1.1288885   -106.09592   -4127.0512    4.3681972    4.3681972    4.3681972   -4127.0512   -64043.458   -13551.573    65213.877   -4638.2379   -14540.738     3101.896    83.350214 
   24700    2343.1793   -108.20081    2.1201579   -106.08066   -347.08675    4.3640627    4.3640627    4.3640627   -347.08675   -12115.654   -41224.812    52299.205        17386    20860.738    11709.699    83.113765 
   24800     807.3083   -106.83524   0.73046951   -106.10477    25238.229    4.3533123    4.3533123    4.3533123    25238.229   -12810.073    78065.311     10459.45   -25135.772   -56410.697    3465.9673    82.501048 
   24900    2236.3486   -108.11522    2.0234952   -106.09172    10537.971    4.3667863    4.3667863    4.3667863    10537.971   -31719.209    22835.499    40497.624   -572.23685     19891.27    5112.0888    83.269473 
   25000    1210.0646   -107.19681    1.0948919   -106.10192   -7465.9939    4.3774488    4.3774488    4.3774488   -7465.9939   -40055.654    12259.154    5398.5191   -10639.408   -56354.486    7238.7741    83.880925 
   25100    1829.7666    -107.7319    1.6556113   -106.07629    19570.286       4.3751       4.3751       4.3751    19570.286    -19308.83    -714.2328     78733.92   -7185.2842    4279.1291   -10320.028    83.745977 
   25200    1127.3368    -107.0997     1.020038   -106.07966   -8927.9427    4.3719431    4.3719431    4.3719431   -8927.9427   -87774.484    30015.551    30975.105   -5613.3766   -38659.303   -15183.588    83.564822 
   25300    1724.0836   -107.64733    1.5599871   -106.08735   -28348.011    4.3514301    4.3514301    4.3514301   -28348.011   -72118.998    -4807.301   -8117.7346    -28280.15   -44466.777   -14937.611    82.394084 
   25400    2015.0332   -107.92988    1.8232444   -106.10664    26571.403    4.3580492    4.3580492    4.3580492    26571.403   -30756.516    38470.199    72000.525     10819.04    8290.0759    13380.153    82.770654 
   25500     538.5168   -106.61878   0.48726132   -106.13152   -20846.659    4.3917904    4.3917904    4.3917904   -20846.659   -130327.69    16741.159    51046.557   -14500.499    -60190.98    12433.032    84.708077 
   25600    2160.1812   -108.03309    1.9545773   -106.07851     424.4695    4.3740526    4.3740526    4.3740526     424.4695   -16043.507   -19234.893    36551.808   -5377.7349    12321.153    18939.944    83.685843 
   25700    1225.2421   -107.18159    1.1086248   -106.07297     20493.74    4.3503933    4.3503933    4.3503933     20493.74    57985.889    22066.005   -18570.675    5980.1767   -49201.349    2156.8784    82.335202 
   25800    2082.1589   -107.97565    1.8839812   -106.09167   -32008.079    4.3741108    4.3741108    4.3741108   -32008.079   -34203.441   -32776.772   -29044.025    -23114.58    8240.8639    1645.0027    83.689184 
   25900    1865.1625    -107.7625    1.6876382   -106.07487    4043.1522    4.3773123    4.3773123    4.3773123    4043.1522    46685.972    -4976.315     -29580.2    11958.542   -13029.292    9543.7431    83.873082 
   26000    1068.1733    -107.0619   0.96650566   -106.09539    -10316.08    4.3785132    4.3785132    4.3785132    -10316.08   -69337.818   -20192.011     58581.59    -12675.93   -41196.961    -8095.095    83.942129 
   26100    2204.1184   -108.05968    1.9943326   -106.06534      2577.06    4.3733267    4.3733267    4.3733267      2577.06   -6580.7521    22400.207   -8088.2743    2978.4842    6385.7673     13658.72    83.644185 
   26200    1289.3913   -107.22788    1.1666684   -106.06121   -16503.426    4.3631097    4.3631097    4.3631097   -16503.426   -27990.142   -8135.0987   -13385.038   -1849.0374   -63091.156   -5194.5552    83.059322 
   26300    1977.9118   -107.85302    1.7896562   -106.06336    2237.5705     4.376678     4.376678     4.376678    2237.5705    -32360.55    16575.458    22497.804   -16844.823    5461.9756   -7758.5763    83.836627 
   26400    1273.2683   -107.22784      1.15208   -106.07576   -14645.755    4.3801662    4.3801662    4.3801662   -14645.755   -12786.487    39882.402   -71033.178   -2232.0932   -57304.307    2903.2623    84.037238 
   26500    1911.1267    -107.7854    1.7292276   -106.05617    11125.401    4.3660249    4.3660249    4.3660249    11125.401    16340.536    18880.976   -1845.3089   -30371.459    4242.8898   -7944.5237    83.225921 
   26600     992.6149   -106.97497   0.89813882   -106.07683    7720.1443     4.367853     4.367853     4.367853    7720.1443   -1367.8308    68876.365   -44348.102   -14655.864   -43469.308   -10381.917     83.33051 
   26700    1726.9009   -107.63643    1.5625363   -106.07389   -6393.4324    4.3686809    4.3686809    4.3686809   -6393.4324    26688.207   -21800.897   -24067.607   -15552.757   -22548.917   -12772.736    83.377905 
   26800    1472.2222   -107.41695    1.3320976   -106.08485    10938.757    4.3729146    4.3729146    4.3729146    10938.757    31625.513    24659.013   -23468.256   -16572.998    -20682.14    10787.353    83.620542 
   26900    1553.3121   -107.48784    1.4054694   -106.08237   -13326.001    4.3831673    4.3831673    4.3831673   -13326.001   -47496.705     51757.57   -44238.868   -2491.4326   -46074.703   -8226.3534    84.210089 
   27000    2166.0213   -108.02047    1.9598616   -106.06061   -19448.286    4.3779973    4.3779973    4.3779973   -19448.286   -44228.919   -17750.485    3634.5456   -15084.717   -7286.7578    505.11332    83.912464 
   27100     1334.976   -107.27918    1.2079143   -106.07127   -1694.7295    4.3746775    4.3746775    4.3746775   -1694.7295   -31816.316    42579.924   -15847.796   -3145.4686   -52529.889   -13921.366    83.721718 
   27200    2127.6439   -107.98755     1.925137   -106.06241    14119.946    4.3752534    4.3752534    4.3752534    14119.946    3097.4298   -791.69004    40054.098   -12621.455    19343.966   -20106.413    83.754787 
   27300    1037.9848    -107.0302    0.9391905     -106.091     7296.514     4.370466     4.370466     4.370466     7296.514   -5096.0574     22611.26    4374.3394    -2121.903   -48424.743   -3937.4685    83.480152 
   27400    2322.7355   -108.17976    2.1016598    -106.0781   -1464.2548    4.3774863    4.3774863    4.3774863   -1464.2548    9290.9327   -8917.3646   -4766.3324   -6396.2461    7112.5616   -15403.552    83.883086 
   27500    1372.0639   -107.33154    1.2414722   -106.09007    -4347.199    4.3696514    4.3696514    4.3696514    -4347.199   -51025.654    30099.846    7884.2116   -5962.1009   -40318.879    1063.8415    83.433485 
   27600    1600.7446    -107.5312    1.4483873   -106.08281      15647.7    4.3663587    4.3663587    4.3663587      15647.7    14942.052    7178.6311    24822.415    7250.6245   -15867.234   -18202.236    83.245011 
   27700    1590.9212   -107.52364    1.4394989   -106.08414   -11397.784    4.3856314    4.3856314    4.3856314   -11397.784   -57613.336    45506.664    -22086.68    233.82181   -11145.372    3244.6012    84.352193 
   27800    1041.8542   -107.02114   0.94269158   -106.07845   -6541.5701    4.3737982    4.3737982    4.3737982   -6541.5701    1670.7649    -7105.459   -14190.016   -12916.732   -45231.412   -19650.917    83.671243 
   27900    2367.5573   -108.21144    2.1422156   -106.06922   -825.29476    4.3596993    4.3596993    4.3596993   -825.29476   -631.63705     -15911.5    14067.253    9121.3082    21077.211    9663.0492    82.864707 
   28000    997.66023   -107.00827   0.90270394   -106.10557     -14465.6    4.3667391    4.3667391    4.3667391     -14465.6   -8517.5001    25335.706   -60215.005    17331.516   -60393.966   -6689.9189    83.266772 
   28100    2018.4238   -107.92675    1.8263123   -106.10043   -3094.4509    4.3681394    4.3681394    4.3681394   -3094.4509    29373.644   -22565.691   -16091.305   -22644.994    5898.2637    -11856.65    83.346904 
   28200    1497.2916    -107.4589    1.3547809   -106.10412   -32228.244     4.390168     4.390168     4.390168   -32228.244   -25414.549   -23748.168   -47522.016    9842.4683   -34000.958     10130.56    84.614233 
   28300    1182.5859   -107.14618    1.0700285   -106.07615   -1038.9972    4.3816482    4.3816482    4.3816482   -1038.9972    26801.818   -14876.394   -15042.416    7761.1576    -33312.22   -13812.864    84.122565 
   28400    1842.5948   -107.72642    1.6672185    -106.0592    12616.287    4.3522703    4.3522703    4.3522703    12616.287   -25698.039   -12757.009    76303.909   -21329.299   -4177.9039    16854.735    82.441819 
   28500    1292.5936   -107.27775    1.1695659   -106.10818      9248.07    4.3529112    4.3529112    4.3529112      9248.07    6130.6876    26782.526   -5169.0035     1044.604   -59426.868    403.82317    82.478246 
   28600    1823.1437   -107.77339    1.6496187   -106.12377    3861.2362    4.3800314    4.3800314    4.3800314    3861.2362   -21913.801   -18270.884    51768.394    2951.8387    24812.134    15541.021    84.029478 
   28700    813.21639   -106.84944   0.73581528   -106.11363   -45735.739    4.3922227    4.3922227    4.3922227   -45735.739    -85016.38    28539.984   -80730.821   -14195.183   -74176.942    4309.9653    84.733094 
   28800    2288.0258   -108.14665    2.0702538    -106.0764   -10397.287     4.352411     4.352411     4.352411   -10397.287   -21781.644    1748.8608   -11159.078    21066.685   -1899.5749    7261.6512    82.449817 
   28900    1189.8919    -107.1759    1.0766392   -106.09926    14506.154    4.3484218    4.3484218    4.3484218    14506.154   -16977.123    65025.495   -4529.9096   -19779.024   -36738.191    5497.1492    82.223318 
   29000     1618.404   -107.58121     1.464366   -106.11684   -36920.195    4.3685822    4.3685822    4.3685822   -36920.195   -64134.078    10353.134   -56979.642   -117.64148   -45527.346    -14207.22    83.372252 
   29100    1647.2328   -107.59722    1.4904509   -106.10677    1774.1494    4.3856315    4.3856315    4.3856315    1774.1494   -30150.875    3293.5891    32179.734   -3096.6737    6929.4959    17955.179    84.352197 
   29200    1136.4751   -107.12172    1.0283065   -106.09341   -27112.994    4.3854876    4.3854876    4.3854876   -27112.994   -89544.362     42216.07   -34010.689    -1492.031   -75273.522    20833.477    84.343899 
   29300    1724.3702   -107.61945    1.5602464    -106.0592    44560.471    4.3537158    4.3537158    4.3537158    44560.471    11145.523    35672.536    86863.355     14737.62    9408.4357    1747.9534    82.523994 
   29400    1234.5314   -107.21563      1.11703    -106.0986   -15661.587    4.3690911    4.3690911    4.3690911   -15661.587   -69930.436    50690.077   -27744.403    -6541.376   -77845.844   -2731.1169    83.401395 
   29500    1914.6318    -107.8028    1.7323991    -106.0704   -19255.853    4.3860437    4.3860437    4.3860437   -19255.853   -24534.592   -29585.252   -3647.7134    1514.4271   -232.79821   -26456.484    84.375985 
   29600    1290.9776   -107.23657    1.1681036   -106.06846    4465.5948    4.3732389    4.3732389    4.3732389    4465.5948    17232.257    12371.627     -16207.1     17599.64   -37617.383   -20195.651    83.639149 
   29700    1626.8672   -107.54835    1.4720236   -106.07632   -2571.5297    4.3782598    4.3782598    4.3782598   -2571.5297   -33070.369   -4205.2233    29561.004   -17016.718   -4910.5854    -6649.463    83.927556 
   29800    1227.0978    -107.1938    1.1103039   -106.08349    6619.4767    4.3770105    4.3770105    4.3770105    6619.4767    25008.852    -25648.84    20498.418    5013.9293    4019.9242    -14037.28    83.855731 
   29900    1418.5254    -107.3677    1.2835116   -106.08419    7170.0259    4.3740929    4.3740929    4.3740929    7170.0259    30979.195   -6301.5152   -3167.6019   -11585.582   -23295.305    612.76173    83.688159 
   30000    2101.8641   -107.98344    1.9018108   -106.08162    8874.2072    4.3749824    4.3749824    4.3749824    8874.2072    13174.773   -40135.893    53583.741   -6731.5318    12046.671    1759.0383    83.739222 
   30100    1023.3751   -107.03325   0.92597128   -106.10727   -22423.266     4.377671     4.377671     4.377671   -22423.266     3767.479   -6136.4729   -64900.805    1197.6651   -41803.544   -8011.9858    83.893704 
   30200    2135.9144   -108.02127    1.9326202   -106.08865    -9294.756    4.3656701    4.3656701    4.3656701    -9294.756   -28266.829   -3557.7748    3940.3355   -1346.2593   -5223.0972    5165.7603    83.205635 
   30300    1640.5681   -107.57955    1.4844205   -106.09513    21973.442    4.3597971    4.3597971    4.3597971    21973.442    45448.893    31660.798   -11189.365    -3461.495   -17723.929    5738.8899    82.870283 
   30400    1000.3959   -107.02263   0.90517921   -106.11746   -15167.281    4.3786806    4.3786806    4.3786806   -15167.281   -35627.558   -12151.642    2277.3557    8475.0799   -37290.278   -19753.866    83.951757 
   30500    2384.0654   -108.23693    2.1571525   -106.07978    -14732.62    4.3753434    4.3753434    4.3753434    -14732.62   -17855.128   -40144.093     13801.36    10805.809    9670.0107    10097.841    83.759957 
   30600    1327.2965   -107.28526    1.2009658    -106.0843   -33150.361    4.3723149    4.3723149    4.3723149   -33150.361   -41453.703    -16639.36   -41358.019    6220.1191   -57161.435   -15944.728    83.586143 
   30700    2146.0983   -108.01472    1.9418348   -106.07288   -18592.239    4.3765444    4.3765444    4.3765444   -18592.239   -20465.251   -53691.766    18380.298    19593.915    9285.5467   -7496.8784    83.828951 
   30800    1771.4292    -107.6846    1.6028264   -106.08177   -25894.549     4.374905     4.374905     4.374905   -25894.549   -39923.313    -2902.501   -34857.832    8829.9674   -50575.917   -9273.2177    83.734781 
   30900    1295.8087    -107.2724    1.1724749   -106.09992    10724.439    4.3762809    4.3762809    4.3762809    10724.439    27751.535   -4064.4216    8486.2046    2685.8029   -18677.246   -18758.231    83.813809 
   31000    2002.1807   -107.90777    1.8116152   -106.09615    26978.849    4.3683975    4.3683975    4.3683975    26978.849    58399.243   -19233.083    41770.387    4725.9571   -9046.7438   -2857.2852    83.361677 
   31100    1105.8115   -107.11959    1.0005614   -106.11903    4293.9877    4.3641858    4.3641858    4.3641858    4293.9877    43642.536     -17024.6   -13735.973     13652.54   -47689.929   -2496.9746    83.120797 
   31200    2263.7206    -108.1511    2.0482619   -106.10284   -5610.2081     4.374523     4.374523     4.374523   -5610.2081   -12922.653   -40119.074    36211.102    6868.1022    18718.632   -5023.8011    83.712846 
   31300    1173.9042    -107.1708    1.0621732   -106.10863    1800.7837    4.3754226    4.3754226    4.3754226    1800.7837    64895.965   -17700.886   -41792.728   -1324.0766   -52286.262   -10516.387    83.764504 
   31400    1928.4291   -107.83413    1.7448831   -106.08925   -18495.112    4.3871363    4.3871363    4.3871363   -18495.112    3856.0384   -59416.325    74.951557    15147.887    11161.867   -3416.3902    84.439059 
   31500    1313.0684   -107.26051    1.1880919   -106.07241   -6084.7023    4.3793027    4.3793027    4.3793027   -6084.7023    28758.881   -19971.332   -27041.656     12062.47   -17545.746    22506.954    83.987548 
   31600    1349.3634   -107.29354    1.2209323   -106.07261    17598.568     4.359596     4.359596     4.359596    17598.568   -3829.3323    44645.257    11979.778    8781.5198    -32379.93    -15964.02    82.858821 
   31700    2132.2085   -108.00865    1.9292671   -106.07938    9795.9394    4.3680304    4.3680304    4.3680304    9795.9394    54817.362    -24771.62    -657.9241    -7646.944    16991.878    10696.061    83.340666 
   31800    1133.9534   -107.12182    1.0260248    -106.0958   -24422.643    4.3853527    4.3853527    4.3853527   -24422.643   -13978.159   -13249.198   -46040.574   -8637.6642   -54731.439    15048.992    84.336114 
   31900    2320.5676   -108.16007    2.0996983   -106.06037    -28218.88    4.3867361    4.3867361    4.3867361    -28218.88   -514.78444   -66372.022   -17769.834    -18426.15     13463.07   -29175.751    84.415953 
   32000    1322.7744   -107.25665    1.1968741   -106.05978   -10703.071    4.3778852    4.3778852    4.3778852   -10703.071   -27416.232    25738.317     -30431.3    5778.3707   -46561.379     6815.328    83.906019 
   32100    1596.8062   -107.51224    1.4448238   -106.06742    20689.346    4.3747171    4.3747171    4.3747171    20689.346    71739.303    2605.0363   -12276.301   -17541.815   -20285.566   -12488.395    83.723988 
   32200      1941.33   -107.83671    1.7565562   -106.08015   -14507.211    4.3706066    4.3706066    4.3706066   -14507.211   -21159.965   -1164.2213   -21197.445   -11411.015   -12025.487    583.22159    83.488212 
   32300    724.99921   -106.75404   0.65599452   -106.09805    34368.002    4.3554116    4.3554116    4.3554116    34368.002    111522.26    43189.971   -51608.229   -11491.979    -34231.28    11057.835    82.620463 
   32400    2384.5003   -108.25085     2.157546    -106.0933    2233.0226     4.365835     4.365835     4.365835    2233.0226   -6448.9218   -8146.0116    21294.001    -16592.28    7920.5931   -9446.8058    83.215065 
   32500     1099.666   -107.10179   0.99500092   -106.10679   -8083.2149    4.3754537    4.3754537    4.3754537   -8083.2149    26382.977    26618.248   -77250.869    100.15408   -39957.412    32156.644    83.766287 
   32600    1659.3594   -107.58814    1.5014232   -106.08671    20705.534    4.3725113    4.3725113    4.3725113    20705.534    13200.758    29659.716    19256.129   -6515.2543    4479.8293   -5943.7704    83.597411 
   32700     1842.023   -107.75063    1.6667011   -106.08393   -14381.874    4.3694258    4.3694258    4.3694258   -14381.874   -30893.911    4359.6986   -16611.411    10391.671   -27609.256   -6526.8621    83.420563 
   32800    1211.6331   -107.19528    1.0963111   -106.09896   -10571.857    4.3654346    4.3654346    4.3654346   -10571.857     14854.01   -9978.0188   -36591.562    1214.7769   -38033.438    19010.754    83.192171 
   32900    2134.7142   -108.02648    1.9315343   -106.09495    6400.0771    4.3725201    4.3725201    4.3725201    6400.0771   -30205.325    9657.9565      39747.6      1724.57    15049.046    -5254.777    83.597917 
   33000    1258.6229   -107.24526    1.1388284   -106.10643   -39854.827    4.3854266    4.3854266    4.3854266   -39854.827   -63546.515    17321.067   -73339.033    19916.755   -57967.136     1618.039    84.340374 
   33100    1516.2611   -107.45013    1.3719449   -106.07818    40539.608    4.3626195    4.3626195    4.3626195    40539.608    28122.921    40633.982     52861.92    8831.6398    24910.911    10559.158    83.031334 
   33200    1581.6135   -107.51885    1.4310772   -106.08777   -18089.255    4.3549615    4.3549615    4.3549615   -18089.255   -45592.128     44229.07   -52904.706   -3796.3281   -61697.744   -7322.1846    82.594846 
   33300    1711.2198   -107.64378    1.5483477   -106.09543   -5849.9745     4.370833     4.370833     4.370833   -5849.9745   -53689.182    29556.686    6582.5722     1908.563   -8772.1195    18609.907    83.501186 
   33400    1252.1951   -107.22292    1.1330124    -106.0899    20697.971    4.3735378    4.3735378    4.3735378    20697.971    32907.279    40542.225   -11355.592    27503.182   -23893.982    2907.4164    83.656298 
   33500    1652.3722   -107.56892    1.4951011   -106.07382    -11232.32    4.3734908    4.3734908    4.3734908    -11232.32    -2288.574    2115.7808   -33524.168    2530.4387   -34168.858   -9336.4606    83.653601 
   33600    2037.1063   -107.90058    1.8432166   -106.05737   -2409.2206    4.3644241    4.3644241    4.3644241   -2409.2206    13645.977   -38187.504    17313.865   -14615.126   -1068.4593    18393.467    83.134413 
   33700    1322.2348   -107.28088    1.1963858    -106.0845   -3070.7152    4.3598137    4.3598137    4.3598137   -3070.7152    15832.651    30824.234    -55869.03    13786.559   -54475.127   -3943.9378    82.871234 
   33800    1947.4776   -107.84947    1.7621187   -106.08735    34889.636    4.3618814    4.3618814    4.3618814    34889.636    23248.605     51339.52    30080.783    4323.6413     14065.48    11751.925    82.989195 
   33900    1148.0868   -107.15277    1.0388131   -106.11395   -39228.283    4.3834741    4.3834741    4.3834741   -39228.283   -13591.484     -12516.8   -91576.564   -14578.916   -38703.566   -2985.4783    84.227776 
   34000    1990.9785   -107.89241    1.8014792   -106.09093   -6868.1158    4.3701417    4.3701417    4.3701417   -6868.1158    11282.404   -13200.569   -18686.183   -234.94622   -11792.926      2310.63    83.461574 
   34100    1329.1359   -107.27775    1.2026301   -106.07512    66495.788    4.3302938    4.3302938    4.3302938    66495.788    58778.609    89656.835    51051.919    488.37646   -36132.035    10981.426    81.199262 
   34200    2040.4014   -107.95155    1.8461981   -106.10535   -8559.0033    4.3634932    4.3634932    4.3634932   -8559.0033    5164.8923   -884.25793   -29957.644    4747.5711   -33525.444   -9291.3448    83.081226 
   34300     1835.211   -107.72159    1.6605375   -106.06106   -18049.474    4.3875501    4.3875501    4.3875501   -18049.474   -27415.089    887.99753   -27621.331    -1570.437   -3364.6417   -2313.1498    84.462954 
   34400    1366.2484   -107.28204    1.2362102   -106.04583    9722.9339     4.381878     4.381878     4.381878    9722.9339   -27160.996    25271.799    31057.999    10607.613   -52738.751    16064.991    84.135801 
   34500    1928.3157   -107.78799    1.7447806    -106.0432   -5245.8664    4.3738409    4.3738409    4.3738409   -5245.8664    24456.005   -11661.278   -28532.326    11205.714    12897.744   -3286.2418    83.673695 
   34600    1381.8115   -107.30932    1.2502921   -106.05903    11394.011    4.3537938    4.3537938    4.3537938    11394.011   -11490.553    26636.709    19035.876    12467.552   -52030.224    4639.2272    82.528427 
   34700     1789.303   -107.69792     1.618999   -106.07892    2589.0755     4.372236     4.372236     4.372236    2589.0755    21095.979   -26652.834    13324.082   -6501.6351    7948.5692    5896.5013     83.58162 
   34800    737.18264   -106.76612   0.66701834    -106.0991   -11131.822    4.3754617    4.3754617    4.3754617   -11131.822    23823.531   -18988.212   -38230.785   -21371.346    -16239.01    6431.0501    83.766749 
   34900    2499.1188   -108.32684    2.2612552   -106.06559      4541.39     4.364617     4.364617     4.364617      4541.39    92.750047   -2605.9748    16137.395    26578.996   -10703.852    6320.7175    83.145434 
   35000      640.199   -106.67311   0.57926551   -106.09384   -7211.4405     4.375397     4.375397     4.375397   -7211.4405    32359.096    -42738.26   -11255.157   -13218.259    12587.882   -13363.041    83.763031 
   35100    1798.6561   -107.68951    1.6274619   -106.06205    1608.9418    4.3714092    4.3714092    4.3714092    1608.9418   -19096.616    27443.052   -3519.6108    1841.2343   -20064.603    7333.7895    83.534214 
   35200    1526.0195    -107.4475    1.3807745   -106.06673     6311.903    4.3594703    4.3594703    4.3594703     6311.903   -14643.266      31113.4    2465.5749    12950.821    19293.976   -5189.1412    82.851652 
   35300    1495.9129   -107.44898    1.3535334   -106.09544   -11221.613    4.3752232    4.3752232    4.3752232   -11221.613     37929.37    -26778.36   -44815.848   -13731.225   -15544.896   -6825.0255    83.753051 
   35400    1868.7649   -107.77913    1.6908977   -106.08823     14712.15    4.3695601    4.3695601    4.3695601     14712.15    -22302.57    70414.153   -3975.1331    16266.509   -12994.566    5797.4205    83.428254 
   35500    975.67269   -106.98889   0.88280916   -106.10608     24375.83    4.3611126    4.3611126    4.3611126     24375.83      82100.4   -10561.422    1588.5126    11404.523    25550.487   -13418.939    82.945324 
   35600    2405.2234   -108.27269    2.1762967   -106.09639   -8534.9613    4.3738772    4.3738772    4.3738772   -8534.9613   -35994.898    33598.065   -23208.051   -16837.217   -20153.782   -3037.8125    83.675777 
   35700    887.69491   -106.91081   0.80320501    -106.1076    20908.509    4.3629326    4.3629326    4.3629326    20908.509   -10173.561     72259.77    639.31803    25234.601    4596.9556    15898.394     83.04921 
   35800    2229.7982    -108.1143    2.0175683   -106.09674    8391.1331     4.374194     4.374194     4.374194    8391.1331     22764.73   -13444.618    15853.287   -1461.4422    7189.5969   -15506.138    83.693963 
   35900    1596.9005   -107.54001    1.4449091    -106.0951   -35624.585    4.3858428    4.3858428    4.3858428   -35624.585   -33134.088   -5929.6294   -67810.038   -5284.0926   -21979.985    21329.015    84.364394 
   36000    1424.9115   -107.36673    1.2892899   -106.07744    22543.064    4.3653076    4.3653076    4.3653076    22543.064    23070.863    39411.888    5146.4403    19067.248    13084.935   -907.72933    83.184911 
   36100    1990.1275   -107.87691    1.8007092    -106.0762   -4098.7714    4.3680277    4.3680277    4.3680277   -4098.7714    1713.9268   -16895.907    2885.6661   -13466.553   -22969.239    16697.406     83.34051 
   36200    1175.8921   -107.15771    1.0639719   -106.09374   -17861.193     4.379231     4.379231     4.379231   -17861.193   -24099.217   -22648.877   -6835.4843    15159.389    2738.0273    -3126.484    83.983424 
   36300    1920.1436   -107.80944    1.7373863   -106.07205    11871.463    4.3819588    4.3819588    4.3819588    11871.463    17766.232     28590.68   -10742.522    -3088.368   -11716.915     5913.471    84.140459 
   36400    1303.4396   -107.26382    1.1793795   -106.08444   -23724.023    4.3710089    4.3710089    4.3710089   -23724.023   -53253.948   -2029.4394   -15888.683    5161.3808    -14209.62    6837.1494    83.511266 
   36500    2056.5631   -107.93935    1.8608216   -106.07853    26841.182     4.366844     4.366844     4.366844    26841.182    66618.361    10843.316    3061.8684     17495.27   -2563.7815    535.74153    83.272775 
   36600    1014.1508     -107.016   0.91762494   -106.09838    -24283.94    4.3806656    4.3806656    4.3806656    -24283.94   -46266.889    -23389.44   -3195.4924   -50488.381   -16858.476    15764.016    84.065987 
   36700    2005.8854   -107.89191    1.8149672   -106.07694   -5054.2784    4.3672289    4.3672289    4.3672289   -5054.2784   -9101.5706   -15976.205    9914.9408    23856.824   -6792.5278   -7318.0215    83.294795 
   36800    1623.2285   -107.55363    1.4687313    -106.0849    23904.613    4.3602838    4.3602838    4.3602838    23904.613    23878.838    54856.538   -7021.5369   -17615.799   -2608.7718   -90.449677    82.898043 
   36900    1154.2533   -107.16217    1.0443927   -106.11778   -3365.9533    4.3737831    4.3737831    4.3737831   -3365.9533    6577.7168   -37277.095    20601.518   -25340.353   -16149.595    9693.1579    83.670377 
   37000    2464.5803   -108.32501    2.2300041     -106.095   -2328.9137    4.3799945    4.3799945    4.3799945   -2328.9137    9843.8688    7118.3043   -23948.914    4302.6197    3109.2849    -7003.961    84.027354 
   37100    979.79704    -106.9906   0.88654095   -106.10406     9812.721    4.3759306    4.3759306    4.3759306     9812.721   -7105.4763   -10237.265    46780.904   -15529.161   -3715.8969    2402.9618    83.793683 
   37200    2410.4374   -108.25122    2.1810144   -106.07021   -14798.871    4.3823698    4.3823698    4.3823698   -14798.871   -5246.0153   -23025.038   -16125.558     4158.506   -10962.544   -313.24017    84.164135 
   37300    1380.1758   -107.32956     1.248812   -106.08074    3903.6851    4.3655149    4.3655149    4.3655149    3903.6851   -17476.641    9945.7038    19241.993    7612.1501    13210.626   -16990.773    83.196763 
   37400    1704.8731   -107.63069     1.542605   -106.08808     3425.955    4.3556987    4.3556987    4.3556987     3425.955     45626.21   -10648.349   -24699.996    -21992.93   -23853.008    8044.1938    82.636798 
   37500     1718.569   -107.65766    1.5549973   -106.10266   -9100.1244    4.3743958    4.3743958    4.3743958   -9100.1244    -15631.42   -33012.227    21343.274    19557.077    2945.6534   -29612.724    83.705543 
   37600    1506.3466   -107.45905     1.362974   -106.09608   -18066.493    4.3817322    4.3817322    4.3817322   -18066.493    21654.763    -30088.45   -45765.793   -41684.399    3840.1087   -5075.4748    84.127408 
   37700     2056.008   -107.94089    1.8603192   -106.08057   -24431.502    4.3833005    4.3833005    4.3833005   -24431.502    -17833.67   -29482.004   -25978.832    18518.238   -7438.3197   -6330.1794    84.217771 
   37800    1644.1063   -107.56835    1.4876219   -106.08073   -14095.976    4.3653108    4.3653108    4.3653108   -14095.976   -11510.615   -20401.153   -10376.158    16027.775    18658.892   -20305.968    83.185092 
   37900    1482.7039   -107.42347    1.3415817   -106.08189     29427.37    4.3529243    4.3529243    4.3529243     29427.37    27975.584    78870.754    -18564.23   -9145.1006    3675.0052   -8121.5968    82.478989 
   38000    1923.7821   -107.85178    1.7406785    -106.1111   -53100.926     4.383461     4.383461     4.383461   -53100.926   -73430.516   -67035.041    -18837.22    55972.005   -3576.6024    1175.1477    84.227022 
   38100    1594.2904   -107.53454    1.4425474     -106.092   -594.85636    4.3813424    4.3813424    4.3813424   -594.85636   -26323.151    37827.691   -13289.109   -7426.9032    14059.898   -20646.173    84.104956 
   38200    1616.2764   -107.54811    1.4624408   -106.08567    4730.2557    4.3578013    4.3578013    4.3578013    4730.2557   -55901.786    2281.4434    67811.109    39929.246    14219.675    4038.2773    82.756527 
   38300    1691.5398   -107.63069    1.5305407   -106.10014     27721.37    4.3635157    4.3635157    4.3635157     27721.37    9109.9718    42045.867     32008.27    1755.7774   -14604.822   -9811.8079    83.082514 
   38400    1294.4232   -107.28916    1.1712213   -106.11794   -18796.192    4.3821326    4.3821326    4.3821326   -18796.192   -68559.481   -38766.109    50937.014    21145.355    21388.777   -6174.5793    84.150469 
   38500    1150.6529   -107.15341    1.0411349   -106.11227   -7588.6587    4.3847914    4.3847914    4.3847914   -7588.6587   -42597.622     2555.508    17276.138    22182.262   -5786.6082    183.09186    84.303731 
   38600    2074.4129   -107.96176    1.8769723   -106.08479   -167.21381     4.371147     4.371147     4.371147   -167.21381   -12163.459   -12486.445    24148.263   -14299.527   -30695.368    5331.9128    83.519182 
   38700    927.93235   -106.93997   0.83961269   -106.10036    11975.196    4.3636407    4.3636407    4.3636407    11975.196    7715.5379   -22164.479    50374.529    21964.105     1234.841   -13510.642    83.089653 
   38800    1590.8804   -107.55103     1.439462   -106.11157   -746.65735    4.3670243    4.3670243    4.3670243   -746.65735   -534.70329    5322.9796   -7028.2484   -20881.773   -48366.829    7513.6547    83.283092 
   38900     1902.217   -107.83241    1.7211659   -106.11125   -6192.7876    4.3808304    4.3808304    4.3808304   -6192.7876   -29908.035   -11271.047     22600.72    23854.913   -11550.126    -1569.666    84.075474 
   39000     1417.049   -107.39745    1.2821757   -106.11527   -6809.2433    4.3712703    4.3712703    4.3712703   -6809.2433   -10185.156   -14621.838    4379.2642    4855.1731   -3488.9548   -9508.5508     83.52625 
   39100    1387.3335   -107.37261    1.2552885   -106.11733   -1563.3836    4.3641989    4.3641989    4.3641989   -1563.3836   -39249.185    33981.761    577.27358   -11496.301    -13405.83    4773.0864    83.121544 
   39200    2081.2884   -107.99782    1.8831935   -106.11463    17927.468    4.3578479    4.3578479    4.3578479    17927.468     33948.68   -22168.392    42002.115    3270.3161    19299.988   -20758.651    82.759187 
   39300      1135.85   -107.17048    1.0277409   -106.14274    25442.508    4.3649128    4.3649128    4.3649128    25442.508   -12954.949    31109.128    58173.346   -1337.2987   -12594.299    4073.7187    83.162342 
   39400    1278.8747   -107.28904    1.1571527   -106.13188   -33169.949    4.3922954    4.3922954    4.3922954   -33169.949    -25554.68   -30006.049   -43949.118   -14251.309    13751.425    3892.5524    84.737302 
   39500    2527.4587   -108.39656    2.2868978   -106.10966   -18506.387    4.3684043    4.3684043    4.3684043   -18506.387    -25917.29   -33020.428    3418.5562    4670.4418     9309.021   -18237.968     83.36207 
   39600    1173.7381   -107.17759    1.0620229   -106.11556    45640.597    4.3302696    4.3302696    4.3302696    45640.597    55414.434    69521.691    11985.666   -19471.588   -34430.606   -203.17812    81.197903 
   39700    1264.5309   -107.30568    1.1441741   -106.16151    6131.3729    4.3487862    4.3487862    4.3487862    6131.3729    31721.955   -759.29085   -12568.545   -4102.9962    28092.413   -7733.2063    82.243991 
   39800    1964.4935   -107.92505     1.777515   -106.14754   -18436.921    4.3860008    4.3860008    4.3860008   -18436.921   -24391.316   -5078.4158    -25841.03    2698.7191   -7940.9072   -5675.0919    84.373512 
   39900    1573.0567   -107.55047    1.4233348   -106.12714   -50208.358    4.3904362    4.3904362    4.3904362   -50208.358   -52658.151   -42116.303    -55850.62   -24235.793    3348.3294    3432.1543    84.629744 
   40000    825.19745    -106.8748     0.746656   -106.12814   -19678.323    4.3584611    4.3584611    4.3584611   -19678.323   -34097.943   -7729.1386   -17207.886    37816.357    36840.237    2058.2549    82.794125 
   40100    2667.7903   -108.50658    2.4138727   -106.09271    16209.721    4.3269849    4.3269849    4.3269849    16209.721    12694.271    540.90826    35393.983   -7899.7777   -8641.2371   -3554.4593    81.013263 
   40200    1182.9999   -107.22546    1.0704031   -106.15505    16947.305    4.3536076    4.3536076    4.3536076    16947.305   -6672.0751    33800.791    23713.201   -2883.6908    39635.795   -5345.8796    82.517842 
   40300    1343.4014    -107.3607    1.2155378   -106.14516   -39313.099    4.3880698    4.3880698    4.3880698   -39313.099   -66333.426   -40802.178   -10803.693    12602.563   -4119.4514    1546.8075    84.492971 
   40400    1688.4065   -107.62583    1.5277057   -106.09812   -7099.5667     4.393244     4.393244     4.393244   -7099.5667   -8714.6476   -11657.002   -927.05037   -2438.7706   -4256.2487    -5431.721    84.792211 
   40500    1535.2414   -107.47577    1.3891187   -106.08665    -19860.85    4.3662812    4.3662812    4.3662812    -19860.85   -43744.531   -31903.087    16065.069    11812.955    34920.162   -2955.6024    83.240582 
   40600    1124.5036   -107.11061    1.0174745   -106.09313    26549.575    4.3434778    4.3434778    4.3434778    26549.575    55999.894    2677.9259    20970.904    4954.4268   -26930.728    7192.1338     81.94318 
   40700     2179.849   -108.09044    1.9723732   -106.11807    6125.1587    4.3561154    4.3561154    4.3561154    6125.1587   -19735.286    3597.4491    34513.313    2369.1302   -21692.111    2496.5528    82.660517 
   40800    1237.1884   -107.25318    1.1194341   -106.13375   -4463.2949    4.3789232    4.3789232    4.3789232   -4463.2949    35863.461   -47829.513   -1423.8327    17457.719    15262.584   -10633.805    83.965715 
   40900    1668.9815   -107.62719    1.5101295   -106.11706   -42384.197    4.3744202    4.3744202    4.3744202   -42384.197   -70592.099   -21221.967   -35338.526   -8530.3781    -55745.34    20668.405    83.706946 
   41000    1793.0382   -107.72113    1.6223786   -106.09876    45687.731    4.3488355    4.3488355    4.3488355    45687.731     86261.78   -22479.718    73281.132    12312.329   -2766.9508    8938.3281    82.246785 
   41100    1808.3986   -107.75787    1.6362771   -106.12159   -881.75227    4.3514233    4.3514233    4.3514233   -881.75227   -31604.547   -9824.0749    38783.365    16414.018   -11596.754    5246.8573    82.393699 
   41200    1111.6063   -107.15331    1.0058048   -106.14751    13709.058    4.3686942    4.3686942    4.3686942    13709.058    43861.226   -11820.346    9086.2938    3320.6368   -30040.315    7019.3301    83.378664 
   41300    1979.7376   -107.91347    1.7913082   -106.12216   -22138.208    4.3839764    4.3839764    4.3839764   -22138.208   -23046.061   -66048.689    22680.126    21300.924    9606.6161   -1823.1588    84.256733 
   41400    1482.1471   -107.44956    1.3410779   -106.10849     -7700.37    4.3649201    4.3649201    4.3649201     -7700.37   -22359.383   -18981.675    18239.948     5670.482   -31508.269     -1016.42    83.162763 
   41500    1691.8104   -107.63322    1.5307856   -106.10244    1314.0248    4.3550163    4.3550163    4.3550163    1314.0248    23818.637   -21822.987    1946.4246    10816.486    7760.5038    7780.2115    82.597968 
   41600    1594.5715   -107.55335    1.4428018   -106.11055   -2080.7482    4.3681236    4.3681236    4.3681236   -2080.7482   -8031.6954   -14054.223    15843.674    15769.665    1160.5699    414.85472    83.345999 
   41700    1284.6072    -107.2695    1.1623396   -106.10716    18241.618    4.3763802    4.3763802    4.3763802    18241.618   -6809.7735    22687.541    38847.087   -3413.5038   -31809.628    8784.2602    83.819512 
   41800    1776.5587   -107.69331    1.6074676   -106.08584    -40241.54    4.3911793    4.3911793    4.3911793    -40241.54   -50311.986   -71366.405    953.77184    9574.1264    29760.471     190.8299    84.672721 
   41900    1148.6479   -107.12448    1.0393208   -106.08516   -8456.5672    4.3690847    4.3690847    4.3690847   -8456.5672   -6017.5445   -4635.9207   -14716.236    8678.2517    -58864.81    2076.6722    83.401028 
   42000    2146.4136   -108.01421    1.9421201   -106.07209    -10152.82    4.3426845    4.3426845    4.3426845    -10152.82   -21320.189    5304.0238   -14442.294   -8994.8151    6695.2919    7236.5968    81.898292 
   42100    1254.0687   -107.25579    1.1347077   -106.12108   -2425.1362    4.3578626    4.3578626    4.3578626   -2425.1362    -7898.022   -33566.773    34189.386    21424.256    17487.113   -437.23207     82.76002 
   42200    1786.9457   -107.73876     1.616866    -106.1219   -17536.207     4.375255     4.375255     4.375255   -17536.207   -23287.377    -24667.93   -4653.3153   -9174.7795   -40206.163    14768.391    83.754877 
   42300     1166.582   -107.17332    1.0555479   -106.11777   -12116.147    4.3866772    4.3866772    4.3866772   -12116.147   -4816.5543   -26583.034   -4948.8539   -6437.0237    39125.993   -5091.9657    84.412551 
   42400     1627.056   -107.57592    1.4721944   -106.10373    1292.2088    4.3656324    4.3656324    4.3656324    1292.2088    38135.958   -27033.969   -7225.3631     22463.03   -22291.557    226.43106    83.203482 
   42500    1608.8332   -107.55579    1.4557061   -106.10009    13759.655    4.3438047    4.3438047    4.3438047    13759.655    24629.894   -10816.273    27465.344   -27025.623   -11587.013    6629.5252    81.961684 
   42600    1592.0598   -107.56727    1.4405291   -106.12674    4279.3453       4.3547       4.3547       4.3547    4279.3453    23045.068   -18681.111    8474.0787    686.46561    37793.862   -3042.1944    82.579972 
   42700    1526.8299   -107.51566    1.3815078   -106.13415    6036.7757    4.3829872    4.3829872    4.3829872    6036.7757    40367.387   -34431.804    12174.744    11502.156   -2186.4676    8638.4304    84.199712 
   42800    1657.2973   -107.60396    1.4995574   -106.10441   -35811.669    4.3904407    4.3904407    4.3904407   -35811.669   -36931.437   -65872.454   -4631.1162   -52941.512    8223.3802    5100.0245    84.630002 
   42900    1429.2382   -107.38059    1.2932047   -106.08738    3375.9192    4.3595766    4.3595766    4.3595766    3375.9192    23484.712   -28746.012    15389.058    33983.989    24046.322   -10327.298    82.857711 
   43000    1939.6811   -107.84059    1.7550642   -106.08553    17810.626    4.3430105    4.3430105    4.3430105    17810.626    24602.289   -5937.3061    34766.895   -21245.829   -15315.519    1411.7163    81.916736 
   43100    1314.0773   -107.32122    1.1890048   -106.13222     11350.99    4.3673362    4.3673362    4.3673362     11350.99   -1479.0924   -39226.459     74758.52    5411.3775   -10234.732    1872.1665    83.300933 
   43200    1352.9661   -107.32504    1.2241921   -106.10084   -19403.578    4.3983532    4.3983532    4.3983532   -19403.578   -43000.476   -72867.822    57657.565    37390.222   -994.85007   -5680.1974    85.088388 
   43300    2029.1179   -107.90037    1.8359885   -106.06438   -6864.6854    4.3737058    4.3737058    4.3737058   -6864.6854   -21026.797   -26678.657    27111.397   -30166.854   -2271.2826   -9135.5329    83.665944 
   43400    1326.6896   -107.26658    1.2004166   -106.06616    2644.8138    4.3427159    4.3427159    4.3427159    2644.8138   -23129.259    -33786.28     64849.98    52294.676    2548.7112    413.57225    81.900064 
   43500    1740.3416   -107.68138    1.5746977   -106.10668    10091.335    4.3470315    4.3470315    4.3470315    10091.335    700.31195    13868.224    15705.469    10367.221    33521.335    769.07856    82.144477 
   43600    1982.5479    -107.9214     1.793851   -106.12755   -15248.423     4.377773     4.377773     4.377773   -15248.423    8875.2219   -36247.318   -18373.173   -1756.2647   -22549.467    13749.137    83.899567 
   43700    946.00179   -106.97553    0.8559623   -106.11957   -30181.244    4.3793458    4.3793458    4.3793458   -30181.244   -21888.164   -37569.405   -31086.163    39162.647    12879.029    -10586.89    83.990027 
   43800    2211.9349   -108.08571    2.0014052   -106.08431    21879.756    4.3542274    4.3542274    4.3542274    21879.756     27625.45    11949.363    26064.453   -5936.5123    9084.3381    16816.464    82.553086 
   43900    1648.7811   -107.59465    1.4918518    -106.1028   -3828.0209    4.3510339    4.3510339    4.3510339   -3828.0209   -6437.1129   -15466.507    10419.558     7309.511   -4673.9367   -4144.3774    82.371583 
   44000    1170.8654   -107.18489    1.0594236   -106.12547    1561.8164    4.3545196    4.3545196    4.3545196    1561.8164   -1150.8965    8056.6643   -2220.3185    27876.537    14074.126    49.337343    82.569708 
   44100    1864.0631   -107.81055    1.6866435    -106.1239   -16232.755    4.3763822    4.3763822    4.3763822   -16232.755   -5284.4842   -48395.937     4982.155   -40400.446   -7724.4733    9543.1885     83.81963 
   44200    1697.7275   -107.63502    1.5361396   -106.09888    -19934.23    4.3759132    4.3759132    4.3759132    -19934.23   -30972.844   -35795.641    6965.7936    29022.248    11755.102   -15101.069    83.792685 
   44300    1671.0574   -107.60429    1.5120079   -106.09228    18390.558    4.3503956    4.3503956    4.3503956    18390.558    12249.688     47874.75   -4952.7636   -3376.6891    15591.152    14920.584    82.335333 
   44400    1889.2123    -107.8211     1.709399    -106.1117   -13890.337    4.3569116    4.3569116    4.3569116   -13890.337   -22637.612    -22105.43    3072.0319   -22591.301   -7825.4822   -22168.305    82.705853 
   44500    1618.9626   -107.58372    1.4648714   -106.11885    26359.893    4.3642005    4.3642005    4.3642005    26359.893    19372.719     8715.983    50990.977    21915.427    17154.337   -9475.4807    83.121639 
   44600    1642.6585    -107.6133    1.4863119   -106.12699   -17987.172    4.3758553    4.3758553    4.3758553   -17987.172   -22434.762   -11512.409   -20014.344   -24607.333    10645.587    -1170.772    83.789358 
   44700    1740.6878   -107.68776    1.5750109   -106.11275   -22576.762    4.3712394    4.3712394    4.3712394   -22576.762   -41018.558   -29728.018     3016.289   -16753.012     -31366.7   -11938.234    83.524478 
   44800     1505.749   -107.46109    1.3624333   -106.09865    64834.814    4.3388563    4.3388563    4.3388563    64834.814    96069.023    41443.498     56991.92    20734.845     48012.99    11990.119    81.681895 
   44900    1996.2729   -107.92668    1.8062697   -106.12041     7657.721    4.3521214    4.3521214    4.3521214     7657.721    5550.8852     2487.063    14935.215    -18232.26   -3018.2376   -8543.9395    82.433359 
   45000    1614.1229    -107.5666    1.4604923   -106.10611   -4985.9318    4.3792374    4.3792374    4.3792374   -4985.9318    26984.858   -8269.7956   -33672.858    7611.4652   -19219.975    3029.6911    83.983792 
   45100    1163.8847   -107.14564    1.0531074   -106.09254    20621.111    4.3773432    4.3773432    4.3773432    20621.111    17291.762    6752.4419     37819.13    13490.597    46357.115    5604.4737    83.874858 
   45200    2343.4382   -108.19307    2.1203921   -106.07267    15777.361    4.3623184    4.3623184    4.3623184    15777.361    23697.509   -7290.5871    30925.161   -9732.2405   -30079.688     9542.555    83.014144 
   45300    874.65534    -106.8897   0.79140654    -106.0983    33795.214    4.3494166    4.3494166    4.3494166    33795.214    42790.644    72919.945   -14324.948    26818.238    10012.951   -2171.8312    82.279762 
   45400    1825.1734   -107.76607    1.6514552   -106.11461    6477.4991    4.3701717    4.3701717    4.3701717    6477.4991    12709.542    -100.5298     6823.485    3931.8682    18647.285    16791.033     83.46329 
   45500    2389.3004   -108.25988    2.1618892   -106.09799   -24329.719    4.3774433    4.3774433    4.3774433   -24329.719    4428.8635    -28355.81   -49062.212    4816.2854    4208.0293    337.41539    83.880612 
   45600    729.86055    -106.7757   0.66039316   -106.11531    18181.573    4.3585359    4.3585359    4.3585359    18181.573    36033.183   -7956.2645    26467.799    12783.844    31177.177    7462.0249     82.79839 
   45700    1758.5873    -107.7183    1.5912068   -106.12709   -16976.624    4.3563581    4.3563581    4.3563581   -16976.624   -1911.1312   -50774.364     1755.622   -24509.031   -3122.1031    14963.415    82.674339 
   45800    1692.5994   -107.65448    1.5314995   -106.12298    49332.319    4.3569488    4.3569488    4.3569488    49332.319    62691.639   -889.97244     86195.29    1064.7713     7342.149   -3280.7994    82.707973 
   45900    1340.1592    -107.3538    1.2126042   -106.14119   -32504.523    4.3724176    4.3724176    4.3724176   -32504.523   -30492.725   -41912.205   -25108.639   -4823.4037    3470.2083    10500.948    83.592033 
   46000    1424.5102   -107.40579    1.2889268   -106.11686   -25559.291    4.3745485    4.3745485    4.3745485   -25559.291   -15202.048   -48786.016   -12689.809   -19202.869   -8124.8297    11473.171    83.714312 
   46100    2599.7274   -108.43996     2.352288   -106.08767     7395.682    4.3588558    4.3588558    4.3588558     7395.682    18865.417    13123.572   -9801.9432    184.84725    1401.5971   -4988.3381    82.816618 
   46200    952.83232    -106.9855   0.86214271   -106.12336    3618.9295    4.3608665    4.3608665    4.3608665    3618.9295    15567.556   -7479.0868    2768.3189   -24141.665     13486.28    24532.326    82.931279 
   46300    1844.0555   -107.78064    1.6685401    -106.1121   -23290.123    4.3714996    4.3714996    4.3714996   -23290.123   -31916.416   -27018.076   -10935.877   -11197.744   -11789.391   -17129.054    83.539398 
   46400    1718.3854   -107.65458    1.5548312   -106.09975   -6535.8699    4.3832524    4.3832524    4.3832524   -6535.8699     60450.96   -60414.885   -19643.685    1567.1446    5918.8269     17395.41    84.214994 
   46500    1379.8972   -107.35177      1.24856   -106.10321   -13164.206    4.3678918    4.3678918    4.3678918   -13164.206   -31151.828   -28213.339    19872.551   -24607.891   -5702.7136   -879.57064    83.332733 
   46600    1386.4896   -107.36007    1.2545249   -106.10554    13052.588    4.3397664    4.3397664    4.3397664    13052.588    24088.221     24155.45   -9085.9085      7824.41    5966.7028    5663.3759    81.733303 
   46700    1731.9401   -107.70022    1.5670958   -106.13312     9574.908    4.3465195    4.3465195    4.3465195     9574.908    33303.542   -39021.301    34442.483   -13879.335    11861.941    24986.734    82.115455 
   46800    1907.6626   -107.87093    1.7260933   -106.14484   -14288.395    4.3723285    4.3723285    4.3723285   -14288.395    10478.031   -20583.093   -32760.123   -19235.309   -26770.848   -13004.319    83.586926 
   46900    1332.3072   -107.33778    1.2054996   -106.13228   -16479.561    4.3749587    4.3749587    4.3749587   -16479.561    2489.2976   -28320.848   -23607.132    12644.281    5488.9343    29118.981    83.737865 
   47000    1451.5663   -107.44106    1.3134077   -106.12765    8391.6262    4.3521585    4.3521585    4.3521585    8391.6262     62155.71    -41065.26    4084.4293   -10368.612    11175.095    10612.451    82.435468 
   47100    1863.0705   -107.80776    1.6857453   -106.12201    33734.841    4.3385127    4.3385127    4.3385127    33734.841    60084.645   -1098.8885    42218.767   -11095.145    8874.6567   -25683.276     81.66249 
   47200    1683.0679   -107.66712    1.5228752   -106.14425    11542.005    4.3601823    4.3601823    4.3601823    11542.005    12033.854    4127.3069    18464.853    10353.326    18644.997    41920.114     82.89225 
   47300     1128.527   -107.14664     1.021115   -106.12552   -26131.941    4.3875054    4.3875054    4.3875054   -26131.941   -1338.6522   -61610.115   -15447.055   -15330.588    6156.5645   -32758.132    84.460374 
   47400    1642.8944    -107.5843    1.4865254   -106.09777     1818.552    4.3666408    4.3666408    4.3666408     1818.552    7491.7659   -22842.588    20806.479   -7921.9352    2653.4917    -6000.093    83.261151 
   47500    1837.7385   -107.74549    1.6628244   -106.08266    15420.256    4.3366359    4.3366359    4.3366359    15420.256    22143.293    13007.612    11109.862     4472.558    11800.196    15562.708    81.556559 
   47600    1021.2007   -107.05654   0.92400384   -106.13254   -14013.071    4.3430969    4.3430969    4.3430969   -14013.071    569.03882   -43582.874    974.62234   -22932.304   -12290.631   -40033.915    81.921625 
   47700    1917.7713   -107.87664    1.7352398    -106.1414    9381.1023    4.3728609    4.3728609    4.3728609    9381.1023   -12896.652    10343.874    30696.085     7298.186    1567.2675    11285.328    83.617464 
   47800    1477.2726   -107.44979    1.3366673   -106.11313   -35760.856    4.3903628    4.3903628    4.3903628   -35760.856   -20385.529   -12178.277   -74718.762   -1753.5232     1570.052   -37999.681    84.625498 
   47900    944.75244   -106.94551   0.85483186   -106.09068   -18238.217    4.3628744    4.3628744    4.3628744   -18238.217    1870.1752   -34415.749   -22169.077   -30826.959   -5731.4147   -27755.461    83.045887 
   48000     2079.325   -107.95029    1.8814169   -106.06888    36113.047    4.3416438    4.3416438    4.3416438    36113.047    7578.3384    47864.282    52896.521    26700.384   -1418.0402     9371.777    81.839427 
   48100    1131.8686   -107.14152    1.0241385   -106.11738   -28141.884    4.3617832    4.3617832    4.3617832   -28141.884   -13647.302   -67362.951   -3415.3979   -45063.571    7385.7145   -37614.669    82.983592 
   48200    2109.7063    -108.0057    1.9089066   -106.09679    -40619.97    4.3719463    4.3719463    4.3719463    -40619.97    -43178.56   -65762.196   -12919.153   -26586.953   -5708.4809   -3328.6113    83.565006 
   48300    1804.7085   -107.72558    1.6329382   -106.09265   -32135.843    4.3742634    4.3742634    4.3742634   -32135.843   -27454.981   -47383.649   -21568.898    12137.134    10612.202    6033.1977    83.697946 
   48400    674.86095   -106.73262   0.61062837   -106.12199   -7913.1837    4.3434137    4.3434137    4.3434137   -7913.1837   -23022.545   -81513.547    80796.541   -71938.246    8648.7832   -27357.367     81.93955 
   48500     2452.498   -108.33202    2.2190717   -106.11295    45284.904    4.3341796    4.3341796    4.3341796    45284.904    26109.744    23027.133    86717.834    19968.952    3045.9138    4251.5094     81.41805 
   48600    1298.9561   -107.31956    1.1753227   -106.14423   -26726.576    4.3710637    4.3710637    4.3710637   -26726.576   -38726.547   -76632.548    35179.368   -50995.215   -19308.926   -4356.3931    83.514406 
   48700    948.15315   -106.97355    0.8579089   -106.11564    3452.4161    4.3750143    4.3750143    4.3750143    3452.4161    16217.682   -66519.302    60658.868   -7433.5321   -9148.2088   -20062.902    83.741058 
   48800    2144.5212   -108.03532    1.9404078   -106.09491    7654.1472    4.3545731    4.3545731    4.3545731    7654.1472   -10381.428    6746.7899     26597.08   -6105.0225   -16723.433    7257.5324    82.572753 
   48900    1205.1006   -107.19971    1.0904004   -106.10931    19813.044    4.3416508    4.3416508    4.3416508    19813.044    4152.8232     -35767.9    91054.207   -53642.867    5379.3532   -32861.416    81.839823 
   49000    1668.3127   -107.62961    1.5095244   -106.12008    6663.6098    4.3534921    4.3534921    4.3534921    6663.6098    2404.4185   -10435.439     28021.85    20758.158   -4683.6441   -18053.316    82.511269 
   49100    1632.4001   -107.60111    1.4770299   -106.12408   -28743.934    4.3695147    4.3695147    4.3695147   -28743.934   -40880.616    -49320.97    3969.7834   -32260.025    11172.854    11495.057    83.425654 
   49200    1262.5475   -107.26028    1.1423795    -106.1179      5300.85     4.358785     4.358785     4.358785      5300.85    26967.817   -46586.579    35521.312   -10251.694   -9304.7613   -53991.371    82.812587 
   49300    2157.9094   -108.05607    1.9525218   -106.10355    245.98897    4.3515648    4.3515648    4.3515648    245.98897   -21674.713   -2168.5626    24581.243    2546.1641    13554.523    22362.948    82.401739 
   49400    1305.2973   -107.30053    1.1810604   -106.11947   -11686.245    4.3663044    4.3663044    4.3663044   -11686.245   -35808.437    -45554.26    46303.962   -32370.462   -9404.6415     1282.403    83.241906 
   49500    1257.1097   -107.25408    1.1374593   -106.11662   -8485.8321    4.3648641    4.3648641    4.3648641   -8485.8321     5503.584     -3836.55    -27124.53    8219.6633    13062.325   -48076.114    83.159562 
   49600    1767.8642    -107.7015    1.5996007    -106.1019     14528.46    4.3591613    4.3591613    4.3591613     14528.46   -10314.178     17771.66    36127.897   -7589.4477    5067.4904    43204.683    82.834035 
   49700    1006.8154   -107.02173   0.91098773   -106.11075   -19897.359    4.3637505    4.3637505    4.3637505   -19897.359   -6420.2587   -10333.827    -42937.99   -6143.4343   -6661.6945   -58822.268    83.095929 
   49800    1851.3047   -107.77562    1.6750994   -106.10052    1670.2872    4.3669734    4.3669734    4.3669734    1670.2872   -41978.845     79097.42   -32107.714    11516.499    8118.3584   -19645.009    83.280179 
   49900    2143.3517   -108.04906    1.9393497   -106.10971   -26840.137    4.3663795    4.3663795    4.3663795   -26840.137    -12549.31   -16004.336   -51966.765   -7079.0771    2833.0014   -14559.518    83.246203 
   50000    1056.8853   -107.08459     0.956292    -106.1283    6938.7783    4.3503169    4.3503169    4.3503169    6938.7783    16523.376     30785.17    -26492.21   -1498.1008     5268.232   -57122.337    82.330865 
   50100    2115.0359   -108.01884    1.9137289   -106.10511    25826.846    4.3565018    4.3565018    4.3565018    25826.846    -13642.17    63783.516    27339.192    10470.054    2101.0841    24851.745    82.682518 
   50200    1101.6016   -107.12104    0.9967523   -106.12428   -7526.0885    4.3674215    4.3674215    4.3674215   -7526.0885    3626.2823    24616.345   -50820.893   -2208.7248    2380.1906   -86428.055    83.305818 
   50300    2038.4208   -107.93958     1.844406   -106.09518   -2229.9392    4.3766171    4.3766171    4.3766171   -2229.9392   -62375.028    41516.462    14168.748   -534.63209    3564.2486    13879.545    83.833123 
   50400    990.04963   -106.98529   0.89581771   -106.08947    10484.448    4.3643057    4.3643057    4.3643057    10484.448    20487.749    36758.309   -25792.713   -15023.348   -3085.6587   -60438.225    83.127648 
   50500    2047.6253   -107.92259    1.8527344   -106.06986    6352.7359    4.3528513    4.3528513    4.3528513    6352.7359    32347.332   -23461.454     10172.33   -5568.8458   -13415.779   -13874.976    82.474843 
   50600    1390.3278   -107.34528    1.2579978   -106.08728   -8006.7057    4.3607041    4.3607041    4.3607041   -8006.7057   -38444.317    -1264.984    15689.184   -6825.1372   -9120.8323    -1519.773    82.922014 
   50700    1706.3589   -107.63503    1.5439494   -106.09108   -21158.539    4.3784765    4.3784765    4.3784765   -21158.539   -5513.3253   -30717.044   -27245.249   -5158.5775    3111.7649   -44866.918    83.940018 
   50800     1561.068   -107.48754    1.4124872   -106.07505   -15261.424     4.376659     4.376659     4.376659   -15261.424   -28153.626   -33727.235    16096.588    3543.4458   -941.68587    22219.333    83.835534 
   50900    1251.3491   -107.19034     1.132247   -106.05809    7117.3241    4.3435447    4.3435447    4.3435447    7117.3241    74727.316   -28915.229   -24460.115   -5491.0212    8877.5511   -45736.766     81.94697 
   51000    2019.2238   -107.88686    1.8270361   -106.05982    16910.378    4.3493408    4.3493408    4.3493408    16910.378    -23613.26    22126.476    52217.919   -9832.5444   -22003.395    23361.622    82.275462 
   51100    1072.4443   -107.05216   0.97037011   -106.08179   -40217.177     4.376889     4.376889     4.376889   -40217.177     3676.938   -64605.898   -59722.571   -2385.2085    4532.5974   -27476.299     83.84875 
   51200    2266.6637   -108.10703     2.050925   -106.05611   -10381.781    4.3771144    4.3771144    4.3771144   -10381.781    -28552.05   -12310.012    9716.7189   -2494.7763    -15964.92   -11161.717    83.861705 
   51300     768.2767   -106.78463   0.69515291   -106.08948   -30588.337    4.3598498    4.3598498    4.3598498   -30588.337    15834.709   -86093.943   -21505.777    16597.266   -6830.3062    5428.7495     82.87329 
   51400    2409.8971   -108.24534    2.1805255   -106.06482    26343.113    4.3285377    4.3285377    4.3285377    26343.113    35471.793    23288.469    20269.077   -570.05291   -826.67394    -27252.92    81.100518 
   51500    1161.0858   -107.17166    1.0505748   -106.12109   -30282.458    4.3583896    4.3583896    4.3583896   -30282.458   -16615.401   -61373.042   -12858.931   -15536.959    6909.0124    15917.625    82.790052 
   51600    1665.9221   -107.59375    1.5073613   -106.08639   -13345.804    4.3788709    4.3788709    4.3788709   -13345.804     47930.07   -60494.231   -27473.252    15244.983   -9051.6362   -13570.714    83.962706 
   51700    1470.5352   -107.41576    1.3305711   -106.08519    6303.8725    4.3518614    4.3518614    4.3518614    6303.8725   -15533.331    25345.749    9099.1988   -36207.458    28820.023    1040.3641    82.418589 
   51800    1765.2616   -107.68616    1.5972458   -106.08892   -4659.1892    4.3478447    4.3478447    4.3478447   -4659.1892    14809.736   -18829.325   -9957.9781    -17012.85   -796.25529    5910.4649    82.190586 
   51900    2186.5925   -108.06854    1.9784749   -106.09007    24203.564     4.351406     4.351406     4.351406    24203.564    38037.136     32482.42    2091.1354   -14452.616    8319.8182   -13814.898    82.392718 
   52000    1081.1127   -107.10092   0.97821349   -106.12271   -36011.675    4.3714238    4.3714238    4.3714238   -36011.675   -46542.188   -45465.497    -16027.34   -46029.653    19429.753    15910.664    83.535053 
   52100      2222.25    -108.0884    2.0107385   -106.07766    10947.687    4.3747467    4.3747467    4.3747467    10947.687    70414.742   -14784.419   -22787.263   -2.3580927   -698.32585    -14547.42    83.725689 
   52200    981.74155   -106.96976   0.88830039   -106.08146   -3080.9325    4.3671538    4.3671538    4.3671538   -3080.9325     1280.425   -18396.299    7873.0767   -29407.611    27709.381   -790.47394    83.290498 
   52300    1934.3482   -107.80916    1.7502389   -106.05892    4116.3292     4.370672     4.370672     4.370672    4116.3292    16866.171   -4637.5892    120.40556   -1957.6359    14896.867    9858.2917    83.491958 
   52400    1232.8976   -107.19482    1.1155517   -106.07927   -5174.3486    4.3650097    4.3650097    4.3650097   -5174.3486   -47821.842    -909.9114    33208.708   -241.34563    10761.277   -16791.104    83.167883 
   52500    1868.4933   -107.76412     1.690652   -106.07347   -8777.0822    4.3683071    4.3683071    4.3683071   -8777.0822   -68134.121   -6289.4274    48092.301   -28687.303    15993.453   -1968.1559    83.356505 
   52600    1505.0794   -107.43184    1.3618275   -106.07001    5427.0627    4.3769039    4.3769039    4.3769039    5427.0627   -24772.619    12411.747     28642.06    30264.646   -2550.3588   -9553.5934    83.849607 
   52700    1297.9634   -107.25744    1.1744245   -106.08302   -32383.465    4.3633153    4.3633153    4.3633153   -32383.465   -60173.962   -33024.548   -3951.8865   -31636.613    25309.317   -32434.982    83.071067 
   52800    2131.8261   -108.00536    1.9289211   -106.07644    21685.041    4.3427827    4.3427827    4.3427827    21685.041    -24421.34     69752.47    19723.992    15045.124   -30212.323    4727.3461    81.903848 
   52900    1175.3748   -107.17815    1.0635038   -106.11465    9393.8571    4.3465667    4.3465667    4.3465667    9393.8571   -14412.566     43895.89   -1301.7526   -22013.402   -4041.0488    3819.9487    82.118128 
   53000    2063.6267   -107.97911    1.8672128    -106.1119    4257.2288     4.381072     4.381072     4.381072    4257.2288   -18503.097    9025.8282    22248.955    5132.5009    5303.0891   -2238.1567    84.089383 
   53100    1177.4712   -107.15028    1.0654007   -106.08488    -48977.86    4.3869452    4.3869452    4.3869452    -48977.86   -83171.216    -59770.27   -3992.0927    3016.6282   -29509.938    9481.7267    84.428023 
   53200    1651.0511    -107.5418    1.4939057    -106.0479    41697.948    4.3555047    4.3555047    4.3555047    41697.948    30906.945    23238.323    70948.577    -22491.07    16721.148   -3918.9765    82.625758 
   53300    1424.5621   -107.34981    1.2889737   -106.06084    5370.1101    4.3463497    4.3463497    4.3463497    5370.1101    -27589.55   -8473.1542    52173.035    19395.227   -5334.6967    26560.137     82.10583 
   53400    1142.2877   -107.12854    1.0335659   -106.09498   -5931.1397    4.3575742    4.3575742    4.3575742   -5931.1397   -12406.823   -293.42567   -5093.1703   -23884.436   -16337.715    3628.8869    82.743594 
   53500    2073.6672   -107.95811    1.8762977   -106.08181    13250.271    4.3694508    4.3694508    4.3694508    13250.271    17882.276    -13877.44    35745.976     10366.27    15023.533   -10690.593    83.421995 
   53600    1136.3585   -107.11923     1.028201   -106.09103   -34268.837    4.3846448    4.3846448    4.3846448   -34268.837   -32051.802   -56521.864   -14232.845   -9803.4334   -36028.904    19331.563    84.295278 
   53700    1882.2271   -107.75266    1.7030786   -106.04958    30538.642     4.370843     4.370843     4.370843    30538.642   -15339.414    11832.391    95122.949   -2639.0964    5145.8067   -28685.809    83.501756 
   53800    1036.4672   -107.00388   0.93781727   -106.06607   -9196.5168    4.3621976    4.3621976    4.3621976   -9196.5168   -14127.275   -35589.854    22127.578    5758.0303   -10293.981    1786.2394    83.007244 
   53900    2167.6964   -108.00674    1.9613773   -106.04536     42169.19     4.360358     4.360358     4.360358     42169.19    22631.119    32644.556    71231.894   -9735.3721   -14228.605   -9369.2739    82.902273 
   54000     1004.714   -106.99867   0.90908632   -106.08958   -22475.096    4.3604208    4.3604208    4.3604208   -22475.096   -34385.705    -2322.688   -30716.895    12456.042     1288.125    1702.0638    82.905857 
   54100    2250.7989   -108.11087    2.0365701    -106.0743    22314.967    4.3647602    4.3647602    4.3647602    22314.967    15591.612    9175.7443    42177.546   -9052.5338    1356.5501    9303.7115     83.15362 
   54200    1022.4866   -107.01553   0.92516735   -106.09036    2610.1498    4.3623424    4.3623424    4.3623424    2610.1498   -20868.901     43938.88    -15239.53    3551.1961    817.13051    896.58876    83.015512 
   54300    1871.8558   -107.77196    1.6936945   -106.07826    4854.0357    4.3733619    4.3733619    4.3733619    4854.0357   -9696.4716    16152.661    8105.9175    2996.3408   -2593.9945   -8549.5161    83.646209 
   54400     1638.173   -107.55719    1.4822533   -106.07494    -3783.844    4.3555256    4.3555256    4.3555256    -3783.844   -55257.609    31579.463    12326.614    -1982.492   -1317.5213    23741.436    82.626945 
   54500    1187.7185   -107.15768    1.0746726   -106.08301    43233.015    4.3433705    4.3433705    4.3433705    43233.015   -12537.306    57547.605    84688.748    16228.453    2978.9578   -5870.3267    81.937108 
   54600    2262.5007   -108.13026    2.0471582    -106.0831   -12279.515    4.3615747    4.3615747    4.3615747   -12279.515   -35525.153    14987.893   -16301.285    -2350.053    2175.2992    28476.294    82.971693 
   54700    568.40633   -106.61862   0.51430599   -106.10431    21237.898    4.3657046    4.3657046    4.3657046    21237.898   -52014.692    70496.738    45231.649    5432.7037    6975.9017     13177.77    83.207609 
   54800    2598.4707   -108.42801    2.3511509   -106.07686   -11986.408    4.3668489    4.3668489    4.3668489   -11986.408   -16764.886    4335.1929   -23529.531    17649.759    6729.9892    13307.494    83.273052 
   54900     791.9762   -106.81096   0.71659671   -106.09436    20569.526    4.3569492    4.3569492    4.3569492    20569.526   -22286.295    58508.736    25486.136   -19884.166    22255.773   -1703.7665    82.707997 
   55000    2465.0026   -108.30429    2.2303861    -106.0739    17723.223    4.3545485    4.3545485    4.3545485    17723.223    2262.9535    40183.967     10722.75    21128.933   -6451.0089    8065.1667    82.571352 
   55100    889.75434   -106.91344   0.80506843   -106.10837   -15752.615    4.3616573    4.3616573    4.3616573   -15752.615    -58656.25    11811.993   -413.58942   -18663.018    24185.062   -14400.585    82.976407 
   55200     1958.835   -107.87218    1.7723951   -106.09979     17307.84    4.3592061    4.3592061    4.3592061     17307.84   -2717.0693    40800.023    13840.567    5450.7845   -3808.2426    6028.9009    82.836591 
   55300    1336.6728   -107.31556    1.2094497   -106.10611    3374.5416    4.3664799    4.3664799    4.3664799    3374.5416   -35035.142    51761.731   -6602.9646    -5864.984    27487.755   -7633.2233    83.251948 
   55400    1596.7954   -107.53768     1.444814   -106.09287   -16635.383    4.3638898    4.3638898    4.3638898   -16635.383   -33926.545    20624.506   -36604.111   -11216.957    -2256.339   -11592.399    83.103884 
   55500    1717.5304   -107.63074    1.5540576   -106.07668     17036.86    4.3609955    4.3609955    4.3609955     17036.86   -3898.5348    23197.907    31811.209   -5549.8268    23209.373   -3238.4476    82.938643 
   55600    1218.2418   -107.19201    1.1022908   -106.08972   -29994.573    4.3623763    4.3623763    4.3623763   -29994.573   -46579.505   -3144.8307   -40259.384   -18961.988    24020.551   -2932.2951    83.017447 
   55700    1983.3014   -107.86368    1.7945328   -106.06915    27171.824    4.3559139    4.3559139    4.3559139    27171.824    879.33288   -3912.5946    84548.735   -6813.8801   -13951.714    6864.0534    82.649051 
   55800    983.56449   -106.98691   0.88994982   -106.09696   -18840.013    4.3614362    4.3614362    4.3614362   -18840.013   -34008.833    8073.6432    -30584.85    9754.7891    46438.926    6738.0932    82.963787 
   55900    1967.8779   -107.86343    1.7805773   -106.08285   -3468.2938    4.3670476    4.3670476    4.3670476   -3468.2938   -15359.811   -21245.084    26200.014   -27964.977   -27236.345    1485.7508     83.28442 
   56000    1726.2657   -107.65661    1.5619615   -106.09465   -9522.1012    4.3546259    4.3546259    4.3546259   -9522.1012   -27772.099    40895.137   -41689.341    22331.932    48312.414   -8346.8995    82.575756 
   56100    1157.0183   -107.15926    1.0468945   -106.11236    5673.9973    4.3498882    4.3498882    4.3498882    5673.9973    3384.4288   -7190.2482    20827.811   -18304.054    11926.185    10454.414     82.30653 
   56200    2320.2004   -108.20008    2.0993661   -106.10071   -3406.5926    4.3591135    4.3591135    4.3591135   -3406.5926   -29744.792    18232.788    1292.2264    9120.8267    13631.573   -19311.887    82.831308 
   56300    696.57876   -106.74808    0.6302791    -106.1178    9446.4225    4.3667507    4.3667507    4.3667507    9446.4225   -7830.6015    30061.241    6108.6278    4422.3837    41997.621    9617.6438    83.267435 
   56400    2350.5662   -108.21856    2.1268417   -106.09172   -12022.806    4.3630205    4.3630205    4.3630205   -12022.806   -5333.5132   -11231.959   -19502.945    9723.1834   -16645.757   -13406.058     83.05423 
   56500     911.6472   -106.92863   0.82487755   -106.10376    14500.093    4.3495316    4.3495316    4.3495316    14500.093   -25643.203    87307.636   -18164.154   -343.64819    71991.799    3169.0475    82.286288 
   56600    2204.1499   -108.08291    1.9943611   -106.08855   -2922.3452    4.3525469    4.3525469    4.3525469   -2922.3452   -31200.815   -668.49322    23102.273    4624.2042   -23688.592   -6074.2693    82.457539 
   56700    1121.2624   -107.11345    1.0145418   -106.09891   -20785.763    4.3703328    4.3703328    4.3703328   -20785.763   -67707.022    51432.074   -46082.341   -7826.8294    69748.138    -730.8763    83.472523 
   56800    1280.0929   -107.24464    1.1582549   -106.08638    1250.6034    4.3676553    4.3676553    4.3676553    1250.6034    -39705.55   -21786.023    65243.383    15314.988    3356.9053   -19480.277    83.319198 
   56900    1827.2058   -107.74136    1.6532942   -106.08806    211.79119     4.350726     4.350726     4.350726    211.79119    -51283.54    6213.8592    45705.054   -3844.4099    14615.394    2370.2272    82.354094 
   57000    1690.1929   -107.64079     1.529322   -106.11147     -27699.7    4.3556771    4.3556771    4.3556771     -27699.7   -57476.114    11504.586    -37127.57    3381.4716    62808.169   -13994.342     82.63557 
   57100    1812.5638   -107.73515    1.6400458   -106.09511   -7769.0044    4.3689094    4.3689094    4.3689094   -7769.0044   -42169.017   -44256.373    63118.377    6858.4315   -13172.747   -24809.785    83.390987 
   57200     1070.601   -107.07311   0.96870224   -106.10441   -15133.908     4.360068     4.360068     4.360068   -15133.908    -88282.77    27026.002    15855.045   -6332.2911    75766.868   -1032.2863    82.885736 
   57300    2172.5474   -108.05492    1.9657665   -106.08915    17724.854    4.3526159    4.3526159    4.3526159    17724.854    3481.9214   -10379.926    60072.566    11968.573   -31791.632   -10402.348    82.461461 
   57400    911.93125   -106.94513   0.82513456   -106.11999   -36244.643    4.3635303    4.3635303    4.3635303   -36244.643   -82655.431    949.14762   -27027.647    812.63417    79225.565   -1440.1035    83.083351 
   57500     2322.186   -108.19046    2.1011627    -106.0893   -3121.3251    4.3586081    4.3586081    4.3586081   -3121.3251   -2970.1296    -604.6268   -5789.2189    5960.6225   -11874.304    9301.7039    82.802503 
   57600    1410.7191   -107.37378    1.2764483   -106.09733   -25287.285    4.3670575    4.3670575    4.3670575   -25287.285   -57828.714   -16353.931   -1679.2114    14876.883    44305.069   -12821.989    83.284988 
   57700    1234.8255   -107.22025    1.1172961   -106.10295   -16716.456    4.3597073    4.3597073    4.3597073   -16716.456    6292.0669   -8006.3143   -48435.119    3258.1278    40887.558    -4827.433    82.865165 
   57800    1935.8514   -107.83969     1.751599   -106.08809    27953.284     4.351177     4.351177     4.351177    27953.284    9631.4455     18883.61    55344.795    4302.1152     -19901.9    690.78898    82.379711 
   57900    980.33262   -107.01049   0.88702556   -106.12347   -28288.842    4.3684182    4.3684182    4.3684182   -28288.842   -46989.688    11579.172    -49456.01    9082.5727    70136.308    -20176.64    83.362863 
   58000    2207.3333   -108.09146    1.9972415   -106.09422   -9012.2681    4.3781754    4.3781754    4.3781754   -9012.2681   -5738.7633   -50618.942    29320.901    18206.859   -20103.287   -9098.0967    83.922707 
   58100    1268.3703     -107.247    1.1476481   -106.09935   -30095.753    4.3648435    4.3648435    4.3648435   -30095.753   -74894.978    60992.947   -76385.229   -1022.6294    82172.747    3963.3179    83.158379 
   58200    1610.1348   -107.53365    1.4568838   -106.07677    48062.629    4.3385487    4.3385487    4.3385487    48062.629    24212.451    22746.032    97229.405    15571.036   -9101.4252   -23630.706    81.664522 
   58300    1748.6404   -107.69172    1.5822066   -106.10952   -11379.106    4.3528612    4.3528612    4.3528612   -11379.106   -18640.136    24273.868   -39771.051   -2547.7779    46800.684    18143.873    82.475406 
   58400    1113.7949    -107.1228    1.0077851   -106.11502   -18796.102    4.3781123    4.3781123    4.3781123   -18796.102   -85110.172    21948.331    6773.5367    8158.2315    28461.532    2675.6082    83.919075 
   58500    2363.4403   -108.21673    2.1384904   -106.07824   -12390.062    4.3686952    4.3686952    4.3686952   -12390.062   -1162.5708    6988.9712   -42996.588    7285.7104   -3536.2931   -4602.5537    83.378724 
   58600    998.95906   -106.98918   0.90387915    -106.0853   -3310.3568    4.3541159    4.3541159    4.3541159   -3310.3568   -71936.832    67435.064   -5429.3033    -5550.151      72121.2   -1173.6816    82.546743 
   58700    1817.3558   -107.71448    1.6443817    -106.0701    25534.411    4.3553226    4.3553226    4.3553226    25534.411    22241.975    57726.006   -3364.7488   -4151.4928   -43136.925    17540.788    82.615396 
   58800    1404.4387   -107.36285    1.2707657   -106.09209   -4652.1205    4.3589593    4.3589593    4.3589593   -4652.1205   -45714.515    20731.034     11027.12   -544.95711    89748.198   -13438.445    82.822518 
   58900    2104.6703   -107.98344    1.9043499   -106.07909   -16022.903    4.3783027    4.3783027    4.3783027   -16022.903   -44425.271   -2251.0548   -1392.3821     -12130.8   -35397.657    31066.158    83.930024 
   59000    1101.3532   -107.08493   0.99652751    -106.0884   -8961.6556    4.3583358    4.3583358    4.3583358   -8961.6556   -27734.233    56248.034   -55398.767   -3672.6368    64638.927    12482.905    82.786987 
   59100    2135.1722   -108.00837    1.9319487   -106.07642    26075.361     4.346871     4.346871     4.346871    26075.361   -18078.461    9182.0067    87122.537    -11855.95    12464.143    1990.4309    82.135379 
   59200    1279.4909   -107.26367    1.1577103   -106.10596     11314.44    4.3535643    4.3535643    4.3535643     11314.44   -37722.434    89044.609   -17378.855   -7511.5794    37707.618    8188.3894    82.515375 
   59300    1614.6012   -107.57557    1.4609251   -106.11465   -2610.3436     4.363618     4.363618     4.363618   -2610.3436   -31433.826    16744.006    6858.7887    3576.6552    31487.146    14486.193    83.088359 
   59400    1958.5477   -107.85213    1.7721352   -106.07999   -54683.024     4.383747     4.383747     4.383747   -54683.024   -75441.131   -24389.848   -64218.092   -1552.5879    29424.647   -18080.881    84.243506 
   59500    1087.8088   -107.06453   0.98427223   -106.08026    4672.4692     4.350763     4.350763     4.350763    4672.4692   -32377.657    67485.449   -21090.384    4894.8708    63084.377    11491.661    82.356199 
   59600    1888.1061   -107.77353     1.708398   -106.06513    47196.439    4.3324344    4.3324344    4.3324344    47196.439   -5545.4675    97814.943    49319.841    4694.5841   -13646.873   -3593.5929    81.319738 
   59700    1043.9554   -107.06319   0.94459281    -106.1186   -6681.0335    4.3546526    4.3546526    4.3546526   -6681.0335   -83318.527    44486.035    18789.391   -12238.164    77569.848   -8788.4432    82.577275 
   59800    1857.6739   -107.77882    1.6808624   -106.09796    7057.6782    4.3718877    4.3718877    4.3718877    7057.6782   -6176.8468    21787.544    5562.3368    8806.6154   -19344.987    8868.0476    83.561649 
   59900    1031.4698   -107.03169   0.93329557   -106.09839   -19871.416     4.370212     4.370212     4.370212   -19871.416   -59988.281    27305.763   -26931.728    -7707.657    65878.377   -1388.7564    83.465599 
   60000    2239.2144   -108.09372    2.0260883   -106.06763    7670.9509    4.3520182    4.3520182    4.3520182    7670.9509   -17725.671    14853.406    25885.118    5336.5054    9039.3689   -8546.0336    82.427498 
   60100    1094.6361   -107.08744   0.99044975   -106.09699    21191.334    4.3524936    4.3524936    4.3524936    21191.334    73.162045    28212.897    35287.943    7332.9561    22826.186    19419.908    82.454513 
   60200    1448.0629   -107.42408    1.3102377   -106.11384   -13671.313     4.372417     4.372417     4.372417   -13671.313   -24021.601    13058.217   -30050.554    12912.743    38848.641   -1620.3309    83.591999 
   60300    1924.4997    -107.8261    1.7413277   -106.08478    20952.719    4.3650951    4.3650951    4.3650951    20952.719    37313.782    23790.367    1754.0066    17930.661   -30651.908    6966.2744    83.172765 
   60400    977.50063   -106.97103   0.88446311   -106.08656    1828.2998    4.3495496    4.3495496    4.3495496    1828.2998    21407.082    26732.491   -42654.674    1294.6289    70915.693    30434.295    82.287309 
   60500    2408.1135   -108.25402    2.1789117   -106.07511    3594.9019     4.353665     4.353665     4.353665    3594.9019    45718.069   -2528.2718   -32405.091    3279.1813   -16508.146   -14566.166    82.521105 
   60600    1299.5444   -107.28098    1.1758551   -106.10513    3088.0558    4.3596237    4.3596237    4.3596237    3088.0558    27128.705    3613.7472   -21478.285    10908.334    51037.152    4010.1125    82.860398 
   60700    1480.3862   -107.45687    1.3394845   -106.11739   -18990.757    4.3752056    4.3752056    4.3752056   -18990.757    53849.743   -49398.689   -61423.324    1215.4417    5266.3954    1371.1403    83.752043 
   60800    1966.2218   -107.88366    1.7790788   -106.10458   -13744.626    4.3597701    4.3597701    4.3597701   -13744.626    13843.902   -20740.173   -34337.606    7534.8003    15821.202    -25853.31    82.868745 
   60900    1309.2961   -107.29506    1.1846787   -106.11038     13797.88    4.3324539    4.3324539    4.3324539     13797.88   -12031.069    51679.246    1745.4621   -3615.2185    42006.053   -813.02895    81.320841 
   61000    1466.6553   -107.45798    1.3270605   -106.13092    1083.3663    4.3380781    4.3380781    4.3380781    1083.3663    38054.199   -9608.8768   -25195.224    13542.023   -27010.918   -29276.171     81.63795 
   61100    1968.1467   -107.91186    1.7808205   -106.13104    6794.4128    4.3700418    4.3700418    4.3700418    6794.4128    19343.075    1502.5518   -462.38855   -17737.605    16049.165    2278.1197    83.455847 
   61200    1663.2252   -107.62918    1.5049211   -106.12426   -25347.852    4.3696834    4.3696834    4.3696834   -25347.852   -20243.877   -7797.4995    -48002.18    5138.1124    6762.8618   -24208.017    83.435314 
   61300    1019.5695   -107.04357   0.92252787   -106.12104    9975.8412    4.3333098    4.3333098    4.3333098    9975.8412     55437.19    6906.1443   -32415.811   -3448.0049   -39902.115   -636.55047    81.369047 
   61400    2122.6675   -108.03954    1.9206341   -106.11891    36037.402    4.3366787    4.3366787    4.3366787    36037.402    84075.884    4930.6834     19105.64   -10293.472    5617.1403    5870.5771    81.558972 
   61500    1650.1857   -107.63103    1.4931227    -106.1379   -25220.921    4.3618817    4.3618817    4.3618817   -25220.921    15903.225   -23741.708    -67824.28    12456.611   -10414.369   -30734.972    82.989216 
   61600    1154.3631   -107.17171     1.044492   -106.12722   -10567.098    4.3676812    4.3676812    4.3676812   -10567.098    22714.201   -14555.448   -39860.046    5955.1724   -16811.389    27761.937    83.320677 
   61700    1862.9012   -107.79202    1.6855922   -106.10643    9112.0176    4.3590729    4.3590729    4.3590729    9112.0176    37307.579      23199.4   -33170.926   -7857.9144    26089.138   -14356.207    82.828994 
   61800     1675.997   -107.62314    1.5164773   -106.10666    17138.936    4.3444765    4.3444765    4.3444765    17138.936    65283.144    14308.394   -28174.729    18525.165   -22079.509    12577.953    81.999719 
   61900    1299.3479   -107.29712    1.1756772   -106.12144   -1104.0234    4.3559909    4.3559909    4.3559909   -1104.0234    6644.9805    16785.443   -26742.494   -18428.272    19364.872    12814.153     82.65343 
   62000     2145.218   -108.03879    1.9410383   -106.09775   -21872.479    4.3676394    4.3676394    4.3676394   -21872.479    121.31045   -23383.889   -42354.858   -6161.9518    30456.567   -7292.4627    83.318283 
   62100     1267.066   -107.24406    1.1464679   -106.09759    22100.657    4.3540067    4.3540067    4.3540067    22100.657    67971.055   -25543.568    23874.484    11182.484   -27003.345     24583.98    82.540533 
   62200    1388.3393   -107.37373    1.2561986   -106.11753    10859.257    4.3517785    4.3517785    4.3517785    10859.257    -5873.803    47321.814   -8870.2393   -9624.1995    40371.045   -17018.092    82.413876 
   62300    2020.2958   -107.94708    1.8280061   -106.11908    16912.281     4.351688     4.351688     4.351688    16912.281    30575.734   -13051.753    33212.864    12886.274   -7529.4013    6619.6669    82.408734 
   62400    1262.3697   -107.27757    1.1422187   -106.13536   -13805.432    4.3657128    4.3657128    4.3657128   -13805.432   -8235.9536   -2722.3758   -30457.966    8890.6818    6315.4782     37223.29    83.208079 
   62500     1675.412   -107.61755     1.515948    -106.1016    18198.542    4.3711649    4.3711649    4.3711649    18198.542     12323.28    15137.983    27134.363   -4466.2113    13238.293   -2657.3154    83.520208 
   62600    1513.4793   -107.46384    1.3694279   -106.09441   -20029.712    4.3686388    4.3686388    4.3686388   -20029.712    30644.521   -32241.973   -58491.686    2102.8807   -16254.735    9940.3512    83.375493 
   62700    1496.7501   -107.44208    1.3542909   -106.08778    23540.085    4.3547214    4.3547214    4.3547214    23540.085   -6329.1959    56947.818    20001.633    1772.8079   -11753.196    17888.442    82.581186 
   62800    1522.6938   -107.47505    1.3777654   -106.09729    20722.242    4.3467421    4.3467421    4.3467421    20722.242    11695.981    24981.375    25489.369   -12342.108    8480.4193   -33991.514    82.128073 
   62900    1054.9338    -107.0833   0.95452629   -106.12877    8098.7792    4.3651694    4.3651694    4.3651694    8098.7792   -12699.154     30632.18    6363.3121    11755.874   -30456.598   -19170.493    83.177012 
   63000    1752.8382   -107.68209    1.5860048   -106.09608    7284.5912    4.3868377    4.3868377    4.3868377    7284.5912   -52572.662     14335.33    60091.106    -6830.829    5099.2669   -26483.949    84.421817 
   63100    874.87072   -106.87872   0.79160141   -106.08712   -10095.508    4.3839991    4.3839991    4.3839991   -10095.508   -24990.425     13109.91   -18406.009   -1888.5025   -8451.2583   -44137.124    84.258046 
   63200     1686.535   -107.58284    1.5260123   -106.05683    32127.279    4.3474313    4.3474313    4.3474313    32127.279    -8993.746    104974.68    400.90179   -6199.4113   -15925.817    14724.683    82.167141 
   63300    1900.0104   -107.79559    1.7191693   -106.07643    -11262.14    4.3353536    4.3353536    4.3353536    -11262.14   -9877.4236   -7010.2718   -16898.724    -12087.69    3059.8446   -19189.235    81.484231 
   63400    1309.0143   -107.30761    1.1844237   -106.12319   -32327.403    4.3641183    4.3641183    4.3641183   -32327.403   -25450.164   -2409.2121   -69122.833     315.7941   -39881.562   -22209.941    83.116938 
   63500    2123.6503   -108.00678    1.9215235   -106.08526   -12081.499    4.3817306    4.3817306    4.3817306   -12081.499    -7485.428   -2896.0263   -25863.043     727.5107    15316.366    25161.456    84.127315 
   63600    1084.7157   -107.05594   0.98147359   -106.07447   -50750.592    4.3901449    4.3901449    4.3901449   -50750.592   -20961.048   -25525.892   -105764.84    -8664.012   -32279.578   -26480.642    84.612895 
   63700     2358.519    -108.1921    2.1340375   -106.05806   -3636.4233    4.3627618    4.3627618    4.3627618   -3636.4233   -8878.2559    8769.5231   -10800.537    5133.4288    346.92145    6182.1862    83.039459 
   63800     1638.484   -107.55238    1.4825348   -106.06985    31573.453    4.3262661    4.3262661    4.3262661    31573.453    37758.128    47117.733    9844.4977   -3468.5921    2047.0302   -13482.648    80.972899 
   63900    1166.5171   -107.19512    1.0554892   -106.13963   -12670.695    4.3435384    4.3435384    4.3435384   -12670.695    4455.7061   -10230.617   -32237.173   -8486.2119    -29721.93   -43765.838     81.94661 
   64000    2045.3791   -107.97871     1.850702   -106.12801   -11571.731    4.3762932    4.3762932    4.3762932   -11571.731    2675.5142   -11338.432   -26052.275    11402.706    10442.901    26975.129    83.814514 
   64100    1407.2794   -107.38165     1.273336   -106.10831   -32261.294    4.3832461    4.3832461    4.3832461   -32261.294   -33065.474    2033.4457   -65751.854    1533.1195   -38676.843   -33882.062    84.214632 
   64200    1174.9841   -107.16526    1.0631503   -106.10211   -10258.258    4.3475013    4.3475013    4.3475013   -10258.258    27838.913   -6494.4454   -52119.241   -4744.5729   -35859.019    25267.246    82.171114 
   64300    1955.5259   -107.85621    1.7694009   -106.08681     41702.75    4.3203947    4.3203947    4.3203947     41702.75    84885.293    33243.725    6979.2306    2093.6956    24741.834    20293.784    80.643666 
   64400    1372.2989    -107.3764    1.2416849   -106.13472   -8261.9651     4.354651     4.354651     4.354651   -8261.9651    20842.913   -4729.8096   -40898.999   -16715.636   -24394.838   -3770.7375    82.577181 
   64500     1601.441    -107.5636    1.4490175   -106.11458    -20801.36    4.3802807    4.3802807    4.3802807    -20801.36    22336.131   -33611.975   -51128.236    11044.669    59.798689    33512.873    84.043828 
   64600    1709.3118   -107.64574    1.5466212   -106.09912   -3275.1293    4.3756508    4.3756508    4.3756508   -3275.1293     37751.46   -8284.7841   -39292.063   -12318.873    34417.964   -8532.3568    83.777608 
   64700    1655.0795   -107.59741    1.4975507   -106.09986    13264.333    4.3424267    4.3424267    4.3424267    13264.333    11320.793    22349.071    6123.1361    1913.1132   -47249.591    19749.651    81.883704 
   64800    1269.1406    -107.2509     1.148345   -106.10255     52841.18    4.3309963    4.3309963    4.3309963     52841.18    91951.022    77558.928   -10986.409    4108.8414    52679.606   -9310.1852    81.238788 
   64900    1935.4102   -107.86777    1.7511998   -106.11657   -23853.915     4.365548     4.365548     4.365548   -23853.915   -17701.165    -20440.34   -33420.241   -5909.8972    19609.815    4154.4348    83.198654 
   65000    1705.7081   -107.65214    1.5433605   -106.10878    25083.657    4.3568697    4.3568697    4.3568697    25083.657    56818.184    47820.592   -29387.805   -7526.0489    8472.8823    13114.535    82.703464 
   65100    1312.9593   -107.31092    1.1879932   -106.12292   -21836.984     4.352802     4.352802     4.352802   -21836.984   -38447.843    49396.082   -76459.191    13853.353    65553.717   -15158.132     82.47204 
   65200     1829.342   -107.76157    1.6552271   -106.10634    12881.143    4.3539542    4.3539542    4.3539542    12881.143    65184.426   -30672.081    4131.0836   -20086.951   -26081.917   -1072.8359     82.53755 
   65300    1461.1439   -107.44206    1.3220737   -106.11999    -15189.02    4.3520389    4.3520389    4.3520389    -15189.02   -45340.246    21368.477   -21595.291   -13337.452    65693.189    3322.7189    82.428674 
   65400    1441.0093   -107.41517    1.3038555   -106.11131    2358.8976    4.3582036    4.3582036    4.3582036    2358.8976   -5832.9929    35491.579   -22581.893     8413.137   -30508.141   -13403.875     82.77945 
   65500    1571.1806    -107.5286    1.4216372   -106.10696    -22783.99    4.3555827    4.3555827    4.3555827    -22783.99   -34948.627   -24267.799   -9135.5433   -35719.148    4325.6105   -1771.2655      82.6302 
   65600    2123.1346   -108.01728    1.9210568   -106.09622   -22910.293    4.3541245    4.3541245    4.3541245   -22910.293   -18028.191   -7222.2096    -43480.48    12195.953    47527.177    2037.5315    82.547237 
   65700    1022.8418   -107.03032   0.92548873   -106.10483    10220.157    4.3529389    4.3529389    4.3529389    10220.157    15430.841    18459.094    -3229.464   -29958.894    -54133.01   -7324.7696    82.479821 
   65800    1764.5931   -107.70731    1.5966409   -106.11067   -18078.889    4.3590263    4.3590263    4.3590263   -18078.889    -14259.91   -17442.901   -22533.857   -15126.712    30672.318    -4980.599    82.826341 
   65900    2093.4448   -107.99173    1.8941929   -106.09754    1543.1388    4.3527986    4.3527986    4.3527986    1543.1388    43040.822   -10473.624   -27937.781    9149.8558   -22974.998   -2992.1888    82.471845 
   66000    718.41072   -106.78096   0.65003311   -106.13093   -9307.4036    4.3615762    4.3615762    4.3615762   -9307.4036    -8838.328   -6564.2908   -12519.592   -36678.111   -20310.665    -335.0889    82.971777 
   66100    2351.5595   -108.23229    2.1277404   -106.10455    4483.1344    4.3571382    4.3571382    4.3571382    4483.1344     35597.86   -23949.856    1801.3998     17129.19    15777.311   -4685.5572    82.718755 
   66200    1302.6822   -107.29527    1.1786943   -106.11657    20762.115     4.343439     4.343439     4.343439    20762.115    51625.802   -18853.859    29514.403   -30222.795   -58507.191   -8305.7194    81.940986 
   66300    1771.9828   -107.72725    1.6033272   -106.12392    8320.7248    4.3594452    4.3594452    4.3594452    8320.7248    18311.975    -41178.89     47829.09   -24345.189    17791.474     6511.354    82.850222 
   66400    1754.6459   -107.69077    1.5876405   -106.10313   -7678.6341    4.3727044    4.3727044    4.3727044   -7678.6341    27031.932   -54666.395    4598.5602    14284.001   -28068.148   -12977.627    83.608484 
   66500    919.75077   -106.94248   0.83220982   -106.11027    19781.059    4.3497819    4.3497819    4.3497819    19781.059     35327.49   -38926.621    62942.309   -58794.464   -44753.135    2274.5119    82.300493 
   66600    2734.2491   -108.56917     2.474006   -106.09516     2540.417    4.3478396    4.3478396    4.3478396     2540.417    20930.793    -25722.94    12413.398    25286.115    13200.977   -8885.0046    82.190298 
   66700    969.29296   -107.00852   0.87703664   -106.13149   -477.77004    4.3517689    4.3517689    4.3517689   -477.77004    -16112.43   -46988.682    61667.802   -39843.998   -25321.161    -6119.258     82.41333 
   66800    1729.0859   -107.68988    1.5645133   -106.12537    3711.8687    4.3608944    4.3608944    4.3608944    3711.8687    6582.7443   -30454.541    35007.402    -12289.27   -20012.709   -6550.3379    82.932871 
   66900    2113.2625   -108.01683    1.9121243    -106.1047   -11370.539    4.3669953    4.3669953    4.3669953   -11370.539   -7097.4886   -49204.938    22190.809   -14588.394    10447.098    2336.6006    83.281428 
   67000    851.98184   -106.88084   0.77089108   -106.10995    7393.4552    4.3473058    4.3473058    4.3473058    7393.4552   -10888.445   -32916.139     65984.95   -46170.948   -41080.057   -18101.888    82.160029 
   67100    2550.0206   -108.39786    2.3073122   -106.09054    26129.505    4.3417454    4.3417454    4.3417454    26129.505    14736.939    6617.5614    57034.016    17394.918    15995.866    21429.659    81.845169 
   67200    842.04988    -106.8822   0.76190443    -106.1203    24656.624    4.3537506    4.3537506    4.3537506    24656.624    33414.127   -23501.648    64057.395   -53686.169   -6384.3995   -20451.869    82.525974 
   67300     2063.177    -107.9673    1.8668059    -106.1005    -3391.942     4.372198     4.372198     4.372198    -3391.942    15756.278   -21001.688   -4930.4161    10908.755   -19988.982    15234.392    83.579443 
   67400    1376.0727   -107.34281    1.2450995   -106.09771    4789.4327    4.3648242    4.3648242    4.3648242    4789.4327    43428.689   -57087.348    28026.957   -35696.912    16350.259   -8915.5561    83.157278 
   67500    1678.1573   -107.60612    1.5184319   -106.08769   -2856.8436    4.3392949    4.3392949    4.3392949   -2856.8436   -8574.0687     816.3439    -812.8059    -24128.22   -35484.556    684.51514    81.706669 
   67600    1760.0811   -107.69374    1.5925584   -106.10118    16940.917    4.3509507    4.3509507    4.3509507    16940.917    42826.708   -28297.497    36293.541   -3502.4189   -11542.775    3556.1613    82.366854 
   67700    1439.5469   -107.41063    1.3025322    -106.1081   -28638.589    4.3692186    4.3692186    4.3692186   -28638.589   -40989.499   -60164.601    15238.334   -50776.513    2041.5079   -2767.5055    83.408695 
   67800     1702.096    -107.6293    1.5400923    -106.0892    22396.395    4.3617014    4.3617014    4.3617014    22396.395    19934.573    23618.728    23635.885    16211.553   -26650.212    8116.6709    82.978922 
   67900    1233.6561    -107.2112    1.1162379   -106.09496   -2514.8623    4.3654935    4.3654935    4.3654935   -2514.8623   -54920.525   -44184.157    91560.095   -53133.171    10691.796    4218.4585     83.19554 
   68000    1967.8909    -107.8625     1.780589   -106.08191    18702.063    4.3528282    4.3528282    4.3528282    18702.063    27460.072    21775.353    6870.7649    7697.1445   -8243.1799   -929.27071    82.473531 
   68100    987.49654   -107.00386   0.89350762   -106.11035    11878.135    4.3559642    4.3559642    4.3559642    11878.135   -15061.301   -13396.312    64092.017   -40843.119   -21260.457   -310.84817    82.651911 
   68200    2267.3734   -108.12642    2.0515671   -106.07485   -13246.389    4.3686707    4.3686707    4.3686707   -13246.389   -19500.626   -19358.408    -880.1329     4563.728    8861.8085   -6726.0677    83.377317 
   68300    1004.0817   -107.00931   0.90851425    -106.1008    23497.022    4.3490716    4.3490716    4.3490716    23497.022   -33821.902   -6809.4321     111122.4   -33376.759   -17814.264   -25292.077    82.260185 
   68400    1854.3615   -107.77724    1.6778653   -106.09938    37997.216    4.3498644    4.3498644    4.3498644    37997.216    24922.712     23073.18    65995.757   -4974.6096   -8248.1677    3960.1209    82.305175 
   68500    1620.4998   -107.56693    1.4662622   -106.10067   -26131.551    4.3691472    4.3691472    4.3691472   -26131.551   -59925.032   -50836.965    32367.343   -9800.3324    12187.625    2898.2751    83.404604 
   68600    1761.0911   -107.68053    1.5934722   -106.08706   -9041.1781    4.3610498    4.3610498    4.3610498   -9041.1781    14074.471   -32220.957   -8977.0481   -29711.336     -3256.15   -18648.187     82.94174 
   68700    1706.3071   -107.62097    1.5439025   -106.07707   -16805.044    4.3682341    4.3682341    4.3682341   -16805.044   -28601.851   -43262.315    21449.035    18177.335    15359.089    17714.458    83.352323 
   68800    1528.3244   -107.45064    1.3828601   -106.06778   -25941.596    4.3695611    4.3695611    4.3695611   -25941.596   -3097.1186   -59500.438    -15227.23   -59660.992    11977.205     -14531.7     83.42831 
   68900    1918.6456   -107.79757    1.7360309   -106.06154    1456.6582    4.3533502    4.3533502    4.3533502    1456.6582    5798.7445    18955.077   -20383.847    27435.109   -1790.3426    10052.166    82.503202 
   69000    1612.8761   -107.55118    1.4593642   -106.09182   -17196.397    4.3533739    4.3533739    4.3533739   -17196.397   -2067.4329   -50565.154    1043.3949   -11105.015    13179.015    7470.9909    82.504554 
   69100    1568.7136   -107.52154     1.419405   -106.10213    14801.441    4.3552627    4.3552627    4.3552627    14801.441    27921.626    26996.572   -10513.876   -20962.374    9322.1301   -18798.842    82.611985 
   69200    1112.6191   -107.13225    1.0067212   -106.12553   -25328.093    4.3637268    4.3637268    4.3637268   -25328.093   -15478.583   -54845.201   -5660.4964    57581.337     -10243.4    13058.942    83.094574 
   69300     1991.904   -107.90515    1.8023166   -106.10284    10263.133     4.354731     4.354731     4.354731    10263.133    22786.644   -6496.6876    14499.442   -8231.9682    20692.759   -5830.6909    82.581736 
   69400    1347.7819   -107.33495    1.2195014   -106.11544    22891.126    4.3416372    4.3416372    4.3416372    22891.126    3322.9401    15248.775    50101.662    29258.666    7663.4279   -4825.1514     81.83905 
   69500    1220.4816    -107.2339    1.1043174   -106.12958   -27789.061    4.3629915    4.3629915    4.3629915   -27789.061   -32193.141   -30278.218   -20895.823    42893.835   -5836.6611    4965.5405    83.052573 
   69600    2339.9407   -108.21888    2.1172275   -106.10165    7326.5043    4.3596551    4.3596551    4.3596551    7326.5043   -9700.9068    22523.116    9157.3041       -16299    20738.172   -4132.2389     82.86219 
   69700    1341.3643   -107.33355    1.2136946   -106.11986     -23691.8     4.345325     4.345325     4.345325     -23691.8   -45513.979   -17379.581   -8181.8389    56746.487   -7807.8765   -3254.1741    82.047775 
   69800    1332.8135   -107.32784    1.2059577   -106.12188    5925.2297    4.3482383    4.3482383    4.3482383    5925.2297   -2407.3072    30475.612   -10292.616   -24253.727    9269.0431    10322.557     82.21291 
   69900     1706.699   -107.67256    1.5442571    -106.1283   -26952.927    4.3492379    4.3492379    4.3492379   -26952.927   -68380.305   -31918.591    19440.116   -18969.212   -8892.3995   -6.8142029    82.269618 
   70000    1912.9713   -107.85865    1.7308966   -106.12775   -15913.809    4.3507004    4.3507004    4.3507004   -15913.809   -23717.345   -13393.779   -10630.302    39789.449   -1230.7396    11897.937    82.352642 
   70100    757.59143   -106.83128   0.68548464    -106.1458   -26452.377    4.3603956    4.3603956    4.3603956   -26452.377    -58192.94   -11324.393   -9839.7969   -71037.395    197.63229    21936.143    82.904419 
   70200    2175.3949   -108.09877     1.968343   -106.13042    4014.4961    4.3418104    4.3418104    4.3418104    4014.4961   -12783.881    27842.589   -3015.2203    1449.3583   -14235.577   -15413.036    81.848844 
   70300     1869.777   -107.83411    1.6918135   -106.14229   -12692.557    4.3471741    4.3471741    4.3471741   -12692.557    15438.308   -27590.537   -25925.441   -2161.4712    12409.096    41639.197    82.152558 
   70400    800.04271   -106.87992   0.72389546   -106.15602   -33175.398    4.3598967    4.3598967    4.3598967   -33175.398   -49982.868   -5986.7674    -43556.56   -52081.264   -7889.7042     11307.77    82.875965 
   70500    2120.2116   -108.04362     1.918412   -106.12521    7759.8256    4.3543118    4.3543118    4.3543118    7759.8256   -2632.3056    30072.895   -4161.1125    25621.661    -2980.402   -12933.431    82.557888 
   70600    1658.5345   -107.62701    1.5006768   -106.12633   -26634.118    4.3504707    4.3504707    4.3504707   -26634.118   -25138.053   -25655.893   -29108.406   -38712.038     8256.441    34988.155      82.3396 
   70700    1162.0475   -107.18248     1.051445   -106.13104    7082.8993     4.348357     4.348357     4.348357    7082.8993   -38443.504    52883.215    6808.9872   -31294.516   -8922.8985   -11138.191    82.219642 
   70800    2118.3025   -108.03896    1.9166846   -106.12227    10740.331    4.3445816    4.3445816    4.3445816    10740.331   -4814.8581    38506.545   -1470.6936    34382.145    9348.9693    1132.1857     82.00567 
   70900    1441.8054    -107.4437    1.3045758   -106.13913   -10574.277    4.3596873    4.3596873    4.3596873   -10574.277   -30813.967    21424.383   -22333.247   -42400.731   -2130.8925    25277.796    82.864023 
   71000    1650.2031   -107.62557    1.4931384   -106.13243   -4207.5929    4.3544067    4.3544067    4.3544067   -4207.5929   -39577.504    35393.237   -8438.5116   -11054.772    -1769.013     1191.565    82.563286 
   71100    1905.6181   -107.84615    1.7242433    -106.1219    22812.478    4.3372276    4.3372276    4.3372276    22812.478    27078.885    24383.421    16975.128    45703.081     7776.419     6380.942    81.589943 
   71200    1469.0286   -107.46526     1.329208   -106.13605    12699.952     4.347568     4.347568     4.347568    12699.952    20818.748    5298.8012    11982.308    -50219.91   -79.588373    13233.273    82.174893 
   71300    1372.1534   -107.37542    1.2415532   -106.13387    8314.7358    4.3598724    4.3598724    4.3598724    8314.7358    12573.434    38622.649   -26251.876    20337.939   -3643.1228   -6273.2264    82.874579 
   71400    1640.7872   -107.60445    1.4846188   -106.11983   -22428.685    4.3674086    4.3674086    4.3674086   -22428.685   -30753.122    9483.6279    -46016.56    18015.278    20080.121    11775.777     83.30508 
   71500    2070.5012   -107.97763     1.873433    -106.1042    42140.137    4.3387723    4.3387723    4.3387723    42140.137    59047.519    71412.347   -4039.4549   -27980.493   -2498.8446    4453.3702    81.677149 
   71600    718.14893   -106.79727   0.64979625   -106.14748   -18974.129     4.342896     4.342896     4.342896   -18974.129   -73701.005   -5205.6495    21984.267    32522.824     12116.23   -18423.509    81.910258 
   71700    1931.0428   -107.88081    1.7472481   -106.13356    698.14748    4.3604139    4.3604139    4.3604139    698.14748    -31835.88    29560.444    4369.8783    10556.454    6689.2889   -846.53149    82.905463 
   71800    1947.6549   -107.89126    1.7622791   -106.12898    -18816.81    4.3666592    4.3666592    4.3666592    -18816.81   -23592.377   -5622.4362   -27235.618   -216.54782   -6257.3437   -11338.708    83.262204 
   71900    898.71989   -106.94439   0.81318064   -106.13121   -37268.042    4.3630439    4.3630439    4.3630439   -37268.042   -68131.003    6983.9016   -50657.024    33800.783    23011.398   -24481.693    83.055565 
   72000    1965.0369   -107.89322    1.7780067   -106.11522    10267.982    4.3307402    4.3307402    4.3307402    10267.982    4525.0781    -7640.369    33919.236   -36510.126   -11048.468    18551.253    81.224379 
   72100    1859.4064   -107.81195      1.68243   -106.12952    8835.0323    4.3373072    4.3373072    4.3373072    8835.0323    2324.7455    36790.654   -12610.302    9852.9951    5919.0696   -20993.282    81.594435 
   72200    1343.2329   -107.35068    1.2153853   -106.13529   -23628.227    4.3645733    4.3645733    4.3645733   -23628.227   -43810.695   -8693.4371   -18380.549   -2514.7148    16127.643    4546.5972    83.142941 
   72300    1503.3496   -107.47575    1.3602623   -106.11549   -10361.801    4.3779867    4.3779867    4.3779867   -10361.801    5714.3351   -28146.638   -8653.1005   -49607.395   -18450.543    9626.5822    83.911855 
   72400    2018.8165   -107.91664    1.8266675   -106.08997   -4842.6727    4.3697975    4.3697975    4.3697975   -4842.6727    14074.821   -6073.5832   -22529.256    20324.941   -3208.4953   -29949.499    83.441855 
   72500     1393.768   -107.35471    1.2611106    -106.0936   -2801.9832    4.3298616    4.3298616    4.3298616   -2801.9832    6839.2988   -35390.782    20145.534   -48292.864    1847.6178    8647.8037    81.174955 
   72600    1447.4307   -107.43606    1.3096658   -106.12639    12339.774      4.33646      4.33646      4.33646    12339.774     25806.09    52323.105   -41109.873   -12221.081   -37869.138   -9297.8856    81.546635 
   72700    2107.5828   -108.02548    1.9069852    -106.1185   -15903.316    4.3660071    4.3660071    4.3660071   -15903.316    27933.606   -48539.449   -27104.106    157.32269    -959.3585   -11936.544    83.224907 
   72800    1170.9368     -107.181    1.0594882   -106.12151   -7437.9214    4.3704791    4.3704791    4.3704791   -7437.9214   -13131.252    23257.432   -32439.944   -35961.944   -18106.863    13045.558    83.480905 
   72900    1582.7681   -107.53986    1.4321218   -106.10774   -12596.806    4.3622583    4.3622583    4.3622583   -12596.806   -19061.843    42523.555   -61252.129    29313.482   -9700.2515   -6989.3006    83.010709 
   73000    1960.1205   -107.87046    1.7735582    -106.0969    16936.591    4.3332203    4.3332203    4.3332203    16936.591    14900.976   -830.39658    36739.193   -23993.699    10962.374    1157.2822    81.364001 
   73100    1056.1036   -107.08173   0.95558469   -106.12615   -17122.173    4.3419627    4.3419627    4.3419627   -17122.173   -59663.662    69224.438   -60927.295   -21492.086   -52003.091    11151.947    81.857462 
   73200    2217.9899   -108.11482    2.0068839   -106.10793   -13308.074    4.3672294    4.3672294    4.3672294   -13308.074   -26898.332     2447.332   -15473.222    5448.5552    22448.214   -3003.3253    83.294822 
   73300    1294.9751     -107.276    1.1717207   -106.10427    -21682.53    4.3739939    4.3739939    4.3739939    -21682.53   -53165.433   -23776.033    11893.876   -21594.979   -19977.034    10331.057    83.682473 
   73400    1340.8793   -107.30693    1.2132558   -106.09367   -10465.588    4.3556266    4.3556266    4.3556266   -10465.588   -30806.477    55950.471   -56540.758   -11334.095   -39424.452    12242.493    82.632694 
   73500     2112.804   -107.99473    1.9117094   -106.08302    44841.192    4.3280509    4.3280509    4.3280509    44841.192    29258.658    45572.049    59692.868    6419.1195    34838.546   -9876.3708    81.073154 
   73600     1065.418   -107.10196   0.96401257   -106.13795   -9697.4479    4.3386012    4.3386012    4.3386012   -9697.4479   -34255.343    12774.605   -7611.6058   -5411.9575   -53170.241    16798.829     81.66749 
   73700    1775.5895    -107.7468    1.6065907   -106.14021    2272.1305    4.3622218    4.3622218    4.3622218    2272.1305    19938.421    14481.458   -27603.487   -14109.722   -2874.5872    9858.1856    83.008625 
   73800    2072.3643    -107.9942    1.8751188   -106.11908   -6873.7509    4.3666316    4.3666316    4.3666316   -6873.7509   -31880.801   -14824.599    26084.147    13722.945   -17638.706   -17028.163    83.260624 
   73900    1023.3565   -107.04926   0.92595445   -106.12331   -16255.019    4.3459511    4.3459511    4.3459511   -16255.019   -41955.462    4393.0495   -11202.645     -18801.3   -39421.131    27256.331    82.083244 
   74000    2077.8169   -107.99266    1.8800524   -106.11261    25899.239    4.3359149    4.3359149    4.3359149    25899.239     21096.84    8125.6971    48475.179   -4585.0583    13915.675     1356.589    81.515883 
   74100    1860.9365   -107.81816    1.6838145   -106.13434    8364.8763    4.3533293    4.3533293    4.3533293    8364.8763    8865.1948    17428.631   -1199.1974    9584.9859   -30500.945   -236.55536    82.502016 
   74200    1134.8095   -107.17242    1.0267995   -106.14562   -44566.482    4.3648535    4.3648535    4.3648535   -44566.482   -66912.116   -38213.724   -28573.607   -45751.485   -20698.825    16608.694    83.158953 
   74300    1838.9541   -107.78622    1.6639243   -106.12229    32269.931    4.3422189    4.3422189    4.3422189    32269.931    46220.974    47713.279    2875.5409    11515.297    23943.766    8458.6615     81.87195 
   74400    2083.1262   -108.00804    1.8848564   -106.12319   -4898.3805    4.3470283    4.3470283    4.3470283   -4898.3805   -14335.538   -5994.4952    5634.8919   -10285.764   -21455.332   -6092.2581    82.144297 
   74500    770.27774   -106.83905   0.69696348   -106.14209   -3732.3196    4.3538411    4.3538411    4.3538411   -3732.3196   -17402.159    42728.675   -36523.475   -49488.666    5546.6081    13392.423    82.531115 
   74600    2129.9462   -108.06376    1.9272201   -106.13654   -17511.137    4.3475027    4.3475027    4.3475027   -17511.137   -23197.747   -8391.4688   -20944.196    9153.7087    31871.058    4712.1882    82.171192 
   74700    1549.6562   -107.53989    1.4021615   -106.13773   -2071.5074    4.3461196    4.3461196    4.3461196   -2071.5074   -26540.733    35900.806   -15574.596      2151.14   -30296.427   -19134.343    82.092789 
   74800    1157.0932   -107.19279    1.0469623   -106.14583   -21126.171    4.3457776    4.3457776    4.3457776   -21126.171   -21433.007   -41443.308   -502.19627   -57483.222    11124.632    28621.946    82.073414 
   74900    1856.3697   -107.81322    1.6796823   -106.13353     5683.798    4.3526803    4.3526803    4.3526803     5683.798   -2400.2019      7781.04    11670.556    16954.157    17556.569    4992.3331    82.465125 
   75000    1615.5102   -107.59991    1.4617476   -106.13816   -18890.516    4.3540187    4.3540187    4.3540187   -18890.516   -15923.718   -33153.528   -7594.3022   -25698.264   -17707.423   -8890.7782    82.541218 
   75100    1131.8421   -107.16713    1.0241145   -106.14302   -39151.603    4.3473126    4.3473126    4.3473126   -39151.603    -19576.89   -59999.513   -37878.405   -26794.887    8628.8513    37950.451    82.160413 
   75200    1815.3289   -107.77435    1.6425477    -106.1318      34559.2     4.341077     4.341077     4.341077      34559.2    22908.255    27844.184     52925.16    6097.5018      29025.6    6109.2051    81.807379 
   75300    1885.3311   -107.84572    1.7058872   -106.13983   -9925.0888    4.3480116    4.3480116    4.3480116   -9925.0888    -10542.66   -43133.644    23901.037   -30130.359   -2879.9072    6556.1866    82.200051 
   75400    1036.1699   -107.07995   0.93754826    -106.1424   -5375.1701    4.3493072    4.3493072    4.3493072   -5375.1701     2926.711   -17477.239   -1574.9826   -4720.4601    16293.538    36328.267    82.273554 
   75500    1677.4024   -107.65016     1.517749   -106.13241    5772.8248    4.3525959    4.3525959    4.3525959    5772.8248   -3926.6612   -8338.6767    29583.812    3032.4056    16709.899   -23783.211    82.460324 
   75600    1797.7065   -107.75317    1.6266026   -106.12657   -8490.9402    4.3522515    4.3522515    4.3522515   -8490.9402   -14858.236   -25417.725     14803.14   -28811.457   -10323.193    11079.759    82.440755 
   75700    1752.9942   -107.70941     1.586146   -106.12326    1489.7914    4.3469817    4.3469817    4.3469817    1489.7914   -18554.318     16079.52    6944.1723    12922.498    35382.828    26153.165    82.141652 
   75800    1145.3756   -107.17032    1.0363599   -106.13396   -11883.471    4.3490585    4.3490585    4.3490585   -11883.471   -13598.854   -7932.6801    -14118.88   -17431.244    -15795.38   -41377.374     82.25944 
   75900    2068.3583   -107.99439    1.8714941    -106.1229      5392.97    4.3507154    4.3507154    4.3507154      5392.97   -32509.354    28031.292    20656.971   -13396.823   -13312.656    10818.454    82.353494 
   76000    1700.9363   -107.66355    1.5390429    -106.1245   -24727.754    4.3613271    4.3613271    4.3613271   -24727.754   -32247.298   -75.468652   -41860.495    15158.446    21344.994   -2487.0325    82.957564 
   76100    659.23162   -106.73128   0.59648663   -106.13479   -6709.6084    4.3476052    4.3476052    4.3476052   -6709.6084   -27198.347    28927.353   -21857.831   -34408.199   -43230.839   -32692.096    82.177005 
   76200    2425.6777   -108.31404    2.1948042   -106.11923    19324.664    4.3376634    4.3376634    4.3376634    19324.664   -13873.255     30419.19    41428.056    19908.244    2630.0863    23534.211    81.614539 
   76300    1388.6251   -107.39457    1.2564572   -106.13811     5931.367    4.3560322    4.3560322    4.3560322     5931.367   -32026.185    24759.225    25061.061   -13800.354   -23847.772   -11779.241    82.655783 
   76400    929.34026     -106.977    0.8408866   -106.13611   -25379.128    4.3619256    4.3619256    4.3619256   -25379.128   -21781.674   -32899.597   -21456.114   -9109.0006   -29553.216   -8911.0998    82.991718 
   76500     2187.477   -108.08652    1.9792752   -106.10725    17155.371     4.353952     4.353952     4.353952    17155.371    15218.637    10481.018    25766.459    5550.6366    6103.4099    25148.035    82.537422 
   76600    1507.7122   -107.47968    1.3642097   -106.11547    8024.3033    4.3464784    4.3464784    4.3464784    8024.3033    28416.725   -21139.797    16795.982   -18003.367   -28477.919   -31876.636    82.113124 
   76700    1485.5912   -107.45615    1.3441941   -106.11196   -7607.1524    4.3620675    4.3620675    4.3620675   -7607.1524    26380.708   -18572.691   -30629.475   -9528.2925    4802.7393   -5059.1082     82.99982 
   76800    2038.6802   -107.92542    1.8446406   -106.08078   -4014.8754    4.3727936    4.3727936    4.3727936   -4014.8754   -4170.1291    3253.5053   -11128.002   -10636.607    12518.208    2972.0008      83.6136 
   76900    1636.8361   -107.55415    1.4810437    -106.0731   -16430.526    4.3709146    4.3709146    4.3709146   -16430.526   -23174.812   -20991.238   -5125.5273   -18866.465   -16363.998   -27319.826     83.50586 
   77000    1825.6853   -107.72194    1.6519184   -106.07002   -25736.898    4.3550704    4.3550704    4.3550704   -25736.898   -50421.937    4164.1516   -30952.908   -1687.8316    35757.186   -563.05937    82.601045 
   77100    1692.1597   -107.61659    1.5311017   -106.08549    20040.811    4.3409374    4.3409374    4.3409374    20040.811   -23982.438    36119.885    47984.986   -28248.772    1127.9847    5997.0626    81.799485 
   77200    1851.4242   -107.78243    1.6752075   -106.10722   -333.17788    4.3555189    4.3555189    4.3555189   -333.17788   -31192.323    5943.8502    24248.939    10147.246    11606.818   -28793.671    82.626568 
   77300     1073.963   -107.09405   0.97174428    -106.1223    -30104.19     4.366084     4.366084     4.366084    -30104.19   -59017.848    5452.8097   -36747.533   -25856.578    39743.575    15766.378    83.229305 
   77400    1628.1767   -107.58213    1.4732085   -106.10892     15266.55    4.3473492    4.3473492    4.3473492     15266.55    11406.466    4070.9335    30322.252   -6527.2597   -31754.704     -2187.19    82.162487 
   77500    1855.6132   -107.79115    1.6789978   -106.11215    2579.2919    4.3394382    4.3394382    4.3394382    2579.2919   -17218.217    9378.2045    15577.888    11421.331    17471.738   -24722.797    81.714761 
   77600    1474.5007   -107.46508    1.3341592   -106.13092    4984.4972    4.3376469    4.3376469    4.3376469    4984.4972   -2220.1655    18045.955   -872.29791   -36076.748    12145.561    17414.721    81.613611 
   77700    1256.6934   -107.28459    1.1370826   -106.14751    2152.4721    4.3519529    4.3519529    4.3519529    2152.4721   -40191.894    20323.082    26326.228    7954.5862   -41805.372   -815.53885    82.423788 
   77800    1946.7428    -107.8871    1.7614538   -106.12564   -24047.936    4.3630079    4.3630079    4.3630079   -24047.936   -2765.6579   -45202.603   -24175.548    16766.245    6416.3891   -6375.5472    83.053511 
   77900    1652.3279   -107.62264     1.495061   -106.12758    20372.874    4.3365902    4.3365902    4.3365902    20372.874    10594.129    15845.903    34678.591   -36462.698   -6508.6895    497.53059    81.553976 
   78000    1218.9956   -107.24583    1.1029729   -106.14286    1665.0387     4.328351     4.328351     4.328351    1665.0387   -16003.422    19888.983    1109.5548    28467.454   -38196.493    5971.8596     81.09002 
   78100    1606.4136   -107.60958    1.4535168   -106.15607    12826.304    4.3482349    4.3482349    4.3482349    12826.304    39432.956   -15392.812    14438.767     24185.21    10277.944   -25878.247    82.212717 
   78200    2397.4412   -108.30925    2.1692551   -106.13999   -10823.841    4.3546658    4.3546658    4.3546658   -10823.841   -9797.0606   -1591.8055   -21082.658   -18185.444   -19081.143   -4378.1706    82.578023 
   78300    453.67389   -106.56903   0.41049367   -106.15853   -6274.3163    4.3462991    4.3462991    4.3462991   -6274.3163   -2929.0312    -13471.64   -2422.2772    53022.484   -6068.8972   -2309.3493    82.102965 
   78400    1949.1201   -107.91463    1.7636049   -106.15102   -4592.5114    4.3357726    4.3357726    4.3357726   -4592.5114   -10628.691    10982.352   -14131.195   -1918.0402    13617.049   -40444.825    81.507861 
   78500    2191.5082   -108.13035    1.9829227   -106.14742    32905.389    4.3365165    4.3365165    4.3365165    32905.389    26816.108    39218.426    32681.634    6208.8846   -8574.9344    19989.258    81.549818 
   78600    912.08399   -106.98812   0.82527276   -106.16285   -35545.688    4.3562781    4.3562781    4.3562781   -35545.688   -45727.442   -44146.146   -16763.477    59907.148   -889.22917   -24931.322    82.669784 
   78700    1641.3512   -107.62488     1.485129   -106.13975   -4845.7486    4.3540982    4.3540982    4.3540982   -4845.7486   -10690.333    10027.471   -13874.383   -34650.236    5464.4356   -9612.1182     82.54574 
   78800    2156.4004   -108.08013    1.9511564   -106.12898    3168.3835    4.3424246    4.3424246    4.3424246    3168.3835   -14768.978    10305.704    13968.424    6940.2003   -3079.6938    20766.806    81.883589 
   78900    1364.8349    -107.3785    1.2349313   -106.14357   -6368.5531    4.3346026    4.3346026    4.3346026   -6368.5531    11170.654   -30920.353    644.03869     32528.85   -5110.6115   -35532.253    81.441892 
   79000    1216.2092   -107.26404    1.1004516   -106.16359   -16416.653    4.3419956    4.3419956    4.3419956   -16416.653   -61767.034   -13637.224    26154.298    -55959.67   -7164.4571    7063.0823    81.859321 
   79100     2059.682   -108.00398    1.8636435   -106.14034   -2296.8078    4.3560454    4.3560454    4.3560454   -2296.8078     4748.299   -16223.533    4584.8108     1002.073    12699.053   -6988.2579    82.656532 
   79200    1691.3241   -107.65613    1.5303456   -106.12579   -20068.359    4.3624216    4.3624216    4.3624216   -20068.359   -40536.317   -26068.572    6399.8119   -12651.026   -15138.721   -26958.934    83.020036 
   79300    1351.2538   -107.33908    1.2226429   -106.11644   -29686.335    4.3575843    4.3575843    4.3575843   -29686.335   -75781.869   -22666.949    9389.8128   -38567.318    22079.629    18073.303    82.744167 
   79400    1704.6075   -107.64913    1.5423647   -106.10676     27906.38    4.3307676    4.3307676    4.3307676     27906.38    47631.324    48077.059   -11989.241    6716.5369    16523.273   -20191.771    81.225922 
   79500    1909.8664   -107.85577    1.7280873   -106.12768   -8750.9887    4.3376109    4.3376109    4.3376109   -8750.9887   -4223.0615   -35029.673    12999.769   -37158.954      4818.45   -3601.5729     81.61158 
   79600    1382.7951   -107.38792    1.2511821   -106.13674   -14724.173    4.3565487    4.3565487    4.3565487   -14724.173   -46081.303    4972.9696   -3064.1866   -22563.607     45445.58     2894.224    82.685191 
   79700    1699.9864   -107.66228    1.5381834    -106.1241    -5887.154     4.356478     4.356478     4.356478    -5887.154    36762.091   -44422.259   -10001.294    16296.871   -9955.1882   -13125.339    82.681164 
   79800    1313.3615   -107.31825    1.1883571   -106.12989   -21951.349    4.3528218    4.3528218    4.3528218   -21951.349   -30577.741   -35990.931    714.62569   -40067.041    19001.964    9229.3236    82.473166 
   79900    1951.0287   -107.88442    1.7653318   -106.11909    19559.607    4.3345441    4.3345441    4.3345441    19559.607   -4181.6925    38106.403     24754.11   -8234.2847     9273.129   -4365.1919    81.438596 
   80000    1605.3393   -107.58111    1.4525447   -106.12857    12830.576    4.3419998    4.3419998    4.3419998    12830.576    34206.379    2913.9453     1371.403   -9392.2722   -13393.053    1065.2596    81.859561 
   80100    1020.0225   -107.07056   0.92293778   -106.14763   -47393.635    4.3531581    4.3531581    4.3531581   -47393.635   -62418.728   -58080.674   -21681.504   -35553.992    15633.255     10124.89    82.492285 
   80200    1817.7426   -107.77999    1.6447317   -106.13526    31872.076    4.3483204    4.3483204    4.3483204    31872.076    34513.424    26118.122    34984.682    24576.224    4896.7907   -8527.7275    82.217567 
   80300     2182.268    -108.1071    1.9745619   -106.13254   -4955.7634    4.3514197    4.3514197    4.3514197   -4955.7634    5721.2225   -32051.844    11463.332   -24412.785    397.77858    -8422.088    82.393492 
   80400    968.25449   -107.02233   0.87609701   -106.14623    10992.991    4.3402232    4.3402232    4.3402232    10992.991     31066.13   -274.64033    2187.4839   -10055.728    31742.468    12322.162    81.759117 
   80500    1921.8739   -107.87696    1.7389519     -106.138   -3285.5934    4.3505381    4.3505381    4.3505381   -3285.5934     23690.85   -39078.745    5531.1146    34755.771    1949.0279   -26176.734    82.343425 
   80600    1759.0064   -107.71124    1.5915859   -106.11965    6990.9635    4.3608159    4.3608159    4.3608159    6990.9635    16752.906    9332.8036    -5112.819   -37767.029    2688.6571   -431.54533    82.928392 
   80700    1035.0167   -107.06815   0.93650487   -106.13164   -8971.3223    4.3447999    4.3447999    4.3447999   -8971.3223    5235.0569    6619.7076   -38768.731    14202.492    24437.454   -1494.7432    82.018029 
   80800    1720.1942   -107.68707    1.5564679    -106.1306    511.14195    4.3339088    4.3339088    4.3339088    511.14195    15229.693   -12689.644   -1006.6237    31153.285   -12244.595   -18772.524    81.402795 
   80900    2240.5739   -108.15266    2.0273184   -106.12534    16035.348    4.3499463    4.3499463    4.3499463    16035.348    18774.259    29483.945   -152.15996   -8369.7357    21322.349     1920.636    82.309825 
   81000    1084.2876   -107.12285   0.98108621   -106.14176   -43513.581    4.3642646    4.3642646    4.3642646   -43513.581   -14578.759   -65449.898   -50512.086    32382.411    21372.267   -26845.872    83.125301 
   81100    1419.4132   -107.41617    1.2843149   -106.13185    -5631.111    4.3469747    4.3469747    4.3469747    -5631.111    42965.217    -33309.86   -26548.689   -6371.5088   -10146.903    2638.2209    82.141256 
   81200    1672.8696   -107.63731    1.5136475   -106.12366     23327.19    4.3347589    4.3347589    4.3347589     23327.19   -2364.1645     47850.65    24495.084    -15625.92    30615.957    847.65507    81.450703 
   81300    1924.4916   -107.87232    1.7413204     -106.131    -3363.881    4.3395681    4.3395681    4.3395681    -3363.881    45637.042   -22447.569   -33281.116    14703.188   -4195.7476   -34943.345    81.722101 
   81400    1165.2602    -107.1976    1.0543519   -106.14325   -3782.2028     4.354905     4.354905     4.354905   -3782.2028    2289.7749   -27706.125    14069.742   -24737.686    798.53015    12839.251    82.591632 
   81500    1547.9195   -107.52389    1.4005901    -106.1233   -12291.804    4.3590207    4.3590207    4.3590207   -12291.804   -13313.541   -7600.3094   -15961.561   -7634.5009     9813.677    3327.7523    82.826021 
   81600    1902.5173    -107.8305    1.7214377   -106.10906    5393.1908    4.3442297    4.3442297    4.3442297    5393.1908    81781.826   -46167.296   -19434.957   -1210.2751   -10595.942   -45365.924    81.985743 
   81700    1623.6578   -107.58405    1.4691197   -106.11493   -1086.7359    4.3428011    4.3428011    4.3428011   -1086.7359    10649.638    -5504.687   -8405.1592    -25558.96    13911.282    23084.809    81.904885 
   81800    1216.2942   -107.22834    1.1005286   -106.12781   -1472.9074    4.3483909    4.3483909    4.3483909   -1472.9074    48091.809   -23634.087   -28876.444    15477.157   -1577.5701   -25735.972    82.221563 
   81900    1907.2511   -107.85332    1.7257209    -106.1276   -7150.8262    4.3563566    4.3563566    4.3563566   -7150.8262    57583.594   -36503.715   -42532.357   -8283.1614    5485.0503   -21897.142    82.674253 
   82000    2348.6665   -108.23605    2.1251228   -106.11093   -18893.329    4.3580184    4.3580184    4.3580184   -18893.329   -2425.8945   -30641.066   -23613.027   -18496.336     10479.19    2518.7997    82.768901 
   82100    408.52271   -106.50709   0.36963993   -106.13745    6583.0833    4.3405589    4.3405589    4.3405589    6583.0833    55157.977   -6681.0172    -28727.71    18741.988   -6471.5797   -35882.647    81.778091 
   82200    2137.9483   -108.06383    1.9344606   -106.12937    17605.875    4.3416455    4.3416455    4.3416455    17605.875    9787.1574    599.78725     42430.68    9360.2961    -20040.38    2648.8602    81.839523 
   82300    1914.5105   -107.86785    1.7322893   -106.13556     8766.457    4.3507722    4.3507722    4.3507722     8766.457    42416.237   -21046.211    4929.3458     1087.763    9472.0131   -11458.833    82.356718 
   82400    787.56595   -106.85573   0.71260622   -106.14312   -22670.272    4.3641328    4.3641328    4.3641328   -22670.272   -31556.637   -24471.858   -11982.321    19233.394    -6369.118   -20633.944    83.117769 
   82500    1907.0718   -107.83794    1.7255586   -106.11238   -10518.995    4.3531419    4.3531419    4.3531419   -10518.995     6454.529   -39472.716    1461.2032   -17854.658     -14042.3    25577.779    82.491359 
   82600    1882.5041   -107.80864    1.7033293   -106.10531    32551.399    4.3296571    4.3296571    4.3296571    32551.399    78980.326   -2002.9481    20676.819    1989.2298   -167.19905   -31297.535    81.163449 
   82700    1816.7783   -107.77678    1.6438592   -106.13292    -18950.28    4.3357627    4.3357627    4.3357627    -18950.28   -14968.239   -28766.218   -13116.382   -1880.0525   -12603.386     1573.509    81.507302 
   82800    925.00151   -106.98799    0.8369608   -106.15103    13904.875    4.3496046    4.3496046    4.3496046    13904.875    15736.282   -22491.925    48470.268   -27513.661   -772.62969      450.918    82.290434 
   82900    1984.4435    -107.9244    1.7955662   -106.12884   -3492.2186    4.3661856    4.3661856    4.3661856   -3492.2186    28451.419   -39352.597    424.52231    4755.8378    12896.795   -36109.393    83.235116 
   83000    2088.7543   -108.00218    1.8899488   -106.11223   -13479.083     4.360365     4.360365     4.360365   -13479.083   -4711.6129   -30414.621   -5311.0147     -25989.8   -16890.306    16538.428    82.902673 
   83100     801.9649   -106.84945    0.7256347   -106.12382    8552.8222    4.3301838    4.3301838    4.3301838    8552.8222   -6802.5751     6681.991    25779.051   -6171.0872    7488.2743   -30753.803    81.193078 
   83200    1588.5334    -107.5857    1.4373384   -106.14836    7178.0814    4.3272391    4.3272391    4.3272391    7178.0814    23535.769    -28153.45    26151.926    14374.733    13151.939   -21738.567    81.027542 
   83300    2354.9925   -108.28252    2.1308467   -106.15167    20592.535    4.3428576    4.3428576    4.3428576    20592.535    19680.073    22020.906    20076.624   -1099.3995    -14624.68    5426.7264    81.908082 
   83400     1008.835   -107.07772   0.91281508   -106.16491   -29858.638    4.3625683    4.3625683    4.3625683   -29858.638   -20705.771   -63368.877   -5501.2671    14458.852    5924.9969     -46533.3    83.028407 
   83500     1422.674    -107.4245    1.2872653   -106.13723   -13988.502    4.3576583    4.3576583    4.3576583   -13988.502   -24030.185   -24567.792    6632.4718    18631.456    22733.969     4642.088    82.748384 
   83600    2439.9525   -108.31789    2.2077203   -106.11017    27240.874    4.3324906    4.3324906    4.3324906    27240.874     77638.69     12503.28   -8419.3474    -1780.322   -22355.432   -1517.2845    81.322907 
   83700    1183.7839   -107.21542    1.0711125    -106.1443    860.39399    4.3318237    4.3318237    4.3318237    860.39399   -8459.1209   -12051.449    23091.752    42211.074    23866.209    -31433.99    81.285356 
   83800    1315.9533   -107.35237    1.1907022   -106.16167   -10704.514    4.3428595    4.3428595    4.3428595   -10704.514   -13615.994   -32766.128     14268.58   -10154.845    7551.4968    25822.492    81.908189 
   83900    1777.2582   -107.75648    1.6081005   -106.14838    17864.763    4.3570871    4.3570871    4.3570871    17864.763     21881.92   -15859.815    47572.184   -14119.096   -21673.681   -255.54298    82.715849 
   84000    1759.8221   -107.73258    1.5923241   -106.14025    295.44442    4.3545811    4.3545811    4.3545811    295.44442    8954.8552   -29441.042     21372.52    36635.626    22712.758   -4404.9982    82.573205 
   84100     1059.637   -107.10479   0.95878178   -106.14601   -8836.7901    4.3380109    4.3380109    4.3380109   -8836.7901    1108.8425   -38713.501    11094.288   -25213.091    1455.6866     25848.99    81.634159 
   84200    1696.3843   -107.68501    1.5349242   -106.15009    14504.529    4.3370718    4.3370718    4.3370718    14504.529    192.18994    16778.862    26542.534    -10891.16   -13367.092    7121.7462    81.581151 
   84300    2455.0432   -108.36216    2.2213746   -106.14078   -1953.8611     4.355072     4.355072     4.355072   -1953.8611    30058.819   -12654.007   -23266.395   -1458.7959    7836.9806   -10722.581    82.601136 
   84400    977.97466   -107.03687   0.88489202   -106.15197   -7605.5337    4.3596644    4.3596644    4.3596644   -7605.5337    12614.568   -12924.036   -22507.133   -39911.515    -870.9278    22911.647    82.862718 
   84500    1441.1155   -107.43675    1.3039516    -106.1328    22328.673    4.3559806    4.3559806    4.3559806    22328.673    61514.576    32167.969   -26696.527   -15069.922   -18042.386   -980.34978    82.652845 
   84600    2138.1357   -108.04699    1.9346301   -106.11236    24793.538    4.3500123    4.3500123    4.3500123    24793.538    72591.008    3260.2755   -1470.6684   -16560.904    16670.739    1784.3746    82.313571 
   84700    1356.7718   -107.36136    1.2276357   -106.13372    4593.4585    4.3407147    4.3407147    4.3407147    4593.4585   -1514.9625    37141.429   -21846.091   -24834.143   -41726.668    15517.242    81.786896 
   84800    958.02301   -107.01778   0.86683935   -106.15094   -21951.603    4.3490195    4.3490195    4.3490195   -21951.603    -86415.94     46173.22    -25612.09    21581.714    10804.338   -8513.8999    82.257227 
   84900    1976.9881   -107.92844    1.7888204   -106.13962    9489.4223    4.3465599    4.3465599    4.3465599    9489.4223    23278.577    15971.117   -10781.427    13163.697    19817.398    -8639.345    82.117743 
   85000    1794.8445   -107.76348     1.624013   -106.13947    28188.715     4.348685     4.348685     4.348685    28188.715    57428.527     21945.33    5192.2889     5194.618   -31907.346    9597.8996    82.238248 
   85100    1204.1872   -107.24144    1.0895739   -106.15186    9090.7078    4.3469037    4.3469037    4.3469037    9090.7078    40294.904    21512.626   -34535.406    23830.247    28497.071   -8072.3602    82.137231 
   85200    1325.8397   -107.34312    1.1996477   -106.14347    16718.609    4.3471628    4.3471628    4.3471628    16718.609    23514.735    12120.286    14520.806    -2605.078    12626.459   -846.98926    82.151918 
   85300    1878.7861   -107.83233    1.6999651   -106.13236     10018.76    4.3501896    4.3501896    4.3501896     10018.76    37622.457   -11409.991    3843.8147   -10754.266   -1245.1307    13207.834    82.323638 
   85400    1953.5012   -107.89776    1.7675689    -106.1302    4839.9526    4.3491437    4.3491437    4.3491437    4839.9526    32937.891    12188.818   -30606.851   -2033.6781    26660.529    -5016.326    82.264272 
   85500    1270.5094   -107.29862    1.1495836   -106.14903   -13979.894    4.3430636    4.3430636    4.3430636   -13979.894      47294.2   -71902.977   -17330.907   -31871.085   -9513.9497   -9452.8839    81.919739 
   85600    1235.3917   -107.26928    1.1178084   -106.15147    -8946.882    4.3398057    4.3398057    4.3398057    -8946.882   -1043.5838   -33394.718     7597.656   -3195.4619    21657.796    10978.539    81.735523 
   85700    1815.9546   -107.78917    1.6431139   -106.14606    -10531.51    4.3458989    4.3458989    4.3458989    -10531.51   -29911.606     11269.65   -12952.575    10182.249    30244.924   -5532.6119    82.080285 
   85800    1989.8992   -107.93985    1.8005026   -106.13935   -6801.7074    4.3480859    4.3480859    4.3480859   -6801.7074    46644.708   -49021.085   -18028.745   -5076.6229   -13602.692   -3371.3769    82.204265 
   85900    904.20275   -106.97187   0.81814165   -106.15372    12903.147    4.3453954    4.3453954    4.3453954    12903.147    20791.859   -38793.714    56711.298    17391.095    22308.814    8623.8481     82.05176 
   86000    1537.6823   -107.53387    1.3913273   -106.14254     4703.909     4.350973     4.350973     4.350973     4703.909    38732.349   -5565.4533   -19055.168    6836.8866    7920.3631    2620.2015    82.368124 
   86100    2000.0595   -107.93677    1.8096959   -106.12707    2023.1273    4.3538993    4.3538993    4.3538993    2023.1273    55132.736   -44328.477   -4734.8773   -4435.2331    -7787.243     13424.45    82.534424 
   86200    1593.1224   -107.56911    1.4414906   -106.12762   -26879.952    4.3539775    4.3539775    4.3539775   -26879.952   -48701.175   -8966.4024   -22972.277     20234.24    68542.683    1207.6937    82.538876 
   86300     1548.975   -107.52464    1.4015452    -106.1231   -14703.362    4.3459653    4.3459653    4.3459653   -14703.362   -35299.757   -6461.7624   -2348.5648   -2477.6549    398.68342    3554.0581    82.084048 
   86400    1713.3146    -107.6798    1.5502431   -106.12955   -798.21516    4.3476326    4.3476326    4.3476326   -798.21516    20859.548   -35533.873     12279.68   -10429.193   -27149.172     10288.79    82.178559 
   86500    1672.9448   -107.65194    1.5137156   -106.13822    17006.217    4.3454344    4.3454344    4.3454344    17006.217    53341.533    20713.699    -23036.58    1878.3895    43248.908   -11826.278    82.053967 
   86600    1344.8468    -107.3634    1.2168456   -106.14655    3853.7279    4.3442028    4.3442028    4.3442028    3853.7279     19817.57   -27241.566     18985.18   -16304.478   -19339.605    8768.3276    81.984223 
   86700    1459.5847   -107.46433    1.3206629   -106.14367   -32030.674    4.3547619    4.3547619    4.3547619   -32030.674   -10965.331   -41116.935   -44009.754    8740.2126   -24535.823    7473.0991    82.583492 
   86800    2334.2345   -108.24348    2.1120644   -106.13141   -3731.3976    4.3404525    4.3404525    4.3404525   -3731.3976     22748.54   -21679.021   -12263.712   -5038.1523    37516.319   -18443.033    81.772075 
   86900    1508.2318   -107.51245    1.3646799   -106.14777   -14122.629    4.3352408    4.3352408    4.3352408   -14122.629   -25986.278   -30038.398     13656.79    1558.3123   -7926.2419    -3173.785    81.477872 
   87000     956.6494   -107.02762   0.86559648   -106.16203   -10312.595    4.3459589    4.3459589    4.3459589   -10312.595    22430.976   -41897.788   -11470.973     24579.65   -26554.464    5382.1513    82.083682 
   87100     2226.903   -108.15023    2.0149486   -106.13528   -17424.525    4.3614768    4.3614768    4.3614768   -17424.525    43385.762   -62705.596   -32953.742   -1199.0675    11526.885   -34948.996    82.966104 
   87200    1792.6831   -107.74263    1.6220573   -106.12057    -5759.678     4.359578     4.359578     4.359578    -5759.678   -3412.7933   -19488.234    5621.9932    15084.122   -21327.133    10327.838    82.857794 
   87300    878.41301   -106.92445   0.79480655   -106.12964    5802.1705     4.335869     4.335869     4.335869    5802.1705    9727.6108   -18349.979     26028.88    16604.397   -6822.7537    -20613.68    81.513299 
   87400    1481.3565   -107.48219    1.3403625   -106.14183     13906.97    4.3302586    4.3302586    4.3302586     13906.97    41467.581    -20165.73    20419.059    -10750.27   -2372.8524   -14966.322    81.197285 
   87500    2398.9311   -108.31768    2.1706032   -106.14708    10434.814    4.3418205    4.3418205    4.3418205    10434.814     20285.16    18802.107   -7782.8262    5722.9648    -21982.24    11069.931     81.84942 
   87600     1360.618   -107.39746    1.2311158   -106.16635   -25891.158    4.3569631    4.3569631    4.3569631   -25891.158   -7481.3957   -59931.622   -10260.455   -13559.629   -2654.3755   -42970.945    82.708789 
   87700    996.76986   -107.05852   0.90189832   -106.15663    -18235.76    4.3457274    4.3457274    4.3457274    -18235.76   -23058.796   -68774.053     37125.57   -29239.654   -4199.0379    1052.4433    82.070571 
   87800    2005.7831    -107.9488    1.8148747   -106.13393     5328.851    4.3328094    4.3328094    4.3328094     5328.851    11188.812   -7953.8232    12751.564    7920.7639   -16536.814     12144.21    81.340857 
   87900    2076.9961   -108.01523    1.8793097   -106.13592   -3181.9991    4.3429096    4.3429096    4.3429096   -3181.9991    19781.521   -21422.266   -7905.2525   -12756.533    19301.976   -41593.755    81.911026 
   88000    934.07277   -106.99183   0.84516867   -106.14666   -31891.004    4.3563247    4.3563247    4.3563247   -31891.004   -15191.914   -71564.429   -8916.6706     2266.195   -11512.122      20202.8    82.672432 
   88100    1392.1113   -107.40885    1.2596116   -106.14923   -9846.3739    4.3575095    4.3575095    4.3575095   -9846.3739   -7127.2577   -40978.549    18566.685    11258.736    -14605.97    16243.414    82.739909 
   88200    2457.6955   -108.36218    2.2237745    -106.1384    41304.634    4.3305465    4.3305465    4.3305465    41304.634    42703.366    42697.182    38513.355   -4322.0189    19225.519   -10683.231    81.213481 
   88300    1192.9472   -107.24875    1.0794037   -106.16935    19365.751    4.3210357    4.3210357    4.3210357    19365.751    59796.524    4756.6879   -6455.9598    21771.258   -20022.481    36061.489    80.679567 
   88400    1113.2206    -107.1809    1.0072654   -106.17363   -20038.592    4.3547648    4.3547648    4.3547648   -20038.592   -33989.334   -19362.162   -6764.2803    11521.443   -21554.149   -8961.9004    82.583659 
   88500    2124.1148   -108.05169    1.9219437   -106.12974   -19910.817    4.3645752    4.3645752    4.3645752   -19910.817   -2292.1027   -47824.426   -9615.9217   -15610.059    13832.666    7698.9555    83.143049 
   88600    1630.9195   -107.61055    1.4756902   -106.13486   -4282.3444    4.3386716    4.3386716    4.3386716   -4282.3444    30902.234   -18117.311   -25631.956    15926.677   -8394.7364    30981.577    81.671461 
   88700    975.71061   -107.02788   0.88284346   -106.14503   -26824.375    4.3274481    4.3274481    4.3274481   -26824.375   -38849.523   -50105.445    8481.8453   -6334.3096   -13712.143   -30227.834    81.039285 
   88800    1712.4692   -107.70912    1.5494781   -106.15964   -6425.3343      4.33803      4.33803      4.33803   -6425.3343   -36289.956   -23072.811    40086.765   -32586.312    16025.416   -2499.8485    81.635235 
   88900    2256.2939   -108.19105    2.0415421    -106.1495    8594.8104    4.3516037    4.3516037    4.3516037    8594.8104    6246.5227    19302.212    235.69617    8131.4197   -14423.075   -4028.1136    82.403947 
   89000    882.14805   -106.95305   0.79818609   -106.15486   -19525.229    4.3583956    4.3583956    4.3583956   -19525.229   -18723.326   -71475.163    31622.802   -30860.591    2760.6093   -33100.646    82.790394 
   89100    1393.4701   -107.39401     1.260841   -106.13317    11164.254     4.348633     4.348633     4.348633    11164.254   -4915.8307   -2681.6341    41090.228     1178.153    5669.4841    16512.559      82.2353 
   89200    2393.0204   -108.28772    2.1652551   -106.12246    12147.806    4.3361598    4.3361598    4.3361598    12147.806     39342.85   -15523.484    12624.052    -9981.958     269.3519    7220.4515      81.5297 
   89300    1519.1464   -107.52142    1.3745556   -106.14686    37309.258    4.3247943    4.3247943    4.3247943    37309.258    89663.563   -26163.028    48427.238   -20462.856   -182.05551   -18471.223    80.890287 
   89400    886.75175    -106.9847   0.80235162   -106.18234   -22406.721    4.3430472    4.3430472    4.3430472   -22406.721   -61.568093   -38699.805   -28458.792    8120.4248    19078.591    48257.374    81.918814 
   89500    2229.6137   -108.16593    2.0174014   -106.14852   -4814.6517     4.360107     4.360107     4.360107   -4814.6517     28465.64   -18365.241   -24544.355    11273.814   -5467.0024      8806.32    82.887956 
   89600    1726.6878   -107.69746    1.5623434   -106.13512    5799.6554    4.3578464    4.3578464    4.3578464    5799.6554   -319.78583    8608.5583    9110.1938   -489.39552   -8570.7252    22437.719    82.759098 
   89700    591.77956   -106.67479   0.53545458   -106.13934   -30720.884    4.3546376    4.3546376    4.3546376   -30720.884    4564.3107   -39054.179   -57672.783    27477.079    17565.301    41466.642    82.576419 
   89800    2116.5868   -108.04605    1.9151323   -106.13092    11752.034    4.3326937    4.3326937    4.3326937    11752.034    18191.379    6286.3246    10778.397    7013.6881   -9113.5142   -35802.426    81.334341 
   89900    2255.1861   -108.18442    2.0405398   -106.14388    5849.4924    4.3234202    4.3234202    4.3234202    5849.4924    37179.134   -14759.607   -4871.0504    3762.3798    7236.7293    23578.105     80.81321 
   90000    958.97983    -107.0423    0.8677051    -106.1746   -9817.6366     4.338812     4.338812     4.338812   -9817.6366    4620.2441    -35482.81     1409.656    32978.296    11426.484    20189.378    81.679393 
   90100    1620.7962   -107.62418    1.4665304   -106.15765   -7705.3057     4.357593     4.357593     4.357593   -7705.3057    38504.532   -44911.382   -16709.067   -20752.909   -1027.6801   -42232.021    82.744663 
   90200     1937.263   -107.87262    1.7528763   -106.11974   -16891.346    4.3689822    4.3689822    4.3689822   -16891.346   -613.97827   -16095.984   -33964.075    1988.4069    11617.818    13469.918    83.395154 
   90300    1252.3979   -107.26052    1.1331959   -106.12733   -5088.9463    4.3423226    4.3423226    4.3423226   -5088.9463    2000.7531   -2301.5327   -14966.059    17942.653    9096.5412   -2705.6257    81.877818 
   90400    927.62351   -106.97452   0.83933324   -106.13519    22005.681    4.3144139    4.3144139    4.3144139    22005.681     45048.04    9711.9589    11257.043   -40307.714   -6527.9486   -30572.482    80.309221 
   90500     2141.389   -108.09844    1.9375738   -106.16087     13013.33    4.3343835    4.3343835    4.3343835     13013.33    28638.728    20812.298   -10411.035    4027.1753    28420.722    13407.609    81.429544 
   90600    2112.2778   -108.05627    1.9112333   -106.14504    -24073.88    4.3671251    4.3671251    4.3671251    -24073.88   -1622.6783   -54136.642   -16462.319   -7949.3683    5080.0063   -19242.705    83.288855 
   90700    1049.8822   -107.08584   0.94995544   -106.13588   -24932.997    4.3632715    4.3632715    4.3632715   -24932.997    2678.7555   -63948.283   -13529.463   -20827.908    3541.0129   -13570.986    83.068565 
   90800    1605.9843   -107.57961    1.4531284   -106.12648   -15944.472    4.3358146    4.3358146    4.3358146   -15944.472   -14131.882   -7449.4425   -26252.091    29563.438    46364.099    26672.783     81.51023 
   90900    2304.7426   -108.19868    2.0853795    -106.1133    41659.651    4.3121009    4.3121009    4.3121009    41659.651    74137.927    10639.589    40201.437    3737.4497   -13303.892   -21653.999    80.180126 
   91000    1172.1617   -107.21502    1.0605965   -106.15442   -22958.264    4.3434758    4.3434758    4.3434758   -22958.264   -45469.888   -1901.7454   -21503.159   -15050.136    32592.068    1190.6577     81.94307 
   91100    1187.1331   -107.22131     1.074143   -106.14717   -42257.173    4.3573732    4.3573732    4.3573732   -42257.173   -59579.786   -40027.335   -27164.397    30309.008     29540.43    20614.038     82.73214 
   91200    2382.8146   -108.27732    2.1560208   -106.12129    33659.956    4.3319836    4.3319836    4.3319836    33659.956    31119.417    51015.914    18844.535   -2758.5815   -26881.609   -15318.556    81.294359 
   91300    1355.1137    -107.3663    1.2261354   -106.14016   -8997.9714    4.3372296    4.3372296    4.3372296   -8997.9714   -22881.651   -6639.3678    2527.1045   -7530.3793    36461.308   -8929.6842     81.59006 
   91400    1125.0331   -107.16118    1.0179536   -106.14323   -2348.9843    4.3509992    4.3509992    4.3509992   -2348.9843   -21106.492   -7778.7247    21838.264    23352.512   -3712.1438    25334.527    82.369609 
   91500    2306.0635   -108.20595    2.0865747   -106.11938   -18244.375    4.3609617    4.3609617    4.3609617   -18244.375   -27762.918   -2006.3104   -24963.898   -8769.7521   -17210.541   -7430.5318    82.936714 
   91600    1761.4304   -107.73032    1.5937793   -106.13654   -6766.1873     4.336931     4.336931     4.336931   -6766.1873   -6925.9579   -15159.509     1786.905    20718.258    36827.829     5275.437    81.573206 
   91700    954.09192   -107.00325   0.86328242   -106.13997    36588.222    4.3164004    4.3164004    4.3164004    36588.222    14669.457    52421.695    42673.514    27545.136   -18374.046    34506.616    80.420205 
   91800    2067.0232   -108.00091     1.870286   -106.13062    13098.983    4.3467593    4.3467593    4.3467593    13098.983   -17939.005    55639.797    1596.1574    -19848.31    4810.8423   -13042.465    82.129047 
   91900    1550.7184   -107.52621    1.4031226   -106.12309   -9137.0714    4.3618375    4.3618375    4.3618375   -9137.0714   -12285.649    13468.137   -28593.702     38650.73    10799.612    21737.373    82.986691 
   92000    1275.3627   -107.27674     1.153975   -106.12277   -3514.0812    4.3452078    4.3452078    4.3452078   -3514.0812    4714.9151   -21297.579    6040.4204    17234.014   -20799.217    23374.515    82.041132 
   92100    2272.7935   -108.16932    2.0564713   -106.11285    17962.257     4.329757     4.329757     4.329757    17962.257    13112.052    19581.552    21193.166   -26400.512    3474.1771   -7400.7346    81.169071 
   92200    1283.7368   -107.29988     1.161552   -106.13833    10962.241    4.3330429    4.3330429    4.3330429    10962.241    39381.253     3623.748   -10118.278    38068.953    2886.6534    13230.038    81.354009 
   92300    1347.0711   -107.36482    1.2188583   -106.14596   -8184.8443    4.3499706    4.3499706    4.3499706   -8184.8443   -27528.161    20431.787   -17458.158    507.93718   -25390.552    31300.491    82.311205 
   92400    2204.3028   -108.11462    1.9944995   -106.12012    23625.126    4.3469674    4.3469674    4.3469674    23625.126    34803.905    38379.973   -2308.4998   -15346.813    4310.8265   -12405.776     82.14084 
   92500    696.99478   -106.76734   0.63065552   -106.13668    10021.417    4.3418231    4.3418231    4.3418231    10021.417     57294.74    7561.9849   -34792.472    40624.136   -14794.203     43660.13    81.849566 
   92600    2298.0792   -108.17968    2.0793504   -106.10033    16237.549    4.3524334    4.3524334    4.3524334    16237.549    40137.602    42291.596   -33716.552    -22611.23   -5217.7529   -3288.9943    82.451093 
   92700    1572.9225   -107.53082    1.4232133   -106.10761    1391.8774    4.3501762    4.3501762    4.3501762    1391.8774    48128.601   -8257.1808   -35695.788    40437.777    1943.2154    23526.141    82.322877 
   92800    1349.7823   -107.34384    1.2213114   -106.12253   -9956.0667    4.3316346    4.3316346    4.3316346   -9956.0667    27426.569   -16024.866   -41269.903    29362.058   -17191.576    32206.497    81.274713 
   92900    2137.9685   -108.04766    1.9344788   -106.11318    35647.013    4.3257635    4.3257635    4.3257635    35647.013    90021.139    16938.921   -19.019983   -27047.184    10174.108   -13312.315    80.944679 
   93000    925.00099   -106.98243   0.83696033   -106.14547   -10494.352    4.3463956    4.3463956    4.3463956   -10494.352   -13222.069   -2822.7941   -15438.194    34173.256     1893.186    33469.446    82.108434 
   93100    2004.9547   -107.93889    1.8141251   -106.12477   -1049.6194    4.3530099    4.3530099    4.3530099   -1049.6194    54468.546   -20502.503   -37114.902    12392.022   -4871.9592    28629.869    82.483859 
   93200    1985.0517   -107.92347    1.7961165   -106.12735    14731.772    4.3367769    4.3367769    4.3367769    14731.772    7548.3651    33766.293    2880.6594   -11093.716    21263.063   -12148.427    81.564509 
   93300    660.50473   -106.75072   0.59763856   -106.15309   -19178.954    4.3276723    4.3276723    4.3276723   -19178.954    9475.2989   -84172.212    17160.049    58220.609   -3749.1761    57167.916    81.051881 
   93400     2146.205   -108.08596    1.9419313   -106.14403    9452.1183    4.3320891    4.3320891    4.3320891    9452.1183    48823.272   -16026.429   -4440.4888   -3249.3844   -1508.1723   -15989.747      81.3003 
   93500    1755.1911   -107.73136    1.5881338   -106.14322   -25334.072     4.351595     4.351595     4.351595   -25334.072   -19679.963   -44564.334   -11757.919    18825.895    22743.975    6942.7586    82.403453 
   93600    938.27986   -106.98895   0.84897533   -106.13998   -13944.471    4.3425321    4.3425321    4.3425321   -13944.471   -5091.2134   -68006.749    31264.551     51940.18    2053.6175    32606.972    81.889669 
   93700    2145.0412   -108.06124    1.9408783   -106.12037    6896.2192    4.3291547    4.3291547    4.3291547    6896.2192    15961.704    5539.6892   -812.73574    -26794.51   -7042.7324   -42939.732    81.135199 
   93800     1414.309   -107.41766    1.2796965   -106.13796    -19091.17    4.3355135    4.3355135    4.3355135    -19091.17   -28848.649   -34921.561     6496.701    24959.339    27566.268    14055.344    81.493246 
   93900     1250.636   -107.27997    1.1316017   -106.14837    3426.7808    4.3379082    4.3379082    4.3379082    3426.7808   -17324.153    4089.4682    23515.027    46753.366    4589.1031    24625.862    81.628363 
   94000    2683.0785   -108.55016    2.4277058   -106.12245   -2469.2356    4.3485604    4.3485604    4.3485604   -2469.2356   -16338.791    14828.453   -5897.3692   -26284.614    2356.2236   -9500.5236    82.231178 
   94100    644.60879   -106.73755   0.58325558    -106.1543   -7363.9517    4.3424863    4.3424863    4.3424863   -7363.9517   -27116.111   -17883.305    22907.562    39483.925    14956.402    26833.893    81.887079 
   94200    1599.8412   -107.59168    1.4475699   -106.14411    17127.992    4.3340588    4.3340588    4.3340588    17127.992    14197.421    4172.0664    33014.489    11138.743    9046.1525    25288.084    81.411243 
   94300    2469.6003   -108.35811    2.2345462   -106.12356    5931.7918    4.3445791    4.3445791    4.3445791    5931.7918   -68.221531    22832.636   -4969.0393    -841.6568   -2742.5912    -10343.38    82.005526 
   94400    773.56955   -106.83864   0.69994199   -106.13869    5088.6145     4.352888     4.352888     4.352888    5088.6145    9106.0298   -24461.464    30621.277    35415.322    5893.2338    47098.256    82.476929 
   94500    1955.7142     -107.875    1.7695714   -106.10543   -8771.3802    4.3617408    4.3617408    4.3617408   -8771.3802   -3997.5198   -290.86209   -22025.759   -13438.395    3444.5307    -18661.09    82.981174 
   94600    1791.1615   -107.71497    1.6206806   -106.09429    7961.8293    4.3428849    4.3428849    4.3428849    7961.8293    3243.1398   -8360.0493    29002.397    17364.483   -10006.995    16516.497     81.90963 
   94700    1096.1358   -107.10109   0.99180675   -106.10929    14712.938    4.3322102    4.3322102    4.3322102    14712.938    46302.917   -31755.125    29591.022    16191.275    2722.6678    41727.828    81.307115 
   94800    2023.9814   -107.93174    1.8313409    -106.1004    35022.128    4.3375148    4.3375148    4.3375148    35022.128    67055.004    2093.5602    35917.818   -14520.029   -1238.5564   -34282.284    81.606154 
   94900    895.75621   -106.93959   0.81049905   -106.12909     -5829.57    4.3549874    4.3549874    4.3549874     -5829.57    58923.118   -82618.938      6207.11    15149.179   -11687.125    71292.492    82.596323 
   95000    2260.1212   -108.13767    2.0450051   -106.09266   -12272.513    4.3615964    4.3615964    4.3615964   -12272.513   -7167.6316    -37501.87    7851.9622    18938.392   -781.33855   -19402.728    82.972928 
   95100      1439.73   -107.41635     1.302698   -106.11366    2630.5423     4.332906     4.332906     4.332906    2630.5423    86240.774   -44606.895   -33742.252   -7802.7329    13936.118    63919.604    81.346299 
   95200    1350.7337   -107.33569    1.2221722   -106.11352   -7251.1286    4.3224099    4.3224099    4.3224099   -7251.1286    5340.0283   -59708.778    32615.363    47015.471   -12446.657   -1812.3112    80.756568 
   95300     1942.413   -107.87878    1.7575361   -106.12125   -4699.6889    4.3355535    4.3355535    4.3355535   -4699.6889    19518.346   -44853.196    11235.783   -15605.718    9763.8375    1832.5578    81.495502 
   95400    1654.9281   -107.61619    1.4974137   -106.11877   -1839.5687    4.3541024    4.3541024    4.3541024   -1839.5687    61322.092   -52274.694   -14566.104    15658.842    15511.969    33918.981    82.545977 
   95500    1362.1474   -107.35182    1.2324996   -106.11932   -12685.109     4.344543     4.344543     4.344543   -12685.109   -6430.6504   -71000.493    39375.818    30970.461   -6356.5127   -43159.022    82.003484 
   95600    1693.5629   -107.64294    1.5323713   -106.11057    28637.784    4.3272633    4.3272633    4.3272633    28637.784    80201.236   -17253.425    22965.541    -46251.78    5833.9183    9704.5753    81.028904 
   95700     1843.882   -107.78728    1.6683832    -106.1189    14474.192    4.3269698    4.3269698    4.3269698    14474.192    9449.4441   -2700.5958    36673.727    31721.646    14987.962   -10897.206    81.012418 
   95800    1256.7011   -107.27847    1.1370896   -106.14138    7688.6181    4.3380294    4.3380294    4.3380294    7688.6181    34671.951       -49312    37705.904    -29066.72   -11696.107   -29386.995      81.6352 
   95900    1932.0031   -107.87218     1.748117   -106.12406   -9713.3263    4.3497176    4.3497176    4.3497176   -9713.3263   -15198.487   -11131.831   -2809.6603   -32014.499    14413.504      11863.3    82.296842 
   96000    1590.1539   -107.56053    1.4388047   -106.12172    18364.719    4.3338645    4.3338645    4.3338645    18364.719    11485.723    12178.116    31430.319    9013.9009    19227.622    -16962.66    81.400294 
   96100    1112.0669   -107.13612    1.0062215    -106.1299   -273.42394    4.3309192    4.3309192    4.3309192   -273.42394   -19321.946   -5661.9275    24163.602   -60130.521   -7937.9457   -17296.373     81.23445 
   96200     2254.527   -108.15863    2.0399434   -106.11868   -9347.9721    4.3364338    4.3364338    4.3364338   -9347.9721    4606.4031   -1726.0608   -30924.259     12529.38    20811.897    24689.967    81.545156 
   96300    1221.8782   -107.23755    1.1055811   -106.13197    3415.5317    4.3363295    4.3363295    4.3363295    3415.5317   -28820.637    25418.049    13649.183   -39237.039     8194.609    -9442.931    81.539272 
   96400    1407.0262   -107.41007    1.2731069   -106.13696   -15884.561    4.3414941    4.3414941    4.3414941   -15884.561   -47943.246   -6505.2698    6794.8324   -48849.991   -16786.679   -22020.264    81.830961 
   96500    2095.7244   -108.01926    1.8962555     -106.123   -11544.116    4.3417172    4.3417172    4.3417172   -11544.116    7465.3756     1766.672   -43864.395    13409.113    18274.172    28289.317    81.843578 
   96600    949.90026   -106.99738   0.85948972   -106.13789   -32570.576    4.3402227    4.3402227    4.3402227   -32570.576   -52392.915   -57837.058    12518.244   -79468.203    6324.5041   -71.134212    81.759091 
   96700    2129.5131    -108.0414    1.9268282   -106.11457    21084.492    4.3305852    4.3305852    4.3305852    21084.492    6187.6082    51676.427    5389.4411    16137.731   -26128.412   -20253.965    81.215657 
   96800    1204.7818    -107.2243    1.0901119   -106.13419   -26659.452    4.3454755    4.3454755    4.3454755   -26659.452   -57892.334   -22367.335    281.31528    -44048.28    21879.572    36910.794    82.056299 
   96900    1765.4429   -107.71379    1.5974099   -106.11638    3277.4239    4.3469877    4.3469877    4.3469877    3277.4239   -32721.876    29178.271    13375.877   -27822.196    -4974.647    4135.8234    82.141991 
   97000    1922.0861   -107.85258    1.7391439   -106.11344   -11265.476    4.3432678    4.3432678    4.3432678   -11265.476   -33320.474     18374.28   -18850.234    11223.748   -21588.134   -20303.318    81.931298 
   97100    749.33743   -106.81016   0.67801625   -106.13215     887.4919    4.3346963    4.3346963    4.3346963     887.4919   -41855.583    24133.128    20384.931   -50987.738    24827.243    25975.358    81.447178 
   97200    2502.2254   -108.37806    2.2640661     -106.114    19112.101    4.3324812    4.3324812    4.3324812    19112.101    7444.9593    18953.296    30938.049    12309.158   -14559.651    7787.8965    81.322374 
   97300    1383.2238   -107.38141      1.25157   -106.12984   -23988.035    4.3549587    4.3549587    4.3549587   -23988.035   -65154.636    108.68312   -6918.1511   -46319.983   -4648.4343    -2781.968    82.594687 
   97400    1051.5352   -107.07484   0.95145115   -106.12339   -20687.548    4.3587463    4.3587463    4.3587463   -20687.548   -26540.832   -18129.362   -17392.451   -11130.187    23459.941    24632.961    82.810382 
   97500    2376.9043   -108.24875     2.150673   -106.09807    27148.547    4.3310778    4.3310778    4.3310778    27148.547    1811.1581    12084.644     67549.84   -9749.0607   -4737.7146   -1834.6717    81.243374 
   97600     1356.846   -107.35262    1.2277028   -106.12492     14557.88    4.3194895    4.3194895    4.3194895     14557.88    7748.9556    785.34172    35139.343   -49943.262    12822.343    26495.356    80.592991 
   97700    1479.2135   -107.47551    1.3384235   -106.13708    23966.598    4.3319087    4.3319087    4.3319087    23966.598    20724.134    459.00274    50716.657    12336.829    17015.645    21235.111    81.290141 
   97800    1748.6434   -107.71889    1.5822093   -106.13668   -5805.3858    4.3483202    4.3483202    4.3483202   -5805.3858   -10414.989   -40598.125    33596.957   -42537.342   -20845.245   -27208.934    82.217555 
   97900    1612.5824   -107.58361    1.4590984   -106.12451    11533.184    4.3423085    4.3423085    4.3423085    11533.184    23902.852   -3488.8558    14185.557   -12036.732    2841.6688    36423.196     81.87702 
   98000    1784.6034     -107.732    1.6147467   -106.11725    11349.345    4.3324047    4.3324047    4.3324047    11349.345    9604.3136   -2411.1328    26854.853   -7641.3436    11397.182    8323.0688    81.318069 
   98100    1504.2872   -107.49277    1.3611107   -106.13166    1681.1314    4.3288894    4.3288894    4.3288894    1681.1314   -23483.733    2575.2077    25951.919   -42226.699   -31773.072   -26824.247    81.120284 
   98200    1585.9258   -107.57118     1.434979    -106.1362    29080.247    4.3303677    4.3303677    4.3303677    29080.247    38772.742    24550.823    23917.176    12271.697   -5178.6073    41284.138    81.203423 
   98300    1590.0158   -107.57835    1.4386797   -106.13967   -8481.0241    4.3465639    4.3465639    4.3465639   -8481.0241     -28083.4   -9108.7972    11749.125   -19451.633    27010.043    16151.116    82.117971 
   98400    1624.3822   -107.59134    1.4697751   -106.12156     2492.521    4.3471077    4.3471077    4.3471077     2492.521    1449.8331    24128.805   -18101.075   -18849.079    -37930.93   -12197.741    82.148797 
   98500    1490.4536   -107.47372    1.3485938   -106.12512    5677.7811    4.3320742    4.3320742    4.3320742    5677.7811    16380.661    11044.951   -10392.269    15200.524    22963.339    36631.627     81.29946 
   98600    1306.6567   -107.32018    1.1822904   -106.13789    3356.4604    4.3252745    4.3252745    4.3252745    3356.4604   -20956.753    9153.5063    21872.628    -50369.96    33246.691    4637.7905    80.917234 
   98700    2363.3879   -108.26738     2.138443   -106.12894    11460.527    4.3380494    4.3380494    4.3380494    11460.527     36319.27    2495.2851   -4432.9731   -6603.6164   -10724.743    -3637.212     81.63633 
   98800    1061.3664   -107.10121   0.96034663   -106.14086   -4823.8887    4.3502247    4.3502247    4.3502247   -4823.8887    1605.9398   -3608.9265    -12468.68   -14943.434    38840.557    21618.831    82.325634 
   98900     1658.667   -107.60677    1.5007967   -106.10597    2610.1825    4.3536925    4.3536925    4.3536925    2610.1825   -3952.5483    14092.877   -2309.7809   -39081.075    1142.5392   -4435.3064    82.522665 
   99000    1957.3614   -107.86731    1.7710617   -106.09625   -13577.556     4.342987     4.342987     4.342987   -13577.556    29550.181   -17783.364   -52499.484    21576.997   -5127.0798    27049.075    81.915405 
   99100    1277.4724   -107.26256    1.1558839   -106.10668    19054.384    4.3209481    4.3209481    4.3209481    19054.384    8290.7036    24647.084    24225.365   -56805.503    37549.318    6255.4626    80.674662 
   99200    1774.2678   -107.73375    1.6053948   -106.12836    2505.5213    4.3296812    4.3296812    4.3296812    2505.5213   -9855.8554    5944.8174    11427.602   -18815.611   -19138.721   -3282.7444    81.164805 
   99300    1832.5536   -107.78654     1.658133    -106.1284    1139.5037    4.3411634    4.3411634    4.3411634    1139.5037   -7969.8192    22181.232   -10792.902    6416.6646   -12349.128    11253.129     81.81226 
   99400    1078.6377   -107.10851   0.97597406   -106.13254    5614.4556    4.3521486    4.3521486    4.3521486    5614.4556   -44974.227    16610.945    45206.649   -58596.968    22730.606   -2242.0335    82.434904 
   99500    2294.4758   -108.16644    2.0760899   -106.09035    -10050.22    4.3590724    4.3590724    4.3590724    -10050.22   -8583.1706    961.40303   -22528.891    17686.468   -20335.092   -2056.5767    82.828968 
   99600    1126.7119     -107.129    1.0194726   -106.10952    4700.9348    4.3291043    4.3291043    4.3291043    4700.9348   -30666.242    19731.111    25037.935    -59554.47    8688.4858    2669.9455     81.13237 
   99700    1201.6528   -107.21381    1.0872807   -106.12653    10936.505    4.3215569    4.3215569    4.3215569    10936.505    6127.4773    13703.505    12978.532   -5127.1847    33224.077   -4779.7718    80.708768 
   99800    2135.0626   -108.05002    1.9318495   -106.11817    11559.072     4.336884     4.336884     4.336884    11559.072    23131.791     13888.03   -2342.6069   -3319.1572   -14940.483    -28975.49    81.570557 
   99900    1423.6922   -107.42544    1.2881866   -106.13725   -7469.1094    4.3449871    4.3449871    4.3449871   -7469.1094    -43082.37    -18268.64    38943.682   -53693.782    16321.387    17031.149    82.028633 
  100000    1376.1465   -107.37164    1.2451662   -106.12648   -34874.855    4.3515469    4.3515469    4.3515469   -34874.855   -45929.594   -30980.468   -27714.504     29126.45    30548.071    -30394.72    82.400718 
Loop time of 22.3914 on 1 procs for 100000 steps with 8 atoms

Pair  time (%) = 6.83982 (30.5466)
Kspce time (%) = 5.40694 (24.1474)
Neigh time (%) = 0.210759 (0.94125)
Comm  time (%) = 1.05954 (4.73188)
Outpt time (%) = 0.0387826 (0.173203)
Other time (%) = 8.83559 (39.4597)

Nlocal:    8 ave 8 max 8 min
Histogram: 1 0 0 0 0 0 0 0 0 0
Nghost:    1936 ave 1936 max 1936 min
Histogram: 1 0 0 0 0 0 0 0 0 0
Neighs:    2147 ave 2147 max 2147 min
Histogram: 1 0 0 0 0 0 0 0 0 0

Total # of neighbors = 2147
Ave neighs/atom = 268.375
Neighbor list builds = 2325
Dangerous builds = 0
unfix 20
unfix 21
print "seeds:1269109"
seeds:1269109
