LAMMPS (10 Feb 2015)
# ---- initialize simulations
clear
units metal
dimension 3
boundary p p p
atom_style charge
atom_modify map array
# ---- create atoms
read_data /Users/eugeneragasa/pyflamestk_git/pypospack/tests/tests_integration/workflow/WorkflowLammpsThermalExpansion/param_2632/MgO_NaCl_unit.npt.T200/lammps.structure
  triclinic box = (0 0 0) to (4.2565 4.2565 4.2565) with tilt (0 0 0)
  1 by 1 by 1 MPI processor grid
  reading atoms ...
  8 atoms
# ---- define interatomic potential
include potential.mod
mass 1 24.305
mass 2 15.999

group Mg type 1
4 atoms in group Mg
group O type 2
4 atoms in group O

set group Mg charge 1.63285961235
  4 settings made for charge
set group O charge -1.63285961235
  4 settings made for charge

variable R_cut equal 10.0

pair_style buck/coul/long ${R_cut}
pair_style buck/coul/long 10
pair_coeff 1 1 0.0 0.5 0.0 ${R_cut}
pair_coeff 1 1 0.0 0.5 0.0 10
pair_coeff 1 2 1437.07173936 0.281984725072 0.0 ${R_cut}
pair_coeff 1 2 1437.07173936 0.281984725072 0.0 10
pair_coeff 2 2 17907.6681412 0.158842179647 12.0518239093 ${R_cut}
pair_coeff 2 2 17907.6681412 0.158842179647 12.0518239093 10

kspace_style pppm 1.0e-5

neighbor 1.0 bin
neigh_modify every 1 delay 0 check yes
# ---- define settings
compute eng all pe/atom
compute eatoms all reduce sum c_eng
# ---- run minimization
reset_timestep 0
fix 1 all box/relax iso 0.0 vmax 0.001
thermo 10
thermo_style custom step pe lx ly lz xy xz yz press pxx pyy pzz pxy pxz pyz c_eatoms
min_style cg
minimize 1e-25 1e-25 5000 10000
PPPM initialization ...
  G vector (1/distance) = 0.352629
  grid = 8 8 8
  stencil order = 5
  estimated absolute RMS force accuracy = 3.86465e-05
  estimated relative force accuracy = 2.68385e-06
  using double precision FFTs
  3d grid and FFT values/proc = 3375 512
Neighbor list info ...
  1 neighbor list requests
  update every 1 steps, delay 0 steps, check yes
  master list distance cutoff = 11
Memory usage per processor = 4.06549 Mbytes
Step PotEng Lx Ly Lz Xy Xz Yz Press Pxx Pyy Pzz Pxy Pxz Pyz eatoms 
       0   -108.26668       4.2565       4.2565       4.2565            0            0            0     68174.25     68174.25     68174.25     68174.25 -1.8708973e-11 1.9918278e-11 -1.4539535e-10   -108.26668 
      10   -108.32672     4.299065     4.299065     4.299065            0            0            0    15974.818    15974.818    15974.818    15974.818 2.7247293e-10 7.4247233e-11 1.7340321e-10   -108.32672 
      14   -108.33064    4.3118345    4.3118345    4.3118345            0            0            0    1605.1095    1605.1095    1605.1095    1605.1095 -5.9694499e-11 -6.7982128e-11 4.9253128e-12   -108.33064 
Loop time of 0.0149658 on 1 procs for 14 steps with 8 atoms

Minimization stats:
  Stopping criterion = linesearch alpha is zero
  Energy initial, next-to-last, final = 
        -108.266678614      -108.33063925      -108.33063925
  Force two-norm initial, final = 9.8444 0.23785
  Force max component initial, final = 9.8444 0.237844
  Final line search alpha, max atom move = 1.28309e-07 3.05176e-08
  Iterations, force evaluations = 14 44

Pair  time (%) = 0.00402522 (26.8962)
Kspce time (%) = 0.00244594 (16.3435)
Neigh time (%) = 0 (0)
Comm  time (%) = 0.000450611 (3.01094)
Outpt time (%) = 1.21593e-05 (0.0812477)
Other time (%) = 0.00803185 (53.6681)

Nlocal:    8 ave 8 max 8 min
Histogram: 1 0 0 0 0 0 0 0 0 0
Nghost:    2189 ave 2189 max 2189 min
Histogram: 1 0 0 0 0 0 0 0 0 0
Neighs:    2344 ave 2344 max 2344 min
Histogram: 1 0 0 0 0 0 0 0 0 0

Total # of neighbors = 2344
Ave neighs/atom = 293
Neighbor list builds = 0
Dangerous builds = 0
unfix 1
# ---- define output variables ----
variable natoms equal "count(all)"
variable tot_energy equal "c_eatoms"
variable length_x equal "lx"
variable length_y equal "ly"
variable length_z equal "lz"
variable tilt_xy equal "xy"
variable tilt_xz equal "xz"
variable tilt_yz equal "yz"
variable tot_press equal "press"
variable press_xx equal "pxx"
variable press_yy equal "pyy"
variable press_zz equal "pzz"
variable press_xy equal "pxy"
variable press_xz equal "pxz"
variable press_yz equal "pyz"

# ---- output ----
print "pypospack:output_section:begin"
pypospack:output_section:begin
print "tot_energy = ${tot_energy}"
tot_energy = -108.330639250266
print "num_atoms = ${natoms}"
num_atoms = 8
print "xx = ${length_x}"
xx = 4.3118345
print "yy = ${length_y}"
yy = 4.3118345
print "zz = ${length_z}"
zz = 4.3118345
print "xy = ${tilt_xy}"
xy = 0
print "xz = ${tilt_xz}"
xz = 0
print "yz = ${tilt_yz}"
yz = 0
print "tot_press = ${tot_press}"
tot_press = 1605.10951764203
print "pxx = ${press_xx}"
pxx = 1605.10951764176
print "pyy = ${press_yy}"
pyy = 1605.10951764198
print "pzz = ${press_zz}"
pzz = 1605.10951764233
print "pxy = ${press_xy}"
pxy = -5.96944985898881e-11
print "pxz = ${press_xz}"
pxz = -6.79821282837662e-11
print "pyz = ${press_yz}"
pyz = 4.92531279854496e-12
print "pypospack:output_section:done"
pypospack:output_section:done
print "pypospack:lammps_sim:done"
pypospack:lammps_sim:done
#------------------------------------------------------------------------------
# RUN THERMOSTAT
# running using an NPT Nose-Hoover style thermostat
#------------------------------------------------------------------------------
variable tempdamp equal 0.1
variable pressdamp equal 1.0
# set initial velocities
velocity all create 200 9266839 mom yes dist gaussian loop all
# fix for Nose-Hoover style thermostat
fix 20 all npt temp 200 200 0.1 aniso 0.0 0.0 1.0 drag 1.0 couple xyz
variable boxx equal lx
variable boxy equal ly
variable boxz equal lz
variable boxp equal press
variable boxt equal temp
# calculate averages every 10000 steps
reset_timestep 0
fix 21 all ave/time 10 10 100 v_boxx v_boxy v_boxz v_boxp v_boxt file lattice.out
thermo_style custom step temp pe ke etotal press lx ly lz press pxx pyy pzz pxy pxz pyz vol
thermo_modify flush yes
thermo 100
run 100000
PPPM initialization ...
  G vector (1/distance) = 0.352078
  grid = 8 8 8
  stencil order = 5
  estimated absolute RMS force accuracy = 3.96373e-05
  estimated relative force accuracy = 2.75266e-06
  using double precision FFTs
  3d grid and FFT values/proc = 3375 512
Memory usage per processor = 3.06549 Mbytes
Step Temp PotEng KinEng TotEng Press Lx Ly Lz Press Pxx Pyy Pzz Pxy Pxz Pyz Volume 
       0          200   -108.33065    0.1809642   -108.14968    4014.7127    4.3118345    4.3118345    4.3118345    4014.7127    2613.5217    5440.8954    3989.7209    590.08204    155.00664   -232.00929    80.165268 
     100    58.938817   -108.17823   0.05332908    -108.1249   -2290.1626     4.319706     4.319706     4.319706   -2290.1626   -3453.6808    282.14468   -3698.9516   -338.20237   -173.57346    2365.3569    80.605108 
     200    137.86973   -108.20015   0.12474743   -108.07541   -5188.3763    4.3200568    4.3200568    4.3200568   -5188.3763   -3784.8761    -3435.064   -8345.1889    1629.6644     55.68524    2400.0682     80.62475 
     300    158.63615   -108.17623   0.14353732    -108.0327    6642.1128    4.3153251    4.3153251    4.3153251    6642.1128    4001.7749    14009.268    1915.2953   -1019.7862    -719.9413   -933.19874    80.360117 
     400    141.81395   -108.12946   0.12831624   -108.00114   -5976.8075     4.321837     4.321837     4.321837   -5976.8075   -4405.9132   -5006.6264    -8517.883    520.83524    193.12085     4582.964    80.724458 
     500    237.31217   -108.19338   0.21472504   -107.97866   -396.41943    4.3212711    4.3212711    4.3212711   -396.41943   -3975.6134     8410.339   -5623.9839    -372.2506    883.05468    403.20781    80.692753 
     600    276.62614   -108.21883   0.25029714   -107.96854    5578.2508    4.3170419    4.3170419    4.3170419    5578.2508     200.1394    11154.421    5380.1921   -1920.3272   -767.06614    940.85224    80.456065 
     700    136.32988   -108.09096   0.12335414    -107.9676   -5443.8737    4.3231566    4.3231566    4.3231566   -5443.8737    -6374.021    3097.9016   -13055.502    1566.3755    1411.9761    6864.3894    80.798426 
     800    147.20996   -108.10053   0.13319867   -107.96733    3925.6075    4.3194363    4.3194363    4.3194363    3925.6075    1564.3938    13790.374   -3577.9449   -780.04134   -400.65401   -329.94729    80.590013 
     900    270.61596   -108.21201   0.24485901   -107.96715    472.63154    4.3188606    4.3188606    4.3188606    472.63154   -1063.1242    6559.6443   -4078.6254    1951.0086    -644.0455    1628.2478    80.557795 
    1000    127.75713   -108.08574   0.11559734   -107.97014   -167.01453    4.3221668    4.3221668    4.3221668   -167.01453   -2328.2309    10433.614   -8606.4269   -30.705553    1408.8438    4013.4888    80.742943 
    1100    293.21094   -108.23402   0.26530342   -107.96871    1721.2486    4.3190063    4.3190063    4.3190063    1721.2486   -1418.4678    7560.5292   -978.31571    1549.9859    -34.73852   -2224.2928    80.565944 
    1200     219.4583   -108.16781   0.19857049   -107.96924    386.92382    4.3205513    4.3205513    4.3205513    386.92382   -4040.6926    10752.938   -5551.4737   -551.77172    387.93772    2755.0282     80.65244 
    1300    85.393221   -108.04821  0.077265581   -107.97094   -2510.0431     4.319788     4.319788     4.319788   -2510.0431   -506.31997    2039.8774   -9063.6866    996.24568    342.80103    5835.9293    80.609698 
    1400    244.48538      -108.19   0.22121551   -107.96878   -1714.3261    4.3217269    4.3217269    4.3217269   -1714.3261   -3348.4107    6555.2223   -8349.7898   -637.25729   -146.79353   -2565.1762    80.718291 
    1500    216.22579   -108.16459   0.19564564   -107.96894    1546.6499    4.3190708    4.3190708    4.3190708    1546.6499   -804.10379    7793.9828   -2349.9292    -1317.881   -651.86428    4985.0082    80.569558 
    1600     163.2176   -108.11749   0.14768271   -107.96981    -1402.438    4.3202054    4.3202054    4.3202054    -1402.438    961.11431    3461.7303   -8630.1584    461.25144    674.70494    3822.6106    80.633066 
    1700    308.91864   -108.24715   0.27951608   -107.96764   -3769.2827    4.3230893    4.3230893    4.3230893   -3769.2827   -7039.3341    64.981344   -4333.4953   -56.212497    857.77232   -3290.7924    80.794655 
    1800    92.660773   -108.05382  0.083841415   -107.96998    4443.2179    4.3161627    4.3161627    4.3161627    4443.2179    3185.3516    13785.355   -3641.0531    1499.4562    380.26203    5176.3662     80.40692 
    1900    182.09187   -108.13488   0.16476055   -107.97012   -7985.8213    4.3234945    4.3234945    4.3234945   -7985.8213   -6666.6256   -5105.6335   -12185.205   -176.97821    1250.6489    166.49987    80.817376 
    2000    223.43211   -108.17087   0.20216607    -107.9687    4663.6511    4.3203625    4.3203625    4.3203625    4663.6511   -3465.1957     18579.18    -1123.031    319.81331   -812.79561   -533.80456    80.641863 
    2100    257.94998   -108.20286   0.23339856   -107.96946   -579.62718     4.317257     4.317257     4.317257   -579.62718    2078.2465   -1204.6629   -2612.4651   -443.28461    953.08923     6697.989    80.468095 
    2200    149.52274   -108.10503   0.13529132   -107.96974   -271.36719    4.3243722    4.3243722    4.3243722   -271.36719    -6773.264    11811.767   -5852.6048  -0.91194854   -172.78243    819.74815    80.866601 
    2300    264.61991   -108.20704   0.23943365   -107.96761    1807.1634    4.3179157    4.3179157    4.3179157    1807.1634    474.38048    6152.0688   -1204.9591    1211.8324   -635.02305   -2077.3372    80.504928 
    2400    81.381742   -108.04324  0.073635911    -107.9696    2277.0377    4.3194962    4.3194962    4.3194962    2277.0377   -1940.4271    12477.851   -3706.3108    447.30544    1469.7076     5415.204    80.593363 
    2500    223.07363   -108.17073   0.20184171   -107.96889   -3958.7659     4.323071     4.323071     4.323071   -3958.7659   -6644.3013    3599.0465   -8831.0429    776.86946   -1601.8913   -2458.3084    80.793628 
    2600    290.73723   -108.23106   0.26306515     -107.968    4570.9067    4.3179392    4.3179392    4.3179392    4570.9067   -837.77603     10896.61    3653.8863   -140.56027    218.11495    59.353208    80.506242 
    2700    161.92746   -108.11611   0.14651537   -107.96959     58.01877    4.3209701    4.3209701    4.3209701     58.01877   -3804.4245    8008.0229   -4029.5421    916.06821    929.69248    6216.2831    80.675892 
    2800    201.02686   -108.15046   0.18189333   -107.96857     -1439.08    4.3215733    4.3215733    4.3215733     -1439.08    -3326.873    5565.0624   -6555.4294   -67.410709    541.94898   -2573.0709    80.709686 
    2900    191.59445   -108.14169   0.17335869   -107.96833    2927.8846    4.3187888    4.3187888    4.3187888    2927.8846   -1236.2064    7617.8993    2401.9607   -498.28387    630.87599    1657.5023    80.553773 
    3000    136.42654   -108.09406    0.1234416   -107.97061   -2849.1505     4.320107     4.320107     4.320107   -2849.1505   -2818.0014    4851.0809   -10580.531   -37.946214    1487.4429     5172.112    80.627559 
    3100    264.59189   -108.20891   0.23940831   -107.96951    -1973.658    4.3230925    4.3230925    4.3230925    -1973.658   -6706.4788    3425.2594   -2639.7546   -1974.6405     170.4718    -3326.294    80.794834 
    3200     248.7727   -108.19373   0.22509477   -107.96864    3574.0519     4.317833     4.317833     4.317833    3574.0519   -1188.5486    11210.713    699.99126     1556.058    -1099.904    1243.5406    80.500302 
    3300    139.43778   -108.09556   0.12616623   -107.96939   -2919.3531    4.3204741    4.3204741    4.3204741   -2919.3531   -2548.0949    2454.4811   -8664.4455   -669.99781    1872.5619    4570.3007    80.648116 
    3400     214.7785   -108.16232    0.1943361   -107.96799   -3299.2963    4.3241783    4.3241783    4.3241783   -3299.2963   -6371.7518    886.83056   -4412.9676    1607.3076   -512.29787   -3690.7076    80.855728 
    3500    161.69228    -108.1145   0.14630258    -107.9682     5456.265    4.3150223    4.3150223    4.3150223     5456.265    2738.8558    16256.471   -2626.5322   -564.05968    858.68414    6264.9339    80.343199 
    3600    201.19349     -108.151   0.18204409   -107.96895   -5560.5536    4.3239746    4.3239746    4.3239746   -5560.5536   -7456.7744   -587.72769   -8637.1586     296.2768    1068.7897    1946.9796    80.844297 
    3700    255.05383   -108.19886   0.23077807   -107.96809    2043.9776    4.3215752    4.3215752    4.3215752    2043.9776   -3462.8597    13858.594   -4263.8012    335.08737   -116.44707   -2089.4297    80.709791 
    3800    233.58733   -108.17983   0.21135473   -107.96848    1988.6964    4.3151095    4.3151095    4.3151095    1988.6964    1271.4508    5291.4304    -596.7921   -627.41258    870.68512    2467.4804    80.348071 
    3900    97.786148   -108.05779  0.088478962   -107.96931    -4300.645    4.3268931    4.3268931    4.3268931    -4300.645   -7466.7173    7558.3625    -12993.58    1400.3139   -98.909825   -819.07876     81.00811 
    4000    248.97799   -108.19298   0.22528051    -107.9677    1562.1719      4.31724      4.31724      4.31724    1562.1719    204.06208    5661.7742   -1179.3206   -2677.3067    608.20146   -1635.5735    80.467141 
    4100     149.7382   -108.10448   0.13548627   -107.96899    4377.6427    4.3184647    4.3184647    4.3184647    4377.6427   -439.63471     17886.83   -4314.2675    1317.0716    920.71873    3162.5364    80.535644 
    4200    250.70985   -108.19615   0.22684754    -107.9693   -9314.9061    4.3265154    4.3265154    4.3265154   -9314.9061    -8117.445   -7706.6333    -12120.64    -2042.591   -524.32631   -1067.0192    80.986899 
    4300    232.61691   -108.17919   0.21047667   -107.96872    6615.2777    4.3149412    4.3149412    4.3149412    6615.2777    3837.9221    13887.885    2120.0256    2476.4439    -165.7936   -2242.4199     80.33867 
    4400    162.76449   -108.11672   0.14727273   -107.96945   -3985.3732     4.322068     4.322068     4.322068   -3985.3732   -4685.1227    2937.6356   -10208.632    1429.0497    1630.6469    4239.1596    80.737406 
    4500    130.28651   -108.08663   0.11788597   -107.96874   -4844.6273    4.3245408    4.3245408    4.3245408   -4844.6273   -4015.8909   -2026.9034   -8491.0878    452.70613   -827.50862   -5551.0975    80.876063 
    4600    271.02592   -108.21234   0.24522995   -107.96711    5475.7761    4.3147086    4.3147086    4.3147086    5475.7761    1890.5862    13805.595      731.147    1053.4145    734.12342    694.90998    80.325681 
    4700    189.54557   -108.14195   0.17150482   -107.97045   -4746.9309    4.3236704    4.3236704    4.3236704   -4746.9309   -4884.8348   -3703.6419   -5652.3158    92.375792    1454.8641   -1270.4695    80.827236 
    4800    230.01526   -108.17816   0.20812264   -107.97003   -4563.3111    4.3231713    4.3231713    4.3231713   -4563.3111   -4257.1882   -448.75643   -8983.9888    601.27209   -1694.6154   -2226.6873    80.799253 
    4900    203.75663   -108.15243   0.18436328   -107.96807     7485.517    4.3144164    4.3144164    4.3144164     7485.517    3650.0926    15823.496    2982.9618   -1310.0191   -750.56328     2408.371    80.309362 
    5000     118.3296   -108.07624   0.10706711   -107.96917   -7856.5264    4.3261423    4.3261423    4.3261423   -7856.5264   -5459.2926   -6122.0439   -11988.243    1588.9366    412.10436   -331.09081    80.965946 
    5100    223.04931   -108.17085   0.20181971   -107.96903    1578.2575    4.3201142    4.3201142    4.3201142    1578.2575   -1632.6409    9979.0169   -3611.6034   -2168.5983   -985.42479    -2051.484    80.627962 
    5200    248.06818   -108.19275    0.2244573   -107.96829    8547.7379    4.3150219    4.3150219    4.3150219    8547.7379    2644.5979    13145.626    9852.9897     1129.843    65.413401   -101.65583    80.343178 
    5300    197.50751   -108.14701   0.17870895    -107.9683   -9438.5658    4.3290837    4.3290837    4.3290837   -9438.5658   -9668.7249   -3525.8143   -15121.158    928.17709    1394.8207   -794.52729    81.131211 
    5400     178.5614    -108.1298   0.16156611   -107.96824    10120.537    4.3147556    4.3147556    4.3147556    10120.537    3607.9083    19731.531     7022.173    460.34839   -501.74798   -3745.0225    80.328306 
    5500    226.02285   -108.17316   0.20451022   -107.96865   -125.62545    4.3192443    4.3192443    4.3192443   -125.62545     347.9258    3482.0398    -4206.842    802.58733    640.62725    3515.0463    80.579268 
    5600    101.40846   -108.06117  0.091756508   -107.96942   -4312.5645    4.3285078    4.3285078    4.3285078   -4312.5645   -8549.8466     6919.057   -11306.904   -322.97546    815.54909   -3333.6954    81.098835 
    5700    296.68707   -108.23523   0.26844869   -107.96678    10296.806    4.3112204    4.3112204    4.3112204    10296.806    6163.0729     13175.66    11551.686   -551.18379   -140.76697    174.86628    80.131023 
    5800    195.21224   -108.14491   0.17663213   -107.96827   -346.28548     4.325527     4.325527     4.325527   -346.28548   -6570.4614    12754.657   -7223.0516    25.402609    86.768183    2802.1494    80.931406 
    5900     191.1899   -108.14312   0.17299264   -107.97012   -6249.4552    4.3233317    4.3233317    4.3233317   -6249.4552   -7049.0143   -5866.6712     -5832.68    1120.7301   -593.81495   -2347.9971    80.808244 
    6000    186.95577   -108.13744   0.16916151   -107.96828     8679.356    4.3127026    4.3127026    4.3127026     8679.356    6820.8494    19331.366   -114.14732   -154.90671   -956.13023   -1424.2032    80.213696 
    6100    193.00841    -108.1432   0.17463807   -107.96856    -10468.75    4.3296581    4.3296581    4.3296581    -10468.75   -12672.678   -5817.7678   -12915.805     395.3816    275.80715    1376.7919    81.163506 
    6200    156.87635   -108.11177   0.14194502   -107.96982    2465.0635     4.317192     4.317192     4.317192    2465.0635    2235.6333    8030.5671     -2871.01   -227.62059   -390.62668   -3118.6497    80.464457 
    6300    292.01973   -108.23134   0.26422559   -107.96712    3091.8145    4.3178796    4.3178796    4.3178796    3091.8145    -945.0791    8325.6128    1894.9098   -997.98348   -531.97555    -198.2112    80.502911 
    6400    181.82884    -108.1326   0.16452256   -107.96808   -9201.0623    4.3287797    4.3287797    4.3287797   -9201.0623   -10992.171   -5058.2274   -11552.789    411.17039    1746.9526    3100.7053    81.114118 
    6500    150.44509   -108.10501   0.13612588   -107.96888    2205.6396    4.3140959    4.3140959    4.3140959    2205.6396    3463.2653      7310.08   -4156.4263   -793.24277   -1712.2356   -6658.1248    80.291465 
    6600    217.50016   -108.16506   0.19679872   -107.96827   -1952.3655    4.3229137    4.3229137    4.3229137   -1952.3655   -5725.3485    7142.9488    -7274.697   -384.89449   -20.612259    2383.5567     80.78481 
    6700    187.11677   -108.13802   0.16930718   -107.96871   -6655.2598    4.3251482    4.3251482    4.3251482   -6655.2598   -7645.4971   -2248.5764   -10071.706    432.81367    771.55123   -887.66592    80.910143 
    6800    206.49791   -108.15535   0.18684365    -107.9685    6284.9499     4.314311     4.314311     4.314311    6284.9499    4986.2538    9851.2368    4017.3591    109.30593   -1838.0047   -4516.0949    80.303474 
    6900    266.42324   -108.20869   0.24106535   -107.96763   -3646.6425    4.3261361    4.3261361    4.3261361   -3646.6425   -8971.3465     4085.037   -6053.6181    1729.2648    726.47379    2726.6834    80.965602 
    7000    132.94828   -108.08949   0.12029439    -107.9692   -968.92802    4.3205954    4.3205954    4.3205954   -968.92802   -2148.0033    3384.0993   -4142.8801    776.20446   -1065.7121   -1470.8082    80.654905 
    7100    172.65265   -108.12507   0.15621975   -107.96885    3042.9486    4.3165065    4.3165065    4.3165065    3042.9486    1949.3839    14241.615   -7062.1531    1006.3846   -974.04343   -3799.4062    80.426133 
    7200     258.7834    -108.2022   0.23415266   -107.96804   -4866.8415    4.3268452    4.3268452    4.3268452   -4866.8415   -10481.513    281.42603   -4400.4372    -782.4734   -717.44488    2524.4981    81.005421 
    7300    180.16416   -108.13274   0.16301632   -107.96973    2911.7334    4.3179497    4.3179497    4.3179497    2911.7334    97.970283    8734.2006    -96.97066    965.43643   -127.31735   -2613.2428    80.506832 
    7400    231.57162   -108.17838   0.20953087   -107.96885    1860.7656    4.3195047    4.3195047    4.3195047    1860.7656   -598.37279    5995.6711    184.99846   -870.09521   -544.95218   -4841.1004     80.59384 
    7500    179.80026   -108.13051   0.16268705   -107.96782    345.80148    4.3249796    4.3249796    4.3249796    345.80148   -7584.8839    8604.4437    17.844649    513.93353    282.49797    2045.1379    80.900685 
    7600    184.72698   -108.13627   0.16714485   -107.96912   -2136.0106     4.317162     4.317162     4.317162   -2136.0106    2126.9428    879.22215   -9414.1966    193.10038    201.24964   -3393.0566    80.462778 
    7700    157.54959   -108.11232   0.14255418   -107.96976    1727.7099    4.3219674    4.3219674    4.3219674    1727.7099   -4105.2759    8316.3062     972.0994   -684.91801   -1350.3201   -613.56276    80.731765 
    7800    332.18252   -108.26875   0.30056572   -107.96818   -6074.2131    4.3237928    4.3237928    4.3237928   -6074.2131   -8418.8857   -4377.2767   -5426.4769     2303.719    1734.7002    1890.1625    80.834104 
    7900    90.607511   -108.05201   0.08198358   -107.97003    6903.0261    4.3164564    4.3164564    4.3164564    6903.0261    3761.6902    12529.144    4418.2444    -854.2804   -1658.1476   -2935.3485    80.423332 
    8000    251.33633    -108.1953   0.22741439   -107.96788   -5244.2876    4.3247975    4.3247975    4.3247975   -5244.2876   -7727.4572   -4179.2914   -3826.1142    3115.8222   -245.35561   -2235.0576    80.890466 
    8100    171.87268   -108.12368   0.15551401   -107.96817    2019.7396    4.3200443    4.3200443    4.3200443    2019.7396    90.884806    9010.9067   -3042.5727   -755.17865    844.12588    801.05609    80.624051 
    8200    158.75804    -108.1129   0.14364761   -107.96925   -1407.3312    4.3190565    4.3190565    4.3190565   -1407.3312    160.88549    371.22814   -4754.1072    534.55857   -2270.7138   -3799.0369    80.568755 
    8300    266.37491   -108.20945   0.24102161   -107.96843   -3238.1213    4.3248224    4.3248224    4.3248224   -3238.1213   -8163.8293    5103.9991   -6654.5338   -1289.7238   -193.49256   -951.38358    80.891865 
    8400    204.43193   -108.15404   0.18497431   -107.96906    5128.5674    4.3181383    4.3181383    4.3181383    5128.5674   -1235.6423    11012.335    5609.0091   -341.16382     518.8787    112.34145    80.517381 
    8500    167.92941   -108.12159   0.15194606   -107.96964   -2461.3132    4.3211721    4.3211721    4.3211721   -2461.3132   -1381.0891    2801.4817   -8804.3321   -644.88627   -843.75939   -3499.1735    80.687206 
    8600    202.86035   -108.15169   0.18355231   -107.96813   -230.87669    4.3229743    4.3229743    4.3229743   -230.87669   -6975.5645    6659.2668   -376.33242   -904.82657    -963.1495    1391.2605    80.788206 
    8700    217.71565   -108.16562   0.19699369   -107.96862    10.384377    4.3190446    4.3190446    4.3190446    10.384377    1919.9029      5938.04   -7826.7898    877.70327    599.39705   -959.93835    80.568091 
    8800    148.48914   -108.10478   0.13435609   -107.97042   -1384.9746    4.3218348    4.3218348    4.3218348   -1384.9746   -6138.3258     8527.551   -6544.1491   -2032.5861   -2676.1814   -4587.7538    80.724338 
    8900    283.26602   -108.22519   0.25630505   -107.96888    628.98596    4.3216694    4.3216694    4.3216694    628.98596   -4721.8117    6698.7921   -90.022543    2427.9078    -742.5839   -456.99313    80.715067 
    9000    183.20385   -108.13511    0.1657667   -107.96934     851.5451      4.31947      4.31947      4.31947     851.5451     -1349.83    8599.3061   -4694.8408    -1097.578   -444.79725   -1233.0339    80.591901 
    9100    140.05885   -108.09593   0.12672819   -107.96921   -5341.9215    4.3227528    4.3227528    4.3227528   -5341.9215   -5843.4123    -3634.831   -6547.5213    766.15536   -2633.4571   -3136.1841    80.775788 
    9200    249.03468   -108.19307   0.22533181   -107.96774    208.78781    4.3217918    4.3217918    4.3217918    208.78781   -3970.5712    9815.9436    -5219.009    184.56222    735.53423    1610.7404    80.721926 
    9300    162.42222   -108.11624   0.14696304   -107.96927    211.58022    4.3184656    4.3184656    4.3184656    211.58022    41.894246    3307.2048   -2714.3584   -887.45649    -2200.009   -3051.7072    80.535694 
    9400    207.23338   -108.15646   0.18750912   -107.96895   -6170.8961    4.3245974    4.3245974    4.3245974   -6170.8961   -8746.2417     804.5542   -10571.001    650.70369   -973.54776   -2728.2075    80.879238 
    9500    276.04206   -108.21721   0.24976866   -107.96744    1637.8493    4.3201308    4.3201308    4.3201308    1637.8493    -1656.376    3660.0317    2909.8921   -145.71562    834.74792   -131.85504    80.628892 
    9600    112.59131   -108.07193   0.10187499   -107.97006   -2116.6268    4.3190054    4.3190054    4.3190054   -2116.6268   -1371.8958    4337.0236   -9315.0081    531.82335   -2359.4322   -3536.0787    80.565895 
    9700    198.11253   -108.14832   0.17925638   -107.96906   -6338.8102     4.326141     4.326141     4.326141   -6338.8102    -9101.961   -4182.5088   -5731.9608   -275.30185   -126.77627   -489.44449    80.965877 
    9800    217.17163   -108.16434   0.19650146   -107.96784    7831.4163    4.3162394    4.3162394    4.3162394    7831.4163     2633.948    19699.863    1160.4377      147.681   -193.65932   -1207.5857    80.411204 
    9900    217.24147   -108.16637   0.19656465    -107.9698   -7330.2645    4.3232875    4.3232875    4.3232875   -7330.2645    -7546.105   -6870.8065   -7573.8821   -814.99667   -2903.4274   -1533.3882    80.805765 
   10000    183.92003   -108.13657   0.16641471   -107.97015     3377.331    4.3234853    4.3234853    4.3234853     3377.331   -3905.0277    15845.627   -1808.6065    523.61098   -496.06657   -36.613135    80.816857 
   10100    254.20373   -108.19923   0.23000888   -107.96923    4234.6375    4.3143541    4.3143541    4.3143541    4234.6375    3672.7118    9599.6067   -568.40602    348.39757   -74.705661   -353.87661    80.305884 
   10200    76.223147   -108.03906  0.068968305   -107.97009   -4448.0686    4.3285647    4.3285647    4.3285647   -4448.0686   -9836.3713    4707.8925   -8215.7269    -716.8518   -1499.7517   -3957.6204    81.102031 
   10300    275.07302   -108.21633   0.24889185   -107.96744    5375.6845    4.3171454    4.3171454    4.3171454    5375.6845    2537.8428    13148.182    441.02855    1484.3418     188.9546   -451.39461    80.461851 
   10400    228.61839   -108.17511   0.20685872   -107.96825    4849.0831    4.3186214    4.3186214    4.3186214    4849.0831   -1129.6988    10129.184    5547.7644     42.17361    389.99429   -2470.5999    80.544408 
   10500    163.68879   -108.11768   0.14810906   -107.96957   -6651.9076    4.3291123    4.3291123    4.3291123   -6651.9076    -10454.19    3307.3202   -12808.853      602.798   -1078.6364    -1075.674    81.132816 
   10600    236.74177   -108.18182   0.21420893   -107.96761    9858.3028    4.3120328    4.3120328    4.3120328    9858.3028    9403.8936    14948.427    5222.5874    819.86322    150.26619    1674.3185    80.176331 
   10700    158.18819   -108.11196   0.14313199   -107.96882   -4147.8011    4.3262221    4.3262221    4.3262221   -4147.8011   -9354.7211    6583.9987   -9672.6809   -834.20912   -418.06888   -3479.5881    80.970426 
   10800    169.61451   -108.12297   0.15347077    -107.9695   -3781.1716    4.3233086    4.3233086    4.3233086   -3781.1716   -1417.5954   -2134.7682   -7791.1512    -593.6821   -1281.4722   -743.69843    80.806949 
   10900    264.41737   -108.20631   0.23925039   -107.96706    10131.199    4.3137283    4.3137283    4.3137283    10131.199    2352.0541    17708.847    10332.696   -830.28359     94.52817   -1212.0784    80.270945 
   11000    189.81909   -108.14074    0.1717523   -107.96899   -8441.4814     4.329812     4.329812     4.329812   -8441.4814   -10597.738   -3690.4526   -11036.254   -258.06683   -2116.0704   -3395.5206    81.172163 
   11100    165.66728   -108.11969   0.14989924   -107.96979    1912.0113    4.3171617    4.3171617    4.3171617    1912.0113    1889.5697    8052.7798   -4206.3156   -1017.6013   -709.04941   -2042.6062    80.462762 
   11200    242.19356   -108.18695   0.21914182   -107.96781    1520.7446    4.3192561    4.3192561    4.3192561    1520.7446    148.04554    7432.9685   -3018.7802    1536.7502     437.1015    878.47254    80.579929 
   11300    139.68663   -108.09543    0.1263914   -107.96904   -8255.1836    4.3280442    4.3280442    4.3280442   -8255.1836    -8781.769   -1553.1409   -14430.641   -1226.1943   -2094.1963   -5183.6329    81.072777 
   11400    228.51275   -108.17572   0.20676314   -107.96896    6371.7554    4.3149387    4.3149387    4.3149387    6371.7554    3663.8674    10285.793    5165.6056    1669.1413    958.80011    2029.8026    80.338534 
   11500    228.81875   -108.17604   0.20704001     -107.969    1731.2418    4.3235544    4.3235544    4.3235544    1731.2418   -6672.7329    13764.563   -1898.1051    693.17909    80.564394    751.81878    80.820734 
   11600    200.49669   -108.15109   0.18141361   -107.96967     -8136.11    4.3247863    4.3247863    4.3247863     -8136.11   -5661.7097   -7171.9229   -11574.697   -646.60195   -2012.8021   -5928.8295    80.889837 
   11700    149.03808   -108.10354   0.13485278   -107.96869    8511.5688    4.3155135    4.3155135    4.3155135    8511.5688    3239.5232    24994.902   -2699.7186    218.16929    414.99327    553.34977     80.37064 
   11800    253.17609   -108.19773   0.22907905   -107.96865   -6653.4929    4.3252549    4.3252549    4.3252549   -6653.4929   -6799.3046    -2959.984    -10201.19   -1714.1149    59.932936   -1313.2783     80.91613 
   11900    120.29232   -108.07974   0.10884302   -107.97089    2513.9827    4.3224086    4.3224086    4.3224086    2513.9827   -4516.2644    16007.727   -3949.5146   -220.88958   -2110.7585   -3096.6692    80.756491 
   12000    293.05664   -108.23311    0.2651638   -107.96795    3222.8543    4.3163546    4.3163546    4.3163546    3222.8543    130.39603    5731.8496    3806.3174   -1250.5185    520.94183    3325.8266    80.417647 
   12100    173.29067   -108.12449   0.15679704   -107.96769   -3725.9748     4.327476     4.327476     4.327476   -3725.9748    -9909.549    5013.2854   -6281.6606    1370.9484   -207.61493   -50.324818    81.040851 
   12200    187.62548   -108.13824   0.16976748   -107.96848   -2375.3297    4.3191181    4.3191181    4.3191181   -2375.3297   -2904.9353    4027.6806   -8248.7343   -1568.2709   -1576.6013   -3627.6283    80.572204 
   12300    169.25605   -108.12191   0.15314643   -107.96877    1823.3404    4.3188192    4.3188192    4.3188192    1823.3404    -298.4429    8757.3296   -2988.8654    3154.9563    1205.1605    4735.7935    80.555475 
   12400    244.66205   -108.18976   0.22137537   -107.96839   -9433.7163    4.3287951    4.3287951    4.3287951   -9433.7163   -14418.796     -2875.09   -11007.263   -805.23942   -948.41239   -2783.2164    81.114981 
   12500    178.89298   -108.13048   0.16186613   -107.96861    5199.6884     4.314399     4.314399     4.314399    5199.6884    3113.1169    5145.8024    7340.1459    851.03071    258.17797   -934.68721    80.308389 
   12600    227.77229   -108.17364   0.20609316   -107.96754   -3266.3398    4.3250073    4.3250073    4.3250073   -3266.3398   -9875.0528    3546.0966   -3470.0634    2375.9944    298.91274    1738.7894    80.902237 
   12700     172.7905   -108.12486   0.15634447   -107.96852   -2554.9448    4.3239195    4.3239195    4.3239195   -2554.9448   -7855.5551      4066.77   -3876.0494   -2339.6285   -1220.7235   -2304.2414    80.841208 
   12800     168.5844   -108.12174    0.1525387    -107.9692    2806.9374    4.3146708    4.3146708    4.3146708    2806.9374    2229.8399     8679.689   -2488.7167    1583.6323      345.801   -442.06999    80.323568 
   12900     238.6684   -108.18483   0.21595219   -107.96888   -6418.4137    4.3295662    4.3295662    4.3295662   -6418.4137   -12943.008     4025.357    -10337.59   -598.46194    304.02715    2773.2298     81.15834 
   13000    212.68139   -108.16169   0.19243859   -107.96926    4379.8072     4.316803     4.316803     4.316803    4379.8072   -1425.2947    5841.1185    8723.5979  -0.69079511   -1515.9422   -4242.9062    80.442709 
   13100    183.60862   -108.13538   0.16613294   -107.96925    3866.1894    4.3200576    4.3200576    4.3200576    3866.1894   -1868.6113    16243.973   -2776.7938   -54.226962    560.67253   -195.85165    80.624792 
   13200    201.65571   -108.15043   0.18246232   -107.96797   -1865.6151    4.3270698    4.3270698    4.3270698   -1865.6151   -11580.135    4295.6675    1687.6221    513.58954     447.5329    1937.5934    81.018032 
   13300    196.41308   -108.14576   0.17771868   -107.96804    3451.6327    4.3152535    4.3152535    4.3152535    3451.6327    2113.3939    11467.695   -3226.1914   -1892.6146    -2181.079   -2136.7817    80.356117 
   13400    171.23205    -108.1233   0.15493435   -107.96837   -337.33749    4.3249433    4.3249433    4.3249433   -337.33749   -8113.6415    11238.323   -4136.6937    413.86312    644.10464    2677.0881    80.898644 
   13500     281.8189    -108.2227   0.25499567   -107.96771   -2205.1992    4.3221586    4.3221586    4.3221586   -2205.1992   -6755.7241    312.24965   -172.12322   -1281.4023   -60.404827   -538.63239    80.742483 
   13600    126.21754    -108.0832   0.11420428     -107.969    7702.1246    4.3178831    4.3178831    4.3178831    7702.1246   -1477.8502    22406.933    2177.2907   -1680.0452   -2145.5112   -2315.1661    80.503107 
   13700    239.41522   -108.18489   0.21662792   -107.96827   -7092.7989    4.3256539    4.3256539    4.3256539   -7092.7989   -7962.1161   -7666.7019   -5649.5788    1227.0877    451.22439   -586.53016    80.938527 
   13800    159.80814   -108.11325   0.14459777   -107.96865    2859.1134    4.3194553    4.3194553    4.3194553    2859.1134   -3260.0614    12027.859   -190.45791   -2206.5871   -564.89581    820.12722    80.591076 
   13900    220.14147   -108.16782   0.19918863   -107.96863   -3554.0086    4.3207828    4.3207828    4.3207828   -3554.0086   -4459.5169   -21.385208   -6181.1238    99.363407   -1352.6047    -3962.876    80.665401 
   14000    197.93733   -108.14813   0.17909786   -107.96903   -4135.8189    4.3248529    4.3248529    4.3248529   -4135.8189   -7400.5158    2529.4953   -7536.4362      963.635    923.64645    3177.2879    80.893574 
   14100    207.87296   -108.15717   0.18808783   -107.96908    1949.4385    4.3195975    4.3195975    4.3195975    1949.4385   -4547.3444    6216.8023    4178.8574   -2246.8113   -793.47769    -1799.837    80.599037 
   14200    191.34316   -108.14265   0.17313131   -107.96952   -2542.3528    4.3204885    4.3204885    4.3204885   -2542.3528   -1465.6096    2144.2288   -8305.6777    227.88137    606.27835    961.70942    80.648923 
   14300     180.6384   -108.13179   0.16344542   -107.96835   -4716.7445    4.3257711    4.3257711    4.3257711   -4716.7445   -6874.1296   -4501.5439     -2774.56   -663.03726   -32.142386    2923.8144    80.945106 
   14400     203.1628   -108.15163   0.18382597    -107.9678    3135.4879      4.31807      4.31807      4.31807    3135.4879   -2379.1385    16166.332   -4380.7303   -2522.0848    -943.6609   -2639.5224     80.51356 
   14500    220.50553   -108.16808   0.19951804   -107.96856   -1833.3932     4.321897     4.321897     4.321897   -1833.3932   -2554.2478   -1087.7085   -1858.2233    479.42848    157.29256   -1547.0195    80.727821 
   14600    187.53155   -108.13853   0.16968249   -107.96885    7.5289924     4.325503     4.325503     4.325503    7.5289924   -8548.3796    14080.715   -5509.7488    363.63256   -346.99596    552.45249    80.930059 
   14700    234.88771   -108.18096   0.21253134   -107.96843    3778.3386    4.3147839    4.3147839    4.3147839    3778.3386    1019.0537    5875.4291     4440.533   -1655.6687   -1850.3669   -359.04742    80.329885 
   14800    126.97749   -108.08397    0.1148919   -107.96908   -305.29608      4.32693      4.32693      4.32693   -305.29608   -4675.8494    11059.728   -7299.7667    1847.8829    74.565985    -799.7856    81.010183 
   14900    258.96525   -108.20252    0.2343172    -107.9682   -586.52247    4.3206834    4.3206834    4.3206834   -586.52247   -6384.5152    5578.6726   -953.72478   -25.019685    330.68513    3023.6251    80.659833 
   15000    163.66845   -108.11689   0.14809066    -107.9688    8562.9449    4.3167343    4.3167343    4.3167343    8562.9449    2776.2838    15223.737     7688.814   -1399.1157   -1959.6651   -2745.2637    80.438867 
   15100    257.85201   -108.20135   0.23330992   -107.96804   -8694.4249    4.3295118    4.3295118    4.3295118   -8694.4249   -12632.772   -2481.8743   -10968.629    1785.3821    2566.4856    1076.1411    81.155282 
   15200     155.8966   -108.10979   0.14105852   -107.96873    7183.1612    4.3151237    4.3151237    4.3151237    7183.1612    182.74209    10857.563    10509.178   -2639.9188   -196.00139      666.211    80.348864 
   15300    190.74946   -108.14109   0.17259412    -107.9685   -2226.7306    4.3228093    4.3228093    4.3228093   -2226.7306   -4584.4203    4893.9521   -6989.7236   -760.89989   -374.72854    535.30052    80.778955 
   15400    202.40556   -108.15115   0.18314081   -107.96801   -6825.7706    4.3270916    4.3270916    4.3270916   -6825.7706   -9684.8729   -5948.3646   -4844.0743   -235.59639    749.37363   -356.91468     81.01926 
   15500    200.94018   -108.14971    0.1818149   -107.96789    7418.4663    4.3139155    4.3139155    4.3139155    7418.4663    1248.5996    12356.371    8650.4289    -1918.285   -1036.0021    866.23214    80.281395 
   15600    232.33098   -108.17926   0.21021795   -107.96905   -5952.7861    4.3269931    4.3269931    4.3269931   -5952.7861   -9000.9461   -3066.5592    -5790.853   -915.52049   -850.09126      43.8496    81.013728 
   15700    182.01011   -108.13436   0.16468657   -107.96967   -1042.8784     4.321882     4.321882     4.321882   -1042.8784   -8082.8716    5724.4922   -770.25587     1381.929   -846.85744    1097.2317    80.726983 
   15800     178.7694   -108.13052   0.16175431   -107.96877    3658.2657    4.3171131    4.3171131    4.3171131    3658.2657    307.31173    10385.143    282.34204   -2435.6645   -703.01178   -809.66541    80.460047 
   15900    211.37448   -108.15961   0.19125607   -107.96836   -7115.4244    4.3275376    4.3275376    4.3275376   -7115.4244   -11957.882    426.01787   -9814.4096    918.75284   -1553.5923   -2476.2105    81.044316 
   16000    217.92823   -108.16611   0.19718604   -107.96892    4357.8659    4.3189576    4.3189576    4.3189576    4357.8659   -1622.4389    12188.708    2507.3282    900.78924    990.90719    1450.0784    80.563221 
   16100    186.39054   -108.13795   0.16865008    -107.9693    5368.3451    4.3191335    4.3191335    4.3191335    5368.3451   -4383.2026     18462.47    2025.7679   -3726.7958   -1481.2553   -2089.3776    80.573065 
   16200    236.28661     -108.181   0.21379709    -107.9672    -5166.643    4.3281799    4.3281799    4.3281799    -5166.643   -11841.512    2562.9677   -6221.3849    964.55853    1044.0859    3063.7596    81.080404 
   16300    146.96383   -108.10035   0.13297596   -107.96738    9164.0168    4.3157258    4.3157258    4.3157258    9164.0168    1172.6632    23876.046    2443.3417   -2015.6686    804.64229    905.14158    80.382504 
   16400    220.70315    -108.1679   0.19969684   -107.96821   -5003.6921    4.3230811    4.3230811    4.3230811   -5003.6921   -9613.4333    1062.0724   -6459.7156   -3019.3263   -1594.7462    -14.11353    80.794191 
   16500    191.16796   -108.14191   0.17297279   -107.96894   -19.444886    4.3270913    4.3270913    4.3270913   -19.444886   -9009.6942    15443.963   -6492.6029    440.88328    1645.0162    531.61771    81.019242 
   16600    242.64658   -108.18705   0.21955172   -107.96749    5699.5316    4.3127538    4.3127538    4.3127538    5699.5316     782.7182      9644.47    6671.4065     -1186.23   -1977.0034     953.1383    80.216552 
   16700    127.59919   -108.08333   0.11545443   -107.96788   -3336.3129    4.3294212    4.3294212    4.3294212   -3336.3129   -14322.763    8632.2968   -4318.4728   -2637.2376   -896.59917    209.20665    81.150188 
   16800     291.7556   -108.23216    0.2639866   -107.96817   -3874.7756    4.3213633    4.3213633    4.3213633   -3874.7756   -5442.7366   -2459.1333   -3722.4568    2024.8763    279.09539   -441.75919     80.69792 
   16900     77.90085   -108.04092  0.070486326   -107.97043    6594.7581    4.3146521    4.3146521    4.3146521    6594.7581    551.07114    15814.151    3419.0524   -2742.7445   -1475.4864    1515.9646    80.322522 
   17000    277.97543   -108.21983   0.25151801   -107.96831   -16269.376    4.3342901    4.3342901    4.3342901   -16269.376   -22064.063   -9943.0201   -16801.045   -1139.2184   -661.31829   -1888.7061     81.42428 
   17100    184.80477   -108.13514   0.16721524   -107.96793    9988.8572    4.3124717    4.3124717    4.3124717    9988.8572    6109.2891    15114.149    8743.1337    217.34781    288.31133     3540.122    80.200812 
   17200    204.88143   -108.15385   0.18538103   -107.96847   -6250.9597    4.3245724    4.3245724    4.3245724   -6250.9597   -14094.051    -1162.741   -3496.0866   -3216.6541   -944.31352     -391.687    80.877837 
   17300    167.25872   -108.11891   0.15133921   -107.96757   -1738.8837    4.3277149    4.3277149    4.3277149   -1738.8837   -10556.248    5891.4636   -551.86705   -509.20313    587.19387    81.998702    81.054278 
   17400    239.73023     -108.184   0.21691295   -107.96709    6955.0811     4.311921     4.311921     4.311921    6955.0811    4974.2159    11571.335    4319.6918    399.09793     540.5369    2560.9074    80.170091 
   17500    134.64389   -108.09109   0.12182862   -107.96926   -6492.4967    4.3306862    4.3306862    4.3306862   -6492.4967   -18464.608    6371.7251   -7384.6069   -2382.2787   -794.28989    31.106178    81.221339 
   17600    295.49116   -108.23502   0.26736661   -107.96765    719.50252    4.3193162    4.3193162    4.3193162    719.50252   -2668.8619     4882.121   -54.751514    -150.9716    898.17743    2727.8029    80.583289 
   17700    173.03388   -108.12474   0.15656469   -107.96817    8047.8781    4.3182929    4.3182929    4.3182929    8047.8781   -3178.9248    22587.967    4734.5918   -560.40921   -1092.5494    244.69592    80.526028 
   17800    162.05617   -108.11554   0.14663183   -107.96891   -6677.5099    4.3287436    4.3287436    4.3287436   -6677.5099   -17383.676   -1741.3974    -907.4565   -3949.6303   -807.48963    304.97101     81.11209 
   17900    229.61372    -108.1763   0.20775932   -107.96854    8634.7893    4.3165283    4.3165283    4.3165283    8634.7893    1251.3968    18595.008    6057.9627    106.87487   -42.818744   -2832.2642    80.427356 
   18000    195.52306   -108.14623   0.17691337   -107.96932   -1081.1027    4.3227682    4.3227682    4.3227682   -1081.1027   -9828.6502    5164.5534    1420.7888   -2113.5027   -737.37116    1086.0367     80.77665 
   18100    191.62341   -108.14285   0.17338489   -107.96946   -7488.7815    4.3251135    4.3251135    4.3251135   -7488.7815   -14150.673   -2231.4459   -6084.2251   -4426.6394   -1340.0469   -1304.4994    80.908196 
   18200    242.03676   -108.18736   0.21899995   -107.96836    5702.3502    4.3196754    4.3196754    4.3196754    5702.3502   -2331.3102    13754.184     5684.177    933.24584    664.06205    595.52491    80.603394 
   18300    172.71354    -108.1266   0.15627484   -107.97033   -5352.5014    4.3218686    4.3218686    4.3218686   -5352.5014   -12228.711   -1928.0747   -1900.7184   -3571.2256   -1364.6353    1812.4588    80.726229 
   18400     136.5468   -108.09341   0.12355042   -107.96986   -2810.6257    4.3250869    4.3250869    4.3250869   -2810.6257   -11603.544   -1798.9084    4970.5748   -2674.8329   -655.19065   -485.47665    80.906703 
   18500    310.84392   -108.24845   0.28125811   -107.96719    -181.2871     4.319839     4.319839     4.319839    -181.2871   -5146.4444    5671.6102   -1069.0271     1579.846     1273.597    3919.7626    80.612552 
   18600    109.90453      -108.07  0.099443928   -107.97055   -3001.1208    4.3219165    4.3219165    4.3219165   -3001.1208   -11810.972    1531.7945    1275.8155   -5254.6763   -1250.3331    172.21689    80.728918 
   18700    246.25254   -108.19286   0.22281447   -107.97004   -4988.4793    4.3268084    4.3268084    4.3268084   -4988.4793   -12023.293     4542.662   -7484.8069   -224.02444    584.51099   -258.98752    81.003353 
   18800    216.51038   -108.16496   0.19590315   -107.96906    6960.6624    4.3150373    4.3150373    4.3150373    6960.6624    122.58221    14487.103    6272.3021   -1883.3674   -649.58379   -653.11981    80.344041 
   18900    133.70854    -108.0907    0.1209823   -107.96972   -7607.2753    4.3277323    4.3277323    4.3277323   -7607.2753   -15122.441   -4423.9324   -3275.4521   -3482.7543    -820.2525    300.95113    81.055255 
   19000    224.27382   -108.17122   0.20292767   -107.96829     4768.468    4.3215678    4.3215678    4.3215678     4768.468   -6707.7181    18512.092    2501.0298   -481.27687   -1010.7467   -1374.6615    80.709374 
   19100    247.62499    -108.1925   0.22405629   -107.96845    5611.4049    4.3165423    4.3165423    4.3165423    5611.4049   -769.50194    12035.685    5568.0319   -1443.6096   -384.74605    707.41685    80.428134 
   19200    138.79403   -108.09558   0.12558376   -107.96999   -7053.1396    4.3305397    4.3305397    4.3305397   -7053.1396   -17956.789    7758.5382   -10961.168   -3319.3515   -999.11091   -617.40392    81.213099 
   19300    266.63858   -108.20945   0.24126019   -107.96819    7347.8971    4.3153471    4.3153471    4.3153471    7347.8971    1304.0044    13029.409    7710.2783    1273.0406   -175.44039   -1443.7489    80.361348 
   19400     162.3911   -108.11608   0.14693488   -107.96915    2098.0119    4.3229159    4.3229159    4.3229159    2098.0119      -6077.6    16404.006   -4032.3705   -913.07219   -263.08479    2248.0669     80.78493 
   19500    161.36682   -108.11564   0.14600809   -107.96963   -7280.9562    4.3277978    4.3277978    4.3277978   -7280.9562   -17334.774   -6021.2853    1513.1904   -2095.2838     -1532.37    575.99649    81.058933 
   19600    232.80068   -108.17843   0.21064295   -107.96778    11634.682    4.3140675    4.3140675    4.3140675    11634.682    4055.0911    25639.462    5209.4928    2867.5958    1309.3612    1355.0792     80.28988 
   19700    231.52613   -108.17949   0.20948971      -107.97   -8748.6298    4.3276933    4.3276933    4.3276933   -8748.6298   -15360.922   -7254.0053   -3630.9627   -3903.3419   -1359.6247    491.99759    81.053062 
   19800    130.80018   -108.08977   0.11835075   -107.97142    -1745.523    4.3223177    4.3223177    4.3223177    -1745.523   -9183.5225    7841.7169   -3894.7633   -1437.5805     364.4886    192.21055    80.751397 
   19900    268.65716   -108.21139   0.24308665    -107.9683    3695.1631    4.3179122    4.3179122    4.3179122    3695.1631   -428.81714    7905.3614    3608.9451     222.1198    203.98263    200.11503    80.504735 
   20000    143.77652   -108.09971   0.13009202   -107.96962   -7989.7344    4.3283992    4.3283992    4.3283992   -7989.7344   -16089.199   -1429.5266    -6450.478   -3138.3167   -1397.5566   -162.67191    81.092729 
   20100    199.80896   -108.15024   0.18079135   -107.96945    3117.9596    4.3190872    4.3190872    4.3190872    3117.9596   -5026.8108    5857.2699    8523.4198    -405.3423    -484.7342   -1012.9025    80.570471 
   20200    244.11389   -108.18959   0.22087938   -107.96871    5153.8811    4.3201665    4.3201665    4.3201665    5153.8811   -3633.8077    20208.481   -1113.0294    821.07711   -408.51389   -2416.0806    80.630889 
   20300    179.55058   -108.13152   0.16246113   -107.96906   -8004.5286     4.328785     4.328785     4.328785   -8004.5286   -17062.006   -3288.5457   -3663.0342   -2781.4763   -762.79521    1629.5057    81.114419 
   20400    163.29161   -108.11595   0.14774968    -107.9682    10524.097    4.3161912    4.3161912    4.3161912    10524.097   -88.600473    27574.043    4086.8473    892.35937   -617.36123   -121.49021    80.408514 
   20500     283.8637   -108.22498   0.25684584   -107.96813    -3194.328    4.3235497    4.3235497    4.3235497    -3194.328   -8969.5129    1025.0596   -1638.5306    243.80182    400.63467    1452.5633    80.820467 
   20600     96.56425   -108.05776  0.087373363   -107.97038    1155.2084    4.3272647    4.3272647    4.3272647    1155.2084   -13801.757    17640.614   -373.23144   -3538.4667   -1919.3256    739.97954    81.028985 
   20700     282.6567   -108.22313   0.25575372   -107.96737    6962.6027    4.3134151    4.3134151    4.3134151    6962.6027    904.58103    12743.134    7240.0927    1297.4515    532.57314   -721.85069     80.25346 
   20800    148.20752   -108.10206   0.13410128   -107.96796   -1623.1036    4.3297832    4.3297832    4.3297832   -1623.1036   -14580.084    13961.751   -4250.9773   -2174.6211   -780.17637    499.31797    81.170542 
   20900    235.93129   -108.18288   0.21347559   -107.96941   -4677.1037    4.3210853    4.3210853    4.3210853   -4677.1037   -8853.4003   -3196.5312   -1981.3797   -2294.3637   -599.18739    218.94056    80.682345 
   21000    162.61932    -108.1168   0.14714138   -107.96966     5926.343    4.3173242    4.3173242    4.3173242     5926.343   -3407.5141    12357.115    8829.4278    3544.4762    1109.8891    501.94842     80.47185 
   21100    240.44937   -108.18627   0.21756365   -107.96871   -11982.071    4.3322332    4.3322332    4.3322332   -11982.071   -18141.333   -4123.7447   -13681.134   -3009.4701   -1527.8995   -3270.4614    81.308411 
   21200    130.75189   -108.08694   0.11830706   -107.96864    6571.8646     4.314085     4.314085     4.314085    6571.8646    -3226.716    9190.6121    13751.698    1588.8969   -330.89918     1978.777    80.290859 
   21300    269.86424   -108.21103   0.24417883   -107.96685   -7184.3173    4.3268187    4.3268187    4.3268187   -7184.3173   -11579.457    -528.7897   -9444.7049    750.77566    -53.10473   -3025.8474    81.003933 
   21400    141.70208   -108.09662   0.12821502    -107.9684   -1599.4262    4.3246499    4.3246499    4.3246499   -1599.4262    -11620.84    5296.3871    1526.1743   -1106.0436   -1731.8351    1089.5253    80.882185 
   21500    235.28372   -108.18177   0.21288965   -107.96888    1327.0753    4.3157982    4.3157982    4.3157982    1327.0753   -4140.7459    3224.9218    4897.0501    119.67681   -79.690494   -993.69638    80.386552 
   21600    167.81947   -108.12163   0.15184658   -107.96978   -2205.8936    4.3298571    4.3298571    4.3298571   -2205.8936   -14398.263    11884.015   -4103.4326    1481.8425    189.02448   -1259.2359    81.174697 
   21700    240.55489   -108.18655   0.21765912   -107.96889    289.91997    4.3181028    4.3181028    4.3181028    289.91997   -4871.5492    2066.3459    3674.9632   -2615.2787   -1645.5297    1308.8911    80.515398 
   21800    170.72158   -108.12305   0.15447247   -107.96858    3625.3865    4.3225786    4.3225786    4.3225786    3625.3865   -8852.9086    18783.734    945.33391    265.76595      440.706    675.92345    80.766022 
   21900    225.61081   -108.17227    0.2041374   -107.96813   -3212.4109    4.3255696    4.3255696    4.3255696   -3212.4109   -8346.4076     2867.956   -4158.7812    1214.8394   -446.60438    805.47198    80.933796 
   22000    189.45294   -108.14023     0.171421   -107.96881    5389.5893    4.3186775    4.3186775    4.3186775    5389.5893   -4848.5136    17682.391    3334.8906   -2912.5373   -566.76729   -2372.0124    80.547548 
   22100     191.1341   -108.14235   0.17294215   -107.96941    765.57253    4.3241011    4.3241011    4.3241011    765.57253   -8579.2681    6685.1682    4190.8175    2944.3345    795.75183    571.58242    80.851397 
   22200    236.15342   -108.18262   0.21367658   -107.96894    -2537.966    4.3225346    4.3225346    4.3225346    -2537.966   -6271.6051    3951.8464   -5294.1391   -1298.5852    488.46786   -4856.1731    80.763555 
   22300    155.61786   -108.10963   0.14080631   -107.96882      4110.41    4.3224478    4.3224478    4.3224478      4110.41   -7119.0673    13868.554    5581.7427   -623.44054   -601.29055    1673.2196    80.758688 
   22400    236.80112    -108.1827   0.21426263   -107.96844   -4845.8952    4.3219356    4.3219356    4.3219356   -4845.8952   -7687.2013    302.03997   -7152.5242     1042.662    615.50618   -3451.5053    80.729987 
   22500    164.76392   -108.11835   0.14908186   -107.96927    66.831219    4.3238085    4.3238085    4.3238085    66.831219   -6286.7629    4246.2972    2240.9594   -853.76711   -185.67946    -2037.055    80.834981 
   22600    242.86265    -108.1894   0.21974723   -107.96965   -1972.3708    4.3212758    4.3212758    4.3212758   -1972.3708   -9298.7055    2709.3603    672.23289   -837.74461   -764.80685    852.90927    80.693019 
   22700    164.45432   -108.11923   0.14880173   -107.97043   -794.31328    4.3228309    4.3228309    4.3228309   -794.31328   -6945.3266    1090.8801    3471.5068    1502.6363    1899.4006   -602.83708    80.780168 
   22800    212.97574   -108.16226   0.19270493   -107.96955   -1863.1734    4.3245411    4.3245411    4.3245411   -1863.1734   -9487.7223    9919.5335   -6021.3314   -1780.9792   -1224.7089    796.45554    80.876076 
   22900    185.82571   -108.13709   0.16813901   -107.96895    2119.6983    4.3184805    4.3184805    4.3184805    2119.6983   -3541.1341    6168.1945    3732.0345   -201.69753    1006.3921   -369.39778    80.536527 
   23000    209.92792   -108.15873   0.18994719   -107.96878   -5343.7846    4.3271403    4.3271403    4.3271403   -5343.7846   -11365.243     2453.404   -7119.5145    2062.7165    505.72736   -645.55857    81.021995 
   23100    197.40403   -108.14713   0.17861531   -107.96851    4841.1974    4.3195565    4.3195565    4.3195565    4841.1974   -3060.0026    14195.722    3387.8732   -2654.9705   -807.18622   -2445.3638    80.596742 
   23200    210.39979   -108.15914   0.19037415   -107.96877     2755.582    4.3216559    4.3216559    4.3216559     2755.582   -7919.6706    10541.596    5644.8204     986.9007    1094.5417    2675.7418    80.714313 
   23300    180.26295   -108.13275   0.16310571   -107.96965   -871.85677    4.3261093    4.3261093    4.3261093   -871.85677    -9423.118    13835.313    -7027.765    710.49138    601.17448   -4342.0853    80.964097 
   23400    227.87151     -108.175   0.20618293   -107.96881    3893.3311    4.3174277    4.3174277    4.3174277    3893.3311   -941.45082    8618.6626    4002.7815   -2852.5629   -451.03594   -972.91002    80.477641 
   23500    190.96957   -108.14134   0.17279328   -107.96855   -1194.0328    4.3258442    4.3258442    4.3258442   -1194.0328   -10745.036     14782.16   -7619.2217    2645.1231    196.79081   -1004.2263    80.949211 
   23600    197.31615   -108.14734    0.1785358    -107.9688   -1476.8643    4.3226032    4.3226032    4.3226032   -1476.8643   -5898.0501    984.26764    483.18972     381.4479    186.14755   -2298.7983    80.767401 
   23700    195.79512   -108.14617   0.17715954   -107.96901    4650.8789    4.3198823    4.3198823    4.3198823    4650.8789   -4742.4187    19649.094   -954.03865    540.62183   -1586.2049    1956.6455    80.614976 
   23800    194.24407   -108.14618   0.17575612   -107.97042   -3022.6895    4.3251647    4.3251647    4.3251647   -3022.6895   -10756.842   -2037.6884    3726.4615    2068.8571    1039.5282   -54.607386    80.911069 
   23900    204.54494   -108.15589   0.18507656   -107.97081   -2812.5265    4.3210289    4.3210289    4.3210289   -2812.5265   -4996.4053    4778.9471   -8220.1213      855.789    -841.3415    -2499.434    80.679184 
   24000    198.03007   -108.14862   0.17918177   -107.96943   -839.61989    4.3224781    4.3224781    4.3224781   -839.61989   -6920.7322    3860.3989    541.47359   -921.14069   -11.844117    413.61763    80.760392 
   24100    196.36219   -108.14613   0.17767264   -107.96845   -5083.0524    4.3249414    4.3249414    4.3249414   -5083.0524   -12093.712    2122.0981   -5277.5433    1971.0673      538.698    297.53491    80.898538 
   24200    204.41498    -108.1534   0.18495897   -107.96844    1155.7184    4.3201487    4.3201487    4.3201487    1155.7184    -2299.737    4849.8399    917.05246   -941.17245   -968.99439    -3750.565    80.629896 
   24300     182.7548   -108.13467   0.16536038   -107.96931     1525.539    4.3228559    4.3228559    4.3228559     1525.539   -9777.6292    12090.523    2263.7228   -1282.9341    462.40221    106.95809    80.781566 
   24400    237.86697   -108.18437   0.21522703   -107.96915   -4480.4071    4.3251614    4.3251614    4.3251614   -4480.4071   -9883.2133    224.02393   -3782.0319     2279.296    103.98764   -2484.5167    80.910883 
   24500    128.18435   -108.08534   0.11598389   -107.96935    7614.2005    4.3183013    4.3183013    4.3183013    7614.2005   -1741.2109    24102.452     481.3607   -3315.1235   -496.10779   -2156.3164    80.526501 
   24600    298.10234   -108.23763   0.26972927    -107.9679   -6876.6207    4.3255313    4.3255313    4.3255313   -6876.6207   -11678.779   -4955.6054   -3995.4773    2159.9511    253.60682    2553.4863    80.931649 
   24700    118.09541   -108.07629   0.10685521   -107.96944    6187.4235    4.3226917    4.3226917    4.3226917    6187.4235   -6953.8029    24432.218    1083.8558    180.32747    109.94673   -2202.4703    80.772362 
   24800    249.90938   -108.19534   0.22612326   -107.96922    137.12063    4.3184846    4.3184846    4.3184846    137.12063   -1557.4788     2892.279   -923.43826   -541.69044   -1717.6652   -1526.0669    80.536753 
   24900    163.64731    -108.1176   0.14807153   -107.96953   -139.25578     4.328297     4.328297     4.328297   -139.25578   -14222.366    15237.698      -1433.1    1236.5451    833.67846    33.709788    81.086987 
   25000    229.51151   -108.17717   0.20766683    -107.9695    446.25325    4.3174703    4.3174703    4.3174703    446.25325     -522.638    3469.6364   -1608.2387    1422.9447   -671.19412   -1277.3344    80.480019 
   25100    169.56751   -108.12296   0.15342824   -107.96953   -2199.4049    4.3247541    4.3247541    4.3247541   -2199.4049   -8382.6419     4421.534   -2637.1068    -835.6053   -247.35009   -195.64383    80.888028 
   25200    252.66544   -108.19679     0.228617   -107.96818    -3894.732    4.3250237    4.3250237    4.3250237    -3894.732   -11368.306    3710.9498   -4026.8401    2261.8959    972.67178    509.24723    80.903157 
   25300     114.0511   -108.07202   0.10319583   -107.96882    6553.7318    4.3167203    4.3167203    4.3167203    6553.7318   -971.96434    14885.111    5748.0486    927.84551   -195.08979   -3127.3212    80.438087 
   25400    269.19339   -108.21174   0.24357183   -107.96817    -11818.43    4.3299293    4.3299293    4.3299293    -11818.43   -14164.637   -8308.5445   -12982.107   -365.18818    214.34825   -628.04203    81.178762 
   25500    154.83162   -108.10943    0.1400949   -107.96933    6710.2212    4.3175893    4.3175893    4.3175893    6710.2212   -4236.4633    15981.179    8385.9479    2998.3826    291.70679    1032.2227    80.486676 
   25600    244.48823   -108.19103   0.22121809   -107.96981    -5275.439    4.3229653    4.3229653    4.3229653    -5275.439   -6053.0437   -2450.1246   -7323.1488   -2.7332214   -253.87517   -5390.1523    80.787702 
   25700    139.07064   -108.09578   0.12583403   -107.96995   -228.18147    4.3268347    4.3268347    4.3268347   -228.18147   -13016.861    15461.631   -3129.3137    710.93356   -654.28843    1238.9654    81.004831 
   25800    254.52918   -108.19868   0.23030335   -107.96837    3165.5781     4.316332     4.316332     4.316332    3165.5781   -1817.7575    4560.0618      6754.43    2218.6886    595.00484   -2457.8423    80.416381 
   25900    147.54807   -108.10288   0.13350459   -107.96938   -2353.6127    4.3273602    4.3273602    4.3273602   -2353.6127   -11295.951    15676.349   -11441.235   -1075.7913   -1953.1482   -648.77265    81.034346 
   26000    236.13482   -108.18201   0.21365975   -107.96835   -334.15688    4.3216714    4.3216714    4.3216714   -334.15688   -4820.4456    794.16286    3023.8121    1528.4252    591.97991    1842.8724    80.715183 
   26100    205.14334   -108.15394   0.18561801   -107.96832     5039.977    4.3198589    4.3198589    4.3198589     5039.977   -5669.0715     22972.87   -2183.8671      1122.79   -627.37484    45.451448    80.613669 
   26200    163.47346   -108.11733   0.14791422   -107.96942   -2868.6209    4.3264126    4.3264126    4.3264126   -2868.6209   -7007.4137     1173.859    -2772.308   -54.252368   -989.98045   -3327.3409    80.981126 
   26300    235.40152   -108.18181   0.21299624   -107.96881    1949.7187      4.31976      4.31976      4.31976    1949.7187   -5541.3564    11565.599    -175.0867    2351.2483    1392.5706     2678.453    80.608132 
   26400    187.56266   -108.13829   0.16971064   -107.96858      889.284    4.3230231    4.3230231    4.3230231      889.284   -6892.3657    9235.7938    324.42393    490.58391   -772.44153   -1603.1989    80.790941 
   26500    179.31555   -108.13148   0.16224848   -107.96923   -4764.2434    4.3247213    4.3247213    4.3247213   -4764.2434   -6968.3101    4754.6116   -12079.032   -246.68763    690.13912   -2647.2172    80.886192 
   26600    236.64893   -108.18313   0.21412493   -107.96901     1237.565    4.3203834    4.3203834    4.3203834     1237.565    -5301.803    3446.6157    5567.8823    922.35134   -256.67156     1752.721    80.643038 
   26700    193.00617   -108.14516   0.17463604   -107.97053   -1807.0406    4.3226767    4.3226767    4.3226767   -1807.0406   -6657.2221    6495.1208   -5259.0206   -364.61946    483.82232   -4919.8585    80.771521 
   26800    180.12446   -108.13336   0.16298039   -107.97038   -4989.5093     4.325692     4.325692     4.325692   -4989.5093   -6698.8163   -5978.0589   -2291.6528   -687.39304   -919.81596    1190.2967     80.94067 
   26900     201.8739   -108.15136   0.18265975    -107.9687    3662.3715    4.3191492    4.3191492    4.3191492    3662.3715   -6667.3158    14643.932    3010.4986    2473.7488    293.49691    1562.0679    80.573946 
   27000    215.16304   -108.16311   0.19468404   -107.96843   -5295.7758    4.3244403    4.3244403    4.3244403   -5295.7758   -6520.8717   -1708.5075   -7657.9483   -412.45078   -782.90701    -2016.574    80.870425 
   27100    165.29943   -108.11879    0.1495664   -107.96922   -1956.2175    4.3245667    4.3245667    4.3245667   -1956.2175   -7701.5978    4376.1674   -2543.2219    2397.0297   -596.62854    170.34178    80.877512 
   27200    256.93881   -108.20074   0.23248363   -107.96826    2967.0477    4.3179197    4.3179197    4.3179197    2967.0477   -4811.0733    10838.427    2873.7891     2046.294     227.7405    1689.8908    80.505156 
   27300    146.58048    -108.1022    0.1326291   -107.96957   -553.76792    4.3273081    4.3273081    4.3273081   -553.76792   -8043.0548    7230.5746   -848.82362    995.98881    -1197.493   -1684.9423    81.031419 
   27400    204.80261   -108.15475    0.1853097   -107.96944    974.44663    4.3203616    4.3203616    4.3203616    974.44663   -5512.3923    11046.582   -2610.8501    2147.7061    1273.7426    1170.7534    80.641817 
   27500    225.82241   -108.17277   0.20432886   -107.96845    3968.4951    4.3209719    4.3209719    4.3209719    3968.4951   -4953.5739    10794.384    6064.6749     1113.018   -327.91558   -533.69595    80.675995 
   27600    212.57292   -108.16116   0.19234044   -107.96882   -5232.6589     4.326672     4.326672     4.326672   -5232.6589   -9044.8844    6461.1006   -13114.193    209.76744     792.2214   -3717.2696    80.995692 
   27700    158.50204   -108.11293   0.14341598   -107.96951    5575.0147    4.3184431    4.3184431    4.3184431    5575.0147   -2473.9479    11751.529    7447.4625    1082.9653    742.45446    1834.6967    80.534433 
   27800    248.02875   -108.19307   0.22442163   -107.96865   -327.06905    4.3243194    4.3243194    4.3243194   -327.06905    -9897.002    12958.208   -4042.4129    271.47158    66.726309    -342.6868    80.863639 
   27900    153.46561   -108.10877   0.13885891   -107.96991    -1332.486    4.3235355    4.3235355    4.3235355    -1332.486   -3144.4732    -321.5362   -531.44849   -664.18344   -303.94082   -1592.1348    80.819674 
   28000    212.16565   -108.16138   0.19197194   -107.96941    1640.4938    4.3202581    4.3202581    4.3202581    1640.4938   -5687.9625    12311.785   -1702.3415    1510.6586   -5.5979929    2087.4987    80.636018 
   28100    240.24539   -108.18596   0.21737907   -107.96858   -2728.1373    4.3243071    4.3243071    4.3243071   -2728.1373   -5567.5368    1333.1023   -3949.9776   -449.05368   -927.86954   -1369.2221    80.862951 
   28200    128.24926   -108.08553   0.11604262   -107.96949    -545.9923    4.3235997    4.3235997    4.3235997    -545.9923   -7211.8262    10348.776   -4774.9264   -220.22273   -652.32123    866.75013    80.823274 
   28300    253.99452   -108.19826   0.22981958   -107.96844   -772.72936    4.3205234    4.3205234    4.3205234   -772.72936   -4545.3573    1593.8727    633.29657    1789.6913    243.75835    1630.0692    80.650876 
   28400     162.0086   -108.11593   0.14658878   -107.96934    1019.0934    4.3238492    4.3238492    4.3238492    1019.0934   -7756.2916    9497.8473    1315.7246    -435.8254   -1294.7162   -3034.5573    80.837267 
   28500    237.45635    -108.1846   0.21485549   -107.96975   -5331.5113    4.3241523    4.3241523    4.3241523   -5331.5113   -6659.5803     594.8017   -9929.7554    1052.8207    812.19077   -930.39707    80.854266 
   28600    139.66184   -108.09624   0.12636897   -107.96987    7642.9857    4.3188852    4.3188852    4.3188852    7642.9857   -3018.9513    18586.461    7361.4471     1336.434    -468.1388    1892.4775    80.559168 
   28700    296.77542   -108.23657   0.26852864   -107.96804   -7992.9127    4.3268255    4.3268255    4.3268255   -7992.9127   -9365.3035   -3339.3207   -11274.114   -757.23176   -41.179616   -2558.8378    81.004315 
   28800    88.715933    -108.0497  0.080272041   -107.96943    7187.2337    4.3206214    4.3206214    4.3206214    7187.2337   -3242.2904    19904.353     4899.639    1220.6809    1013.8815    1233.5278    80.656364 
   28900    279.28875   -108.22091   0.25270633    -107.9682   -1665.3936    4.3209784    4.3209784    4.3209784   -1665.3936   -3948.5727    1960.8151   -3008.4234    762.68151   -375.74022     421.6845     80.67636 
   29000    158.58309   -108.11269   0.14348931    -107.9692    1476.6364    4.3270677    4.3270677    4.3270677    1476.6364   -10469.245    17494.059   -2594.9053    1.5561429   -139.74603   -2212.9666    81.017915 
   29100    214.80675   -108.16311   0.19436166   -107.96874    1704.7303    4.3175044    4.3175044    4.3175044    1704.7303    2498.1423    2566.1832    49.865572    815.04336    329.01932    3436.0964    80.481928 
   29200    205.27523   -108.15367   0.18573734   -107.96794   -169.78418    4.3258703    4.3258703    4.3258703   -169.78418   -9697.0397    11513.082   -2325.3949    250.21838     -1399.25    832.91512    80.950678 
   29300     222.1773     -108.169   0.20103069   -107.96796   -791.64182    4.3234168    4.3234168    4.3234168   -791.64182   -4954.6249    4419.6782   -1839.9788   -891.85309   -342.51057   -1369.9559    80.813016 
   29400    121.29652   -108.07888   0.10975164   -107.96913    5354.2633    4.3180582    4.3180582    4.3180582    5354.2633    556.59085    15681.477   -175.27767    1315.0914    37.502571    2577.7707    80.512901 
   29500    281.41589   -108.22308   0.25463101   -107.96845   -7712.7188    4.3288982    4.3288982    4.3288982   -7712.7188   -13666.448   -5501.8565   -3969.8516   -217.15175   -1306.8473   0.28474718    81.120781 
   29600    180.05619   -108.13294   0.16291863   -107.97002    2904.1411    4.3177272    4.3177272    4.3177272    2904.1411    1483.8967    9489.9039   -2261.3773     938.3968    381.82565   -139.38485    80.494385 
   29700    174.57432   -108.12809   0.15795851   -107.97013   -2668.3325    4.3248816    4.3248816    4.3248816   -2668.3325   -6193.3977   -2229.6966    418.09676    1279.6592   -499.01009    2242.9181    80.895185 
   29800     237.0888   -108.18305   0.21452293   -107.96853   -1632.6001     4.324156     4.324156     4.324156   -1632.6001   -10197.424    9722.0874   -4422.4643      965.834   -537.77772   -2850.5761    80.854475 
   29900    154.79763   -108.10915   0.14006415   -107.96908    2686.9198     4.319017     4.319017     4.319017    2686.9198    2555.8909    1943.5632    3561.3053    614.76578    560.03559   -1216.5389    80.566543 
   30000     218.0543   -108.16623   0.19730011   -107.96893     -6512.93    4.3273319    4.3273319    4.3273319     -6512.93   -13473.253     2160.148   -8225.6853    1961.7531    145.93849    3352.9525    81.032755 
   30100    230.28384   -108.17642   0.20836566   -107.96806    3319.1323    4.3194535    4.3194535    4.3194535    3319.1323   -1898.3283    8102.0829    3753.6422   -829.14879   -554.22167   -1759.2757    80.590974 
   30200    176.01139   -108.12846   0.15925881   -107.96921   -1259.2051    4.3237986    4.3237986    4.3237986   -1259.2051   -5922.4308    7841.4568   -5696.6412   -784.23631    685.46133    1771.4509    80.834427 
   30300    173.70879   -108.12617   0.15717537   -107.96899    239.74185      4.32402      4.32402      4.32402    239.74185   -8747.3702    8021.6093    1444.9864    868.44119   -1867.1207       1078.2    80.846846 
   30400    256.67323   -108.20038   0.23224333   -107.96814    3027.4915    4.3197045    4.3197045    4.3197045    3027.4915   -2424.5323     10755.79    751.21723   -2416.9467   -897.18293   -431.27379    80.605025 
   30500    149.13127   -108.10459    0.1349371   -107.96965   -1901.6001    4.3257419    4.3257419    4.3257419   -1901.6001   -7195.2831    7196.3723   -5705.8896    1537.3415    172.18045    1632.4078    80.943469 
   30600    222.23876    -108.1702    0.2010863   -107.96911    792.96139    4.3211439    4.3211439    4.3211439    792.96139   -7041.8077    10589.429   -1168.7374   -271.50337   -2717.4081    1240.8442    80.685629 
   30700    230.48088    -108.1774   0.20854394   -107.96885    2379.1284    4.3219768    4.3219768    4.3219768    2379.1284   -3805.4207     12964.62    -2021.814    278.66926    491.82081   -1546.7169    80.732293 
   30800    146.53316   -108.10282   0.13258628   -107.97023   -2757.5683     4.324657     4.324657     4.324657   -2757.5683   -7176.6453    1489.4573   -2585.5168    837.94434    -1037.363    1548.5201    80.882579 
   30900    228.18995   -108.17543   0.20647106   -107.96896    2162.1624    4.3206154    4.3206154    4.3206154    2162.1624   -6351.1547    13859.269   -1021.6272    647.68744   -1634.6879     1326.423    80.656028 
   31000    218.07746   -108.16575   0.19732107   -107.96843   -457.60291    4.3241944    4.3241944    4.3241944   -457.60291   -4236.1026    4186.3812   -1323.0874     454.8357    373.60075   -362.13601    80.856628 
   31100    138.72924   -108.09513   0.12552513   -107.96961   -1891.4323    4.3228018    4.3228018    4.3228018   -1891.4323   -8398.5115    12015.967   -9291.7528    1247.8269   -712.62561    3389.9066    80.778533 
   31200    260.74648    -108.2047    0.2359289   -107.96877   -75.854887    4.3213263    4.3213263    4.3213263   -75.854887   -4272.2766    718.92572    3325.7862    -368.4027   -861.20835   -1899.9286    80.695847 
   31300    190.46649   -108.14225   0.17233809   -107.96991   -1630.3355    4.3242756    4.3242756    4.3242756   -1630.3355   -8342.7361    9525.3215   -6073.5918   -493.59654    480.27604     2980.628    80.861186 
   31400    157.61317   -108.11313   0.14261171   -107.97052   -2143.0709    4.3226974    4.3226974    4.3226974   -2143.0709   -7246.8451    910.28856   -92.656321    1252.2732   -1755.9423    2662.1607    80.772681 
   31500    222.58012   -108.17006   0.20139517   -107.96866     3130.248    4.3215403    4.3215403    4.3215403     3130.248   -7642.1626    16680.513    352.39307   -539.96584   -805.21723    683.45009    80.707838 
   31600    231.53066   -108.17836   0.20949381   -107.96886   -4640.3131    4.3245857    4.3245857    4.3245857   -4640.3131   -6273.5633   -3339.6714   -4307.7044    669.75662   -89.419046    968.22077    80.878583 
   31700     135.5358   -108.09249   0.12263564   -107.96986    1391.1072    4.3214592    4.3214592    4.3214592    1391.1072   -7824.6312     13732.02   -1734.0672    1106.9799    -1544.444    2210.2648    80.703292 
   31800    274.33094   -108.21619    0.2482204   -107.96796    440.73972    4.3228975    4.3228975    4.3228975    440.73972   -5013.7185    4222.6111    2113.3266   -1625.1983    565.57206   -1169.3446    80.783899 
   31900     143.9196   -108.09975   0.13022148   -107.96953    971.36801    4.3237033    4.3237033    4.3237033    971.36801   -8758.6616    15018.777   -3346.0116    1383.9465   -364.28825    1326.8963    80.829085 
   32000    193.74764   -108.14491   0.17530693   -107.96961   -323.51549    4.3211056    4.3211056    4.3211056   -323.51549   -5276.5561    2577.7716    1728.2381    794.12152   -743.21557    1890.9772    80.683482 
   32100      259.104   -108.20276   0.23444274   -107.96831    721.14852    4.3243769    4.3243769    4.3243769    721.14852    -8549.822    11469.264   -755.99634   -718.50704   -74.108933   -3100.8099    80.866865 
   32200    183.61204   -108.13548   0.16613603   -107.96934   -1469.3005    4.3216808    4.3216808    4.3216808   -1469.3005   -5606.1696    4122.6703   -2924.4023    1925.5395    301.97173    3899.4974    80.715705 
   32300    125.76349   -108.08373   0.11379345   -107.96993     3275.102    4.3228878    4.3228878    4.3228878     3275.102   -6601.2979    15377.394    1049.2098   -1370.8041   -1321.0099     1512.654    80.783356 
   32400    313.83165   -108.25233   0.28396147   -107.96837   -3301.3561    4.3237353    4.3237353    4.3237353   -3301.3561   -6976.6333     1661.895     -4589.33    358.36609    1154.9468    1727.0277    80.830878 
   32500    94.642493   -108.05689  0.085634517   -107.97125    2294.8602    4.3211039    4.3211039    4.3211039    2294.8602   -3704.4936    7419.0355    3170.0386    293.03728   -817.34894    1529.3033    80.683386 
   32600    261.99111   -108.20711   0.23705506   -107.97005   -4886.9769    4.3244274    4.3244274    4.3244274   -4886.9769   -8073.1647    1992.9888   -8580.7548    578.93029   -1889.3609    1776.5031    80.869698 
   32700    203.39689   -108.15315   0.18403778   -107.96911     3098.234    4.3218327    4.3218327    4.3218327     3098.234   -6509.2165    11102.344    4701.5744   -2125.3014    1280.8643   -1361.5006     80.72422 
   32800    162.65237   -108.11712   0.14717128   -107.96995   -3877.4757     4.323571     4.323571     4.323571   -3877.4757   -6434.4035    3715.2082   -8913.2319    314.86202   -2576.3515    3173.3853    80.821664 
   32900    208.46085   -108.15788   0.18861975   -107.96926    133.87996    4.3227465    4.3227465    4.3227465    133.87996   -7109.0639    6565.9761     944.7277   -2974.2667    805.10856    -915.3029    80.775433 
   33000    239.20581   -108.18517   0.21643844   -107.96874    209.23083    4.3222433    4.3222433    4.3222433    209.23083   -3797.4023    5824.7707   -1399.6759    372.94777   -213.70738   -1203.0902    80.747228 
   33100    147.11194   -108.10322   0.13310998   -107.97011   -1999.3033     4.324115     4.324115     4.324115   -1999.3033   -7192.4594    8062.6932   -6868.1435    820.98094   -1057.1024    3017.0186    80.852173 
   33200    202.61959    -108.1521   0.18333447   -107.96877    3523.4078    4.3212709    4.3212709    4.3212709    3523.4078   -3896.1913    11871.932    2594.4831   -1384.6404   -543.72199   -689.24048    80.692741 
   33300    277.26189   -108.21912   0.25087238   -107.96825   -3202.3949    4.3241715    4.3241715    4.3241715   -3202.3949   -7843.6546    3182.6953   -4946.2252    1777.5467    24.490496    2522.3211    80.855344 
   33400    85.304852   -108.04737  0.077185623   -107.97019    2792.4783    4.3222034    4.3222034    4.3222034    2792.4783   -4901.0963    13906.803   -628.27216   -718.17153     -1526.77    1358.6969    80.744993 
   33500    299.84253   -108.23992   0.27130382   -107.96862   -2326.8462    4.3224551    4.3224551    4.3224551   -2326.8462   -6967.7436    4050.7585   -4063.5536    292.12414   -169.10709    494.01552    80.759098 
   33600    154.77198   -108.11016   0.14004094   -107.97012    3665.6895    4.3238956    4.3238956    4.3238956    3665.6895   -5003.1235    14483.681    1516.5112    318.24829    398.88546     229.1687    80.839869 
   33700    202.78313   -108.15386   0.18348243   -107.97037   -3268.4272    4.3209018    4.3209018    4.3209018   -3268.4272   -3354.5663    744.14471   -7194.8599   -66.049589   -3117.9343     2281.404    80.672065 
   33800    199.88647   -108.15002   0.18086148   -107.96916    2772.9077     4.324637     4.324637     4.324637    2772.9077   -6692.3695    9788.9548    5222.1379   -2789.6703    1092.4743   -2310.2151    80.881458 
   33900    243.84197   -108.18951   0.22063334   -107.96888   -2018.1444    4.3224353    4.3224353    4.3224353   -2018.1444   -5450.9381    5973.9602   -6577.4554   -85.243239   -1752.2903    787.27046    80.757992 
   34000    81.714603   -108.04434   0.07393709    -107.9704    2655.9748    4.3214743    4.3214743    4.3214743    2655.9748   -6237.6208     13025.46    1180.0857   -1318.2635   -393.47108    192.95893    80.704136 
   34100    327.32978   -108.26485   0.29617487   -107.96867   -6333.6815    4.3259106    4.3259106    4.3259106   -6333.6815   -10463.373    -3759.735   -4777.9365    53.233231     714.9367   -593.94361    80.952941 
   34200    146.99045   -108.10362   0.13300005   -107.97062    3206.5544     4.319655     4.319655     4.319655    3206.5544   -2657.3612    13006.426   -729.40207    1095.9448   -709.56841    2769.1853    80.602251 
   34300    180.79673   -108.13408   0.16358868    -107.9705   -5142.5839    4.3252328    4.3252328    4.3252328   -5142.5839   -9178.2847   -4830.6838   -1418.7833    -2214.348    -355.3372    872.64505    80.914893 
   34400    230.26157   -108.17687    0.2083455   -107.96853    2783.0623    4.3227924    4.3227924    4.3227924    2783.0623   -6347.2014    16689.511   -1993.1227   -562.00466    32.685243   -985.82554    80.778006 
   34500    166.83422   -108.12014   0.15095511   -107.96918   -4.6425718    4.3208772    4.3208772    4.3208772   -4.6425718   -3766.9705   -394.30174    4147.3445    -422.7689   -759.09991    2718.6128     80.67069 
   34600    199.71331   -108.14971    0.1807048     -107.969   -5827.0093    4.3263881    4.3263881    4.3263881   -5827.0093    -13719.77    5874.3765   -9635.6342   -2152.5044   -1066.7256   -246.76904    80.979748 
   34700    248.97768    -108.1931   0.22528024   -107.96782    4068.2244    4.3204777    4.3204777    4.3204777    4068.2244   -4151.2406    8228.8525    8127.0612    1023.6058    734.88436   -513.72034    80.648314 
   34800    167.34682    -108.1212   0.15141892   -107.96978   -2699.8843     4.323212     4.323212     4.323212   -2699.8843   -11280.909    10957.729   -7776.4736   -1965.5083   -2085.5122     1555.155    80.801533 
   34900    160.77336   -108.11508   0.14547111   -107.96961    503.17394    4.3251622    4.3251622    4.3251622    503.17394   -7771.3309    6370.4593    2910.3934   -1603.5873   -404.81395   -1287.8764    80.910929 
   35000    286.85903   -108.22726   0.25955608    -107.9677    3102.9921    4.3193688    4.3193688    4.3193688    3102.9921    -4085.588    12716.632    677.93207   -28.561479   -857.51205   -346.36001    80.586232 
   35100    129.45491   -108.08693   0.11713352   -107.96979   -2970.0239    4.3254924    4.3254924    4.3254924   -2970.0239   -7669.2992    3305.0574   -4545.8299   -838.79834   -1957.3757    3022.2239    80.929463 
   35200    205.61242   -108.15571   0.18604244   -107.96966    865.32517    4.3233835    4.3233835    4.3233835    865.32517   -8798.5314    13729.814    -2335.307   -227.78972    700.66867   -887.97176     80.81115 
   35300    257.33671   -108.20189   0.23284367   -107.96904    2194.2578    4.3196421    4.3196421    4.3196421    2194.2578   -4183.2942    10255.471     510.5962     30.39507   -739.91012    9.4991289    80.601531 
   35400     114.4759   -108.07448    0.1035802    -107.9709   -3521.0894    4.3265977    4.3265977    4.3265977   -3521.0894   -12552.489    6989.6898   -5000.4692   -1270.2298   -1342.6267    3083.3469    80.991517 
   35500    276.43377   -108.21914   0.25012309   -107.96902   -794.03021    4.3214998    4.3214998    4.3214998   -794.03021   -5223.7051    4776.4248   -1934.8104    -1980.834    410.34454   -2133.5577    80.705567 
   35600    180.28154   -108.13241   0.16312253   -107.96929    2605.0479    4.3215928    4.3215928    4.3215928    2605.0479   -6937.5546    13081.832    1670.8663    2371.5489   -2418.0671    2958.0168    80.710778 
   35700    166.78485    -108.1208   0.15091044   -107.96989   -6240.1207    4.3267803    4.3267803    4.3267803   -6240.1207    -9110.453    2978.8712    -12588.78    -1528.199   -432.10988   -105.65713    81.001773 
   35800    225.18935   -108.17242   0.20375606   -107.96867    3436.1461    4.3192527    4.3192527    4.3192527    3436.1461    -3323.022    6104.3514    7527.1091    1293.8762    -381.9891    113.35651    80.579735 
   35900    203.44285   -108.15332   0.18407937   -107.96924   -2640.8338    4.3246284    4.3246284    4.3246284   -2640.8338   -9564.6274    11242.323   -9600.1971   -827.80802   -2355.4498    364.43683    80.880975 
   36000    168.80083    -108.1228   0.15273454   -107.97006   -3033.3633    4.3246383    4.3246383    4.3246383   -3033.3633   -9369.9474   -1406.4304    1676.2879   -1652.9765    246.37596    2337.2913    80.881531 
   36100    208.72653   -108.15763   0.18886015   -107.96877    5098.3379    4.3192069    4.3192069    4.3192069    5098.3379   -5242.1749    19991.932    545.25682   -77.383054   -1643.8453   -2099.8918    80.577174 
   36200    247.77394   -108.19281   0.22419106   -107.96862   -6542.9716    4.3269612    4.3269612    4.3269612   -6542.9716   -12216.818   -3588.8294   -3823.2671   -491.01278    -1688.851    1868.2206    81.011937 
   36300    130.74072   -108.08776   0.11829695   -107.96946    2878.8032    4.3211541    4.3211541    4.3211541    2878.8032   -4581.4934    11763.384    1454.5187   -1701.4473    240.74955   -301.92164    80.686199 
   36400    269.69024   -108.21232    0.2440214    -107.9683   -170.62435    4.3221085    4.3221085    4.3221085   -170.62435   -5830.5176    6821.0316   -1502.3871   -1052.4779   -540.84586   -600.17661    80.739676 
   36500    143.16257   -108.09944    0.1295365    -107.9699     746.4231     4.325633     4.325633     4.325633     746.4231   -9215.4099    10893.057    561.62231   -2075.1415   -556.04406    3587.9778    80.937354 
   36600    205.74543   -108.15575   0.18616278   -107.96958   -275.67244    4.3201742    4.3201742    4.3201742   -275.67244   -2832.3034    3840.7318   -1835.4457   -1979.5289    1185.9031   -1069.8105     80.63132 
   36700    212.45683   -108.16094    0.1922354    -107.9687    1685.9289    4.3247835    4.3247835    4.3247835    1685.9289   -9812.8338    9314.3082    5556.3122    1873.9332   -1617.0501    1420.9719    80.889679 
   36800    239.52461   -108.18559    0.2167269   -107.96886   -2889.6092    4.3222933    4.3222933    4.3222933   -2889.6092   -6617.0284     2522.144   -4573.9432   -384.78786   -583.66675    232.95911    80.750032 
   36900    104.12582   -108.06427   0.09421523   -107.97005     5061.266    4.3226037    4.3226037    4.3226037     5061.266   -6394.2492    17388.722    4189.3255   -572.50546    422.49441    1513.3833    80.767432 
   37000    308.19237    -108.2476   0.27885894   -107.96874   -3977.9712     4.324187     4.324187     4.324187   -3977.9712   -8701.8161    532.17359   -3764.2711    680.04883   -2398.8131   -2240.0117    80.856213 
   37100    112.02063   -108.07213   0.10135862   -107.97077    4481.9134    4.3207776    4.3207776    4.3207776    4481.9134    -1938.382    12954.289     2429.833   -1668.5463    328.47797    3227.4826    80.665112 
   37200    249.85559    -108.1959   0.22607459   -107.96982   -5532.2175    4.3254465    4.3254465    4.3254465   -5532.2175   -9078.6664   -2787.2013   -4730.7847    25.022951    -990.3938   -3116.5039    80.926889 
   37300    175.78796   -108.12786   0.15905664    -107.9688    5171.4687    4.3210718    4.3210718    4.3210718    5171.4687    -4834.977    18709.697    1639.6861    228.53043   -1752.8005    2036.9423     80.68159 
   37400    210.45388   -108.15884   0.19042309   -107.96842   -3169.4352    4.3238459    4.3238459    4.3238459   -3169.4352   -6926.8703    67.263204   -2648.6984   -2007.4262   -190.19126    2527.9929    80.837079 
   37500    185.56861    -108.1362   0.16790638   -107.96829   -362.84602    4.3241212    4.3241212    4.3241212   -362.84602   -9477.8038     10216.85   -1827.5845    -874.9942   -454.21765   -1377.0858    80.852525 
   37600    234.06719   -108.17965   0.21178891   -107.96786    1409.4607    4.3206477    4.3206477    4.3206477    1409.4607   -3686.3464    5973.9731    1940.7553   -133.22613   -965.19918    2933.2423    80.657838 
   37700    198.02377   -108.14823   0.17917607   -107.96906   -4465.3803    4.3260607    4.3260607    4.3260607   -4465.3803   -10058.221    4920.5716   -8258.4913   -223.79889    1283.4081   -1135.7928    80.961368 
   37800    135.19671     -108.092   0.12232882   -107.96967    4944.3728    4.3204227    4.3204227    4.3204227    4944.3728   -2840.3072    12842.584    4830.8418    1071.7481   -1850.4944    580.89558    80.645235 
   37900    296.26222   -108.23638   0.26806428   -107.96831   -4231.5609    4.3237791    4.3237791    4.3237791   -4231.5609   -8453.7823    3095.2319   -7336.1322     1550.827   -1489.8587   -501.05531    80.833337 
   38000    113.54345   -108.07249    0.1027365   -107.96976    1219.7109    4.3246885    4.3246885    4.3246885    1219.7109   -6026.0319    6778.0694    2907.0952   -2423.6533    351.01316    1141.0478    80.884347 
   38100     249.3121   -108.19473   0.22558283   -107.96915    -902.0743    4.3198772    4.3198772    4.3198772    -902.0743   -6605.9845    7830.9507   -3931.1892    1076.7017   -3143.3316   -4705.5638    80.614693 
   38200     207.0564   -108.15691   0.18734898   -107.96956   -404.46171    4.3258037    4.3258037    4.3258037   -404.46171   -8595.4136    7809.0218    -426.9934    -1441.062     524.0525    1956.5685    80.946938 
   38300    169.38539   -108.12376   0.15326346    -107.9705    -1043.638    4.3217916    4.3217916    4.3217916    -1043.638    -5515.904     5836.251   -3451.2611   -38.087197   -1176.6655   -2075.2903    80.721919 
   38400    217.05642   -108.16554   0.19639721   -107.96914    174.55533    4.3224122    4.3224122    4.3224122    174.55533    -5331.695    6004.4108   -149.04981    718.29143   -1743.1299   -778.69298    80.756697 
   38500    229.07746   -108.17544    0.2072741   -107.96816   -1535.8072    4.3253748    4.3253748    4.3253748   -1535.8072   -8012.9541    4972.7296    -1567.197   -1781.2365   -16.368415    2260.8576    80.922864 
   38600    124.01376   -108.08129   0.11221025   -107.96908    2560.3772     4.320264     4.320264     4.320264    2560.3772   -2339.0472    11460.792   -1440.6131   -575.80659   -927.43608   -2428.1436    80.636349 
   38700    253.85469   -108.19799   0.22969306    -107.9683   -3306.6223    4.3250943    4.3250943    4.3250943   -3306.6223   -11591.447    842.91577    828.66429    575.23257   -1426.4456    944.90697    80.907119 
   38800    199.22856   -108.14915   0.18026619   -107.96888    897.09688    4.3226179    4.3226179    4.3226179    897.09688   -4479.0525    11011.618   -3841.2751   -196.85666    1159.8354    80.142395    80.768224 
   38900     195.5954   -108.14668   0.17697882    -107.9697   -2958.9059    4.3223352    4.3223352    4.3223352   -2958.9059   -9031.8838   -3368.9718    3524.1377   -21.581468   -733.87218   -462.33005    80.752378 
   39000     188.0767   -108.13896   0.17017575   -107.96878     2335.368    4.3245425    4.3245425    4.3245425     2335.368   -8734.0467    19099.738   -3359.5877    1599.7028   -1414.4645   -2311.2086    80.876156 
   39100    232.43913   -108.17869   0.21031581   -107.96838   -842.26272    4.3216311    4.3216311    4.3216311   -842.26272   -4218.8669   -997.51556    2689.5943   -2429.8378    750.65495    366.45433    80.712924 
   39200    122.32401   -108.08043   0.11068134   -107.96975     748.1251    4.3235377    4.3235377    4.3235377     748.1251   -9217.6756    13381.294   -1919.2428     1199.246   -3079.1995   -2842.2807    80.819797 
   39300    281.60602   -108.22335   0.25480305   -107.96855   -1480.0659     4.323499     4.323499     4.323499   -1480.0659   -5938.8528    1160.3054    338.34958    680.86694   -167.62285    456.26071    80.817624 
   39400    177.30206   -108.13044   0.16042663   -107.97002      1286.88     4.321928     4.321928     4.321928      1286.88   -7327.3768    11817.693   -629.67607    221.62817   -544.37022    1687.9584    80.729558 
   39500    152.65774   -108.10848   0.13812793   -107.97036   -811.15407    4.3243122    4.3243122    4.3243122   -811.15407     -9814.81    7810.6909   -429.34313    1253.7652   -2140.9591   -1799.6892    80.863236 
   39600    269.32437   -108.21197   0.24369035   -107.96828    1755.1217    4.3213286    4.3213286    4.3213286    1755.1217   -5890.1249    11081.161    74.328779   -10.536733   -268.26695    2283.1725    80.695976 
   39700    179.10482   -108.13126   0.16205781   -107.96921   -2238.9568    4.3244598    4.3244598    4.3244598   -2238.9568   -7936.5211    820.13915    399.51168   -1297.4777    -589.8837   -698.23902    80.871518 
   39800    149.69964   -108.10573   0.13545138   -107.97027    578.68264    4.3227796    4.3227796    4.3227796    578.68264   -8661.4509    15312.693    -4915.194    2572.0057   -2354.0359    243.99411    80.777289 
   39900    289.60015   -108.23102    0.2620363   -107.96899    481.32902    4.3217555    4.3217555    4.3217555    481.32902   -3503.8962    4136.7262    811.15706   -1115.7716    625.67592   -1181.5113    80.719893 
   40000    110.56865   -108.07143   0.10004484   -107.97139    103.57017    4.3245815    4.3245815    4.3245815    103.57017   -8349.4294    12946.104   -4285.9638   -109.29656   -759.09774   -1050.6401    80.878345 
   40100    251.19463   -108.19732   0.22728618   -107.97004   -3584.6169    4.3219955    4.3219955    4.3219955   -3584.6169   -6953.3192   -1275.0632   -2525.4683    476.68358   -1892.0394   -2809.2627     80.73334 
   40200    204.06708   -108.15344   0.18464418    -107.9688    3057.9452     4.323713     4.323713     4.323713    3057.9452   -6514.1237    13643.072    2044.8877   -664.08628    915.37982    1113.2483    80.829625 
   40300    182.30061   -108.13434   0.16494942   -107.96939   -5110.5722    4.3237548    4.3237548    4.3237548   -5110.5722   -9891.8403    1738.5939   -7178.4703    1303.9002   -3557.8181   -704.62733    80.831973 
   40400     174.9468    -108.1272   0.15829555   -107.96891    3209.2314    4.3215251    4.3215251    4.3215251    3209.2314   -4845.2664    12185.119    2287.8414    2740.1633   -809.44968   -857.32944    80.706986 
   40500    269.14822   -108.21156   0.24353097   -107.96803    -2577.194    4.3250582    4.3250582    4.3250582    -2577.194   -7210.0581    3659.9674   -4181.4912   -130.27283   -417.85884    2258.8331    80.905094 
   40600    132.46346   -108.08991   0.11985572   -107.97005   -429.46658    4.3217929    4.3217929    4.3217929   -429.46658   -6879.2786    4632.2413     958.6376    664.54823   -2137.0859   -1526.3195    80.721991 
   40700    203.11593   -108.15285   0.18378357   -107.96906      2052.56     4.323168     4.323168     4.323168      2052.56    -5036.921    11081.778     112.8232    1038.4201   -179.94377    1164.7122    80.799065 
   40800    253.26392   -108.19732   0.22915852   -107.96816   -2506.0682    4.3244817    4.3244817    4.3244817   -2506.0682   -10627.853    1536.7149    1572.9337   -2637.3295   -115.36951   -292.60269    80.872744 
   40900    131.84537   -108.08916   0.11929646   -107.96986    980.07052    4.3209987    4.3209987    4.3209987    980.07052   -4678.9846    8606.0863   -986.89012    2152.7254   -2223.6716   -2111.5866    80.677498 
   41000    268.28075   -108.21194   0.24274606   -107.96919   -1647.1101    4.3245942    4.3245942    4.3245942   -1647.1101   -9272.9664    1186.3924    3145.2438   -692.02799    612.99714   -2173.1021    80.879059 
   41100    202.97294   -108.15369   0.18365418   -107.97004    608.45468     4.323085     4.323085     4.323085    608.45468   -5770.6594    8358.7917    -762.7682   -1024.5543   -284.08561    1046.4115    80.794413 
   41200    128.90295   -108.08752    0.1166341   -107.97089    942.53183    4.3216274    4.3216274    4.3216274    942.53183   -5171.6715    5363.8505    2635.4165    1380.4064   -1556.2362   -1558.6308    80.712716 
   41300     238.9205    -108.1846   0.21618029   -107.96841    98.883243    4.3250683    4.3250683    4.3250683    98.883243   -6696.6911    5783.7577    1209.5831    654.03168     1154.029    -18.64414    80.905662 
   41400    244.90164   -108.19005   0.22159215   -107.96845   -1184.8887     4.321804     4.321804     4.321804   -1184.8887   -6379.4069    3536.5825   -711.84168    647.11611   -1906.3873    1271.7018    80.722612 
   41500     100.0553   -108.06036  0.090532137   -107.96983    2283.5448    4.3232445    4.3232445    4.3232445    2283.5448   -7169.6586     10335.91    3684.3832    3067.5217   -1081.4706   -2624.6112    80.803357 
   41600    317.94411   -108.25543   0.28768251   -107.96775   -3285.0265    4.3246547    4.3246547    4.3246547   -3285.0265   -9900.1344    4840.4329    -4795.378   -851.50792    33.403177    2185.1965    80.882451 
   41700    100.40342   -108.06093  0.090847124   -107.97008     6099.263     4.321035     4.321035     4.321035     6099.263   -4373.5925    14314.901     8356.481    582.93866   -597.37997   -782.01102    80.679527 
   41800      241.311   -108.18802   0.21834327   -107.96967    -7559.068    4.3244909    4.3244909    4.3244909    -7559.068    -9534.432   -5308.0571   -7834.7148    1600.1018   -1232.6221   -2857.6336     80.87326 
   41900    201.47282   -108.15108   0.18229685   -107.96878    4912.7956    4.3235911    4.3235911    4.3235911    4912.7956   -5904.1952    16693.081    3949.5006    -639.4987    915.22621    44.467848    80.822793 
   42000     214.4934   -108.16339   0.19407813   -107.96931   -2470.0419    4.3213877    4.3213877    4.3213877   -2470.0419   -6714.2816    1916.0476   -2611.8917    1998.1971   -2137.5619   -1609.5895    80.699286 
   42100    110.58701   -108.07014   0.10006145   -107.97008     1247.049    4.3250733    4.3250733    4.3250733     1247.049   -10373.931    17316.926   -3201.8483    2140.8084   -409.98959   -885.21231    80.905943 
   42200    312.15561   -108.25127   0.28244496   -107.96883   -1020.0492    4.3221763    4.3221763    4.3221763   -1020.0492   -6609.9799     773.6304     2776.202   -1332.2659    339.77334    425.41216    80.743473 
   42300    134.28156   -108.09293   0.12150078   -107.97143   -1656.2998    4.3230402    4.3230402    4.3230402   -1656.2998   -9292.0832    8756.2505   -4433.0668    2388.5791   -2288.1106   -282.12588    80.791901 
   42400    189.54535   -108.14186   0.17150462   -107.97035   -875.92684    4.3242551    4.3242551    4.3242551   -875.92684    -8534.134    5448.2479    458.10557    1719.1357    411.89379   -2937.9531    80.860034 
   42500     266.7737   -108.20951   0.24138245   -107.96813    1421.7697    4.3217778    4.3217778    4.3217778    1421.7697   -4835.0493    12400.314   -3299.9558   -984.85436   -1249.7247    2280.4994    80.721145 
   42600    117.01516   -108.07544   0.10587777   -107.96956   -2041.4028     4.324677     4.324677     4.324677   -2041.4028   -10413.864    3882.1892    407.46692    3783.0915   -2183.6948   -1974.9208    80.883706 
   42700    242.47236   -108.18841   0.21939409   -107.96901   -704.80508    4.3226255    4.3226255    4.3226255   -704.80508   -5380.2425    6680.2927   -3414.4655   -1913.1312   -421.76563    -624.4602     80.76865 
   42800    218.87766   -108.16741   0.19804511   -107.96936     862.7816    4.3227093    4.3227093    4.3227093     862.7816   -8211.9265    7234.0342    3566.2371    1111.7842   -1090.9249   -956.15921     80.77335 
   42900    139.65468   -108.09717   0.12636249    -107.9708   -3463.3783    4.3248332    4.3248332    4.3248332   -3463.3783   -10549.564     7072.915   -6913.4861    1337.1275   -1424.8524   -1328.4338    80.892467 
   43000     257.5618   -108.20202   0.23304733   -107.96897    1053.2338    4.3215261    4.3215261    4.3215261    1053.2338   -4323.8575    4036.1547    3447.4041    702.51148    1372.7757   -94.009625    80.707038 
   43100    199.20395   -108.14946   0.18024392   -107.96922   -354.22306    4.3243192    4.3243192    4.3243192   -354.22306   -9697.1595     9959.484   -1324.9937      607.703    -2171.938    -202.1329    80.863628 
   43200    167.92268    -108.1216   0.15193997   -107.96966   -2620.7641    4.3236014    4.3236014    4.3236014   -2620.7641   -7646.3319   -771.66865    555.70812    2091.7493   -217.32307   -1183.2509    80.823371 
   43300    203.78152   -108.15306    0.1843858   -107.96867    4543.2143    4.3217899    4.3217899    4.3217899    4543.2143   -4925.9088    15115.172    3440.3799   -960.02883   -338.90225   -2319.4317    80.721821 
   43400    236.23902   -108.18332   0.21375403   -107.96957   -4505.7113    4.3248321    4.3248321    4.3248321   -4505.7113   -11511.049     1307.178   -3313.2627    925.10258   -1728.7846    2381.1923    80.892408 
   43500    143.71602   -108.10046   0.13003727   -107.97043    1173.6262    4.3221506    4.3221506    4.3221506    1173.6262   -6395.2474    4481.2934    5434.8328    2618.6617    299.26831   -3735.3408    80.742032 
   43600    265.09534   -108.20852   0.23986384   -107.96866   -168.68504    4.3236441    4.3236441    4.3236441   -168.68504   -7852.4081      9788.27   -2441.9171   -1838.5769   -1333.1365    2138.2767    80.825763 
   43700     164.4168   -108.11807   0.14876778    -107.9693    514.60984    4.3235705    4.3235705    4.3235705    514.60984   -10297.685    4199.0828    7642.4317    2946.5299   -756.87454   -2445.8277    80.821638 
   43800    165.53074   -108.11882   0.14977569   -107.96904    655.08037    4.3220335    4.3220335    4.3220335    655.08037    -4526.925     10526.69   -4034.5244    402.61817   -752.47767   -1594.4763    80.735469 
   43900    273.17191   -108.21556   0.24717168   -107.96839    -2952.385    4.3249499    4.3249499    4.3249499    -2952.385   -10275.951   -578.80878    1997.6052    515.21817   -52.667647    -595.3691    80.899014 
   44000    158.09507   -108.11375   0.14304774    -107.9707    173.95669     4.322183     4.322183     4.322183    173.95669   -7610.3358    10322.268   -2190.0625    5041.6393   -1069.4668   -572.93517    80.743852 
   44100    200.84295    -108.1523   0.18172692   -107.97057   -2189.3155    4.3233928    4.3233928    4.3233928   -2189.3155   -6533.2701    2314.7684   -2349.4448    1.9137454    1646.3865   -5388.1254    80.811671 
   44200    198.39073   -108.14877    0.1795081   -107.96926    1311.3265    4.3242155    4.3242155    4.3242155    1311.3265   -9785.4581    12285.962    1433.4759    1638.4425     -1214.15   -640.55136    80.857812 
   44300    206.66201   -108.15591   0.18699213   -107.96892   -4012.5889    4.3222637    4.3222637    4.3222637   -4012.5889   -7763.5161   -105.67453   -4168.5762    1370.2442   -489.64412   -2721.5706    80.748374 
   44400    174.30439   -108.12632   0.15771427   -107.96861   -696.20779     4.324559     4.324559     4.324559   -696.20779   -6526.9705    6023.6836   -1585.3364   -810.09803     423.9007   -4447.1974    80.877085 
   44500    276.67395   -108.21851   0.25034041   -107.96817   -3093.9274    4.3232952    4.3232952    4.3232952   -3093.9274   -9806.7746     6501.917   -5976.9246    16.885706   -2495.7529    3039.5946      80.8062 
   44600    102.00723   -108.06249  0.092298289   -107.97019    1862.9948    4.3222866    4.3222866    4.3222866    1862.9948   -4572.9696    8499.3407    1662.6133     1026.886    688.26975   -7989.6792    80.749653 
   44700    266.62993   -108.20987   0.24125236   -107.96862   -5151.4982    4.3256076    4.3256076    4.3256076   -5151.4982   -10054.022    1802.8313   -7203.3043   -499.81537   -1297.5207    1381.0392    80.935929 
   44800    159.10963   -108.11231   0.14396574   -107.96834    4637.4809     4.320741     4.320741     4.320741    4637.4809   -5104.3115    13709.382    5307.3726   -302.76562   -1219.4653   -2574.2577    80.663064 
   44900    236.72841   -108.18264   0.21419684   -107.96844   -8441.6728    4.3254237    4.3254237    4.3254237   -8441.6728    -10012.12   -6033.0829   -9279.8156    2606.9248   -469.94753    -2160.073    80.925605 
   45000    146.79985   -108.10195   0.13282759   -107.96913    4898.2176    4.3232506    4.3232506    4.3232506    4898.2176   -6683.0874    21112.239     265.5012   -1577.7883   -574.72745   -1367.6817    80.803697 
   45100    264.86399   -108.20942   0.23965451   -107.96977    -2193.161    4.3210793    4.3210793    4.3210793    -2193.161   -6791.2665    311.93131   -100.14784    4334.9249   -818.96194   -910.79759    80.682009 
   45200    131.27654   -108.08978   0.11878178     -107.971   -1497.1343     4.326644     4.326644     4.326644   -1497.1343   -9796.2388    7998.6212   -2693.7854   -1132.2037    895.03048   -4233.3896    80.994119 
   45300    236.00346   -108.18244   0.21354089    -107.9689    1866.2387     4.320703     4.320703     4.320703    1866.2387    -4384.343    3380.4954    6602.5639    117.72934   -449.91919    1060.4496    80.660936 
   45400    201.61178   -108.15108   0.18242258   -107.96865   -1345.1697    4.3238043    4.3238043    4.3238043   -1345.1697   -9670.8036    9352.3641   -3717.0697    1575.1063   -737.41414    299.46657     80.83475 
   45500    169.25755   -108.12177   0.15314778   -107.96862   -1626.3122    4.3252999    4.3252999    4.3252999   -1626.3122   -7283.6073   -344.16241     2748.833   -1201.4481    353.09904   -4132.6913    80.918661 
   45600    260.37501   -108.20333   0.23559278   -107.96774    1485.0704    4.3200559    4.3200559    4.3200559    1485.0704   -5314.2981    10491.271   -721.76164    1313.4032   -2181.1414    2896.0209    80.624699 
   45700    158.71788   -108.11297   0.14361127   -107.96936   -861.35043    4.3263396    4.3263396    4.3263396   -861.35043   -10145.734    881.50485    6680.1778    431.82343   -163.20599   -2653.1301    80.977023 
   45800    190.87268   -108.14257   0.17270561   -107.96987    336.44448    4.3214383    4.3214383    4.3214383    336.44448   -3454.3567    6252.4796   -1788.7894     961.9354   -401.35172     -88.9634    80.702121 
   45900    209.40574   -108.15831   0.18947472   -107.96883    2208.1959    4.3229575    4.3229575    4.3229575    2208.1959   -7423.6396    8813.2646    5234.9627   -595.27971   -1487.7088   -564.11117    80.787265 
   46000    211.77432   -108.16032   0.19161786    -107.9687   -3955.9756    4.3258481    4.3258481    4.3258481   -3955.9756   -8540.4683    1459.1141   -4786.5728    2667.2244   -138.75042   -1715.5838    80.949433 
   46100    206.33051   -108.15529   0.18669218    -107.9686    1488.2457    4.3203119    4.3203119    4.3203119    1488.2457    -3221.139     4904.598    2781.2782   -991.11336   -582.14846   -4617.8622    80.639032 
   46200    184.18753     -108.136   0.16665674   -107.96934    2589.8291    4.3250029    4.3250029    4.3250029    2589.8291    -9525.176    13535.146    3759.5172    1428.5805   -1019.7848    2827.3983    80.901989 
   46300    219.61918   -108.16932   0.19871604    -107.9706    -2446.631    4.3226352    4.3226352    4.3226352    -2446.631   -5987.6538    1579.2358   -2931.4751    170.12422    1274.9145   -4436.9473    80.769194 
   46400    149.75918   -108.10594   0.13550525   -107.97044    3772.8845     4.322599     4.322599     4.322599    3772.8845   -5229.8265    12432.118    4116.3624   -1879.4935   -679.67638   -230.78235    80.767167 
   46500    283.97122   -108.22537   0.25694313   -107.96843   -3673.0445    4.3246915    4.3246915    4.3246915   -3673.0445   -8997.4414    4335.2513   -6356.9435    1513.6146   -311.69473    -46.91954    80.884515 
   46600    145.98085    -108.1009   0.13208654   -107.96881    2504.7965    4.3216405    4.3216405    4.3216405    2504.7965   -3438.2531    6222.8389    4729.8037   -262.81374   -145.99409   -3039.0708     80.71345 
   46700    198.65091   -108.14804   0.17974352    -107.9683   -721.67139      4.32481      4.32481      4.32481   -721.67139   -9188.2804    11922.557   -4899.2903   -190.41637    -1410.856    2926.0373    80.891165 
   46800    218.49463     -108.166   0.19769853   -107.96831    1423.4267    4.3222712    4.3222712    4.3222712    1423.4267   -6533.7335    4044.4409    6759.5726    1238.6341   -1081.3466    -138.3589    80.748792 
   46900    153.11255   -108.10789   0.13853946   -107.96935   -413.68779    4.3238552    4.3238552    4.3238552   -413.68779    -6445.011    9484.3591   -4280.4115   -1525.7842   -283.97198   -2198.6171    80.837604 
   47000    261.69969   -108.20542   0.23679138   -107.96863   -4509.7727    4.3238723    4.3238723    4.3238723   -4509.7727   -8940.7893    -1260.712   -3327.8169    87.691004   -1332.9404   -454.49456    80.838564 
   47100    160.00076   -108.11371   0.14477205   -107.96893    3969.6391     4.322034     4.322034     4.322034    3969.6391    -4040.842    14304.308    1645.4506   -184.83309   -894.11729   -206.58467    80.735499 
   47200    214.97619   -108.16387   0.19451497   -107.96936   -5693.9385    4.3248177    4.3248177    4.3248177   -5693.9385   -9293.3492    -3103.767   -4684.6994   -674.34143    258.26199    -3722.461    80.891596 
   47300    167.02188   -108.12077    0.1511249   -107.96964    2998.1648    4.3221317    4.3221317    4.3221317    2998.1648   -5071.9329    9690.8896    4375.5378   -1066.6864   -2098.7307     3122.953    80.740974 
   47400    249.74007   -108.19576   0.22597007   -107.96979   -3411.0007    4.3239934    4.3239934    4.3239934   -3411.0007   -7226.4748    1258.3644   -4264.8917    1915.9287    1406.6934   -3281.4229    80.845352 
   47500    151.21566   -108.10752    0.1368231    -107.9707    -809.9502    4.3232543    4.3232543    4.3232543    -809.9502   -6168.7022    3731.4363    7.4153036    -1620.652   -991.56839   -881.72013    80.803904 
   47600     253.0661   -108.19779   0.22897952   -107.96881   -137.55238    4.3227917    4.3227917    4.3227917   -137.55238   -5951.3684    8641.8965   -3103.1853    1842.6769   -268.33785    3254.7243     80.77797 
   47700    152.48141   -108.10676   0.13796839   -107.96879    2329.2644     4.324156     4.324156     4.324156    2329.2644   -6661.2364    7497.6678    6151.3618     2013.656    171.46129   -1112.8586    80.854477 
   47800    228.35244   -108.17507   0.20661809   -107.96845    -3602.162    4.3230785    4.3230785    4.3230785    -3602.162   -6676.9284   -953.47258    -3176.085   -2088.4519    -1520.895   -565.74115     80.79405 
   47900    152.53232   -108.10683   0.13801445   -107.96881     6643.691    4.3227321    4.3227321    4.3227321     6643.691   -5172.6263    20294.797    4808.9022    1957.1182   -93.477507   -6.2695005    80.774629 
   48000    268.27412   -108.21231   0.24274006   -107.96957   -5333.6815    4.3235193    4.3235193    4.3235193   -5333.6815   -8817.8613   -5050.4791    -2132.704   -2370.3927   -243.16119   -2511.2142    80.818762 
   48100    123.50301   -108.08258   0.11174812   -107.97084    4123.5627    4.3235641    4.3235641    4.3235641    4123.5627   -6056.6638    18748.596   -321.24359    286.68555   -169.77462   -907.86926    80.821275 
   48200    267.96996   -108.21155   0.24246485   -107.96908   -177.71763    4.3222831    4.3222831    4.3222831   -177.71763   -7345.6427   -806.88109     7619.371   -612.58768    6.8125853    840.72551    80.749457 
   48300    156.31808    -108.1108   0.14143988   -107.96936    931.74787     4.324044     4.324044     4.324044    931.74787   -8252.3333    11933.419   -885.84182    690.98946    73.010511   -3646.4379    80.848191 
   48400    188.07538   -108.13887   0.17017456   -107.96869    365.89166    4.3232941    4.3232941    4.3232941    365.89166    -6645.503    2809.0862    4934.0918   -1468.9734   -708.21998    223.83584    80.806136 
   48500    249.85002   -108.19418   0.22606954   -107.96811   -1633.8387    4.3225435    4.3225435    4.3225435   -1633.8387    -8478.315    7984.2382   -4407.4394    2484.0032    803.85522    1972.2179    80.764055 
   48600    155.59102   -108.11014   0.14078202   -107.96936   -183.04843    4.3247652    4.3247652    4.3247652   -183.04843   -7987.1393    2092.7667    5345.2274   -876.27503   -153.52702   -2208.0684    80.888653 
   48700    226.58104   -108.17376   0.20501528   -107.96875   -1698.3848    4.3222614    4.3222614    4.3222614   -1698.3848   -6758.3238    3866.0387   -2202.8693    76.497631   -43.840376      2669.84    80.748245 
   48800     188.6129   -108.13889   0.17066091   -107.96823     1487.615    4.3238674    4.3238674    4.3238674     1487.615   -9008.6636    6835.8714    6635.6374    2533.1651   -477.53305   -1588.7604    80.838286 
   48900    177.19277   -108.12925   0.16032775   -107.96892    -603.6581    4.3233418    4.3233418    4.3233418    -603.6581   -6247.7818    6999.6177   -2562.8102   -3547.1483    -568.0518   -2626.3053    80.808809 
   49000    243.34146   -108.18885   0.22018047   -107.96867   -2951.2042    4.3227937    4.3227937    4.3227937   -2951.2042   -8102.9165    2018.4189   -2769.1149    1176.1749   -1718.1555    1841.3291     80.77808 
   49100    168.65665   -108.12259   0.15260408   -107.96998    2775.6457    4.3243535    4.3243535    4.3243535    2775.6457    -7860.011    12060.312    4126.6362   -968.35562    540.56561   -1972.0589    80.865554 
   49200    232.17388   -108.18048   0.21007581    -107.9704   -2384.1413    4.3217008    4.3217008    4.3217008   -2384.1413   -5981.3962    2166.8036   -3337.8312   -1089.0184   -831.26307   -2547.9581    80.716826 
   49300    130.53572   -108.08815   0.11811146   -107.97004     4952.272    4.3243411    4.3243411    4.3243411     4952.272   -8910.7425    17810.719      5956.84    1290.9138   -1374.0084    1085.2878    80.864856 
   49400    282.11964   -108.22379   0.25526778   -107.96852   -3082.1916    4.3228269    4.3228269    4.3228269   -3082.1916   -6489.0173    3069.7009   -5827.2583   -690.86415    1142.8882   -1190.6931    80.779942 
   49500    133.25379   -108.08974   0.12057083   -107.96917    1654.5462    4.3230797    4.3230797    4.3230797    1654.5462    -7867.112    9780.7234    3050.0272   -817.57188   -3721.7941    32.627194    80.794112 
   49600    254.20538    -108.1978   0.23001037   -107.96779   -2170.7822    4.3245943    4.3245943    4.3245943   -2170.7822   -9273.4114    7881.3016   -5120.2368    756.21089    871.34243    2289.9704    80.879061 
   49700    180.75343   -108.13202    0.1635495   -107.96847    2565.5731    4.3212617    4.3212617    4.3212617    2565.5731   -5306.7132    6285.6861    6717.7464   -850.17617   -1483.2834   -3153.2167    80.692227 
   49800     151.8854   -108.10643    0.1374291     -107.969   -661.38666    4.3255298    4.3255298    4.3255298   -661.38666   -10927.783    12187.968    -3244.345    -743.7514   -1847.8488    1089.5904    80.931564 
   49900    285.82696    -108.2261   0.25862224   -107.96748   -2506.1233    4.3221343    4.3221343    4.3221343   -2506.1233      -6042.7   -1778.5477    302.87791    513.83403    218.60993    1069.9405     80.74112 
   50000    121.89978   -108.07918   0.11029749   -107.96888    2690.9152    4.3229226    4.3229226    4.3229226    2690.9152   -7826.9771    12326.491    3573.2313   -1151.2012   -2717.4429   -1312.3438    80.785307 
   50100    262.66723   -108.20655   0.23766683   -107.96888   -7853.7466    4.3255371    4.3255371    4.3255371   -7853.7466   -11847.336   -4640.9274   -7072.9759   -818.36724   -906.42239     293.1309    80.931974 
   50200    136.92206   -108.09387   0.12388995   -107.96998     7079.034    4.3203915    4.3203915    4.3203915     7079.034   -3983.4795    11837.295    13383.286    2937.3708   -318.26783    437.27277    80.643491 
   50300    237.97276   -108.18567   0.21532275   -107.97034   -6605.4048    4.3258452    4.3258452    4.3258452   -6605.4048   -11917.829   -232.73387   -7665.6511   -2364.9052   -215.54877   -3246.1606    80.949266 
   50400    168.87271   -108.12288   0.15279958   -107.97008    1297.0695     4.322158     4.322158     4.322158    1297.0695   -5858.6087     1963.187      7786.63    2766.3444   -510.45285     3796.321    80.742451 
   50500    249.87473   -108.19449   0.22609191    -107.9684   -1443.3136    4.3233656    4.3233656    4.3233656   -1443.3136   -6154.1881    3811.3778   -1987.1306   -1277.8441    584.79822    185.45664    80.810145 
   50600     151.7014   -108.10614   0.13726262   -107.96888   -535.34772    4.3246528    4.3246528    4.3246528   -535.34772   -9935.9394    4312.1106    4017.7856   -1811.5801   -1172.4018    -2542.846    80.882346 
   50700    210.32913   -108.15864   0.19031022   -107.96833     2391.582    4.3211116    4.3211116    4.3211116     2391.582   -2952.4199    4080.2683    6046.8976    418.86807    -1268.771    2671.8239    80.683818 
   50800      209.345   -108.15796   0.18941975   -107.96854    382.64214     4.324959     4.324959     4.324959    382.64214    -8521.996    10175.583   -505.66097   -2394.3736    847.48221   -990.30304    80.899528 
   50900     205.3146   -108.15471   0.18577297   -107.96894    -1258.466    4.3229011    4.3229011    4.3229011    -1258.466   -8140.8004   -62.526589    4427.9291   -22.388675   -2439.7372   -791.20609    80.784101 
   51000    196.33558   -108.14615   0.17764856    -107.9685    3739.7147    4.3224966    4.3224966    4.3224966    3739.7147   -3323.2558    16985.448   -2443.0483   -1325.3113   -251.31195    1645.3458    80.761425 
   51100    210.84332   -108.15904   0.19077547   -107.96826   -1171.6991    4.3245011    4.3245011    4.3245011   -1171.6991   -11043.982   -690.05361    8218.9381    524.79303   -245.43171   -1913.9887    80.873836 
   51200    156.62092   -108.11085    0.1417139   -107.96914    2720.8047    4.3223484    4.3223484    4.3223484    2720.8047   -4374.8154    15249.173   -2711.9434   -2326.6696   -2936.2629   -1481.3345    80.753118 
   51300    249.17455   -108.19431   0.22545837   -107.96886   -1192.4697    4.3230368    4.3230368    4.3230368   -1192.4697    -6862.133   -1085.8494    4370.5733    2538.7207    1654.6406    3848.8262     80.79171 
   51400    182.78232   -108.13505   0.16538528   -107.96966   -1932.8254    4.3245267    4.3245267    4.3245267   -1932.8254   -9423.9054    7885.7218   -4260.2926   -3297.9086   -1144.4859   -1517.1817     80.87527 
   51500     196.0549   -108.14688   0.17739459   -107.96948   -724.14613    4.3226931    4.3226931    4.3226931   -724.14613   -6018.0504    3561.6513    283.96073    416.51899   -20.227822    763.54458    80.772439 
   51600    200.42588   -108.14984   0.18134955   -107.96849   -1609.0268    4.3235218    4.3235218    4.3235218   -1609.0268    -7889.031    585.10182    2476.8487   -1114.4257    587.11612     1821.639    80.818902 
   51700    190.91303   -108.14102   0.17274212   -107.96828    -3286.062    4.3244056    4.3244056    4.3244056    -3286.062   -10444.649    1903.2975   -1316.8341   -4496.1091   -1484.6268   -1010.6967    80.868475 
   51800     197.8904   -108.14704   0.17905539   -107.96799   -950.41664    4.3223643    4.3223643    4.3223643   -950.41664   -4804.7937      2157.71   -204.16618    1803.5623   -935.24958    2313.2321     80.75401 
   51900    224.67042   -108.17133   0.20328652   -107.96804   -4437.1585    4.3245613    4.3245613    4.3245613   -4437.1585   -10492.343    3325.9832   -6145.1161   -2771.1608   -324.55252    1339.6353    80.877212 
   52000    151.26932   -108.10652   0.13687166   -107.96964    505.84789    4.3231832    4.3231832    4.3231832    505.84789   -6990.9227    5668.8907    2839.5756   -726.70812   -863.63726    -2286.346     80.79992 
   52100    241.88879   -108.18805   0.21886606   -107.96919   -2249.1581     4.322079     4.322079     4.322079   -2249.1581   -7153.1521     3018.258   -2612.5802    1121.2563   -2022.4597    1657.3487     80.73802 
   52200    163.25068   -108.11723   0.14771264   -107.96952   -162.72526    4.3256546    4.3256546    4.3256546   -162.72526   -9780.0107    5683.9368    3607.8981   -1310.4635     906.1048    305.36241    80.938565 
   52300    229.54574   -108.17672   0.20769781   -107.96902   -571.79445    4.3211499    4.3211499    4.3211499   -571.79445   -6217.2273    7676.4876   -3174.6437   -411.05778   -3085.6582   -539.06419    80.685964 
   52400    199.16277   -108.14941   0.18020666    -107.9692     1825.124    4.3242261    4.3242261    4.3242261     1825.124   -6680.2058    12517.433   -361.85549    917.45452    819.34465    1877.3732    80.858407 
   52500    196.89927   -108.14796    0.1781586    -107.9698    199.49108    4.3227276    4.3227276    4.3227276    199.49108   -7550.6329     5043.907    3105.1992   -2459.6664    392.66572   -951.68082    80.774374 
   52600     200.4095   -108.15062   0.18133472   -107.96929    1406.7582    4.3229519    4.3229519    4.3229519    1406.7582   -6500.0754    8503.7049    2216.6451   -1427.4264   -1584.7034    157.97929    80.786948 
   52700    189.05604    -108.1395   0.17106188   -107.96844     2680.365    4.3243586    4.3243586    4.3243586     2680.365   -7542.9967    10423.927    5160.1645   -505.27207    2090.5551    2479.2598    80.865842 
   52800    224.44903   -108.17111    0.2030862   -107.96802   -1230.6168    4.3215265    4.3215265    4.3215265   -1230.6168   -6415.3123    2390.2908    333.17126   -3762.2757   -1767.3473   -361.41849    80.707061 
   52900    162.07854   -108.11471   0.14665207   -107.96806    3292.1029    4.3253879    4.3253879    4.3253879    3292.1029   -9645.7593    15463.585    4058.4826     142.5021   -277.53726    -1004.967    80.923599 
   53000    274.27073   -108.21596   0.24816592   -107.96779   -2677.8463    4.3215851    4.3215851    4.3215851   -2677.8463   -5646.4947    -4578.946    2191.9018   -399.57831    263.31358    2037.9408    80.710345 
   53100    96.672403   -108.05735  0.087471222   -107.96988    3954.3186    4.3232411    4.3232411    4.3232411    3954.3186   -9636.0891    11369.917    10129.128   -4120.0219   -1414.9064   -952.66636    80.803162 
   53200     284.1132   -108.22567   0.25707159   -107.96859   -4728.7484     4.325507     4.325507     4.325507   -4728.7484   -10375.952   -2626.7186    -1183.575    2040.0203   -118.27572    1032.4684    80.930283 
   53300    144.33633   -108.10017   0.13059854   -107.96957    3952.6452    4.3194527    4.3194527    4.3194527    3952.6452   -2975.4369    6740.5491    8092.8235   -4322.9332   -194.68496    557.29911    80.590929 
   53400    226.73438   -108.17402   0.20515403   -107.96887   -5822.2115    4.3276656    4.3276656    4.3276656   -5822.2115   -15922.693     -1213.32   -330.62129   -1210.3957    -2135.682   -1235.3647    81.051504 
   53500    210.26593   -108.15813   0.19025303   -107.96788    3504.8296     4.320572     4.320572     4.320572    3504.8296   -2875.4956    8391.1028    4998.8817   -949.09324   -69.689558   -323.62284    80.653596 
   53600    165.05341   -108.11806   0.14934379   -107.96872   -176.87284    4.3236891    4.3236891    4.3236891   -176.87284   -10948.555   -229.57386    10647.511   -2465.0122   -351.03095    2038.3327    80.828284 
   53700    220.96257   -108.16824   0.19993157   -107.96831   -2593.3805    4.3254635    4.3254635    4.3254635   -2593.3805   -11821.719    7674.7397    -3633.162   -1721.3586   -1396.1768   -673.21308    80.927841 
   53800    208.69366   -108.15685   0.18883041   -107.96802     4997.708    4.3194428    4.3194428    4.3194428     4997.708      -1786.5    7137.3097    9642.3144    76.886266    36.916287     1485.415    80.590375 
   53900    203.87433   -108.15326   0.18446977   -107.96879   -5317.9079    4.3269826    4.3269826    4.3269826   -5317.9079   -14642.435    4126.7596   -5438.0486   -1703.1925   -826.92405    920.22882    81.013134 
   54000    183.95689   -108.13494   0.16644806   -107.96849    3374.4799    4.3217267    4.3217267    4.3217267    3374.4799    -6452.398    8900.1703    7675.6672   -1180.7498   -3071.1305   -1223.1514     80.71828 
   54100    213.96759   -108.16219   0.19360238   -107.96858    2398.6614    4.3224988    4.3224988    4.3224988    2398.6614   -6732.2266    10829.384    3098.8265    2030.5263     29.01155    2476.2514    80.761547 
   54200    189.62181   -108.14186    0.1715738   -107.97029    -5279.852    4.3250105    4.3250105    4.3250105    -5279.852   -14054.725     601.5408   -2386.3716   -4627.3422   -2299.0912    223.31948    80.902417 
   54300    196.37009   -108.14786   0.17767978   -107.97018    3842.4374    4.3214359    4.3214359    4.3214359    3842.4374   -5015.4036    13879.527    2663.1892    1863.3893   -2664.5626   -2243.7723    80.701985 
   54400    265.90367   -108.21003   0.24059523   -107.96944   -5469.7725    4.3250093    4.3250093    4.3250093   -5469.7725   -11650.403   -2016.3455   -2742.5693   -2732.0567    1248.0991    1873.3398    80.902353 
   54500    90.155976   -108.05183  0.081575022   -107.97025    1013.8729    4.3225413    4.3225413    4.3225413    1013.8729   -9579.0153    6478.9536    6141.6805   -1998.9534   -4704.1462    572.45575    80.763933 
   54600    288.79865   -108.22879   0.26131108   -107.96748   -2221.3982    4.3240845    4.3240845    4.3240845   -2221.3982   -8688.1923    2461.5636   -437.56573      858.155    -188.5545    -209.9482    80.850466 
   54700    148.85692    -108.1037   0.13468887   -107.96901   -1245.4935    4.3229793    4.3229793    4.3229793   -1245.4935   -8395.9757    758.96525      3900.53   -2098.9662    -923.6147    3895.8967    80.788484 
   54800    199.63843   -108.14954   0.18063704   -107.96891   -5172.5116    4.3240505    4.3240505    4.3240505   -5172.5116   -11461.879   -1012.2685   -3043.3874   -1183.6577   -3322.9896   -950.48056    80.848556 
   54900    252.16949   -108.19545   0.22816826   -107.96728     198.7541    4.3237305    4.3237305    4.3237305     198.7541   -6356.1232    661.52506    6290.8604    790.61245     1245.389    2546.7382    80.830607 
   55000    139.15581   -108.09455    0.1259111   -107.96864   -2015.9068    4.3225915    4.3225915    4.3225915   -2015.9068   -9536.8604    1830.6234    1658.5167    -1766.697    -2572.256    1308.6859    80.766744 
   55100    207.55767   -108.15624   0.18780254   -107.96844   -2093.4219    4.3251358    4.3251358    4.3251358   -2093.4219   -9778.1017   -2619.9075    6117.7436   -940.91404   -1789.2255    766.40761    80.909447 
   55200    221.47448   -108.16852   0.20039476   -107.96812    3708.4118    4.3210987    4.3210987    4.3210987    3708.4118   -4416.2198    11864.867    3676.5879    1251.6843   -336.44478   -619.32371    80.683097 
   55300    205.89058   -108.15565   0.18629412   -107.96936   -6299.9924    4.3257255    4.3257255    4.3257255   -6299.9924   -9795.8042   -8138.8191   -965.35373   -3244.0681   -1636.8709   -19.289675     80.94255 
   55400    168.38382   -108.12206   0.15235722    -107.9697    5771.5342    4.3222659    4.3222659    4.3222659    5771.5342   -7166.7703    16747.191     7734.182     -993.079   -1106.9744   -645.48658    80.748497 
   55500    270.58624   -108.21392   0.24483211   -107.96909    920.72498    4.3217594    4.3217594    4.3217594    920.72498   -3670.3276    2864.0233    3568.4792   -1056.6296    1374.3803    1651.5715    80.720114 
   55600     82.76051   -108.04574  0.074883449   -107.97086     2737.127    4.3260637    4.3260637    4.3260637     2737.127   -12371.455    12862.934    7719.9012   -3372.3397   -1194.9205    2121.9305    80.961532 
   55700     298.3999    -108.2383    0.2699985    -107.9683    1098.2202    4.3197927    4.3197927    4.3197927    1098.2202   -3217.1706    5429.8913    1081.9398    510.16072    -976.5464   -171.05413    80.609962 
   55800    177.30148   -108.12949    0.1604261   -107.96906    1682.4649    4.3259345    4.3259345    4.3259345    1682.4649   -8546.4274    9832.6271    3761.1951   -1062.7779    1204.5945    2637.9609     80.95428 
   55900    188.20809   -108.13947   0.17029464   -107.96918   -2548.4369    4.3225671    4.3225671    4.3225671   -2548.4369   -9747.3012    2045.2657    56.724858   -2199.0145   -2600.2168   -170.74153    80.765379 
   56000    215.63008   -108.16315   0.19510663   -107.96805    3527.4727    4.3220699    4.3220699    4.3220699    3527.4727   -4408.1341    9306.2197    5684.3324    1321.1513    329.62635     1911.608    80.737511 
   56100     185.7105   -108.13646   0.16803477   -107.96843   -2282.3941    4.3263283    4.3263283    4.3263283   -2282.3941   -10766.709    3741.8476    177.67889   -2720.1922    1177.2764   -289.65712    80.976389 
   56200    176.05334     -108.128   0.15929676   -107.96871   -1459.8509    4.3203332    4.3203332    4.3203332   -1459.8509   -6942.4985    1043.0925    1519.8533   -1280.2622   -3609.5314    1315.8252    80.640223 
   56300    262.78054   -108.20531   0.23776935   -107.96755   -3143.3285    4.3262588    4.3262588    4.3262588   -3143.3285   -8179.8127    1703.4275   -2953.6003   -385.32611    1937.4242   -1998.2531    80.972489 
   56400    170.09538   -108.12332   0.15390587   -107.96941   -2646.4456    4.3222721    4.3222721    4.3222721   -2646.4456   -9002.6774    2028.9333   -965.59265   -2792.4293   -1301.5792    2390.7736    80.748846 
   56500    181.45139   -108.13404   0.16418103   -107.96986   -2639.0018    4.3232978    4.3232978    4.3232978   -2639.0018   -8296.3347   -1575.4172    1954.7465   -2781.4313   -1655.1837    1333.9303    80.806341 
   56600    226.27035   -108.17337   0.20473417   -107.96864   -724.35003     4.325372     4.325372     4.325372   -724.35003   -8396.0918     8480.022   -2256.9802    1053.1227    2542.0177    1558.5759    80.922707 
   56700    155.84014   -108.11046   0.14100743   -107.96945    -1080.608    4.3207474    4.3207474    4.3207474    -1080.608   -7164.5503   -3795.4566    7718.1828   -4454.8679   -1414.7918    3658.5957     80.66342 
   56800    229.28237   -108.17587   0.20745951   -107.96841   -4252.7393     4.326685     4.326685     4.326685   -4252.7393   -8320.5286    4815.0657   -9252.7549    1419.9489   -368.74091   -229.55128     80.99642 
   56900    207.72476   -108.15626   0.18795373    -107.9683    3638.4843      4.32096      4.32096      4.32096    3638.4843    -5501.763    6262.6804    10154.535    289.67306    532.77546    2523.3589     80.67533 
   57000    182.64883   -108.13453    0.1652645   -107.96927   -1823.3924    4.3234868    4.3234868    4.3234868   -1823.3924   -6697.8557     449.8394    777.83896    -2962.738   -1779.7868    215.50476    80.816942 
   57100    171.56145   -108.12381   0.15523241   -107.96858    2972.6336    4.3257433    4.3257433    4.3257433    2972.6336   -10326.607    11977.959    7266.5485    2586.4255   -1427.9671    805.89373    80.943548 
   57200    264.10894   -108.20653   0.23897132   -107.96756    1902.7546    4.3193073    4.3193073    4.3193073    1902.7546   -1749.4708    351.37208    7106.3624   -2949.4056    2082.9996   -2558.0425     80.58279 
   57300    141.16265   -108.09661   0.12772693   -107.96888    100.71289     4.327161     4.327161     4.327161    100.71289   -11830.755    12710.141   -577.24756   -619.19371   -3441.7683    1186.9223    81.023155 
   57400    249.43549   -108.19369   0.22569448   -107.96799     1871.684    4.3214706    4.3214706    4.3214706     1871.684   -4825.4623   -475.95071    10916.465   -397.42528    768.04152   -1672.2896    80.703933 
   57500    186.55468   -108.13768    0.1687986   -107.96888     4337.937    4.3219895    4.3219895    4.3219895     4337.937   -6617.7079    14562.028    5069.4911   -926.73021    308.28365    2798.2481    80.733008 
   57600    149.12772    -108.1046    0.1349339   -107.96966   -367.46035    4.3266109    4.3266109    4.3266109   -367.46035    -10042.39   -4187.8257    13127.834   -1847.9913   -2749.0666    724.41983    80.992259 
   57700     266.8506   -108.20962   0.24145203   -107.96817    829.65463    4.3195414    4.3195414    4.3195414    829.65463   -5928.1195    9041.1404   -624.05698    1166.9623    2968.6632    1043.9163    80.595895 
   57800    168.76391    -108.1211   0.15270114    -107.9684     680.1853    4.3261591    4.3261591    4.3261591     680.1853   -8276.9189    724.89968    9592.5751   -1543.5168   -744.17511    863.77863     80.96689 
   57900    214.26482   -108.16244   0.19387131   -107.96857    -4002.918    4.3228789    4.3228789    4.3228789    -4002.918   -10887.502   -1990.6728    869.42062   -292.48297   -1188.5115    688.03247    80.782859 
   58000    183.91855   -108.13549   0.16641337   -107.96908    2941.9739    4.3218885    4.3218885    4.3218885    2941.9739   -6594.3733    7543.8434    7876.4517    2216.7796     954.9008    468.36614    80.727349 
   58100    199.12904   -108.14952   0.18017614   -107.96934   -4589.5642    4.3262797    4.3262797    4.3262797   -4589.5642    -10880.34   -7950.4443     5062.092   -2718.6617   -987.02067   -1095.5214    80.973661 
   58200    194.08088   -108.14467   0.17560846   -107.96906   -1966.8432    4.3209472    4.3209472    4.3209472   -1966.8432   -8100.5521    4487.8139   -2287.7913    1264.1623   -2635.1001    1042.3026    80.674609 
   58300    228.01057   -108.17439   0.20630876   -107.96808    -1903.508    4.3254187    4.3254187    4.3254187    -1903.508   -7578.4274   -4979.0421    6846.9456   -402.90924    3170.8667    -2407.393    80.925325 
   58400    158.79607   -108.11264   0.14368202   -107.96896   -556.05257    4.3227403    4.3227403    4.3227403   -556.05257   -9491.1124    779.14304    7043.8117   -2777.5807   -3136.0701    3782.7636    80.775089 
   58500    222.80176    -108.1705   0.20159571    -107.9689   -2288.2314    4.3234008    4.3234008    4.3234008   -2288.2314   -7915.3492   -4316.8147    5367.4696    1122.6253    428.14716    1119.4111     80.81212 
   58600    165.93023   -108.11955   0.15013716   -107.96941    2933.5121    4.3240203    4.3240203    4.3240203    2933.5121   -7626.3315    4985.7315    11441.136    -1865.391    2752.1537    2153.0968    80.846864 
   58700    256.61855   -108.20118   0.23219386   -107.96899   -3585.8694       4.3219       4.3219       4.3219   -3585.8694   -7313.6941   -4323.1312      879.217   -1376.7996   -2787.9852    1237.7736    80.727989 
   58800    138.73021    -108.0948   0.12552601   -107.96927    4195.6946    4.3253986    4.3253986    4.3253986    4195.6946   -8634.0177    3185.3571    18035.744    974.14494    3496.3132    457.32802    80.924199 
   58900    246.57792   -108.19078   0.22310888   -107.96767     242.5034    4.3212751    4.3212751    4.3212751     242.5034   -5333.5232    1637.7078    4423.3256   -2047.3094    654.18952    1641.9931    80.692979 
   59000    178.01238   -108.12916   0.16106934   -107.96809    1292.5474    4.3247469    4.3247469    4.3247469    1292.5474   -9912.1769    -1202.547    14992.366    522.89076    -1542.673   -578.04916    80.887625 
   59100    178.93378   -108.12998   0.16190305   -107.96807    3055.7615    4.3227998    4.3227998    4.3227998    3055.7615   -5888.1767    10522.226    4533.2355    274.50963     2635.087    391.43101    80.778422 
   59200    265.51457   -108.20783   0.24024316   -107.96759     -1126.97    4.3224444    4.3224444    4.3224444     -1126.97   -9144.7452   -3073.3384    8837.1735   -405.40452    -67.74434   -2098.2335    80.758501 
   59300     121.4836   -108.07864   0.10992091   -107.96872    4429.7239    4.3255438    4.3255438    4.3255438    4429.7239   -6989.1701    9367.8824    10910.459   -368.20788    -827.2142    1709.7998    80.932347 
   59400    265.37753   -108.20779   0.24011917   -107.96767   -2545.8321    4.3207841    4.3207841    4.3207841   -2545.8321   -8524.0574   -523.29965    1409.8608    459.55639    3325.7999    227.21598    80.665474 
   59500    151.03187   -108.10478   0.13665681   -107.96812    4272.9152    4.3252582    4.3252582    4.3252582    4272.9152   -6892.5912    7934.0287    11777.308   -1919.2294    324.02013    1675.3893    80.916318 
   59600    245.79672   -108.19048   0.22240204   -107.96808   -4129.8081    4.3228939    4.3228939    4.3228939   -4129.8081   -9525.0762    3454.8912   -6319.2393    296.33174   -825.39394    1159.6207    80.783698 
   59700    136.31362   -108.09255   0.12333943   -107.96921    2923.8296    4.3220673    4.3220673    4.3220673    2923.8296   -8613.3358     5318.171    12066.654   -68.315919    5039.5856   -757.31261    80.737368 
   59800    255.73475   -108.20004   0.23139417   -107.96865   -4759.2082    4.3265525    4.3265525    4.3265525   -4759.2082   -10499.366   -303.88615   -3474.3718   -1952.8137   -2196.2583    558.80056    80.988982 
   59900    162.95866   -108.11688   0.14744842   -107.96943   -822.01303    4.3199358    4.3199358    4.3199358   -822.01303   -8442.1472    1901.6839    4074.4242    2536.5598    793.29901    276.24383    80.617972 
   60000    210.38994   -108.15891   0.19036523   -107.96855   -3593.4279    4.3266835    4.3266835    4.3266835   -3593.4279   -11180.522    3275.7452   -2875.5066    -1750.738    4305.6714    529.81467    80.996339 
   60100    217.91698   -108.16499   0.19717586   -107.96781   -745.86571    4.3224538    4.3224538    4.3224538   -745.86571   -7838.3919   -356.65914    5957.4539    722.86842   -5665.6859    -1708.562    80.759028 
   60200    135.00336   -108.09094   0.12215388   -107.96878    25.029457    4.3224603    4.3224603    4.3224603    25.029457   -9986.8361    6244.6191    3817.3054    418.71549    4691.2128   -90.480707    80.759389 
   60300    255.38099   -108.19918   0.23107409    -107.9681   -4310.4312    4.3262801    4.3262801    4.3262801   -4310.4312   -10793.593   -7193.4258    5055.7252   -458.33925   -1074.0383   -957.33273    80.973687 
   60400    191.03757   -108.14188    0.1728548   -107.96903     1761.845    4.3197578    4.3197578    4.3197578     1761.845   -6397.1299    5194.7228    6487.9421    19.978064   -1341.7588     1659.949    80.608007 
   60500    196.85061   -108.14747   0.17811457   -107.96936   -4859.7927    4.3269051    4.3269051    4.3269051   -4859.7927   -12953.881   -5495.9363    3870.4397    174.50876    3943.3927    -739.2717    81.008784 
   60600    199.44957   -108.14856   0.18046617   -107.96809    4063.4262    4.3216286    4.3216286    4.3216286    4063.4262   -7034.0905    5118.2413    14106.128   -520.42085   -921.44281    183.96504    80.712784 
   60700    202.50169   -108.15139   0.18322779   -107.96816      567.163    4.3227187    4.3227187    4.3227187      567.163   -7767.6982   -162.65235    9631.8396   -994.99178   -41.128419     51.56194    80.773874 
   60800     197.3861   -108.14755   0.17859909   -107.96895   -2763.9159     4.325606     4.325606     4.325606   -2763.9159   -11729.788   -2047.3414    5485.3817    1376.5834    3342.7092    457.89445    80.935838 
   60900    218.98668    -108.1669   0.19814375   -107.96876    3908.6369    4.3206291    4.3206291    4.3206291    3908.6369   -4837.3815    3227.6651    13335.627   -1912.3973    208.31715    459.35396    80.656796 
   61000    215.29828   -108.16421   0.19480641    -107.9694    -3978.182     4.326008     4.326008     4.326008    -3978.182   -10906.383   -6084.0349    5055.8724    1953.9789   -581.66071   -517.89566    80.958408 
   61100    149.04433   -108.10435   0.13485845   -107.96949    2390.4559    4.3215398    4.3215398    4.3215398    2390.4559   -8488.4347    8804.7511    6855.0512   -228.27228    6129.8997    39.898055     80.70781 
   61200    259.34697   -108.20238   0.23466259   -107.96772   -120.59758    4.3240148    4.3240148    4.3240148   -120.59758   -7630.2286   -2189.3645    9457.8003   -542.30224   -3493.9301   -1424.0541    80.846554 
   61300    162.60825   -108.11578   0.14713137   -107.96865   -1931.0757    4.3243835    4.3243835    4.3243835   -1931.0757   -10065.341    4909.7658   -637.65152    1684.7961     3892.289    1798.4264    80.867236 
   61400    188.30981   -108.13879   0.17038668    -107.9684    883.24234    4.3212259    4.3212259    4.3212259    883.24234   -9160.7799     1913.895     9896.612   -1495.4615    4489.8571   -877.49505     80.69022 
   61500    265.33942   -108.20785   0.24008469   -107.96777   -3804.7845    4.3267404    4.3267404    4.3267404   -3804.7845   -9399.7962   -2217.8229    203.26569    997.48439   -1892.6731    413.82951    80.999534 
   61600    112.62287   -108.07147   0.10190354   -107.96957    1307.2981    4.3204811    4.3204811    4.3204811    1307.2981   -9487.0503    8624.5662    4784.3783    241.78952    6319.1595   -157.64389    80.648509 
   61700    267.64311   -108.21002   0.24216911   -107.96785   -4112.1033    4.3253882    4.3253882    4.3253882   -4112.1033   -11420.358     247.1312   -1163.0831   -466.59844    1475.1109     624.4554    80.923613 
   61800    162.54957   -108.11526   0.14707827   -107.96818    2880.8995    4.3235344    4.3235344    4.3235344    2880.8995   -6925.9488    6761.6603     8806.987    500.02706   -381.87924    954.02447    80.819609 
   61900    205.47586   -108.15472   0.18591888    -107.9688   -4155.1858    4.3215897    4.3215897    4.3215897   -4155.1858    -12244.85    421.28007   -641.98747    253.90013    6042.3687    707.45034    80.710604 
   62000    213.90991   -108.16221   0.19355018   -107.96865     1009.637      4.32602      4.32602      4.32602     1009.637   -7773.8454    544.06042    10258.696   -59.811444   -641.60637     301.8018    80.959081 
   62100    222.29149   -108.16989   0.20113401   -107.96875   -476.92723    4.3216354    4.3216354    4.3216354   -476.92723   -8145.8332    2300.1356    4414.9159    1356.9114    1680.7345    -1446.829    80.713167 
   62200    159.88171   -108.11408   0.14466433   -107.96942   -627.53487    4.3237912    4.3237912    4.3237912   -627.53487   -10868.293    3503.8751    5481.8136    624.77662    4543.7774    1553.7036    80.834011 
   62300    217.41693   -108.16454   0.19672341   -107.96782    3390.8737    4.3243843    4.3243843    4.3243843    3390.8737   -7284.9363    4203.7442    13253.813      966.273   -728.97229   -976.70487    80.867284 
   62400    199.91751   -108.14935   0.18088957   -107.96846   -51.116372    4.3213911    4.3213911    4.3213911   -51.116372   -8344.3653    815.36072    7375.6555    733.67906     2593.861    1406.5299    80.699477 
   62500    195.77625   -108.14612   0.17714246   -107.96898   -2681.3879    4.3253459    4.3253459    4.3253459   -2681.3879   -12506.345    1462.4671    2999.7146    783.32611    4583.1405   -1794.9778    80.921238 
   62600    234.79309   -108.18096   0.21244572   -107.96852    2526.7109    4.3227876    4.3227876    4.3227876    2526.7109   -3146.5111   -2151.6183    12878.262   -429.94615    -1398.835   -82.591265    80.777738 
   62700    207.38656   -108.15767   0.18764771   -107.97002   -4630.3655    4.3232445    4.3232445    4.3232445   -4630.3655   -14206.814     966.7721   -651.05452    1359.3582    3752.4307    661.19946    80.803355 
   62800    118.70138    -108.0779    0.1074035   -107.97049    3040.9299    4.3236666    4.3236666    4.3236666    3040.9299   -5242.5274    2651.8715    11713.446    156.93215    2533.8109    2294.0752    80.827027 
   62900    308.22386   -108.24706   0.27888743   -107.96817   -4118.2319    4.3237799    4.3237799    4.3237799   -4118.2319   -9947.0983   -2302.4578   -105.13968     -48.5461   -2173.7566    653.59545     80.83338 
   63000    100.12791   -108.06037   0.09059784   -107.96977   -483.35089    4.3232275    4.3232275    4.3232275   -483.35089   -9477.8222    2051.1243    5976.6453    2553.9139    5771.8538    338.12095    80.802404 
   63100    259.53286   -108.20319   0.23483079   -107.96836   -3986.6845    4.3243044    4.3243044    4.3243044   -3986.6845    -8032.442   -4222.3864    294.77486   -1861.6357    244.80404    2156.4376    80.862802 
   63200    204.92292   -108.15397   0.18541857   -107.96855    1623.6178    4.3225036    4.3225036    4.3225036    1623.6178    -7736.054    1695.2142    10911.693    2673.3961    907.55848   -1298.7286    80.761821 
   63300    128.19283   -108.08555   0.11599157   -107.96955   -1927.1288    4.3242096    4.3242096    4.3242096   -1927.1288   -9564.9377    2154.4149    1629.1365    42.080007    4783.2554    2621.1506    80.857479 
   63400    276.96992   -108.21812   0.25060821   -107.96752   -1778.5861    4.3242061    4.3242061    4.3242061   -1778.5861   -8465.2474    153.13424    2976.3548    644.80942    156.82254    -2601.854    80.857287 
   63500    145.42524   -108.09997   0.13158382   -107.96839    3899.5593    4.3220824    4.3220824    4.3220824    3899.5593   -5063.9044    1008.6781    15753.904    1898.9544    1991.8094   -540.68632     80.73821 
   63600    231.72198   -108.17841   0.20966692   -107.96875    -7003.389    4.3253223    4.3253223    4.3253223    -7003.389     -12887.1     -2667.78   -5455.2869   -1084.0724    5128.5868   -149.18838    80.919915 
   63700    176.63749    -108.1282   0.15982531   -107.96837    7428.4992    4.3216684    4.3216684    4.3216684    7428.4992   -2735.8409     2913.236    22108.103    860.59995   -1446.5055    897.94056    80.715014 
   63800    248.83249   -108.19413   0.22514887   -107.96898   -4299.0528    4.3242639    4.3242639    4.3242639   -4299.0528    -10312.69   -1549.1853   -1035.2832    -568.4697    2912.1033    50.351834    80.860528 
   63900    123.95479    -108.0822    0.1121569   -107.97004    2978.5751     4.324123     4.324123     4.324123    2978.5751   -8949.9509    7301.5314    10584.145   -14.369076    2963.5154    741.20834    80.852625 
   64000    277.69229   -108.21929   0.25126182   -107.96803    1401.7253    4.3213659    4.3213659    4.3213659    1401.7253   -3851.4946   -2576.6299    10633.301    342.34136   -1684.5441    138.28007    80.698066 
   64100    152.82325   -108.10751   0.13827768   -107.96924   -1659.9388    4.3255063    4.3255063    4.3255063   -1659.9388   -10252.417    1282.6408    3989.9603     80.29209    4716.9265   -255.66356    80.930242 
   64200    208.10996   -108.15653   0.18830227   -107.96823   -568.68369    4.3226789    4.3226789    4.3226789   -568.68369   -7154.9371   -522.67617    5971.5622    166.60186    2069.5444    1894.7767    80.771643 
   64300    242.98721   -108.18738   0.21985994   -107.96752    537.76603    4.3232119    4.3232119    4.3232119    537.76603    -4206.142   -604.60804    6424.0481   -56.078891   -613.17937   -2265.8145    80.801527 
   64400    127.91408   -108.08503   0.11573934   -107.96929   -1638.7602    4.3250397    4.3250397    4.3250397   -1638.7602    -11866.94    4992.4568    1958.2025    322.78026    5415.5381   -872.65466    80.904053 
   64500    236.63607   -108.18235   0.21411329   -107.96824   -482.83683    4.3216045    4.3216045    4.3216045   -482.83683   -3913.4346   -1183.6026    3648.5268    374.15215    1264.3138   -722.12515    80.711433 
   64600    208.13008   -108.15654   0.18832047   -107.96822   -832.71331    4.3252046    4.3252046    4.3252046   -832.71331   -8449.7662    1943.5496    4008.0767    101.35152     176.5886   -1697.1593    80.913308 
   64700    180.21219   -108.13213   0.16305977   -107.96907   -4087.8676    4.3233667    4.3233667    4.3233667   -4087.8676   -7502.9832   -3846.4052   -914.21447    991.85226     5694.189    1013.7359    80.810209 
   64800    222.19238   -108.16918   0.20104433   -107.96813    1241.4129    4.3228756    4.3228756    4.3228756    1241.4129    -5701.264    3973.9011    5451.6015   -1838.9696    -1716.708    522.41764     80.78267 
   64900    187.38644   -108.13807   0.16955119   -107.96852   -414.08452    4.3247672    4.3247672    4.3247672   -414.08452   -6031.0821   -499.52387    5288.3524    760.69674    1303.7852   -687.64291    80.888766 
   65000    167.43285   -108.12056   0.15149677   -107.96907   -140.08618    4.3220489    4.3220489    4.3220489   -140.08618   -7835.7188    4002.6847    3412.7755      -1341.6    4002.3572    1297.6334    80.736333 
   65100    246.87149   -108.19108   0.22337451    -107.9677    457.39224    4.3245735    4.3245735    4.3245735    457.39224   -5734.5438    1745.1494    5361.5711   -322.91166   -1404.8761    1488.3718    80.877896 
   65200    190.56207   -108.14093   0.17242456    -107.9685   -452.90459    4.3237293    4.3237293    4.3237293   -452.90459    -6541.267   -3802.2635    8984.8168    1306.6045    3526.4866    144.26587    80.830541 
   65300     200.8266   -108.15067   0.18171213   -107.96896   -30.795635    4.3219762    4.3219762    4.3219762   -30.795635    -8613.751    6649.9127    1871.4515   -1533.7649    3587.6601   -364.35274    80.732259 
   65400    204.21934   -108.15323   0.18478195   -107.96845    2901.3755    4.3251404    4.3251404    4.3251404    2901.3755   -4599.9556   -2921.1949    16225.277     1719.466   -1750.8028   -795.21672    80.909707 
   65500    204.38242   -108.15386   0.18492951   -107.96893   -1342.7501     4.322587     4.322587     4.322587   -1342.7501   -8536.3184    3854.6417    653.42658   -1025.6324    4686.5973   -1415.9506    80.766491 
   65600     170.8766   -108.12348   0.15461274   -107.96886    1861.8368    4.3231817    4.3231817    4.3231817    1861.8368   -7513.9371    1859.9422    11239.505    1104.3143    1769.9592    1058.8366    80.799836 
   65700    240.06217   -108.18522   0.21721329   -107.96801   -649.77118    4.3247351    4.3247351    4.3247351   -649.77118   -6636.3532   -3225.5075    7912.5472    51.362861   -1071.9162   -612.63613    80.886964 
   65800    183.01031   -108.13439   0.16559158    -107.9688   -1622.4397    4.3221818    4.3221818    4.3221818   -1622.4397   -9621.2124       850.09    3903.8033    918.75376    5027.0301    -635.0859    80.743781 
   65900    184.83496    -108.1358   0.16724255   -107.96856    223.45524    4.3246965    4.3246965    4.3246965    223.45524    -8126.387    793.54691    8003.2058   -302.15553   -294.30995     1308.378      80.8848 
   66000    256.53833   -108.19985   0.23212127   -107.96773   -3200.6963    4.3238225    4.3238225    4.3238225   -3200.6963   -8058.3198   -596.06704   -947.70198   -601.11672     750.5943    524.27717     80.83577 
   66100    97.888387   -108.05766   0.08857147   -107.96909    2120.3173    4.3225127    4.3225127    4.3225127    2120.3173   -8522.3853    3951.5124    10931.825    205.16236    5458.0733    633.41311    80.762327 
   66200    285.69847   -108.22586   0.25850598   -107.96735   -6104.5365    4.3255483    4.3255483    4.3255483   -6104.5365   -8959.0229   -4668.7075    -4685.879   -2343.6355   -602.86802     1480.921    80.932601 
   66300    152.30115    -108.1064   0.13780528   -107.96859    2143.1799    4.3222463    4.3222463    4.3222463    2143.1799   -5921.5537    -1161.912    13513.005    1998.3347    2294.9911   -2470.5792    80.747398 
   66400    218.96223   -108.16727   0.19812163   -107.96914   -5375.4055    4.3247335    4.3247335    4.3247335   -5375.4055   -10686.027    876.69255   -6316.8816   -1212.5497    3971.3056      -702.27    80.886875 
   66500    210.03086   -108.15927   0.19004034   -107.96923    1320.5589    4.3227991    4.3227991    4.3227991    1320.5589   -6972.0195   -1221.4617    12155.158    1225.5787   -2737.9868    662.98349    80.778382 
   66600     175.9727   -108.12879    0.1592238   -107.96956    81.763676    4.3236059    4.3236059    4.3236059    81.763676     -7955.45    3819.9518    4380.7892    463.40851    3617.5711   -885.23909    80.823619 
   66700    199.12857   -108.14899   0.18017571   -107.96881   -2689.7939    4.3243643    4.3243643    4.3243643   -2689.7939   -10923.711   -1099.4646     3953.794   -528.34846    2106.5539    439.00837     80.86616 
   66800    218.30814   -108.16498    0.1975298   -107.96745    1036.8302    4.3225852    4.3225852    4.3225852    1036.8302    -3392.416   -745.47402    7248.3807    1230.1339   -2105.8947    673.51555    80.766393 
   66900    204.08981   -108.15249   0.18466475   -107.96783    -2915.757    4.3250522    4.3250522    4.3250522    -2915.757   -12081.354     33.85275    3300.2302  -0.85552988    4092.7365   -696.03272    80.904755 
   67000    177.05957    -108.1286   0.16020722   -107.96839    947.53418    4.3221275    4.3221275    4.3221275    947.53418    -5605.083    370.90985    8076.7756   -224.47286    774.38482    2723.6315     80.74074 
   67100    241.71051   -108.18716   0.21870475   -107.96846   -953.05211    4.3242239    4.3242239    4.3242239   -953.05211   -9487.3149    1310.3433    5317.8153   -45.384466   -1869.5016   -55.119798    80.858284 
   67200    152.45078    -108.1073   0.13794067   -107.96936   -159.84492    4.3241619    4.3241619    4.3241619   -159.84492   -9463.9597    2529.8558    6454.5692   -500.99912    5311.3195   -1420.5271    80.854808 
   67300    238.39619   -108.18396   0.21570588   -107.96826    -2155.463    4.3220927    4.3220927    4.3220927    -2155.463   -7572.9474   -1250.1911    2356.7494    -1563.125   -2149.4864    1525.7855     80.73879 
   67400    183.00314   -108.13348   0.16558509   -107.96789    1027.9948    4.3257179    4.3257179    4.3257179    1027.9948   -8361.7457    1297.2367    10148.494      1021.31   -545.20163   -3247.6914    80.942123 
   67500    199.76189   -108.14893   0.18074876   -107.96818    -2172.341    4.3216239    4.3216239    4.3216239    -2172.341   -8503.8428    -695.1425    2681.9623   -573.78618    4203.8717    1149.4719    80.712518 
   67600    193.22334   -108.14295   0.17483254   -107.96812    21.367737     4.324849     4.324849     4.324849    21.367737   -7295.0042    1528.6463    5830.4611    1199.5718   -3786.3574   -1395.8198    80.893353 
   67700    220.45314   -108.16752   0.19947064   -107.96805   -1790.8337    4.3238296    4.3238296    4.3238296   -1790.8337   -9681.3444   -649.04106    4957.8844    1228.4652    3196.5269   -652.85552    80.836168 
   67800    171.62089   -108.12405   0.15528619   -107.96876   -376.25202    4.3221367    4.3221367    4.3221367   -376.25202   -6342.0233    -857.4296    6070.6969   -46.503865    2128.5756   -1332.5664    80.741257 
   67900    229.32129    -108.1757   0.20749472   -107.96821   -1949.4333    4.3255599    4.3255599    4.3255599   -1949.4333   -8841.7329   -1492.8441    4486.2772    807.95972   -2290.3846   -166.48534    80.933253 
   68000    194.30417   -108.14444   0.17581049   -107.96863    231.89052    4.3219543    4.3219543    4.3219543    231.89052   -5648.8666   -4028.8715     10373.41    893.77631     2229.696     42.03817    80.731032 
   68100    193.54975   -108.14392   0.17512788    -107.9688   -1301.1325    4.3246764    4.3246764    4.3246764   -1301.1325   -5478.2261    2491.1431   -916.31449   -68.512667    2789.2723   -1903.2483    80.883671 
   68200     219.0203   -108.16716   0.19817417   -107.96899    156.13841     4.323342     4.323342     4.323342    156.13841   -8267.5301   -5005.9112    13741.856    59.522718    -2039.634    575.79119    80.808822 
   68300    150.01319   -108.10546   0.13573508   -107.96972    3009.0613    4.3223324    4.3223324    4.3223324    3009.0613   -3144.4978    2334.6608    9837.0208    248.76477    3826.2015   -4224.6255    80.752224 
   68400    247.19537   -108.19263   0.22366756   -107.96896   -4940.1241     4.325598     4.325598     4.325598   -4940.1241   -9839.6428    -6737.733    1757.0036   -1616.9631   -1018.4231    3519.1489    80.935391 
   68500     172.7584   -108.12516   0.15631543   -107.96884    3350.9361    4.3214323    4.3214323    4.3214323    3350.9361   -2730.9336    2082.2893    10701.453    1333.6884    -2204.663     -3633.64    80.701786 
   68600    239.20616   -108.18504   0.21643876    -107.9686   -4570.7895    4.3255666    4.3255666    4.3255666   -4570.7895   -6642.0834   -6700.9676   -369.31749   -729.31594     3591.444    1194.6107    80.933629 
   68700     141.8312   -108.09715   0.12833185   -107.96882    3059.3993    4.3223835    4.3223835    4.3223835    3059.3993   -4202.0501     1716.158     11664.09    943.40398   -1758.5695     -1769.07    80.755088 
   68800    245.31352    -108.1898   0.22196483   -107.96784   -1789.4107    4.3234629    4.3234629    4.3234629   -1789.4107   -5591.2977   -714.85532    937.92087    1513.9392    132.74411   -1109.2263    80.815602 
   68900    163.02086   -108.11571    0.1475047   -107.96821    97.310924    4.3249525    4.3249525    4.3249525    97.310924   -3711.1703    -3735.497       7738.6    12.898016    2848.7132   -8.3430161    80.899165 
   69000    228.29243   -108.17402   0.20656379   -107.96746    -945.3275    4.3219602    4.3219602    4.3219602    -945.3275   -7772.3713     4962.183   -25.794178    790.44143   -1735.5719    -479.9394    80.731362 
   69100    204.33107   -108.15262   0.18488304   -107.96774     780.5904    4.3247403    4.3247403    4.3247403     780.5904   -1853.3692   -7474.3117    11669.452    547.47189    931.96502    993.80283    80.887256 
   69200    155.17134   -108.10916   0.14040229   -107.96876    1915.8271    4.3227133    4.3227133    4.3227133    1915.8271    -6660.723    9182.5937    3225.6105   -360.60266    3033.2676   -2863.3371    80.773574 
   69300    256.10769   -108.20005   0.23173162   -107.96832   -1758.0515    4.3235754    4.3235754    4.3235754   -1758.0515   -4369.6023   -3613.1682    2708.6158   -230.42316   -2631.4295    3201.6086    80.821911 
   69400    152.11222   -108.10633   0.13763434   -107.96869    3936.8107    4.3241534    4.3241534    4.3241534    3936.8107   -2758.1322    6024.4175    8544.1467    889.06985    1610.5006   -3068.4163    80.854328 
   69500    243.18595   -108.18804   0.22003975     -107.968   -3268.4499    4.3225961    4.3225961    4.3225961   -3268.4499   -8190.1864    1331.6653   -2946.8285   -2863.2274     93.80069    2837.1321    80.767005 
   69600    164.76764    -108.1176   0.14908523   -107.96851    4451.2199    4.3243183    4.3243183    4.3243183    4451.2199   -2910.5098    646.41427    15617.755    1438.6737   -2044.3471   -1437.2526    80.863579 
   69700    226.87577    -108.1739   0.20528196   -107.96861   -144.78126    4.3225025    4.3225025    4.3225025   -144.78126   -5876.2847    5568.5117    -126.5708   -791.75651    2718.2537   -999.23125    80.761755 
   69800    188.52149   -108.13941    0.1705782   -107.96883   -337.69643    4.3245138    4.3245138    4.3245138   -337.69643   -5401.0612   -1668.0632    6056.0351    438.76205    716.43946   -403.22831    80.874549 
   69900    206.45186   -108.15509   0.18680198   -107.96829    2751.0915    4.3230136    4.3230136    4.3230136    2751.0915   -4161.9701    7517.7825    4897.4621    1646.7895   -1767.0416   -55.235133    80.790406 
   70000    200.65416   -108.15009    0.1815561   -107.96853   -267.86444    4.3226435    4.3226435    4.3226435   -267.86444   -5877.8644    -2104.504     7178.775    -151.6786    3151.9204   -537.60296     80.76966 
   70100     178.1183   -108.12965   0.16116518   -107.96848    -87.24994    4.3253211    4.3253211    4.3253211    -87.24994    -8191.088    3175.7756    4753.5626    1314.9405   -747.45115   -227.00428    80.919849 
   70200     244.8351   -108.18928   0.22153194   -107.96775   -300.61025     4.321737     4.321737     4.321737   -300.61025    -3891.016   -1515.1072    4504.2924     -95.0443   -486.75219    1308.5805    80.718858 
   70300    173.69687   -108.12591   0.15716458   -107.96875   -1727.5379    4.3247661    4.3247661    4.3247661   -1727.5379   -9528.8156    1661.5413    2684.6608     881.5167    2748.4305   -2216.8259    80.888705 
   70400    196.55694   -108.14655   0.17784885    -107.9687   -834.29037    4.3238427    4.3238427    4.3238427   -834.29037   -5853.3286   -1359.7018    4710.1593    -902.3983   -2189.2235    4393.9688    80.836899 
   70500    206.81838   -108.15524   0.18713362   -107.96811    104.47254    4.3221599    4.3221599    4.3221599    104.47254   -5969.1455   -762.43694    7045.0001    1942.6111   -114.77096   -1617.3733    80.742556 
   70600    173.04146   -108.12504   0.15657155   -107.96847   -3025.5537    4.3258096    4.3258096    4.3258096   -3025.5537   -9225.7392   -2994.6893    3143.7674   -1168.6583    2133.2908    683.33869    80.947271 
   70700    245.70899   -108.19001   0.22232266   -107.96769   -2338.8014    4.3224067    4.3224067    4.3224067   -2338.8014   -6134.5966   -2634.5355    1752.7279    504.11456   -1436.7797    935.85034    80.756385 
   70800    173.63494     -108.126   0.15710855   -107.96889     821.8524    4.3234015    4.3234015    4.3234015     821.8524   -8328.5197   -525.26624    11319.343    1814.7242    2116.7376   -2276.5019     80.81216 
   70900    199.97622   -108.15029   0.18094268   -107.96935   -2638.2935    4.3246355    4.3246355    4.3246355   -2638.2935   -9096.0704   -2784.3935    3965.5834   -1244.8746    1563.7607    1093.3436    80.881373 
   71000    212.70289   -108.16122   0.19245805   -107.96876    954.01799    4.3223304    4.3223304    4.3223304    954.01799   -7020.3739    104.20062    9778.2273    3697.3182     -2773.57   -502.34327     80.75211 
   71100    179.87305   -108.13122   0.16275291   -107.96847   -163.82757    4.3244646    4.3244646    4.3244646   -163.82757   -7762.4833   -2950.9887    10221.989    448.61588    2437.5611   -333.73507    80.871786 
   71200    237.72701   -108.18333   0.21510039   -107.96823   -3682.7271    4.3236138    4.3236138    4.3236138   -3682.7271    -7789.267   -3485.4885    226.57412    502.00918    40.124206   -825.26021    80.824063 
   71300    143.58631   -108.09842   0.12991991    -107.9685    4937.2082    4.3225652    4.3225652    4.3225652    4937.2082   -7281.9361   -190.92821    22284.489    2612.9505   -1550.6647    2769.7643    80.765272 
   71400    263.56877   -108.20681   0.23848257   -107.96833   -5695.9291    4.3249581    4.3249581    4.3249581   -5695.9291   -9327.0419    -4622.728   -3138.0174   -1301.8001    1236.9832   -1355.5877    80.899479 
   71500    141.81186   -108.09756   0.12831436   -107.96925     2710.118    4.3228398    4.3228398    4.3228398     2710.118   -7147.7536    369.54111    14908.567    1264.2095   -388.57794     1267.097    80.780666 
   71600    245.23907   -108.18985   0.22189747   -107.96796   -2036.5235     4.323332     4.323332     4.323332   -2036.5235   -8916.1503    115.82333    2690.7564    1013.6393   -2132.3246    66.092548    80.808263 
   71700    181.37106   -108.13241   0.16410834    -107.9683     -1440.64    4.3247185    4.3247185    4.3247185     -1440.64    -6457.048   -5517.0757    7652.2038   -831.95019    2961.4293   -4169.2622     80.88603 
   71800    171.65623   -108.12334   0.15531816   -107.96803    346.33742    4.3224818    4.3224818    4.3224818    346.33742   -7728.2625    2364.6295    6402.6452    1742.0954   -1853.3345    2041.5417    80.760597 
   71900    263.79232     -108.206   0.23868484   -107.96731    -4833.389    4.3247467    4.3247467    4.3247467    -4833.389   -8793.2759   -5301.5975    -405.2935   -356.82228   -1409.0157   -3360.9351    80.887615 
   72000     126.9683    -108.0835   0.11488359   -107.96861    1737.7748    4.3234153    4.3234153    4.3234153    1737.7748   -5790.6973    4009.1412    6994.8804    975.90744    2114.2338   -1270.0656    80.812933 
   72100    261.34543   -108.20482   0.23647084   -107.96834   -5456.9073      4.32302      4.32302      4.32302   -5456.9073   -10663.294   -1916.7098   -3790.7181    1104.3009   -4390.0883   -477.53674    80.790766 
   72200     141.9867   -108.09717   0.12847255    -107.9687    2684.5673    4.3246544    4.3246544    4.3246544    2684.5673   -5718.4373    3408.5753    10363.564    1470.6485    1153.8084    581.42716    80.882436 
   72300     249.2055   -108.19351   0.22548638   -107.96803   -5251.2798    4.3232065    4.3232065    4.3232065   -5251.2798   -6288.9514   -3570.3185   -5894.5695    392.03725    14.819378   -1272.0149    80.801226 
   72400    161.52613   -108.11448   0.14615224   -107.96833    1218.4325    4.3235196    4.3235196    4.3235196    1218.4325   -7729.7944    3293.7321    8091.3597    728.93047   -2645.4197    3866.1567    80.818781 
   72500    215.82042   -108.16309   0.19527885   -107.96781   -625.35733    4.3241596    4.3241596    4.3241596   -625.35733   -3932.7246    2283.6185   -226.96594    915.14304    442.28864   -2302.9892    80.854679 
   72600    208.51359   -108.15715   0.18866748   -107.96848   -1287.1573     4.322387     4.322387     4.322387   -1287.1573   -7419.4864    -1393.849    4951.8635   -1582.1047   -95.876814   -104.83956    80.755284 
   72700    157.62357   -108.11126   0.14262111   -107.96864    2205.8375    4.3247571    4.3247571    4.3247571    2205.8375   -8000.9187    8602.6163     6015.815    2860.0599   -1716.4516    1675.6994    80.888197 
   72800    295.56591   -108.23541   0.26743424   -107.96797   -3974.6992    4.3231533    4.3231533    4.3231533   -3974.6992   -3836.3449    -7044.861   -1042.8918   -1823.3557    2260.4729   -4148.3298    80.798243 
   72900    100.39882   -108.06041   0.09084296   -107.96957     5446.139    4.3229787    4.3229787    4.3229787     5446.139   -6029.5361    10935.593    11432.361     810.3563   -1772.2307    2614.9688    80.788451 
   73000    268.78679   -108.21204   0.24320394   -107.96884   -2901.6074    4.3239481    4.3239481    4.3239481   -2901.6074   -5684.0977   -3050.8436    30.119091    708.08993   -2584.4088   -3410.5055    80.842813 
   73100    142.05745   -108.09782   0.12853657   -107.96929    5205.6649    4.3230015    4.3230015    4.3230015    5205.6649    -2302.123    4777.3626    13141.755    -1113.107    1183.6903    1819.9968    80.789733 
   73200    238.30523    -108.1844   0.21562358   -107.96878   -3500.1991    4.3239478    4.3239478    4.3239478   -3500.1991   -8314.8488    1053.5345   -3239.2831    1849.4665   -2894.0816   -641.13231    80.842796 
   73300    196.54026    -108.1463   0.17783376   -107.96846    1999.8177    4.3233467    4.3233467    4.3233467    1999.8177   -3671.7157    -361.0352    10032.204    530.49943   -407.27117    3621.3846    80.809086 
   73400     195.1605   -108.14468   0.17658532    -107.9681     466.0998    4.3235982    4.3235982    4.3235982     466.0998   -5387.2783    3899.7503    2885.8274    441.87543    461.21539   -2810.1753    80.823188 
   73500    196.21759   -108.14612    0.1775418   -107.96858    -1585.667    4.3232362    4.3232362    4.3232362    -1585.667   -6649.8297   -1764.3813    3657.2099   -308.68314   -2949.8861    1559.4168     80.80289 
   73600    186.48912     -108.137   0.16873928   -107.96826    1749.4602    4.3239135    4.3239135    4.3239135    1749.4602   -3715.5833    3495.1366    5468.8274    763.63161   -189.21093   -718.63525    80.840874 
   73700    249.75182   -108.19447    0.2259807   -107.96849   -3917.8179    4.3234167    4.3234167    4.3234167   -3917.8179   -5407.7296   -2285.6497   -4060.0744   -1174.4739    1096.0232    -2619.676    80.813013 
   73800    140.57932   -108.09705   0.12719912   -107.96985    2219.5416    4.3230472    4.3230472    4.3230472    2219.5416   -6050.6872    4464.4778    8244.8342    1348.1918   -2398.3332    875.55831    80.792291 
   73900    248.62266    -108.1942   0.22495901   -107.96924   -1655.4602    4.3241774    4.3241774    4.3241774   -1655.4602   -6641.1439    -357.1119     2031.875 0.0045147563    661.32921   -4538.5384    80.855676 
   74000    168.51882   -108.12232   0.15247937   -107.96984    1341.2231    4.3227545    4.3227545    4.3227545    1341.2231   -4275.3371    5959.0313     2339.975    -1250.591   -1434.5009    1696.7424     80.77588 
   74100    211.84583   -108.16117   0.19168256   -107.96948   -1320.1664    4.3241592    4.3241592    4.3241592   -1320.1664   -7689.3093   -1483.7886    5212.5988    1876.5108   -3218.9435   -750.56636    80.854655 
   74200    220.73557   -108.16831   0.19972618   -107.96858    1740.8111     4.322665     4.322665     4.322665    1740.8111   -1764.3541    6537.7468    449.04041   -480.29514    1204.4555    2450.3087    80.770867 
   74300    164.69757   -108.11775   0.14902182   -107.96873     805.5983    4.3242027    4.3242027    4.3242027     805.5983   -6057.5761    -234.2804    8708.6515    192.81003   -886.84989   -2738.5583    80.857094 
   74400    207.52041   -108.15592   0.18776883   -107.96816    709.11034    4.3229599    4.3229599    4.3229599    709.11034   -6181.4523    2892.5976    5416.1857    1972.6214   -2048.4718    4660.1137    80.787397 
   74500    215.25946   -108.16252   0.19477128   -107.96775    1074.0769    4.3235204    4.3235204    4.3235204    1074.0769   -4138.6449    4229.6396    3131.2359   -1426.4132     1294.819   -3936.1038    80.818829 
   74600    193.94331   -108.14369   0.17548398    -107.9682   -1677.6755    4.3242181    4.3242181    4.3242181   -1677.6755   -8423.7821   -4857.5572    8248.3128    796.89967   -2391.6895    1639.4628    80.857957 
   74700    205.38399   -108.15406   0.18583575   -107.96822    1761.7975    4.3221894    4.3221894    4.3221894    1761.7975   -5418.6809    9228.7917    1475.2818    619.84488   -133.80594    23.510709    80.744207 
   74800    204.65604   -108.15336   0.18517708   -107.96818   -215.50601    4.3248755    4.3248755    4.3248755   -215.50601   -5044.9613     -6918.94    11317.383   -577.08022    600.57807   -3736.3897    80.894843 
   74900    179.70358   -108.13131   0.16259958   -107.96871   -1062.9125    4.3228996    4.3228996    4.3228996   -1062.9125   -7132.5197    6412.7088   -2468.9265    1998.5354   -2309.0778     3104.859    80.784017 
   75000    207.67686   -108.15628   0.18791039   -107.96837    293.41217    4.3231469    4.3231469    4.3231469    293.41217   -6767.8758   -1729.7534    9377.8658    688.10416   -1095.5685   -2761.7564    80.797884 
   75100    220.97573   -108.16806   0.19994349   -107.96812   -4453.4106    4.3251174    4.3251174    4.3251174   -4453.4106   -7178.9106   -4564.7392   -1616.5818    464.58753   -540.62987    2578.8718    80.908418 
   75200    151.55756   -108.10568   0.13713247   -107.96855    -305.4159    4.3221878    4.3221878    4.3221878    -305.4159   -9727.8163    2659.9499    6151.6187    1238.7866    -2296.567   -1176.3535    80.744118 
   75300    247.56718   -108.19142   0.22400398   -107.96741   -3938.3528     4.325048     4.325048     4.325048   -3938.3528   -7725.3969   -6630.9459    2541.2843    1766.5713   -606.17955     2003.598    80.904524 
   75400     174.7765   -108.12637   0.15814145   -107.96823   -2389.2427    4.3233153    4.3233153    4.3233153   -2389.2427   -5904.2717    231.46554   -1494.9221   -160.42996    1550.4041   -2665.4251    80.807322 
   75500    188.45888    -108.1389   0.17052155   -107.96838   -2372.3596    4.3234541    4.3234541    4.3234541   -2372.3596   -8747.3779   -4248.1668    5878.4659    2880.7365   -4106.6472    1986.3469    80.815106 
   75600    227.39629   -108.17387   0.20575294   -107.96812   -2454.5339    4.3242009    4.3242009    4.3242009   -2454.5339   -6475.1257   -2664.7424    1776.2665   -410.21633    1522.4054    -2835.721    80.856996 
   75700    163.40661   -108.11717   0.14785373   -107.96931   -1842.8967    4.3231521    4.3231521    4.3231521   -1842.8967   -7613.5737   -5326.5393    7411.4229    891.75728   -1392.1237   -1887.7592    80.798173 
   75800     219.8345   -108.16825   0.19891087   -107.96934   -2820.6574    4.3243738    4.3243738    4.3243738   -2820.6574   -11538.566    176.56249    2900.0314    3120.0635   -785.60313   -98.421941    80.866694 
   75900    235.08208   -108.18194    0.2127072   -107.96923   -1113.1293    4.3224587    4.3224587    4.3224587   -1113.1293   -4472.5494   -4389.7461    5522.9075   -1479.5124      1077.36   -2392.4376    80.759302 
   76000    151.83986   -108.10704    0.1373879   -107.96965    118.82696    4.3246579    4.3246579    4.3246579    118.82696   -8109.0093    256.94829    8208.5418    3900.6289   -3019.0034    779.63183     80.88263 
   76100    211.76979   -108.15984   0.19161376   -107.96823    1094.7954    4.3230021    4.3230021    4.3230021    1094.7954   -7280.5381   -738.05991    11302.984    266.68152   -1271.9574   -1389.5347    80.789764 
   76200    222.30519   -108.16881    0.2011464   -107.96766   -299.86618    4.3232088    4.3232088    4.3232088   -299.86618   -2687.3994   -2561.0874    4348.8882    804.99836   -25.946079   -485.21708    80.801354 
   76300    152.96408   -108.10668   0.13840511   -107.96827    994.62539    4.3250251    4.3250251    4.3250251    994.62539   -11350.434    2313.1063    12021.204    2241.6711   -875.43179   -1644.8228    80.903238 
   76400    276.27057   -108.21723   0.24997542   -107.96726   -394.30503    4.3213068    4.3213068    4.3213068   -394.30503   -6220.3758   -1666.8554    6704.3161   -151.60847   -719.03409    1094.8729    80.694752 
   76500    136.56767   -108.09227    0.1235693    -107.9687    4013.4273    4.3251562    4.3251562    4.3251562    4013.4273   -6574.5751    2789.7112    15825.146     1580.549    553.28598   -2935.6403    80.910595 
   76600    245.78565    -108.1907   0.22239202   -107.96831   -2829.9071    4.3229308    4.3229308    4.3229308   -2829.9071   -9600.9813   -923.19976    2034.4598    613.97504   -3199.3978    755.62039    80.785766 
   76700    169.46755   -108.12187    0.1533378   -107.96854    5548.8317    4.3223532    4.3223532    4.3223532    5548.8317   -2745.1422    5739.2445    13652.393    857.78973    117.32733    -1590.112    80.753388 
   76800    228.88473   -108.17573   0.20709971   -107.96863   -3785.6309      4.32586      4.32586      4.32586   -3785.6309   -8002.0194   -3022.2584   -332.61481   -704.61205    277.39775   -1018.5717    80.950096 
   76900    141.66561   -108.09734   0.12818202   -107.96916     4449.718      4.32052      4.32052      4.32052     4449.718   -7870.3886    7649.6288    13569.914    1780.4247   -3231.9409     1039.465    80.650685 
   77000    269.79576   -108.21252   0.24411687    -107.9684   -3243.4223     4.325775     4.325775     4.325775   -3243.4223   -6368.0998    -916.7523   -2445.4147   -280.48711    59.138324   -1400.0342    80.945326 
   77100    166.60642   -108.12034   0.15074899   -107.96959   -201.82748    4.3225931    4.3225931    4.3225931   -201.82748   -8773.3419    4642.0643    3525.7951    813.04038   -2565.9846   -833.22594    80.766838 
   77200    198.76649   -108.14886   0.17984809   -107.96902    608.73507    4.3229028    4.3229028    4.3229028    608.73507   -6096.2714    3066.2134    4856.2632    1428.6343   -1967.2439    387.08661    80.784199 
   77300    228.27366   -108.17458   0.20654681   -107.96803   -1803.5946    4.3258549    4.3258549    4.3258549   -1803.5946    -5205.544    36.956251   -242.19622   -1174.5298    1756.0472   -973.04001    80.949813 
   77400    127.48264   -108.08404   0.11534898   -107.96869    2579.1602    4.3205992    4.3205992    4.3205992    2579.1602   -6467.0568    5842.5514    8361.9859    1892.6847   -3085.8658   -969.47999    80.655119 
   77500    275.18848   -108.21644   0.24899632   -107.96744   -4149.6024    4.3259475    4.3259475    4.3259475   -4149.6024   -6577.0877   -2291.4116   -3580.3078    29.609039   -684.18362    1451.3955    80.955009 
   77600    152.71268    -108.1066   0.13817764   -107.96842    3692.9405    4.3225427    4.3225427    4.3225427    3692.9405   -7493.8466    5092.8584     13479.81   -479.29299   -867.99948   -1939.6426    80.764009 
   77700    228.47826   -108.17541   0.20673193   -107.96868    -3699.587    4.3230893    4.3230893    4.3230893    -3699.587   -6658.6004   -4220.6003   -219.56035    1650.1842   -2018.9563    1743.3041    80.794653 
   77800    169.71094   -108.12179   0.15355802   -107.96823     4347.182    4.3249734    4.3249734    4.3249734     4347.182   -6858.4485    4410.3808    15489.614   -1543.1461   -648.52456    428.06097    80.900334 
   77900    250.92132   -108.19485   0.22703889   -107.96781   -2376.7944    4.3217386    4.3217386    4.3217386   -2376.7944   -3917.6619   -4839.7905    1627.0694    138.71498   -469.85138   -1545.5559    80.718948 
   78000      127.642   -108.08417   0.11549316   -107.96868    2871.8788    4.3245609    4.3245609    4.3245609    2871.8788   -5177.9872    1172.9228    12620.701    602.41892   -2816.2892    1435.1433    80.877191 
   78100    260.67458   -108.20289   0.23586383   -107.96702   -67.636616    4.3236335    4.3236335    4.3236335   -67.636616   -6771.8502   -3407.8831    9976.8235     -1149.25   -502.18102   -2164.9978    80.825169 
   78200    179.77878   -108.13065   0.16266762   -107.96798    660.49719    4.3224496    4.3224496    4.3224496    660.49719   -3078.6272   -2497.0577    7557.1765    1309.2012   -508.52961    686.31882    80.758794 
   78300    165.91446   -108.11834   0.15012289   -107.96822    608.10554    4.3249104    4.3249104    4.3249104    608.10554   -9531.6282   -1549.0474    12904.992    544.61784    -2282.412   -1339.6581    80.896801 
   78400    293.69921   -108.23295   0.26574522    -107.9672   -2166.7114    4.3226364    4.3226364    4.3226364   -2166.7114   -4922.3153    -3436.626    1858.8069    -67.39297     2198.866    523.88587    80.769261 
   78500    109.00595   -108.06775  0.098630875   -107.96912    2666.5875    4.3238472    4.3238472    4.3238472    2666.5875   -4457.5748   -1670.0532    14127.391    736.71396   -2385.0266   -990.74081    80.837156 
   78600    234.21455    -108.1804   0.21192225   -107.96847   -2864.1263      4.32393      4.32393      4.32393   -2864.1263   -7646.7194   -5746.1719    4800.5124     533.2731   -1901.1949    204.55072    80.841799 
   78700    216.79979   -108.16468     0.196165   -107.96852    830.29486    4.3229324    4.3229324    4.3229324    830.29486   -2231.0926    349.31709    4372.6601    -555.5966   -10.922823     1160.957    80.785857 
   78800    160.86292   -108.11559   0.14555215   -107.97004   -1917.2458    4.3234382    4.3234382    4.3234382   -1917.2458    -4067.766   -6907.8645    5223.8931    1233.1095   -1602.6822   -3082.5294    80.814217 
   78900    231.77091   -108.17911   0.20971119   -107.96939   -2623.4209    4.3246963    4.3246963    4.3246963   -2623.4209   -10509.476    2509.8056    129.40767   -199.65844   -1035.6255    1903.4854    80.884788 
   79000     199.4429   -108.14931   0.18046012   -107.96885    957.68871    4.3227007    4.3227007    4.3227007    957.68871   -288.84308   -5783.0609    8944.9701   -1279.4607   -215.40033    -5638.182    80.772866 
   79100    157.64177   -108.11211   0.14263759   -107.96947    -2221.736    4.3237105    4.3237105    4.3237105    -2221.736    -9509.932    2120.5568    724.16728    1619.8038   -3003.2021    644.53649    80.829484 
   79200    240.59615   -108.18583   0.21769645   -107.96813   -2069.8925    4.3245633    4.3245633    4.3245633   -2069.8925    -4902.442   -1376.8485    69.612948   -1607.0921   -122.76474   -3542.7466    80.877327 
   79300    181.76949   -108.13302   0.16446886   -107.96855     2328.297    4.3219166    4.3219166    4.3219166     2328.297   -868.09311    -1028.417    8881.4012    899.47122    1159.1267   -5.3488001    80.728921 
   79400    188.87605   -108.13963   0.17089902   -107.96874   -3048.5838    4.3250921    4.3250921    4.3250921   -3048.5838   -11122.218    2746.3644    -769.8977    1425.8023   -2225.6424   -1348.1532    80.906994 
   79500    204.89002    -108.1533    0.1853888   -107.96791    3020.9688    4.3230307    4.3230307    4.3230307    3020.9688   -2513.6675   -964.86454    12541.438   -396.70493    150.25486   -493.13692    80.791368 
   79600    232.44535   -108.17821   0.21032144   -107.96788   -532.56484    4.3226142    4.3226142    4.3226142   -532.56484    -6371.688    3479.3746    1294.6189    1508.0332   -152.54582    1111.0633    80.768016 
   79700    162.53124   -108.11573   0.14706168   -107.96867   -47.558403    4.3251322    4.3251322    4.3251322   -47.558403   -8666.9969   -695.22979    9219.5515    544.87086   -3445.3648   -1758.6644    80.909244 
   79800    235.00297   -108.18051   0.21263563   -107.96787    2940.0464    4.3219454    4.3219454    4.3219454    2940.0464   -2221.2249    1172.0516    9869.3127   -337.82953    1356.0681    2329.2644    80.730537 
   79900    191.83124   -108.14171   0.17357293   -107.96814    1017.8581    4.3240817    4.3240817    4.3240817    1017.8581   -6191.5839    1202.1432    8043.0149    725.92948   -1611.3541   -4664.1097    80.850305 
   80000    158.55961   -108.11189   0.14346807   -107.96843    1555.7481    4.3238528    4.3238528    4.3238528    1555.7481   -7922.9141    888.33951    11701.819    912.08609   -2043.0867    1825.7953    80.837469 
   80100    267.39326   -108.20921   0.24194304   -107.96727    1295.3227    4.3220948    4.3220948    4.3220948    1295.3227    -4430.367    1359.8554    6956.4797   -1942.8079      891.231   -4387.6732    80.738909 
   80200    160.55429   -108.11365    0.1452729   -107.96837    596.30241    4.3253527    4.3253527    4.3253527    596.30241   -9365.8234    1550.0455    9604.6852    1372.7763   -2444.5688    497.59255    80.921622 
   80300    211.05068   -108.15947   0.19096309   -107.96851   -572.63691    4.3217368    4.3217368    4.3217368   -572.63691    -6782.109   -2782.9378    7847.1361   -155.91385   -843.81067   -927.42189    80.718846 
   80400    215.62474   -108.16354   0.19510179   -107.96844    893.45892    4.3249882    4.3249882    4.3249882    893.45892    -6752.906     1521.743    7911.5398   -892.90027     1280.025   -701.86337    80.901166 
   80500    174.82015   -108.12763   0.15818094   -107.96945   -1914.8381    4.3227475    4.3227475    4.3227475   -1914.8381   -6662.6208   -2331.2553    3249.3618    3691.2428   -2278.9849    858.48796     80.77549 
   80600    204.72498   -108.15432   0.18523947   -107.96908   -1754.8186    4.3234033    4.3234033    4.3234033   -1754.8186   -9846.2486     220.9343    4360.8585   -922.29583   -2403.7798   -827.43339     80.81226 
   80700    224.98296   -108.17158   0.20356931   -107.96801   -1545.6819    4.3252744    4.3252744    4.3252744   -1545.6819   -6809.2555   -719.94693    2892.1566    1107.2844    366.34295    1190.7484    80.917225 
   80800    154.54647   -108.10845   0.13983689   -107.96862   -1180.3537      4.32173      4.32173      4.32173   -1180.3537   -10371.119   -2310.0428    9140.1012    2670.1698   -4338.1318    -2702.297    80.718462 
   80900    237.58537     -108.183   0.21497223   -107.96803   -4235.2077    4.3257413    4.3257413    4.3257413   -4235.2077   -10378.037   -1059.7395   -1267.8465   -2805.4026    595.88564    262.02785    80.943436 
   81000    187.20095   -108.13817   0.16938335   -107.96878    848.18755    4.3224198    4.3224198    4.3224198    848.18755   -5145.8999   -1851.3369    9541.7994    2595.8809   -739.83138   -4774.7423     80.75712 
   81100    201.81536   -108.15197   0.18260677   -107.96936   -4290.9529     4.323529     4.323529     4.323529   -4290.9529   -10886.136     73.06663   -2059.7891   -309.33719   -3281.8427    595.69263    80.819309 
   81200    179.34206   -108.13131   0.16227246   -107.96904    1093.7543    4.3254036    4.3254036    4.3254036    1093.7543   -8271.4282   -1453.5113    13006.202   -1715.0971    460.20097   -1339.8217    80.924481 
   81300    227.88399   -108.17465   0.20619423   -107.96846   -435.45933    4.3209623    4.3209623    4.3209623   -435.45933   -5531.5507    2339.4555    1885.7172    2353.8187   -1142.6569   -150.87896    80.675458 
   81400    177.06983   -108.12943   0.16021651   -107.96921    -2318.582     4.326098     4.326098     4.326098    -2318.582   -12673.668   -2536.4423    8254.3647   -2191.4815   -2251.0756    188.19662    80.963459 
   81500    226.64263   -108.17362   0.20507102   -107.96855    1314.0914    4.3219185    4.3219185    4.3219185    1314.0914   -5211.0641    4727.6452    4425.6931     1121.772    1289.6108    275.92125    80.729025 
   81600    201.26586   -108.15112   0.18210958   -107.96901    676.41331    4.3233877    4.3233877    4.3233877    676.41331   -7810.4932    255.32931    9584.4038    449.75943   -1633.7036    665.48991    80.811386 
   81700    144.98114   -108.10056   0.13118198   -107.96937    1337.1745    4.3251696    4.3251696    4.3251696    1337.1745   -9382.4972    5267.6639    8126.3568    1228.5003   -3303.8206     406.2294    80.911346 
   81800     256.4351   -108.19961   0.23202787   -107.96758    116.02233    4.3212512    4.3212512    4.3212512    116.02233   -3691.0972    1070.7369    2968.4273   -779.04583    2154.6366   -1025.6665    80.691638 
   81900    177.61495     -108.129   0.16070974   -107.96829     688.2123    4.3255427    4.3255427    4.3255427     688.2123    -8475.087    221.67124    10318.053     1344.268   -2276.8909   -2413.2675    80.932286 
   82000    202.13489   -108.15157    0.1828959   -107.96867   -784.62891    4.3225829    4.3225829    4.3225829   -784.62891   -7379.5272    4176.3296    849.31092   -1472.0581    494.32305    549.00255    80.766265 
   82100    217.04486   -108.16488   0.19638675   -107.96849     1410.212    4.3232322    4.3232322    4.3232322     1410.212   -7849.9425   -3079.9714     15160.55   -1707.0649    1425.0546    -765.6903    80.802663 
   82200    158.91775   -108.11362   0.14379212   -107.96982    700.28877     4.324502     4.324502     4.324502    700.28877   -7531.3148    9466.2959    165.88523    2264.0221   -3119.5577    1139.2195    80.873884 
   82300    231.86691   -108.17912   0.20979806   -107.96932    -2676.303    4.3220062    4.3220062    4.3220062    -2676.303   -7846.6236   -4897.0763    4714.7909   -4468.0946    471.26082    -203.5498    80.733941 
   82400    186.67804   -108.13769   0.16891021   -107.96878     2203.594    4.3250322    4.3250322    4.3250322     2203.594   -6025.8371    5241.4233    7395.1958    2097.1085    620.99398   -114.19406    80.903635 
   82500    193.38507   -108.14378   0.17497887    -107.9688   -1477.5889      4.32253      4.32253      4.32253   -1477.5889   -6271.4436   -2706.3916    4545.0685   -1768.0268   -3317.6128   -41.302995    80.763299 
   82600     197.3994   -108.14679   0.17861113   -107.96818    256.96926     4.323931     4.323931     4.323931    256.96926   -8798.5818   -935.96989    10505.459   -2198.6878    673.84824    380.52131    80.841857 
   82700    217.02523   -108.16397   0.19636899    -107.9676    1031.4329     4.323985     4.323985     4.323985    1031.4329   -5195.5158    2274.5676    6015.2468     2253.477   -1110.1199   -560.69572    80.844883 
   82800    196.32514   -108.14566   0.17763911   -107.96802   -1660.5271     4.322665     4.322665     4.322665   -1660.5271   -7280.0925   -3899.0139     6197.525   -2227.9427   -2735.0637   -856.61577    80.770869 
   82900    177.48997   -108.12853   0.16059665   -107.96793    2915.0381    4.3246638    4.3246638    4.3246638    2915.0381    -7747.778    1147.3038    15345.588    1099.1249    1705.6815   -738.66908    80.882961 
   83000      246.883   -108.19084   0.22338493   -107.96745   -935.38827    4.3226303    4.3226303    4.3226303   -935.38827    122.71406   -5740.4235    2811.5446   -16.559175   -216.53812    -982.0611    80.768922 
   83100    119.25588   -108.07691   0.10790522     -107.969    2722.3887    4.3234897    4.3234897    4.3234897    2722.3887   -10307.705   -57.471589    18532.343   -2050.3172   -1692.9863    950.81895    80.817104 
   83200    298.97334   -108.23823   0.27051736   -107.96771   -3611.9303     4.324384     4.324384     4.324384   -3611.9303   -2437.1013   -6472.5011   -1926.1886   -514.78635     2364.016   -219.03733    80.867264 
   83300    130.05321   -108.08705   0.11767488   -107.96937    4330.8667     4.322441     4.322441     4.322441    4330.8667   -6828.0477    1047.6962    18772.952   -640.40266   -2666.5283   -356.11742    80.758312 
   83400    227.70349   -108.17541    0.2060309   -107.96938   -4298.9861    4.3241658    4.3241658    4.3241658   -4298.9861   -8756.4008    -7332.081    3191.5236   -1918.6665   -159.61048    537.05944    80.855027 
   83500    196.29004   -108.14609   0.17760735   -107.96848    2619.5797    4.3234723    4.3234723    4.3234723    2619.5797   -1210.1059    213.10425    8855.7407    -125.9199    1778.6743   -703.85733    80.816129 
   83600    198.62554   -108.14814   0.17972056   -107.96842   -2215.6407    4.3232969    4.3232969    4.3232969   -2215.6407   -9570.6395   -4416.7922    7340.5096   -399.59732   -3007.8117     633.1985    80.806292 
   83700    193.40164   -108.14324   0.17499387   -107.96825    -1962.373    4.3241879    4.3241879    4.3241879    -1962.373    -3802.538   -3485.3072    1400.7262   -1683.1081   -654.53666   -913.61516    80.856262 
   83800    194.88819   -108.14397   0.17633893   -107.96764    1840.8985    4.3235151    4.3235151    4.3235151    1840.8985   -8879.1595    2063.9831    12337.872    770.20353    848.30593    -375.0265     80.81853 
   83900     214.4476   -108.16258    0.1940367   -107.96854   -5094.4735    4.3235519    4.3235519    4.3235519   -5094.4735   -7440.0187   -6388.4863   -1454.9156     345.1508   -2422.0504   -867.43502    80.820591 
   84000    154.69947   -108.10895   0.13997534   -107.96898    1399.2593     4.323926     4.323926     4.323926    1399.2593   -8168.6195    5090.1484     7276.249   -1307.8754    982.56754    1461.0683    80.841574 
   84100    289.19053   -108.22963   0.26166566   -107.96797   -4209.8004    4.3236092    4.3236092    4.3236092   -4209.8004   -6153.2774   -4716.6681   -1759.4556    1943.5714    1059.8376   -919.49613    80.823809 
   84200    97.505966   -108.05797  0.088225447   -107.96975    2862.7036    4.3231583    4.3231583    4.3231583    2862.7036   -6169.7577    4698.9273    10058.941   -2501.1655   -4311.1771    774.75881    80.798524 
   84300    260.61737   -108.20412   0.23581208    -107.9683   -2496.4591    4.3241276    4.3241276    4.3241276   -2496.4591     -8470.97    431.43113    550.16167   -1410.0483    2481.6347   -1353.0933    80.852881 
   84400    200.64915   -108.15042   0.18155156   -107.96887    1972.5666    4.3224457    4.3224457    4.3224457    1972.5666   -5287.3782    2574.5765    8630.5015    811.50057   -1913.9772   -229.68489    80.758572 
   84500    171.50059   -108.12474   0.15517734   -107.96957    -708.3853    4.3248912    4.3248912    4.3248912    -708.3853   -9067.8406    3639.8071    3302.8776   -3825.4956   -1517.0004    232.56055    80.895725 
   84600    258.21866    -108.2021   0.23364167   -107.96845    618.63009    4.3223304    4.3223304    4.3223304    618.63009   -6454.2277    855.03309    7455.0849    1533.3997    2124.1437   -1165.3109    80.752109 
   84700    158.23217   -108.11212    0.1431718   -107.96895    4208.6079    4.3232709    4.3232709    4.3232709    4208.6079   -4042.5085    6833.6394    9834.6927   -2161.9006   -2759.0071    410.15079    80.804837 
   84800    198.18778   -108.14803   0.17932447   -107.96871   -1204.0194    4.3245845    4.3245845    4.3245845   -1204.0194   -10402.018   -160.39408    6950.3535     -1415.93   -779.53937    -1257.219    80.878514 
   84900    239.50623   -108.18476   0.21671027   -107.96805    1883.3358    4.3217986    4.3217986    4.3217986    1883.3358     -3549.81    6448.0169    2751.8006    27.194656    3305.6682    2182.0795    80.722307 
   85000     155.2839   -108.10957   0.14050414   -107.96907    2010.3133    4.3251506    4.3251506    4.3251506    2010.3133   -9540.4811     2000.045    13571.376   -1248.1413   -915.04409   -678.72375    80.910279 
   85100    243.09543   -108.18933   0.21995785   -107.96937   -3961.9204    4.3226362    4.3226362    4.3226362   -3961.9204    -10222.55   -1239.3914    -423.8202   -762.29963    770.92047    1899.9671    80.769251 
   85200    155.05819   -108.10981   0.14029991   -107.96951    4775.1118    4.3230427    4.3230427    4.3230427    4775.1118   -4658.3263    4624.7944    14358.868   -566.13344    3085.5644   -3615.1836    80.792038 
   85300       258.22   -108.20253   0.23364288   -107.96889   -7103.3604    4.3255881    4.3255881    4.3255881   -7103.3604   -12700.522   -3404.7017   -5204.8571   -1486.2284   -3026.2109     554.2419    80.934835 
   85400    123.70003   -108.08118   0.11192639   -107.96925    2402.7226    4.3216386    4.3216386    4.3216386    2402.7226   -5529.6883    2779.2927    9958.5636   -3707.2077    2990.6144   -3086.9557    80.713342 
   85500    252.79066   -108.19631    0.2287303   -107.96758   -3418.9934    4.3254333    4.3254333    4.3254333   -3418.9934   -9912.7047    798.66968   -1142.9453    476.56868    1975.2719    724.30971    80.926143 
   85600    174.43213   -108.12654   0.15782986   -107.96871   -1983.2112     4.322729     4.322729     4.322729   -1983.2112   -9349.2751   -5610.8076    9010.4491   -4423.6307   -2122.0728   -218.83282    80.774455 
   85700    182.67152   -108.13411   0.16528503   -107.96882   -1701.2698    4.3237752    4.3237752    4.3237752   -1701.2698   -8723.5256    2025.7164    1593.9998   -484.55071    3625.1674   -1468.0955    80.833113 
   85800    265.91481   -108.20881   0.24060531    -107.9682   -3907.9255     4.324736     4.324736     4.324736   -3907.9255    -10405.54   -1694.3946    376.15781   -552.78546     -5.26992    1917.8156    80.887012 
   85900    132.70365   -108.08955   0.12007305   -107.96948    1516.1676    4.3219894    4.3219894    4.3219894    1516.1676     -6832.64     853.4941    10527.649   -3314.1657   -884.98215   -1014.8099    80.733001 
   86000    221.32623   -108.16926   0.20026063     -107.969   -3260.6281    4.3255517    4.3255517    4.3255517   -3260.6281   -10502.655    2502.4487   -1781.6777    1068.2156    5398.9515    2769.9521    80.932792 
   86100    202.83121   -108.15202   0.18352594   -107.96849    2076.0586    4.3216531    4.3216531    4.3216531    2076.0586    -4585.535   -969.80708    11783.518   -2048.5046   -632.08982   -4275.2008    80.714156 
   86200    197.27581   -108.14781    0.1784993   -107.96931   -2501.1838    4.3251171    4.3251171    4.3251171   -2501.1838   -8992.9121   -486.64114    1976.0017   -401.92664    139.76392    1079.4453    80.908402 
   86300    213.38014   -108.16209   0.19307083   -107.96902    233.55523    4.3232604    4.3232604    4.3232604    233.55523   -9493.0505     5172.848    5020.8682    311.29243    3325.4964   -4089.5735    80.804246 
   86400    196.28032   -108.14626   0.17759856   -107.96866    3192.9463    4.3221656    4.3221656    4.3221656    3192.9463   -3853.5188    2254.1418    11178.216   -1796.5473   -1719.7993    1888.2814    80.742875 
   86500    184.47904   -108.13585   0.16692052   -107.96893   -2107.7046    4.3256837    4.3256837    4.3256837   -2107.7046   -12226.647    1547.1403    4356.3926    -1732.807    1807.2257   -1760.5158    80.940202 
   86600    207.05799   -108.15533   0.18735042   -107.96798    1614.6642    4.3212312    4.3212312    4.3212312    1614.6642   -3650.9939    5462.7228    3032.2639   -205.63376    4078.0962    258.56819    80.690518 
   86700    232.87586   -108.17821   0.21071097    -107.9675   -1409.8473    4.3254421    4.3254421    4.3254421   -1409.8473   -7683.4201   -4005.1509    7459.0292   -2110.5221   -2847.9252    1309.8921     80.92664 
   86800     167.4957   -108.12001   0.15155363   -107.96845   -1414.9952    4.3233462    4.3233462    4.3233462   -1414.9952   -10119.185    7743.9483   -1869.7484    177.09367    4162.7561   -525.97222    80.809058 
   86900    198.61826   -108.14793   0.17971398   -107.96822    1505.9862    4.3223315    4.3223315    4.3223315    1505.9862   -4784.5822    1539.0707    7763.4703    434.46464    2378.6126    3143.3648    80.752171 
   87000    240.08832   -108.18533   0.21723696   -107.96809    -4050.624    4.3261908    4.3261908    4.3261908    -4050.624   -11847.514    1814.0117   -2118.3695   -1242.1875   -1152.7156   -2427.2105     80.96867 
   87100    129.10306   -108.08661   0.11681516    -107.9698    272.91289    4.3208194    4.3208194    4.3208194    272.91289   -5945.9608    3761.5683    3003.1311    1171.1326    5257.5814    1495.5377    80.667452 
   87200    276.66784   -108.21848   0.25033488   -107.96814    -5055.807    4.3261414    4.3261414    4.3261414    -5055.807   -8903.6767   -3304.4349   -2959.3094    849.01632     555.9816   -4300.1736    80.965897 
   87300    145.53297    -108.1008   0.13168129   -107.96912     1899.048    4.3226456    4.3226456    4.3226456     1899.048   -7665.1658    3286.3304    10075.979   -617.50454   -1336.0972    1736.2219    80.769777 
   87400    200.56713   -108.15088   0.18147735    -107.9694   -4155.6493    4.3230253    4.3230253    4.3230253   -4155.6493   -7357.9336   -611.61867   -4497.3957    1739.4592     4693.743   -1361.4537    80.791063 
   87500    213.20973   -108.16125   0.19291665   -107.96833    879.06584    4.3255446    4.3255446    4.3255446    879.06584   -9205.6906    3741.6727    8101.2154   -944.55566   -324.01942      831.717    80.932393 
   87600    212.00916   -108.16043   0.19183034    -107.9686   -1660.2182    4.3212613    4.3212613    4.3212613   -1660.2182   -5103.5149    -2888.352    3011.2121   -684.35346    474.53549    351.93648    80.692207 
   87700    161.98904   -108.11556   0.14657109   -107.96899   -1193.8012    4.3253589    4.3253589    4.3253589   -1193.8012   -9972.6184    1483.5602    4907.6546    728.19755     5450.173    776.41109    80.921971 
   87800    248.75332   -108.19267   0.22507723   -107.96759    1704.6099    4.3230986    4.3230986    4.3230986    1704.6099   -6059.9335   -3175.2905    14349.054    -1292.413    -2551.024    2676.3724    80.795174 
   87900    180.72036   -108.13258   0.16351958   -107.96906    465.77552    4.3225882    4.3225882    4.3225882    465.77552   -3909.2803     1913.436    3393.1709     1528.054    3516.5476    361.78241     80.76656 
   88000    175.01873   -108.12802   0.15836062   -107.96966     447.6179      4.32529      4.32529      4.32529     447.6179   -12762.876    578.52566    13527.204   -113.58267    3775.0178     371.8356    80.918104 
   88100    260.35696   -108.20394   0.23557645   -107.96836    3258.4237    4.3211963    4.3211963    4.3211963    3258.4237    219.40612    748.94374    8806.9213    1262.4403   -1401.0536     -1851.68    80.688563 
   88200    129.98921   -108.08736   0.11761697   -107.96974     888.9661    4.3253029    4.3253029    4.3253029     888.9661   -11428.334   -1040.5409    15135.774   -367.64726    3835.7422     1263.426    80.918826 
   88300    254.77877    -108.1989   0.23052919   -107.96837   -1839.5306    4.3228132    4.3228132    4.3228132   -1839.5306   -6691.8867   -1625.4373    2798.7322    1091.6856    2336.6505   -1923.5515    80.779175 
   88400    205.54412   -108.15387   0.18598064   -107.96789    4071.5747    4.3232582    4.3232582    4.3232582    4071.5747   -1856.5095    1154.6056    12916.628    257.40092   -1478.0936    2097.7032    80.804123 
   88500    163.34103   -108.11729    0.1477944    -107.9695   -2869.1913    4.3242778    4.3242778    4.3242778   -2869.1913   -12396.227   -1258.6167      5047.27    280.18919    5980.6012   -1836.6614    80.861308 
   88600    195.48194   -108.14591   0.17687616   -107.96904    2789.1011     4.322793     4.322793     4.322793    2789.1011   -2774.9323    3570.9694    7571.2663     1202.202    1500.5356    939.94994    80.778044 
   88700    242.32364   -108.18774   0.21925952   -107.96848   -1564.0575    4.3245683    4.3245683    4.3245683   -1564.0575   -7072.4506   -4243.9866    6624.2648   -2200.3295    267.26425    773.19777    80.877606 
   88800     146.0986   -108.10182   0.13219308   -107.96963   -2330.0689    4.3228251    4.3228251    4.3228251   -2330.0689   -9921.7408    2860.4693    71.064816    1293.6134    6420.8928    1162.8625    80.779838 
   88900    273.96036   -108.21565   0.24788509   -107.96777   -1859.5722    4.3248841    4.3248841    4.3248841   -1859.5722   -4506.5495     -4927.32     3855.153   -1754.2345    -118.0431    600.39134    80.895324 
   89000     133.1335   -108.08971   0.12046199   -107.96925    3626.0434    4.3222297    4.3222297    4.3222297    3626.0434   -7920.1604    4376.9884    14421.302    276.82502    2564.3622   -2050.9962    80.746466 
   89100    209.61966   -108.15982   0.18966827   -107.97015   -5274.9438    4.3246435    4.3246435    4.3246435   -5274.9438   -8399.6316   -672.49248   -6752.7074    559.04958    5366.8091   -770.73477    80.881821 
   89200    198.06966   -108.14862   0.17921759    -107.9694    5519.5395    4.3230478    4.3230478    4.3230478    5519.5395   -2501.2131    2633.0478    16426.784   -353.01881   -2236.7727   -634.91888    80.792327 
   89300     228.9651   -108.17701   0.20717244   -107.96983   -3447.0929    4.3229413    4.3229413    4.3229413   -3447.0929   -8642.6883    -1389.219   -309.37142    683.10308    3102.7399    689.13081    80.786356 
   89400    132.56844   -108.08955   0.11995071    -107.9696    2233.8785    4.3254473    4.3254473    4.3254473    2233.8785   -5649.0095   -980.18151    13330.826   -32.844603    3528.9678   -1830.3197    80.926931 
   89500    297.49788   -108.23624   0.26918233   -107.96705    623.22577    4.3215693    4.3215693    4.3215693    623.22577   -5533.6918   -193.03893     7596.408    176.77022   -1851.4375   -34.176042    80.709461 
   89600    129.57476   -108.08613   0.11724197   -107.96888     326.8373    4.3247224    4.3247224    4.3247224     326.8373   -6306.0487    1466.1359    5820.4247    35.757955    5856.1133   -1159.5412    80.886251 
   89700    198.56481   -108.14785   0.17966561   -107.96818    1026.9778    4.3239738    4.3239738    4.3239738    1026.9778   -7971.7951    3695.0443    7357.6841     1428.082    1204.6577    600.53432    80.844254 
   89800    256.31275   -108.19912   0.23191716    -107.9672    1325.6316    4.3221352    4.3221352    4.3221352    1325.6316   -3297.7446   -2031.9423    9306.5817   -1198.2631   -33.949003    1044.1023    80.741172 
   89900    108.60375   -108.06716  0.098266956   -107.96889   -121.83023    4.3258513    4.3258513    4.3258513   -121.83023   -9202.9131    1513.4516    7323.9709    223.67293    4901.9013   -507.82307    80.949607 
   90000    297.29629   -108.23624   0.26899993   -107.96724   -2462.3761    4.3221722    4.3221722    4.3221722   -2462.3761    -7252.277   -5324.6827    5189.8313   -880.24073    871.35313    447.70195    80.743246 
   90100     172.3617    -108.1243   0.15595649   -107.96835    3199.4273    4.3237623    4.3237623    4.3237623    3199.4273   -3085.2186    5293.1734    7390.3271    -923.4802     318.2921   -1160.7626    80.832394 
   90200    160.84644   -108.11548   0.14553724   -107.96994   -3093.4054    4.3246694    4.3246694    4.3246694   -3093.4054   -12786.412   -1338.3986    4844.5945     1013.135    5196.8477     2244.667    80.883275 
   90300    230.12608   -108.17696   0.20822291   -107.96874    2425.4754    4.3225947    4.3225947    4.3225947    2425.4754   -3719.2218    4369.5686    6626.0794   -220.62102   -1784.9081   -40.324138    80.766927 
   90400    180.72713   -108.13316   0.16352571   -107.96963   -535.09041    4.3240327    4.3240327    4.3240327   -535.09041   -7657.7769   -2903.2079    8955.7136   -158.21495      3199.02   -60.236324    80.847561 
   90500    204.92508    -108.1549   0.18542052   -107.96948   -4886.9109     4.324183     4.324183     4.324183   -4886.9109   -11805.296   -1962.8872    -892.5497    895.71537    5206.5291   -566.15499    80.855991 
   90600    235.24495   -108.18057   0.21285457   -107.96772    2535.8477    4.3234066    4.3234066    4.3234066    2535.8477   -3234.1354   -795.07252    11636.751   -532.79568   -1648.2805   -952.79758    80.812444 
   90700    172.43953   -108.12444   0.15602691   -107.96841   -1154.3374    4.3238618    4.3238618    4.3238618   -1154.3374   -10638.269   -152.28747    7327.5441    537.73012    5051.9454     1885.403    80.837975 
   90800    177.14942   -108.12871   0.16028852   -107.96842   -532.36025    4.3243098    4.3243098    4.3243098   -532.36025   -8958.6826    3146.0183    4215.5836    1337.8402    2044.7272   -955.10512    80.863102 
   90900    215.65071   -108.16242   0.19512529   -107.96729    4569.2162    4.3225089    4.3225089    4.3225089    4569.2162   -2917.7896    602.86358    16022.575   -1520.1179   -544.96928    2048.6462    80.762116 
   91000    222.76874   -108.16998   0.20156583   -107.96842   -5206.0831    4.3246099    4.3246099    4.3246099   -5206.0831    -12707.17   -1914.9642   -996.11515    1295.1138    4312.7397   -966.74034    80.879941 
   91100    142.03776   -108.09718   0.12851875   -107.96866    3755.2793    4.3238627    4.3238627    4.3238627    3755.2793   -4653.7417   -2634.3104     18553.89   -1299.8362    1256.9876    2290.3637    80.838021 
   91200    305.41145   -108.24367   0.27634269   -107.96733   -1790.2974    4.3228184    4.3228184    4.3228184   -1790.2974   -8060.4535    689.64356    1999.9176    -546.7234   -1348.9666    1196.5457    80.779466 
   91300    93.376265   -108.05434  0.084488807   -107.96985    1177.0456      4.32494      4.32494      4.32494    1177.0456   -8474.7337    37.670171      11968.2    551.18731     5135.388    2056.1442     80.89846 
   91400     233.6729   -108.18039   0.21143215   -107.96896    15.909404    4.3221868    4.3221868    4.3221868    15.909404    -7107.146    6962.5451    192.32906    479.82391   -1079.2049    416.50596    80.744064 
   91500    232.99891   -108.17973   0.21082231   -107.96891   -1719.6775    4.3252877    4.3252877    4.3252877   -1719.6775   -8371.2138   -5126.3115    8338.4927    617.57419    1582.9578   -2712.9942    80.917976 
   91600    113.55705   -108.07296    0.1027488   -107.97021   -779.24279    4.3230442    4.3230442    4.3230442   -779.24279   -8138.5376    3093.6026    2707.2066    1184.8243    5324.4891    1447.0324    80.792124 
   91700    304.73566   -108.24374   0.27573123   -107.96801    -5038.725    4.3242312    4.3242312    4.3242312    -5038.725   -9715.5641   -5610.7788    210.16789    860.95243   -2331.9736   -2209.3588    80.858691 
   91800    147.45084   -108.10239   0.13341662   -107.96898    1892.1175    4.3240061    4.3240061    4.3240061    1892.1175   -3905.0097     4364.317    5217.0452    23.812928    2991.6327    2639.7115    80.846068 
   91900     174.7607    -108.1276   0.15812715   -107.96947   -3859.6651     4.323031     4.323031     4.323031   -3859.6651   -12238.375    2032.9013   -1373.5218    3239.7783    3373.8236   -2539.0926    80.791383 
   92000    230.98741    -108.1771   0.20900226   -107.96809    183.47041    4.3253772    4.3253772    4.3253772    183.47041   -5314.3004    331.33644    5533.3752   -1128.5571   -1957.4801    2403.1923       80.923 
   92100    167.70245   -108.12091    0.1517407   -107.96917   -344.24622    4.3221872    4.3221872    4.3221872   -344.24622   -6244.2245      599.189    4612.2968    1557.0105     3728.425    939.50871    80.744083 
   92200    234.91229   -108.18141   0.21255358   -107.96886   -6128.5181    4.3250567    4.3250567    4.3250567   -6128.5181   -11971.747   -3812.0091   -2601.7975   -393.78309    1695.4445    1446.8755    80.905009 
   92300    192.03581   -108.14222   0.17375804   -107.96846    4479.4036    4.3240349    4.3240349    4.3240349    4479.4036   -3678.2362    2536.8062    14579.641   -799.35423   -1761.1465    706.17749    80.847684 
   92400    212.46991    -108.1611   0.19224724   -107.96885   -2416.0645    4.3219731    4.3219731    4.3219731   -2416.0645    -9153.166    1936.3929   -31.420417     1060.106    5360.9792   -1542.7056    80.732085 
   92500    136.94377   -108.09298    0.1239096   -107.96907    3288.0303     4.326261     4.326261     4.326261    3288.0303   -9520.0378    5447.2639    13936.865    41.644988    137.00527    106.80019    80.972612 
   92600      269.198   -108.21092   0.24357601   -107.96735    2190.2191     4.321081     4.321081     4.321081    2190.2191   -786.76169   -1954.4656    9311.8845    1136.8026   -53.668091   -2861.7846    80.682105 
   92700    165.71653   -108.11853    0.1499438   -107.96859   -439.98867    4.3250117    4.3250117    4.3250117   -439.98867   -11070.559    2331.2271     7419.366    450.84852    4836.3159    1675.1342    80.902487 
   92800    200.97506   -108.14971   0.18184646   -107.96786    2964.0624    4.3242467    4.3242467    4.3242467    2964.0624    -3946.391   -4123.3916     16961.97    1232.8415   -1812.0432   -2658.1221     80.85956 
   92900    253.48307   -108.19656   0.22935681    -107.9672     2294.257    4.3211104    4.3211104    4.3211104     2294.257   -4371.6588    6778.8886    4475.5412   -664.94282    383.03695    1404.6767    80.683752 
   93000    100.88925   -108.06037  0.091286712   -107.96908    2922.0477    4.3266505    4.3266505    4.3266505    2922.0477   -11138.501    635.71517    19268.929    2075.3439    3917.4146   -837.66853    80.994486 
   93100    274.46126   -108.21642   0.24833832   -107.96808    779.25884    4.3208737    4.3208737    4.3208737    779.25884   -1013.4734    4035.7212   -684.47128   -155.74395   -3375.2587    1793.1056    80.670495 
   93200    176.82192   -108.12931   0.15999219   -107.96932    2307.7393     4.324929     4.324929     4.324929    2307.7393   -9626.5562   -1392.6663     17942.44    385.59463     2103.256    1758.3533    80.897845 
   93300    194.99683   -108.14602   0.17643723   -107.96959   -3074.0712    4.3246031    4.3246031    4.3246031   -3074.0712   -5500.7049   -2824.4833   -897.02535    321.99326    1962.4616   -266.04183    80.879557 
   93400    221.29749   -108.16855   0.20023462   -107.96831    2568.8719    4.3213712    4.3213712    4.3213712    2568.8719   -5727.8725    3375.4326    10059.056   -1588.8192   -2170.2926    106.53791    80.698362 
   93500    199.47159   -108.14876   0.18048609   -107.96827   -2394.1926    4.3269532    4.3269532    4.3269532   -2394.1926   -9267.9662    -366.6799    2452.0682    218.15585    3654.6201   -921.59989    81.011482 
   93600    149.71645   -108.10381   0.13546659   -107.96834    938.70495    4.3214852    4.3214852    4.3214852    938.70495    -5051.272    6596.9056    1270.4812    109.72677    1744.5388    976.92081     80.70475 
   93700    251.49421   -108.19464   0.22755724   -107.96709    -1811.525    4.3249232    4.3249232    4.3249232    -1811.525   -9725.6317   -1864.5814    6155.6381    852.20869   -3072.7785   -1441.4087    80.897518 
   93800    170.18119   -108.12238   0.15398352   -107.96839   -1960.8187    4.3247235    4.3247235    4.3247235   -1960.8187   -5212.3836   -1420.5689    750.49639    34.279279    5288.8188    970.68567    80.886314 
   93900    217.67783   -108.16526   0.19695948    -107.9683   -3048.5321    4.3219474    4.3219474    4.3219474   -3048.5321    -9268.347   -1705.2174    1827.9682    1342.3629   -1394.9854   -1235.7638    80.730646 
   94000    208.94618   -108.15736   0.18905889    -107.9683   -411.18656     4.326515     4.326515     4.326515   -411.18656    -7172.574    561.78866    5377.2257   -869.20541   -876.71953    825.76961    80.986877 
   94100    186.00159    -108.1372   0.16829815    -107.9689   -1389.4826    4.3216791    4.3216791    4.3216791   -1389.4826   -6613.0184    2148.1356    296.43505    1407.1225    5594.1164    779.75623    80.715612 
   94200    150.19422   -108.10488   0.13589889   -107.96898    2068.9006     4.324702     4.324702     4.324702    2068.9006   -9415.6061    4451.5116    11170.796    522.96007   -3356.7133    2297.7471    80.885106 
   94300    274.69515   -108.21682   0.24854995   -107.96827    -2711.917    4.3240817    4.3240817    4.3240817    -2711.917   -3895.7082   -5328.3291    1088.2864    54.833164    1682.5031    817.91215    80.850309 
   94400    145.81918   -108.10143   0.13194026   -107.96949    1007.1905    4.3228623    4.3228623    4.3228623    1007.1905   -6593.6742    551.02412    9064.2215    842.45964    3227.8637    333.29406    80.781924 
   94500    239.37442   -108.18525   0.21659101   -107.96866   -1836.3163    4.3252825    4.3252825    4.3252825   -1836.3163     -7483.85   -4715.1055    6690.0067   -1243.9383    -2308.505    760.92678    80.917683 
   94600    211.23088   -108.15959   0.19112614   -107.96846    2484.4385    4.3219591    4.3219591    4.3219591    2484.4385   -2573.2396    2578.9095    7447.6458   -408.07935    2298.8725    1149.1929      80.7313 
   94700    141.20555   -108.09671   0.12776575   -107.96895    1238.9898    4.3252472    4.3252472    4.3252472    1238.9898   -11781.252    2936.3766    12561.845   -68.022606    1335.8252    1618.0087    80.915703 
   94800    252.91683   -108.19679   0.22884446   -107.96794   -207.81713    4.3228685    4.3228685    4.3228685   -207.81713   -3586.7805    1153.4798    1809.8493    459.84035   -4265.0368   -1883.9104    80.782276 
   94900    169.96104   -108.12254   0.15378432   -107.96876    2366.5386    4.3238379    4.3238379    4.3238379    2366.5386   -7518.3476   -90.742045    14708.705    398.73067    3546.4159   -251.34408    80.836635 
   95000    214.55245   -108.16336   0.19413156   -107.96923   -3806.1509    4.3242856    4.3242856    4.3242856   -3806.1509   -8451.1826   -6012.9016    3045.6313    1882.8748   -676.27619   -525.42551    80.861747 
   95100    200.87942   -108.15055   0.18175992   -107.96879    1871.7448    4.3229577    4.3229577    4.3229577    1871.7448   -4375.6662    1739.0826     8251.818     -1014.18   -2990.4353    200.56545    80.787275 
   95200    221.34842   -108.16892    0.2002807   -107.96864   -3261.9717    4.3251431    4.3251431    4.3251431   -3261.9717   -10980.221   -3269.2544    4463.5599      1365.81    3844.4039    512.67438    80.909858 
   95300     136.8719   -108.09285   0.12384457     -107.969    1676.8826    4.3226133    4.3226133    4.3226133    1676.8826   -5989.0247    6347.6854    4671.9871    945.77225   -2381.1558   -408.67233    80.767969 
   95400    256.77263       -108.2   0.23233327   -107.96767   -2596.1584    4.3246692    4.3246692    4.3246692   -2596.1584   -9555.1395   -3129.2433    4895.9075    82.975863    -1294.778    1045.0221    80.883264 
   95500    160.86177   -108.11392   0.14555111   -107.96837   -218.99415    4.3239129    4.3239129    4.3239129   -218.99415   -6240.8391   -1047.2446    6631.1013    1599.3907    3924.4101   -213.00061    80.840839 
   95600    231.46706   -108.17713   0.20943626   -107.96769   -4062.7428    4.3236125    4.3236125    4.3236125   -4062.7428   -9263.1906   -3627.9562    702.91855   -1022.8483   -4186.2537    1472.6497    80.823992 
   95700    201.31922   -108.14954   0.18215786   -107.96739    276.33378    4.3249929    4.3249929    4.3249929    276.33378   -7056.3807   -45.292329    7930.6744   -425.44786    251.97404   -717.33386    80.901431 
   95800     194.3999   -108.14377   0.17589712   -107.96787    -2050.074      4.32294      4.32294      4.32294    -2050.074    -8317.011    1409.8187    756.97048   -318.42098    1561.2322   -491.46171    80.786281 
   95900     148.1642   -108.10247   0.13406208   -107.96841    1809.9257    4.3244544    4.3244544    4.3244544    1809.9257   -9798.0967    3775.9602    11451.913    372.27443   -4619.0158   -3036.3376    80.871213 
   96000    274.47915   -108.21642   0.24835451   -107.96807   -2909.0712    4.3233603    4.3233603    4.3233603   -2909.0712   -5755.5621   -3845.3652    873.71367   -299.49886    2559.0702   -1738.4016    80.809847 
   96100    139.19063   -108.09546   0.12594261   -107.96952    624.91507    4.3244661    4.3244661    4.3244661    624.91507   -8650.9744   -1513.2691    12038.989    2026.8928    322.17667     908.9572    80.871873 
   96200    258.53301   -108.20259    0.2339261   -107.96866    -3441.134    4.3235044    4.3235044    4.3235044    -3441.134    -7112.099   -2745.1299   -466.17302   -874.35844    -3464.267   -2566.9378    80.817931 
   96300    185.21011   -108.13621     0.167582   -107.96863    1815.3171    4.3236077    4.3236077    4.3236077    1815.3171    -5124.226   -932.01709    11502.195    552.82739    2490.9104    2264.0426    80.823724 
   96400    162.54324   -108.11561   0.14707254   -107.96854   -759.79112    4.3244575    4.3244575    4.3244575   -759.79112   -10486.575    5446.5216    2760.6795    1179.3742   -762.59183   -2060.0315    80.871391 
   96500    231.04206   -108.17684   0.20905171   -107.96779   -1429.8826    4.3231735    4.3231735    4.3231735   -1429.8826   -5194.7204   -886.49724    1791.5698    -1347.628   -3655.2315    3032.9328    80.799375 
   96600    170.09434   -108.12175   0.15390493   -107.96785    1447.5392    4.3246332    4.3246332    4.3246332    1447.5392   -7007.2812    925.86878     10424.03    1575.1003    3094.6904    601.22913    80.881243 
   96700    257.07279   -108.20053   0.23260486   -107.96793   -6738.6353    4.3237848    4.3237848    4.3237848   -6738.6353   -8537.5666   -5525.1675   -6153.1718   -1091.1749    -4062.587    779.46716    80.833655 
   96800    130.33681   -108.08652   0.11793148   -107.96859    4791.8672    4.3236784    4.3236784    4.3236784    4791.8672   -3232.0713    3106.5407    14501.132   -1014.4264   -1837.4952   -701.85515    80.827685 
   96900    290.26822   -108.23042   0.26264078   -107.96778   -6162.1012    4.3245289    4.3245289    4.3245289   -6162.1012   -10612.108   -819.37928   -7054.8164   -1118.0553     2386.445   -2293.1251    80.875396 
   97000    75.011646   -108.03748  0.067872114   -107.96961    4913.2142    4.3230757    4.3230757    4.3230757    4913.2142   -3088.8044    9328.4575    8499.9896   -99.304214    -3633.331   -201.58863    80.793893 
   97100    292.73827   -108.23293   0.26487574   -107.96806   -4214.3207    4.3246052    4.3246052    4.3246052   -4214.3207   -10397.838   -1577.9221   -667.20211   -908.82414     440.4605   -2268.5438    80.879674 
   97200    173.92293   -108.12663   0.15736912   -107.96926    1675.1177    4.3227025    4.3227025    4.3227025    1675.1177   -2205.7215    1278.5235     5952.551    1337.1964     2052.965    2632.4009    80.772968 
   97300    184.98607   -108.13677   0.16737928   -107.96939   -1491.6794    4.3249344    4.3249344    4.3249344   -1491.6794   -8641.5977   -853.14918    5019.7087   -236.18077   -4712.3174   -3019.1969     80.89815 
   97400    258.66443    -108.2022   0.23404502   -107.96815    465.57103    4.3227354    4.3227354    4.3227354    465.57103   -5230.2349     2221.834     4405.114   -766.11984    1748.0035    3197.8168    80.774814 
   97500     120.8816   -108.07823   0.10937621   -107.96886    4255.2364    4.3240924    4.3240924    4.3240924    4255.2364   -2680.1671    6681.7548    8764.1214    1597.6894   -69.247938    98.280741    80.850908 
   97600    225.98879   -108.17273   0.20447941   -107.96826   -1993.4024    4.3238708    4.3238708    4.3238708   -1993.4024   -11667.584    1589.8412    4097.5357    -1122.906   -4991.2034    3066.9707    80.838479 
   97700    211.73301   -108.15964   0.19158048   -107.96806    3885.8126    4.3228339    4.3228339    4.3228339    3885.8126    906.36996    914.50088    9836.5668    870.48213    1869.7898   -501.26251    80.780332 
   97800    209.41423   -108.15806   0.18948239   -107.96858   -2442.9202    4.3253896    4.3253896    4.3253896   -2442.9202   -9865.2004   -5224.7605    7761.2002   -308.85817   -2542.0097   -687.60594    80.923696 
   97900    209.72729   -108.15865   0.18976566   -107.96888    483.87343    4.3221459    4.3221459    4.3221459    483.87343   -4884.0734    3958.8911    2376.8026   -1086.1039   -2529.3122    308.60816    80.741773 
   98000    193.85939   -108.14383   0.17540805   -107.96843    3486.4277    4.3245825    4.3245825    4.3245825    3486.4277   -3052.3688   -730.50711    14242.159   -1235.9063    1524.2707   -1353.9266    80.878404 
   98100    178.89882   -108.13063   0.16187141   -107.96876   -1887.7724    4.3239272    4.3239272    4.3239272   -1887.7724   -11159.007    6877.8394   -1382.1496    190.55078   -2664.4235    1838.3727    80.841643 
   98200     192.5442   -108.14252   0.17421804    -107.9683    1180.6659     4.322787     4.322787     4.322787    1180.6659   -4048.1293    -1709.111    9299.2382   -1023.8453   -3037.7787   -2416.5857    80.777708 
   98300     241.5113   -108.18589    0.2185245   -107.96737   -2191.8022    4.3257308    4.3257308    4.3257308   -2191.8022   -6873.8245   -2760.6804    3059.0983    967.50364    1995.2364    3026.7829    80.942844 
   98400    184.47447   -108.13527   0.16691638   -107.96835   -3235.8255    4.3222201    4.3222201    4.3222201   -3235.8255   -9338.3788   -676.09627    306.99849    566.73203   -6011.8419   -1936.4673    80.745928 
   98500    175.59924   -108.12699   0.15888588    -107.9681     1635.996    4.3250505    4.3250505    4.3250505     1635.996    -3068.206    72.540421    7903.6535   -1457.2581   -625.30411    2660.6027     80.90466 
   98600    245.24485   -108.18949    0.2219027   -107.96759   -3082.9949    4.3238417    4.3238417    4.3238417   -3082.9949   -10800.304    3016.3141   -1464.9947    964.99362   -249.27387    1170.8005    80.836845 
   98700    99.235301     -108.059  0.089790186   -107.96921    2027.8423    4.3228206    4.3228206    4.3228206    2027.8423   -5702.9933     2991.775    8794.7453   -267.42441   -6200.0657    1164.5482    80.779591 
   98800    298.04297   -108.23768   0.26967554   -107.96801   -5483.8687    4.3261213    4.3261213    4.3261213   -5483.8687   -8915.5926   -3689.0607   -3846.9528   -412.52703    1205.6737   -447.76397    80.964768 
   98900    174.46089   -108.12729   0.15785588   -107.96944    1011.1464    4.3210968    4.3210968    4.3210968    1011.1464    -6813.859   -242.83578    10090.134     1005.421   -1921.6619   -449.77669    80.682989 
   99000    182.47478   -108.13507   0.16510702   -107.96997   -3007.7727    4.3262306    4.3262306    4.3262306   -3007.7727   -7475.6135   -649.87521   -897.82951   -1496.2217   -2792.7471    637.02741    80.970905 
   99100    231.84413   -108.17806   0.20977744   -107.96829     1699.619    4.3228353    4.3228353    4.3228353     1699.619   -8171.3469    1906.5865    11363.617   -1651.7176    1727.9039    -902.3107    80.780414 
   99200    150.91145   -108.10516   0.13654786   -107.96862    2047.8736    4.3229223    4.3229223    4.3229223    2047.8736   -4709.3688    8444.3613    2408.6285    698.07747   -2503.3445    1096.4764    80.785291 
   99300    215.55454   -108.16313   0.19503828    -107.9681   -2475.3221    4.3259327    4.3259327    4.3259327   -2475.3221   -11756.708   -3147.4065    7478.1482   -2405.3821   -2773.7506   -2969.3519    80.954182 
   99400    226.45093   -108.17202   0.20489756   -107.96713    3460.2525    4.3215755    4.3215755    4.3215755    3460.2525   -3115.5198    2837.1352    10659.142    946.87596    1288.8086    1059.0847     80.70981 
   99500    203.24439   -108.15203   0.18389979   -107.96813   -2693.0244    4.3255789    4.3255789    4.3255789   -2693.0244   -10320.301   -3895.8191    6137.0473   -72.095891   -4350.3615    -835.5797     80.93432 
   99600    177.11655   -108.12837   0.16025877   -107.96811    2924.8867    4.3232744    4.3232744    4.3232744    2924.8867   -6938.3752    5205.8119    10507.223   -1563.3408   -1154.8227    801.38534    80.805032 
   99700    240.84691   -108.18537   0.21792335   -107.96745    1941.9253    4.3227796    4.3227796    4.3227796    1941.9253   -5010.8238    3248.9587    7587.6411    225.68515    150.42098    184.37262    80.777293 
   99800    141.58751    -108.0974   0.12811135   -107.96928    380.30305    4.3253468    4.3253468    4.3253468    380.30305   -10952.658    3289.3201    8804.2472   -1245.6805   -4385.8951   -414.94141    80.921289 
   99900     223.0932   -108.17089   0.20185942   -107.96903    1808.8185    4.3218033    4.3218033    4.3218033    1808.8185   -5558.0011    207.38767    10777.069   -931.83963    178.71946   -448.17428    80.722572 
  100000    261.79952   -108.20609    0.2368817   -107.96921   -3147.3463    4.3255054    4.3255054    4.3255054   -3147.3463   -8613.0005   -4308.2212     3479.183   -671.14766    282.94025    1275.6587    80.930191 
Loop time of 22.2186 on 1 procs for 100000 steps with 8 atoms

Pair  time (%) = 7.13899 (32.1307)
Kspce time (%) = 5.32775 (23.9788)
Neigh time (%) = 0 (0)
Comm  time (%) = 1.0767 (4.84592)
Outpt time (%) = 0.0219843 (0.0989457)
Other time (%) = 8.65317 (38.9456)

Nlocal:    8 ave 8 max 8 min
Histogram: 1 0 0 0 0 0 0 0 0 0
Nghost:    2189 ave 2189 max 2189 min
Histogram: 1 0 0 0 0 0 0 0 0 0
Neighs:    2344 ave 2344 max 2344 min
Histogram: 1 0 0 0 0 0 0 0 0 0

Total # of neighbors = 2344
Ave neighs/atom = 293
Neighbor list builds = 0
Dangerous builds = 0
unfix 20
unfix 21
print "seeds:9266839"
seeds:9266839
