LAMMPS (10 Feb 2015)
# ---- initialize simulations
clear
units metal
dimension 3
boundary p p p
atom_style charge
atom_modify map array
# ---- create atoms
read_data /Users/eugeneragasa/pyflamestk_git/pypospack/tests/tests_integration/workflow/WorkflowLammpsThermalExpansion/param_3867/MgO_NaCl_unit.npt.T1300/lammps.structure
  triclinic box = (0 0 0) to (4.2565 4.2565 4.2565) with tilt (0 0 0)
  1 by 1 by 1 MPI processor grid
  reading atoms ...
  8 atoms
# ---- define interatomic potential
include potential.mod
mass 1 24.305
mass 2 15.999

group Mg type 1
4 atoms in group Mg
group O type 2
4 atoms in group O

set group Mg charge 1.73479148785
  4 settings made for charge
set group O charge -1.73479148785
  4 settings made for charge

variable R_cut equal 10.0

pair_style buck/coul/long ${R_cut}
pair_style buck/coul/long 10
pair_coeff 1 1 0.0 0.5 0.0 ${R_cut}
pair_coeff 1 1 0.0 0.5 0.0 10
pair_coeff 1 2 1225.32983502 0.291530354982 0.0 ${R_cut}
pair_coeff 1 2 1225.32983502 0.291530354982 0.0 10
pair_coeff 2 2 16858.6500597 0.120403294253 7.45918898041 ${R_cut}
pair_coeff 2 2 16858.6500597 0.120403294253 7.45918898041 10

kspace_style pppm 1.0e-5

neighbor 1.0 bin
neigh_modify every 1 delay 0 check yes
# ---- define settings
compute eng all pe/atom
compute eatoms all reduce sum c_eng
# ---- run minimization
reset_timestep 0
fix 1 all box/relax iso 0.0 vmax 0.001
thermo 10
thermo_style custom step pe lx ly lz xy xz yz press pxx pyy pzz pxy pxz pyz c_eatoms
min_style cg
minimize 1e-25 1e-25 5000 10000
PPPM initialization ...
  G vector (1/distance) = 0.3534
  grid = 8 8 8
  stencil order = 5
  estimated absolute RMS force accuracy = 4.23269e-05
  estimated relative force accuracy = 2.93944e-06
  using double precision FFTs
  3d grid and FFT values/proc = 3375 512
Neighbor list info ...
  1 neighbor list requests
  update every 1 steps, delay 0 steps, check yes
  master list distance cutoff = 11
Memory usage per processor = 4.06549 Mbytes
Step PotEng Lx Ly Lz Xy Xz Yz Press Pxx Pyy Pzz Pxy Pxz Pyz eatoms 
       0   -122.62677       4.2565       4.2565       4.2565            0            0            0    18600.794    18600.794    18600.794    18600.794 4.9707872e-11 4.7042733e-11 1.8950886e-10   -122.62677 
       5   -122.63132    4.2712858    4.2712858    4.2712858            0            0            0   -6.7076035   -6.7076035   -6.7076035   -6.7076035 9.5134085e-11 4.9732958e-12 8.6603347e-11   -122.63132 
Loop time of 0.00745606 on 1 procs for 5 steps with 8 atoms

Minimization stats:
  Stopping criterion = linesearch alpha is zero
  Energy initial, next-to-last, final = 
        -122.626768711     -122.631316441     -122.631316441
  Force two-norm initial, final = 2.68597 0.0019334
  Force max component initial, final = 2.68596 0.000975322
  Final line search alpha, max atom move = 0.00390625 3.80985e-06
  Iterations, force evaluations = 5 22

Pair  time (%) = 0.00204611 (27.4422)
Kspce time (%) = 0.00119257 (15.9946)
Neigh time (%) = 0 (0)
Comm  time (%) = 0.000231266 (3.10172)
Outpt time (%) = 0 (0)
Other time (%) = 0.00398612 (53.4615)

Nlocal:    8 ave 8 max 8 min
Histogram: 1 0 0 0 0 0 0 0 0 0
Nghost:    2189 ave 2189 max 2189 min
Histogram: 1 0 0 0 0 0 0 0 0 0
Neighs:    2344 ave 2344 max 2344 min
Histogram: 1 0 0 0 0 0 0 0 0 0

Total # of neighbors = 2344
Ave neighs/atom = 293
Neighbor list builds = 0
Dangerous builds = 0
unfix 1
# ---- define output variables ----
variable natoms equal "count(all)"
variable tot_energy equal "c_eatoms"
variable length_x equal "lx"
variable length_y equal "ly"
variable length_z equal "lz"
variable tilt_xy equal "xy"
variable tilt_xz equal "xz"
variable tilt_yz equal "yz"
variable tot_press equal "press"
variable press_xx equal "pxx"
variable press_yy equal "pyy"
variable press_zz equal "pzz"
variable press_xy equal "pxy"
variable press_xz equal "pxz"
variable press_yz equal "pyz"

# ---- output ----
print "pypospack:output_section:begin"
pypospack:output_section:begin
print "tot_energy = ${tot_energy}"
tot_energy = -122.631316441343
print "num_atoms = ${natoms}"
num_atoms = 8
print "xx = ${length_x}"
xx = 4.27128583299446
print "yy = ${length_y}"
yy = 4.27128583299446
print "zz = ${length_z}"
zz = 4.27128583299446
print "xy = ${tilt_xy}"
xy = 0
print "xz = ${tilt_xz}"
xz = 0
print "yz = ${tilt_yz}"
yz = 0
print "tot_press = ${tot_press}"
tot_press = -6.70760353710228
print "pxx = ${press_xx}"
pxx = -6.70760353705429
print "pyy = ${press_yy}"
pyy = -6.70760353725253
print "pzz = ${press_zz}"
pzz = -6.70760353700002
print "pxy = ${press_xy}"
pxy = 9.51340852761742e-11
print "pxz = ${press_xz}"
pxz = 4.97329584958765e-12
print "pyz = ${press_yz}"
pyz = 8.66033470907354e-11
print "pypospack:output_section:done"
pypospack:output_section:done
print "pypospack:lammps_sim:done"
pypospack:lammps_sim:done
#------------------------------------------------------------------------------
# RUN THERMOSTAT
# running using an NPT Nose-Hoover style thermostat
#------------------------------------------------------------------------------
variable tempdamp equal 0.1
variable pressdamp equal 1.0
# set initial velocities
velocity all create 1300 4424097 mom yes dist gaussian loop all
# fix for Nose-Hoover style thermostat
fix 20 all npt temp 1300 1300 0.1 aniso 0.0 0.0 1.0 drag 1.0 couple xyz
variable boxx equal lx
variable boxy equal ly
variable boxz equal lz
variable boxp equal press
variable boxt equal temp
# calculate averages every 10000 steps
reset_timestep 0
fix 21 all ave/time 10 10 100 v_boxx v_boxy v_boxz v_boxp v_boxt file lattice.out
thermo_style custom step temp pe ke etotal press lx ly lz press pxx pyy pzz pxy pxz pyz vol
thermo_modify flush yes
thermo 100
run 100000
PPPM initialization ...
  G vector (1/distance) = 0.353246
  grid = 8 8 8
  stencil order = 5
  estimated absolute RMS force accuracy = 4.26311e-05
  estimated relative force accuracy = 2.96057e-06
  using double precision FFTs
  3d grid and FFT values/proc = 3375 512
Memory usage per processor = 3.06549 Mbytes
Step Temp PotEng KinEng TotEng Press Lx Ly Lz Press Pxx Pyy Pzz Pxy Pxz Pyz Volume 
       0         1300   -122.63132    1.1762673   -121.45505    16115.824    4.2712858    4.2712858    4.2712858    16115.824    25166.256    5034.7335    18146.484      4507.59    8386.6468    3033.2665    77.924838 
     100    580.79516   -121.82919   0.52551567   -121.30367      4848.61    4.2991904    4.2991904    4.2991904      4848.61    54024.707   -36456.732   -3022.1447   -7400.6977   -2784.8876   -5473.5601    79.462101 
     200    731.05516   -121.65241   0.66147407   -120.99094   -29336.752     4.313837     4.313837     4.313837   -29336.752    25020.385   -74805.197   -38225.446   -15452.776   -27.013644   -14570.983    80.277012 
     300     938.7414   -121.54417   0.84939295   -120.69478    13052.016    4.3018077    4.3018077    4.3018077    13052.016    43896.613    -37320.37    32579.805   -6634.8683   -16857.104   -3669.7978    79.607313 
     400    1180.9607   -121.55203    1.0685581   -120.48347    4368.2447    4.3161504    4.3161504    4.3161504    4368.2447    14821.986   -42368.038    40650.786    18115.611   -2988.9972    7602.5813    80.406234 
     500    1438.9292   -121.64017    1.3019734    -120.3382    9751.4633    4.3199238    4.3199238    4.3199238    9751.4633     81181.15   -52312.673     385.9135    2448.2507     20266.02   -5936.5101    80.617301 
     600    1374.7989   -121.51883    1.2439469   -120.27488    12063.037    4.3178474    4.3178474    4.3178474    12063.037    58560.467     -48157.2    25785.844    -14296.52    14191.793   -9349.6691    80.501112 
     700    1251.3719   -121.40164    1.1322676   -120.26937   -15235.185    4.3357661    4.3357661    4.3357661   -15235.185   -5938.3007   -74239.654    34472.401    6313.1046    9196.4785    7244.1023    81.507494 
     800    1274.6446   -121.40845    1.1533252   -120.25512   -10502.892    4.3437329    4.3437329    4.3437329   -10502.892    44598.944   -78407.715    2300.0961    21531.599    9827.0383    8983.0027    81.957618 
     900    1755.3375   -121.83132    1.5882662   -120.24306     23065.07    4.3121235    4.3121235    4.3121235     23065.07    45312.836   -25189.281    49071.654   -7706.8647    4414.8451   -2041.7054    80.181389 
    1000    1638.6241   -121.73913    1.4826615   -120.25647    18306.221    4.3072814    4.3072814    4.3072814    18306.221    84002.834    -33015.32    3931.1481   -4009.0584   -22276.537   -3068.4355    79.911581 
    1100    484.76899   -120.71523   0.43862917    -120.2766   -36268.492    4.3446587    4.3446587    4.3446587   -36268.492   -37293.941   -103390.22    31878.683    40266.317     4644.681   -3244.0099    82.010038 
    1200    1198.9039   -121.33636    1.0847934   -120.25157   -16619.548    4.3243053    4.3243053    4.3243053   -16619.548   -32619.824    -59601.39    42362.571    21123.056    1766.9184   -4849.7325    80.862847 
    1300    1458.6295   -121.56426    1.3197987   -120.24446    42150.212    4.3094538    4.3094538    4.3094538    42150.212    44197.741   -23043.962    105296.86   -16596.564    7961.7982   -13218.775    80.032554 
    1400    1553.7765   -121.66931    1.4058897   -120.26342   -31643.714    4.3346816    4.3346816    4.3346816   -31643.714   -51654.138   -65062.678    21785.673    24675.022   -2309.1832   -8413.3852    81.446345 
    1500    1087.0027   -121.23492   0.98354293   -120.25138   -4928.7215    4.3296308    4.3296308    4.3296308   -4928.7215   -5976.5506   -52585.048    43775.434    24039.412     3843.706    5088.2278    81.161973 
    1600    1450.6001   -121.55375    1.3125335   -120.24122    4236.7544    4.3198743    4.3198743    4.3198743    4236.7544    33541.789   -36867.909    16036.384   -21748.533    4802.5076   -7622.5863    80.614528 
    1700    1223.5298   -121.35986    1.1070754   -120.25279   -4240.8133    4.3350015    4.3350015    4.3350015   -4240.8133   -12631.519   -51001.062    50910.141    18656.605    29034.977   -18879.794    81.464378 
    1800    1098.6375   -121.23909   0.99407028   -120.24502    2946.6845    4.3332334    4.3332334    4.3332334    2946.6845    16171.198   -65023.245      57692.1    30189.307    8033.1673   -7261.8957    81.364739 
    1900    1523.3775    -121.6103     1.378384   -120.23192    23213.068    4.3189777    4.3189777    4.3189777    23213.068     46515.56   -13564.366     36688.01   -15094.824      15960.9   -1956.0188    80.564348 
    2000    1178.9342   -121.32053    1.0667244   -120.25381    9024.0848    4.3314984    4.3314984    4.3314984    9024.0848    36205.253   -22326.124    13193.124     14254.04   -20070.898     1971.421    81.267045 
    2100    926.13503   -121.08937   0.83798644   -120.25138   -12117.548    4.3432442    4.3432442    4.3432442   -12117.548   -4236.2982   -72582.975     40466.63    30088.928   -9778.2921   -19208.529    81.929963 
    2200    1320.1874   -121.42328    1.1945333   -120.22875    1486.7971     4.331574     4.331574     4.331574    1486.7971    -21075.96   -45614.366    71150.717   -14464.902   -10971.671     4022.005      81.2713 
    2300    1444.5032    -121.5437    1.3070169   -120.23668    7063.4892    4.3253598    4.3253598    4.3253598    7063.4892   -34471.261   -12057.755    67719.484   -2150.1888   -3932.7725      20801.8    80.922019 
    2400    1370.9471   -121.48819    1.2404617   -120.24773    3304.0314     4.336662     4.336662     4.336662    3304.0314   -36784.256    14819.054    31877.296    16151.631   -9585.2299    19036.894     81.55803 
    2500    1605.1357   -121.68632    1.4523605   -120.23396    -31234.14    4.3511634    4.3511634    4.3511634    -31234.14   -35384.994   -10205.953   -48111.474   -12415.729   -848.37896    -1873.368    82.378933 
    2600    1422.7637   -121.50761    1.2873465   -120.22026   -19505.296    4.3447142    4.3447142    4.3447142   -19505.296   -18232.116   -4306.6658   -35977.106   -10002.232   -2742.6643    2083.3263    82.013181 
    2700    1324.4547   -121.42367    1.1983945   -120.22527    5025.0668    4.3265308    4.3265308    4.3265308    5025.0668   -30198.778   -34678.633    79952.612    13863.284   -20836.614    4661.1528     80.98776 
    2800    1142.3654   -121.27009    1.0336362   -120.23645    45332.024    4.3146769    4.3146769    4.3146769    45332.024    6736.1011   -10518.026       139778    1266.5885   -32155.955    5239.5137    80.323912 
    2900    1375.7484   -121.50598    1.2448061   -120.26118   -2934.7128    4.3242563    4.3242563    4.3242563   -2934.7128   -27866.026    -11097.73    30159.618   -5206.1347   -10870.542   -5206.3387    80.860104 
    3000    920.28779   -121.09474   0.83269573   -120.26204   -31378.853    4.3388208    4.3388208    4.3388208   -31378.853   -37990.946   -72903.022     16757.41    25201.891    8507.9318   -8813.6545     81.67989 
    3100    1412.2661   -121.52297     1.277848   -120.24512    5500.0833    4.3203364    4.3203364    4.3203364    5500.0833   -3417.8721   -15854.405    35772.527    16725.894    13698.551   -2564.1102    80.640402 
    3200    1561.9034    -121.6622     1.413243   -120.24896    4434.4007    4.3130568    4.3130568    4.3130568    4434.4007   -10006.799   -30044.897    53354.898   -9379.3033   -7792.1119    2459.7221    80.233462 
    3300    753.00053   -120.94725    0.6813307   -120.26592    17928.997    4.3225932    4.3225932    4.3225932    17928.997    -32611.84   -26370.279    112769.11    24569.422   -1812.4677   -13767.388    80.766843 
    3400    1371.2357   -121.49793    1.2407229    -120.2572   -14854.729    4.3347041    4.3347041    4.3347041   -14854.729   -33001.686   -13409.993    1847.4922    26936.518    6721.9904   -10910.237    81.447615 
    3500    1728.3469   -121.80557    1.5638446   -120.24172   -2603.7525     4.323341     4.323341     4.323341   -2603.7525   -11331.538    -19015.22      22535.5   -10721.254    2089.4213    11596.333    80.808769 
    3600    952.03118   -121.10816   0.86141782   -120.24674    16356.845    4.3165302    4.3165302    4.3165302    16356.845   -21057.671    18050.215    52077.991    15300.403   -12696.197     4254.474    80.427461 
    3700    960.55709   -121.12564   0.86913224   -120.25651   -11423.399    4.3342775    4.3342775    4.3342775   -11423.399    -23565.66    -48160.22    37455.681    30112.944   -19041.897   -5264.0571    81.423568 
    3800    1114.7358   -121.25276    1.0086363   -120.24413    17517.525    4.3284938    4.3284938    4.3284938    17517.525    30894.115    567.74786    21090.713   -10000.495   -14680.281    7524.0833    81.098049 
    3900    1622.1508    -121.7015    1.4677562   -120.23374    14218.017    4.3133815    4.3133815    4.3133815    14218.017    15743.529    13771.471    13139.052   -6022.7412   -5087.7733   -7183.8587    80.251586 
    4000     816.7945   -120.99589   0.73905282   -120.25684   -242.69085    4.3336305    4.3336305    4.3336305   -242.69085    412.88371   -49933.541    48792.585    28560.873   -978.29162   -7824.5151    81.387114 
    4100    1381.4691   -121.49043    1.2499823   -120.24045   -24203.451    4.3310524    4.3310524    4.3310524   -24203.451   -9909.5052   -48531.972   -14168.876    13487.432   -3006.7342   -7276.1554    81.241943 
    4200    1325.8739   -121.42936    1.1996786   -120.22968    50121.732    4.3094771    4.3094771    4.3094771    50121.732    29300.592     33545.86    87518.744    3145.7257   -4252.7282    5564.4876    80.033852 
    4300    1420.2391   -121.54269    1.2850621   -120.25763    -9312.957    4.3348156    4.3348156    4.3348156    -9312.957    -11499.92   -10819.246   -5619.7057    22776.553    1619.2625    23320.851      81.4539 
    4400    1187.3411   -121.31428    1.0743312   -120.23995   -16685.142    4.3440551    4.3440551    4.3440551   -16685.142   -53817.871   -13821.525    17583.969    45685.633   -8414.5734    5161.9739    81.975857 
    4500    1265.0904   -121.36435    1.1446804   -120.21967    28631.223     4.321966     4.321966     4.321966    28631.223    7834.4219    51070.851    26988.397    16459.496   -14037.406     6814.349     80.73169 
    4600    1429.1039   -121.52525    1.2930833   -120.23216    14508.347    4.3189409    4.3189409    4.3189409    14508.347   -13570.971    60339.556   -3243.5433     12109.29     15279.59     2620.492    80.562284 
    4700    1228.7835   -121.35745    1.1118292   -120.24562   -13770.757    4.3351235    4.3351235    4.3351235   -13770.757     -66407.7    26047.574   -952.14608    41488.506     4949.216   -13082.263     81.47126 
    4800    1518.7727   -121.60781    1.3742174    -120.2336   -28025.767    4.3377104    4.3377104    4.3377104   -28025.767   -51617.429   -24890.153    -7569.718    13935.835   -9887.9982    7304.3745    81.617192 
    4900    1269.9491   -121.37613    1.1490766   -120.22705    7005.3937    4.3172601    4.3172601    4.3172601    7005.3937   -459.73437   -5735.7348     27211.65   -11082.284    12019.987   -17094.374    80.468266 
    5000    1363.6703   -121.47041    1.2338776   -120.23654    8753.0399     4.308654     4.308654     4.308654    8753.0399   -4481.0182   -10527.006    41267.144      26482.6    15342.661   -6190.9811    79.988002 
    5100    1366.1117    -121.4953    1.2360866   -120.25922   -12330.822    4.3365472    4.3365472    4.3365472   -12330.822   -62445.252   -20024.415    45477.201    19410.383    11828.623   -1470.0494    81.551553 
    5200    1493.1537   -121.59232    1.3510368   -120.24129   -15490.692     4.334594     4.334594     4.334594   -15490.692   -19888.284   -40847.314    14263.522    231.28148   -7625.2016    18790.572     81.44141 
    5300    970.53087   -121.11318   0.87815673   -120.23502    28602.101    4.3192498    4.3192498    4.3192498    28602.101    31304.875    28182.521    26318.907    6746.6371    8703.7477    14076.888    80.579576 
    5400    1326.3941   -121.44676    1.2001493   -120.24661   -20010.127    4.3390582    4.3390582    4.3390582   -20010.127   -28887.422    13679.114   -44822.072    22927.309    11948.579   -6527.5164    81.693298 
    5500    1592.6873   -121.67177    1.4410969   -120.23067   -2587.8724    4.3302607    4.3302607    4.3302607   -2587.8724    8962.9545    10739.325   -27465.897    5564.4139       6731.3   -4893.7011    81.197401 
    5600     1078.321   -121.20829   0.97568751    -120.2326    28062.282    4.3138496    4.3138496    4.3138496    28062.282    32991.801    13624.173    37570.872   -6954.2841    13630.356    2207.2759    80.277715 
    5700    1082.1515   -121.23044   0.97915341   -120.25129   -25550.541    4.3326889    4.3326889    4.3326889   -25550.541   -9465.4375   -35348.673   -31837.513    11646.404    19185.969    5026.0832    81.334072 
    5800    1508.6243   -121.59474    1.3650349    -120.2297      4082.26      4.31775      4.31775      4.31775      4082.26   -8430.6532    8834.0808    11843.353    10992.155    10944.335   -906.83611    80.495664 
    5900    1537.0089   -121.62383     1.390718   -120.23312    14704.343    4.3084391    4.3084391    4.3084391    14704.343    4956.2185    4485.0415    34671.769   -6460.9887   -14462.642   -6399.5464    79.976039 
    6000    1037.3887   -121.18907   0.93865113   -120.25042   -50109.507    4.3381001    4.3381001    4.3381001   -50109.507   -35538.835   -63537.764   -51251.922   -3374.9165   -11837.312     38172.07    81.639194 
    6100    1362.5768   -121.46556    1.2328881   -120.23267   -8662.1702    4.3210298    4.3210298    4.3210298   -8662.1702   -13799.802   -8331.8827   -3854.8259    3442.7575    2463.9044    31788.335    80.679238 
    6200    1676.5927   -121.74723    1.5170163   -120.23022     28471.27     4.304711     4.304711     4.304711     28471.27    18923.862     39962.99    26526.958   -1706.8179     5279.456    7721.4544    79.768604 
    6300    1046.5224   -121.19753   0.94691546   -120.25062   -8903.4387    4.3262475    4.3262475    4.3262475   -8903.4387   -45388.839    10348.019    8330.5041   -14651.006   -11948.988   -3252.4865    80.971851 
    6400    1061.4902   -121.20472   0.96045863   -120.24427   -4118.6549    4.3184006    4.3184006    4.3184006   -4118.6549    1450.3093     283.3951   -14089.669    5016.0946   -4000.7992    19902.738    80.532054 
    6500    1317.6705   -121.44154     1.192256   -120.24929      20823.1    4.3163168    4.3163168    4.3163168      20823.1    6144.4273   -4415.6876    60740.562    8264.5265    6615.5097    22509.978    80.415533 
    6600    1583.5642   -121.68274    1.4328422    -120.2499   -12847.219    4.3212351    4.3212351    4.3212351   -12847.219    -13188.27   -16218.848   -9134.5387   -8935.4767   -3252.5333   -21153.398    80.690735 
    6700    1104.9755   -121.24281   0.99980506   -120.24301    28770.985     4.299187     4.299187     4.299187    28770.985    19642.191   -4187.2849    70858.048   -8963.9834    4261.6401    -384.9214    79.461911 
    6800    1248.8256   -121.39348    1.1299636   -120.26352   -6230.8453    4.3200313    4.3200313    4.3200313   -6230.8453    22635.807   -9337.0266   -31991.317    2381.8817    815.78942    29555.407    80.623319 
    6900    1645.1591   -121.72594    1.4885745   -120.23737   -38157.979    4.3413029    4.3413029    4.3413029   -38157.979   -13658.452   -24809.022   -76006.464    4435.2236   -2841.3678     10544.73    81.820148 
    7000    1388.4648   -121.49437    1.2563122   -120.23806   -13752.434      4.30916      4.30916      4.30916   -13752.434   -14017.709   -7319.9081   -19919.684   -7992.3209    1832.8167    -24250.84    80.016188 
    7100    745.08481   -120.91683   0.67416839   -120.24266    13054.939    4.2900061    4.2900061    4.2900061    13054.939    32081.999     305.5217    6777.2969   -18332.189    11816.918   -2148.7406    78.953925 
    7200    1439.4039   -121.56896    1.3024029   -120.26656    -19766.18    4.3165454    4.3165454    4.3165454    -19766.18    5981.8835   -15367.028   -49913.396    4147.5287   -8890.0051    37148.591    80.428309 
    7300    1441.3449   -121.55658    1.3041591   -120.25242   -34670.446    4.3409034    4.3409034    4.3409034   -34670.446    2000.4848   -15689.323   -90322.501   -6354.5963   -4231.8336   -24803.068    81.797562 
    7400    1237.7861   -121.38255    1.1199749   -120.26257    2204.3869    4.3002653    4.3002653    4.3002653    2204.3869    62470.871   -26902.379   -28955.331   -867.68694     5731.554   -38244.557    79.521716 
    7500    1163.6022    -121.2967    1.0528517   -120.24385    47985.623    4.2733356    4.2733356    4.2733356    47985.623    36060.432    87720.817    20175.621   -15123.243    2149.6469    12316.301    78.037079 
    7600    1267.7259   -121.42392     1.147065   -120.27686   -24598.819    4.3251473    4.3251473    4.3251473   -24598.819     42943.15   -54025.034   -62714.571   -13624.345    2370.2418    31111.095    80.910095 
    7700    1308.9092   -121.43552    1.1843285   -120.25119    -16550.86    4.3279004    4.3279004    4.3279004    -16550.86    13006.763    11196.633   -73855.975    9659.0116   -21096.088    -6378.769      81.0647 
    7800    1716.2611   -121.78656    1.5529091   -120.23366    5900.4359    4.2912949    4.2912949    4.2912949    5900.4359    15841.972    162.82156    1696.5138    523.89581   -1527.6742   -33893.508    79.025105 
    7900    981.07594   -121.14515   0.88769813   -120.25745      10616.8    4.3025059    4.3025059    4.3025059      10616.8    41067.761   -6042.9679   -3174.3938   -20138.633    8097.0834    22720.007    79.646083 
    8000    1468.0106   -121.58308    1.3282868   -120.25479   -31928.535    4.3165624    4.3165624    4.3165624   -31928.535   -27984.052   -19461.994    -48339.56   -27424.478   -7964.2297    26617.675    80.429261 
    8100    1089.4254   -121.24549   0.98573497   -120.25975    12963.564    4.3128814    4.3128814    4.3128814    12963.564   -14986.749     56500.07   -2622.6283    9057.8469   -11598.282   -8996.3325    80.223673 
    8200    1607.4136    -121.7053    1.4544216   -120.25087    4392.3235    4.3087017    4.3087017    4.3087017    4392.3235   -11812.684    11261.174    13728.481    8191.2983   -3111.9761   -15809.242    79.990662 
    8300    1227.5821   -121.36237    1.1107421   -120.25163    11222.907    4.3090481    4.3090481    4.3090481    11222.907   -5216.3467      57903.1   -19018.033   -6797.8128     24147.64    4346.9048    80.009953 
    8400    1139.2284   -121.29183    1.0307978   -120.26104   -19191.398    4.3090216    4.3090216    4.3090216   -19191.398   -44366.122   -12173.247   -1034.8252   -14872.711   -14667.271    16397.204     80.00848 
    8500    1108.1784   -121.26781    1.0027031    -120.2651    2062.6306    4.3141515    4.3141515    4.3141515    2062.6306   -29121.063    37519.293   -2210.3385    6589.9637    -35618.88    437.24581    80.294569 
    8600    1562.1153   -121.66455    1.4134348   -120.25112   -15317.402    4.3349515    4.3349515    4.3349515   -15317.402   -42593.036    53201.624   -56560.794   -1305.9843    24555.801   -5507.8071     81.46156 
    8700    1001.0104   -121.15353   0.90573526   -120.24779    11142.738    4.3183063    4.3183063    4.3183063    11142.738   -37571.207    102073.86   -31074.437   -10363.616    -1427.366    1503.5207    80.526777 
    8800    786.42671   -120.94429   0.71157541   -120.23272    37616.536     4.295247     4.295247     4.295247    37616.536    3456.2032    97351.321    12042.083   -9663.0211   -38466.688    18603.708    79.243641 
    8900     1241.398   -121.36859     1.123243   -120.24535   -2614.0722    4.3278413    4.3278413    4.3278413   -2614.0722    24546.192    4892.4488   -37280.857   -20300.351    9116.5361    18021.252    81.061376 
    9000    1443.7194   -121.53125    1.3063077   -120.22494   -21436.203    4.3346566    4.3346566    4.3346566   -21436.203   -35627.276    23779.541   -52460.873   -3585.5452    7932.4282   -174.10159    81.444939 
    9100    1009.5967   -121.13121   0.91350433   -120.21771    24580.568    4.2965779    4.2965779    4.2965779    24580.568   -2633.4256     78920.42   -2545.2886   -17617.477   -29680.854    -7460.514    79.317329 
    9200    821.25873   -120.98034   0.74309216   -120.23724     30153.59     4.301113     4.301113     4.301113     30153.59    64705.619    22470.633    3284.5175   -18383.955   -12959.592    16213.869    79.568754 
    9300    1408.3242   -121.50599    1.2742814   -120.23171   -30967.705    4.3375829    4.3375829    4.3375829   -30967.705   -26114.323   -20889.316   -45899.474    6959.6764    15277.834    15445.956    81.609996 
    9400    1234.6909   -121.34709    1.1171743   -120.22991   -3073.1101    4.3182533    4.3182533    4.3182533   -3073.1101   -35319.282     51577.66   -25477.708    1585.3198   -9427.6573   -3230.7448    80.523816 
    9500    834.07409   -120.97544   0.75468777   -120.22076    36611.453    4.2939999    4.2939999    4.2939999    36611.453    7997.5301    103006.98   -1170.1488   -17581.785   -36129.817    8880.8879    79.174636 
    9600    1094.2715   -121.22712   0.99011983     -120.237   -3193.6621     4.325293     4.325293     4.325293   -3193.6621    15775.082   -9212.7353   -16143.334    -10500.45    2992.5788    24150.558    80.918274 
    9700    1317.3332   -121.42129    1.1919507   -120.22934   -10270.468    4.3241517    4.3241517    4.3241517   -10270.468   -10521.808    10584.513   -30874.109    3221.8702   -1106.4107    22258.564    80.854232 
    9800    950.58543   -121.08743   0.86010967   -120.22732    40274.004    4.2974344    4.2974344    4.2974344    40274.004    5564.5881    84412.052     30845.37    818.01059   -47142.072   -10225.514    79.364774 
    9900    1162.6316   -121.30015    1.0519735   -120.24818    10499.249     4.320554     4.320554     4.320554    10499.249     6106.807    32026.614   -6635.6729   -13686.679    -12958.55   -10308.541     80.65259 
   10000    1621.4129   -121.69674    1.4670885   -120.22965     -9751.32    4.3248784    4.3248784    4.3248784     -9751.32   -3938.9048   -4524.2115   -20790.844   -13939.032    17714.743    3878.0823    80.895002 
   10100    892.97297   -121.03947   0.80798071   -120.23149    22764.747    4.2998699    4.2998699    4.2998699    22764.747    26469.396    16256.234     25568.61    15751.224   -34068.624    9723.4147    79.499783 
   10200    1119.5393   -121.25846    1.0129827   -120.24548    2629.3106    4.3084541    4.3084541    4.3084541    2629.3106   -6225.5174    43713.822   -29600.373   -553.60882   -42169.879    552.80208    79.976869 
   10300    1903.4372   -121.95985    1.7222699   -120.23758    -8240.535     4.321494     4.321494     4.321494    -8240.535   -20017.223    1073.6617   -5778.0433   -18890.203    19566.969   -5470.5135    80.705244 
   10400    1244.6779   -121.37332    1.1262107   -120.24711    10633.393    4.3089235    4.3089235    4.3089235    10633.393    15574.878    39203.676   -22878.376   -1504.1739   -13195.661   -5882.2611    80.003013 
   10500    884.73054   -121.04811   0.80052278   -120.24759    11913.596    4.2967424    4.2967424    4.2967424    11913.596    14118.148    46303.001   -24680.362    8234.2895   -49312.208    23317.493    79.326437 
   10600    1332.5099   -121.45538    1.2056829    -120.2497    666.76924    4.3126925    4.3126925    4.3126925    666.76924   -30605.289    57953.907   -25348.311    359.18708    17238.004    9297.8905    80.213135 
   10700    1585.5742   -121.67441    1.4346609   -120.23975    12757.914    4.3135268    4.3135268    4.3135268    12757.914   -2405.4891    37627.262     3051.969   -11179.805    6879.5855   -2406.7485    80.259695 
   10800    1052.0182   -121.19698   0.95188819   -120.24509    10183.569    4.3139505    4.3139505    4.3139505    10183.569   -20314.096    54140.376   -3275.5749   -5002.6309   -55906.059    11968.319    80.283346 
   10900    1660.7298   -121.73157    1.5026632   -120.22891       -27237    4.3322477    4.3322477    4.3322477       -27237   -33164.057    -35556.35   -12990.593   -794.92917    379.57269    11238.536     81.30923 
   11000    1717.1734   -121.78205    1.5537346   -120.22831   -2011.7903    4.3054068    4.3054068    4.3054068   -2011.7903   -20165.756   -352.79946    14483.185    8097.4753    2378.0299    7652.5107    79.807291 
   11100     1002.847   -121.13876   0.90739708   -120.23137    33027.351     4.283269     4.283269     4.283269    33027.351   -20906.813    51259.655    68729.212   -3146.5842   -65361.257   -13356.516    78.582539 
   11200    1561.7075    -121.6697    1.4130658   -120.25663   -35460.942    4.3305427    4.3305427    4.3305427   -35460.942   -56279.582   -10929.962   -39173.281   -6378.9714   -13133.142    3620.3826    81.213265 
   11300    1725.9617   -121.78448    1.5616864   -120.22279   -19392.684     4.330355     4.330355     4.330355   -19392.684   -28750.563   -25547.783   -3879.7044   -1980.0203    11133.782    7557.4583    81.202705 
   11400    1224.1745   -121.31213    1.1076588   -120.20447    18871.762    4.2923496    4.2923496    4.2923496    18871.762    7241.2514    30574.404     18799.63    14095.139   -55311.996    -4239.192    79.083387 
   11500    1365.7212   -121.46732    1.2357332   -120.23159   -7371.1273    4.3051983    4.3051983    4.3051983   -7371.1273   -40965.828    21616.249   -2763.8025    1122.0236   -30299.535   -9860.0159    79.795699 
   11600     1491.336   -121.58216    1.3493921   -120.23277    7809.9104    4.3177066    4.3177066    4.3177066    7809.9104   -2582.6191   -16529.316    42541.667    -1220.648    20685.688   -15641.001    80.493234 
   11700    1009.8739   -121.15623   0.91375515   -120.24247    1949.8323    4.3194487    4.3194487    4.3194487    1949.8323    8202.8144   -3560.5388    1207.2214    3193.0548   -6450.6332    10282.676    80.590705 
   11800    1052.7638   -121.19035   0.95256279   -120.23779    7826.1818    4.3106732    4.3106732    4.3106732    7826.1818   -21537.765    17353.802    27662.509   -2278.3624   -41244.506    2448.1203    80.100515 
   11900    1431.2436   -121.52889    1.2950193   -120.23387    10160.845    4.3054898    4.3054898    4.3054898    10160.845   -28402.957    34112.815    24772.677    2096.8415     6529.073   -13149.628    79.811908 
   12000     1048.104   -121.19219   0.94834649   -120.24384   -5212.3347     4.315425     4.315425     4.315425   -5212.3347   -5892.7338    9966.8459   -19711.116    5834.8345    23557.712   -9700.0393    80.365697 
   12100    1314.0003   -121.42765     1.188935   -120.23871    6799.4189    4.3090113    4.3090113    4.3090113    6799.4189   -1952.4125    42351.573   -20000.904    -10420.15   -20102.332    10930.463    80.007905 
   12200    1682.3582   -121.75993     1.522233    -120.2377   -12625.101    4.3168336    4.3168336    4.3168336   -12625.101   -36666.285   -15439.875    14230.858     18513.55   -15991.678    12952.163    80.444418 
   12300    887.53505   -121.06206   0.80306036     -120.259   -35440.719    4.3044547    4.3044547    4.3044547   -35440.719   -39364.723   -47089.555   -19867.877    16919.865    21873.957   -14955.858    79.754356 
   12400    873.80763    -121.0418   0.79063951   -120.25116    25649.173     4.277521     4.277521     4.277521    25649.173    7495.9096    66184.613    3266.9949   -5802.1387    19274.485   -10270.616    78.266596 
   12500    1823.2585   -121.90316    1.6497226   -120.25344    462.83015    4.3201549    4.3201549    4.3201549    462.83015   -31010.434    31193.115    1205.8091    393.87723   -4836.7219    845.35992    80.630243 
   12600    1394.7326   -121.51325    1.2619834   -120.25127   -24086.355    4.3199696    4.3199696    4.3199696   -24086.355   -32467.888   -14723.049   -25068.129    15866.061    5296.4246     4878.288    80.619868 
   12700    643.37749   -120.81145   0.58214148   -120.22931    40124.523    4.2722483    4.2722483    4.2722483    40124.523    14942.475    77737.743     27693.35    15176.925     30666.17    -10769.98    77.977525 
   12800    1673.0588   -121.76872    1.5138188    -120.2549   -5851.3771    4.3015799    4.3015799    4.3015799   -5851.3771   -4338.9269   -10989.347   -2225.8574   -10837.708    19603.709   -11044.718    79.594672 
   12900    1882.4413   -121.93043    1.7032725   -120.22715   -15064.651    4.3273896    4.3273896    4.3273896   -15064.651    174.22958     1212.671   -46580.854   -4850.7036   -18321.231    7653.9876    81.036001 
   13000    1099.9349   -121.21858   0.99524422   -120.22334   -7608.3882    4.3186416    4.3186416    4.3186416   -7608.3882    24186.916   -17323.691    -29688.39    5235.3631    4997.1278    3779.5119    80.545541 
   13100    1747.3722   -121.79504     1.581059   -120.21398   -9342.5402    4.3111479    4.3111479    4.3111479   -9342.5402   -8631.5112   -5196.9419   -14199.168    19747.024    11757.387   -12045.262    80.126978 
   13200    1780.2143   -121.82643    1.6107753   -120.21566    14382.273    4.2981201    4.2981201    4.2981201    14382.273    22423.218    36343.984   -15620.384    2761.2489   -21965.514   -2270.7341    79.402766 
   13300    897.20349   -121.05394   0.81180857   -120.24213    30052.513    4.3000221    4.3000221    4.3000221    30052.513    56958.733    79689.181   -46490.374   -2279.1711   -14159.242    19720.303    79.508228 
   13400    1323.5066   -121.43925    1.1975366   -120.24171   -26061.975    4.3327546    4.3327546    4.3327546   -26061.975   -38780.524    10225.942   -49631.343    11967.552    16509.149    6266.2072    81.337775 
   13500    1806.3655    -121.8601    1.6344374   -120.22566   -5897.1715    4.3145823    4.3145823    4.3145823   -5897.1715    7911.2806   -3077.0055    -22525.79    9604.8738     464.8322   -6752.7062    80.318626 
   13600    951.18657   -121.07703    0.8606536   -120.21638    25015.962    4.2779382    4.2779382    4.2779382    25015.962    45354.865    55749.445   -26056.424   -1287.5037   -26464.292    8082.5755    78.289501 
   13700    816.84711   -120.99242   0.73910043   -120.25332   -16480.131     4.298759     4.298759     4.298759   -16480.131   -22265.891    25455.005   -52629.506   -9796.2672    13015.052    11858.103    79.438183 
   13800    1653.2437   -121.73051    1.4958896   -120.23462   -10487.465    4.3205212    4.3205212    4.3205212   -10487.465   -1257.7086   -10218.783   -19985.903    4885.3338    23242.782     -262.138    80.650751 
   13900    1558.7005   -121.64094     1.410345   -120.23059   -11463.802    4.3108141    4.3108141    4.3108141   -11463.802     7142.157    -11094.45   -30439.113    7587.2132   -28104.209    571.93251     80.10837 
   14000    543.75084   -120.73392   0.49199719   -120.24193   -13601.076    4.2986537    4.2986537    4.2986537   -13601.076    -16261.88    1214.8641   -25756.211   -4070.8729   -18370.658    13895.589    79.432342 
   14100    1353.8349   -121.46335    1.2249783   -120.23837    6163.3324    4.2945083    4.2945083    4.2945083    6163.3324    1507.2921    18049.553   -1066.8472   -5103.4262    7257.8387    10850.638    79.202763 
   14200    1716.3841   -121.78886    1.5530204   -120.23584   -9746.4992    4.3189405    4.3189405    4.3189405   -9746.4992   -20386.551   -11628.033    2775.0864   -5956.4754    318.66546   -6425.7973    80.562266 
   14300     510.4338   -120.70255   0.46185123    -120.2407   -42680.201    4.3260474    4.3260474    4.3260474   -42680.201   -32801.397   -43708.194   -51531.014    7254.4983   -18057.551   -4358.8033    80.960618 
   14400    961.14656   -121.10588   0.86966561   -120.23622    13506.959    4.2826809    4.2826809    4.2826809    13506.959    55289.498    16975.249   -31743.869    223.04874   -17836.235    5124.0685    78.550172 
   14500    2052.1822   -122.08206    1.8568575   -120.22521    34512.434    4.2811298    4.2811298    4.2811298    34512.434    36702.052    37307.372    29527.878    7938.0534    12345.037    4187.4417    78.464858 
   14600    1059.1449   -121.20617    0.9583366   -120.24783   -34284.532    4.3228483    4.3228483    4.3228483   -34284.532   -5229.1041   -37013.376   -60611.117    6388.5726   -129.11396   -22983.063     80.78114 
   14700     629.6751   -120.81053   0.56974326   -120.24079   -13611.838    4.3139133    4.3139133    4.3139133   -13611.838    59223.277   -20828.797   -79229.994    2537.8715   -25003.916   -16708.103    80.281273 
   14800    2217.9649    -122.2169    2.0068613   -120.21004    18223.874    4.2869319    4.2869319    4.2869319    18223.874    46709.333    4862.1547    3100.1331    13363.702    511.82172    13995.817    78.784311 
   14900    1644.5611   -121.72111    1.4880335   -120.23308   -13971.077    4.3039586    4.3039586    4.3039586   -13971.077    27894.755    -29730.91   -40077.076   -97.976105    5301.8198   -12721.929    79.726784 
   15000    694.23075   -120.87569   0.62815457   -120.24753   -24946.921    4.3103387    4.3103387    4.3103387   -24946.921     39182.97   -41363.738   -72659.995    1931.9794   -12760.768   -33092.708    80.081868 
   15100    1678.6059   -121.75492    1.5188379   -120.23609    6781.1058    4.3044977    4.3044977    4.3044977    6781.1058    47058.456   -18998.098   -7717.0409    9098.8554   -13090.984    1915.3059    79.756748 
   15200     2092.894   -122.11924    1.8936945   -120.22554   -8831.1199    4.3121663    4.3121663    4.3121663   -8831.1199    19322.261    -35168.66   -10646.961    8728.6756    21173.494    1007.3223    80.183778 
   15300    674.34131   -120.84461   0.61015819   -120.23445    1059.1722    4.3046727    4.3046727    4.3046727    1059.1722     64706.02   -18583.629   -42944.874    4887.6474   -6537.3948   -34883.197    79.766475 
   15400    1234.1179   -121.34276    1.1166558    -120.2261    10868.057    4.3063357    4.3063357    4.3063357    10868.057    44008.299   -6066.9226   -5337.2045   -5179.6896    -9543.499   -14151.173    79.858958 
   15500    2114.7671   -122.12386    1.9134857   -120.21037    -9662.567    4.3193704    4.3193704    4.3193704    -9662.567   -12703.804   -11548.855   -4735.0423   -5543.6015      7805.67    3629.3546    80.586325 
   15600    752.78117   -120.91321   0.68113222   -120.23208    15713.866    4.3003474    4.3003474    4.3003474    15713.866    61116.331    9625.8113   -23600.544   -5987.8423   -10462.944   -33032.469    79.526273 
   15700    775.32328   -120.93846    0.7015288   -120.23693    14649.278    4.2974532    4.2974532    4.2974532    14649.278    43032.232    18157.557   -17241.954   -3043.9114   -9120.8997   -28857.917    79.365812 
   15800    2019.9334   -122.04747    1.8276782    -120.2198   -7249.7538      4.31946      4.31946      4.31946   -7249.7538   -18638.338   -4909.1735    1798.2496    258.68205   -7142.4076    11088.566     80.59134 
   15900    844.81456   -120.99015   0.76440597   -120.22575    12146.356    4.3183836    4.3183836    4.3183836    12146.356    54593.136   -14165.469   -3988.5994   -11757.042   -6208.6423   -34035.224    80.531105 
   16000    720.92763   -120.86955   0.65231047   -120.21724    3198.1078    4.3103363    4.3103363    4.3103363    3198.1078      33815.8   -553.79635   -23667.681      2825.87   -54.088701   -39705.768    80.081734 
   16100    1904.3021   -121.92644    1.7230526   -120.20338    7901.0159     4.300358     4.300358     4.300358    7901.0159   -9026.0162    7305.3278    25423.736   -13276.551   -2484.9713    11696.449     79.52686 
   16200    1155.8463     -121.274     1.045834   -120.22817    1185.6774    4.3025177    4.3025177    4.3025177    1185.6774    4549.0066   -20781.286    19789.312   -23333.727    5074.4963   -27123.686    79.646736 
   16300    514.28548   -120.71221   0.46533631   -120.24688   -28076.954    4.3089593    4.3089593    4.3089593   -28076.954    17563.945   -48270.191   -53524.617   -14836.904   -6536.5979   -51400.687     80.00501 
   16400    1469.5832   -121.56715    1.3297097   -120.23744    9181.8162    4.2954116    4.2954116    4.2954116    9181.8162    17330.283    8922.7671    1292.3986    1047.5641   -13934.769   -8661.1448    79.252754 
   16500    1658.9205   -121.73892    1.5010261   -120.23789    12104.386    4.3013233    4.3013233    4.3013233    12104.386    10157.613   -4052.7981    30208.344   -3948.6712   -6327.3727    7763.3747    79.580429 
   16600    633.96529   -120.82492   0.57362512   -120.25129   -25263.583    4.3127178    4.3127178    4.3127178   -25263.583    32167.644   -51136.812    -56821.58   -19737.342   -1159.9218   -41070.566    80.214547 
   16700    1022.7946   -121.16114   0.92544606   -120.23569    531.33658    4.3051762    4.3051762    4.3051762    531.33658    10604.635   -9620.9975    610.37259   -3474.9896   -36.576522    -30443.86    79.794471 
   16800    1892.2079   -121.93155    1.7121094   -120.21944   -5925.6098    4.3063745    4.3063745    4.3063745   -5925.6098    -20376.28   -8729.5879    11329.039    1227.2825   -1248.1789    13922.112    79.861119 
   16900    887.06814   -121.04451    0.8026379   -120.24187   -3506.1769    4.2964205    4.2964205    4.2964205   -3506.1769    13932.094   -25232.942    782.31696   -3507.3344    3089.0356   -22881.269     79.30861 
   17000    778.64203   -120.95759   0.70453167   -120.25305    2879.9258    4.2951374    4.2951374    4.2951374    2879.9258    5042.1583   -10314.497    13912.116   -18594.339    -20514.38    -41365.95    79.237575 
   17100    1773.4107   -121.84449    1.6046193   -120.23987    -18624.67    4.3195627    4.3195627    4.3195627    -18624.67     -48898.7   -3381.6596   -3593.6496   -1036.4508   -3819.2761    -267.7411    80.597085 
   17200    1472.7664    -121.5699      1.33259   -120.23731   -1878.0495    4.3081275    4.3081275    4.3081275   -1878.0495   -21393.622   -19010.718    34770.191    23575.228    6332.0109    10784.437    79.958685 
   17300    899.07825   -121.04631   0.81350489   -120.23281    11091.224    4.2933903    4.2933903    4.2933903    11091.224    10596.144   -5531.4246    28208.951    2722.4311    -1032.215   -34314.498    79.140925 
   17400    1727.2608   -121.79473    1.5628619   -120.23186   -11678.783    4.3132577    4.3132577    4.3132577   -11678.783   -22434.771   -15880.605    3279.0271   -5655.8553    -2906.693   -24886.248    80.244676 
   17500    1957.1808   -121.99441    1.7708983   -120.22351   -9158.0229    4.3141782    4.3141782    4.3141782   -9158.0229   -27323.209   -8381.4197      8230.56    13395.209   -9323.5375    23068.464    80.296061 
   17600    890.06391   -121.03807   0.80534853   -120.23272   -8562.5881    4.3004758    4.3004758    4.3004758   -8562.5881    15838.997   -31513.714   -10013.048    17273.399    -772.1353   -13777.499    79.533396 
   17700    1481.5605   -121.57441    1.3405471   -120.23386   -971.04231    4.2987016    4.2987016    4.2987016   -971.04231    30379.442   -26240.885   -7051.6839   -12525.951    150.89648   -17362.105    79.435002 
   17800    2097.3633   -122.12241    1.8977384   -120.22467    -4644.298    4.3155905    4.3155905    4.3155905    -4644.298   -15200.815   -19368.414    20636.336    3488.3608   -6437.9851    5688.2716    80.374947 
   17900    1318.7232   -121.43321    1.1932084      -120.24    -609.4233    4.3048077    4.3048077    4.3048077    -609.4233    3067.3394   -22412.293    17516.684     33886.95    1663.5314    2949.9587    79.773982 
   18000    950.20094   -121.10353   0.85976178   -120.24377    20716.923     4.293927     4.293927     4.293927    20716.923     28390.65   -7855.8605    41615.979    8431.4183   -1038.4441   -19336.329    79.170606 
   18100    1904.9001   -121.96196    1.7235937   -120.23837   -13624.714    4.3151065    4.3151065    4.3151065   -13624.714   -3328.8841   -17386.346   -20158.913   -10324.536    2268.9568   -10189.034    80.347904 
   18200    1465.1127   -121.56235    1.3256648   -120.23669    5175.9072    4.3100737    4.3100737    4.3100737    5175.9072     -6435.41    18852.066    3111.0651    15126.682   -10354.636    12279.163    80.067096 
   18300    565.51112   -120.75113   0.51168634   -120.23944    5995.8741    4.3008962    4.3008962    4.3008962    5995.8741   -30966.571    9945.4043    39008.789     20594.57   -9236.3725   -16300.907    79.556722 
   18400    1560.6936   -121.64397    1.4121484   -120.23182   -14083.031    4.3092494    4.3092494    4.3092494   -14083.031   -21245.609    -17644.48   -3359.0036   -9932.1848   -6292.2779   -9689.0829     80.02117 
   18500    1706.5465   -121.77071    1.5441192   -120.22659    16370.722    4.3020054    4.3020054    4.3020054    16370.722    14449.277    23098.287    11564.601    7457.0807   -2976.2185    6566.4095    79.618292 
   18600    805.76279   -120.97241    0.7290711   -120.24333   -2951.1023    4.3037153    4.3037153    4.3037153   -2951.1023   -22626.177   -7511.0789    21283.949    36080.613   -1764.2775    2877.0942    79.713265 
   18700    1051.6693   -121.19007    0.9515725    -120.2385   -19264.236    4.3114838    4.3114838    4.3114838   -19264.236   -36220.742   -52832.171    31260.205   -7448.0994   -8875.0932    -6541.474    80.145711 
   18800    1752.9301   -121.81172     1.586088   -120.22563    13568.183    4.2963715    4.2963715    4.2963715    13568.183    16908.517    2372.2425    21423.789   -14913.734    7164.9533   -6479.7282    79.305895 
   18900    1131.3894   -121.26949    1.0237049   -120.24578   -9289.9954    4.2983503    4.2983503    4.2983503   -9289.9954    -5863.418   -30665.183    8658.6144    38005.235    2615.0652    25376.541    79.415525 
   19000    834.66035   -121.00806   0.75521822   -120.25284   -23810.656    4.3077372    4.3077372    4.3077372   -23810.656   -18813.695   -57687.096    5068.8236    30828.773   -2345.2234     1808.814    79.936957 
   19100    1756.8514   -121.82862    1.5896361   -120.23898    8784.5866    4.2978095    4.2978095    4.2978095    8784.5866    22017.775   -12427.189    16763.174   -14616.644   -7037.2224   -4996.6663    79.385556 
   19200    1701.3161   -121.77968    1.5393866   -120.24029    7394.5821    4.2975525    4.2975525    4.2975525    7394.5821   -5621.0664   -12324.012    40128.825    21533.855    1957.5334     3283.891    79.371315 
   19300    856.98249   -121.02787   0.77541577   -120.25245   -12279.503    4.3022531    4.3022531    4.3022531   -12279.503   -13806.683   -42117.052    19085.225    56792.204    4634.9225    11537.401    79.632046 
   19400    1142.5268   -121.28311    1.0337823   -120.24933    16172.833    4.3019935    4.3019935    4.3019935    16172.833    13954.443    -9162.529    43726.585   -406.99373    843.61954    12875.738    79.617633 
   19500    2014.2704   -122.05526    1.8225542    -120.2327    10497.891    4.3016551    4.3016551    4.3016551    10497.891    10318.842    4677.1947    16497.637   -8829.3544    588.69699   -13858.702    79.598845 
   19600    994.66805   -121.14132   0.89999656   -120.24132    18316.844     4.302394     4.302394     4.302394    18316.844    1481.0549    6935.1591    46534.317    59460.085   -13843.977    6760.3992    79.639871 
   19700    1309.8884   -121.42638    1.1852145   -120.24117   -8596.5633    4.3052108    4.3052108    4.3052108   -8596.5633   -8521.9885   -26956.117    9688.4152    33119.874    4932.9898    356.93211    79.796395 
   19800    1840.2877   -121.89387     1.665131   -120.22874    15627.939    4.2992543    4.2992543    4.2992543    15627.939    34035.511    5396.0451    7452.2607   -16026.065     1710.377     7543.609    79.465646 
   19900    1193.1218   -121.32106    1.0795617    -120.2415    9603.2913    4.2989499    4.2989499    4.2989499    9603.2913   -22640.179    18209.103    33240.951    47623.967   -6945.8312    2358.2157    79.448763 
   20000    950.97407   -121.10902   0.86046133   -120.24856   -10923.146    4.3069448    4.3069448    4.3069448   -10923.146   -56711.308   -5717.7434    29659.614    52437.559    -13226.91    1135.8352    79.892849 
   20100    1855.9597   -121.91117    1.6793113   -120.23186     8952.843     4.298975     4.298975     4.298975     8952.843    694.95141    3841.8315    22321.746   -15955.599   -5040.2601    22107.271    79.450157 
   20200    1290.8286   -121.40876    1.1679688   -120.24079    11512.098    4.2983035    4.2983035    4.2983035    11512.098   -19662.984    17981.244    36218.035    22539.813    15901.994    2592.0435    79.412933 
   20300    859.50484   -121.02356   0.77769804   -120.24586   -18247.382    4.3072253    4.3072253    4.3072253   -18247.382   -57889.107   -34548.763    37695.725    69639.322   -10718.578    942.69716    79.908462 
   20400    1777.9006   -121.84041    1.6086819   -120.23173    8009.5157    4.2964501    4.2964501    4.2964501    8009.5157    200.30788    500.05645    23328.183   -2845.2187   -8956.6172   -14813.471    79.310248 
   20500    1462.7572   -121.56355    1.3235334   -120.24002    14793.483     4.296107     4.296107     4.296107    14793.483   -2688.8565    5874.6137    41194.691    1919.9738   -4322.2084     9365.532    79.291251 
   20600    704.46048   -120.89049   0.63741064   -120.25308    -20263.15    4.3097327    4.3097327    4.3097327    -20263.15   -19367.932   -80607.034    39185.518    76013.182    8775.5391    24925.107    80.048097 
   20700    1416.7571   -121.51732    1.2819116   -120.23541     4898.485    4.3055565    4.3055565    4.3055565     4898.485    15288.565   -30857.883    30264.773      12672.9    11069.412    3346.5747    79.815617 
   20800    1629.1027   -121.70084    1.4740464   -120.22679    12174.506    4.3038132    4.3038132    4.3038132    12174.506    10469.249    11194.834    14859.434   -10313.074   -5146.9876   -6141.4641    79.718703 
   20900    548.56641   -120.73826   0.49635441   -120.24191   -14232.763    4.3112108    4.3112108    4.3112108   -14232.763    3120.5901   -59299.539    13480.658    66859.472   -7739.1156    7399.1482    80.130485 
   21000    1148.2355   -121.28022    1.0389476   -120.24127   -17394.018    4.3032468    4.3032468    4.3032468   -17394.018    1973.8662   -48148.413    -6007.506    45453.963    6916.8858     13768.17    79.687235 
   21100     1773.216   -121.83783    1.6044431   -120.23339    32694.401    4.2862915    4.2862915    4.2862915    32694.401    46492.427    52692.295   -1101.5198    -28025.57      10077.2    2546.9499    78.749011 
   21200    1191.7196   -121.33783    1.0782929   -120.25954    6.0361793    4.2992486    4.2992486    4.2992486    6.0361793   -2206.3431   -4937.6037    7162.0553    32797.932   -5425.7351   -14003.864    79.465327 
   21300    636.19155   -120.83511   0.57563949   -120.25947   -30407.462    4.3187136    4.3187136    4.3187136   -30407.462   -51860.271   -35671.721   -3690.3936    67693.841    -8241.241   -4467.1267    80.549567 
   21400    1765.1472   -121.83958    1.5971423   -120.24243    672.49927    4.2976988    4.2976988    4.2976988    672.49927   -2213.3131    9671.3823   -5440.5714   -3426.4121    -4567.874     8446.809    79.379423 
   21500    1951.8729   -122.00149    1.7660957    -120.2354    18687.437    4.2864493    4.2864493    4.2864493    18687.437    7242.4559    29702.135    19117.722   -207.21421    3509.4698   -10450.663     78.75771 
   21600    724.19593   -120.91429    0.6552677   -120.25902   -28522.153    4.3177846    4.3177846    4.3177846   -28522.153   -89186.055   -20189.102    23808.697    71440.578   -8432.9184   -7864.2854    80.497599 
   21700    1179.8791   -121.31319    1.0675794   -120.24561   -19014.548    4.3137598    4.3137598    4.3137598   -19014.548   -51873.386    2538.3082   -7708.5661    27130.818    -12201.08   -7528.9382    80.272703 
   21800    1912.8463   -121.95319    1.7307835    -120.2224    37284.727    4.2769613    4.2769613    4.2769613    37284.727    11272.349    77397.168    23184.663   -17821.552    261.28056   -278.74172    78.235878 
   21900    1048.1424   -121.20163   0.94838129   -120.25325    1005.8576    4.2943438    4.2943438    4.2943438    1005.8576   -32558.163   -19400.362    54976.098    61134.527    16331.999    612.52174    79.193664 
   22000    930.01957   -121.08514   0.84150125   -120.24364   -38488.534    4.3203969    4.3203969    4.3203969   -38488.534   -61210.787   -60567.374    6312.5599    54890.687   -9127.0112   -4160.5092    80.643792 
   22100    1600.6314   -121.67497    1.4482849   -120.22668   -1858.9904    4.2978016    4.2978016    4.2978016   -1858.9904   -939.73591    8708.4826   -13345.718   -24186.406    -19635.75   -11023.484    79.385116 
   22200    1258.0246   -121.36947    1.1382871   -120.23118   -6439.3791    4.2913645    4.2913645    4.2913645   -6439.3791   -13905.051   -12675.207    7262.1204     15106.65    7890.4116   -10187.841    79.028951 
   22300    696.19325   -120.87848   0.62993028   -120.24855   -26699.624    4.2989043    4.2989043    4.2989043   -26699.624   -49469.893   -60366.771     29737.79    80854.529    17813.349    4934.4155    79.446235 
   22400    1464.0094   -121.57139    1.3246665   -120.24672   -6371.3274    4.2912691    4.2912691    4.2912691   -6371.3274        -8638   -3927.7747   -6548.2075    8243.2059     -6948.52    8998.3769    79.023679 
   22500    1512.2711   -121.61669    1.3683347   -120.24836   -31707.436    4.3121757    4.3121757    4.3121757   -31707.436   -23674.613   -33941.852   -37505.842    -10180.48    -34155.23    3498.0492    80.184299 
   22600    616.92533    -120.8204   0.55820701   -120.26219   -39571.183    4.3044526    4.3044526    4.3044526   -39571.183   -49889.123   -82770.965    13946.541    70505.875     5555.063    -10054.03    79.754242 
   22700    1094.6479   -121.23115   0.99046044   -120.24069    31822.872    4.2636506    4.2636506    4.2636506    31822.872    56518.768   -11199.064    50148.912    44261.857    14372.662    1322.3676    77.507694 
   22800    1761.9135   -121.85365    1.5942164   -120.25943    4773.4832    4.2988614    4.2988614    4.2988614    4773.4832    43879.107   -8014.0058   -21544.652   -15186.452   -2329.8255    16850.137    79.443858 
   22900    1103.6231   -121.24484   0.99858133   -120.24626    -37502.59    4.3224788    4.3224788    4.3224788    -37502.59   -30922.697   -68768.509   -12816.563    30292.385   -13156.404   -496.99101     80.76043 
   23000    699.63735   -120.87079   0.63304658   -120.23774    14484.605    4.2867722    4.2867722    4.2867722    14484.605    4418.0357   -19551.653    58587.433    76463.124   -14083.797   -9928.5749    78.775511 
   23100    1744.4234   -121.81535     1.578391   -120.23696    17425.512    4.2941516    4.2941516    4.2941516    17425.512    30160.814    24038.263   -1922.5406   -3992.6277     7901.742    -1662.183    79.183031 
   23200     1776.549   -121.84337    1.6074589   -120.23591   -1056.9502    4.3033503    4.3033503    4.3033503   -1056.9502    4146.6793    17147.438   -24464.968   -10142.336    2255.2948    10802.411    79.692984 
   23300     833.3362   -121.00697    0.7540201   -120.25295    15320.328    4.2877119    4.2877119    4.2877119    15320.328    3615.5543    7048.1058    35297.324    63098.998   -7638.2361    6517.0387    78.827327 
   23400    1227.1225   -121.37381    1.1103262   -120.26348   -22070.745    4.3016706    4.3016706    4.3016706   -22070.745   -17510.376   -36378.711    -12323.15    36329.117   -12034.672   -16749.217    79.599702 
   23500    1953.8557   -122.01394    1.7678897   -120.24605   -15389.733    4.3042863    4.3042863    4.3042863   -15389.733     10646.19   -10153.389   -46662.001   -16017.087   -6108.7935   -14854.147    79.745001 
   23600    1509.7911   -121.61611    1.3660907   -120.25002    6401.0668    4.2884319    4.2884319    4.2884319    6401.0668     12715.06    10475.854   -3987.7142    34946.549    8366.4322    14785.903    78.867043 
   23700    958.62741   -121.12925   0.86738623   -120.26187    8479.1582    4.2945629    4.2945629    4.2945629    8479.1582   -25483.139    37488.194     13432.42    65245.437   -7516.8714    12888.827    79.205785 
   23800    1457.2874   -121.56793    1.3185842   -120.24935    -4558.244    4.3115074    4.3115074    4.3115074    -4558.244   -19531.256    43617.093   -37760.569    2078.7592   -17638.583   -16514.211    80.147023 
   23900    1641.2897   -121.72435    1.4850734   -120.23928   -11394.026     4.306369     4.306369     4.306369   -11394.026    9396.3118   -14558.868   -29019.523   -9591.2317    835.67665   -27900.288     79.86081 
   24000    1146.1627   -121.28239    1.0370721   -120.24532   -8950.6679    4.2895417    4.2895417    4.2895417   -8950.6679    -14886.78   -45952.918    33987.694    60705.862    4082.0052    2499.8911    78.928288 
   24100    1316.7955   -121.43862    1.1914643   -120.24716    8411.1947    4.2831508    4.2831508    4.2831508    8411.1947   -3017.8638   -6794.2415    35045.689    42903.388   -2015.9569    8316.8019    78.576031 
   24200    1330.0507   -121.46062    1.2034578   -120.25717    15282.608    4.2990853    4.2990853    4.2990853    15282.608    34376.966    35752.289   -24281.433   -20863.012   -1348.6791   -20711.247    79.456271 
   24300    1037.0593   -121.19095   0.93835303   -120.25259    5732.9161    4.3133792    4.3133792    4.3133792    5732.9161    14244.562    7526.2317   -4572.0458    -4569.288   -7368.0508   -16540.706    80.251457 
   24400    1122.4193   -121.25845    1.0155886   -120.24286     1844.693    4.3058011    4.3058011    4.3058011     1844.693   -29983.246    -13206.25    48723.575    48076.103    6726.4202    15642.011    79.829224 
   24500    1351.5084   -121.45999    1.2228732   -120.23711    14508.179    4.2853956    4.2853956    4.2853956    14508.179    17700.713     222.8713    25600.954    23239.726    9343.9966    2742.6192    78.699643 
   24600    1317.3705   -121.43616    1.1919845   -120.24418    10663.485    4.2826059    4.2826059    4.2826059    10663.485    25587.206   -1577.5687    7980.8173   -16424.527    3985.3713   -33064.289    78.546045 
   24700    1205.4609   -121.34685    1.0907264   -120.25612    -23146.13    4.3095925    4.3095925    4.3095925    -23146.13   -41043.684   -38693.411    10298.704    15744.573   -5328.3991   -22145.379    80.040281 
   24800    1331.4383   -121.44522    1.2047134   -120.24051   -22754.595    4.3139962    4.3139962    4.3139962   -22754.595   -58289.259   -20247.487    10272.961    48826.353    6446.6519    8889.7225    80.285896 
   24900    1084.1361   -121.21851   0.98094912   -120.23757    2459.2983    4.2911612    4.2911612    4.2911612    2459.2983   -8153.4196    22432.333   -6901.0183    19948.946     17968.47   -7649.7196    79.017721 
   25000    1139.0835   -121.27445    1.0306667   -120.24379    12083.657    4.2834398    4.2834398    4.2834398    12083.657     10742.18    46485.802   -20977.012   -11895.933    7427.2064   -22024.741    78.591936 
   25100    1492.8638   -121.60379    1.3507745   -120.25302   -1119.0813    4.2984498    4.2984498    4.2984498   -1119.0813    -17941.93    3859.2449    10725.441   -22029.857   -4080.2104   -9702.5669    79.421041 
   25200    1048.6244   -121.20409   0.94881742   -120.25528   -16397.294     4.312029     4.312029     4.312029   -16397.294    -36909.12   -14523.984    2241.2227    1709.3964    14688.738    10341.305    80.176116 
   25300    1200.6209   -121.32857     1.086347   -120.24223   -2610.3245    4.3034325    4.3034325    4.3034325   -2610.3245   -1907.2723    9055.8998   -14979.601    20471.975    18815.985    3518.8947    79.697553 
   25400    1789.5761   -121.85071    1.6192461   -120.23147   -2979.1913    4.2948468    4.2948468    4.2948468   -2979.1913   -9303.7039    8965.2461   -8599.1161   -21648.715    4518.9208   -7063.7732    79.221494 
   25500    1367.6235   -121.48403    1.2374545   -120.24658   -5550.5229    4.2881663    4.2881663    4.2881663   -5550.5229   -23944.219   -14083.296    21375.946   -41043.925   -11792.311   -10523.659     78.85239 
   25600    1102.6177   -121.25895   0.99767165   -120.26128    17381.946    4.2898195    4.2898195    4.2898195    17381.946   -8653.4338    50711.313    10087.959    761.78173    2968.0991    -735.1427    78.943622 
   25700    1612.4845   -121.71852    1.4590098   -120.25951   -5362.0265    4.3097364    4.3097364    4.3097364   -5362.0265    2949.9128    13091.818    -32127.81     32341.89    15292.556    22628.693    80.048302 
   25800    1562.4903   -121.66607    1.4137741    -120.2523    13852.547    4.2950349    4.2950349    4.2950349    13852.547    28382.975    24615.068   -11440.402   -9098.2494   -3720.3787    10533.144    79.231904 
   25900    1102.8323   -121.24978   0.99786585   -120.25191    9857.0621    4.2844332    4.2844332    4.2844332    9857.0621   -10935.723    24500.209    16006.701    -41795.47   -7593.0712   -10012.981    78.646629 
   26000    1013.2343   -121.17296   0.91679567   -120.25616   -26357.717    4.3012681    4.3012681    4.3012681   -26357.717   -40107.377   -32565.956   -6399.8188    6968.6854    7339.3647    3799.9924    79.577363 
   26100    1592.7846   -121.68668     1.441185   -120.24549   -5331.7035    4.2933783    4.2933783    4.2933783   -5331.7035   -639.86671   -2196.2673   -13158.976    30454.047    6828.1003    13904.756     79.14026 
   26200    1138.5525    -121.2839    1.0301862   -120.25372    -6318.366    4.2938876    4.2938876    4.2938876    -6318.366   -24467.508    37028.187   -31515.777    -27885.61   -13411.811   -138.97966    79.168424 
   26300    560.04389   -120.77153   0.50673948   -120.26479    -35089.03    4.3021678    4.3021678    4.3021678    -35089.03   -65146.131   -5832.5456   -34288.412   -26128.728   -6237.2514   -8761.7944    79.627308 
   26400    1160.6186   -121.30966    1.0501521    -120.2595    1373.9197    4.2893049    4.2893049    4.2893049    1373.9197    437.13688    6125.7521     -2441.13     23339.48    12050.641   -104.52618    78.915218 
   26500    1960.4854   -122.02298    1.7738884   -120.24909    15728.686    4.2882069    4.2882069    4.2882069    15728.686    9167.1822    44750.224   -6731.3494     16020.39   -2481.4969    6942.1279    78.854628 
   26600    1156.9639   -121.31339    1.0468452   -120.26654   -2195.5339    4.2971676    4.2971676    4.2971676   -2195.5339    11701.965    11045.325   -29333.892   -12555.901   -22449.939   -785.89476     79.34999 
   26700    574.23823   -120.79627   0.51958282   -120.27669   -21296.572    4.2985812    4.2985812    4.2985812   -21296.572   -49733.181    24841.685    -38998.22   -33485.015   -2509.7065   -14108.094    79.428324 
   26800     1305.799   -121.44235    1.1815144   -120.26084   -479.62212    4.2993561    4.2993561    4.2993561   -479.62212    -3791.689    36495.591   -34142.769    -5595.183    18195.236    414.38042    79.471287 
   26900    1817.4152   -121.89159    1.6444355   -120.24716   -3236.8806    4.2977668    4.2977668    4.2977668   -3236.8806    25247.499    2795.4067   -37753.548    11582.653    -10107.38    22498.881    79.383188 
   27000     1130.568   -121.28145    1.0229617   -120.25849    2818.0891    4.2842275    4.2842275    4.2842275    2818.0891    -24697.28    58504.463   -25352.916   -12427.442   -20504.302    10006.557    78.635302 
   27100    921.08698   -121.09981   0.83341886   -120.26639    11031.208    4.2894757    4.2894757    4.2894757    11031.208   -8765.1599    58986.991   -17128.207   -31540.618    3321.9712   -5673.1839    78.924643 
   27200    1671.4353   -121.76534    1.5123498   -120.25299   -5557.6246    4.3115129    4.3115129    4.3115129   -5557.6246    30386.285   -5191.2605   -41867.898   -8746.2186     9455.697    4876.7388    80.147332 
   27300    1703.3526    -121.7877    1.5412292   -120.24647    11628.392    4.2984878    4.2984878    4.2984878    11628.392    39663.238    24242.872   -29020.935     26369.55   -8422.8508    14891.166    79.423148 
   27400    1040.6881   -121.18845   0.94163647   -120.24681    6210.5868    4.2888331    4.2888331    4.2888331    6210.5868     15389.98     16262.55    -13020.77   -1938.0655   -13578.595    3291.1185    78.889177 
   27500    1369.4196   -121.48838    1.2390796    -120.2493   -21937.636    4.3052285    4.3052285    4.3052285   -21937.636   -34691.148   -1504.3394   -29617.422   -31632.998    3464.0084   -12252.008    79.797378 
   27600    1822.7771   -121.89356     1.649287   -120.24427   -5106.9966    4.2986605    4.2986605    4.2986605   -5106.9966    7176.9244   -8109.2879   -14388.626   -7534.8886    3835.6065    -7488.382    79.432721 
   27700    1250.6711    -121.3851    1.1316335   -120.25346    20462.396    4.2870061    4.2870061    4.2870061    20462.396    21350.197    30877.171    9159.8214    35038.125   -9141.6163     3992.864    78.788406 
   27800     998.3335   -121.16696   0.90331313   -120.26364   -10455.198    4.2985824    4.2985824    4.2985824   -10455.198   -30326.242    2015.6254   -3054.9777    14954.831   -22700.455    10603.893    79.428393 
   27900    1341.1157   -121.46722    1.2134696   -120.25375    9355.4738    4.2974694    4.2974694    4.2974694    9355.4738    8121.3566    24883.873   -4938.8082   -14916.443   -1775.2062   -16117.106    79.366712 
   28000    1582.5286   -121.67514    1.4319051   -120.24324    11567.854    4.2971245    4.2971245    4.2971245    11567.854    35361.528   -7085.0403    6427.0739   -4375.3136    11712.224   -31258.553      79.3476 
   28100    1049.0827   -121.19527   0.94923208   -120.24603   -28222.344    4.3085523    4.3085523    4.3085523   -28222.344   -47920.959   -31061.061   -5685.0135    39709.212   -10962.301   -428.20896    79.982342 
   28200    1273.8357   -121.40002    1.1525933   -120.24743    -7963.668    4.2880915    4.2880915    4.2880915    -7963.668   -38245.241    7773.9493     6580.288    35830.287   -17059.805    10860.273    78.848264 
   28300    1759.8425   -121.83565    1.5923425    -120.2433    22229.075    4.2762503    4.2762503    4.2762503    22229.075    36098.447    18417.252    12171.526   -17687.795   -8683.7016   -30220.042    78.196868 
   28400    1332.8566   -121.45914    1.2059967   -120.25315    -20260.97    4.3047326    4.3047326    4.3047326    -20260.97    196.91142   -29376.514   -31603.308    13994.578    2806.7601   -37025.105    79.769809 
   28500    936.28733   -121.10414   0.84717245   -120.25697   -12113.828    4.3000619    4.3000619    4.3000619   -12113.828   -37329.642    11933.703   -10945.546    48448.914   -6231.9703    526.16177    79.510436 
   28600    1122.4614   -121.26329    1.0156267   -120.24766    20716.718    4.2869503    4.2869503    4.2869503    20716.718    25446.826    32595.099    4108.2305    21220.672    -19987.65    8725.6433    78.785326 
   28700     1364.995    -121.4785    1.2350762   -120.24342    20.662369    4.2997062    4.2997062    4.2997062    20.662369    33621.473     5406.284    -38965.77   -11721.148   -728.64485   -23706.162    79.490702 
   28800    1262.2297   -121.39022     1.142092   -120.24812   -3069.8003    4.2923165    4.2923165    4.2923165   -3069.8003    11396.294   -8026.1194   -12579.576    3866.6031    7966.3641   -24552.926    79.081557 
   28900    940.88125   -121.10486   0.85132913   -120.25353    7650.5956    4.2868873    4.2868873    4.2868873    7650.5956    5171.8288   -12030.603    29810.561    34469.863   -12784.513    4695.9727    78.781856 
   29000    1366.2243   -121.48794    1.2361884   -120.25175   -13854.143     4.302253     4.302253     4.302253   -13854.143   -26000.514   -10150.009   -5411.9062    22785.265   -14578.937    2092.4599     79.63204 
   29100    1509.3773   -121.61251    1.3657163   -120.24679   -10954.186    4.2997866    4.2997866    4.2997866   -10954.186   -1883.6675   -26350.721    -4628.168   -24811.613   -166.44301   -13230.057    79.495164 
   29200    1121.3611   -121.26707    1.0146311   -120.25244    3826.6675    4.2853179    4.2853179    4.2853179    3826.6675   -15719.219   -21258.111    48457.332   -16040.487    12146.205   -18883.546    78.695361 
   29300    1441.9907   -121.56054    1.3047435   -120.25579    3307.4737    4.2911111    4.2911111    4.2911111    3307.4737   -36745.429    23548.714    23119.137    14382.445   -2216.3535   -3206.8168    79.014951 
   29400    1553.7962   -121.65644    1.4059074   -120.25053   -9728.2886    4.3056438    4.3056438    4.3056438   -9728.2886   -25179.177   -834.15329    -3171.536    14056.057   -15791.673    28614.571     79.82047 
   29500    818.06341   -120.99649   0.74020096   -120.25628    4523.7763    4.2947006    4.2947006    4.2947006    4523.7763    15728.911   -24763.898    22606.316   -25080.218   -774.27596     26006.94    79.213403 
   29600    1042.4971   -121.19722   0.94327327   -120.25395      1932.93    4.2896176    4.2896176    4.2896176      1932.93    -10683.46   -14241.077    30723.327   -29124.507    4931.2468   -16694.258    78.932477 
   29700    1704.0408   -121.78866    1.5418519   -120.24681   -4558.1904    4.2993556    4.2993556    4.2993556   -4558.1904   -26386.425   -5184.6173    17896.471   -702.76301    2486.5538    -14065.56    79.471258 
   29800     1605.268   -121.70535    1.4524803   -120.25287    -1674.228    4.2917188    4.2917188    4.2917188    -1674.228    11310.342   -25178.328    8845.3016    7568.6269    4418.0608    45589.939    79.048524 
   29900    950.60087   -121.12474   0.86012365   -120.26462   -2670.1817    4.2886821    4.2886821    4.2886821   -2670.1817    15395.382   -37708.505    14302.578   -23221.848    1528.4201    33260.949    78.880847 
   30000     1239.436    -121.3821    1.1214678   -120.26063   -9057.1321    4.2990685    4.2990685    4.2990685   -9057.1321     -6753.63    -28333.92    7916.1535    -38210.94    2551.3803   -30174.281    79.455338 
   30100    1905.0003   -121.97149    1.7236843   -120.24781    9241.0169    4.2936396    4.2936396    4.2936396    9241.0169    13402.098   -749.93485    15070.888    8847.1555    7378.4246   -14041.293    79.154711 
   30200    1294.1952   -121.42313     1.171015   -120.25211    15496.703    4.2942846    4.2942846    4.2942846    15496.703    8002.7006    16926.287    21561.121    9827.8214   -8377.2307    25839.756    79.190387 
   30300    985.50757   -121.14631   0.89170796    -120.2546   -22992.339    4.3055528    4.3055528    4.3055528   -22992.339   -36476.589   -46511.431    14011.004   -48977.548    1882.5881    21292.852     79.81541 
   30400     1497.874    -121.6053    1.3553079      -120.25    10359.352    4.2894976    4.2894976    4.2894976    10359.352   -5464.6971    3090.9784    33451.773   -26815.049     5985.571   -8718.2652    78.925853 
   30500    1908.1917   -121.97034     1.726572   -120.24377    21225.009    4.2833959    4.2833959    4.2833959    21225.009    4712.2101    29865.443    29097.373    25662.299    5125.3423   -8055.9283    78.589525 
   30600    844.66375   -121.02961   0.76426951   -120.26534   -13253.673    4.3001169    4.3001169    4.3001169   -13253.673   -49002.876   -44700.022    53941.878   -7726.3333   -1041.7026    13873.659    79.513485 
   30700    569.99444   -120.78168   0.51574295   -120.26594   -7980.9135    4.2986963    4.2986963    4.2986963   -7980.9135   -55768.623   -13006.363    44832.246   -44100.678   -4161.7061    26183.792    79.434705 
   30800    1484.3895   -121.59462    1.3431068   -120.25151    9222.1743    4.2937101    4.2937101    4.2937101    9222.1743   -23133.896    34704.692    16095.727   -4443.1281   -5337.4804    -514.3159    79.158611 
   30900    1485.4405   -121.59144    1.3440578   -120.24738    12665.759    4.2904886    4.2904886    4.2904886    12665.759   -9204.3344    15607.241     31594.37    7243.3553   -388.05407   -25847.815    78.980569 
   31000    888.02838    -121.0628   0.80350674   -120.25929   -13470.726     4.296119     4.296119     4.296119   -13470.726   -31375.035   -24860.364    15823.221   -38912.059    1496.3793    5280.3174    79.291917 
   31100     1079.369   -121.22914   0.97663575    -120.2525   -23266.274    4.3001639    4.3001639    4.3001639   -23266.274   -35422.393   -35522.492    1146.0626   -32034.066   -6033.5385    38353.611    79.516093 
   31200    1508.0122   -121.60934    1.3644812   -120.24486   -2357.5468    4.2893895    4.2893895    4.2893895   -2357.5468    20492.812   -10095.499   -17469.953    9121.3413   -22177.522   -19728.436    78.919887 
   31300    1421.1735   -121.53654    1.2859076   -120.25064    -11296.95    4.2941026    4.2941026    4.2941026    -11296.95    19039.118   -22587.623   -30342.343    11.389238   -9687.6791   -49761.521    79.180319 
   31400    1328.7735   -121.45455    1.2023022   -120.25225   -13847.674     4.298586     4.298586     4.298586   -13847.674   -3174.9348    -28394.43   -9973.6569   -42171.009    8438.7163    6405.5878    79.428589 
   31500    1533.4777   -121.63728    1.3875229   -120.24976    16217.821    4.2852942    4.2852942    4.2852942    16217.821    23515.698    28497.781   -3360.0161   -31215.914    2085.7571    25059.036    78.694058 
   31600    1265.0929    -121.4014    1.1446827   -120.25672     12099.81    4.2954024    4.2954024    4.2954024     12099.81    52348.765    32755.413   -48804.746    11025.773   -8456.0799   -30088.492    79.252246 
   31700    1262.3055   -121.39385    1.1421606   -120.25169   -16428.833    4.3025837    4.3025837    4.3025837   -16428.833    18647.312   -23702.168   -44231.643   -7978.3946   -7097.7574    -48401.92    79.650403 
   31800    1184.9824     -121.318     1.072197    -120.2458    25599.701    4.2814189    4.2814189    4.2814189    25599.701     12905.56    35646.613    28246.929   -35043.338    12540.243    5142.7255    78.480755 
   31900    1160.0747   -121.30509      1.04966   -120.25543   -739.62692    4.2933786    4.2933786    4.2933786   -739.62692    10360.941   -1743.4262   -10836.395   -7105.8026    14094.955    6561.4507    79.140276 
   32000    1409.4899   -121.52123    1.2753361    -120.2459   -14723.872    4.3036061    4.3036061    4.3036061   -14723.872    31906.876   -38000.542   -38077.951    9333.0177   -8980.4499   -21095.936    79.707201 
   32100     1401.365   -121.51139    1.2679845   -120.24341    14791.697    4.2847796    4.2847796    4.2847796    14791.697    26289.812     2965.584    15119.694   -8272.8462   -3655.5194   -21806.601    78.665711 
   32200    962.15541   -121.12877   0.87057844    -120.2582   -16980.721    4.2951852    4.2951852    4.2951852   -16980.721   -48160.279   -8647.7938    5865.9096   -46322.472    25394.525    8292.0265    79.240224 
   32300    1301.3573   -121.43321    1.1774954   -120.25572   -11247.395    4.2944125    4.2944125    4.2944125   -11247.395   -8904.6309   -6781.5386   -18056.015   -16593.271    14817.147    17183.374    79.197463 
   32400    1562.3781   -121.66374    1.4136725   -120.25007    21361.474    4.2840579    4.2840579    4.2840579    21361.474    61708.102    27121.478   -24745.159    16219.391   -6886.2538   -1058.6318    78.625966 
   32500     1189.894   -121.33776    1.0766411   -120.26112   -21692.912    4.3011962    4.3011962    4.3011962   -21692.912    -492.5549   -31239.115   -33347.065   -32049.007   -10386.197   -13212.415    79.573374 
   32600    1162.4472   -121.31216    1.0518067   -120.26035    -6473.613    4.2935181    4.2935181    4.2935181    -6473.613   -609.17119   -12999.147   -5812.5208   -43579.077   -3007.3572   -6339.9162    79.147991 
   32700      1669.53   -121.76109    1.5106259   -120.25046    21332.366     4.285925     4.285925     4.285925    21332.366    45522.135    16453.399     2021.564   -664.42343    15871.403    14677.511    78.728815 
   32800    1372.0247   -121.49524    1.2414367   -120.25381   -17484.127    4.3044531    4.3044531    4.3044531   -17484.127    22606.434   -30499.555   -44559.261    9724.1514    549.93313    12245.689    79.754267 
   32900    834.45091   -121.01442   0.75502872   -120.25939   -4272.3947     4.294753     4.294753     4.294753   -4272.3947    10844.384   -7352.6807   -16308.888   -33294.803   -20856.193   -14623.865    79.216305 
   33000    1498.6186   -121.60619    1.3559816    -120.2502     22052.97     4.287263     4.287263     4.287263     22052.97   -9078.6886    59778.904    15458.694   -34436.709   -8189.1123   -8077.2443    78.802571 
   33100    1927.1597   -121.98979    1.7437346   -120.24605    48.814836    4.2997387    4.2997387    4.2997387    48.814836    21811.706   -7060.3676   -14604.894    22264.856    10199.773    16764.543    79.492506 
   33200    1291.6846   -121.42599    1.1687433   -120.25725    14990.212    4.2899125    4.2899125    4.2899125    14990.212     43578.83    27828.427   -26436.621    10371.094    1981.6058   -2084.5766    78.948756 
   33300    1006.4104   -121.17478   0.91062132   -120.26416   -1144.2968    4.2901503    4.2901503    4.2901503   -1144.2968    15377.726    2937.2868   -21747.903   -35113.623   -12624.917   -13743.461    78.961888 
   33400    1392.7113   -121.51616    1.2601544   -120.25601   -9326.0678    4.3008854    4.3008854    4.3008854   -9326.0678   -9634.6387   -1460.0694   -16883.495   -22174.113   -4186.6613    2893.2065    79.556124 
   33500    1584.2144   -121.68355    1.4334305   -120.25012    6774.3078    4.2901599    4.2901599    4.2901599    6774.3078    8805.9525    25605.537   -14088.566    24901.203    13968.946    1479.0104    78.962417 
   33600    1351.2266   -121.47853    1.2226182   -120.25591   -8941.3274    4.2907865    4.2907865    4.2907865   -8941.3274    16876.046   -19772.353   -23927.675    2154.6768    6466.8152    -15087.57    78.997021 
   33700    1083.9809   -121.23984   0.98080866   -120.25903   -16116.474    4.2941698    4.2941698    4.2941698   -16116.474    10857.897   -39387.965   -19819.355   -34191.781   -16138.522   -12219.219    79.184034 
   33800    989.13484   -121.15387   0.89498999   -120.25888    3517.0031    4.2962539    4.2962539    4.2962539    3517.0031    2428.6573    21200.221   -13077.869    -5920.726    6626.0211     4975.925    79.299384 
   33900    1320.8039   -121.44098    1.1950911   -120.24589   -11956.007      4.30884      4.30884      4.30884   -11956.007   -11442.881    14933.718   -39358.859    32408.171    30338.435    6271.5863    79.998365 
   34000    1203.0902    -121.3247    1.0885813   -120.23612     1064.633    4.2999667    4.2999667    4.2999667     1064.633    40737.851   -10127.726   -27416.225   -5755.1648   -193.14967   -16219.028    79.505153 
   34100    970.12441   -121.11793   0.87778895   -120.24014   -2489.3751    4.2882573    4.2882573    4.2882573   -2489.3751    52.389931   -868.06639   -6652.4488   -46196.193   -12332.105   -14420.672    78.857409 
   34200    937.79049   -121.10015   0.84853254   -120.25162   -9254.8253    4.2897073    4.2897073    4.2897073   -9254.8253   -19294.579     5307.424   -13777.321   -8956.4165    25150.053    6577.3507    78.937427 
   34300    1566.2358   -121.66796     1.417163    -120.2508   -5816.8051    4.2961827    4.2961827    4.2961827   -5816.8051   -3467.8434    14038.674   -28021.246    33545.615    26468.076    6041.9207    79.295442 
   34400    1473.5711   -121.58346    1.3333181   -120.25014   -32392.613     4.308569     4.308569     4.308569   -32392.613   -34921.064   -47143.638   -15113.137   -33004.576   -12094.805   -2907.8239    79.983271 
   34500    895.92518   -121.07113   0.81065193   -120.26048   -21729.984    4.2880493    4.2880493    4.2880493   -21729.984   -45300.845   -29617.884    9728.7754   -61896.096   -2101.5706   -11740.354    78.845938 
   34600    1096.1297   -121.24558   0.99180115   -120.25378    25520.637    4.2749436    4.2749436    4.2749436    25520.637    41068.385    41405.337   -5911.8111   -1152.4774    26467.256   -6194.9184    78.125204 
   34700    1716.3148    -121.8032    1.5529577   -120.25025    -8760.392    4.3023112    4.3023112    4.3023112    -8760.392   -5876.3555    10477.867   -30882.687    15598.356    19749.722    13270.319     79.63527 
   34800    1292.0177   -121.42089    1.1690447   -120.25184    5232.8196    4.2957344    4.2957344    4.2957344    5232.8196    15841.141   -28767.209    28624.527   -37325.722   -8808.9818    16978.663    79.270624 
   34900     1141.267   -121.28401    1.0326424   -120.25137    13927.809    4.2887692    4.2887692    4.2887692    13927.809   -23680.094    36012.435    29451.084     -36679.9    2029.4387   -479.09865    78.885652 
   35000    1632.2074   -121.71777    1.4768556   -120.24091   -14907.309    4.3010806    4.3010806    4.3010806   -14907.309   -46533.539     41666.78   -39855.167    8382.8931     20466.14   -1846.1044    79.566956 
   35100    1452.7279   -121.55741    1.3144587   -120.24295     16759.92    4.2840678    4.2840678    4.2840678     16759.92    4492.5648    43611.395    2175.7994    1424.3755    5078.3159    10871.755     78.62651 
   35200    1103.0506   -121.25197   0.99806337   -120.25391    5988.9077    4.2949473    4.2949473    4.2949473    5988.9077    3542.8082   -12612.901    27036.816   -32988.526   -3425.2176    7951.2101    79.227057 
   35300    1459.5485   -121.55774    1.3206301   -120.23711   -22397.125    4.3092769    4.3092769    4.3092769   -22397.125   -16194.606   -14158.478    -36838.29   -14024.574    13635.587   -2422.3058    80.022699 
   35400    1218.2971   -121.33906    1.1023408   -120.23672    23166.641    4.2825987    4.2825987    4.2825987    23166.641    62793.047    37218.122   -30511.247    9408.8721    19989.924   -16860.661     78.54565 
   35500    1193.4654   -121.32537    1.0798726    -120.2455    5224.9414      4.28484      4.28484      4.28484    5224.9414    4721.7405   -3143.7171    14096.801   -31522.947    4337.1103   -3889.0316    78.669036 
   35600    1590.5761   -121.67908    1.4391867    -120.2399   -5903.1282    4.2994365    4.2994365    4.2994365   -5903.1282   -1276.6193       -26623    10190.234   -33347.872   -3914.1815    7936.3266    79.475749 
   35700    1483.6413   -121.58512    1.3424298   -120.24269   -6297.3491     4.295719     4.295719     4.295719   -6297.3491    9169.8012   -886.66649   -27175.182    9329.8794     14262.25   -11033.917    79.269768 
   35800     911.2597   -121.07609   0.82452693   -120.25156   -1847.6384    4.2914591    4.2914591    4.2914591   -1847.6384   -6323.1745    27026.689    -26246.43    3303.6818    21048.388   -13697.418    79.034176 
   35900    1287.8245   -121.41288    1.1652506   -120.24763    10156.596    4.2905364    4.2905364    4.2905364    10156.596    12078.476     15290.18    3101.1333   -18115.743    3484.8608   -3622.9751    78.983207 
   36000    1619.8994   -121.70984    1.4657191   -120.24412    9702.1748    4.2938693    4.2938693    4.2938693    9702.1748    39374.791   -15303.021    5034.7542    -20348.56   -9814.9894    13182.698    79.167417 
   36100    1064.6495   -121.21473   0.96331722   -120.25141   -600.83871    4.2965167    4.2965167    4.2965167   -600.83871    12680.003    8480.2565   -22962.776   -3327.0597    16559.165    12081.028    79.313938 
   36200    1173.0485   -121.31262    1.0613989   -120.25122   -8501.5845     4.294642     4.294642     4.294642   -8501.5845   -28017.445    31764.905   -29252.213    19822.355    15358.781   -12150.912     79.21016 
   36300    1564.3586   -121.65937    1.4154646    -120.2439    239.15564    4.2914717    4.2914717    4.2914717    239.15564    7512.3783   -11925.465    5130.5531    1922.5142   -409.32588    9596.7907    79.034872 
   36400     1461.727   -121.56754    1.3226013   -120.24493    3157.1956    4.2920871    4.2920871    4.2920871    3157.1956    33035.677    -27462.92    3898.8288   -3698.5515    -3384.942    34598.983    79.068877 
   36500    1236.1776   -121.36596    1.1185195   -120.24744   -1274.1248    4.2920751    4.2920751    4.2920751   -1274.1248    21174.403    7520.2704   -32517.048    1327.9897    22951.974    8524.1021    79.068217 
   36600    1140.9706   -121.28093    1.0323742   -120.24856   -3468.0429    4.2966735    4.2966735    4.2966735   -3468.0429   -292.39652     14883.87   -24995.603    10603.476    15819.385   -9581.8496     79.32262 
   36700    1510.3944   -121.60868    1.3666366   -120.24204   -10206.474    4.2970274    4.2970274    4.2970274   -10206.474    14288.173   -42091.397    -2816.198     23411.31   -14895.059    18092.372    79.342226 
   36800    1300.1531   -121.41828    1.1764058   -120.24187    5871.3904    4.2868029    4.2868029    4.2868029    5871.3904    63256.719   -32721.007   -12921.541   -7352.8581    5827.3745    37718.332    78.777203 
   36900    1156.7708   -121.29805    1.0466705   -120.25138    -5590.634    4.2897349    4.2897349    4.2897349    -5590.634    6219.6406    6335.6073    -29327.15   -9693.1608    26941.688    905.19236    78.938953 
   37000     1350.859   -121.47304    1.2222856   -120.25075   -10776.966    4.2998995    4.2998995    4.2998995   -10776.966   -12011.729   -2634.1601   -17685.008    2719.4562    16108.888   -5893.4296    79.501427 
   37100    1754.2922   -121.83064    1.5873205   -120.24332    6041.6591     4.291898     4.291898     4.291898    6041.6591    49528.011    -29903.61   -1499.4238    3264.8457   -12991.195    19412.738    79.058427 
   37200    1214.3103   -121.34814    1.0987335    -120.2494   -142.20566    4.2913008    4.2913008    4.2913008   -142.20566    19093.431   -14742.847   -4777.2008   -8957.3126     18285.48    11653.595    79.025432 
   37300    931.87326   -121.09455   0.84317851   -120.25137   -6274.9686    4.3003659    4.3003659    4.3003659   -6274.9686   -34140.861    13380.045    1935.9106   -10840.334    47836.291   -9890.2344    79.527297 
   37400    1759.5603   -121.82621    1.5920871   -120.23412    -7473.993    4.2996113    4.2996113    4.2996113    -7473.993   -12654.244   -6735.2345   -3032.5009    2141.0537    1377.2275    5039.4035    79.485439 
   37500    1258.6184   -121.37552    1.1388244   -120.23669   -10449.984    4.2986467    4.2986467    4.2986467   -10449.984    4023.9914   -30421.969   -4951.9742    14111.212   -9507.7418    38356.381    79.431954 
   37600    734.72686   -120.91297    0.6647963   -120.24817   -17973.731    4.2894392    4.2894392    4.2894392   -17973.731   -24513.965   -7954.7832   -21452.445    5015.9021    40418.192    13018.903    78.922631 
   37700    1278.4686   -121.40467    1.1567852   -120.24788    10691.309    4.2812049    4.2812049    4.2812049    10691.309    -3360.591    29015.331    6419.1858   -9251.4914    41896.616   -16405.819    78.468984 
   37800    1685.9196   -121.77227    1.5254555   -120.24682   -14864.044    4.3003268    4.3003268    4.3003268   -14864.044   -13152.789   -20608.163   -10831.182    1880.7207   -16626.143    16040.453     79.52513 
   37900    1047.6761    -121.2034   0.94795932   -120.25544   -22262.304    4.3011955    4.3011955    4.3011955   -22262.304    -1056.016    -36575.09   -29155.806    9810.6477   -8489.8504    35008.856    79.573335 
   38000    1037.7131   -121.18916   0.93894458   -120.25021      6327.38    4.2803561    4.2803561    4.2803561      6327.38    9419.1158    4262.8276    5300.1967   -2818.3104    60936.272      5218.51    78.422323 
   38100    1575.2112   -121.67491    1.4252842   -120.24963    5008.6269    4.2855609    4.2855609    4.2855609    5008.6269   -1904.4298    16925.066    5.2439756    352.79652    22190.192   -13126.152     78.70875 
   38200    1619.7568   -121.71715      1.46559   -120.25156   -1587.2595    4.2938248    4.2938248    4.2938248   -1587.2595    1417.2668    1558.0244   -7737.0698   -3715.9411   -58294.642    13647.275    79.164953 
   38300    1173.8605   -121.31786    1.0621337   -120.25573    3055.9519    4.2966824    4.2966824    4.2966824    3055.9519    20021.988   -9975.5834   -878.54854    3065.6726   -6008.9591    26428.776    79.323117 
   38400    1511.6222    -121.6187    1.3677475   -120.25095   -14932.835    4.2958405    4.2958405    4.2958405   -14932.835   -12654.716   -11340.153   -20803.636    9296.2118    57732.878    -125.4117    79.276494 
   38500    1505.2902   -121.60944    1.3620182   -120.24743    13494.569    4.2769083    4.2769083    4.2769083    13494.569   -12974.927    27569.209    25889.425   -2088.4634   -10279.671   -7689.9518    78.232967 
   38600    1099.2855   -121.25475    0.9946566    -120.2601    539.94096    4.2869028    4.2869028    4.2869028    539.94096   -17160.578    23522.108   -4741.7078      1363.24   -75238.384    6440.1959     78.78271 
   38700    1335.1885   -121.45943    1.2081066   -120.25133   -23296.432    4.3033982    4.3033982    4.3033982   -23296.432    -10202.86   -31276.462   -28409.972   -388.34007   -4519.2721    13198.288    79.695645 
   38800    1355.5896   -121.47278     1.226566   -120.24622    5609.9173    4.2864036    4.2864036    4.2864036    5609.9173    -6549.633   -9963.9142    33343.299    4884.6036    37796.645    12119.761    78.755192 
   38900    728.28447   -120.91631    0.6589671   -120.25735   -2223.6371    4.2857386    4.2857386    4.2857386   -2223.6371   -39532.754    33934.175   -1072.3325    8111.5522    -46761.85     -3621.68    78.718542 
   39000    1198.2923   -121.34146      1.08424   -120.25722   -8252.2593    4.2935375    4.2935375    4.2935375   -8252.2593   -33623.465    29521.049   -20654.362    -2110.556   -61799.145   -9004.8584    79.149066 
   39100    2022.1651   -122.07563    1.8296975   -120.24594    9621.4239     4.289852     4.289852     4.289852    9621.4239   -905.43703   -13258.552    43028.261    1588.1385    15103.503    7461.9881    78.945415 
   39200    1354.0165   -121.48659    1.2251426   -120.26145   -17924.485    4.2936828    4.2936828    4.2936828   -17924.485   -50951.503   -3096.6463    274.69239    662.78982   -15361.746    5521.1205    79.157101 
   39300    664.05268   -120.87247   0.60084882   -120.27162   -11300.889    4.2848996    4.2848996    4.2848996   -11300.889   -64573.097    40262.905   -9592.4752   -1653.8345   -63150.983   -2608.6136    78.672317 
   39400    1252.8045   -121.40159    1.1335638   -120.26803    10222.237     4.285435     4.285435     4.285435    10222.237   -3351.9082    9979.5534    24039.067    2956.8734   -5894.5717   -11448.099    78.701815 
   39500    1830.8441   -121.90857    1.6565863   -120.25198   -13713.476    4.3000805    4.3000805    4.3000805   -13713.476   -4740.7143   -48423.027    12023.314   -6042.8383    22074.081   -13964.046    79.511465 
   39600    880.15891   -121.05773   0.79638628   -120.26135    1503.4232    4.2902219    4.2902219    4.2902219    1503.4232   -22654.393   -6646.3818    33811.044   -2189.8997   -44769.683    3677.7485     78.96584 
   39700    935.79551   -121.10989   0.84672745   -120.26316    153.76543     4.288362     4.288362     4.288362    153.76543    -4904.913    14074.069   -8707.8601    7122.8772    -58938.55    3914.5632    78.863186 
   39800    2147.5653   -122.18868    1.9431623   -120.24552   -1492.5484    4.2959793    4.2959793    4.2959793   -1492.5484    16030.878   -23024.362    2515.8387   -2001.9942    15145.476   -8774.1636    79.284178 
   39900    1744.1216   -121.83052    1.5781179   -120.25241    1709.4905    4.2949806    4.2949806    4.2949806    1709.4905    30967.297   -20749.391    -5089.435   -1446.8708   -2623.5426   -2327.6755    79.228899 
   40000    454.69743   -120.68389   0.41141979   -120.27247   -24269.971    4.2960004    4.2960004    4.2960004   -24269.971   -65959.693   -1147.4742   -5702.7451    -6130.485    -67204.15    4706.4375    79.285348 
   40100    1007.9314   -121.18335   0.91199747   -120.27135   -896.12039    4.2882149    4.2882149    4.2882149   -896.12039   -26169.878   -10470.695    33952.212   -7955.9864   -25046.922    6277.5607    78.855068 
   40200    1910.8112   -121.98559    1.7289421   -120.25665      21194.7    4.2879679    4.2879679    4.2879679      21194.7    34328.071   -16182.428    45438.456   -1179.1967    21885.208   -1476.1025    78.841446 
   40300    1379.4831    -121.5122    1.2481853   -120.26402    2202.6885    4.2915101    4.2915101    4.2915101    2202.6885   -19979.824    19156.389    7431.4998    1.4484053   -29657.469   -10980.503    79.036997 
   40400    867.19603   -121.05448   0.78465719   -120.26982   -3451.8426    4.2897792    4.2897792    4.2897792   -3451.8426    -21268.38    23181.883    -12269.03   -1973.2014   -49362.123    1066.1462      78.9414 
   40500    1493.3396   -121.61304    1.3512051   -120.26184   -10609.067    4.2924812    4.2924812    4.2924812   -10609.067   -34565.612   -34961.888      37700.3   -11747.221    26.421464    5625.4912    79.090659 
   40600    1746.2365    -121.8362    1.5800314   -120.25616    1012.0503    4.2866852    4.2866852    4.2866852    1012.0503   -9219.3247   -26433.066    38688.542   -6167.3852    4750.1627   -6246.6787    78.770714 
   40700    893.90068   -121.07917   0.80882012   -120.27035   -1035.5647    4.2865747    4.2865747    4.2865747   -1035.5647   -37787.255    28971.947    5708.6136    3429.8608   -49205.161   -4235.7425    78.764621 
   40800     587.6136   -120.80469   0.53168513   -120.27301   -24733.496    4.3002284    4.3002284    4.3002284   -24733.496   -70181.851   -1606.2989   -2412.3397   -8139.1637   -23571.708    1313.9665     79.51967 
   40900    1399.3959   -121.52872    1.2662028   -120.26252    -6504.034     4.287022     4.287022     4.287022    -6504.034   -9037.9396   -34499.306    24025.144   -10747.361    31281.343    11836.515     78.78928 
   41000    1522.0259   -121.63468     1.377161   -120.25752    20990.123    4.2747621    4.2747621    4.2747621    20990.123    46095.439   -8401.0727    25276.001    99.576672    -12840.55    18062.539    78.115256 
   41100    1394.1484   -121.52854    1.2614547   -120.26709   -6316.0444    4.2939765    4.2939765    4.2939765   -6316.0444   -25592.107    14796.279   -8152.3054   -1472.6365   -68733.145   -1530.4802    79.173346 
   41200    1444.9223   -121.56748     1.307396   -120.26009   -3553.4957    4.2986504    4.2986504    4.2986504   -3553.4957   -22359.539    12326.652   -627.60017   -4781.1479   -8248.3652   -4461.6384    79.432159 
   41300    1394.4641   -121.51946    1.2617405   -120.25772   -7684.9254    4.2917236    4.2917236    4.2917236   -7684.9254   -1294.7903   -11626.614   -10133.372   -12479.179     52308.92    12768.077     79.04879 
   41400    1342.1847   -121.47507    1.2144369   -120.26063   -10541.741     4.284251     4.284251     4.284251   -10541.741   -9570.8945   -13513.509   -8540.8197    -10820.52   -3534.7217    3302.6283      78.6366 
   41500    1508.0781   -121.62382    1.3645407   -120.25928    9291.4493     4.279453     4.279453     4.279453    9291.4493   -4494.8302    548.79599    31820.382      6554.84   -43016.753   -9740.3589    78.372696 
   41600    1208.9734   -121.35926    1.0939045   -120.26535   -15765.866    4.3001265    4.3001265    4.3001265   -15765.866   -42972.242   -3792.8305   -532.52621    14876.174     31349.71    413.92555    79.514018 
   41700    1006.4274   -121.17246   0.91063665   -120.26182   -21413.625    4.2999433    4.2999433    4.2999433   -21413.625    -40446.24   -12456.541   -11338.093   -277.55876     52916.56    7501.3006    79.503855 
   41800    1359.3686   -121.48056    1.2299853   -120.25058    22206.473    4.2769044    4.2769044    4.2769044    22206.473    33636.111   -11796.019    44779.327   -22622.775   -6248.1874   -3953.7492    78.232757 
   41900    1253.2334   -121.39195    1.1339519   -120.25799    436.05755    4.2870758    4.2870758    4.2870758    436.05755    9123.9086    -23369.54    15553.804   -12872.032   -5614.8441   -15501.552    78.792245 
   42000     935.7251   -121.11392   0.84666374   -120.26726    -16131.23    4.2953142    4.2953142    4.2953142    -16131.23   -44754.735    6630.6201   -10269.575    16251.948    45962.035    -5179.312    79.247364 
   42100    1157.5211   -121.31044    1.0473494   -120.26309    10766.609    4.2886847    4.2886847    4.2886847    10766.609   -12346.693    31218.346    13428.174    8674.0799    36414.765    5201.6276     78.88099 
   42200    1588.7418   -121.69416     1.437527   -120.25663   -36.982314    4.2967073    4.2967073    4.2967073   -36.982314   -9844.2164   -10754.499    20487.769   -33310.271   -14989.936   -4847.7324    79.324495 
   42300    1411.4076   -121.53476    1.2770713   -120.25768   -843.83655    4.2919231    4.2919231    4.2919231   -843.83655     -2529.62   -5031.1246    5029.2349   -30016.537    9847.5279   -10675.057    79.059814 
   42400    1210.2066   -121.35368    1.0950204   -120.25866    15802.287    4.2837063    4.2837063    4.2837063    15802.287    6142.5196    42589.778   -1325.4364    14198.019    51711.626   -4245.5875    78.606611 
   42500    1447.2971   -121.56916    1.3095448   -120.25962    493.31775      4.29349      4.29349      4.29349    493.31775   -23738.007    25847.736   -629.77496    22128.958     24444.35    5297.9061    79.146438 
   42600    1554.7381   -121.66311    1.4067598   -120.25635    7436.4696    4.2919559    4.2919559    4.2919559    7436.4696   -3111.4593    3233.6785    22187.189   -11866.598   -17071.869    95.122762     79.06163 
   42700    1341.8394   -121.47354    1.2141244   -120.25942    306.20276    4.2874484    4.2874484    4.2874484    306.20276   -9945.9279    8056.6507    2807.8855   -33225.804    4051.9931   -12210.334    78.812793 
   42800    1147.4903   -121.29959    1.0382733   -120.26131   -6198.4238    4.2893846    4.2893846    4.2893846   -6198.4238    -17868.12    29684.551   -30411.703    2161.1416    42411.223   -12706.342    78.919614 
   42900    1423.9224   -121.54678    1.2883949   -120.25838    -2808.321    4.2922723    4.2922723    4.2922723    -2808.321   -2256.1359    9294.0009   -15462.828    36553.024    20415.103    3319.2307    79.079112 
   43000    1518.5409   -121.63202    1.3740077   -120.25801   -3831.8014    4.2946846    4.2946846    4.2946846   -3831.8014    3407.3947   -30434.128    15531.329    7230.4033   -14002.465    5950.2567    79.212521 
   43100    1577.0371   -121.68404    1.4269363   -120.25711    12912.645    4.2818137    4.2818137    4.2818137    12912.645    26326.868    6699.7215    5711.3455   -28382.807    15686.762   -6153.1891    78.502467 
   43200    1230.1401   -121.37894    1.1130566   -120.26588    3544.5546    4.2840035    4.2840035    4.2840035    3544.5546    8769.6497    22058.147   -20194.133   -3575.1148    40476.223   -6367.4438    78.622969 
   43300     940.4886   -121.12056   0.85097385   -120.26958   -23553.185    4.2972374    4.2972374    4.2972374   -23553.185   -43650.611   -13563.003   -13445.942    45444.631    15812.026    2863.0505    79.353856 
   43400    1434.9753   -121.55668    1.2983958   -120.25828    8598.4055    4.2871869    4.2871869    4.2871869    8598.4055    2172.5046   -1954.8358    25577.548    29522.599    -24091.99    6057.9951    78.798374 
   43500    1474.2319   -121.58978     1.333916   -120.25587    3295.2227    4.2931213    4.2931213    4.2931213    3295.2227   -3611.1502    16526.291    -3029.473   -22588.839    7782.1743     2904.904    79.126046 
   43600    985.85983   -121.15077   0.89202669   -120.25875   -20369.769    4.2983554    4.2983554    4.2983554   -20369.769   -38789.731    68.259659   -22387.835    1489.5133    51516.095   -5812.5688    79.415809 
   43700    1028.5721   -121.18734   0.93067361   -120.25666    12953.969    4.2781895    4.2781895    4.2781895    12953.969   -4909.4164    3890.5896    39880.734    41260.686    20291.385   -7302.8467    78.303298 
   43800     1500.346   -121.61682    1.3575446   -120.25928    3615.2743    4.2852936    4.2852936    4.2852936    3615.2743   -21661.899    4929.3446    27578.377    23724.042   -36091.731    643.58549    78.694022 
   43900    1272.6695   -121.40899    1.1515381   -120.25745   -18456.406    4.3013754    4.3013754    4.3013754   -18456.406   -53449.748    22108.099   -24027.568   -5969.7865   -11095.488    923.00323    79.583317 
   44000    1159.9449   -121.30846    1.0495425   -120.25891   -9057.7385    4.2901074    4.2901074    4.2901074   -9057.7385   -44673.119    17853.705    -353.8014     6628.632    42492.627   -1317.6567     78.95952 
   44100    1273.3301   -121.41027    1.1521358   -120.25813    3858.7424     4.281237     4.281237     4.281237    3858.7424   -20852.106   -8905.1047    41333.438    28996.384     19774.35   -3631.1336    78.470751 
   44200    1281.4605    -121.4212    1.1594924   -120.26171    1341.2966    4.2885322    4.2885322    4.2885322    1341.2966   -2445.5844   -10673.988    17143.462    22206.408   -37641.617   -2747.8945    78.872574 
   44300    1158.6126   -121.31125     1.048337   -120.26291    4488.7005    4.2928007    4.2928007    4.2928007    4488.7005    -6337.509    27675.457    -7871.846    -4342.113   -31617.423    5452.2926    79.108324 
   44400    1230.3771   -121.37119     1.113271   -120.25792    6967.6468    4.2946194    4.2946194    4.2946194    6967.6468   -8889.4925    24755.945    5036.4877    2442.6546    31192.729    1063.7133    79.208911 
   44500    1342.9662   -121.46689     1.215144   -120.25175   -9232.9349    4.2983776    4.2983776    4.2983776   -9232.9349   -16359.726   -20456.859    9117.7803    37558.215    28970.941   -5202.2841    79.417037 
   44600    1295.9892   -121.42553    1.1726383   -120.25289   -2902.6511    4.2849912    4.2849912    4.2849912   -2902.6511   -17413.915   -3042.9638    11748.925    30474.016    -40168.05      4538.74    78.677362 
   44700    1400.3804    -121.5223    1.2670936   -120.25521    9548.4203    4.2761893    4.2761893    4.2761893    9548.4203   -11444.316    46482.573   -6392.9961   -8937.4423   -30926.498   -2025.5609    78.193521 
   44800    1265.1091   -121.40821    1.1446973   -120.26352   -14445.448    4.2956328    4.2956328    4.2956328   -14445.448   -41819.004    21046.604   -22563.944    5174.6598    33085.093    369.92947    79.264995 
   44900    1155.0477   -121.30514    1.0451115   -120.26003   -19720.549    4.2990344    4.2990344    4.2990344   -19720.549    -49223.14   -19066.215    9127.7091    47761.304    26993.634    3469.6513    79.453452 
   45000    1452.9707   -121.56625    1.3146784   -120.25157    4633.7979    4.2864854    4.2864854    4.2864854    4633.7979   -17246.094     7249.876    23897.612    33105.385   -25521.568    926.70507    78.759696 
   45100    1804.3881   -121.88082    1.6326482   -120.24818    2977.6144    4.2879433    4.2879433    4.2879433    2977.6144   -17720.583    39625.941   -12972.514   -17148.254   -16972.728    2658.2845    78.840089 
   45200    1048.3276    -121.2133   0.94854883   -120.26475    8525.0859    4.2840493    4.2840493    4.2840493    8525.0859   -26306.473    37680.079    14201.652    10369.438    32892.689   -232.82243    78.625493 
   45300    509.43624   -120.74055   0.46094862    -120.2796   -6580.9823    4.2894629    4.2894629    4.2894629   -6580.9823   -65448.458    1250.2043    44455.307    60229.951     30031.78   -421.59481     78.92394 
   45400    1417.3464   -121.55062    1.2824448   -120.26818   -13487.764    4.2984951    4.2984951    4.2984951   -13487.764   -51169.167   -8336.2136    19042.089    12491.468   -8141.5577    14792.515    79.423553 
   45500    1941.7651   -122.00813    1.7569498   -120.25118    12255.931    4.2854136    4.2854136    4.2854136    12255.931   -7753.6815    30850.834    13670.642   -24115.352    1863.2076   -5440.7356    78.700636 
   45600    950.34681   -121.12527   0.85989377   -120.26537   -8178.8278    4.2875431    4.2875431    4.2875431   -8178.8278   -46818.372    13874.446    8407.4421    40239.567    27248.875    -16947.99    78.818014 
   45700    758.92091   -120.95141   0.68668759   -120.26472   -28815.575    4.2969269    4.2969269    4.2969269   -28815.575   -60591.984   -18996.999   -6857.7427    59646.778    22095.892    4616.0577    79.336654 
   45800     1902.528   -121.97371    1.7214473   -120.25226    8837.4261    4.2856682    4.2856682    4.2856682    8837.4261    8910.3283    16070.755    1531.1956   -5323.4332   -3063.4121    11853.316    78.714663 
   45900    1842.9208   -121.92326    1.6675135   -120.25575    16913.439    4.2885307    4.2885307    4.2885307    16913.439    18577.941    36151.399   -3989.0215   -9752.5028   -6225.6215   -5259.5571    78.872491 
   46000    625.72047   -120.83517   0.56616503   -120.26901   -12528.457    4.3003338    4.3003338    4.3003338   -12528.457    -16101.71   -2375.3869   -19108.275    47396.888    23854.692   -29818.598    79.525518 
   46100    985.44142    -121.1515    0.8916481   -120.25985    5916.4412    4.2964522    4.2964522    4.2964522    5916.4412    3839.6539    19720.681   -5811.0114    25895.149    16433.153   -7005.9408    79.310369 
   46200    2216.6759   -122.23743    2.0056949   -120.23174    2013.4953    4.2975393    4.2975393    4.2975393    2013.4953    24007.598   -13.423873   -17953.689   -23049.587   -13879.848    9392.9976    79.370583 
   46300     1287.296   -121.41487    1.1647725   -120.25009   -4596.5694    4.2946122    4.2946122    4.2946122   -4596.5694     19137.86   -28720.987   -4206.5818    16795.419    10395.305    -19702.26    79.208511 
   46400    384.82693   -120.61018    0.3481995   -120.26198    9835.3911    4.2864986    4.2864986    4.2864986    9835.3911    5052.9455    16407.132    8046.0957    46585.897    32702.667   -29353.319    78.760428 
   46500    1484.7141     -121.598    1.3434006    -120.2546    1422.2257    4.2978737    4.2978737    4.2978737    1422.2257   -9495.3602    30111.358    -16349.32     12716.51     7119.426    2960.9684    79.389115 
   46600    2106.5918   -122.14545    1.9060885   -120.23936    -5889.007    4.3010694    4.3010694    4.3010694    -5889.007   -11931.918     1776.817   -7511.9204   -14018.027    -16887.27    20327.019    79.566337 
   46700    997.62749   -121.15842   0.90267431   -120.25574    311.32156     4.285778     4.285778     4.285778    311.32156   -13834.183    7689.2426    7078.9054    32988.147    12915.506   -18020.405    78.720714 
   46800    713.06873   -120.91378   0.64519958   -120.26858   -7573.3963    4.2820288    4.2820288    4.2820288   -7573.3963   -27226.835    10952.523   -6445.8761    40297.271    39123.017   -26271.525    78.514297 
   46900     1616.439   -121.72627     1.462588   -120.26368    4631.5396    4.2885711    4.2885711    4.2885711    4631.5396   -11804.872    24792.892    906.59846    -5869.492    18103.326    8424.6934    78.874724 
   47000    1788.0041   -121.87021    1.6178237   -120.25239   -7147.9153    4.3016122    4.3016122    4.3016122   -7147.9153    1795.2551   -979.03629   -22259.965   -3662.0516   -14103.632    12429.308     79.59646 
   47100    506.59075   -120.71648   0.45837395   -120.25811   -22496.432    4.3074867    4.3074867    4.3074867   -22496.432    -18181.33   -21944.172   -27363.794    40317.458    19246.947   -17595.241    79.923012 
   47200    753.69681   -120.92824   0.68196072   -120.24628   -2337.2489    4.2924803    4.2924803    4.2924803   -2337.2489   -7190.9993    1660.8814   -1481.6288    27750.674    33200.266   -23056.999    79.090613 
   47300    2059.4768   -122.08976    1.8634579    -120.2263     18970.33    4.2855983    4.2855983    4.2855983     18970.33    17395.961    14612.353    24902.677   -15025.314       -17468    6021.8473     78.71081 
   47400    1646.9559   -121.73242    1.4902003   -120.24222   -6353.2269    4.2968855    4.2968855    4.2968855   -6353.2269    3379.5207   -29846.834    7407.6326    21574.668   -6621.6428     -2445.36    79.334361 
   47500    695.82992   -120.89728   0.62960154   -120.26768   -11951.865    4.2899036    4.2899036    4.2899036   -11951.865   -23307.274    -31844.62    19296.299     47566.66    32355.415   -22532.133    78.948268 
   47600     887.9819   -121.07863   0.80346469   -120.27517   -2608.0194    4.2810954    4.2810954    4.2810954   -2608.0194    -25410.03    545.16341    17040.808    906.44159    28233.204   -18842.647    78.462966 
   47700     1710.265   -121.81537    1.5474837   -120.26788    1783.3231    4.2858884    4.2858884    4.2858884    1783.3231    358.37338   -1059.7902    6051.3861   -30663.265   -3437.3886     6641.451    78.726796 
   47800    1465.1843   -121.59341    1.3257296   -120.26768    10480.974    4.2912433    4.2912433    4.2912433    10480.974   -11771.905    21641.906    21572.921    9957.2109   -9567.7617    15234.356    79.022256 
   47900    643.67201   -120.85146   0.58240796   -120.26905   -5950.0388    4.2992555    4.2992555    4.2992555   -5950.0388   -26740.514    16417.748   -7527.3514    47173.774    28461.791   -17328.311    79.465711 
   48000    1029.1472   -121.18817   0.93119406   -120.25698   -1597.5606    4.2971838    4.2971838    4.2971838   -1597.5606    15516.076    622.38869   -20931.147    8325.5307    23839.472   -32906.605    79.350888 
   48100    2041.8453   -122.08676    1.8475045   -120.23926    10260.314    4.2882816    4.2882816    4.2882816    10260.314      4815.51    22642.824    3322.6082   -21085.567   -5851.4876   -1921.7673    78.858751 
   48200    1622.4591   -121.72189    1.4680351   -120.25386   -2336.8886     4.286679     4.286679     4.286679   -2336.8886    -10749.58   -214.62341    3953.5374    22442.027   -2976.9612    10884.213    78.770372 
   48300    630.38663   -120.84645   0.57038707   -120.27606    -6879.844    4.2873858    4.2873858    4.2873858    -6879.844   -3509.7107   -2530.1038   -14599.717    37312.495    26899.757   -23351.343    78.809338 
   48400    992.46602   -121.17554   0.89800411   -120.27754   -6877.8839    4.2907217    4.2907217    4.2907217   -6877.8839    17942.109   -4769.7532   -33806.008   -177.24252    21644.571    -38067.36    78.993442 
   48500    1789.4589   -121.88397      1.61914   -120.26483   -15.444232     4.291181     4.291181     4.291181   -15.444232    16154.184   -4127.4063    -12073.11   -19708.521   -11552.412    10787.929    79.018813 
   48600    1524.6468   -121.64001    1.3795325   -120.26048    2000.9086    4.2877204    4.2877204    4.2877204    2000.9086   -11009.997   -6126.0772      23138.8    16924.463   -3006.0757    15131.108    78.827793 
   48700    904.56465   -121.08394   0.81846911   -120.26547   -4114.8587    4.2891627    4.2891627    4.2891627   -4114.8587   -1254.4709   -15903.975    4813.8699    32699.687    9953.8647   -38529.903    78.907366 
   48800    1021.6795   -121.18688   0.92443706   -120.26244   -13248.443    4.2940106    4.2940106    4.2940106   -13248.443    8684.3284   -34348.441   -14081.218   -2404.0792    14685.746   -44085.799    79.175232 
   48900    1708.3218   -121.79814    1.5457255   -120.25242   -1056.9073    4.2903605    4.2903605    4.2903605   -1056.9073   -9914.6227   -15918.167    22662.067   -29973.055    860.82041    1037.0403    78.973493 
   49000    1662.0918   -121.76218    1.5038956   -120.25828   -2499.0916    4.2862575    4.2862575    4.2862575   -2499.0916   -26815.703   -13534.435    32852.863   -8761.3559   -10345.779    7536.8785    78.747137 
   49100    845.83913   -121.03953   0.76533302   -120.27419   -19484.784    4.2846741    4.2846741    4.2846741   -19484.784    4374.7328   -47073.484   -15755.599    30738.723     7686.621   -53917.434    78.659898 
   49200    916.65007   -121.11006   0.82940424   -120.28066   -6829.9229    4.2839636    4.2839636    4.2839636   -6829.9229     18359.25   -30102.341   -8746.6771    10653.566    4990.0209   -41775.053    78.620773 
   49300    1678.9081   -121.78967    1.5191113   -120.27056   -3921.1676    4.2938583    4.2938583    4.2938583   -3921.1676   -9082.9474   -9483.5384    6802.9828   -19585.003    1056.1465     25105.39    79.166809 
   49400    1618.1321   -121.72872    1.4641199    -120.2646   -5911.8391    4.2906531    4.2906531    4.2906531   -5911.8391   -2868.1224   -21968.068    7100.6736   -1407.9537   -3941.6017    -1680.599    78.989656 
   49500    1168.0378    -121.3209    1.0568651   -120.26404    13085.207    4.2785331    4.2785331    4.2785331    13085.207     41580.94   -26570.573    24245.253    22559.705    -8013.325   -52596.683    78.322165 
   49600    1180.5791   -121.33211    1.0682127    -120.2639   -8954.5659    4.2902791    4.2902791    4.2902791   -8954.5659    6909.9057   -24239.618   -9533.9856    16635.198    17607.852   -3492.5667       78.969 
   49700    893.52179   -121.07445   0.80847729   -120.26597   -15437.101    4.2941867    4.2941867    4.2941867   -15437.101   -17367.147    -5914.307   -23029.847   -8522.9832      17533.6    38633.584    79.184971 
   49800    1033.1945    -121.2008   0.93485609   -120.26594    1814.7835    4.2844179    4.2844179    4.2844179    1814.7835   -20716.401    13098.998    13061.754    135.47201   -21626.581    6886.5872     78.64579 
   49900    1773.6805   -121.86302    1.6048633   -120.25816    2989.5623    4.2871419    4.2871419    4.2871419    2989.5623   -23549.889    5051.8725    27466.703    10084.249   -27602.863   -12884.965    78.795892 
   50000    1852.1894   -121.93435    1.6758999   -120.25845    4959.3465      4.28903      4.28903      4.28903    4959.3465   -9912.0867   -6571.5256    31361.652    5267.8841    19273.758     17019.28    78.900044 
   50100     980.6163   -121.16056   0.88728224   -120.27328   -10617.977     4.289949     4.289949     4.289949   -10617.977    -29458.85    14875.087   -17270.169    285.65323    15160.319    31934.215    78.950772 
   50200    867.83319   -121.05915   0.78523371   -120.27392   -19107.129    4.2907024    4.2907024    4.2907024   -19107.129   -65499.856    43145.331   -34966.861    -5444.931   -28626.931    11559.877    78.992378 
   50300    1554.8503   -121.67149    1.4068612   -120.26463    4863.4852    4.2843058    4.2843058    4.2843058    4863.4852   -17357.877    20430.469    11517.864    -392.6885   -21195.668   -29732.842    78.639618 
   50400    1592.8045    -121.7042     1.441203     -120.263    2049.8335    4.2845097    4.2845097    4.2845097    2049.8335    20835.298   -15460.913    775.11557    1929.6443    3705.6248   -43745.583    78.650844 
   50500    1526.1426   -121.64514    1.3808859   -120.26425    359.38044    4.2866687    4.2866687    4.2866687    359.38044   -6960.1643    6737.1485    1301.1571    896.01046   -3324.5985    7650.1079    78.769804 
   50600    1309.2386   -121.44876    1.1846266   -120.26413   -7258.2857    4.2894367    4.2894367    4.2894367   -7258.2857   -36308.283    23805.541   -9272.1159    3685.5253   -22183.887    19365.857     78.92249 
   50700    462.12119   -120.69309   0.41813696   -120.27495   -21451.713    4.2901881    4.2901881    4.2901881   -21451.713    10020.196   -27852.687   -46522.648   -2582.6577   -18428.196   -57176.541    78.963974 
   50800    795.25525   -120.99709   0.71956366   -120.27753   -11142.592    4.2853133    4.2853133    4.2853133   -11142.592    24637.717   -46889.209   -11176.283    4412.8139    10203.727   -58239.178     78.69511 
   50900    1918.0809   -121.99682    1.7355199    -120.2613    7483.0644    4.2874098    4.2874098    4.2874098    7483.0644   -4958.7969   -3002.1149    30410.105    4710.5364    12725.786    23264.089    78.810663 
   51000    1540.6115   -121.65945    1.3939776   -120.26547   -2808.7018    4.2912341    4.2912341    4.2912341   -2808.7018   -833.80266   -13396.418    5804.1157   -3475.1212     -9462.45   -17829.647    79.021747 
   51100    978.53085   -121.15633   0.88539527   -120.27094   -16546.893    4.2874524    4.2874524    4.2874524   -16546.893    16390.785   -28536.447   -37495.016    141.46102   -12680.061   -81129.581    78.813014 
   51200    1293.1351   -121.43448    1.1700558   -120.26442   -4483.9058    4.2813334    4.2813334    4.2813334   -4483.9058    -10595.44     18158.14   -21014.417    1361.6381   -3698.9522   -15440.217    78.476055 
   51300    1298.9806    -121.4432    1.1753449   -120.26786   -1428.1384    4.2862378    4.2862378    4.2862378   -1428.1384   -25993.558    24601.589   -2892.4458    9164.8756    9872.3707     42111.91     78.74605 
   51400    1264.5036   -121.41474    1.1441495   -120.27059   -11179.747    4.2917964    4.2917964    4.2917964   -11179.747   -2220.7361   -6233.0817   -25085.422    9233.3649     21924.27     2228.179    79.052811 
   51500    1841.6079   -121.92738    1.6663255   -120.26106    10655.422    4.2845008    4.2845008    4.2845008    10655.422    11791.089    11012.294    9162.8837   -4272.3857   -7186.2444   -29235.515    78.650354 
   51600    1582.1883   -121.69651    1.4315972   -120.26491    2628.9574    4.2851481    4.2851481    4.2851481    2628.9574   -21637.447    19758.045    9766.2741    -3030.859   -29177.147   -6715.6189     78.68601 
   51700    753.70108   -120.95882   0.68196457   -120.27686   -17700.561     4.289407     4.289407     4.289407   -17700.561   -30234.651    9782.5876    -32649.62     1324.536    4273.6853    24272.744    78.920855 
   51800    1019.2368   -121.19583   0.92222692   -120.27361   -1741.3611    4.2875281    4.2875281    4.2875281   -1741.3611    209.09248   -223.21432   -5209.9616    3244.7402    29001.643    37736.861    78.817187 
   51900    1788.5223   -121.87391    1.6182926   -120.25562    4169.7376    4.2937814    4.2937814    4.2937814    4169.7376   -2070.0858   -17587.883    32167.182   -6684.8358    -1425.744   -2562.5813    79.162551 
   52000    1419.8977   -121.54128    1.2847532   -120.25653   -5816.7922     4.292652     4.292652     4.292652   -5816.7922    -19225.17   -11985.785    13760.579   -14831.306   -16599.147   -20963.019    79.100101 
   52100    950.41789   -121.12129   0.85995808   -120.26133    642.12366    4.2810579    4.2810579    4.2810579    642.12366   -9133.3713     20704.06   -9644.3179    3110.1276    6521.1151    34325.799    78.460902 
   52200    1125.5849   -121.27988    1.0184528   -120.26143   -2390.2065    4.2861235    4.2861235    4.2861235   -2390.2065    3807.8615    3906.6936   -14885.175    3774.2736    8942.2523    28851.955    78.739751 
   52300    1081.9925   -121.24293    0.9790096   -120.26392   -8205.9291    4.2915329    4.2915329    4.2915329   -8205.9291    23801.105   -32411.804   -16007.088   -8317.7423    3199.1004   -47783.864    79.038252 
   52400    1127.3042   -121.28533    1.0200086   -120.26532    4125.0737    4.2867578    4.2867578    4.2867578    4125.0737    29562.005   -21508.989    4322.2053   -15694.252   -5410.6824   -49885.373    78.774717 
   52500    1839.7396   -121.92053    1.6646351   -120.25589    10572.064    4.2888938    4.2888938    4.2888938    10572.064    8869.2415   -5288.5148    28135.467   -5472.0189    958.12214    20181.276    78.892527 
   52600    1575.5566   -121.68664    1.4255967   -120.26104    8506.0541    4.2879704    4.2879704    4.2879704    8506.0541    32696.786   -12712.146    5533.5223    9655.1906    15397.623   -10806.043    78.841583 
   52700    748.41288   -120.94801   0.67717971   -120.27083    -1857.492    4.2888585    4.2888585    4.2888585    -1857.492    56822.061   -33891.742   -28502.794   -4167.2721    3319.2079   -67347.005    78.890582 
   52800    1242.5185   -121.38625    1.1242568   -120.26199   -7758.0694    4.2932351    4.2932351    4.2932351   -7758.0694    16941.595   -47907.717    7691.9137   -17256.588   -3160.0516   -10727.924    79.132342 
   52900     1638.987   -121.73775    1.4829899   -120.25476    6524.1891    4.2869737    4.2869737    4.2869737    6524.1891   -3778.1326   -21346.378    44697.078   -8013.2208   -8307.1844    22983.578    78.786616 
   53000    1408.2699   -121.53406    1.2742322   -120.25983   -1152.0366    4.2828813    4.2828813    4.2828813   -1152.0366    23800.626   -29176.801    1920.0656    14737.576   -320.16903   -34617.332      78.5612 
   53100    1408.5311   -121.53642    1.2744685   -120.26195   -8264.1535     4.285787     4.285787     4.285787   -8264.1535    22837.481   -35913.555   -11716.387   -2319.4748    21227.953     -40884.1    78.721208 
   53200    988.11715   -121.16172   0.89406916   -120.26765   -12487.806    4.2904072    4.2904072    4.2904072   -12487.806   -15006.816   -43153.565    20696.964   -34474.712    16959.472     10586.38    78.976071 
   53300    941.62908   -121.11925   0.85200578   -120.26725   -17098.658    4.2952992    4.2952992    4.2952992   -17098.658   -17322.227   -58870.321    24896.574   -4039.9051   -5744.8275    25911.723    79.246529 
   53400    1671.2728   -121.76571    1.5122027   -120.25351   -3805.5348    4.2902056    4.2902056    4.2902056   -3805.5348    12365.365   -31872.804    8090.8351     32511.01   -7970.4381   -2413.5965    78.964939 
   53500    1601.2575   -121.70139    1.4488515   -120.25254    2320.2904    4.2850552    4.2850552    4.2850552    2320.2904    2031.3316    400.08584    4529.4538   -3605.9665    30390.892   -4589.2154    78.680888 
   53600    975.63972   -121.14764   0.88277932   -120.26486   -7666.5985    4.2882657    4.2882657    4.2882657   -7666.5985    -7484.646    -14409.48   -1105.6692   -34778.409    27721.494    11052.408    78.857873 
   53700    1165.2373   -121.32155    1.0543312   -120.26722   -4225.3349    4.2895122    4.2895122    4.2895122   -4225.3349    6985.0275    -27414.18    7753.1473   -6647.5156   -13147.183    25762.774    78.926658 
   53800    1632.4259   -121.73651    1.4770533   -120.25946    1941.2439    4.2878672    4.2878672    4.2878672    1941.2439    24125.537   -17550.464   -751.34112    20273.738   -4112.7205    5457.9511    78.835891 
   53900    1403.5155   -121.53116    1.2699303   -120.26123   -1772.9098     4.290297     4.290297     4.290297   -1772.9098   -5287.3269    10909.273   -10940.675    8322.7817    41073.517   -27522.388     78.96999 
   54000    1286.0689   -121.42447    1.1636622   -120.26081   -5550.2183     4.292041     4.292041     4.292041   -5550.2183   -20456.663    5457.9884   -1651.9801   -16978.372    28977.187     2682.795    79.066333 
   54100    1568.2646    -121.6735    1.4189987    -120.2545    179.58383    4.2867201    4.2867201    4.2867201    179.58383    8249.5874   -16294.598    8583.7617   -14265.319   -23556.652    29348.526    78.772635 
   54200     1259.581   -121.39906    1.1396954   -120.25936     274.6193     4.284141     4.284141     4.284141     274.6193    11857.059   -22203.974    11170.773    -61.86463   -4668.5673   -9684.1385    78.630543 
   54300    931.65009   -121.10916   0.84297658   -120.26618   -13136.656    4.2896546    4.2896546    4.2896546   -13136.656   -4666.9954   -14682.955   -20060.017     7811.546    52144.201   -34462.738    78.934522 
   54400    1226.0603    -121.3711    1.1093652   -120.26173   -4690.7324    4.2923685    4.2923685    4.2923685   -4690.7324   -6437.8029    2731.4793   -10365.874    6757.1904    19984.362   -595.95987    79.084429 
   54500    1620.5139    -121.7186    1.4662751   -120.25233   -3624.7579    4.2909764    4.2909764    4.2909764   -3624.7579    4018.5785   -12179.837   -2713.0153    -9744.825   -32061.865    23965.818     79.00751 
   54600    1092.0985   -121.24529   0.98815371   -120.25714   -5804.9148    4.2907956    4.2907956    4.2907956   -5804.9148    26490.001   -28574.299   -15330.447   -19110.707     4548.919   -19770.751    78.997527 
   54700    906.86185    -121.0799   0.82054766   -120.25936    -6683.729    4.2928939    4.2928939    4.2928939    -6683.729    7614.6885   -13621.168   -14044.708    2588.4943    37426.905   -37674.862    79.113476 
   54800    1423.1608   -121.54337    1.2877058   -120.25566    4406.1687    4.2893482    4.2893482    4.2893482    4406.1687   -11537.818    7668.2834     17088.04    26342.117    12659.646    5186.4925    78.917605 
   54900    1771.4381   -121.85576    1.6028345   -120.25292    9652.6874    4.2831497    4.2831497    4.2831497    9652.6874    13032.051    52.554263    15873.457     12013.62   -14563.769    5366.8798     78.57597 
   55000    1370.3159   -121.50185    1.2398906   -120.26196   -535.31545    4.2879188    4.2879188    4.2879188   -535.31545    28404.812   -21226.451   -8784.3069   -19691.603   -6041.9447   -33631.203    78.838736 
   55100    691.01782    -120.8952   0.62524744   -120.26996   -13834.611    4.2933777    4.2933777    4.2933777   -13834.611   -10793.353   -24215.184   -6495.2951    3308.7743    25475.628   -27572.685    79.140225 
   55200    1133.6644   -121.28942    1.0257633   -120.26365   -4190.5561    4.2918377    4.2918377    4.2918377   -4190.5561   -17476.072   -20930.638    25835.042    33376.371    19036.908      11709.2    79.055098 
   55300    1914.4804   -121.98058    1.7322621   -120.24832    2159.4997     4.291856     4.291856     4.291856    2159.4997    21566.369   -20860.942     5773.072    8387.1938   -13130.591   -857.93155    79.056105 
   55400    1527.2694   -121.63515    1.3819055   -120.25324    217.59969    4.2884388    4.2884388    4.2884388    217.59969    34149.091   -9978.8429   -23517.449   -10827.601    943.33838   -36323.673    78.867424 
   55500    1091.4578   -121.24693   0.98757398   -120.25935   -202.60298    4.2864579    4.2864579    4.2864579   -202.60298    966.18539   -10227.226     8653.232    16594.211    20532.411   -23211.032    78.758183 
   55600    1296.7678   -121.43147    1.1733428   -120.25812   -4003.0854    4.2908821    4.2908821    4.2908821   -4003.0854   -5142.5324   -26300.207    19433.483    24757.902    14447.834    14373.266    79.002302 
   55700    1229.9463    -121.3699    1.1128812   -120.25702    2040.5253    4.2895008    4.2895008    4.2895008    2040.5253    28477.495   -1227.5753   -21128.343    811.82302   -14514.859    22544.362     78.92603 
   55800    1013.3254   -121.17579   0.91687808   -120.25892     1242.349     4.290756     4.290756     4.290756     1242.349    25678.415    21819.325   -43770.693   -3080.5306   -28621.544   -6531.7038    78.995337 
   55900    1257.2923   -121.39491    1.1376245   -120.25728   -12533.527    4.2905124    4.2905124    4.2905124   -12533.527   -6554.6697   -17311.198   -13734.713    22524.844   -2818.1603   -18435.991    78.981883 
   56000     1252.738   -121.39089    1.1335036   -120.25738    6000.4163     4.280171     4.280171     4.280171    6000.4163     4624.759   -788.50502    14164.995    27573.813    9408.5403    6120.7954    78.412149 
   56100    1168.2849   -121.32169    1.0570887    -120.2646    -8296.101    4.2874324    4.2874324    4.2874324    -8296.101    9902.9295   -9492.0067   -25299.226   -5080.4051   -16742.555    33256.713     78.81191 
   56200    1363.8573   -121.49359    1.2340468   -120.25954   -13380.521    4.2973372    4.2973372    4.2973372   -13380.521    7606.7445   -11264.191   -36484.117   -9400.8118   -27582.294    17414.128    79.359389 
   56300    1669.2875   -121.76304    1.5104064   -120.25263    4682.7024    4.2892842    4.2892842    4.2892842    4682.7024   -10034.375    5483.3766    18599.106    37172.273   -2668.6879   -11941.059    78.914073 
   56400    1235.1765   -121.37523    1.1176136   -120.25761    843.96724    4.2882635    4.2882635    4.2882635    843.96724   -5637.1078   -23094.183    31263.192    37273.478    13624.505    3983.1745    78.857753 
   56500    1279.5973   -121.41743    1.1578065   -120.25963   -4306.8727    4.2878962    4.2878962    4.2878962   -4306.8727    10936.899   -21759.077   -2098.4401   -17476.132    7375.2286    34784.579     78.83749 
   56600     1420.998   -121.54411    1.2857488   -120.25836    13568.157    4.2840704    4.2840704    4.2840704    13568.157    26417.034    5271.2859    9016.1525   -10627.341   -8892.2367    22683.788    78.626657 
   56700    1414.3057   -121.53994    1.2796935   -120.26024      -6805.1    4.2940649    4.2940649    4.2940649      -6805.1   -28320.163   -27767.133    35671.996    47666.617   -2799.8749   -12875.066    79.178235 
   56800     1307.683   -121.43928    1.1832191   -120.25606   -9424.3068    4.2939937    4.2939937    4.2939937   -9424.3068    -31929.32   -24143.134    27799.533    33922.245    4788.0212    877.38505    79.174295 
   56900    1107.1414   -121.25716    1.0017648    -120.2554    3201.4553    4.2819793    4.2819793    4.2819793    3201.4553    12178.926   -4908.1925    2333.6323     -31977.6    8307.7587    39290.463    78.511576 
   57000    960.28978    -121.1301   0.86889038   -120.26121   -10905.889    4.2874049    4.2874049    4.2874049   -10905.889    5327.8637   -38161.941    116.40941   -9058.2496    11473.681    16763.493    78.810396 
   57100     1351.717   -121.48137    1.2230619   -120.25831   -10128.287     4.289983     4.289983     4.289983   -10128.287   -21131.233    -22672.44    13418.812    41349.053   -8952.7243   -17602.912    78.952651 
   57200    1427.5373    -121.5488    1.2916658   -120.25713    2888.1723    4.2853988    4.2853988    4.2853988    2888.1723   -2649.1242    285.81461    11027.827    7916.5589   -21571.965    5589.4745    78.699816 
   57300    979.46678   -121.15076   0.88624212   -120.26452   -19199.761    4.2914188    4.2914188    4.2914188   -19199.761    3703.8875   -49313.271   -11989.901   -26544.961   -532.01299    41400.299    79.031952 
   57400    1099.7587   -121.25863   0.99508476   -120.26354   -10919.694    4.2883468    4.2883468    4.2883468   -10919.694    9251.2388   -47283.943    5273.6214   -14516.353    21190.125    12668.914    78.862346 
   57500    1578.5112   -121.68284    1.4282701   -120.25457    7636.5432    4.2856343    4.2856343    4.2856343    7636.5432   -8289.9399    14362.218    16837.352    9014.4159    718.07259   -21030.274    78.712794 
   57600    1281.3407   -121.41941     1.159384   -120.26003   -6682.8936    4.2942274    4.2942274    4.2942274   -6682.8936   -20838.392    7445.4479    -6655.737    4515.1854     -46545.6      4540.83    79.187225 
   57700    1037.5089   -121.20353   0.93875989   -120.26477   -7121.7152    4.2872346    4.2872346    4.2872346   -7121.7152   -7196.7397   -12258.277   -1910.1287   -21203.964   -27080.712    33993.061    78.801001 
   57800    1476.0105   -121.59542    1.3355253   -120.25989    14336.821    4.2793554    4.2793554    4.2793554    14336.821     1353.229    18146.241    23510.992   -20268.668    27035.771    17034.383    78.367335 
   57900    1532.4467   -121.64911      1.38659   -120.26252   -2724.8858    4.2903681    4.2903681    4.2903681   -2724.8858    -29511.04    31881.398   -10545.016    2298.0158   -5949.6522   -12277.619    78.973912 
   58000    1318.6445   -121.45746    1.1931373   -120.26433   -8243.3405    4.2925588    4.2925588    4.2925588   -8243.3405   -44503.533     42140.68   -22367.169    8229.8756   -58501.812   -7246.5868    79.094953 
   58100    1444.4304   -121.56576     1.306951   -120.25881    9399.4749    4.2858244    4.2858244    4.2858244    9399.4749   -22241.453    25414.652    25025.226   -13445.474   -19743.966    12418.676     78.72327 
   58200    1737.4496   -121.82549    1.5720809   -120.25341    6988.8284    4.2869153    4.2869153    4.2869153    6988.8284   -6286.8147   -19506.536    46759.836   -28142.856    16355.819    4649.5209      78.7834 
   58300    981.99012   -121.15306    0.8885253   -120.26454   -2021.3666    4.2871182    4.2871182    4.2871182   -2021.3666   -29236.147    1104.9774     22067.07   -1716.7533   -35427.104    -7652.826    78.794585 
   58400    601.04136   -120.81433   0.54383486   -120.27049   -9442.8287    4.2873517    4.2873517    4.2873517   -9442.8287   -47399.699    29120.406   -10049.193    8259.6089   -45349.233    -4089.612     78.80746 
   58500    1342.3955   -121.47693    1.2146276    -120.2623    953.55382    4.2883917    4.2883917    4.2883917    953.55382   -17283.021   -2998.0774     23141.76   -15359.656      18805.7   -5652.8055    78.864824 
   58600    1747.9439   -121.83726    1.5815764   -120.25568    5071.8532    4.2893797    4.2893797    4.2893797    5071.8532   -1341.6182   -15698.801    32255.979   -11275.796    11004.325    6920.4206    78.919347 
   58700     1158.749   -121.31584    1.0484605   -120.26738   -6821.5058    4.2867365    4.2867365    4.2867365   -6821.5058   -29207.723    14333.318   -5590.1117    1491.4227   -61395.498    3324.3774    78.773541 
   58800    984.35754    -121.1593   0.89066738   -120.26863    6811.0575     4.280807     4.280807     4.280807    6811.0575   -31033.271    49019.674    2446.7703    9999.9056   -28191.191   -14948.268    78.447108 
   58900    1444.3895   -121.57132    1.3069139   -120.26441    3639.9376    4.2903189    4.2903189    4.2903189    3639.9376   -11877.535    21983.827    813.52137    4393.1089    43088.576   -3632.0953    78.971196 
   59000    1555.4029   -121.66601    1.4073612   -120.25865   -2030.1717     4.293418     4.293418     4.293418   -2030.1717    600.23427    289.70941   -6980.4587    -5784.412    10975.557    27160.713    79.142457 
   59100    1326.5796   -121.45868    1.2003171   -120.25837    16563.313    4.2810155    4.2810155    4.2810155    16563.313    7189.8249    25348.139    17151.975    3118.9703   -39928.784     29888.03    78.458572 
   59200    1366.4208   -121.49697    1.2363663    -120.2606    649.21964    4.2848517    4.2848517    4.2848517    649.21964   -23413.379    28664.649   -3303.6113    2498.7147   -6138.4562   -12876.566    78.669681 
   59300    1036.2727   -121.20173   0.93764134   -120.26409   -7684.4615    4.2886703    4.2886703    4.2886703   -7684.4615   -9722.4304   -854.89523   -12476.059     2821.671     32151.84   -10745.465    78.880194 
   59400    783.85449   -120.97902   0.70924802   -120.26977   -3659.7875    4.2873912    4.2873912    4.2873912   -3659.7875    27424.661   -29941.397   -8462.6267   -1117.5001    17129.353    55149.782    78.809639 
   59500    1588.0665   -121.70203     1.436916   -120.26511   -609.51692    4.2903526    4.2903526    4.2903526   -609.51692    17172.606   -30404.559    11403.402   -1840.2309   -11813.053    36571.052    78.973058 
   59600    2180.4124    -122.2292     1.972883   -120.25632    21811.606    4.2831568    4.2831568    4.2831568    21811.606    2032.4266    11441.203    51961.187    5878.7848    -5448.792   -21459.216     78.57636 
   59700    1110.9263    -121.2794    1.0051894   -120.27421    3979.1319    4.2866779    4.2866779    4.2866779    3979.1319    15782.863   -11530.575    7685.1074    1870.2054    24219.823    37029.727     78.77031 
   59800     791.3794   -120.98709   0.71605671   -120.27103   -19160.138    4.2968165    4.2968165    4.2968165   -19160.138     13714.13   -38951.169   -32243.375    4538.7815    24080.675    65360.905     79.33054 
   59900     1735.672   -121.82574    1.5704725   -120.25527    10310.575    4.2850214    4.2850214    4.2850214    10310.575    279.42916    18533.967    12118.327    1770.1576   -6451.8937   -6962.6418    78.679026 
   60000    1739.7081   -121.82673    1.5741244   -120.25261    11810.674    4.2823603    4.2823603    4.2823603    11810.674   -764.90801    27874.831    8322.0998   -2709.7674   -29381.908    -11290.38    78.532535 
   60100    905.53743   -121.08504    0.8193493   -120.26569   -18910.869    4.2921014    4.2921014    4.2921014   -18910.869     7724.227   -26217.423    -38239.41    7172.8749   -6656.2255    57753.013     79.06967 
   60200     1007.734   -121.17953   0.91181894   -120.26771   -8917.3734    4.2853585    4.2853585    4.2853585   -8917.3734   -494.94272    3681.2413   -29938.419   -2863.4113    32125.839    39546.579      78.6976 
   60300     1565.202   -121.67635    1.4162277   -120.26012    5307.9455    4.2851148    4.2851148    4.2851148    5307.9455    -21882.85    50034.387     -12227.7    1774.2923    13015.004   -16600.713    78.684173 
   60400    1443.9069   -121.56589    1.3064773   -120.25942   -7492.7864    4.2902843    4.2902843    4.2902843   -7492.7864    6859.7426    8245.9877   -37584.089    4031.5899    -23666.48    16158.918    78.969288 
   60500    907.22599   -121.08585   0.82087714   -120.26498   -2367.9655    4.2849957    4.2849957    4.2849957   -2367.9655     40000.34   -1634.7767    -45469.46   -5037.0446   -13155.054    72697.145    78.677614 
   60600    1265.4719   -121.40723    1.1450256   -120.26221    1387.5773    4.2881287    4.2881287    4.2881287    1387.5773    10246.266    16669.455   -22752.988    1567.1162    19064.796    18785.381    78.850317 
   60700    1735.9694    -121.8251    1.5707416   -120.25436    4932.2524     4.288561     4.288561     4.288561    4932.2524   -2496.9524    6690.3639    10603.346   -1119.4429    27884.486   -27161.632    78.874166 
   60800    816.69489   -121.00724    0.7389627   -120.26828   -1996.5007    4.2834424    4.2834424    4.2834424   -1996.5007    30275.608   -28448.369   -7816.7416   -558.38169    179.96513    38653.845    78.592082 
   60900    514.68746   -120.74164   0.46570003   -120.27594   -23903.774     4.291298     4.291298     4.291298   -23903.774    15909.163   -27896.581   -59723.903    1045.0415   -27771.287     54674.53    79.025275 
   61000    1596.9153   -121.70531    1.4449225   -120.26039    -3198.976    4.2905369    4.2905369    4.2905369    -3198.976   -22910.829     9411.672    3902.2287   -2289.6921   -21255.105   -12762.145    78.983234 
   61100    1708.6827   -121.79866     1.546052   -120.25261    5991.6445    4.2880781    4.2880781    4.2880781    5991.6445   -7689.2187    -2853.017    28517.169    6129.3909    5411.3215    6896.6319    78.847522 
   61200    1021.3583   -121.18529   0.92414644   -120.26115   -10594.977    4.2891836    4.2891836    4.2891836   -10594.977    15120.033   -33601.261   -13303.704    2735.0601   -549.95431    63801.496    78.908523 
   61300     1316.864     -121.448    1.1915263   -120.25648    1991.4872    4.2871258    4.2871258    4.2871258    1991.4872   -1070.2872   -3818.8565    10863.605   -1673.3645    -28748.41     22819.84    78.795003 
   61400    1901.6399   -121.97073    1.7206438   -120.25009   -3633.9488    4.2917872    4.2917872    4.2917872   -3633.9488    -36110.86    22739.927    2469.0864    5249.7477   -20415.243   -20667.688    79.052307 
   61500    1406.5938   -121.53361    1.2727157   -120.26089   -5779.8561     4.287792     4.287792     4.287792   -5779.8561    -14830.32   -6914.0363     4404.788    12247.104     27272.24    12309.113    78.831743 
   61600    901.76574   -121.08499   0.81593659   -120.26905   -346.51269    4.2835608    4.2835608    4.2835608   -346.51269    6315.7319   -21610.338    14255.068    8887.9746    14002.427    53741.405    78.598599 
   61700    1555.2113   -121.67385    1.4071879   -120.26667   -3624.2493    4.2909576    4.2909576    4.2909576   -3624.2493   -12231.231    -942.9911     2301.474   -7995.6732   -21973.113    19182.841     79.00647 
   61800    2082.6746   -122.13881    1.8844477   -120.25436    9009.3974     4.288846     4.288846     4.288846    9009.3974   -10454.425     10143.33    27339.288   -4497.6438   -4915.8056   -24717.239    78.889893 
   61900    806.76508   -121.00077     0.729978   -120.27079   -3327.8807     4.287601     4.287601     4.287601   -3327.8807    4026.3062   -7466.3632   -6543.5852    12311.288     17852.72    28367.576     78.82121 
   62000    451.71237   -120.68374   0.40871884   -120.27502   -23646.201    4.2944076    4.2944076    4.2944076   -23646.201   -12110.172    -25433.38   -33395.051    13091.615    23734.102    51948.385    79.197194 
   62100      1745.19   -121.83582    1.5790846   -120.25673    1193.4352    4.2911084    4.2911084    4.2911084    1193.4352   -17275.528    427.81732    20428.016    3641.8463   -1955.4395    1714.4492    79.014802 
   62200      1829.07   -121.90449     1.654981   -120.24951    11752.211    4.2902705    4.2902705    4.2902705    11752.211     4243.685    9270.3015    21742.646   -7758.9986   -14082.827   -3573.0829    78.968526 
   62300    910.01424   -121.08543       0.8234   -120.26203   -12975.791    4.2944355    4.2944355    4.2944355   -12975.791    16331.691    -37344.49   -17914.575    5416.6892    11409.601    50200.964    79.198737 
   62400    1066.7674   -121.22162   0.96523355   -120.25639   -5062.6028    4.2887668    4.2887668    4.2887668   -5062.6028    9307.7223   -26258.346    1762.8158     12335.86    18397.797    36270.918    78.885518 
   62500    1584.6133   -121.68259    1.4337914   -120.24879    5179.9594    4.2864993    4.2864993    4.2864993    5179.9594   -19110.004    22918.892    11730.991    2124.6541   -28049.276   -13323.989    78.760463 
   62600    1303.1149    -121.4339    1.1790857   -120.25481   -385.21063    4.2887397    4.2887397    4.2887397   -385.21063   -11188.537    16093.027   -6060.1223   -3249.6649    -44085.44    10244.562    78.884027 
   62700     1210.846   -121.35236    1.0955989   -120.25676    3949.3239    4.2880269    4.2880269    4.2880269    3949.3239    27849.307   -27145.763    11144.428   -2991.9192    5244.9267    44972.463    78.844701 
   62800     1147.085   -121.29425    1.0379066   -120.25634   -2516.5303    4.2918012    4.2918012    4.2918012   -2516.5303    5337.6421   -23308.821    10421.588    10793.624    2592.8063    17837.886     79.05308 
   62900    897.29701   -121.07143    0.8118932   -120.25954   -1862.8715    4.2899113    4.2899113    4.2899113   -1862.8715    -39485.99    34895.043   -997.66761    7542.0272   -44027.051   -19132.863    78.948689 
   63000    1120.2948   -121.26989    1.0136663   -120.25622    3653.0214    4.2876209    4.2876209    4.2876209    3653.0214   -20575.292    31842.751   -308.39489   -5512.5497   -21567.786    3564.8479    78.822309 
   63100    1670.4013   -121.75873    1.5114142   -120.24732    2409.3292    4.2918881    4.2918881    4.2918881    2409.3292    24278.035   -22729.296    5679.2484   -3296.5809    15668.595    33492.381    79.057884 
   63200    1382.1281   -121.50651    1.2505786   -120.25594    8409.4318    4.2864871    4.2864871    4.2864871    8409.4318    428.47917    2305.6422    22494.174    5994.7557   -22827.935    7146.0686    78.759791 
   63300    671.70656   -120.87696   0.60777421   -120.26919    1969.7705     4.286809     4.286809     4.286809    1969.7705   -41959.133    50160.078   -2291.6335    11550.473   -52452.689   -16492.242    78.777538 
   63400    1460.8697   -121.58387    1.3218256   -120.26204   -4858.7929    4.2951443    4.2951443    4.2951443   -4858.7929   -22698.663    22385.252   -14262.967    5161.1156    2472.5771   -9975.9382    79.237957 
   63500    2255.7371   -122.28788    2.0410383   -120.24684    7267.3769    4.2912016    4.2912016    4.2912016    7267.3769   -3850.8259    1908.3295    23744.627   -6115.3515     26249.42    8003.1015     79.01995 
   63600    1281.6703   -121.42288    1.1596822    -120.2632   -6377.5436    4.2857974    4.2857974    4.2857974   -6377.5436   -42294.924    21597.267    1565.0261   -1485.0416   -44248.166    10703.459     78.72178 
   63700    703.88635   -120.91084   0.63689116   -120.27395   -9924.1582    4.2822972    4.2822972    4.2822972   -9924.1582   -31597.732    14046.018    -12220.76    12616.433   -54163.564   -16978.065    78.529065 
   63800    1563.3538    -121.6821    1.4145554   -120.26754    3467.1202    4.2883521    4.2883521    4.2883521    3467.1202     21125.27   -24985.168    14261.259    12235.662    3699.6398   -24534.881    78.862639 
   63900    1756.1654   -121.84332    1.5890154   -120.25431   -3245.9644    4.2984553    4.2984553    4.2984553   -3245.9644    9602.3397   -11916.107   -7424.1255   -9085.0459    4444.0194    244.39785    79.421348 
   64000    714.52031   -120.90956   0.64651299   -120.26305   -4521.8328    4.2903248    4.2903248    4.2903248   -4521.8328   -14773.495    10800.888   -9592.8919   -3004.7084   -48987.257    12121.397    78.971522 
   64100    891.57285   -121.06473   0.80671385   -120.25802   -283.83889    4.2861626    4.2861626    4.2861626   -283.83889    -13513.58    -11867.68    24529.744    13348.711   -37817.689   -10035.458    78.741907 
   64200    1970.6635   -122.02636    1.7830977   -120.24326    7464.5473    4.2904181    4.2904181    4.2904181    7464.5473     5787.116   -13650.015    30256.541    4030.6023    23558.042   -15563.413    78.976677 
   64300     1264.156   -121.40348    1.1438349   -120.25964    4935.8411    4.2890958    4.2890958    4.2890958    4935.8411   -19025.085    25462.079    8370.5295   -6363.4625   -9803.4294    5098.7739    78.903674 
   64400    469.95938   -120.69709   0.42522912   -120.27186   -18507.073     4.293917     4.293917     4.293917   -18507.073   -53480.078    14964.181   -17005.324   -7852.8233   -59672.057    15730.134    79.170055 
   64500    1504.2626   -121.62467    1.3610884   -120.26358    -1632.964    4.2908361    4.2908361    4.2908361    -1632.964   -22074.048    -2769.715    19944.871   -3904.0231   -16133.149    5988.9199    78.999762 
   64600    2071.7885   -122.12358    1.8745977   -120.24898    22955.625    4.2803416    4.2803416    4.2803416    22955.625    9008.2195    17642.221    42216.434    4652.2229    12483.754   -14153.677    78.421526 
   64700     1035.278   -121.20206    0.9367413   -120.26532   -5100.1436    4.2895288    4.2895288    4.2895288   -5100.1436   -45907.244    24928.744    5678.0692    109.94385   -34966.497   -7034.5724    78.927573 
   64800    929.86781   -121.10284   0.84136394   -120.26148   -21335.666    4.2976849    4.2976849    4.2976849   -21335.666   -65669.571    7336.3173   -5673.7455   -8136.8655   -44099.148     14755.01    79.378649 
   64900    1601.2653   -121.69878    1.4488585   -120.24992    6999.5791    4.2825055    4.2825055    4.2825055    6999.5791   -214.38311   -9629.7005    30842.821   -6933.0119    10500.531   -5217.0828    78.540522 
   65000    1353.7792   -121.47856    1.2249279   -120.25364    7137.5866    4.2820128    4.2820128    4.2820128    7137.5866    19191.505   -17217.756    19439.011    6515.3716   -853.91259   -39208.082    78.513418 
   65100    829.08956   -121.01219   0.75017765   -120.26201   -16134.443    4.2949774    4.2949774    4.2949774   -16134.443   -31291.847   -11550.232    -5561.249    2984.9599    -53921.79   -17849.538    79.228723 
   65200    1333.8815   -121.46401     1.206924   -120.25708      2378.12    4.2899504    4.2899504    4.2899504      2378.12     -30266.3    6279.1914    31121.469   -9414.7152    -31129.82    14017.871    78.950852 
   65300    1913.7097   -121.98071    1.7315648   -120.24914    14843.199     4.283849     4.283849     4.283849    14843.199      19612.2   -1571.2155    26488.612   -7332.9379    25552.998   -9470.8891    78.614463 
   65400     1484.351   -121.60261    1.3430719   -120.25954    -345.1307    4.2869146    4.2869146    4.2869146    -345.1307    11480.026   -2250.1463   -10265.272    4316.8404   -9575.0752   -35133.347     78.78336 
   65500    786.73977   -120.98312   0.71185867   -120.27127   -10551.859    4.2874115    4.2874115    4.2874115   -10551.859    -14164.86    11680.902   -29171.618    12417.925   -64800.006   -18839.411    78.810758 
   65600    1298.0762   -121.44468    1.1745266   -120.27016   -3245.7462    4.2887641    4.2887641    4.2887641   -3245.7462   -18577.877    4978.5303    3862.1081    3975.7305   -19213.087    5663.2388    78.885372 
   65700    1991.6599   -122.05341    1.8020957   -120.25131    5781.8728    4.2915112    4.2915112    4.2915112    5781.8728    3132.7886    -2508.828    16721.658   -3717.0635    23776.414     7050.599    79.037054 
   65800    977.77467   -121.14785   0.88471107   -120.26314   -706.18801    4.2877623    4.2877623    4.2877623   -706.18801     2625.477    23142.051   -27886.092   -199.60697    -41567.66   -14691.657    78.830105 
   65900    453.82395   -120.67762   0.41062945   -120.26699   -15505.029    4.2883048    4.2883048    4.2883048   -15505.029    -48122.92    14644.453   -13036.621     13693.51   -61970.473   -19357.249    78.860032 
   66000    1293.1979   -121.42657    1.1701126   -120.25645   -4939.0126    4.2904928    4.2904928    4.2904928   -4939.0126   -24907.138   -16417.865    26507.965    26062.673    1237.1883   -2275.9555    78.980798 
   66100    1586.9437   -121.68629       1.4359   -120.25039    4653.8787    4.2883605    4.2883605    4.2883605    4653.8787   -3017.1302    3437.6964     13541.07      4474.94    10752.084    11381.834    78.863101 
   66200    1154.1332   -121.30232     1.044284   -120.25803   -8729.7156    4.2888166    4.2888166    4.2888166   -8729.7156   -25132.429     31144.27   -32200.988   -11358.103   -54219.174    5147.5497    78.888267 
   66300    1263.9334   -121.40038    1.1436335   -120.25675   -2878.1891    4.2869816    4.2869816    4.2869816   -2878.1891   -6212.4226    2948.3759   -5370.5207    20717.464   -38988.992    -10192.47    78.787054 
   66400    1538.1711   -121.64642    1.3917695   -120.25465    481.79357    4.2867299    4.2867299    4.2867299    481.79357    -5812.276   -29379.176    36636.833    39892.485    18770.937   -9270.2983    78.773179 
   66500    1471.9601   -121.58819    1.3318604   -120.25633   -9036.9203    4.2886291    4.2886291    4.2886291   -9036.9203   -12169.104   -2072.1361    -12869.52      1990.08    9205.6561    6697.3066    78.877925 
   66600     1222.631   -121.36485    1.1062623   -120.25859   -2233.3269    4.2869538    4.2869538    4.2869538   -2233.3269    3773.6788    16801.894   -27275.554   -15084.324    -27839.16    9575.7809    78.785522 
   66700    1025.4002   -121.18928   0.92780363   -120.26148   -9193.4243    4.2891992    4.2891992    4.2891992   -9193.4243   -33322.845   -29562.928      35305.5    47147.651   -26547.935    5743.2062    78.909385 
   66800    1398.8419   -121.52293    1.2657015   -120.25723   -1664.1018    4.2880797    4.2880797    4.2880797   -1664.1018   -23500.806   -29486.595    47995.095    52451.726    8000.2142   -4917.3304    78.847614 
   66900    1785.2086   -121.86304    1.6152943   -120.24774     10225.53    4.2876079    4.2876079    4.2876079     10225.53    12853.291    4919.7004    12903.599   -12444.582    3154.7684      279.822     78.82159 
   67000    983.73354   -121.15071   0.89010278   -120.26061   -8952.2879    4.2931765    4.2931765    4.2931765   -8952.2879   -40147.056   -8732.8472     22023.04    11751.983   -29394.082    13080.831      79.1291 
   67100    546.30324   -120.76106   0.49430665   -120.26675   -21082.173    4.2903272    4.2903272    4.2903272   -21082.173   -62677.623   -29661.696    29092.801    64312.608   -22520.396    6321.0808    78.971657 
   67200    1499.9719   -121.61278    1.3572061   -120.25558    1737.2314    4.2851732    4.2851732    4.2851732    1737.2314   -12110.223   -1076.4857    18398.403    11849.055    9091.2406   -12062.404     78.68739 
   67300    1911.0414   -121.97898    1.7291504   -120.24983    7096.3392    4.2883253    4.2883253    4.2883253    7096.3392    4940.3102    18676.476   -2327.7689   -25834.561    4482.2295    73.221711     78.86116 
   67400    998.11113   -121.16782   0.90311192   -120.26471   -12260.446    4.2913253    4.2913253    4.2913253   -12260.446   -17089.339   -9546.5931   -10145.406    39325.626   -19041.064    24183.656    79.026784 
   67500    852.54462   -121.03857   0.77140029   -120.26717    -4676.701     4.289184     4.289184     4.289184    -4676.701   -16760.875    13310.554   -10579.782    57040.327   -26348.979    7927.1475    78.908545 
   67600    1959.7224   -122.02162     1.773198   -120.24842     2229.433    4.2926648    4.2926648    4.2926648     2229.433    8446.3895    17979.413   -19737.504       -15213   -3111.2431   -15216.382    79.100809 
   67700    1695.3577   -121.78059    1.5339953   -120.24659     2886.067    4.2952561    4.2952561    4.2952561     2886.067    16157.915   -4176.6744     -3323.04   -2116.5943    9656.7098    5658.7402    79.244148 
   67800    547.61102   -120.75323   0.49548996   -120.25774   -5885.6989    4.2942534    4.2942534    4.2942534   -5885.6989   -9992.7018   -7886.7842    222.38928    51601.358    -15949.99    26927.175    79.188661 
   67900    1078.1914   -121.22674   0.97557026   -120.25117   -1859.6223    4.2953234    4.2953234    4.2953234   -1859.6223   -184.87619    7853.1003   -13247.091    16752.404    -18348.51    5361.0685    79.247872 
   68000    2047.3989   -122.08468    1.8525296   -120.23215    3988.8236     4.292457     4.292457     4.292457    3988.8236    5236.4242    18509.265   -11779.218   -17324.596    14193.358   -10581.727    79.089321 
   68100    1291.0174    -121.4158    1.1681397   -120.24766   -8082.2103    4.2888375    4.2888375    4.2888375   -8082.2103   -903.91607   -42455.146    19112.431     35717.48    4846.0785    17811.269    78.889424 
   68200     726.7981   -120.91931    0.6576222   -120.26169   -13054.633    4.2886298    4.2886298    4.2886298   -13054.633   -7977.4275    -39871.63    8685.1586    51069.889   -27363.882    27616.154    78.877963 
   68300    1498.5643    -121.6149    1.3559324   -120.25897    1660.1319    4.2870975    4.2870975    4.2870975    1660.1319   -5454.5167    23589.168   -13154.256   -1741.7423   -18805.688    3143.4955    78.793442 
   68400    1809.9054   -121.88949    1.6376405   -120.25184    13787.084    4.2876146    4.2876146    4.2876146    13787.084    19220.552    17722.884    4417.8174   -6697.1291    10731.494   -9673.9551    78.821957 
   68500    935.57718   -121.10946   0.84652989   -120.26293    1298.2352    4.2902494    4.2902494    4.2902494    1298.2352    889.71234    -11272.32    14277.314    47850.827    12354.807     10334.97    78.967362 
   68600    719.37098   -120.91369   0.65090198   -120.26278   -5618.6073    4.2931973    4.2931973    4.2931973   -5618.6073     -835.196    190.26434    -16210.89    38254.729   -14563.931    23272.408    79.130251 
   68700    1605.8911   -121.69887     1.453044   -120.24583    2320.7476    4.2922957    4.2922957    4.2922957    2320.7476    27586.239    14604.359   -35228.355   -13205.825    -25996.85    3558.9174    79.080407 
   68800    1600.9186   -121.69498    1.4485448   -120.24643    6398.9199    4.2871608    4.2871608    4.2871608    6398.9199    11977.154    3289.5727    3930.0332    13994.069    3637.5627   -11668.805    78.796934 
   68900     877.0754   -121.05452   0.79359626   -120.26092   -11450.264    4.2877257    4.2877257    4.2877257   -11450.264   -19504.933   -30023.858    15177.998    67374.664     16832.32    8482.8944    78.828089 
   69000    1025.9515   -121.19167   0.92830249   -120.26337   -6540.4645    4.2883791    4.2883791    4.2883791   -6540.4645    20224.553   -25632.235   -14213.711    21057.177   -6636.1723    30847.135    78.864132 
   69100    1715.2282   -121.80562    1.5519745   -120.25364    1319.2939    4.2890861    4.2890861    4.2890861    1319.2939    14621.994   -3657.2278   -7006.8845   -20096.373    -15800.96    16476.074    78.903139 
   69200    1477.4788   -121.59247    1.3368539   -120.25562   -6557.8061    4.2888238    4.2888238    4.2888238   -6557.8061   -33411.847   -24601.926    38340.354    43099.494   -2339.6118   -13215.776    78.888666 
   69300    1143.0481   -121.29355    1.0342539    -120.2593    8.7959483     4.284827     4.284827     4.284827    8.7959483   -5420.0574   -38138.507    43584.952    50006.544    2974.0621    1961.0782    78.668318 
   69400    1495.7947   -121.60529    1.3534265   -120.25187    2297.4116    4.2893256    4.2893256    4.2893256    2297.4116    15809.912   -10787.206    1869.5284   -13040.405    1491.9629    40537.226    78.916358 
   69500     1283.263    -121.4133    1.1611234   -120.25218    -16289.58    4.2946795    4.2946795    4.2946795    -16289.58    -18468.21   -20499.041   -9901.4893    7600.9021   -8949.0343    16911.451    79.212236 
   69600    744.94964   -120.93505   0.67404609     -120.261   -5709.6685    4.2833044    4.2833044    4.2833044   -5709.6685   -22241.012   -21677.045    26789.052    60314.317   -6673.2399   -29250.983    78.584484 
   69700    1246.2476   -121.38604     1.127631   -120.25841    5739.6399    4.2831911    4.2831911    4.2831911    5739.6399    7521.9093   -2301.2543    11998.265    24391.824    1247.8453   -9725.4892    78.578251 
   69800    1790.8009   -121.86757    1.6203543   -120.24721   -2950.3105    4.2973933    4.2973933    4.2973933   -2950.3105    10224.132    4949.9547   -24025.018   -21142.037    1749.8307    23832.281    79.362494 
   69900    1001.9993   -121.16567      0.90663   -120.25904   -2423.2527    4.2915729    4.2915729    4.2915729   -2423.2527    -8179.235   -4764.6493    5674.1263    35960.461    2658.5339    11683.636    79.040464 
   70000    537.07978   -120.74945   0.48596107   -120.26349   -686.17352    4.2839668    4.2839668    4.2839668   -686.17352    99.948962   -9126.9374    6968.4679    63038.627   -5535.6666    -17909.03    78.620948 
   70100    1505.7809   -121.62104    1.3624622   -120.25858   -216.34228    4.2891522    4.2891522    4.2891522   -216.34228    17117.684    2467.3501   -20234.061   -5866.0994   -11714.592    -27151.17    78.906788 
   70200    1961.2321   -122.02601     1.774564   -120.25144    12847.254    4.2863917    4.2863917    4.2863917    12847.254    16781.261    8677.4977    13083.005   -2466.3776    -3550.558    171.79472    78.754536 
   70300    1254.5371   -121.39817    1.1351316   -120.26303    5234.0248    4.2880109    4.2880109    4.2880109    5234.0248    1556.4878    -31368.77    45514.357    62129.588    8467.6717    10039.666    78.843819 
   70400    1124.9447   -121.27841    1.0178736   -120.26053   -12780.033    4.2946081    4.2946081    4.2946081   -12780.033   -18327.115   -30566.528    10553.545    34126.495    10951.863   -13281.462    79.208286 
   70500    1562.5362   -121.66323    1.4138156   -120.24942    7377.8522    4.2866799    4.2866799    4.2866799    7377.8522    19591.658   -1139.8268    3681.7257   -22142.804   -4105.0892   -19690.893    78.770423 
   70600    1282.9928   -121.41257    1.1608789   -120.25169    -1436.011    4.2851827    4.2851827    4.2851827    -1436.011   -9919.5403   -31594.572    37206.079    39648.078   -13344.735    -4243.235    78.687914 
   70700    1117.2409   -121.26901     1.010903    -120.2581   -7843.5392    4.2901977    4.2901977    4.2901977   -7843.5392   -40410.656   -31663.247    48543.285    68609.387   -5879.2947    7205.6012    78.964504 
   70800    1805.2318   -121.88186    1.6334117   -120.24845    6981.4633    4.2852941    4.2852941    4.2852941    6981.4633    644.84581    7783.5049    12516.039   -7297.6087    12292.827   -7778.1188     78.69405 
   70900     1228.408   -121.36862    1.1114894   -120.25713   -8056.4476    4.2900646    4.2900646    4.2900646   -8056.4476    -8905.957     162.4264   -15425.812    3536.2308    2415.0589    -19474.06    78.957153 
   71000    255.12493   -120.49931    0.2308424   -120.26847   -24710.038    4.2943673    4.2943673    4.2943673   -24710.038    -54853.84   -24199.206    4922.9321    80476.911   -9081.1441   -4036.9022    79.194963 
   71100    1116.8767    -121.2704    1.0105735   -120.25983    3704.5202     4.288132     4.288132     4.288132    3704.5202   -10937.979    10769.802    11281.738    30572.554   -12018.297    11659.178    78.850498 
   71200     2052.148   -122.09984    1.8568266   -120.24301    6157.3828    4.2913356    4.2913356    4.2913356    6157.3828    11711.448     11578.19   -4817.4889   -21004.436   -3092.9957     -3119.24    79.027352 
   71300    1153.1297   -121.30509     1.043376   -120.26172    -1162.797    4.2891815    4.2891815    4.2891815    -1162.797   -12588.312   -27431.407    36531.328    54217.656    5179.9484   -8916.2334    78.908404 
   71400    844.80801   -121.02899   0.76440005   -120.26459    5130.2892    4.2843792    4.2843792    4.2843792    5130.2892   -14453.322   -13677.172    43521.362    59925.518   -2831.6057   -7991.6309     78.64366 
   71500    1575.3073    -121.6791    1.4253712   -120.25372    4824.3058    4.2905853    4.2905853    4.2905853    4824.3058    -6154.857    21618.791    -991.0162   -15991.433   -17068.766    1561.1026    78.985906 
   71600    1513.9285   -121.62304    1.3698343    -120.2532    5727.6582    4.2880166    4.2880166    4.2880166    5727.6582   -4748.1727    443.74324    21487.404    14124.487   -9436.9611    11448.704    78.844129 
   71700    1266.2845   -121.40216    1.1457608    -120.2564    8077.5853    4.2857678    4.2857678    4.2857678    8077.5853   -16945.709   -22452.854    63631.319    64385.749    6633.9685   -2672.1693     78.72015 
   71800    1740.4215   -121.82429      1.57477   -120.24952    169.97404    4.2907052    4.2907052    4.2907052    169.97404   -25281.096   -2141.9397    27932.958    12372.058    -9019.729   -4942.0109     78.99253 
   71900    1452.5258   -121.56947    1.3142758    -120.2552    60.575306    4.2863334    4.2863334    4.2863334    60.575306   -27837.681    24508.553    3510.8542   -27363.042   -18732.308   -4008.5001     78.75132 
   72000    728.75169   -120.92407   0.65938984   -120.26468    -4624.004    4.2841873    4.2841873    4.2841873    -4624.004   -32087.878   -2525.8317    20741.698    34874.244   -7647.3261    104.75702    78.633094 
   72100    1104.8553   -121.26176   0.99969625   -120.26206   -12720.526    4.2922083    4.2922083    4.2922083   -12720.526   -20844.383   -30849.837    13532.641     50283.86    9687.4696     15140.46     79.07558 
   72200    1538.3854   -121.64214    1.3919635   -120.25018   -4447.2625    4.2914881    4.2914881    4.2914881   -4447.2625   -9647.9258   -16143.144    12449.283   -15136.217   -4915.7701    9016.4835    79.035778 
   72300    1165.2436   -121.30764    1.0543369   -120.25331   -1202.6806    4.2836677    4.2836677    4.2836677   -1202.6806   -29698.595    2226.9687    23863.584   -13086.558   -21682.844   -2095.1293    78.604484 
   72400    774.73122   -120.96077   0.70099309   -120.25978   -6096.4098    4.2871821    4.2871821    4.2871821   -6096.4098    -21812.28   -15295.374    18818.424    42507.792    4323.1664    670.07345    78.798109 
   72500    1241.7025   -121.37856    1.1235185   -120.25504   -7051.2361    4.2909179    4.2909179    4.2909179   -7051.2361    -5281.392   -33225.026     17352.71    25006.299    9084.0428    11071.145    79.004281 
   72600    1560.8444   -121.66447    1.4122849   -120.25218    6058.5839    4.2856444    4.2856444    4.2856444    6058.5839     10035.54   -13464.227    21604.438   -30591.499   -7055.1544    15469.144    78.713348 
   72700    1146.0322   -121.29877     1.036954   -120.26181   -622.74341    4.2875137    4.2875137    4.2875137   -622.74341   -9496.0929   -14473.286    22101.149   -2473.2004   -8022.6059    2284.0206    78.816392 
   72800    1288.3243   -121.42971    1.1657029   -120.26401   -1458.1376    4.2875486    4.2875486    4.2875486   -1458.1376   -22395.649   -22630.215    40651.451     59232.46   -1012.5973    -8301.249    78.818318 
   72900    1969.8399   -122.03566    1.7823526   -120.25331    20205.517    4.2843755    4.2843755    4.2843755    20205.517    15182.199    17027.235    28407.118    18343.575    8153.3759    261.61671    78.643453 
   73000    1618.2622   -121.72187    1.4642376   -120.25763   -1498.2223    4.2925836    4.2925836    4.2925836   -1498.2223    4241.6696   -8683.5453   -52.791056   -43369.223    3686.3196     9013.308    79.096324 
   73100    697.98141   -120.89912   0.63154825   -120.26757   -10173.479    4.2888391    4.2888391    4.2888391   -10173.479   -26364.207   -27068.965    22912.736   -2578.2308   -10793.951    12951.834    78.889512 
   73200    1098.8454   -121.25282   0.99425844   -120.25856    12216.363    4.2810104    4.2810104    4.2810104    12216.363     12505.57   -2689.7485    26833.267    41997.485   -7596.6764    1671.0506    78.458292 
   73300    1455.9579   -121.56931    1.3173813   -120.25193    -4345.654    4.2922102    4.2922102    4.2922102    -4345.654    27421.348   -21795.345   -18662.965    6128.5294    5252.9118   -25914.776    79.075682 
   73400    995.39134   -121.15984     0.900651   -120.25919   -5745.8728    4.2880684    4.2880684    4.2880684   -5745.8728    3343.2352   -18252.476   -2328.3781   -34226.469    2663.6194   -15033.696     78.84699 
   73500    1185.9951   -121.32918    1.0731133   -120.25607    13357.922    4.2816098    4.2816098    4.2816098    13357.922   -99.925087   -3594.1955    43767.886   -8529.1287    -7718.024    13301.069    78.491251 
   73600    1549.4086   -121.65408    1.4019374   -120.25214   -10193.737     4.294616     4.294616     4.294616   -10193.737    1389.7847   -41440.331    9469.3341    23077.228   -2921.2175   -16831.166    79.208726 
   73700    1245.0958   -121.38327    1.1265888   -120.25669   -2990.3528    4.2882096    4.2882096    4.2882096   -2990.3528    28714.128   -39570.652     1885.465    2896.7531    8573.1599   -47975.939    78.854781 
   73800    1160.6196     -121.308     1.050153   -120.25785    5641.1779    4.2801711    4.2801711    4.2801711    5641.1779   -10532.077      1859.73    25595.881   -24427.441    7532.3916   -12370.548    78.412155 
   73900    1496.5846   -121.61157    1.3541412   -120.25743   -10040.577    4.2912319    4.2912319    4.2912319   -10040.577   -45379.627    -3642.994    18900.891   -23731.326   -7285.4172    17784.078    79.021627 
   74000    1721.2409   -121.81002    1.5574149   -120.25261    224.88378    4.2874553    4.2874553    4.2874553    224.88378    10034.587    -14962.83    5602.8935    3721.3823   -12680.306   -26957.193    78.813172 
   74100    1551.9785   -121.65795    1.4042628   -120.25369    5144.7636    4.2848445    4.2848445    4.2848445    5144.7636    22084.734   -7436.6426    786.19931    5288.7483    12757.982   -49094.286    78.669285 
   74200     1191.197   -121.33708    1.0778201   -120.25926   -17853.225    4.2916116    4.2916116    4.2916116   -17853.225   -50930.289    3155.5615   -5784.9488   -28957.715    20627.657   -2291.9876    79.042604 
   74300    1206.8859   -121.35233    1.0920157   -120.26031     804.7006    4.2834132    4.2834132    4.2834132     804.7006   -35570.674    32470.789    5513.9866     -24967.3     2970.225    11879.067    78.590475 
   74400    1731.8771   -121.82148    1.5670388   -120.25445    8088.7869    4.2838648    4.2838648    4.2838648    8088.7869    13408.115     12603.09   -1744.8442    1697.3417    -11816.84   -12998.663    78.615336 
   74500    1550.4828   -121.65743    1.4029094   -120.25452   -5816.8084    4.2929885    4.2929885    4.2929885   -5816.8084   -6148.2064   -16267.806    4965.5868    13747.524    398.71967   -18466.325    79.118705 
   74600    986.07097   -121.15098   0.89221774   -120.25876   -4651.8078    4.2864679    4.2864679    4.2864679   -4651.8078   -27696.441    3884.0883    9856.9288   -758.64206    32474.492   -5380.4068    78.758731 
   74700    1194.2613   -121.33856    1.0805927   -120.25797   -2298.9529     4.286101     4.286101     4.286101   -2298.9529      4617.03    4292.3887   -15806.277   -19910.732    13722.943     16957.92    78.738509 
   74800    1464.1135   -121.57342    1.3247607   -120.24866   -4744.0944    4.2916573    4.2916573    4.2916573   -4744.0944    24156.956   -32303.497   -6085.7423    7613.2233   -14579.395     19626.34     79.04513 
   74900     1094.411   -121.24262   0.99024605   -120.25237   -3034.5391    4.2858564    4.2858564    4.2858564   -3034.5391    7664.6769   -28120.119    11351.825    30392.795    9717.8861   -7214.8156    78.725034 
   75000    850.52712   -121.02859   0.76957481   -120.25902   -9961.4111    4.2860526    4.2860526    4.2860526   -9961.4111   -20724.304   -8645.5168   -514.41227    13199.173    32380.449   -10333.549    78.735843 
   75100    1232.1357   -121.36916    1.1148623    -120.2543   -12731.336     4.289182     4.289182     4.289182   -12731.336     6429.237   -23397.042   -21226.203   -10046.822    23968.966    27082.201    78.908432 
   75200    1373.1354   -121.49611    1.2424418   -120.25367    5621.4626    4.2859205    4.2859205    4.2859205    5621.4626    33891.475   -25607.788    8580.7009    4164.0641   -11029.104    44699.217    78.728566 
   75300    1430.5754   -121.54993    1.2944146   -120.25551   -4032.7931    4.2882208    4.2882208    4.2882208   -4032.7931       -24030   -9340.6093     21272.23    30087.855    4028.3961     860.8101    78.855395 
   75400    1309.9883   -121.44239    1.1853049   -120.25708    285.34322    4.2883664    4.2883664    4.2883664    285.34322   -34062.227    10173.275    24744.982    18445.006    32439.495   -7887.7997    78.863427 
   75500    1343.7247   -121.47392    1.2158303   -120.25809     1818.755     4.285063     4.285063     4.285063     1818.755    21224.423   -286.39289   -15481.765   -8806.8793     14903.08     48403.49    78.681322 
   75600    1508.2687   -121.62095    1.3647132   -120.25624    4322.6757    4.2878062    4.2878062    4.2878062    4322.6757    29382.038   -9646.5286   -6767.4821   -220.11987   -8054.9296    41505.036    78.832527 
   75700    1643.1553   -121.73855    1.4867615   -120.25179    6001.1624    4.2895714    4.2895714    4.2895714    6001.1624   -14394.049   -3460.3389    35857.875    20960.168   -399.73671   -10846.112    78.929928 
   75800    1034.1477   -121.19402   0.93571855    -120.2583   -396.92032    4.2863188    4.2863188    4.2863188   -396.92032    1088.0113   -5801.4544    3522.6822    19564.643    25976.601    9260.0858    78.750518 
   75900    715.28921   -120.91098   0.64720871   -120.26377   -8765.8169    4.2861829    4.2861829    4.2861829   -8765.8169    38235.249   -21562.431   -42970.269   -1282.5236    24863.627    58188.089    78.743026 
   76000    1417.0074    -121.5374    1.2821381   -120.25526   -2587.0159      4.28824      4.28824      4.28824   -2587.0159    29903.613   -23057.773   -14606.887   -5788.2413   -10172.717    25827.341    78.856455 
   76100    1500.8814   -121.61216     1.358029   -120.25413    11014.563     4.286666     4.286666     4.286666    11014.563     13094.62   -15020.508    34969.577     13224.83   -12464.503   -21311.009    78.769652 
   76200    961.01829   -121.13386   0.86954955   -120.26431   -7896.0559    4.2872308    4.2872308    4.2872308   -7896.0559    6393.0599   -29186.385   -894.84234    17540.512    16303.583    23891.929    78.800796 
   76300    1055.9158   -121.21912    0.9554148    -120.2637   -8623.4589    4.2888232    4.2888232    4.2888232   -8623.4589    20691.982   -20045.833   -26516.526    6721.3519    22218.926     47510.68    78.888636 
   76400    1797.9245   -121.88056    1.6267998   -120.25376     6047.865    4.2870091    4.2870091    4.2870091     6047.865    26379.527    21.838585   -8257.7709   -7064.7409   -1604.9297   -7081.8578    78.788571 
   76500    1804.2665   -121.88493    1.6325382   -120.25239    6178.9165    4.2877296    4.2877296    4.2877296    6178.9165    3241.1086   -11185.658    26481.299    4149.5634   -13654.537   -15417.841    78.828304 
   76600    1243.1844   -121.38567    1.1248594   -120.26081   -5216.7065    4.2884098    4.2884098    4.2884098   -5216.7065   -545.09106   -18811.302    3706.2733     23049.43    11137.811    37603.895    78.865824 
   76700    1105.7228   -121.26319    1.0004812   -120.26271   -371.21186    4.2856123    4.2856123    4.2856123   -371.21186     22759.51   -16604.115   -7269.0299    11126.608    13912.386    34438.478    78.711581 
   76800    1585.0114   -121.69186    1.4341516   -120.25771     4055.739    4.2875645    4.2875645    4.2875645     4055.739      20119.1   -701.73308   -7250.1497   -7273.3197   -13162.654   -21538.536    78.819196 
   76900    1753.3575   -121.83793    1.5864748   -120.25146    5140.9991    4.2882896    4.2882896    4.2882896    5140.9991    12485.326    2616.0409    321.63052    3011.3244   -8216.0355   -11766.396    78.859194 
   77000    874.44297   -121.05322   0.79121437   -120.26201     3503.323    4.2861217    4.2861217    4.2861217     3503.323    25890.494   -25225.073    9844.5483    21087.153    11924.313    49670.349    78.739654 
   77100    575.88326   -120.78972   0.52107128   -120.26864   -15715.079    4.2896282    4.2896282    4.2896282   -15715.079    10316.442   -28857.989   -28603.691    19023.897    17925.641    28518.965    78.933063 
   77200    1567.6528   -121.67278    1.4184452   -120.25433   -3088.5029    4.2881137    4.2881137    4.2881137   -3088.5029   -1141.3054    18957.907    -27082.11   -4094.0696    11556.637   -24447.956    78.849487 
   77300    1636.7877   -121.73402    1.4809999   -120.25302    3857.6712    4.2866358    4.2866358    4.2866358    3857.6712    12932.143    772.08363    -2131.213   -14123.521   -9606.1045    14532.864    78.767991 
   77400    642.65141   -120.85104    0.5814845   -120.26956   -12170.664    4.2901958    4.2901958    4.2901958   -12170.664    1362.6489   -24881.604   -12993.038    10320.928    2860.2241    49228.666    78.964397 
   77500    950.91997   -121.12742   0.86041237     -120.267    -6591.769    4.2872654    4.2872654    4.2872654    -6591.769   -22666.138    23237.103   -20346.272    25065.805    23564.116    22698.449    78.802702 
   77600    1960.5462   -122.02856    1.7739434   -120.25462    7276.8502    4.2844443    4.2844443    4.2844443    7276.8502   -12083.569    28237.127    5676.9935    12999.191    13723.828   -19877.911    78.647246 
   77700    1556.8239   -121.66819     1.408647   -120.25954   -2170.0243    4.2886915    4.2886915    4.2886915   -2170.0243    12060.347   -9421.8756   -9148.5447   -14637.751   -2858.9061    5468.9899    78.881368 
   77800    1041.1927   -121.20734   0.94209308   -120.26525   -14918.104     4.290198     4.290198     4.290198   -14918.104    1749.6995   -39660.133   -6843.8769   -2286.4987    -6212.223    51143.072    78.964524 
   77900     1550.803    -121.6625    1.4031991    -120.2593    3713.4455    4.2838513    4.2838513    4.2838513    3713.4455   -5805.5041   -13993.938    30939.779    12890.647    12924.476    15288.784    78.614593 
   78000    1901.3065   -121.97152    1.7203421   -120.25118    4216.8627    4.2846065    4.2846065    4.2846065    4216.8627    2156.9685   -17847.012    28340.632   -1017.8308    9579.0363   -28505.343    78.656177 
   78100    723.29985   -120.92404   0.65445691   -120.26958   -18187.411    4.2913611    4.2913611    4.2913611   -18187.411    18684.865    -74380.46    1133.3625    -10841.89   -5483.7551    9629.5166    79.028764 
   78200     615.9443   -120.83145   0.55731935   -120.27413   -12689.844    4.2888476    4.2888476    4.2888476   -12689.844    19905.892   -67676.769    9701.3446   -13176.309   -4451.1143    47158.362    78.889979 
   78300    1849.8232   -121.93175    1.6737589   -120.25799    15291.021    4.2831582    4.2831582    4.2831582    15291.021    6666.1846    5057.3408    34149.538   -509.32558   -10082.849    9582.8102    78.576439 
   78400    1784.3867   -121.86939    1.6145506   -120.25484    6585.4118    4.2879172    4.2879172    4.2879172    6585.4118    3874.9716   -20549.523    36430.787    9780.1324    3592.1044   -13011.946    78.838646 
   78500    783.02978   -120.97501    0.7085018   -120.26651   -16263.255    4.2930816    4.2930816    4.2930816   -16263.255    26731.391   -67887.271   -7633.8838   -5868.6379    7690.5018    26156.893    79.123853 
   78600    1014.2791   -121.17944   0.91774108   -120.26169   -802.21899    4.2878921    4.2878921    4.2878921   -802.21899    28234.098    -27478.15   -3162.6051    -7992.307   -9824.7128    27805.016    78.837264 
   78700    1902.8886    -121.9685    1.7217736   -120.24673    10678.769    4.2839886    4.2839886    4.2839886    10678.769   -13153.753    9239.3963    35950.664    16683.152   -1153.9461   -7619.8263    78.622153 
   78800    1280.0499   -121.41612    1.1582161    -120.2579    564.04559    4.2874234    4.2874234    4.2874234    564.04559   -14893.624   -2733.6775    19319.438    29688.119    4450.9533     4010.684    78.811416 
   78900    707.56811   -120.90719    0.6402225   -120.26697   -6143.3261    4.2895509    4.2895509    4.2895509   -6143.3261    14487.378   -23056.567   -9860.7891   -2109.5416    3662.3076    43705.804    78.928796 
   79000    1345.2168   -121.47291    1.2171804   -120.25573    5360.2167    4.2905707    4.2905707    4.2905707    5360.2167    13230.337   -7948.6607    10798.974    -12885.64    4826.8393    12411.095    78.985101 
   79100    1769.1078   -121.84574    1.6007259   -120.24501    5308.3285    4.2913365    4.2913365    4.2913365    5308.3285   -23535.602    14512.272    24948.315     26063.32   -10718.825   -19770.509    79.027401 
   79200    966.20662   -121.13165   0.87424405   -120.25741   -194.58285    4.2871421    4.2871421    4.2871421   -194.58285    808.66598   -25799.888    24407.473    27082.615   -3881.4153    32713.743    78.795901 
   79300    1065.0872   -121.22517   0.96371329   -120.26146    3262.1279    4.2840321    4.2840321    4.2840321    3262.1279     22802.32   -32865.441    19849.504   -4842.6604    5144.8068    55990.008    78.624548 
   79400    1982.5835   -122.04564    1.7938832   -120.25176    7109.8976    4.2906445    4.2906445    4.2906445    7109.8976    12757.349    11684.562   -3112.2181   -13707.084    852.36932   -149.61959     78.98918 
   79500    1764.9083   -121.85193    1.5969261     -120.255    10124.705    4.2904895    4.2904895    4.2904895    10124.705    9813.8891    1613.9128    18946.312    15069.807   -5889.2141   -13305.682    78.980616 
   79600     716.4034   -120.91543   0.64821685   -120.26721    4122.4471    4.2864464    4.2864464    4.2864464    4122.4471    26080.509   -14237.933    524.76497    27310.386   -9106.1057    49764.157    78.757548 
   79700     1101.303   -121.25918   0.99648207   -120.26269   -7560.1562    4.2934701    4.2934701    4.2934701   -7560.1562    17485.052   -28557.974   -11607.547   -1981.3473      6181.59    42921.494    79.145335 
   79800    1934.5186   -121.98907    1.7503931   -120.23867    4968.8082    4.2927134    4.2927134    4.2927134    4968.8082   -2565.3005    3150.8734    14320.852   -11541.454   -701.55097   -21948.685    79.103496 
   79900    816.90237   -120.99416   0.73915043   -120.25501   -10071.025    4.2915783    4.2915783    4.2915783   -10071.025   -1161.4825   -16989.026   -12062.568    10487.776   -13883.973    17461.715    79.040765 
   80000    245.53121   -120.48528    0.2221618   -120.26311   -30544.471    4.2940462    4.2940462    4.2940462   -30544.471   -2031.5158   -73276.209    -16325.69     28367.22   -6688.3304     62868.98    79.177199 
   80100    1518.6277   -121.62632    1.3740863   -120.25223    3316.4443    4.2825133    4.2825133    4.2825133    3316.4443   -3879.5174   -18977.802    32806.653    11458.938    3551.6565    8793.3231    78.540954 
   80200    1920.5735   -121.98875    1.7377753   -120.25097    6641.0213    4.2844222    4.2844222    4.2844222    6641.0213   -649.22399    9025.4159    11546.872    -11724.96    12236.387   -11014.849    78.646026 
   80300    1102.0101   -121.26174   0.99712188   -120.26462   -22487.607    4.2945562    4.2945562    4.2945562   -22487.607    9122.1342   -45305.442   -31279.514    4239.4957   -8958.8109    49641.492    79.205416 
   80400    1155.8333   -121.31071    1.0458222   -120.26489    -3385.007    4.2856039    4.2856039    4.2856039    -3385.007    23783.825   -29564.732   -4374.1139    25586.377   -15735.605    40064.603     78.71112 
   80500    1940.3181   -122.00586    1.7556406   -120.25022    4468.9241    4.2890886    4.2890886    4.2890886    4468.9241   -3367.0716    6342.4432    10431.401    6930.0745    19542.507   -13168.032     78.90328 
   80600    1585.8616   -121.68637    1.4349209   -120.25145   -9923.2213    4.2945143    4.2945143    4.2945143   -9923.2213   -6902.8106    6243.4759   -29110.329   -15133.886    23021.907    8422.3416    79.203098 
   80700    821.36354   -121.00412   0.74318699   -120.26093    1915.2251    4.2834332    4.2834332    4.2834332    1915.2251    21454.481    5163.2319   -20872.037    720.84043   -9296.2098    59046.879    78.591574 
   80800    1247.0472   -121.38755    1.1283545   -120.25919    -1436.064    4.2887921    4.2887921    4.2887921    -1436.064    5977.3664    5040.7415     -15326.3    12707.997   -21725.901    23087.282    78.886917 
   80900    1852.1817   -121.92558    1.6758929   -120.24969   -2039.8565    4.2910045    4.2910045    4.2910045   -2039.8565   -4764.0356    6953.3598   -8308.8936    3874.8086    4246.2352   -38297.457    79.009063 
   81000    1201.0546   -121.34355    1.0867395   -120.25681    12681.683      4.28186      4.28186      4.28186    12681.683    23966.046     1052.904      13026.1   -5347.8681    13682.331    14093.103    78.505016 
   81100    1035.5504   -121.20129   0.93698779    -120.2643   -8881.6688    4.2887976    4.2887976    4.2887976   -8881.6688    13706.107   -11506.516   -28844.598    -5478.179   -5686.5655    71518.743    78.887222 
   81200    1636.4672   -121.73391    1.4807099    -120.2532    2328.2853    4.2886448    4.2886448    4.2886448    2328.2853    3158.6921   -3781.1588    7607.3227    5737.5154   -7224.4729    5946.1981    78.878786 
   81300      1567.49   -121.67014    1.4182979   -120.25184   -1313.4652    4.2855111    4.2855111    4.2855111   -1313.4652    16106.448   -30689.816    10642.973    8120.0734     1915.716   -43994.593    78.706005 
   81400    540.83961   -120.75378   0.48936305   -120.26441   -25648.318    4.2908225    4.2908225    4.2908225   -25648.318    37897.836   -70294.699   -44548.091    4041.7426    6043.1835    28707.365    78.999011 
   81500    876.29187   -121.05696    0.7928873   -120.26407   -9356.3131    4.2851445    4.2851445    4.2851445   -9356.3131    22477.918   -50319.976    -226.8817   -6499.6175    13500.199     56248.89    78.685807 
   81600    1716.7675   -121.80666    1.5533673   -120.25329    12511.971    4.2840233    4.2840233    4.2840233    12511.971    458.40265   -22423.363    59500.873   -15614.163    -5401.454   -8912.5128    78.624064 
   81700    1329.8519   -121.46243    1.2032779   -120.25915   -4669.8339     4.288328     4.288328     4.288328   -4669.8339    16185.311   -49874.026    19679.213   -1862.5961   -13522.461   -686.02231    78.861311 
   81800    747.74554   -120.94046   0.67657588   -120.26389   -11816.969    4.2896992    4.2896992    4.2896992   -11816.969    43412.827   -82580.127    3716.3934    4952.3171    4652.0838     49152.16    78.936984 
   81900    1366.0982   -121.49302    1.2360744   -120.25695   -9249.9936    4.2905788    4.2905788    4.2905788   -9249.9936     15161.43   -56437.897    13526.486   -12690.183    4560.5102    18027.809     78.98555 
   82000    1845.1779   -121.91963    1.6695558   -120.25007    10694.572    4.2823134    4.2823134    4.2823134    10694.572   -10234.494    2353.0034    39965.205   -21177.304   -13431.185   -14599.392    78.529951 
   82100     1172.035   -121.32229    1.0604819   -120.26181    -31.28743    4.2835386    4.2835386    4.2835386    -31.28743    3294.5786   -13155.429    9766.9876   -6758.3178   -20035.966    37957.175     78.59738 
   82200    1050.9723    -121.2163   0.95094179   -120.26536   -23335.101    4.2950202    4.2950202    4.2950202   -23335.101    24417.672   -47121.807    -47301.17    6680.8824   -3443.6207    53043.551     79.23109 
   82300    1914.0182   -121.98405    1.7318439   -120.25221    1501.7843    4.2875725    4.2875725    4.2875725    1501.7843    20535.374   -14233.907    -1796.114    4165.4429    12864.859   -14195.567    78.819636 
   82400    1761.3496   -121.84525    1.5937061   -120.25154    4903.8567    4.2847078    4.2847078    4.2847078    4903.8567    8294.8677    11023.368   -4606.6656   -5141.3021   -12097.491   -10449.393    78.661757 
   82500    618.28273   -120.82675    0.5594352   -120.26731   -25257.857     4.292268     4.292268     4.292268   -25257.857    21610.728   -21166.325   -76217.975   -2259.4131   -28548.545    67317.978    79.078878 
   82600     873.2951   -121.05936   0.79017576   -120.26918   -306.45585    4.2857848    4.2857848    4.2857848   -306.45585    42017.243   -7447.0191   -35489.591    1704.9366   -7240.5685    43502.465    78.721085 
   82700    1966.9187   -122.03301    1.7797093    -120.2533    10390.836    4.2864798    4.2864798    4.2864798    10390.836    20876.869    2828.3353    7467.3033    3296.0449    8681.4028   -21929.285    78.759388 
   82800    1363.9948   -121.49798    1.2341712   -120.26381   -1696.8304    4.2876875    4.2876875    4.2876875   -1696.8304    40013.944   -27716.027   -17388.408    5780.2752   -4177.3338    27494.211    78.825977 
   82900    559.27525   -120.77959     0.506044   -120.27355   -1569.4299     4.284216     4.284216     4.284216   -1569.4299    55430.587   -33582.144   -26556.733   -352.46885   -20896.397    71225.398    78.634673 
   83000    1337.4468   -121.47345      1.21015    -120.2633   -5330.4044    4.2905565    4.2905565    4.2905565   -5330.4044   -408.90789    2543.4306   -18125.736   -4997.1908   -16603.086    10555.484    78.984318 
   83100    1894.1275   -121.96428    1.7138464   -120.25044    305.86281     4.290215     4.290215     4.290215    305.86281   -7310.2735   -11546.493    19774.355    203.49742    11683.593   -12554.792    78.965463 
   83200    1050.9042    -121.2141   0.95088016   -120.26322   -11104.806    4.2848012    4.2848012    4.2848012   -11104.806    33993.177   -53345.188   -13962.407    4496.7617    6306.9529    55011.306    78.666901 
   83300    773.94466   -120.96724   0.70028139   -120.26696   -14634.684    4.2852151    4.2852151    4.2852151   -14634.684    11758.777   -26141.653   -29521.178    1517.9069   -27475.311    44551.701    78.689698 
   83400    1567.3259   -121.67489    1.4181494   -120.25674   -2879.6487    4.2925385    4.2925385    4.2925385   -2879.6487   -32669.417    18905.319    5125.1521    -4474.063   -29945.548   -20751.083     79.09383 
   83500    1567.5764   -121.66864     1.418376   -120.25027   -7780.2887    4.2935521    4.2935521    4.2935521   -7780.2887   -11197.651   -15473.427    3330.2119    2070.7785    1746.3616    16567.404    79.149873 
   83600    1007.9392   -121.16755   0.91200455   -120.25554   -2890.6844    4.2824335    4.2824335    4.2824335   -2890.6844    25557.776   -29768.298   -4461.5309    12942.164    6392.0464    70212.186     78.53656 
   83700    1158.8221   -121.30487    1.0485266   -120.25635   -4693.6202    4.2856966    4.2856966    4.2856966   -4693.6202   -11148.268    4993.1237   -7925.7167    13167.922   -31475.227    15334.811    78.716225 
   83800    1589.2574   -121.68976    1.4379935   -120.25176   -13932.459    4.2949016    4.2949016    4.2949016   -13932.459   -28192.072    7596.9165   -21202.223   -1168.4678   -36057.258   -29194.858    79.224528 
   83900    1636.1386   -121.73321    1.4804126   -120.25279   -3183.5468    4.2866962    4.2866962    4.2866962   -3183.5468    29398.769   -13894.389   -25055.021   -6665.4374     8125.647     23559.91    78.771321 
   84000    1412.9332   -121.53448    1.2784517   -120.25603    1575.2929    4.2822374    4.2822374    4.2822374    1575.2929    29289.997   -8937.1514   -15626.967    4016.6909    1503.4414    47521.672    78.525774 
   84100      1193.11   -121.34043     1.079551   -120.26088   -7570.4868    4.2905682    4.2905682    4.2905682   -7570.4868   -29433.678    14065.899   -7343.6821    14904.836   -42108.743    6013.8779    78.984964 
   84200    1493.4239   -121.60521    1.3512814   -120.25393   -8035.4128    4.2940919    4.2940919    4.2940919   -8035.4128   -23322.755    11315.655   -12099.139    1730.8122   -27790.759   -12254.458    79.179726 
   84300    1569.3367    -121.6671    1.4199688   -120.24713    -208.0848    4.2894679    4.2894679    4.2894679    -208.0848    20815.706   -4755.7186   -16684.242   -9200.6782    18852.949    16639.517    78.924216 
   84400    904.52379   -121.07259   0.81843213   -120.25416     -3025.84    4.2870659    4.2870659    4.2870659     -3025.84   -1141.1284    11667.338    -19603.73    11195.999   -13093.804    30753.931    78.791704 
   84500    699.17908   -120.89274   0.63263192   -120.26011   -9671.3001    4.2878027    4.2878027    4.2878027   -9671.3001     -49063.9    40677.212   -20627.212    24089.736   -57156.139   -542.11924    78.832334 
   84600    1332.0173   -121.46157    1.2052372   -120.25634    1157.4611    4.2862921    4.2862921    4.2862921    1157.4611   -36458.821    35842.393     4088.811     9124.497   -18027.991   -7745.3005    78.749042 
   84700    1603.5561   -121.70369    1.4509313   -120.25276    8096.1604    4.2866364    4.2866364    4.2866364    8096.1604    4490.8899    20758.758   -961.16682   -8797.3475    14891.852     25210.48    78.768023 
   84800    798.02382   -120.98936   0.72206872   -120.26729    -4718.232    4.2911077    4.2911077    4.2911077    -4718.232   -7741.9956    26229.851   -32642.552   -2042.5611   -36876.967    25700.331    79.014763 
   84900    678.13671   -120.87805   0.61359234   -120.26446   -14825.237    4.2929414    4.2929414    4.2929414   -14825.237   -45811.326     28159.01   -26823.394     16393.95   -52994.411   -4146.2848    79.116101 
   85000    1677.1542   -121.76378    1.5175244   -120.24625    1679.2015      4.29043      4.29043      4.29043    1679.2015   -3708.8541    6503.6684    2242.7902    9739.3814    5568.4972   -13347.103    78.977331 
   85100    1708.9671   -121.79014    1.5463094   -120.24383    1169.9883    4.2921474    4.2921474    4.2921474    1169.9883    18960.019   -5067.8262   -10382.228   -6296.7302    1437.5243    13332.164     79.07221 
   85200     927.9771   -121.09588   0.83965318   -120.25623   -7888.0088    4.2896362    4.2896362    4.2896362   -7888.0088   -13016.185    19663.409   -30311.251    4692.7002   -57013.981    26376.411    78.933504 
   85300    1165.1479    -121.3116    1.0542503   -120.25735    3303.6411    4.2845344    4.2845344    4.2845344    3303.6411   -4466.2866    8782.8257    5594.3842    18534.739   -33600.488    3600.6057    78.652205 
   85400    1937.3499   -122.00352    1.7529549   -120.25057    5690.3131    4.2892623    4.2892623    4.2892623    5690.3131    11120.978   -20308.476    26258.438    11910.123    21011.259   -14385.681    78.912868 
   85500    1548.9459   -121.65967    1.4015188   -120.25815   -5788.9954    4.2908207    4.2908207    4.2908207   -5788.9954    -3965.082    3719.5457    -17121.45   -9570.0075    -26092.21   -1443.7057    78.998912 
   85600    1050.0509   -121.21448   0.95010816   -120.26438   -4593.7145    4.2852325    4.2852325    4.2852325   -4593.7145    -9813.811     28039.58   -32006.912   -1043.0735   -61787.665    13094.128    78.690656 
   85700    1390.0136   -121.51742    1.2577136    -120.2597   -3150.0638    4.2873666    4.2873666    4.2873666   -3150.0638   -16367.354     143.7603    6773.4025    23663.605   -3709.8462    7946.2993    78.808283 
   85800    1455.5409   -121.57267     1.317004   -120.25567   -5594.6331    4.2900123    4.2900123    4.2900123   -5594.6331   -31881.409   -708.57261    15806.083    14203.417    23534.466   -5942.6542     78.95427 
   85900    1202.6735   -121.34382    1.0882042   -120.25561    3883.8114    4.2867538    4.2867538    4.2867538    3883.8114   -10672.227    37236.682   -14913.021   -9143.7893   -27628.157   -8183.3629    78.774495 
   86000    1314.9146   -121.44182    1.1897623   -120.25205   -511.42032    4.2900504    4.2900504    4.2900504   -511.42032   -15214.307    23185.694   -9505.6478    942.66494   -34653.512    42.203189    78.956373 
   86100    1061.3034   -121.21465   0.96028959   -120.25436    2141.4491    4.2864727    4.2864727    4.2864727    2141.4491   -26832.226    4517.6606    28738.912    37833.217    12183.325    3900.5196    78.759001 
   86200    797.76009   -120.98223    0.7218301    -120.2604    6925.2461    4.2826231    4.2826231    4.2826231    6925.2461   -30380.669    23313.708    27842.699    16650.185    28897.244     3353.139    78.546992 
   86300    1331.6128   -121.46333    1.2048712   -120.25846   -5928.0084    4.2904785    4.2904785    4.2904785   -5928.0084    -30202.25    15982.498   -3564.2738   -29260.253   -2061.1993   -5086.2659    78.980009 
   86400    1595.7207   -121.69947    1.4438416   -120.25563    6562.0441    4.2859089    4.2859089    4.2859089    6562.0441   -546.64194     8058.881    12173.893    7714.2414   -13305.215   -12986.138    78.727923 
   86500    1172.5375   -121.32466    1.0609366   -120.26373    2042.3766    4.2844019    4.2844019    4.2844019    2042.3766   -23918.471     5673.288    24372.313    62051.372     7043.902   -8518.1217    78.644907 
   86600    1198.8454   -121.34718    1.0847405   -120.26244   -15329.592    4.2937849    4.2937849    4.2937849   -15329.592   -41353.678   -6360.2348    1725.1385     12598.94    23043.766    4201.6082    79.162749 
   86700    1707.9225   -121.79846    1.5453641    -120.2531    1631.2008    4.2869639    4.2869639    4.2869639    1631.2008    8228.4581   -2151.4655   -1183.3903   -46781.264    11299.007    115.26196     78.78608 
   86800    1572.3754   -121.67727    1.4227183   -120.25455     3136.189    4.2853552    4.2853552    4.2853552     3136.189    20835.829   -20419.092    8991.8296    12542.373    -4963.036   -19017.904    78.697419 
   86900    1360.3131   -121.48951    1.2308399   -120.25867   -15054.026    4.2919344    4.2919344    4.2919344   -15054.026   -7792.6188   -37333.169    -36.28903    60951.302    3912.8034   -11364.965    79.060438 
   87000    1507.9263   -121.62236    1.3644034   -120.25796    1128.1516    4.2826649    4.2826649    4.2826649    1128.1516   -1878.9882    4656.6851    606.75784     2346.875    28953.965    7042.0943    78.549294 
   87100    1579.5856   -121.68762    1.4292423   -120.25838    2593.7019    4.2834964    4.2834964    4.2834964    2593.7019   -3772.8363    9253.2901    2300.6518   -34347.439    10247.201    148.42579    78.595057 
   87200    1287.9107   -121.42458    1.1653287   -120.25925   -13355.632    4.2928074    4.2928074    4.2928074   -13355.632   -10528.988   -32737.953    3200.0438    13622.073   -14924.786   -26069.255    79.108695 
   87300     1029.175   -121.18906   0.93121919   -120.25784   -895.73793    4.2894365    4.2894365    4.2894365   -895.73793    2447.3921   -20348.838    15214.232    36293.604    3711.6066   -14879.772    78.922482 
   87400    1100.6455   -121.25019   0.99588719   -120.25431   -1471.8533    4.2896779    4.2896779    4.2896779   -1471.8533   -21250.747    18603.906   -1768.7184    6252.3521    33702.846    21723.572    78.935808 
   87500    1247.6073   -121.38056    1.1288613   -120.25169   -4268.0669    4.2880983    4.2880983    4.2880983   -4268.0669   -21199.627    12293.037   -3897.6113   -12133.454    16691.324    9338.3097    78.848641 
   87600    1251.7831   -121.38593    1.1326396   -120.25329    2604.0831     4.282003     4.282003     4.282003    2604.0831   -1042.6178   -4536.3092    13391.176    7945.8307   -24251.805   -31144.241    78.512878 
   87700    1025.4948   -121.18883   0.92788927   -120.26094   -10623.862    4.2879648    4.2879648    4.2879648   -10623.862   -30631.628    1018.6916   -2258.6502    22600.579    5542.8467   -13928.442    78.841273 
   87800    897.77365   -121.07577   0.81232447   -120.26344   -15295.608    4.2909004    4.2909004    4.2909004   -15295.608   -32615.972    9690.4466   -22961.298    6804.3969    51926.406    27907.256    79.003313 
   87900    1398.4362    -121.5249    1.2653344   -120.25956   -781.04459    4.2854848    4.2854848    4.2854848   -781.04459    5208.1357     11215.44   -18766.709   -7507.2376    11531.686    13397.445    78.704554 
   88000    1837.0568   -121.91567    1.6622076   -120.25346    6834.8482    4.2860566    4.2860566    4.2860566    6834.8482     16839.11    8947.9486   -5282.5138   -4932.9889   -27975.815   -18743.791    78.736067 
   88100    1354.4688   -121.48784    1.2255519   -120.26229    2019.7745    4.2873617    4.2873617    4.2873617    2019.7745    10411.608    9934.9416   -14287.226    12389.944    20333.478   -5396.9698    78.808012 
   88200    736.11683     -120.937   0.66605398   -120.27095   -7985.7161     4.289207     4.289207     4.289207   -7985.7161    7922.4627   -4423.5019   -27456.109    16643.503    47661.128    22862.264    78.909815 
   88300     1305.567   -121.44753    1.1813045   -120.26623   -5853.2459    4.2887136    4.2887136    4.2887136   -5853.2459    15720.884   -16365.868   -16914.754   -4235.8382    7246.0325    20155.737    78.882584 
   88400    1989.5999   -122.05351    1.8002318   -120.25328    15117.714    4.2815458    4.2815458    4.2815458    15117.714    35613.964    2185.0239    7554.1557   -7043.0863   -13129.964   -527.96958    78.487731 
   88500    1300.4497   -121.44216    1.1766742   -120.26549   -5226.2887     4.289137     4.289137     4.289137   -5226.2887   -21156.535    4914.0499    563.61859    17276.948    37835.057   -6032.3528    78.905951 
   88600    546.82857   -120.76428   0.49478198    -120.2695   -20011.961    4.2958341    4.2958341    4.2958341   -20011.961   -28119.527   -18649.513   -13266.843    23557.376    43254.348    21678.721    79.276143 
   88700    1256.2568   -121.39724    1.1366875   -120.26055    6486.8761    4.2861414    4.2861414    4.2861414    6486.8761    23624.374   -22426.811    18263.065    1818.4191   -7460.2242    34519.688    78.740739 
   88800    2003.7519   -122.06264    1.8130368    -120.2496    12663.052    4.2835467    4.2835467    4.2835467    12663.052    10916.162   -1680.0521    28753.047   -12252.484   -8201.7456    963.62565    78.597824 
   88900    1419.8807    -121.5473    1.2847379   -120.26256    6444.4071    4.2852732    4.2852732    4.2852732    6444.4071   -16242.376    24509.583    11066.013    7794.9302    31280.285   -14136.152    78.692901 
   89000    1073.7238   -121.24091   0.97152784   -120.26939    2350.3006    4.2886415    4.2886415    4.2886415    2350.3006   -22871.658    13795.594    16126.966    22281.493    31208.708    13744.345    78.878606 
   89100     1857.949   -121.93798    1.6811113   -120.25687    -260.7015    4.2938472    4.2938472    4.2938472    -260.7015   -9555.0967   -12532.657    21305.649    12399.396   -2606.5489    26520.352    79.166191 
   89200    1882.3107   -121.95666    1.7031543   -120.25351    9714.4333    4.2847527    4.2847527    4.2847527    9714.4333    3756.0504    13385.822    12001.428   -2542.1173   -4396.5765   -5707.2292    78.664226 
   89300    798.68067   -120.99045   0.72266305   -120.26779    4440.2384    4.2809679    4.2809679    4.2809679    4440.2384   -26810.745    43384.741   -3253.2811    939.92358    34734.236   -23005.202    78.455953 
   89400      981.167     -121.158   0.88778052   -120.27022   -10818.819    4.2931607    4.2931607    4.2931607   -10818.819    -52948.42    17832.945    2659.0167    13721.144    22640.348   -1151.5318    79.128229 
   89500     1962.419   -122.02321     1.775638   -120.24757    5842.0198    4.2924052    4.2924052    4.2924052    5842.0198   -10484.808   -8394.7183    36405.586    2956.4825   -17292.847    9272.3866    79.086461 
   89600     1212.346   -121.35124    1.0969561   -120.25429     2408.907    4.2862912    4.2862912    4.2862912     2408.907   -3474.1749   -6098.5785    16799.474   -9318.3844    20211.271   -8302.5118    78.748996 
   89700    471.20717   -120.69139   0.42635815   -120.26504   -21589.953    4.2877973    4.2877973    4.2877973   -21589.953    -37569.33    8748.9966   -35949.526   -1011.7766    48950.465   -22504.208    78.832038 
   89800    1199.2861   -121.34532    1.0851393   -120.26019   -2068.4438    4.2821864    4.2821864    4.2821864   -2068.4438   -8608.4745    18071.244   -15668.101    5004.2246    8434.4415   -12993.202    78.522966 
   89900    1674.8173   -121.77135    1.5154099   -120.25594    6744.4183    4.2857908    4.2857908    4.2857908    6744.4183    24747.785   -3960.3563   -554.17386    1700.6033   -17289.842    27609.087    78.721415 
   90000    1012.3259   -121.18311   0.91597374   -120.26714   -18256.093    4.2931706    4.2931706    4.2931706   -18256.093   -266.11455   -6810.4025   -47691.762   -5017.3761    27665.839    28784.017    79.128773 
   90100    1025.2951   -121.19284   0.92770852   -120.26513   -2591.3822    4.2840775    4.2840775    4.2840775   -2591.3822   -5793.2639    26872.068   -28852.951   -4260.8699    48591.139   -24226.833    78.627047 
   90200    1628.0104   -121.72827     1.473058   -120.25521    4181.5817    4.2861409    4.2861409    4.2861409    4181.5817    14685.927    6319.9212   -8461.1027    2493.4164    5157.7949   -17739.569    78.740708 
   90300     1550.058   -121.65422     1.402525   -120.25169   -10057.584     4.293175     4.293175     4.293175   -10057.584    24013.362   -33430.674   -20755.441    21.742909   -12533.232    46966.661     79.12902 
   90400    1154.9953   -121.30153    1.0450641   -120.25647   -778.44201    4.2840984    4.2840984    4.2840984   -778.44201    17266.826   -7289.9675   -12312.185   -4167.6621    28523.291    36076.652    78.628196 
   90500    1137.3076   -121.28882    1.0290598   -120.25976    -7133.163    4.2855978    4.2855978    4.2855978    -7133.163   -12243.704    7765.1868   -16920.971   -6898.8179    51982.536   -24553.258    78.710783 
   90600    1537.4325   -121.64762    1.3911012   -120.25652   -8334.8843    4.2883204    4.2883204    4.2883204   -8334.8843    7922.6529   -25466.056   -7461.2499    -5146.136   -120.38641   -17486.674    78.860891 
   90700    1592.5126   -121.69645    1.4409388   -120.25551     6685.237    4.2820141    4.2820141    4.2820141     6685.237    39054.172   -31734.909    12736.448   -1168.6097   -14925.834    27902.811    78.513492 
   90800     1090.871   -121.25291   0.98704305   -120.26587   -12961.992    4.2892693    4.2892693    4.2892693   -12961.992   -17907.784    829.11578   -21807.307   -776.01448    54806.352    26273.254    78.913254 
   90900    1272.2005   -121.41722    1.1511137   -120.26611   -11884.658    4.2894547    4.2894547    4.2894547   -11884.658   -42034.001    23626.186   -17246.158    2248.3939    56528.775   -6127.5135    78.923488 
   91000    2100.6093   -122.15095    1.9006754   -120.25028    16958.986    4.2807166    4.2807166    4.2807166    16958.986    8414.4567    4567.1254    37895.376    1646.4174    -22447.58   -12691.634    78.442139 
   91100    1265.4265   -121.40843    1.1449845   -120.26344   -9799.3476    4.2904525    4.2904525    4.2904525   -9799.3476   -18837.126   -594.50495   -9966.4117    2290.6346    23301.401    9048.2965    78.978577 
   91200    381.03046   -120.61642   0.34476437   -120.27165   -22892.515    4.2920428    4.2920428    4.2920428   -22892.515   -51603.103    27295.496   -44369.939   -1267.9413    76079.709        21093    79.066428 
   91300    1128.5321   -121.28373    1.0211195   -120.26261    4943.8321    4.2831214    4.2831214    4.2831214    4943.8321   -15647.987    25677.161    4802.3226    813.64006    -82.61942    8932.5763    78.574414 
   91400    1578.4281   -121.67925    1.4281949   -120.25105   -1794.5085     4.288008     4.288008     4.288008   -1794.5085    -17199.38    8924.4316    2891.4225   -141.06663    -28225.64   -13333.551    78.843656 
   91500    944.83186   -121.11613   0.85490372   -120.26122   -8393.7909    4.2875317    4.2875317    4.2875317   -8393.7909   -24070.108    23946.283   -25057.547   -3164.0632    46721.633   -2906.8842    78.817386 
   91600    967.23619   -121.13921   0.87517564   -120.26404   -3275.5335    4.2834548    4.2834548    4.2834548   -3275.5335    4736.5249    23937.374   -38500.499   -2046.8217    49115.417    29586.292    78.592767 
   91700    1505.9009   -121.62266    1.3625708   -120.26009    2493.7799    4.2877564    4.2877564    4.2877564    2493.7799    24420.171    6048.0103   -22986.842    763.63341   -11672.627     34046.87     78.82978 
   91800    1880.2757   -121.95707     1.701313   -120.25576    10767.776    4.2878375    4.2878375    4.2878375    10767.776    19297.096    13531.697   -525.46574    3916.1369   -5216.5906   -6621.3537    78.834251 
   91900    1487.1981   -121.60713    1.3456481   -120.26148    6001.4197    4.2864531    4.2864531    4.2864531    6001.4197    5196.5895    41100.998   -28293.328   -1852.3142    42694.437   -11342.233    78.757918 
   92000    1012.1471     -121.183   0.91581197   -120.26719   -8384.7886    4.2880741    4.2880741    4.2880741   -8384.7886    15408.399    4370.3802   -44933.145   -3423.0802    30688.949    48119.684    78.847302 
   92100    1367.8724   -121.50014    1.2376797   -120.26246   -1916.7141    4.2855362    4.2855362    4.2855362   -1916.7141    26287.899   -16122.245   -15915.796    6562.4796   -11004.329    42378.035    78.707386 
   92200    1702.8207   -121.79359    1.5407479   -120.25284     7322.107    4.2856243    4.2856243    4.2856243     7322.107    -16974.81     29179.85    9761.2807    4467.4328    5547.1087   -15805.242    78.712241 
   92300     996.6459   -121.16248   0.90178615   -120.26069   -6634.7546    4.2921671    4.2921671    4.2921671   -6634.7546   -35099.748     26372.83   -11177.345   -153.64962    33564.231    12345.966    79.073298 
   92400    697.82345    -120.8959   0.63140532   -120.26449   -8090.6274    4.2875095    4.2875095    4.2875095   -8090.6274   -1715.5838    10441.706   -32998.004     -503.709    20551.455    62010.667    78.816165 
   92500    1473.1043    -121.5913    1.3328957   -120.25841    13384.177    4.2797412    4.2797412    4.2797412    13384.177     11362.71    33382.242   -4592.4213    1320.9704   -9057.2406    19301.333    78.388532 
   92600    1907.3802   -121.98276    1.7258377   -120.25693    4787.8004    4.2879194    4.2879194    4.2879194    4787.8004   -16892.004    25286.362    5969.0438    5382.6662   -2800.7093   -32566.035     78.83877 
   92700      1196.03   -121.34964     1.082193   -120.26745   -6853.4203    4.2923446    4.2923446    4.2923446   -6853.4203   -14905.275    14389.266   -20044.252    474.48838    29867.701    15589.025    79.083109 
   92800     972.5718   -121.14786    0.8800034   -120.26786    -3963.982    4.2868534    4.2868534    4.2868534    -3963.982    6290.4172    7215.9271    -25398.29   -3382.5473    19077.402    53334.408    78.779987 
   92900    1720.6555   -121.81648    1.5568853   -120.25959    1797.2218    4.2857039    4.2857039    4.2857039    1797.2218    5755.2083    6011.6627   -6375.2055    1328.6319   -27515.297    8535.4942    78.716627 
   93000    1907.0111   -121.97811    1.7255037    -120.2526    6325.1752    4.2858527    4.2858527    4.2858527    6325.1752   -1637.3441    6814.6757    13798.194   -3159.6468   -12498.302   -17550.258    78.724828 
   93100     1027.661   -121.19365   0.92984925    -120.2638   -7286.1832    4.2888642    4.2888642    4.2888642   -7286.1832    -4389.092   -11394.761   -6074.6965   -7354.9993     33371.58    32944.649    78.890895 
   93200    480.80656   -120.70307   0.43504388   -120.26803   -20308.577    4.2926684    4.2926684    4.2926684   -20308.577   -19679.411   -12466.872   -28779.447    -3164.741    16799.548    45187.462    79.101009 
   93300    1211.8609   -121.35533    1.0965173   -120.25881   -2366.7964    4.2858197    4.2858197    4.2858197   -2366.7964   -29389.197    19599.296    2689.5114   -432.47981   -28093.173   -2484.5964    78.723012 
   93400     1712.333   -121.80209    1.5493549   -120.25273    13235.924    4.2808228    4.2808228    4.2808228    13235.924   -10962.821    29746.263    20924.331    3845.3028   -18051.591   -7793.8314     78.44798 
   93500    999.14795   -121.17244   0.90405006   -120.26839   -9059.8884    4.2888685    4.2888685    4.2888685   -9059.8884   -1381.9005    8835.1959   -34632.961      286.183    25855.685    45112.694    78.891131 
   93600    970.74241   -121.14963   0.87834813   -120.27128   -15115.018    4.2911179    4.2911179    4.2911179   -15115.018   -8953.7299    20314.868   -56706.191    -1726.669    28532.002    35043.753    79.015325 
   93700    2063.7275   -122.12532     1.867304   -120.25801    9403.9069    4.2842589    4.2842589    4.2842589    9403.9069   -11749.435    41625.762   -1664.6068    9448.8497   -3651.0051   -17025.226    78.637032 
   93800    2023.0814   -122.08752    1.8305266     -120.257    5706.1125    4.2847517    4.2847517    4.2847517    5706.1125   -494.74699    21457.628   -3844.5431    12502.526    -8960.813     10567.88    78.664172 
   93900    806.81534   -121.00318   0.73002347   -120.27316   -12342.747    4.2866665    4.2866665    4.2866665   -12342.747    6155.3222    6774.7377     -49958.3    3822.1527    18653.728     55620.96     78.76968 
   94000    692.49769   -120.90197   0.62658647   -120.27538   -7251.6726    4.2868735    4.2868735    4.2868735   -7251.6726   -3198.1184    15264.655   -33821.554   -2168.2524    37330.173     16081.22    78.781095 
   94100    1578.0436   -121.68883     1.427847   -120.26098    3220.5158    4.2865788    4.2865788    4.2865788    3220.5158   -5421.6964    8232.7396    6850.5042   -3065.8114    10435.697   -29482.669    78.764845 
   94200     1374.603   -121.50343    1.2437697   -120.25966    10396.659    4.2842194    4.2842194    4.2842194    10396.659    8594.9885    3659.1038    18935.883    2516.7392   -22793.851    15690.429     78.63486 
   94300    685.79495   -120.89082   0.62052169    -120.2703   -12304.366    4.2905322    4.2905322    4.2905322   -12304.366   -5863.6547   -9085.3374   -21964.107    3844.7475    11752.557    43942.883    78.982977 
   94400    1108.1024   -121.26675    1.0026343   -120.26411   -10722.029    4.2902757    4.2902757    4.2902757   -10722.029   -8178.3604    -2419.611   -21568.115    723.39531    49184.263    11232.655    78.968811 
   94500    2033.7208   -122.09094    1.8401533   -120.25079    15440.313    4.2820549    4.2820549    4.2820549    15440.313    11739.043     13320.61    21261.286   -8487.2114    9243.2406   -9075.7818    78.515736 
   94600    1766.8228   -121.85807    1.5986584   -120.25941    1402.8749    4.2875499    4.2875499    4.2875499    1402.8749     8686.317    2107.4408   -6585.1332   -8009.5844   -27860.661     13591.12    78.818391 
   94700    1101.1102   -121.26359   0.99630762   -120.26728   -4006.9371    4.2881917    4.2881917    4.2881917   -4006.9371   -2980.7346    13032.554   -22072.631    5732.6295    11476.174    32869.953    78.853791 
   94800    1272.7829   -121.41613    1.1516407   -120.26449    5520.9695    4.2865687    4.2865687    4.2865687    5520.9695   -14834.661    27451.801    3945.7684     5271.804    41946.714    12822.279    78.764288 
   94900    1638.1095   -121.73738    1.4821959   -120.25518   -1084.5499    4.2893195    4.2893195    4.2893195   -1084.5499   -16820.756    3776.0975    9791.0089   -9134.3897    5617.0554   -28480.218    78.916025 
   95000    1204.2648   -121.34661    1.0896441   -120.25697    4189.5909    4.2840033    4.2840033    4.2840033    4189.5909    6668.8657   -4467.5078    10367.415   -8453.3264   -14361.668   -9206.9263     78.62296 
   95100     942.6665   -121.11366   0.85294446   -120.26071   -4504.3219    4.2861902    4.2861902    4.2861902   -4504.3219   -1274.3797    6536.0556   -18774.642    2593.6955    17853.388    37850.022    78.743426 
   95200    1093.7517   -121.24736   0.98964955   -120.25771   -13048.318    4.2895418    4.2895418    4.2895418   -13048.318   -21513.217    5541.1212   -23172.858    2132.4443     30564.91    15665.142    78.928295 
   95300    1099.8613   -121.25405   0.99517759   -120.25887   -3072.5439    4.2838512    4.2838512    4.2838512   -3072.5439    4961.3063   -21007.675    6828.7373   -4488.3583    3901.5456   -42968.342    78.614583 
   95400    1148.1239   -121.30124    1.0388466   -120.26239   -4696.3826    4.2855008    4.2855008    4.2855008   -4696.3826    30336.556   -43710.626   -715.07707     -12030.1   -13192.406   -29372.437    78.705439 
   95500    1619.5987   -121.72324    1.4654469   -120.25779    1787.1191    4.2867533    4.2867533    4.2867533    1787.1191    16516.156   -8476.1378   -2678.6609   -7593.3796     14762.34    24532.133    78.774468 
   95600    1612.4868   -121.71731    1.4590119    -120.2583    7095.4011    4.2865524    4.2865524    4.2865524    7095.4011    18369.648    1711.9208    1204.6349    5234.5825    25476.411    5105.0568    78.763391 
   95700    1007.0504   -121.17774   0.91120037   -120.26654   -13347.413    4.2910645    4.2910645    4.2910645   -13347.413    27977.845    -46133.99   -21886.093   -3397.3056    6492.1448   -53103.415    79.012378 
   95800    1229.9539   -121.37819    1.1128881    -120.2653   -3509.4899    4.2865689    4.2865689    4.2865689   -3509.4899    20239.877   -33980.028    3211.6819   -18527.384    -5862.624   -30036.894    78.764303 
   95900    1967.2541   -122.03436    1.7800128   -120.25435    10766.242    4.2835185    4.2835185    4.2835185    10766.242    6137.5577    7502.6946    18658.475   -11848.098    5237.2739     16981.13    78.596272 
   96000    1754.3728   -121.84587    1.5873933   -120.25848    2088.1649     4.287673     4.287673     4.287673    2088.1649    24074.073    9305.3971   -27114.976     8279.148    22092.408   -14651.501    78.825182 
   96100    1158.1701   -121.31573    1.0479366   -120.26779   -2925.2307    4.2848602    4.2848602    4.2848602   -2925.2307    32100.469   -17184.447   -23691.714   -5364.0139    9380.0036   -50561.499    78.670151 
   96200    1138.5325   -121.29811    1.0301681   -120.26794   -1110.9488     4.283309     4.283309     4.283309   -1110.9488   -2435.4071   -33426.298    32528.859   -23534.058   -8312.4565   -17561.446    78.584741 
   96300    1466.7731    -121.5891    1.3271671   -120.26194   -6461.5571    4.2893491    4.2893491    4.2893491   -6461.5571   -10228.007   -26346.183     17189.52   -7059.4928   -5182.7506    15739.582    78.917655 
   96400    1489.3072   -121.60369    1.3475564   -120.25613    -5564.513    4.2885047    4.2885047    4.2885047    -5564.513    33285.398    -16378.64   -33600.297    9279.6869    4592.8688   -8817.0188    78.871062 
   96500    1225.2337   -121.36469    1.1086172   -120.25607   -866.11482    4.2839978    4.2839978    4.2839978   -866.11482      36386.9   -22546.763   -16438.482   -5131.7755    7107.7552     -27159.1    78.622659 
   96600    865.94243   -121.04344   0.78352291   -120.25992   -11954.741     4.286278     4.286278     4.286278   -11954.741   -10703.616   -39168.444    14007.836   -35092.793   -4881.5066   -8303.9471    78.748267 
   96700    871.95214   -121.05041   0.78896062   -120.26145   -3148.7598    4.2854201    4.2854201    4.2854201   -3148.7598    9000.1168   -17532.919   -913.47767   -14610.581   -11068.968    14009.749    78.700992 
   96800      1283.77   -121.41902    1.1615821   -120.25744    3830.4669    4.2852127    4.2852127    4.2852127    3830.4669    47330.095   -1337.8865   -34500.808    15822.202   -3016.5931    10036.363    78.689568 
   96900    1141.6375   -121.29378    1.0329776    -120.2608   -9853.9583    4.2887175    4.2887175    4.2887175   -9853.9583    19062.035   -26176.276   -22447.634   -18347.056    6483.8572   -6947.6437    78.882801 
   97000    1016.5626   -121.18512   0.91980724   -120.26531   -5994.8997    4.2849594    4.2849594    4.2849594   -5994.8997   -14330.686   -17316.287    13662.274   -48766.484    10278.716   -10071.558    78.675611 
   97100    1778.9298   -121.86805    1.6096131   -120.25844     6829.325    4.2855374    4.2855374    4.2855374     6829.325    5757.3758    9493.7158    5236.8834     -11497.7   -23.119433     4994.843    78.707455 
   97200    2056.1164   -122.11464    1.8604173   -120.25422    2592.3378    4.2902218    4.2902218    4.2902218    2592.3378    26403.426    3661.1704   -22287.583    16311.103   -7869.6909    17158.958    78.965833 
   97300    1097.1614   -121.25833    0.9927347   -120.26559    3593.6427    4.2868858    4.2868858    4.2868858    3593.6427    17657.859   -1159.6502   -5717.2808    -34972.48    7098.7604   -168.30995    78.781772 
   97400     930.5822   -121.10898   0.84201033   -120.26697   -5602.8735    4.2881007    4.2881007    4.2881007   -5602.8735   -21294.015    2051.0437     2434.351   -56610.266    15505.216    -20441.44    78.848773 
   97500    1572.1652   -121.68119    1.4225281   -120.25866    2079.1162    4.2853813    4.2853813    4.2853813    2079.1162   -3290.3531    21592.794   -12065.092    7972.6983    12793.926    1575.4987    78.698852 
   97600    1495.3471   -121.60821    1.3530215   -120.25518    9272.9783    4.2825097    4.2825097    4.2825097    9272.9783    26632.431    12861.288   -11674.784     13270.27   -372.02133    21308.212    78.540754 
   97700    781.50953   -120.97362   0.70712625    -120.2665    -16739.77     4.291627     4.291627     4.291627    -16739.77   -5844.8155   -40029.823   -4344.6719   -57825.845   -5000.5674     4865.654    79.043453 
   97800    862.05396   -121.04669   0.78000454   -120.26669   -13707.105    4.2876294    4.2876294    4.2876294   -13707.105   -13364.092   -23428.209    -4329.015   -42213.739    16966.508   -9070.0029    78.822773 
   97900    1667.6465   -121.76376    1.5089216   -120.25484    13685.196    4.2794571    4.2794571    4.2794571    13685.196    20958.719    14733.704    5363.1647    24856.148    25541.763   -5165.3906    78.372921 
   98000    1471.3267   -121.59275    1.3312873   -120.26147   -1124.5986    4.2878773    4.2878773    4.2878773   -1124.5986    3231.5938   -32400.527    25795.138   -5837.3439     4812.617    3130.0696    78.836448 
   98100    1055.7606   -121.22323   0.95527437   -120.26795   -9421.8225    4.2898099    4.2898099    4.2898099   -9421.8225   -9073.4447   -59036.918    39844.895   -61987.222   -4771.8317    7055.6342    78.943092 
   98200    1609.8281   -121.71874    1.4566063   -120.26213    8377.4225    4.2836743    4.2836743    4.2836743    8377.4225    30055.244   -11814.085    6891.1082   -21834.151   -1015.1177    2081.1914    78.604846 
   98300    2009.0841    -122.0713    1.8178615   -120.25344    6178.5007    4.2841932    4.2841932    4.2841932    6178.5007    31923.071    10922.856   -24310.425    16015.797    12468.184   -2904.4489    78.633414 
   98400    1025.8916   -121.19713   0.92824826   -120.26888   -4146.4758    4.2829468    4.2829468    4.2829468   -4146.4758    7912.5485   -28108.671    7756.6955   -45691.942    9472.8186   -2415.9527    78.564807 
   98500    463.77173   -120.69573    0.4196304    -120.2761   -8597.5959    4.2879543    4.2879543    4.2879543   -8597.5959    3813.2421   -48188.064    18582.034   -43781.141   -9357.4313    5686.8561    78.840695 
   98600    1322.2599   -121.46018    1.1964085   -120.26377   -12818.571    4.2916535    4.2916535    4.2916535   -12818.571    4915.5517   -21376.333   -21994.932    28336.805   -11150.153    9818.9544    79.044918 
   98700    1609.3977   -121.71328    1.4562169   -120.25707    6810.5144    4.2794039    4.2794039    4.2794039    6810.5144    22005.405    1649.4706   -3223.3325    7248.0287   -9627.2549   -6524.4351    78.369997 
   98800    1221.9449   -121.36898    1.1056414   -120.26334     3185.232    4.2814502    4.2814502    4.2814502     3185.232    6267.0784   -31622.057    34910.675    -61344.53    -1893.394   -9349.1277    78.482474 
   98900    1287.0915   -121.42389    1.1645875    -120.2593   -12991.511    4.2950388    4.2950388    4.2950388   -12991.511   -9885.4019   -53347.312    24258.182   -20988.967    6294.3079    8942.9013    79.232121 
   99000    1370.8937   -121.49385    1.2404134   -120.25344   -724.67795    4.2899765    4.2899765    4.2899765   -724.67795    5728.2168     -11818.9    3916.6496    37853.333   -11807.688    11157.268    78.952291 
   99100    1230.8434   -121.36959     1.113693    -120.2559    5266.1445    4.2818484    4.2818484    4.2818484    5266.1445    13664.278   -2597.2881    4731.4439    165.20817   -15069.085   -14273.843    78.504377 
   99200    1321.5724   -121.45265    1.1957864   -120.25686    3171.3302    4.2821706    4.2821706    4.2821706    3171.3302    30240.885   -21798.466    1071.5717   -32831.535    1772.2878   -19194.093    78.522099 
   99300    1369.0817    -121.4977    1.2387739   -120.25893    4479.5374      4.28631      4.28631      4.28631    4479.5374    36541.601   -6075.7494   -17027.239   -2246.1842    3550.1213    19737.878    78.750031 
   99400    954.72075   -121.12869    0.8638514   -120.26484   -5332.4087    4.2919921    4.2919921    4.2919921   -5332.4087     4971.999      13494.5   -34463.725    26974.009   -8103.1946    25666.147     79.06363 
   99500    1210.5945   -121.35622    1.0953713   -120.26085   -734.00641     4.287352     4.287352     4.287352   -734.00641   -7196.4475    34175.454   -29181.026    12155.073   -16393.614   -18556.666    78.807476 
   99600    1625.6301   -121.72445    1.4709043   -120.25354    10152.379    4.2808587    4.2808587    4.2808587    10152.379    28675.642    32097.148   -30315.654   -14121.376   -760.59135   -6983.7289    78.449952 
   99700    1408.5722   -121.53555    1.2745057   -120.26105   -1339.6762    4.2858597    4.2858597    4.2858597   -1339.6762    38775.387   -8210.0058    -34584.41   -3081.2452    5728.0124    49349.777    78.725213 
   99800    1276.5715   -121.41828    1.1550687   -120.26321   -8064.3286    4.2894883    4.2894883    4.2894883   -8064.3286    8092.4573   -5429.6292   -26855.814    16058.671   -11757.204    28632.633    78.925342 
   99900    1616.0668   -121.71984    1.4622512   -120.25759    5029.5231    4.2847047    4.2847047    4.2847047    5029.5231   -7888.3239    35936.434   -12959.541    9989.8699   -17978.294   -19496.375    78.661583 
  100000     1286.818   -121.42539    1.1643399   -120.26105   -3110.1288    4.2846805    4.2846805    4.2846805   -3110.1288    24257.193   -1221.8241   -32365.756    1167.3594   -6067.4475    30799.842    78.660252 
Loop time of 22.4651 on 1 procs for 100000 steps with 8 atoms

Pair  time (%) = 7.22876 (32.1778)
Kspce time (%) = 5.35361 (23.8308)
Neigh time (%) = 0.0459218 (0.204414)
Comm  time (%) = 1.09571 (4.87742)
Outpt time (%) = 0.0220249 (0.0980406)
Other time (%) = 8.71902 (38.8115)

Nlocal:    8 ave 8 max 8 min
Histogram: 1 0 0 0 0 0 0 0 0 0
Nghost:    2189 ave 2189 max 2189 min
Histogram: 1 0 0 0 0 0 0 0 0 0
Neighs:    2278 ave 2278 max 2278 min
Histogram: 1 0 0 0 0 0 0 0 0 0

Total # of neighbors = 2278
Ave neighs/atom = 284.75
Neighbor list builds = 529
Dangerous builds = 0
unfix 20
unfix 21
print "seeds:4424097"
seeds:4424097
