LAMMPS (10 Feb 2015)
# ---- initialize simulations
clear
units metal
dimension 3
boundary p p p
atom_style charge
atom_modify map array
# ---- create atoms
read_data /Users/eugeneragasa/pyflamestk_git/pypospack/tests/tests_integration/workflow/WorkflowLammpsThermalExpansion/param_7495/MgO_NaCl_unit.npt.T100/lammps.structure
  triclinic box = (0 0 0) to (4.2565 4.2565 4.2565) with tilt (0 0 0)
  1 by 1 by 1 MPI processor grid
  reading atoms ...
  8 atoms
# ---- define interatomic potential
include potential.mod
mass 1 24.305
mass 2 15.999

group Mg type 1
4 atoms in group Mg
group O type 2
4 atoms in group O

set group Mg charge 1.61805343549
  4 settings made for charge
set group O charge -1.61805343549
  4 settings made for charge

variable R_cut equal 10.0

pair_style buck/coul/long ${R_cut}
pair_style buck/coul/long 10
pair_coeff 1 1 0.0 0.5 0.0 ${R_cut}
pair_coeff 1 1 0.0 0.5 0.0 10
pair_coeff 1 2 1411.7842896 0.281421547192 0.0 ${R_cut}
pair_coeff 1 2 1411.7842896 0.281421547192 0.0 10
pair_coeff 2 2 12275.1016291 0.0833185517679 22.1397903537 ${R_cut}
pair_coeff 2 2 12275.1016291 0.0833185517679 22.1397903537 10

kspace_style pppm 1.0e-5

neighbor 1.0 bin
neigh_modify every 1 delay 0 check yes
# ---- define settings
compute eng all pe/atom
compute eatoms all reduce sum c_eng
# ---- run minimization
reset_timestep 0
fix 1 all box/relax iso 0.0 vmax 0.001
thermo 10
thermo_style custom step pe lx ly lz xy xz yz press pxx pyy pzz pxy pxz pyz c_eatoms
min_style cg
minimize 1e-25 1e-25 5000 10000
PPPM initialization ...
  G vector (1/distance) = 0.352505
  grid = 8 8 8
  stencil order = 5
  estimated absolute RMS force accuracy = 3.81397e-05
  estimated relative force accuracy = 2.64865e-06
  using double precision FFTs
  3d grid and FFT values/proc = 3375 512
Neighbor list info ...
  1 neighbor list requests
  update every 1 steps, delay 0 steps, check yes
  master list distance cutoff = 11
Memory usage per processor = 4.06549 Mbytes
Step PotEng Lx Ly Lz Xy Xz Yz Press Pxx Pyy Pzz Pxy Pxz Pyz eatoms 
       0   -106.97328       4.2565       4.2565       4.2565            0            0            0    38192.574    38192.574    38192.574    38192.574 8.7875882e-11 -6.3416216e-11 -7.5192229e-11   -106.97328 
       9   -106.99342    4.2893301    4.2893301    4.2893301            0            0            0     -3.54441     -3.54441     -3.54441     -3.54441 -1.7895043e-11 -1.1181496e-10 -2.9549514e-11   -106.99342 
Loop time of 0.00977302 on 1 procs for 9 steps with 8 atoms

Minimization stats:
  Stopping criterion = linesearch alpha is zero
  Energy initial, next-to-last, final = 
        -106.973281584     -106.993416645     -106.993416645
  Force two-norm initial, final = 5.51503 0.00172663
  Force max component initial, final = 5.51503 0.00051974
  Final line search alpha, max atom move = 0.00390625 2.03024e-06
  Iterations, force evaluations = 9 26

Pair  time (%) = 0.00256443 (26.2399)
Kspce time (%) = 0.00159764 (16.3475)
Neigh time (%) = 0 (0)
Comm  time (%) = 0.000329733 (3.37391)
Outpt time (%) = 0 (0)
Other time (%) = 0.00528121 (54.0387)

Nlocal:    8 ave 8 max 8 min
Histogram: 1 0 0 0 0 0 0 0 0 0
Nghost:    2189 ave 2189 max 2189 min
Histogram: 1 0 0 0 0 0 0 0 0 0
Neighs:    2344 ave 2344 max 2344 min
Histogram: 1 0 0 0 0 0 0 0 0 0

Total # of neighbors = 2344
Ave neighs/atom = 293
Neighbor list builds = 0
Dangerous builds = 0
unfix 1
# ---- define output variables ----
variable natoms equal "count(all)"
variable tot_energy equal "c_eatoms"
variable length_x equal "lx"
variable length_y equal "ly"
variable length_z equal "lz"
variable tilt_xy equal "xy"
variable tilt_xz equal "xz"
variable tilt_yz equal "yz"
variable tot_press equal "press"
variable press_xx equal "pxx"
variable press_yy equal "pyy"
variable press_zz equal "pzz"
variable press_xy equal "pxy"
variable press_xz equal "pxz"
variable press_yz equal "pyz"

# ---- output ----
print "pypospack:output_section:begin"
pypospack:output_section:begin
print "tot_energy = ${tot_energy}"
tot_energy = -106.993416644887
print "num_atoms = ${natoms}"
num_atoms = 8
print "xx = ${length_x}"
xx = 4.28933011317114
print "yy = ${length_y}"
yy = 4.28933011317114
print "zz = ${length_z}"
zz = 4.28933011317114
print "xy = ${tilt_xy}"
xy = 0
print "xz = ${tilt_xz}"
xz = 0
print "yz = ${tilt_yz}"
yz = 0
print "tot_press = ${tot_press}"
tot_press = -3.54441004469774
print "pxx = ${press_xx}"
pxx = -3.5444100447524
print "pyy = ${press_yy}"
pyy = -3.54441004470836
print "pzz = ${press_zz}"
pzz = -3.54441004463246
print "pxy = ${press_xy}"
pxy = -1.78950429729069e-11
print "pxz = ${press_xz}"
pxz = -1.1181495634962e-10
print "pyz = ${press_yz}"
pyz = -2.95495135207349e-11
print "pypospack:output_section:done"
pypospack:output_section:done
print "pypospack:lammps_sim:done"
pypospack:lammps_sim:done
#------------------------------------------------------------------------------
# RUN THERMOSTAT
# running using an NPT Nose-Hoover style thermostat
#------------------------------------------------------------------------------
variable tempdamp equal 0.1
variable pressdamp equal 1.0
# set initial velocities
velocity all create 100 4357066 mom yes dist gaussian loop all
# fix for Nose-Hoover style thermostat
fix 20 all npt temp 100 100 0.1 aniso 0.0 0.0 1.0 drag 1.0 couple xyz
variable boxx equal lx
variable boxy equal ly
variable boxz equal lz
variable boxp equal press
variable boxt equal temp
# calculate averages every 10000 steps
reset_timestep 0
fix 21 all ave/time 10 10 100 v_boxx v_boxy v_boxz v_boxp v_boxt file lattice.out
thermo_style custom step temp pe ke etotal press lx ly lz press pxx pyy pzz pxy pxz pyz vol
thermo_modify flush yes
thermo 100
run 100000
PPPM initialization ...
  G vector (1/distance) = 0.352181
  grid = 8 8 8
  stencil order = 5
  estimated absolute RMS force accuracy = 3.87093e-05
  estimated relative force accuracy = 2.68821e-06
  using double precision FFTs
  3d grid and FFT values/proc = 3375 512
Memory usage per processor = 3.06549 Mbytes
Step Temp PotEng KinEng TotEng Press Lx Ly Lz Press Pxx Pyy Pzz Pxy Pxz Pyz Volume 
       0          100   -106.99342  0.090482102   -106.90294    1220.0724    4.2893301    4.2893301    4.2893301    1220.0724    557.12241    648.72078    2454.3739    213.70425   -873.64664    80.776431    78.916609 
     100     35.65966    -106.9216   0.03226561   -106.88933    3436.3715    4.2900046    4.2900046    4.2900046    3436.3715    1456.0733    2202.2876    6650.7536   -390.02625    747.05038   -275.03087    78.953845 
     200    48.258668   -106.90947  0.043665457   -106.86581    2789.0324    4.2918819    4.2918819    4.2918819    2789.0324   -1368.3585   -1793.2588    11528.715   -227.44513    1743.5313    1245.0046     79.05754 
     300    80.574341   -106.91824  0.072905357   -106.84534    1632.9678    4.2936586    4.2936586    4.2936586    1632.9678   -579.31124   -1068.0165    6546.2312   -378.17042    499.24859   -504.33783    79.155761 
     400    123.34459   -106.93963   0.11160477   -106.82802   -5236.9078    4.2962563    4.2962563    4.2962563   -5236.9078   -6338.7997   -4426.5834   -4945.3403   -99.671287    224.93812    5.9107993    79.299519 
     500    108.95278   -106.91599  0.098582765   -106.81741   -1192.0609    4.2965735    4.2965735    4.2965735   -1192.0609   -5913.0328   -5907.0437    8243.8938      90.3285   -37.917602   -715.85291    79.317082 
     600      57.5555   -106.86508  0.052077426     -106.813    1747.6216    4.2962709    4.2962709    4.2962709    1747.6216   -4095.6752   -3493.6076    12832.148   -374.98963    1940.4141    672.51749    79.300324 
     700    94.899016   -106.89762  0.085866624   -106.81176   -3931.2143    4.2974713    4.2974713    4.2974713   -3931.2143   -5638.1048   -7501.1567    1345.6187   -418.36063    2038.4355    471.33345    79.366813 
     800    140.57316   -106.93845   0.12719355   -106.81126   -1971.5059    4.2962467    4.2962467    4.2962467   -1971.5059   -2229.8428   -1741.3807   -1943.2942   -559.18774   -1450.4662   -490.96341    79.298984 
     900    102.41715   -106.90504  0.092669186   -106.81237   -856.16854    4.2957894    4.2957894    4.2957894   -856.16854   -7124.1514    -6433.218    10988.864    297.77356    -609.4078   -170.21398    79.273664 
    1000    49.817909   -106.85847  0.045076291    -106.8134    2650.8293    4.2945955    4.2945955    4.2945955    2650.8293   -2719.8485   -2051.1817    12723.518   -804.34614    1800.1589    1225.7295    79.207588 
    1100    139.45126   -106.93842   0.12617843   -106.81225   -253.83311    4.2944074    4.2944074    4.2944074   -253.83311   -1306.3217   -3163.6139    3708.4363   -219.87112    1142.7516    1151.2178    79.197183 
    1200    100.90355   -106.90405  0.091299654   -106.81275   -1352.4027    4.2945492    4.2945492    4.2945492   -1352.4027   -496.13065   -2461.2419   -1099.8355   -1198.7244    -300.1417   -529.85621    79.205029 
    1300    80.713339   -106.88601  0.073031125   -106.81298    2478.0211    4.2939095    4.2939095    4.2939095    2478.0211   -3621.2821     -2500.19    13555.535    47.503504   -958.71527    100.74314    79.169641 
    1400    107.19295   -106.90947  0.096990435   -106.81248    1946.0557    4.2942234    4.2942234    4.2942234    1946.0557   -3238.1793   -4020.3875    13096.734   -141.85009    1154.6872   -226.50152    79.187004 
    1500    92.996602   -106.89692   0.08414528   -106.81278   -1997.0102    4.2951206    4.2951206    4.2951206   -1997.0102   -2886.9202   -1938.7277   -1165.3827   -563.13183    2019.0823    1218.1157    79.236644 
    1600    137.81066   -106.93722   0.12469398   -106.81252   -2236.8854    4.2956471    4.2956471    4.2956471   -2236.8854   -1740.5913   -4615.5791   -354.48599   -160.77796   -1037.5249   -1286.4999    79.265789 
    1700    51.362081   -106.85952   0.04647349   -106.81305    3103.3493    4.2948569    4.2948569    4.2948569    3103.3493   -2379.0812   -2349.5964    14038.725   -963.48168   -1591.3674   -39.882474    79.222053 
    1800    94.528852   -106.89844  0.085531692   -106.81291   -2146.8018      4.29642      4.29642      4.29642   -2146.8018   -7734.1348   -6464.2163    7757.9457    646.59082     715.0165   -624.22148    79.308581 
    1900    141.39149   -106.93993   0.12793399     -106.812   -1873.0399    4.2959655    4.2959655    4.2959655   -1873.0399   -2819.4231   -3317.4415    517.74478   -731.14315    1075.6308    1468.0136    79.283417 
    2000    113.56914   -106.91537   0.10275975   -106.81261   -2791.5136     4.296111     4.296111     4.296111   -2791.5136   -4628.9376   -4254.9526    509.34933   -146.89669    280.54652    42.510859    79.291471 
    2100    35.185272   -106.84525  0.031836374   -106.81341    3066.4771    4.2953012    4.2953012    4.2953012    3066.4771   -1790.8301   -3304.7712    14295.033   -1076.9153    -1594.834   -420.69131    79.246645 
    2200    116.52805   -106.91804   0.10543703    -106.8126    1167.4748    4.2946795    4.2946795    4.2946795    1167.4748   -4173.3295   -2317.2667    9993.0206   -75.194025   -160.08016   -278.55838    79.212237 
    2300    134.49695   -106.93431   0.12169567   -106.81261   -3797.2653    4.2960831    4.2960831    4.2960831   -3797.2653   -4827.2261   -4712.7904   -1851.7793   -240.63406     2415.203    918.07177    79.289927 
    2400    106.68534   -106.90928  0.096531141   -106.81275    94.623304    4.2945694    4.2945694    4.2945694    94.623304    -3431.103   -1746.8544    5461.8273    53.087376   -473.72847   -433.12351    79.206146 
    2500    64.686537   -106.87127  0.058529738   -106.81274    4080.1815    4.2942841    4.2942841    4.2942841    4080.1815   -1194.0709   -3164.9112    16599.527   -544.77938   -1736.3926   -1477.2383     79.19036 
    2600    72.301238   -106.87878   0.06541968   -106.81336    249.94061    4.2948478    4.2948478    4.2948478    249.94061    -2629.808   -1546.9328    4926.5627   -538.73189   -221.67221   -812.02168     79.22155 
    2700    160.01853   -106.95705   0.14478813   -106.81227   -2526.7533    4.2950872    4.2950872    4.2950872   -2526.7533   -3548.4119   -3323.3706   -708.47726    468.01229    467.01818    99.926688    79.234798 
    2800     107.7215   -106.91013  0.097468673   -106.81266   -41.505675    4.2953538    4.2953538    4.2953538   -41.505675   -4135.9706   -3218.9265      7230.38   -425.83374    1051.0752    768.41081    79.249551 
    2900    43.623675   -106.85267  0.039471618    -106.8132     1963.683    4.2946663    4.2946663    4.2946663     1963.683   -4017.6646   -3510.6412    13419.355    305.28887   -1029.9176   -628.73463    79.211505 
    3000    112.37112   -106.91405   0.10167575   -106.81238    170.57348    4.2955709    4.2955709    4.2955709    170.57348   -387.07402   -3114.0375    4012.8319   -1331.7647   -1762.6302   -281.10624    79.261573 
    3100    127.92481   -106.92815   0.11574906    -106.8124   -3063.8696    4.2956979    4.2956979    4.2956979   -3063.8696   -4114.0075   -2765.0271   -2312.5742   -73.706538    2080.2921    803.58003    79.268603 
    3200    92.191857    -106.8964   0.08341713   -106.81298   -289.50427    4.2956246    4.2956246    4.2956246   -289.50427   -4378.8262   -4418.3595     7928.673   -419.94175    931.31658    1165.1116    79.264543 
    3300    87.038668   -106.89132  0.078754416   -106.81256    2656.9551    4.2949958    4.2949958    4.2949958    2656.9551   -4587.3337   -2611.0466    15169.246    208.38189   -1451.7363   -1169.9084    79.229741 
    3400    95.802874   -106.89939  0.086684454   -106.81271   -1591.4941    4.2954799    4.2954799    4.2954799   -1591.4941    -1882.022   -3650.2058    757.74559   -722.57267   -840.95767   -800.00278    79.256536 
    3500    118.94764   -106.91998   0.10762633   -106.81235   -1452.7457    4.2956686    4.2956686    4.2956686   -1452.7457   -1866.4475   -2074.3794   -417.41013    -546.1027    572.72349   -257.46257    79.266982 
    3600    100.47694   -106.90342  0.090913644    -106.8125    1862.9377    4.2945187    4.2945187    4.2945187    1862.9377   -3363.5729   -2932.7372    11885.123   -137.73303    1503.8395    625.80079     79.20334 
    3700    67.108959   -106.87391  0.060721596   -106.81319    876.41555    4.2951854    4.2951854    4.2951854    876.41555   -5135.2102   -4200.7833     11965.24    49.856372    17.530539    24.847404    79.240236 
    3800    133.41447    -106.9331   0.12071622   -106.81238   -1410.2326    4.2951263    4.2951263    4.2951263   -1410.2326   -3005.0821   -2206.1808    980.56501    69.662443   -1626.9863     -858.051    79.236964 
    3900    113.43206   -106.91511   0.10263571   -106.81248   -810.30407    4.2951572    4.2951572    4.2951572   -810.30407   -666.87932   -2794.2655    1030.2327    -1295.578    1231.9415    688.56738    79.238673 
    4000    57.186999   -106.86476  0.051743999   -106.81301    1370.4907    4.2951064    4.2951064    4.2951064    1370.4907   -4410.2986   -2258.4984    10780.269   -199.02352    2256.8094    1688.9441    79.235863 
    4100    98.912212   -106.90192  0.089497848   -106.81242    1750.1505    4.2947647    4.2947647    4.2947647    1750.1505   -3411.0346   -3988.6612    12650.147   -782.43219   -197.85469    841.73907     79.21695 
    4200    139.92593   -106.93901   0.12660792   -106.81241   -4158.1958    4.2959329    4.2959329    4.2959329   -4158.1958   -6069.2919   -4423.8288   -1981.4667    420.41939   -662.14874   -926.14381    79.281611 
    4300    92.461168   -106.89677  0.083660808   -106.81311   -1461.7246    4.2954662    4.2954662    4.2954662   -1461.7246   -2226.2535   -2882.8128    723.89264   -905.23949    334.25634   -109.39311    79.255777 
    4400    81.482012   -106.88649  0.073726636   -106.81277    2544.4506    4.2948854    4.2948854    4.2948854    2544.4506    -3091.029   -3770.7689     14495.15   -694.04373    2032.2533    821.53076    79.223628 
    4500    67.324536   -106.87408  0.060916655   -106.81316    628.60515    4.2952599    4.2952599    4.2952599    628.60515   -4109.1059   -2078.6191    8073.5405   -207.73384    1160.3654    311.70192    79.244355 
    4600    152.73243   -106.95056   0.13819552   -106.81237   -4131.5051     4.296031     4.296031     4.296031   -4131.5051   -5951.1352   -5254.3411    -1189.039   -194.18924    -1171.796   -1008.8733    79.287041 
    4700     122.8934   -106.92364   0.11119653   -106.81244   -813.86862    4.2951534    4.2951534    4.2951534   -813.86862   -4247.2581   -2962.5745    4768.2268    359.51586    325.89366    -128.0538     79.23846 
    4800    34.860639   -106.84471  0.031542639   -106.81317    2441.6397    4.2950437    4.2950437    4.2950437    2441.6397   -3262.7133   -3100.3656    13687.998   -830.13022    2260.4452    1283.8328    79.232389 
    4900    104.49261   -106.90714  0.094547113   -106.81259    895.34801    4.2948737    4.2948737    4.2948737    895.34801   -3057.7306   -2597.6075    8341.3822   -612.24892    903.99454    1359.0736    79.222985 
    5000    135.15139   -106.93465   0.12228781   -106.81237   -1775.8478    4.2954699    4.2954699    4.2954699   -1775.8478   -3216.3394   -1330.3142   -780.88986   -471.50396    133.95219    274.68066    79.255978 
    5100    107.91916   -106.91032   0.09764752   -106.81267   -2029.6713    4.2955701    4.2955701    4.2955701   -2029.6713   -6927.6514   -4884.9714     5723.609    154.91536   -1285.5407   -960.64874    79.261526 
    5200    65.021021   -106.87159  0.058832387   -106.81276    4091.3816    4.2942757    4.2942757    4.2942757    4091.3816   -2031.3781   -1320.4352    15625.958    -398.3046    1293.2643    1021.2615    79.189898 
    5300    103.22248   -106.90623  0.093397871   -106.81284   -918.28952    4.2954764    4.2954764    4.2954764   -918.28952   -3467.2458   -3292.5857     4004.963   -689.17481    2043.0037    860.18646    79.256343 
    5400    108.73598   -106.91118  0.098386596    -106.8128   -1532.8006     4.295302     4.295302     4.295302   -1532.8006   -1648.5816   -1168.9504   -1780.8697   -763.97759   -1431.7159   -639.04367    79.246687 
    5500    123.09375   -106.92374   0.11137781   -106.81236    279.88735    4.2952802    4.2952802    4.2952802    279.88735   -4681.2375   -3246.2889    8767.1884   -175.33367    -870.8294   -1635.4788    79.245478 
    5600    62.072699   -106.86896  0.056164683    -106.8128    1045.5666    4.2950849    4.2950849    4.2950849    1045.5666   -5251.8648   -3467.7963    11856.361    665.41492    1120.8553    723.17436    79.234672 
    5700    104.72283   -106.90713  0.094755419   -106.81237   -710.59147    4.2953121    4.2953121    4.2953121   -710.59147   -2067.5655   -1776.3845    1712.1756   -752.98792    840.34863    654.04373    79.247247 
    5800    140.45455    -106.9392   0.12708623   -106.81212   -1644.3778    4.2954302    4.2954302    4.2954302   -1644.3778    -2150.716    -2355.806   -426.61146   -362.75284     155.4949    484.11184     79.25378 
    5900    52.739155   -106.86085  0.047719495   -106.81313    1716.6381    4.2949133    4.2949133    4.2949133    1716.6381   -2315.9193   -894.00642    8359.8399   -818.67567   -1964.3194   -1240.2879    79.225175 
    6000    109.49467   -106.91159  0.099073075   -106.81252    462.40446    4.2952455    4.2952455    4.2952455    462.40446   -6210.5435    -5548.524    13146.281    421.03173   -767.22792    43.675833    79.243559 
    6100    114.55522   -106.91608   0.10365197   -106.81243   -977.05925    4.2951706    4.2951706    4.2951706   -977.05925   -2582.4629   -890.62777    541.91294    -156.3143    1920.8486    1356.6054    79.239412 
    6200    112.37596   -106.91449   0.10168013   -106.81281   -2755.2802    4.2958521    4.2958521    4.2958521   -2755.2802   -3990.6925   -3521.2393    -753.9088   -793.09056   -955.51631   -203.04738    79.277139 
    6300    77.182136   -106.88266  0.069836018   -106.81282    3944.3498    4.2943904    4.2943904    4.2943904    3944.3498   -1037.1998   -431.43409    13301.683   -844.23739   -1899.8837   -1880.2294     79.19624 
    6400    76.369404   -106.88199  0.069100641   -106.81289    1482.7131    4.2950468    4.2950468    4.2950468    1482.7131   -4675.6537    -2923.175    12046.968   -454.32926    -207.3927   -689.74138    79.232564 
    6500    137.74643   -106.93697   0.12463587   -106.81233   -3826.2984    4.2958798    4.2958798    4.2958798   -3826.2984   -5849.2256   -4869.5385   -760.13108    360.60772    771.85686    712.38926    79.278671 
    6600    120.44518   -106.92151   0.10898133   -106.81253   -26.340253    4.2949545    4.2949545    4.2949545   -26.340253    -2714.965   -839.75359    3475.6979   -619.43387    351.73666   -472.72594    79.227454 
    6700    62.820267   -106.86992  0.056841098   -106.81308    845.44898    4.2954461    4.2954461    4.2954461    845.44898   -4735.4684   -4681.9165    11953.732   -277.45372   -1475.0765   -903.32503     79.25466 
    6800    62.535368   -106.86957  0.056583315   -106.81299    3106.1834     4.294493     4.294493     4.294493    3106.1834   -1470.3794   -428.55244    11217.482   -1305.1269   -2090.1961   -1552.5449     79.20192 
    6900    174.21237   -106.96976   0.15763101   -106.81213   -4175.3275    4.2960192    4.2960192    4.2960192   -4175.3275   -5832.2267   -5338.5733   -1355.1825    570.44251    1051.8405    1105.6772    79.286389 
    7000     80.10189   -106.88565  0.072477873   -106.81317   -1560.8207    4.2953855    4.2953855    4.2953855   -1560.8207   -5029.4759   -3056.1584    3403.1721   -588.95494    358.22929    172.30373    79.251307 
    7100     90.30705   -106.89452  0.081711716   -106.81281    1251.4002    4.2951086    4.2951086    4.2951086    1251.4002   -4671.4784   -4145.1747    12570.854    13.881111     -1421.02   -553.00519    79.235985 
    7200    79.118793   -106.88434  0.071588347   -106.81275    1357.0081     4.295027     4.295027     4.295027    1357.0081   -2067.9726   -2097.1664    8236.1633   -1167.7593   -1416.4914    -1885.072    79.231464 
    7300    115.63527    -106.9172   0.10462922   -106.81257   -3005.9086    4.2955644    4.2955644    4.2955644   -3005.9086   -3270.0982   -2250.0365   -3497.5912   -1029.9582    106.38391     583.5018    79.261213 
    7400    134.51861   -106.93395   0.12171526   -106.81224   -732.74879     4.295404     4.295404     4.295404   -732.74879   -4803.0693   -4622.0482    7226.8712    399.17852     1541.406    554.73791    79.252332 
    7500    53.157739   -106.86115  0.048098239   -106.81305    1866.0277    4.2946329    4.2946329    4.2946329    1866.0277    -4802.501   -1523.1806    11923.765    -507.6925   -494.86507   -808.93792    79.209658 
    7600    103.36677   -106.90617  0.093528422   -106.81264    -1372.715    4.2957498    4.2957498    4.2957498    -1372.715   -4395.8919   -4484.7155    4762.4622   -209.74924   -2355.0937   -1696.8081    79.271473 
    7700    127.48998   -106.92745   0.11535561    -106.8121    128.93647    4.2948307    4.2948307    4.2948307    128.93647   -191.51127    964.58596   -386.26527   -1414.5209    511.28977    470.90986    79.220601 
    7800    89.940219   -106.89422    0.0813798   -106.81284   -931.77979    4.2954968    4.2954968    4.2954968   -931.77979    -5077.807   -4658.2731    6940.7407    45.620666    1145.1643    1041.4589    79.257471 
    7900    76.815522   -106.88229  0.069504298   -106.81279    1990.5503    4.2950328    4.2950328    4.2950328    1990.5503   -4436.4872   -2175.0509    12583.189    -34.72987    -449.6114   -20.432982    79.231789 
    8000    123.49627   -106.92402   0.11174202   -106.81228    -665.9785    4.2949607    4.2949607    4.2949607    -665.9785   -4414.8959   -2013.5431    4430.5036      253.283    -905.0933   -739.63001    79.227795 
    8100    108.81862   -106.91106  0.098461372    -106.8126   -2807.0397    4.2961673    4.2961673    4.2961673   -2807.0397   -2976.7138   -2445.6333   -2998.7721   -1251.6008   -1062.9697   -184.96076    79.294591 
    8200     81.84247   -106.88681  0.074052787   -106.81276    3294.3755    4.2942836    4.2942836    4.2942836    3294.3755    -1417.301   -338.97506    11639.403   -576.72309     2146.772    1995.6339    79.190332 
    8300     93.51394   -106.89736  0.084613378   -106.81275    449.80308    4.2954859    4.2954859    4.2954859    449.80308   -5015.9718   -5299.1459    11664.527   -138.90008     1057.555   -63.232357    79.256864 
    8400    93.986032    -106.8978  0.085040537   -106.81276    -1755.317    4.2955187    4.2955187    4.2955187    -1755.317    -4868.633   -1617.9391    1220.6212   -18.444849   -1877.0736    -1103.524    79.258679 
    8500    161.56045   -106.95832   0.14618329   -106.81214   -2581.2616    4.2953582    4.2953582    4.2953582   -2581.2616   -3921.5613   -3427.2283   -394.99515   -140.13179   -135.25723   -627.50285    79.249797 
    8600    41.746652   -106.85096  0.037773248   -106.81319    3118.3893    4.2950958    4.2950958    4.2950958    3118.3893   -2094.2482   -438.91904    11888.335    -1205.917    1632.4281    1852.4392    79.235273 
    8700    83.796687   -106.88889  0.075821004   -106.81307    1048.2834    4.2947026    4.2947026    4.2947026    1048.2834   -3269.7248   -3635.3313    10049.906   -66.280583    526.73331    -241.4901    79.213516 
    8800    137.61403   -106.93673   0.12451606   -106.81221   -1285.5207    4.2956591    4.2956591    4.2956591   -1285.5207   -3238.5663   -2971.6612    2353.6653   -88.613808   -84.683736    130.37256    79.266451 
    8900    112.82353   -106.91467    0.1020851   -106.81258   -3223.0984    4.2954763    4.2954763    4.2954763   -3223.0984   -5872.2882   -2749.2286   -1047.7784    379.15009   -1728.1055   -549.30591    79.256333 
    9000    72.996409   -106.87906  0.066048684   -106.81301    2711.8275    4.2948031    4.2948031    4.2948031    2711.8275   -3118.7734   -3149.2357    14403.492   -541.34788    792.41519    1527.8845    79.219076 
    9100    84.665729   -106.88949  0.076607331   -106.81288    2595.2341     4.294807     4.294807     4.294807    2595.2341   -1471.8139   -459.78773    9717.3039   -864.46511    2314.0356    1398.6581    79.219293 
    9200     114.5447   -106.91639   0.10364245   -106.81275   -2815.0823    4.2955997    4.2955997    4.2955997   -2815.0823    -3307.868   -4635.3336   -502.04518   -477.41539   -795.62135   -403.32868    79.263167 
    9300     128.2494    -106.9282   0.11604275   -106.81216   -779.39303    4.2954342    4.2954342    4.2954342   -779.39303   -3438.3299    -2069.439    3169.5898    63.963654   -1393.0803   -947.17388    79.254006 
    9400    74.991684   -106.88055  0.067854051    -106.8127    1561.2752    4.2947459    4.2947459    4.2947459    1561.2752   -5724.1238   -3785.7306     14193.68   -128.02503    636.75391    657.15145    79.215913 
    9500    76.615599   -106.88244  0.069323404   -106.81312    409.49059    4.2953272    4.2953272    4.2953272    409.49059   -2223.7788   -2310.9458    5763.1964   -1046.5251    1070.4365    688.82813    79.248083 
    9600    139.66915   -106.93862   0.12637558   -106.81225   -879.25591     4.295261     4.295261     4.295261   -879.25591   -1085.1578   -2051.0537    498.44374    -586.5639    80.864626   -1011.6903    79.244418 
    9700    98.209651   -106.90147  0.088862156   -106.81261   -1414.7841    4.2954418    4.2954418    4.2954418   -1414.7841   -3252.0154   -4370.7614    3378.4245   -518.02357   -2119.5502   -637.78229    79.254423 
    9800    63.391272   -106.87011  0.057357755   -106.81275    1543.0064     4.295153     4.295153     4.295153    1543.0064   -5504.3491   -3119.4466    13252.815     691.7622   -1016.4802   -61.828744    79.238438 
    9900    128.58035   -106.92851    0.1163422   -106.81217   -704.62371      4.29519      4.29519      4.29519   -704.62371   -4087.9989   -3470.1966    5444.3244   -580.78338    1951.5953    1871.5756    79.240487 
   10000    98.521275   -106.90188   0.08914412   -106.81274   -2178.3675     4.295752     4.295752     4.295752   -2178.3675   -2205.5804   -2448.6901   -1880.8321   -905.69998   -323.55307   -548.05445    79.271596 
   10100    106.20856    -106.9088  0.096099739    -106.8127   -113.29779    4.2952343    4.2952343    4.2952343   -113.29779    -2047.807   -3815.4793    5523.3929   -356.65461   -1864.7351   -366.33147    79.242942 
   10200    68.838208   -106.87507  0.062286257   -106.81278     2269.535    4.2947918    4.2947918    4.2947918     2269.535   -4018.7055   -3882.4329    14709.744   -473.85216   -1052.3371   -610.83143    79.218448 
   10300    106.57647   -106.90921  0.096432627   -106.81278   -3079.0691     4.295857     4.295857     4.295857   -3079.0691   -6427.8607   -3157.4333    348.08668    384.09305    327.14777    1097.6486    79.277408 
   10400    139.15098   -106.93828   0.12590674   -106.81237    -1336.871    4.2953153    4.2953153    4.2953153    -1336.871   -3046.7924   -2670.5229    1706.7023    -1293.024    334.80085   -1001.0252    79.247425 
   10500    84.022653   -106.88877  0.076025463   -106.81275    1048.7146    4.2950067    4.2950067    4.2950067    1048.7146   -2602.8912   -2339.1234    8088.1583   -469.07655   -2211.9637   -1501.2634    79.230346 
   10600    47.208773   -106.85576   0.04271549   -106.81304    2291.8254    4.2950341    4.2950341    4.2950341    2291.8254   -2816.6786    -4188.867    13881.022    -664.9754   -2872.6823   -1000.1406    79.231858 
   10700    147.60133   -106.94565   0.13355279    -106.8121   -1940.8469    4.2951666    4.2951666    4.2951666   -1940.8469   -4564.3071   -3040.1067    1781.8731    458.79041    993.99742    990.23822    79.239191 
   10800    114.64627   -106.91654   0.10373435   -106.81281   -2647.1209    4.2959387    4.2959387    4.2959387   -2647.1209   -5505.7765   -3103.3288    667.74259   -200.45139   -69.591232     3.516911    79.281934 
   10900    85.270758   -106.89005  0.077154774    -106.8129    1475.2391    4.2947939    4.2947939    4.2947939    1475.2391   -3570.9746    -2878.713    10875.405   -325.37311   -1388.4818    -628.8764    79.218569 
   11000     72.33561   -106.87804   0.06545078   -106.81259    3873.6065    4.2946344    4.2946344    4.2946344    3873.6065   -929.13167   -2061.7387     14611.69   -580.70145   -1873.2859   -56.332389    79.209744 
   11100    116.00624   -106.91781   0.10496489   -106.81285   -3415.7925    4.2958393    4.2958393    4.2958393   -3415.7925   -3373.5956   -4227.0487   -2646.7332   -154.12142   -1114.9982   -45.002512    79.276431 
   11200    124.54802   -106.92544   0.11269367   -106.81274   -1463.0064    4.2952419    4.2952419    4.2952419   -1463.0064   -4184.6004   -2772.9786    2568.5599    377.15345    1468.6751    807.57109     79.24336 
   11300    92.069704   -106.89598  0.083306603   -106.81267    1315.2183    4.2953537    4.2953537    4.2953537    1315.2183   -4608.7112   -3404.5069    11958.873   -722.75611   -796.17013   -1579.2463    79.249548 
   11400     57.91307   -106.86538  0.052400963   -106.81298    1619.2646    4.2947652    4.2947652    4.2947652    1619.2646   -2311.8524   -2578.1791    9747.8253   -216.27047   -3175.3286   -1239.4017    79.216978 
   11500    140.76293    -106.9394   0.12736526   -106.81203   -1396.1601     4.295611     4.295611     4.295611   -1396.1601    477.30857   -3135.2807   -1530.5081   -1317.3717     28.68958   -470.87111    79.263791 
   11600    104.18436   -106.90683  0.094268194   -106.81256   -1289.0687    4.2952443    4.2952443    4.2952443   -1289.0687   -3555.2823   -3345.0891    3033.1654    617.98865    1223.9192    1032.6892    79.243491 
   11700    68.530817   -106.87508  0.062008124   -106.81308    852.06898    4.2951884    4.2951884    4.2951884    852.06898   -4411.8378   -3301.3512    10269.396   -344.93336   -429.14265     -1398.73    79.240397 
   11800    115.11366    -106.9165   0.10415726   -106.81235    1107.5182     4.295121     4.295121     4.295121    1107.5182   -3229.2013   -3586.5215    10138.277   -66.194689   -1280.3036    268.85269    79.236669 
   11900    109.29871   -106.91148  0.098895771   -106.81259    -1849.026    4.2952494    4.2952494    4.2952494    -1849.026   -61.406792   -1734.4066   -3751.2646    -774.3034    -1267.636   -164.54577    79.243777 
   12000    98.643538   -106.90194  0.089254746   -106.81269   -252.43562    4.2956027    4.2956027    4.2956027   -252.43562   -1556.2427    -4826.141    5625.0768   -86.721203    1801.2796     1186.454    79.263334 
   12100    85.637805   -106.88998  0.077486885    -106.8125    2471.6693    4.2943738    4.2943738    4.2943738    2471.6693    -3798.621   -1870.1527    13083.781    101.82234    1021.6657   -271.38331    79.195324 
   12200     87.53587   -106.89199  0.079204295   -106.81279   -971.95625    4.2957607    4.2957607    4.2957607   -971.95625   -4851.3927   -4298.8007    6234.3247   -203.85118   -2157.3725   -916.93594    79.272079 
   12300    151.84785   -106.94949   0.13739512    -106.8121   -2275.5639    4.2953474    4.2953474    4.2953474   -2275.5639   -2259.0679   -2987.2723   -1580.3514   -617.26303   -859.53195   -595.13133    79.249198 
   12400    78.470728   -106.88377  0.071001964   -106.81277    2173.8075    4.2948035    4.2948035    4.2948035    2173.8075    94.896253   -2577.8166    9004.3427   -1039.6297     1877.583    491.13642    79.219099 
   12500    63.838008   -106.87089  0.057761971   -106.81313    203.52643       4.2955       4.2955       4.2955    203.52643   -4600.5644   -5700.0644    10911.208    302.65167    663.73843   -276.78428    79.257645 
   12600    111.26484   -106.91299   0.10067476   -106.81231    471.68092    4.2947363    4.2947363    4.2947363    471.68092   -3509.8706    -1809.581    6734.4944   -826.90462   -508.06289   -741.87461    79.215381 
   12700    157.93316   -106.95515   0.14290125   -106.81225   -4894.9279    4.2964242    4.2964242    4.2964242   -4894.9279   -5729.3297   -5418.1163   -3537.3379    356.46238   -1413.2372    233.80099    79.308813 
   12800     53.07947   -106.86155   0.04802742   -106.81352    2086.9959    4.2946327    4.2946327    4.2946327    2086.9959   -1409.8099   -2316.9086    9987.7062   -1172.3858    1232.5115    663.22804    79.209646 
   12900    91.462135   -106.89546  0.082756862    -106.8127    1941.1142    4.2951854    4.2951854    4.2951854    1941.1142   -2201.7901   -4927.0292    12952.162   -110.31754    2109.0804    1139.1175    79.240234 
   13000    89.888873   -106.89416  0.081333341   -106.81282   -2028.8662    4.2955401    4.2955401    4.2955401   -2028.8662   -3940.9371    -3745.162    1599.5005   -90.733335   -825.21011   -787.89876    79.259864 
   13100     146.6716   -106.94507   0.13271154   -106.81235   -4029.0779    4.2957428    4.2957428    4.2957428   -4029.0779   -5492.8272   -4266.0276   -2328.3789   -285.55915   -1565.8577    279.63392    79.271085 
   13200    95.734355   -106.89931  0.086622456   -106.81269    1751.1224    4.2951479    4.2951479    4.2951479    1751.1224   -3641.4164   -4019.8466     12914.63    -150.7146    716.90843   -351.10641    79.238158 
   13300    42.417465   -106.85178  0.038380213    -106.8134    1942.4934    4.2947068    4.2947068    4.2947068    1942.4934   -1492.0077    -2465.622    9785.1099   -1105.4397    1232.6011    625.62514    79.213748 
   13400    133.92195   -106.93349    0.1211754   -106.81231   -1983.6111    4.2958941    4.2958941    4.2958941   -1983.6111   -2357.9013    -5472.419    1879.4869   -123.33071    478.35527    -760.0742    79.279464 
   13500    122.34064   -106.92308   0.11069639   -106.81238   -1450.7584    4.2950451    4.2950451    4.2950451   -1450.7584   -3140.1219      -850.79   -361.36324   -362.23139   -2215.4866   -547.32478     79.23247 
   13600    79.858913   -106.88523  0.072258022   -106.81297   -216.26877    4.2954636    4.2954636    4.2954636   -216.26877    -6482.236   -6244.0981    12077.528   -20.032983   -336.04261    268.56812    79.255634 
   13700    87.376295   -106.89167  0.079059908   -106.81261    3404.4125    4.2945505    4.2945505    4.2945505    3404.4125   -237.83467    -680.7029    11131.775   -713.08098    2421.1602    1093.9153      79.2051 
   13800    114.86478   -106.91656   0.10393207   -106.81263   -1681.2249    4.2952899    4.2952899    4.2952899   -1681.2249   -1112.9698   -4055.8145    125.10952   -186.82275     -342.036   -307.80549    79.246017 
   13900    105.48325   -106.90806  0.095443461   -106.81262   -1633.8263    4.2958069    4.2958069    4.2958069   -1633.8263   -2099.0677   -3152.3279    349.91673   -285.65367   -1849.3592    -156.3874    79.274635 
   14000    89.763972   -106.89367  0.081220328   -106.81245    3226.9574    4.2942631    4.2942631    4.2942631    3226.9574    -3991.547   -1751.1999    15423.619    240.49329   -678.75301     391.6905    79.189199 
   14100    95.489981   -106.89926  0.086401341   -106.81286   -1059.1882    4.2957138    4.2957138    4.2957138   -1059.1882   -4357.9766   -5423.6007    6604.0128   -195.07468    776.18756   -213.36092    79.269481 
   14200    104.38001   -106.90697  0.094445227   -106.81253   -226.52983    4.2951666    4.2951666    4.2951666   -226.52983    687.15307    -839.1496   -527.59297   -707.44651     1002.601    130.16797     79.23919 
   14300    137.13687    -106.9362   0.12408433   -106.81212   -1566.4516    4.2953771    4.2953771    4.2953771   -1566.4516   -1629.4315   -5422.3625    2352.4391    83.856262   -1873.9425   -900.77354    79.250846 
   14400    23.233415    -106.8343  0.021022082   -106.81328     2906.896    4.2951456    4.2951456    4.2951456     2906.896   -3180.2956   -1199.8349    13100.819   -589.24321   -1862.8474   -666.78706    79.238029 
   14500    142.51857   -106.94126   0.12895379   -106.81231   -1321.4114     4.295193     4.295193     4.295193   -1321.4114    -5620.933    -5168.133    6824.8319    271.25268    1865.2842    303.16794    79.240655 
   14600    117.98293   -106.91921   0.10675344   -106.81245   -1159.8647    4.2956147    4.2956147    4.2956147   -1159.8647   -941.79872   -1691.1227   -846.67258   -629.30326    378.10245     201.8086    79.263995 
   14700    90.408693   -106.89467  0.081803685   -106.81286   -1403.8557    4.2954077    4.2954077    4.2954077   -1403.8557   -2237.8526   -4400.5701    2426.8557   -414.72602   -2026.0371   -1028.1925    79.252539 
   14800    66.666743     -106.873   0.06032147   -106.81268    3996.4548    4.2945356    4.2945356    4.2945356    3996.4548   -1306.4579   -3493.7428    16789.565   -190.67552   -1707.0067    278.55269    79.204276 
   14900    102.24519   -106.90537  0.092513593   -106.81285   -1217.3978    4.2955882    4.2955882    4.2955882   -1217.3978   -5275.6853   -2219.4382      3842.93    -39.13722   -93.746567   -81.369772     79.26253 
   15000    146.21852    -106.9447   0.13230159    -106.8124   -3605.9677    4.2957878    4.2957878    4.2957878   -3605.9677   -4832.2439   -5729.6891   -255.97001   -119.54856    801.94871    245.45369    79.273578 
   15100    96.960506   -106.90028  0.087731903   -106.81255    2421.4378    4.2947543    4.2947543    4.2947543    2421.4378   -997.49165     88.13414    8173.6708   -495.04125   -712.21188   -304.71971    79.216378 
   15200    48.243151   -106.85674  0.043651417   -106.81309    1552.4422    4.2950852    4.2950852    4.2950852    1552.4422   -3027.6886    -6518.239    14203.254   -134.04965   -2967.6287   -619.71419    79.234687 
   15300    100.88719   -106.90398  0.091284848   -106.81269    93.348076    4.2949593    4.2949593    4.2949593    93.348076   -2299.9698   -838.64401     3418.658   -711.11459    225.96723    168.41585    79.227722 
   15400    165.93868    -106.9624    0.1501448   -106.81225   -3604.0939    4.2959344    4.2959344    4.2959344   -3604.0939   -5845.5923   -5241.8333    275.14393    437.07748    1117.3747    64.568472    79.281695 
   15500    68.557924   -106.87525  0.062032651   -106.81321    412.41659    4.2950531    4.2950531    4.2950531    412.41659   -4110.4157   -3156.4876    8504.1531   -1148.2708   -1247.1827   -161.44831    79.232913 
   15600     71.96485   -106.87783  0.065115309   -106.81272    3138.1544    4.2947732    4.2947732    4.2947732    3138.1544   -1743.8576   -3427.3733    14585.694    14.779086   -2170.6389   -684.45514     79.21742 
   15700    113.37627   -106.91524   0.10258523   -106.81266   -2097.2595    4.2955059    4.2955059    4.2955059   -2097.2595   -1994.5236   -4273.2101   -24.044927   -892.48539   -1140.4687    169.64013    79.257971 
   15800    106.69418    -106.9093   0.09653914   -106.81276   -2924.1789     4.295569     4.295569     4.295569   -2924.1789    -4510.392   -2854.0649   -1408.0798    -117.5665    1052.2604     302.5879    79.261464 
   15900    127.27004   -106.92756   0.11515661    -106.8124   -330.90416    4.2956056    4.2956056    4.2956056   -330.90416   -5459.1299   -5752.9261    10219.344   -1.0208099    470.24047     138.0972    79.263494 
   16000    42.494325   -106.85163  0.038449758   -106.81318    2457.7277    4.2946116    4.2946116    4.2946116    2457.7277    -3105.513   -1623.8231    12102.519   -664.53653   -2549.6245    -228.5272    79.208482 
   16100    128.03962   -106.92829   0.11585294   -106.81243   -3431.6494    4.2961681    4.2961681    4.2961681   -3431.6494   -1411.0324   -6291.6514   -2592.2643    208.33905   -682.43827    375.27635    79.294632 
   16200    112.26061   -106.91385   0.10157576   -106.81227   -8.7742352    4.2949548    4.2949548    4.2949548   -8.7742352   -1557.4298   -562.68723    2093.7943   -767.24979    1501.6616    130.88688    79.227473 
   16300    85.523812   -106.89017  0.077383742   -106.81279   -718.16675    4.2954417    4.2954417    4.2954417   -718.16675   -5749.9331   -5665.4196    9260.8525    470.84815    474.77633    142.03454    79.254421 
   16400    84.230639   -106.88886  0.076213652   -106.81265    2144.4291    4.2951615    4.2951615    4.2951615    2144.4291   -3631.2323   -2582.7147    12647.234   -695.81942   -1141.7644   -222.08465    79.238908 
   16500    135.71896   -106.93506   0.12280137   -106.81226   -1571.7972    4.2950355    4.2950355    4.2950355   -1571.7972   -1278.8464   -2642.2291   -794.31612    30.957078   -1867.3664   -885.93547    79.231936 
   16600    87.057188   -106.89154  0.078771173   -106.81277   -1203.6557    4.2960133    4.2960133    4.2960133   -1203.6557   -649.08029   -4657.3036    1695.4167    -987.4111    1492.0502    439.66305    79.286062 
   16700    82.734052   -106.88738  0.074859509   -106.81252    3233.3941    4.2941408    4.2941408    4.2941408    3233.3941   -3314.9093    -309.6758    13324.767    306.36288     1689.595    63.301576    79.182433 
   16800    102.76102   -106.90546  0.092980331   -106.81248    266.32288    4.2955247    4.2955247    4.2955247    266.32288   -4484.4799   -5314.9235    10598.372   -568.64313   -1371.4243    -237.3295    79.259011 
   16900    120.61319   -106.92162   0.10913335   -106.81249   -2282.4786    4.2954762    4.2954762    4.2954762   -2282.4786   -3193.0493   -741.20316   -2913.1833    66.792471    -932.7899    10.298143    79.256331 
   17000    117.67496   -106.91906   0.10647477   -106.81259    364.75549    4.2950098    4.2950098    4.2950098    364.75549    258.10099   -4417.3892    5253.5547   -188.17103    1587.1783    1084.1949    79.230515 
   17100    46.118999   -106.85483  0.041729439    -106.8131    2298.7334    4.2951974    4.2951974    4.2951974    2298.7334   -2736.7941   -2115.0694    11748.064   -285.28608    1509.2037   -455.97358    79.240895 
   17200    97.661369   -106.90103  0.088366059   -106.81266   -82.536829    4.2948035    4.2948035    4.2948035   -82.536829   -4100.9005   -3872.7599    7726.0499    492.34781    420.77248     955.1246      79.2191 
   17300    164.89199   -106.96123   0.14919774   -106.81203   -3183.3383    4.2960985    4.2960985    4.2960985   -3183.3383    -4608.681   -2705.8791   -2235.4547    -523.2681   -1667.0145    -885.5007     79.29078 
   17400    77.292671   -106.88303  0.069936033    -106.8131   -283.75288    4.2948965    4.2948965    4.2948965   -283.75288   -2515.6877   -2854.4798    4518.9088    279.27571    413.95413   -195.92036    79.224243 
   17500    64.200671   -106.87096  0.058090116   -106.81287    2601.0415    4.2951996    4.2951996    4.2951996    2601.0415   -1409.2372   -3733.2978     12945.66   -790.28988    2623.5902   -38.633998    79.241019 
   17600    95.402059   -106.89899  0.086321788   -106.81267    570.59866    4.2950114    4.2950114    4.2950114    570.59866   -3210.6828   -1695.2987    6617.7775    154.49257    58.651981   -218.22183    79.230604 
   17700    143.36983    -106.9422   0.12972404   -106.81248   -4793.9492    4.2959754    4.2959754    4.2959754   -4793.9492   -5370.6166   -4821.5387   -4189.6923     -706.585   -1514.6821   -337.26515    79.283965 
   17800    105.92241   -106.90844  0.095840826    -106.8126    1107.5119    4.2952925    4.2952925    4.2952925    1107.5119   -4573.5718   -1761.2998    9657.4074    334.13592    744.22118    400.59875    79.246159 
   17900    62.385656   -106.86931  0.056447852   -106.81287    2654.8866    4.2943455    4.2943455    4.2943455    2654.8866    -1631.442   -3602.4114    13198.513   -716.30411    1561.7285    762.02775    79.193759 
   18000    81.432041   -106.88665  0.073681422   -106.81297    -218.5272    4.2958429    4.2958429    4.2958429    -218.5272   -2422.1886   -2951.9175    4718.5245    -37.43071    1494.2286     409.1431    79.276631 
   18100    156.46869    -106.9537   0.14157616   -106.81213   -2168.2386    4.2950598    4.2950598    4.2950598   -2168.2386   -3048.0385   -2435.2398   -1021.4376   -76.264576   -1013.3617     382.9764     79.23328 
   18200    90.359902   -106.89451  0.081759538   -106.81275   -95.238581    4.2956144    4.2956144    4.2956144   -95.238581    -6282.326   -4033.8924    10030.503   -265.10914   -1368.1352   -554.14846    79.263981 
   18300    69.083312   -106.87532  0.062508032   -106.81281    1851.1944    4.2948223    4.2948223    4.2948223    1851.1944   -3340.9524   -2898.5614    11793.097    255.61722    2077.9044    352.65986    79.220138 
   18400    111.48674   -106.91311   0.10087554   -106.81223    94.727944    4.2950537    4.2950537    4.2950537    94.727944   -871.91454   -2898.5693    4054.6677   -1006.7504    1240.9521   -856.73848    79.232946 
   18500    115.10516   -106.91662   0.10414957   -106.81247   -3274.1981    4.2960526    4.2960526    4.2960526   -3274.1981   -2559.9396    -3741.726   -3520.9286    232.52014   -1501.5324    31.652956    79.288239 
   18600    87.423115   -106.89204  0.079102272   -106.81293    1271.5817    4.2947657    4.2947657    4.2947657    1271.5817   -4395.5708   -2739.3376    10949.654   -705.94268   -883.22886   -860.34018    79.217004 
   18700    102.60687    -106.9054  0.092840848   -106.81256    206.21305    4.2955057    4.2955057    4.2955057    206.21305   -6218.7134   -4236.3706    11073.723   -3.7143825    1045.0433    1042.0577    79.257961 
   18800    87.663706   -106.89211  0.079319963   -106.81279   -1721.5464    4.2952283    4.2952283    4.2952283   -1721.5464   -1086.2502   -2954.6151   -1123.7739   -437.32244    1866.1303   -47.212565    79.242609 
   18900    133.72877   -106.93323    0.1210006   -106.81223   -2149.2761    4.2956866    4.2956866    4.2956866   -2149.2761   -1898.7624   -3654.3814   -894.68455   -243.70626   -480.49881     796.0699    79.267976 
   19000    66.065247    -106.8726  0.059777223   -106.81282    2051.7089    4.2948604    4.2948604    4.2948604    2051.7089   -1904.1474   -3155.2489    11214.523   -44.409138    -2283.379   -321.80624    79.222245 
   19100    86.410786   -106.89101  0.078186295   -106.81282    -141.9662     4.295384     4.295384     4.295384    -141.9662   -6714.9599   -3092.9016    9381.9629   -123.82379    815.54537     699.7945    79.251225 
   19200    143.98234    -106.9422   0.13027825   -106.81192   -1713.5741     4.295567     4.295567     4.295567   -1713.5741   -3107.0321   -3399.1278    1365.4374    52.340186    1343.5872   -876.54765    79.261353 
   19300    100.32914   -106.90338  0.090779912    -106.8126   -1203.8231    4.2952717    4.2952717    4.2952717   -1203.8231   -1212.5945   -1590.6374   -808.23749   -281.74528   -693.96933   -131.16397    79.245007 
   19400    59.346574   -106.86667  0.053698027   -106.81297    2482.2869    4.2950505    4.2950505    4.2950505    2482.2869   -1966.8449   -4615.1122    14028.818    30.773826     -1809.01   -411.10614    79.232766 
   19500    99.148281   -106.90219  0.089711448   -106.81248     2444.493    4.2945685    4.2945685    4.2945685     2444.493   -2927.6054   -573.29619    10834.381   -570.04339   -412.24632   -795.98434    79.206095 
   19600    139.20572   -106.93844   0.12595626   -106.81249   -3633.2475    4.2960009    4.2960009    4.2960009   -3633.2475   -6177.2015   -4901.4818    178.94082    374.52343    1743.3351    822.33814    79.285378 
   19700    109.08174   -106.91154  0.098699448   -106.81284   -64.536935    4.2950981    4.2950981    4.2950981   -64.536935   -2099.0178    -678.3193    2583.7263   -620.28427    308.56289    341.52115      79.2354 
   19800    66.048569   -106.87257  0.059762133    -106.8128    3326.4206    4.2947271    4.2947271    4.2947271    3326.4206   -1762.4417   -3311.3163     15053.02   -61.691134   -2536.9995    223.70576    79.214869 
   19900    70.056222   -106.87648  0.063388342   -106.81309    443.15966    4.2951619    4.2951619    4.2951619    443.15966   -1980.9416   -2864.7375    6175.1581   -56.192634   -724.80762    669.98486    79.238932 
   20000    151.63091   -106.94929   0.13719883   -106.81209   -2256.9814    4.2955433    4.2955433    4.2955433   -2256.9814   -4945.0009   -1681.5312   -144.41207   -230.08811    1112.8944    920.75459    79.260046 
   20100    127.82649   -106.92803    0.1156601   -106.81237   -2031.8355    4.2955467    4.2955467    4.2955467   -2031.8355   -5035.7402   -4560.8928    3501.1265    359.07727    245.26863   -798.67991    79.260231 
   20200    28.181432   -106.83881  0.025499152   -106.81331    3026.9047    4.2948394    4.2948394    4.2948394    3026.9047   -2957.7671   -598.15812    12636.639   -519.77586     -1144.71    668.92496    79.221082 
   20300     120.0194   -106.92096   0.10859608   -106.81236   -270.39426    4.2953073    4.2953073    4.2953073   -270.39426   -1370.3385   -5197.4596    5756.6154    186.63722   -1894.1467   -1007.8348    79.246982 
   20400    103.93471   -106.90668  0.094042311   -106.81263   -1522.0354    4.2952315    4.2952315    4.2952315   -1522.0354   -1985.9178   -72.152742   -2508.0357   -296.18744    867.55664    744.36927    79.242786 
   20500    129.22546   -106.92954   0.11692591   -106.81261   -2704.1731    4.2959384    4.2959384    4.2959384   -2704.1731    -6845.544   -5524.8498    4257.8744    125.83445    2027.7997   -149.87002    79.281914 
   20600    67.744103   -106.87407  0.061296288   -106.81277    3719.9021    4.2943122    4.2943122    4.2943122    3719.9021   -3255.4979   -774.58742    15189.792   -701.81209   -1556.3054    833.64759    79.191916 
   20700    88.697803   -106.89308  0.080255636   -106.81282   -1447.4705     4.295764     4.295764     4.295764   -1447.4705   -2460.8198   -3839.6842    1958.0927    159.87782   -1672.7763    64.006056     79.27226 
   20800    122.46336     -106.923   0.11080742   -106.81219     -1236.59     4.295405     4.295405     4.295405     -1236.59   -721.70818   -2818.7025   -169.35939   -610.33563    1139.6199    1127.5828    79.252389 
   20900    111.97042   -106.91354   0.10131319   -106.81222    715.51508    4.2949277    4.2949277    4.2949277    715.51508   -3858.9306   -1049.7628    7055.2386    17.562246    1243.4652   -174.35453    79.225972 
   21000    67.656851   -106.87403  0.061217341   -106.81281    631.58112    4.2955727    4.2955727    4.2955727    631.58112   -6285.9305   -5366.1914    13546.865   -213.30728    261.71717    314.49303    79.261671 
   21100    111.31487   -106.91302   0.10072003    -106.8123    493.49856    4.2946849    4.2946849    4.2946849    493.49856   -2624.2148    365.74374    3738.9667   -405.61276   -1544.4519   -194.98538    79.212537 
   21200    129.15709   -106.92913   0.11686405   -106.81226   -2656.4237    4.2960836    4.2960836    4.2960836   -2656.4237   -697.00457   -5977.5033   -1294.7632    412.41525    44.199086   -219.37872    79.289952 
   21300     61.39692    -106.8686  0.055553224   -106.81305    1420.0768    4.2947477    4.2947477    4.2947477    1420.0768   -2756.5908   -394.00297     7410.824   -836.17048    3041.8013   -103.88854    79.216013 
   21400    107.05243   -106.90921  0.096863292   -106.81235    1608.0828    4.2951019    4.2951019    4.2951019    1608.0828   -4955.2509   -4875.5725    14655.072    601.57043     446.7263   -140.09731    79.235612 
   21500    107.56337   -106.91004    0.0973256   -106.81272   -2340.9697    4.2956253    4.2956253    4.2956253   -2340.9697    -5236.784   -1610.9965   -175.12857   -879.14053   -1333.4877    104.25196     79.26458 
   21600    115.02458   -106.91675   0.10407666   -106.81267   -2461.5391    4.2954423    4.2954423    4.2954423   -2461.5391   -2213.8825   -3584.5785   -1586.1561    126.62373    662.48053    17.149255     79.25445 
   21700    92.394243   -106.89608  0.083600253   -106.81248    1685.4249    4.2952365    4.2952365    4.2952365    1685.4249   -990.99691   -3122.0221    9169.2937   -489.50182    2020.9133     542.2496    79.243062 
   21800    45.933464   -106.85484  0.041561563   -106.81328    1763.1068    4.2946705    4.2946705    4.2946705    1763.1068   -4008.7855   -2576.3817    11874.488   -58.006694    1720.3866   -180.99986    79.211738 
   21900    156.45454   -106.95371   0.14156336   -106.81215   -3468.9049    4.2961232    4.2961232    4.2961232   -3468.9049   -5663.8188   -4707.9098   -34.985986    -400.0916   -614.90909    137.11119    79.292146 
   22000    117.83605   -106.91906   0.10662054   -106.81244   -965.46029    4.2949273    4.2949273    4.2949273   -965.46029    -3566.804   -263.97286    934.39599    -82.63637   -669.45891   -154.76195    79.225951 
   22100    62.571116    -106.8698   0.05661566   -106.81319    371.87994     4.295424     4.295424     4.295424    371.87994    -2487.588   -5150.0742     8753.302   -229.63257    2554.3999     412.6951    79.253437 
   22200    72.235858   -106.87819  0.065360523   -106.81283    4079.0142    4.2945481    4.2945481    4.2945481    4079.0142   -1345.4252   -29.582742    13612.051    198.12795    2037.9939   -1237.8433    79.204969 
   22300    140.38691   -106.93958   0.12702503   -106.81256    -2784.383    4.2954915    4.2954915    4.2954915    -2784.383   -3539.9692   -4190.1169   -623.06306     277.1377   -161.98829    602.46702    79.257178 
   22400     112.0506   -106.91402   0.10138574   -106.81263   -2052.6302    4.2960244    4.2960244    4.2960244   -2052.6302   -5967.0752   -2123.2748    1932.4593   -551.60463   -610.06387   -321.09636    79.286677 
   22500    94.223387   -106.89771    0.0852553   -106.81245    2747.9608    4.2942858    4.2942858    4.2942858    2747.9608   -2412.5089   -1914.2778    12570.669    556.47396    990.07789    32.332719    79.190456 
   22600    53.979303   -106.86182  0.048841608   -106.81298     1849.685    4.2954097    4.2954097    4.2954097     1849.685    -1531.295   -3252.4273    10332.777    -655.4943    2628.6919   -66.347818    79.252649 
   22700    128.75611   -106.92892   0.11650123   -106.81242     -1649.37    4.2952376    4.2952376    4.2952376     -1649.37   -1810.1433   -1446.5896    -1691.377    401.62523    158.75508    158.86202    79.243123 
   22800    139.10126   -106.93807   0.12586175    -106.8122    -978.6693    4.2955209    4.2955209    4.2955209    -978.6693    -3640.147   -3160.2647    3864.4038   -564.32167   -1693.4091   -131.54573    79.258802 
   22900    59.636397   -106.86687  0.053960265   -106.81291    381.84004    4.2953096    4.2953096    4.2953096    381.84004    -6059.956   -2254.3273    9459.8034   -50.161012    1068.6407    933.52166    79.247107 
   23000    85.932779   -106.89022  0.077753785   -106.81246    1699.3197    4.2948206    4.2948206    4.2948206    1699.3197   -1311.0024   -2676.9672    9085.9286   -534.89986      2259.18   -408.10767    79.220044 
   23100    132.24838   -106.93195   0.11966111   -106.81229   -2161.2412    4.2956891    4.2956891    4.2956891   -2161.2412    -841.1709   -2472.9571   -3169.5955    294.96467    610.24131    86.923157    79.268112 
   23200    87.865035   -106.89255  0.079502131   -106.81305    -1214.186     4.295285     4.295285     4.295285    -1214.186   -2641.1532    -2867.474    1866.0693   -141.77647   -945.89085    243.82984    79.245745 
   23300    107.58475   -106.90972  0.097344942   -106.81238    1110.5789    4.2952715    4.2952715    4.2952715    1110.5789   -5848.1265   -2605.0374    11784.901    68.143303   -826.78738    4.4567535    79.245001 
   23400    75.517748   -106.88113  0.068330045    -106.8128    132.80225    4.2949541    4.2949541    4.2949541    132.80225   -3222.1454   -2769.1216    6389.6738   -237.57627    2082.8332   -254.81406    79.227432 
   23500    119.80627   -106.92088   0.10840323   -106.81248   -2986.3024    4.2959848    4.2959848    4.2959848   -2986.3024    -2104.904   -2856.7748   -3997.2284    -273.8356    1198.5438   -227.28556    79.284484 
   23600    114.29514   -106.91569   0.10341664   -106.81227    1261.0924      4.29474      4.29474      4.29474    1261.0924     266.0281   -2859.6637    6376.9129    403.19515    -2309.679    41.981601    79.215586 
   23700    60.390491   -106.86756  0.054642585   -106.81292    1318.6634    4.2951158    4.2951158    4.2951158    1318.6634   -5207.7065   -2066.5899    11230.286   -740.53039   -491.98899    786.56788    79.236383 
   23800    111.16099   -106.91295    0.1005808   -106.81237   -644.22384    4.2954873    4.2954873    4.2954873   -644.22384   -5547.7685   -3825.2444    7440.3413   -50.944919    1786.4821    502.45518    79.256943 
   23900    133.81108   -106.93333   0.12107508   -106.81225   -1391.6018    4.2950852    4.2950852    4.2950852   -1391.6018   -1433.2376   -396.53485    -2345.033   -642.47925     934.3849   -14.367035    79.234686 
   24000    78.019116   -106.88361  0.070593336   -106.81301   -441.56052    4.2958232    4.2958232    4.2958232   -441.56052   -2489.1756   -5268.5341    6433.0282    194.70231   -571.55173    768.17559    79.275536 
   24100    76.770758   -106.88219  0.069463795   -106.81272    3880.6553    4.2942256    4.2942256    4.2942256    3880.6553     -1146.17   -1013.9013    13802.037   -111.96344   -1858.3826    415.23491    79.187127 
   24200    115.66824   -106.91726   0.10465906    -106.8126   -1081.7577    4.2957159    4.2957159    4.2957159   -1081.7577   -6091.4707   -4082.1546    6928.3523   -71.779831    537.90208    44.489974    79.269597 
   24300    124.52316   -106.92523   0.11267117   -106.81256    -4064.282     4.295841     4.295841     4.295841    -4064.282   -4544.7959   -2872.2126   -4775.8373   -155.84382    1996.4191   -156.11697    79.276521 
   24400      95.1291   -106.89875  0.086074809   -106.81267    1866.9047    4.2949184    4.2949184    4.2949184    1866.9047   -1804.6173   -1620.9036     9026.235    44.176935   -1532.2928    24.326407    79.225455 
   24500    64.884661   -106.87162  0.058709005   -106.81291    1447.1621    4.2953233    4.2953233    4.2953233    1447.1621   -1857.7946   -5038.5994     11237.88   -117.33343    -1775.154    208.97581    79.247864 
   24600    90.276941   -106.89437  0.081684474   -106.81269    164.59532     4.294978     4.294978     4.294978    164.59532   -3021.1373   -591.99614    4106.9194   0.98844907    534.01298    904.78545    79.228754 
   24700    178.74678    -106.9736   0.16173385   -106.81187    -4414.485    4.2960634    4.2960634    4.2960634    -4414.485   -5463.4002   -5309.2808   -2470.7739   -144.11697    1343.0268    331.75131    79.288839 
   24800    45.441087   -106.85455  0.041116051   -106.81343    1230.6824    4.2948902    4.2948902    4.2948902    1230.6824     -3340.24     -482.512    7514.7992    -713.7096    279.01001    801.52462    79.223896 
   24900    90.291751   -106.89455  0.081697874   -106.81285     1132.652    4.2952302    4.2952302    4.2952302     1132.652    -2327.529   -5195.4988    10920.984    136.79976   -1900.9497    380.22151    79.242711 
   25000    100.52243   -106.90353  0.090954805   -106.81258     1218.869    4.2949442    4.2949442    4.2949442     1218.869    198.00868    -538.1931    3996.7914   -53.557126   -911.18798    1383.6737    79.226882 
   25100     133.1523   -106.93299     0.120479   -106.81251   -4031.0138    4.2958805    4.2958805    4.2958805   -4031.0138   -5252.7836   -3461.4684   -3378.7895    256.49207    2058.5784   -492.05343    79.278712 
   25200    93.048456   -106.89679  0.084192198    -106.8126    1786.5046    4.2949832    4.2949832    4.2949832    1786.5046   -3952.1306   -2234.1625    11545.807    -192.6324    172.83389   -533.34983    79.229043 
   25300    70.598838   -106.87654  0.063879312   -106.81266    1985.8761    4.2947122    4.2947122    4.2947122    1985.8761   -2637.4541   -1437.7563    10032.839     -229.271   -1664.9315   -174.07637    79.214048 
   25400    104.74181   -106.90727  0.094772592    -106.8125   -1336.6442    4.2957116    4.2957116    4.2957116   -1336.6442   -683.95275   -5188.6938    1862.7138      294.667   -725.26987    333.07131     79.26936 
   25500    133.14437   -106.93253   0.12047183   -106.81205    40.164349    4.2949928    4.2949928    4.2949928    40.164349   -1240.4655    1250.6582     110.3004    240.24217    1533.5112   -583.60202    79.229576 
   25600    85.440971   -106.89004  0.077308786   -106.81273   -14.640583    4.2954206    4.2954206    4.2954206   -14.640583   -5575.7306   -6117.3736    11649.183   -452.40523    1739.6402    409.18578    79.253249 
   25700    68.848798   -106.87517  0.062295839   -106.81287    1519.7731    4.2949858    4.2949858    4.2949858    1519.7731   -4282.1928    597.53153    8243.9807   -411.85424   -1077.2363   -107.21268    79.229184 
   25800    136.66784   -106.93577   0.12365993   -106.81211   -1321.5879    4.2953825    4.2953825    4.2953825   -1321.5879   -607.90338   -5197.5184    1840.6582   -73.506881   -1403.9322    1074.0145     79.25114 
   25900    96.817514   -106.90029  0.087602521   -106.81269   -1603.8271    4.2956148    4.2956148    4.2956148   -1603.8271   -1474.8908   -1678.8284   -1657.7622   -239.52443    2107.7169   -251.58884    79.263999 
   26000    82.399901    -106.8872  0.074557162   -106.81264    1729.8857    4.2950306    4.2950306    4.2950306    1729.8857   -3847.0735   -3310.3946    12347.125    191.01042    1577.8974   -887.77406    79.231667 
   26100    104.05666   -106.90654  0.094152649   -106.81239   -392.99151    4.2953508    4.2953508    4.2953508   -392.99151   -5449.7568   -3719.1076    7989.8899   -642.97026   -645.93699   -378.58321    79.249388 
   26200    95.729474   -106.89922   0.08661804    -106.8126   -2419.3006    4.2956707    4.2956707    4.2956707   -2419.3006    -3404.399   -1700.8403   -2152.6623     161.5436   -688.41169   -561.84202    79.267098 
   26300    138.35103   -106.93744   0.12518292   -106.81226   -1508.2918    4.2955088    4.2955088    4.2955088   -1508.2918   -704.74845   -5005.0367    1184.9096    -210.5311    860.60174   -591.00725    79.258133 
   26400    47.594068   -106.85614  0.043064113   -106.81308    3368.2391    4.2946272    4.2946272    4.2946272    3368.2391   -2224.2644   -1134.1664    13463.148    20.386765    2968.2929    -559.8057    79.209344 
   26500    102.34274   -106.90539   0.09260186   -106.81279    -1724.904    4.2957736    4.2957736    4.2957736    -1724.904   -5762.2514   -5223.2805    5810.8199    48.295306    543.73807   -142.09588    79.272793 
   26600    132.96734   -106.93238   0.12031164   -106.81207   -1401.4752    4.2952534    4.2952534    4.2952534   -1401.4752   -4344.9149   -896.81389    1037.3033   -788.20871   -1559.9714   -270.90838    79.243994 
   26700    109.02386   -106.91132  0.098647078   -106.81267   -1947.5576    4.2956257    4.2956257    4.2956257   -1947.5576   -2681.5676   -4012.7964    851.69107   -40.072743    1567.0537    1259.8297    79.264604 
   26800    50.790442    -106.8591  0.045956259   -106.81314    3908.1012    4.2946626    4.2946626    4.2946626    3908.1012   -1590.7373   -2151.6295     15466.67   -419.45806    2408.6461   -789.83619    79.211299 
   26900    113.40343   -106.91512    0.1026098   -106.81251    878.68835    4.2948845    4.2948845    4.2948845    878.68835   -2479.7249   -2173.7206    7289.5105    208.95309    581.19769   -42.569065    79.223581 
   27000    121.72457   -106.92257   0.11013895   -106.81243   -3552.8446    4.2961057    4.2961057    4.2961057   -3552.8446   -5857.1253   -3579.5237   -1221.8848   -426.28298   -262.81259   -440.47438    79.291181 
   27100    114.42632   -106.91598   0.10353534   -106.81244   -466.99629    4.2950414    4.2950414    4.2950414   -466.99629   -3995.5136   -1559.9078    4154.4325   -137.31238   -596.41089    515.88732    79.232264 
   27200    63.415234    -106.8701  0.057379436   -106.81272    3487.9577    4.2949389    4.2949389    4.2949389    3487.9577   -1414.7223   -3757.1689    15635.764   -283.55218    2656.2286   -1323.2951    79.226589 
   27300    86.243574    -106.8911  0.078034998   -106.81307   -58.319527     4.295141     4.295141     4.295141   -58.319527   -2043.5661   -1387.8676    3256.4751    766.16161    2145.3657     210.2799    79.237774 
   27400    141.03855   -106.93978   0.12761464   -106.81217   -1668.6684    4.2955299    4.2955299    4.2955299   -1668.6684   -2356.8174   -2633.2159   -15.972098   -325.25664   -1391.5534   -599.39015    79.259303 
   27500    109.29877   -106.91129  0.098895822    -106.8124   -1613.8722    4.2955587    4.2955587    4.2955587   -1613.8722     -6125.75   -2037.0016     3321.135    27.518054   -137.68009    1101.1065    79.260895 
   27600     47.24235   -106.85575  0.042745871     -106.813     2490.947    4.2948739    4.2948739    4.2948739     2490.947   -2479.5714   -2991.0073     12943.42   -174.95273    2013.5027   -204.80418    79.222991 
   27700    125.75117   -106.92605    0.1137823   -106.81227   -44.871872    4.2953584    4.2953584    4.2953584   -44.871872   -913.27974   -2709.0985    3487.7626   -278.88356    1380.6882    308.35725    79.249811 
   27800    104.52858   -106.90718   0.09457966    -106.8126   -1566.0261    4.2952805    4.2952805    4.2952805   -1566.0261   -514.31311   -2421.0409   -1762.7242    385.59212   -230.56551    77.464027    79.245499 
   27900    109.39702   -106.91141  0.098984726   -106.81242   -1184.2061    4.2957059    4.2957059    4.2957059   -1184.2061   -5302.3012   -2692.9643    4442.6472     -671.355   -1668.3505    396.08274    79.269042 
   28000    77.117592   -106.88221  0.069777618   -106.81243    2478.9183    4.2945659    4.2945659    4.2945659    2478.9183   -3776.9478   -2166.9552    13380.658    25.786136    1027.4966    265.19127    79.205951 
   28100    96.149639   -106.89961  0.086998214   -106.81261   -1226.7986    4.2956966    4.2956966    4.2956966   -1226.7986   -1940.9026   -2446.1405    706.64737   -610.74366    2628.7143   -664.98308    79.268528 
   28200    129.37421   -106.92925    0.1170605   -106.81219   -789.35772    4.2952891    4.2952891    4.2952891   -789.35772    85.957703   -3235.9466    781.91573     480.4178   -823.63667    365.10656    79.245975 
   28300    94.118649   -106.89754  0.085160531   -106.81238    1026.5885    4.2949109    4.2949109    4.2949109    1026.5885    -2239.713     -1578.04    6897.5186   -445.88781   -1419.1109   -32.677169    79.225043 
   28400    67.577017    -106.8739  0.061145105   -106.81275    315.96763    4.2954898    4.2954898    4.2954898    315.96763    -6595.021   -4052.0672    11594.991    336.14149    616.71088    463.96179    79.257081 
   28500    125.32933   -106.92559   0.11340061   -106.81219   -483.68935    4.2949423    4.2949423    4.2949423   -483.68935   -2158.4485   -1077.8902    1785.2707   -864.41778    1503.1933   -409.87376    79.226778 
   28600    118.56083   -106.91971   0.10727633   -106.81244   -1421.6445    4.2958267    4.2958267    4.2958267   -1421.6445    -1142.591    -3794.171    671.82837    407.72134    154.59459    698.44256    79.275729 
   28700    74.105335   -106.87985  0.067052065    -106.8128    1300.9432    4.2948961    4.2948961    4.2948961    1300.9432   -1273.9441   -2638.7163    7815.4901   -368.39291   -2329.8548   -562.17953    79.224222 
   28800    86.418518    -106.8905  0.078193291   -106.81231    2045.1723    4.2950635    4.2950635    4.2950635    2045.1723   -4834.6148   -2600.5857    13570.717   -298.32056   -594.37639    1540.3544    79.233487 
   28900    123.12433   -106.92386   0.11140548   -106.81246   -3912.7208    4.2958762    4.2958762    4.2958762   -3912.7208   -5377.3259   -3984.6684   -2376.1682   -189.60036    2347.1353   -778.07793     79.27847 
   29000    106.45656   -106.90906  0.096324129   -106.81274   -992.29148    4.2953348    4.2953348    4.2953348   -992.29148    -2405.281   -1497.2152    925.62173    -874.8544   -178.24352    487.00977    79.248503 
   29100    103.97591   -106.90651   0.09407959   -106.81243    1144.7101    4.2953138    4.2953138    4.2953138    1144.7101   -957.58001   -4932.6553    9324.3657     496.0791   -1693.0383    23.326661     79.24734 
   29200    38.150587   -106.84762  0.034519452    -106.8131    2412.0813    4.2947552    4.2947552    4.2947552    2412.0813   -3079.2895   -1160.7154    11476.249   -796.44691   -1008.1345    370.01127    79.216425 
   29300    159.59768   -106.95648   0.14440733   -106.81207   -4211.7048    4.2961715    4.2961715    4.2961715   -4211.7048   -6127.4944   -4890.4623   -1617.1577    312.02079    600.08886   -805.16256    79.294821 
   29400    107.83689   -106.91026  0.097573083   -106.81269    -882.0661    4.2950479    4.2950479    4.2950479    -882.0661   -3113.1381   -1350.7912     1817.731   -519.28834    1183.9518    435.26714    79.232622 
   29500    72.513933   -106.87868   0.06561213   -106.81307    481.18391    4.2954082    4.2954082    4.2954082    481.18391     -3419.23   -4211.8635    9074.6452    249.05795   -2078.3614   -411.30453    79.252565 
   29600    80.293889   -106.88519  0.072651598   -106.81254    3403.0584    4.2947023    4.2947023    4.2947023    3403.0584      240.149   -2560.5183    12529.545   -363.10264    -2288.266    81.603613    79.213498 
   29700    125.89088    -106.9263   0.11390872    -106.8124   -2541.6365    4.2954024    4.2954024    4.2954024   -2541.6365   -4257.7599   -1186.0017   -2181.1479    248.08577    1501.7225    666.90204    79.252243 
   29800    117.15088   -106.91856   0.10600058   -106.81256   -2451.4108    4.2959895    4.2959895    4.2959895   -2451.4108   -5216.6344   -4376.5586    2238.9607   -548.95968    776.73143   -342.56253    79.284742 
   29900    83.840494   -106.88845  0.075860641   -106.81259    3379.2869    4.2941448    4.2941448    4.2941448    3379.2869   -2755.8238    674.50031    12219.184   -115.84613   -1046.1007    534.33854    79.182655 
   30000    76.923189   -106.88241  0.069601718   -106.81281    716.16454     4.295534     4.295534     4.295534    716.16454   -1174.4814   -5893.3367    9216.3116   -116.20113    -1554.085   -61.763677    79.259527 
   30100    116.77005     -106.918     0.105656   -106.81234   -759.48651    4.2951449    4.2951449    4.2951449   -759.48651   -1117.0054    738.28609   -1899.7403   -379.15495   -634.36266    113.47124    79.237991 
   30200    131.97757   -106.93164   0.11941608   -106.81222   -1286.1772    4.2953907    4.2953907    4.2953907   -1286.1772    -4013.656    -4413.227    4568.3513    393.53352    2024.8433   -1151.2288    79.251597 
   30300     58.55463   -106.86593  0.052981459   -106.81295    923.87595    4.2954289    4.2954289    4.2954289    923.87595   -5539.8226   -857.20813    9168.6586   -613.93159   -389.68294     305.1339    79.253709 
   30400    98.152862   -106.90117  0.088810773   -106.81236    1791.4718    4.2946411    4.2946411    4.2946411    1791.4718   -1243.6382   -2552.2815     9170.335     484.8279   -2803.9709   -1335.2879    79.210113 
   30500    133.60203   -106.93303   0.12088593   -106.81215   -2131.0602    4.2959043    4.2959043    4.2959043   -2131.0602    263.15537     -3315.66    -3340.676       -278.8    451.55345     457.8999    79.280028 
   30600    75.817541   -106.88139  0.068601304   -106.81279   -367.08399    4.2951982    4.2951982    4.2951982   -367.08399   -3199.4269   -1044.8703    3143.0452     198.0914    1938.2531    -806.7802    79.240939 
   30700    111.52883   -106.91314   0.10091363   -106.81222     267.0135    4.2952658    4.2952658    4.2952658     267.0135   -5099.1822    -5061.528    10961.751   -407.36652    91.806803    1000.2612    79.244684 
   30800    70.665927   -106.87659  0.063940016   -106.81265    770.39269    4.2953207    4.2953207    4.2953207    770.39269   -3979.9396    204.27789    6086.8398    118.22241    -1175.887   -294.84837    79.247722 
   30900    140.37472   -106.93932     0.127014    -106.8123   -3321.2237     4.295683     4.295683     4.295683   -3321.2237   -732.73403    -5668.302    -3562.635   -418.07109   -1007.2755    606.42642    79.267777 
   31000    92.180027   -106.89595  0.083406426   -106.81254    2111.3259     4.295064     4.295064     4.295064    2111.3259   -548.38498    184.91403    6697.4487   -196.96975    2015.3068   -479.65303    79.233516 
   31100     70.10092   -106.87636  0.063428786   -106.81293   -115.38837    4.2952057    4.2952057    4.2952057   -115.38837   -5125.5639   -4638.9586    9418.3574    -315.5955    1396.8439   -310.33891    79.241357 
   31200     104.1321    -106.9066  0.094220914   -106.81238   -490.66826    4.2954596    4.2954596    4.2954596   -490.66826   -5717.7262   -2074.3249    6320.0464   -356.80489   -2004.9063   -360.36725    79.255409 
   31300    144.88715   -106.94306   0.13109694   -106.81196   -2031.8228    4.2954582    4.2954582    4.2954582   -2031.8228   -1687.6249   -2086.9511   -2320.8924    364.11207   -499.31471   -945.25075    79.255331 
   31400    73.424698   -106.87938   0.06643621   -106.81295    463.51896    4.2952306    4.2952306    4.2952306    463.51896   -1708.0944   -4381.3367    7479.9879   -778.62841    2095.7345   -311.14068    79.242734 
   31500    74.981179   -106.88052  0.067844546   -106.81267    3177.1764    4.2947204    4.2947204    4.2947204    3177.1764   -2412.8023   -190.78324    12135.115    330.64718    1364.7588    283.95289    79.214502 
   31600    115.86504   -106.91728   0.10483712   -106.81244   -1723.4339    4.2954242    4.2954242    4.2954242   -1723.4339   -5410.4697   -4802.9059     5043.074   -485.61528   -138.91137    610.64554    79.253452 
   31700    119.82251   -106.92088   0.10841792   -106.81246   -3167.9651    4.2958254    4.2958254    4.2958254   -3167.9651    -5709.482   -877.22206   -2917.1913   -40.319605   -1392.2757   -273.57842    79.275658 
   31800    107.58494   -106.91006  0.097345111   -106.81272    1585.8107    4.2949624    4.2949624    4.2949624    1585.8107   -930.41488   -4446.8787    10134.726   -188.39583    1370.0765    1447.2667    79.227891 
   31900    52.382174    -106.8607  0.047396492    -106.8133    2301.0038    4.2948413    4.2948413    4.2948413    2301.0038   -2501.0606   -1814.9822    11219.054   -610.14804    2496.5713   -578.52852    79.221191 
   32000    102.91921   -106.90566  0.093123467   -106.81253   -1379.1274    4.2956085    4.2956085    4.2956085   -1379.1274   -3176.1286   -3325.8195    2364.5659   -85.589191    -705.8546    422.32797    79.263652 
   32100    158.14128   -106.95492   0.14308956   -106.81183   -3205.4467    4.2956211    4.2956211    4.2956211   -3205.4467   -5995.6521   -2015.7943   -1604.8936   -388.39499   -1127.8838   -884.23831    79.264351 
   32200    63.687961   -106.87061  0.057626205   -106.81298     735.2621    4.2952539    4.2952539    4.2952539     735.2621   -3747.3845   -2824.6657    8777.8365    47.890495    602.64315   -290.72245    79.244023 
   32300    87.723398   -106.89207  0.079373974   -106.81269    1826.3374     4.295137     4.295137     4.295137    1826.3374   -2016.7221   -3539.5801    11035.314   -217.18755    1875.3381   -1033.9263    79.237557 
   32400    101.18613   -106.90402  0.091555334   -106.81247    212.63322    4.2949831    4.2949831    4.2949831    212.63322   -285.27785    -2025.815    2948.9925    195.51691    1198.8666    951.74605    79.229037 
   32500    123.85483   -106.92448   0.11206645   -106.81241   -4300.9677    4.2962401    4.2962401    4.2962401   -4300.9677   -5405.6369   -3601.5191   -3895.7473   -420.76105    -1966.002   -557.55826     79.29862 
   32600     94.39978     -106.898  0.085414905   -106.81258    1873.3601    4.2947335    4.2947335    4.2947335    1873.3601   -4965.5929   -1192.2319    11777.905    604.60792   -354.60429    576.64214    79.215227 
   32700    82.521299   -106.88745  0.074667006   -106.81278    1560.6028    4.2951401    4.2951401    4.2951401    1560.6028   -2050.8634   -2893.6468    9626.3186   -327.63294    2547.2728    641.81678    79.237724 
   32800    99.355867   -106.90258  0.089899276   -106.81268   -672.52637     4.295551     4.295551     4.295551   -672.52637    -1268.429   -1929.9715    1180.8213   -135.90593   -21.047662    300.59433    79.260468 
   32900    132.27497   -106.93163   0.11968517   -106.81194   -695.84822    4.2950184    4.2950184    4.2950184   -695.84822   -413.49381   -1998.4673    324.41646   -235.56444   -1613.8693   -19.611845    79.230991 
   33000    71.977722   -106.87771  0.065126955   -106.81258    365.68506      4.29557      4.29557      4.29557    365.68506   -6709.4112    -2493.983    10300.449   -416.26785   -981.06767   -805.66282     79.26152 
   33100    92.159751   -106.89598   0.08338808    -106.8126    900.99336    4.2948119    4.2948119    4.2948119    900.99336   -3780.7484   -2185.9013    8669.6298     421.9565    671.51539   -487.79238    79.219563 
   33200    128.52703   -106.92848   0.11629396   -106.81219   -91.605184     4.295395     4.295395     4.295395   -91.605184   -484.32966   -1722.6572    1932.1713   -635.82433    1839.1654   -535.31328    79.251834 
   33300    96.906181   -106.90025  0.087682749   -106.81257   -1395.7773    4.2955273    4.2955273    4.2955273   -1395.7773   -1259.4517   -2573.2704   -354.60997     200.7609   -1736.6747    137.50507    79.259155 
   33400    74.629749   -106.88019  0.067526565   -106.81266    2284.1803    4.2947764    4.2947764    4.2947764    2284.1803   -3600.3038   -1295.6966    11748.541   -429.22219   -2126.3856   -873.02824    79.217599 
   33500    107.84698   -106.91011  0.097582217   -106.81253   -545.04695    4.2955338    4.2955338    4.2955338   -545.04695   -6217.2124   -2912.9057    7494.9772    642.22359     1562.448     778.8543    79.259516 
   33600    108.18933   -106.91054  0.097891979   -106.81265   -2158.1022    4.2953821    4.2953821    4.2953821   -2158.1022   -2829.0875   -2324.3786   -1320.8404   -462.99881     555.8831    202.90665    79.251122 
   33700    128.03062   -106.92803    0.1158448   -106.81218   -422.02776     4.295518     4.295518     4.295518   -422.02776   -877.27274   -2601.1101    2212.2996    297.50152   -1670.9423    656.74772    79.258644 
   33800    49.570901   -106.85761  0.044852793   -106.81276     2595.497    4.2947282    4.2947282    4.2947282     2595.497   -2010.9902   -2473.9586     12271.44    -731.4289   -1978.4289   -1015.1244    79.214929 
   33900    92.239437   -106.89613  0.083460181   -106.81267    -892.7978    4.2955815    4.2955815    4.2955815    -892.7978   -6420.5188   -2132.7729    5874.8983    165.70171    -748.2248    299.01985    79.262156 
   34000    152.62045   -106.95009   0.13809419     -106.812   -2452.9292     4.295551     4.295551     4.295551   -2452.9292    -4221.823   -3086.4236   -50.540928   -209.50248    1529.7431   -767.43499    79.260471 
   34100      94.1356   -106.89795  0.085175869   -106.81277   -862.15201    4.2953464    4.2953464    4.2953464   -862.15201   -3318.1415   -1871.6954    2603.3808   -575.96112   -611.03013   -391.84471    79.249142 
   34200    64.376077   -106.87106  0.058248827   -106.81281     2526.263    4.2951176    4.2951176    4.2951176     2526.263   -1369.4524   -4306.3205    13254.562    139.72405   -3107.7735   -460.52076     79.23648 
   34300    92.184571   -106.89593  0.083410537   -106.81252    1206.1807    4.2947861    4.2947861    4.2947861    1206.1807   -3315.3282   -195.05728    7128.9277    -942.5623    -296.0611   -471.67992    79.218137 
   34400    134.05408   -106.93375   0.12129495   -106.81245   -4410.7585    4.2963175    4.2963175    4.2963175   -4410.7585   -6375.4181   -4520.0764    -2336.781    693.10646    811.89418    230.45751    79.302906 
   34500    114.29407   -106.91603   0.10341567   -106.81261    386.88615    4.2949195    4.2949195    4.2949195    386.88615    -4341.873     -372.841    5875.3724   -482.55275   -588.04168    543.42413    79.225517 
   34600    68.730681   -106.87488  0.062188964   -106.81269    2833.5919    4.2949198    4.2949198    4.2949198    2833.5919   -1868.3347   -4013.7974    14382.908    317.22216   -2161.1379   -65.104946    79.225535 
   34700     79.82262   -106.88512  0.072225184   -106.81289   -351.47952    4.2953354    4.2953354    4.2953354   -351.47952   -1891.6142   -2463.7734     3300.949   -543.94201   -2191.4678   -689.69201    79.248536 
   34800    134.99258   -106.93434   0.12214413    -106.8122   -1566.5374    4.2952972    4.2952972    4.2952972   -1566.5374   -3601.6454   -1253.7244    155.75766     229.9388    1136.4042    855.69865    79.246421 
   34900     117.2683   -106.91852   0.10610682   -106.81241   -1994.5692    4.2958141    4.2958141    4.2958141   -1994.5692    -5952.621   -4759.3343    4728.2478   -307.65572    694.77913   -854.65787    79.275034 
   35000    50.582863    -106.8588  0.045768437   -106.81303    3078.2761     4.294626     4.294626     4.294626    3078.2761   -4038.0607    611.54736    12661.342    173.80788   -2362.6371   -105.31653    79.209278 
   35100    130.56572   -106.93037   0.11813861   -106.81223   -757.12092    4.2955459    4.2955459    4.2955459   -757.12092   -202.60198   -5523.2749    3454.5141   -656.62267   -1543.3853   -657.43812    79.260189 
   35200    85.666624   -106.89022  0.077512961   -106.81271   -1336.0388    4.2953657    4.2953657    4.2953657   -1336.0388   -2040.4922    809.46325   -2777.0875   -175.31925     269.2822    -8.512931    79.250214 
   35300    117.40788   -106.91861   0.10623312   -106.81238   -1640.4232    4.2955794    4.2955794    4.2955794   -1640.4232   -5373.8353    -5100.065    5552.6306    225.44166    933.41965   -181.13855     79.26204 
   35400    81.731341   -106.88638  0.073952235   -106.81243    2355.4464    4.2949632    4.2949632    4.2949632    2355.4464   -4869.3791   -994.01245    12929.731   -178.80262   -961.00495    434.57235    79.227933 
   35500    99.275014   -106.90246  0.089826119   -106.81264   -1473.6994    4.2954245    4.2954245    4.2954245   -1473.6994   -2481.2884   -2675.3144    735.50456    414.94216   -2846.3745   -1053.3723    79.253468 
   35600    126.80783   -106.92695   0.11473839   -106.81221   -1117.5625      4.29565      4.29565      4.29565   -1117.5625    -52.01239   -2405.1058   -895.56922    -601.1459    753.89391    581.47472     79.26595 
   35700    74.036422   -106.87954  0.066989711   -106.81255    1655.1535    4.2946954    4.2946954    4.2946954    1655.1535     -2824.42    353.66994    7436.2104    571.94729     1839.039    336.74407    79.213115 
   35800    89.077944   -106.89315  0.080599595   -106.81255    -594.9432      4.29571      4.29571      4.29571    -594.9432   -6983.2064   -5055.9702    10254.347    -125.7196   -1072.8775   -285.32658    79.269269 
   35900    120.11008   -106.92071   0.10867812   -106.81203    713.77429    4.2949477    4.2949477    4.2949477    713.77429   -3035.8731    1648.4634    3528.7326    227.04886   -1470.2051   -190.60325    79.227079 
   36000    129.75881   -106.92981    0.1174085    -106.8124   -2690.0244    4.2957055    4.2957055    4.2957055   -2690.0244   -1438.3776   -5490.7906    -1140.905   -497.23555   -223.06564    92.068611    79.269024 
   36100    47.947801   -106.85647  0.043384178   -106.81309    2927.7673    4.2949578    4.2949578    4.2949578    2927.7673   -1804.8065    1696.8855    8891.2228   -65.090451    1551.2347    205.21177    79.227639 
   36200    104.18695   -106.90663  0.094270545   -106.81236    1396.6641    4.2946756    4.2946756    4.2946756    1396.6641   -4026.3974   -3819.8863    12036.276   -142.76781    916.09405   -398.70683    79.212021 
   36300    116.33953    -106.9178   0.10526645   -106.81254   -2522.1853    4.2960172    4.2960172    4.2960172   -2522.1853   -6771.8442   -788.06856   -6.6431737    156.61743   -2327.9472   -13.390888    79.286277 
   36400    126.34342   -106.92686   0.11431818   -106.81254   -1127.2439     4.295138     4.295138     4.295138   -1127.2439   -2337.7853    -1802.354    758.40745   -155.04653   -367.54498   -688.98276    79.237609 
   36500    83.336316   -106.88794   0.07540445   -106.81254    1884.4396    4.2950666    4.2950666    4.2950666    1884.4396   -1572.1363   -3429.5171    10654.972   -388.22363    2384.0593    848.43483    79.233657 
   36600    39.429193   -106.84868  0.035676362     -106.813    1833.8012    4.2950791    4.2950791    4.2950791    1833.8012   -3056.7588    284.01003    8274.1524    381.64962    452.78554   -102.96057    79.234348 
   36700    162.91655   -106.95929   0.14741032   -106.81188   -3534.3018    4.2956051    4.2956051    4.2956051   -3534.3018   -5825.5811   -5045.8258    268.50164   -296.76446   -911.07712    285.55035    79.263466 
   36800    113.43271   -106.91518    0.1026363   -106.81254   -980.56079    4.2955793    4.2955793    4.2955793   -980.56079   -4898.7075    951.85924    1005.1659    340.95287   -870.32333   -201.56989    79.262034 
   36900    74.864254   -106.88076   0.06773875   -106.81302    364.09813    4.2951193    4.2951193    4.2951193    364.09813      -3385.9   -5248.5677     9726.762   -579.72411    810.27365    1246.0613    79.236573 
   37000    70.114142   -106.87608   0.06344075   -106.81264     2993.836    4.2949156    4.2949156    4.2949156     2993.836   -894.37501   -366.34769    10242.231   -301.34507    2207.3465   -424.19282    79.225303 
   37100      122.369   -106.92316   0.11072204   -106.81244   -3411.1532    4.2957554    4.2957554    4.2957554   -3411.1532   -3642.5892   -3696.5029   -2894.3674    77.943555   -1087.0103    -288.0459    79.271787 
   37200    125.34574   -106.92598   0.11341546   -106.81256   -2519.6184    4.2957213    4.2957213    4.2957213   -2519.6184   -6899.4698   -2270.6453      1611.26   -249.61447   -2094.0947   -286.89322    79.269895 
   37300    88.938168   -106.89298  0.080473124   -106.81251    2755.8509    4.2948289    4.2948289    4.2948289    2755.8509     -3105.86   -1369.8006    12743.213   -66.766434    1300.8856   -220.65958    79.220504 
   37400    72.313322   -106.87818  0.065430613   -106.81275    320.72201    4.2953137    4.2953137    4.2953137    320.72201   -2832.3936   -3351.2844    7145.8441   -270.32909     1197.064   -7.8159109    79.247332 
   37500    107.30479   -106.90928  0.097091625   -106.81219   -596.33791    4.2954128    4.2954128    4.2954128   -596.33791   -567.31782    -717.5323   -504.16361    21.113754   -247.10451   -1.7115704    79.252817 
   37600    138.28173   -106.93738   0.12512021   -106.81226   -1966.0032    4.2954913    4.2954913    4.2954913   -1966.0032   -4738.0322    -3467.486    2307.5085    229.78848   -1806.2706    14.714652    79.257165 
   37700    59.783355   -106.86724  0.054093236   -106.81314    1337.6704    4.2951523    4.2951523    4.2951523    1337.6704   -6423.2196   -1504.5549    11940.785    239.13555   -739.27957    717.06981    79.238402 
   37800    112.99111   -106.91466   0.10223674   -106.81242    862.81932    4.2950352    4.2950352    4.2950352    862.81932   -2256.3566   -2540.8997    7385.7143    -482.3874    2065.4019    1123.3738     79.23192 
   37900    107.29517   -106.90948  0.097082929    -106.8124   -1003.3483    4.2954466    4.2954466    4.2954466   -1003.3483   -566.00599   -1072.6718   -1371.3673    123.94914   -235.36432   -831.64281    79.254689 
   38000    91.765072   -106.89571  0.083030965   -106.81268   -1142.7756       4.2954       4.2954       4.2954   -1142.7756   -2710.2167   -2217.0605    1498.9504   -232.13277   -2723.8581    165.95507    79.252112 
   38100     97.69595   -106.90066  0.088397349   -106.81226    2067.1266    4.2950284    4.2950284    4.2950284    2067.1266   -5573.7744   -1424.5072    13199.661    154.78282   -513.23203   -450.97628    79.231546 
   38200    97.602519   -106.90087  0.088312811   -106.81256   -984.69222    4.2952945    4.2952945    4.2952945   -984.69222    -4910.986   -2492.4335    4449.3429    -80.60203    728.62833   -299.67186    79.246271 
   38300    117.33633   -106.91847   0.10616838    -106.8123   -2021.6315    4.2957146    4.2957146    4.2957146   -2021.6315   -2013.2277   -1617.2566   -2434.4104   -488.55507    531.75934   -847.48336    79.269524 
   38400    104.17334   -106.90645  0.094258223   -106.81219    784.00129     4.294974     4.294974     4.294974    784.00129    -178.5736   -2030.9003    4561.4778    438.30678   -1873.5216    136.00317    79.228533 
   38500    50.817115   -106.85895  0.045980394   -106.81297    1469.9977    4.2950976    4.2950976    4.2950976    1469.9977   -5044.2543   -1433.1991    10887.447   -49.166937   -2231.1655   -262.40658    79.235371 
   38600    128.15815   -106.92829   0.11596019   -106.81233   -883.85853    4.2955939    4.2955939    4.2955939   -883.85853   -6069.9521   -1805.8946    5224.2711    494.20536    1261.6601    1476.5944    79.262845 
   38700    135.47185   -106.93475   0.12257778   -106.81217   -1748.3045    4.2952066    4.2952066    4.2952066   -1748.3045   -3085.9587   -1159.9232   -999.03141    -403.1699      484.707    123.87379    79.241404 
   38800    75.736146   -106.88138  0.068527657   -106.81285   -510.56082    4.2957532    4.2957532    4.2957532   -510.56082    -2834.919   -2052.0856    3355.3221    177.25343   -2306.1654   -213.49919     79.27166 
   38900    67.361743   -106.87356  0.060950321   -106.81261    3930.1737    4.2943201    4.2943201    4.2943201    3930.1737   -1212.8948   -1756.3998    14759.816   -106.28451   -1877.6002    233.44389    79.192352 
   39000    111.67981   -106.91365   0.10105024    -106.8126   -1043.3672    4.2956163    4.2956163    4.2956163   -1043.3672   -5731.1934   -995.24059    3596.3323    435.89906   -521.14572   -48.173258    79.264081 
   39100    136.90274   -106.93614   0.12387247   -106.81227   -3219.0833    4.2959797    4.2959797    4.2959797   -3219.0833   -6291.7816   -2955.2617   -410.20657   -631.78468    922.55335   -875.01852    79.284204 
   39200    104.16515   -106.90683  0.094250817   -106.81258    1892.1038    4.2946209    4.2946209    4.2946209    1892.1038   -2468.7217     91.40407    8053.6289   -131.63636   -554.91948   -1001.1839    79.208993 
   39300    47.641259   -106.85633  0.043106812   -106.81322    1673.2756    4.2954593    4.2954593    4.2954593    1673.2756   -2686.0526   -4241.0267    11946.906   -49.633665   -3254.0588    402.50424    79.255394 
   39400     97.01728   -106.90054  0.087783274   -106.81276    81.197695    4.2948384    4.2948384    4.2948384    81.197695   -2690.4217    108.75302    2825.2618    -90.52494   -248.01444    285.59458    79.221028 
   39500    162.58179   -106.95914   0.14710742   -106.81203   -3059.2225     4.296011     4.296011     4.296011   -3059.2225   -5237.2072   -3912.9847   -27.475528    558.78867    1136.6901    766.76189    79.285935 
   39600    76.607656   -106.88231  0.069316217   -106.81299   -346.88715     4.295318     4.295318     4.295318   -346.88715   -6550.8648   -982.24936    6492.4527   -812.99826   -1134.3363     38.09434    79.247574 
   39700     73.59142   -106.87925  0.066587064   -106.81266    2690.9386    4.2947538    4.2947538    4.2947538    2690.9386   -1669.3024   -2743.5125    12485.631    502.88706   -1980.0789    656.38564     79.21635 
   39800    108.90835   -106.91095  0.098542568   -106.81241   -1404.5046     4.295684     4.295684     4.295684   -1404.5046   -1551.2248   -2494.4329   -167.85616   -174.96722    -1770.265    142.89336    79.267834 
   39900     98.84162   -106.90206  0.089433975   -106.81263   -2020.9771     4.295329     4.295329     4.295329   -2020.9771   -3619.2517   -1375.0043   -1068.6752    385.10314    620.58732    66.346502    79.248182 
   40000    136.26655   -106.93534   0.12329683   -106.81204   -682.65806    4.2956288    4.2956288    4.2956288   -682.65806   -5914.0932   -4506.1581    8372.2771   -391.64489    1303.3148   -1597.3864    79.264775 
   40100    47.567953   -106.85596  0.043040484   -106.81292    2381.0142    4.2946859    4.2946859    4.2946859    2381.0142   -4416.0608    432.06266    11127.041   -149.76033    -2529.591   -221.72458    79.212591 
   40200    123.59954   -106.92422   0.11183546   -106.81238   -2988.7497    4.2959444    4.2959444    4.2959444   -2988.7497   -1643.5688   -5417.1854   -1905.4947    -509.7611   -1505.7599    120.34065    79.282251 
   40300    103.62893   -106.90609   0.09376563   -106.81232    1006.7211      4.29501      4.29501      4.29501    1006.7211   -392.79164    1788.9286    1624.0265    556.60191    1367.8659   -20.950942    79.230527 
   40400    95.658843   -106.89918  0.086554131   -106.81263   -1045.4824    4.2953818    4.2953818    4.2953818   -1045.4824   -5748.8539   -4600.9745    7213.3811   -175.26301    350.67205   -58.163205    79.251105 
   40500     83.90293   -106.88841  0.075917135    -106.8125     2007.722    4.2951982    4.2951982    4.2951982     2007.722   -5719.0474   -613.33608    12355.549    -196.1218   -800.43844     551.5847     79.24094 
   40600    132.01176   -106.93163   0.11944702   -106.81218   -1534.0434    4.2951987    4.2951987    4.2951987   -1534.0434   -1949.5649   -2142.9531   -509.61238    204.68037   -2092.4908    533.99456     79.24097 
   40700    89.031455   -106.89324  0.080557532   -106.81268   -1550.3003    4.2959086    4.2959086    4.2959086   -1550.3003   -1813.0707   -3081.7902    243.96015    15.464349    363.98966    373.00706    79.280267 
   40800    80.654719    -106.8855  0.072978085   -106.81252    3287.4598    4.2944736    4.2944736    4.2944736    3287.4598   -1819.9959    1298.4164    10383.959    1025.3436    2399.4342   -509.60725    79.200843 
   40900    107.15885   -106.90949  0.096959583   -106.81253   -128.73322     4.295444     4.295444     4.295444   -128.73322    -6396.435   -4706.5657    10716.801   -490.75784   -728.01628   -1454.9346    79.254549 
   41000     105.9973   -106.90847  0.095908584   -106.81256   -1793.2419    4.2955763    4.2955763    4.2955763   -1793.2419   -5131.7605    1802.5406   -2050.5059    164.35567   -1532.4927    618.17897     79.26187 
   41100     136.6176   -106.93583   0.12361448   -106.81221   -1277.6608    4.2952827    4.2952827    4.2952827   -1277.6608   -1155.8764   -4863.5018    2186.3959   -185.52411    782.92441   -267.71797    79.245619 
   41200    41.173978   -106.85027   0.03725508   -106.81302    2383.5905    4.2952272    4.2952272    4.2952272    2383.5905   -2576.4994    778.09517    8949.1757    549.55881    1393.7742   -698.52242    79.242544 
   41300      88.6545   -106.89294  0.080216454   -106.81272    687.34708    4.2949578    4.2949578    4.2949578    687.34708   -3917.9285   -3451.8275    9431.7973   -74.473636     1023.242    69.817245    79.227638 
   41400    161.41417   -106.95803   0.14605093   -106.81198   -2907.7147    4.2958892    4.2958892    4.2958892   -2907.7147   -6151.6033   -1091.5829   -1479.9579   -77.560497   -1604.3024    881.50611    79.279191 
   41500    85.400002   -106.89014  0.077271716   -106.81287   -1343.6228    4.2953208    4.2953208    4.2953208   -1343.6228   -4038.1409    -1532.045    1539.3174   -168.65096   -656.24996    353.86253    79.247728 
   41600    84.060605   -106.88868  0.076059802   -106.81262    1430.8027    4.2951836    4.2951836    4.2951836    1430.8027   -2542.0774   -3105.4387    9939.9242    300.42624    2473.3798    186.84812    79.240131 
   41700    62.311382   -106.86911  0.056380648   -106.81273     3026.333    4.2947444    4.2947444    4.2947444     3026.333   -1194.0471    653.84222     9619.204     650.6128     925.1799   -676.69041    79.215828 
   41800    150.53372   -106.94861   0.13620608    -106.8124   -5113.8311    4.2960811    4.2960811    4.2960811   -5113.8311   -6652.7616   -4771.5649   -3917.1669   -334.69944   -1131.1076   -149.86021    79.289814 
   41900    111.15672   -106.91299   0.10057693   -106.81241    808.51378    4.2952258    4.2952258    4.2952258    808.51378    -4277.479    634.56227    6068.4581    287.29572   -396.63032    511.39052     79.24247 
   42000    82.107942   -106.88692  0.074292991   -106.81262    718.61078    4.2949405    4.2949405    4.2949405    718.61078   -4029.3765   -3935.1745    10120.383   -543.36265     705.4715   -598.50774    79.226681 
   42100    54.258602   -106.86204  0.049094323   -106.81294    2124.1911    4.2953094    4.2953094    4.2953094    2124.1911   -1481.5989   -522.84345    8377.0157    600.44961    2037.0512   -747.84885    79.247096 
   42200    154.18297   -106.95154     0.139508   -106.81203   -1753.6546    4.2951929    4.2951929    4.2951929   -1753.6546   -1408.5211   -2001.8529   -1850.5898    123.69154   -503.83482    120.02219    79.240647 
   42300    103.28468   -106.90608  0.093454151   -106.81263   -1476.3298    4.2958408    4.2958408    4.2958408   -1476.3298   -6759.6737    -2964.406    5295.0904   -488.43075   -2399.0734    1027.7107    79.276512 
   42400    77.406385   -106.88267  0.070038924   -106.81263    1569.5079     4.294906     4.294906     4.294906    1569.5079    -3939.593   -1447.2601    10095.377   -5.0816072    1249.3022   -339.65529    79.224771 
   42500    99.876878   -106.90255  0.090370698   -106.81218    816.60058    4.2950452    4.2950452    4.2950452    816.60058   -2000.5777   -2904.6928    7355.0723   -65.436923    1617.5178   -41.327162    79.232474 
   42600    100.15141   -106.90312  0.090619102    -106.8125   -2005.7623    4.2958075    4.2958075    4.2958075   -2005.7623   -780.03171   -775.34737   -4461.9079       811.11   -816.47493   -259.54635     79.27467 
   42700    116.73035   -106.91812   0.10562007    -106.8125   -13.484825    4.2950391    4.2950391    4.2950391   -13.484825   -3445.6212   -2814.7069    6219.8737    3.7632069   -1156.9944    1002.9713    79.232137 
   42800    90.111039   -106.89412  0.081534361   -106.81258    645.86684    4.2954262    4.2954262    4.2954262    645.86684   -5834.5932   -2514.2008    10286.394   -41.013907   -626.72512    -177.0723    79.253558 
   42900    81.314375   -106.88616  0.073574955   -106.81259   -956.44192    4.2952977    4.2952977    4.2952977   -956.44192   -3627.5184    -2668.259    3426.4516   -274.51612    1615.7615   -307.52372    79.246451 
   43000    137.29227   -106.93618   0.12422494   -106.81195   -1832.0674    4.2955654    4.2955654    4.2955654   -1832.0674   -565.03597   -1887.3604   -3043.8058    873.86063    692.79501   -684.70936    79.261268 
   43100    75.618781   -106.88112  0.068421462    -106.8127    1084.7884    4.2950831    4.2950831    4.2950831    1084.7884   -1319.6171   -1760.3076      6334.29   -114.88291   -2865.4866    1011.2566    79.234573 
   43200    88.980541   -106.89314  0.080511464   -106.81263    412.00503    4.2952487    4.2952487    4.2952487    412.00503   -6022.7543   -2104.1807      9362.95    62.019488   -525.80009    213.97114    79.243737 
   43300    117.55647   -106.91843   0.10636756   -106.81207   -214.92246    4.2954103    4.2954103    4.2954103   -214.92246   -3903.8997   -2409.7136    5668.8459   -344.05973    1411.7176   -889.57265     79.25268 
   43400    117.21857   -106.91842   0.10606182   -106.81236   -3125.1364     4.295662     4.295662     4.295662   -3125.1364   -3587.0896   -920.20997   -4868.1097    100.19076   -11.802246    236.41343    79.266616 
   43500    74.171465   -106.87983    0.0671119   -106.81272    2113.9585    4.2951105    4.2951105    4.2951105    2113.9585   -145.32417   -2776.2988    9263.4986    974.98013   -1326.4518    630.64519    79.236085 
   43600    90.985085   -106.89484  0.082325217   -106.81251    2388.9542    4.2947156    4.2947156    4.2947156    2388.9542   -3556.9552   -771.13107    11494.949   -279.67934   -1653.6699    601.00159    79.214235 
   43700    105.16904   -106.90781   0.09515916   -106.81265   -1540.9736    4.2958054    4.2958054    4.2958054   -1540.9736   -5654.4676   -3458.0737    4489.6206    545.19103    851.06842     1.844776    79.274552 
   43800    143.55674   -106.94205   0.12989316   -106.81216   -2349.8905     4.295478     4.295478     4.295478   -2349.8905   -4181.6682   -425.61935   -2442.3839   -499.61857    1352.6679    80.586692    79.256428 
   43900    72.840489   -106.87867  0.065907605   -106.81277    1835.7889    4.2950881    4.2950881    4.2950881    1835.7889   -1837.4453   -2218.3104    9563.1224    1001.1113   -1964.5345   -77.211716    79.234848 
   44000    61.956581   -106.86901  0.056059617   -106.81295    1853.4303    4.2950112    4.2950112    4.2950112    1853.4303   -2117.1548    -1961.581    9639.0265   -49.326038   -1937.0132    1463.2143     79.23059 
   44100    124.90363   -106.92517   0.11301543   -106.81216    -204.0034    4.2952254    4.2952254    4.2952254    -204.0034   -3517.8362    -1667.388     4573.214    335.00977    128.47661   -961.73113    79.242449 
   44200    145.31678   -106.94355   0.13148568   -106.81207   -4277.5555    4.2960626    4.2960626    4.2960626   -4277.5555   -6074.2627   -4094.1721   -2664.2317   -705.19364    752.82983   -379.62004    79.288791 
   44300    57.849022   -106.86552  0.052343011   -106.81318    1740.8371    4.2948949    4.2948949    4.2948949    1740.8371   -3667.3565   -63.104464    8952.9722    302.34544   -215.18508    373.33281    79.224157 
   44400    93.307912   -106.89709   0.08442696   -106.81267    1377.1226    4.2952137    4.2952137    4.2952137    1377.1226   -1249.6649   -4357.5122    9738.5448    299.56577   -2371.6481    1232.9636    79.241798 
   44500    85.427104   -106.89009  0.077296239    -106.8128   -249.05888     4.295178     4.295178     4.295178   -249.05888   -2167.5084   -164.82959    1585.1613    176.67878   -358.41245   -95.950517    79.239823 
   44600    154.57509   -106.95186   0.13986279     -106.812   -3851.9859     4.295955     4.295955     4.295955   -3851.9859   -4478.3222   -4656.6428   -2420.9927    347.39688    2013.3731    639.84399    79.282835 
   44700    79.188622   -106.88426   0.07165153   -106.81261    1633.7711    4.2948404    4.2948404    4.2948404    1633.7711   -4995.1712   -1573.3353     11469.82    -837.6325   -601.31757    22.020743     79.22114 
   44800     67.15191   -106.87362   0.06076046   -106.81286    555.72652    4.2951998    4.2951998    4.2951998    555.72652    -2217.033   -2297.4281    6181.6407    1269.5809    -1936.993     1195.071    79.241032 
   44900    115.78454   -106.91694   0.10476429   -106.81218   -289.72707    4.2954703    4.2954703    4.2954703   -289.72707   -337.87681   -3071.2933    2539.9889   -316.76406   -732.08662    185.59613    79.256001 
   45000    123.01255   -106.92342   0.11130434   -106.81211   -1082.6489    4.2951632    4.2951632    4.2951632   -1082.6489   -1844.8867   -816.87347   -586.18656    765.81817    680.33022   -1011.7347    79.239004 
   45100    86.681052   -106.89091  0.078430838   -106.81248   -206.78021    4.2957375    4.2957375    4.2957375   -206.78021   -5906.6467   -5377.7002    10664.006   -829.79571    1516.0594     -437.262    79.270793 
   45200    85.549553   -106.88979  0.077407034   -106.81238    1955.3047    4.2946151    4.2946151    4.2946151    1955.3047   -2815.4835    65.579616     8615.818    148.41038   -1560.2516    369.31023    79.208672 
   45300    114.86063    -106.9163   0.10392831   -106.81237    -1881.195    4.2958629    4.2958629    4.2958629    -1881.195   -413.64406   -5108.5222   -121.41883    142.66605   -1430.7067    589.89203    79.277735 
   45400    100.51546   -106.90342    0.0909485   -106.81248   -231.12909    4.2953507    4.2953507    4.2953507   -231.12909   -1090.0752   -31.085732    427.77372    501.14964     2600.019   -618.10743    79.249384 
   45500    100.08629   -106.90282  0.090560177   -106.81225    1672.0373    4.2948507    4.2948507    4.2948507    1672.0373   -2708.8505   -4518.4552    12243.418   -271.00731    865.29818    611.89216     79.22171 
   45600    88.221871   -106.89244  0.079825003   -106.81262   -784.56811    4.2957602    4.2957602    4.2957602   -784.56811   -6289.2927    -1864.538    5800.1264   -175.72099   -1176.0602     687.3365    79.272052 
   45700    106.89194   -106.90907  0.096718073   -106.81235   -869.06873    4.2950767    4.2950767    4.2950767   -869.06873    193.27992   -2467.6526   -332.83352    655.56722   -675.16391    1085.4079    79.234219 
   45800    128.09333   -106.92799   0.11590154   -106.81209   -1396.0674    4.2958001    4.2958001    4.2958001   -1396.0674   -1323.1246   -3592.6251    727.54742    256.05095    563.67831   -748.02926    79.274258 
   45900    40.529037   -106.84968  0.036671525   -106.81301    2912.0165    4.2947239    4.2947239    4.2947239    2912.0165   -1483.0161   -1102.9614    11322.027    1003.5506    2399.9357   -471.40334    79.214695 
   46000    136.18027   -106.93551   0.12321877   -106.81229   -1823.8539    4.2955949    4.2955949    4.2955949   -1823.8539   -5761.5889   -5861.1302    6151.1574   -879.06845    175.42831   -898.83427    79.262897 
   46100    101.53803   -106.90435  0.091873742   -106.81248   -1019.7605    4.2954573    4.2954573    4.2954573   -1019.7605   -2826.4502    624.54967   -857.38081    711.46719   -1579.4599     717.5613    79.255283 
   46200    111.63345   -106.91355   0.10100829   -106.81254   -2332.6052    4.2954615    4.2954615    4.2954615   -2332.6052   -1485.5541   -5280.4764   -231.78512    -140.3735    1853.9355   -737.06751    79.255516 
   46300    60.453268   -106.86738  0.054699387   -106.81268    4391.2572    4.2948202    4.2948202    4.2948202    4391.2572   -963.46635   -230.46967    14367.708    689.65549    2298.4455   -656.26612    79.220022 
   46400    104.47014   -106.90729  0.094526778   -106.81277   -785.16517    4.2950918    4.2950918    4.2950918   -785.16517    -3572.895   -3945.7331    5163.1326   -70.084086    189.63311    601.11008    79.235053 
   46500    131.70154   -106.93142   0.11916632   -106.81226    -3216.514    4.2960525    4.2960525    4.2960525    -3216.514   -5845.3872   -3127.3668   -676.78809   -304.05517    -855.2476    1077.0444    79.288232 
   46600    107.52162   -106.90961  0.097287823   -106.81233    613.50664    4.2948826    4.2948826    4.2948826    613.50664   -1322.2965   -1119.5834    4282.3998    386.30092    46.158938    218.19243    79.223477 
   46700    59.193903   -106.86632  0.053559887   -106.81276    1942.5156    4.2951327    4.2951327    4.2951327    1942.5156   -2462.6706   -4211.5581    12501.776     365.1113    2377.1932   -318.01432    79.237314 
   46800    85.578933    -106.8901  0.077433617   -106.81266    2025.7562    4.2949884    4.2949884    4.2949884    2025.7562   -1005.7648    290.48059    6792.5528    798.68339     1336.527   -480.76245    79.229328 
   46900    166.25098   -106.96254   0.15042738   -106.81211   -3729.8582    4.2956992    4.2956992    4.2956992   -3729.8582   -5179.9475   -5315.1327   -694.49432   -337.38405   -1223.1483   -493.48375    79.268672 
   47000    72.422026    -106.8784  0.065528971   -106.81287   -291.37694    4.2956197    4.2956197    4.2956197   -291.37694   -4329.7781   -564.58477     4020.232    412.44411    245.03716    526.41284    79.264272 
   47100    84.710525   -106.88917  0.076647863   -106.81252     2268.168    4.2946212    4.2946212    4.2946212     2268.168   -1882.4116   -4392.8738    13079.789   -171.94051    2126.4327   -1622.3542    79.209008 
   47200    90.122912   -106.89422  0.081545104   -106.81268    860.07106    4.2954032    4.2954032    4.2954032    860.07106   -410.87495   -1394.7857    4385.8739    980.86756    1599.0858   -234.06107    79.252285 
   47300    118.96134    -106.9202   0.10763872   -106.81257   -2611.7327    4.2955262    4.2955262    4.2955262   -2611.7327   -2756.4467   -3098.1665    -1980.585   -175.43626   -612.37769    753.79201    79.259098 
   47400    130.82567   -106.93052   0.11837381   -106.81215   -1155.0188    4.2955618    4.2955618    4.2955618   -1155.0188   -4863.1621   -3958.7744    5356.8802   -355.65628   -1294.8683    1125.5126    79.261067 
   47500    44.296914   -106.85289  0.040080779    -106.8128    1948.0223     4.294985     4.294985     4.294985    1948.0223   -2574.9425    -1768.912    10187.921    243.36662    1782.6173   -151.84738    79.229142 
   47600    113.32034   -106.91495   0.10253463   -106.81241   -1660.8002    4.2955198    4.2955198    4.2955198   -1660.8002   -1349.3392   -5131.2342    1498.1727   -101.65216    1994.6554    271.94828    79.258742 
   47700    115.99081   -106.91715   0.10495092    -106.8122    349.74602    4.2952993    4.2952993    4.2952993    349.74602    1474.9417   -591.40262    165.69894    1191.9059   -1080.7026   -96.933516    79.246535 
   47800    107.13334    -106.9095  0.096936499   -106.81256   -2328.7165    4.2954591    4.2954591    4.2954591   -2328.7165   -5508.2274     -5088.11    3610.1881   -496.72531   -563.75666    642.95735    79.255384 
   47900     68.07232   -106.87417  0.061593266   -106.81258    2271.5174    4.2952175    4.2952175    4.2952175    2271.5174    -2597.217   -2045.6044    11457.374    335.32573    1072.2047   -427.15107    79.242008 
   48000    121.34931   -106.92192   0.10979941   -106.81213   -1044.5637    4.2950475    4.2950475    4.2950475   -1044.5637    -1270.024   -3363.9181    1500.2512   -21.477133    1868.4063   -936.88764    79.232602 
   48100    95.337121   -106.89886  0.086263031   -106.81259   -1244.4665    4.2958453    4.2958453    4.2958453   -1244.4665    785.68446   -3138.7469   -1380.3371    917.85238    485.89177   -13.808904    79.276764 
   48200    109.14695   -106.91099  0.098758455   -106.81223    1559.5583    4.2948031    4.2948031    4.2948031    1559.5583   -1669.7117   -2290.6635    8639.0502   -13.545083   -2269.2661    946.33941    79.219077 
   48300    86.677656   -106.89086  0.078427765   -106.81244    587.51425    4.2951983    4.2951983    4.2951983    587.51425   -4493.0818   -3984.1863    10239.811   -23.468508    490.04187    838.47001    79.240945 
   48400    91.909728   -106.89567  0.083161854   -106.81251   -1087.8625    4.2957424    4.2957424    4.2957424   -1087.8625   -2340.7869   -2124.0819    1201.2813   -342.47106    2392.3337   -374.53846    79.271063 
   48500    142.91891   -106.94154   0.12931603   -106.81223   -1043.2099    4.2950101    4.2950101    4.2950101   -1043.2099    902.96348   -3471.6016   -560.99159    284.05495   -903.05374    660.61689    79.230532 
   48600    58.678003   -106.86605   0.05309309   -106.81296    1942.4554    4.2954744    4.2954744    4.2954744    1942.4554   -1084.8006   -1588.2852     8500.452    967.37306   -1289.7377    637.35938     79.25623 
   48700    96.681155   -106.90004  0.087479141   -106.81256      459.796    4.2948548    4.2948548    4.2948548      459.796   -4624.1104   -3864.3427    9867.8411   -633.75804    201.45466    675.84724     79.22194 
   48800     124.7775   -106.92504   0.11290131   -106.81214   -1103.7211    4.2956296    4.2956296    4.2956296   -1103.7211   -2886.7298   -2513.3987    2088.9651    735.76439    1351.9631    -721.7483    79.264821 
   48900    104.96299   -106.90772  0.094972716   -106.81275   -2991.2518    4.2957233    4.2957233    4.2957233   -2991.2518   -2400.6672   -3333.1796   -3239.9086    -626.6666    999.84072   -330.64051    79.270008 
   49000    82.589783   -106.88757  0.074728972   -106.81284    2302.1473    4.2948202    4.2948202    4.2948202    2302.1473    598.28549   -3087.9096    9396.0659    1358.7869   -1990.8334   -57.238807    79.220023 
   49100    85.364176   -106.88983    0.0772393   -106.81259    1504.0321    4.2952749    4.2952749    4.2952749    1504.0321   -3797.3098   -1490.0666    9799.4727   -45.982451    -1415.576    1345.5968    79.245189 
   49200      111.809    -106.9137   0.10116714   -106.81253   -3112.6014    4.2955313    4.2955313    4.2955313   -3112.6014   -4838.8987   -3616.1524   -882.75325    86.496769    1769.3344   -155.66756     79.25938 
   49300     138.2512   -106.93713   0.12509259   -106.81203   -1848.6895    4.2957364    4.2957364    4.2957364   -1848.6895   -3496.8442   -2039.2396   -9.9847625   -390.04474    144.88151   -480.80024    79.270732 
   49400    63.463209   -106.87036  0.057422845   -106.81294    1745.5402    4.2947624    4.2947624    4.2947624    1745.5402    -761.1689   -2808.0066    8805.7961    358.70294   -1661.6456    1140.7827    79.216822 
   49500    70.905739   -106.87713  0.064157003   -106.81297    1582.5559    4.2952623    4.2952623    4.2952623    1582.5559   -2676.7844   -2319.5493    9744.0014    547.93228   -854.08733    841.85874    79.244489 
   49600     142.2947    -106.9407   0.12875124   -106.81195   -1030.8949    4.2953035    4.2953035    4.2953035   -1030.8949   -3181.6658   -1553.7658    1642.7469    54.675025    669.88348    86.903943    79.246771 
   49700    114.50178     -106.916   0.10360362    -106.8124    -3086.072    4.2957206    4.2957206    4.2957206    -3086.072   -5569.8089   -2597.9884   -1090.4186    231.88497    1624.1989   -562.32535    79.269858 
   49800    72.015253     -106.878  0.065160915   -106.81284    2067.7284    4.2951145    4.2951145    4.2951145    2067.7284   -2736.7427   -2563.3028    11503.231   -643.17441   -744.66751   -136.81683    79.236307 
   49900    89.380855   -106.89338  0.080873676   -106.81251    2536.6033    4.2945724    4.2945724    4.2945724    2536.6033    150.99003   -1797.2334    9256.0532    1618.9218   -2066.5368    436.53452     79.20631 
   50000    106.06939   -106.90859  0.095973813   -106.81262   -2105.8645     4.296053     4.296053     4.296053   -2105.8645   -3941.5903    -2372.964   -3.0392991    -352.0981    688.15889    786.30419     79.28826 
   50100    135.78158   -106.93511   0.12285802   -106.81225   -1267.0432    4.2951803    4.2951803    4.2951803   -1267.0432   -2912.5926   -1779.4157    890.87867    792.47302    1159.3957   -1450.6792    79.239948 
   50200    79.641475   -106.88456   0.07206128    -106.8125    881.64628    4.2954582    4.2954582    4.2954582    881.64628   -5314.0963   -3234.4374    11193.472   -894.57338   -385.98724   -65.459514    79.255331 
   50300    64.153155   -106.87088  0.058047123   -106.81283    949.19464    4.2951199    4.2951199    4.2951199    949.19464   -854.07662   -2552.8442    6254.5047    382.06413   -1343.2671    868.50194    79.236609 
   50400    141.75917    -106.9403   0.12826668   -106.81204   -763.60456    4.2952933    4.2952933    4.2952933   -763.60456   -412.30131   -2603.2562    724.74385      609.643   -220.04351    588.10256    79.246204 
   50500    102.14358   -106.90502  0.092421657    -106.8126   -1551.9505    4.2957024    4.2957024    4.2957024   -1551.9505   -3471.1132   -1549.5157    364.77726    93.565225    2566.5349   -953.59292     79.26885 
   50600    78.277747   -106.88365   0.07082735   -106.81283     460.8848    4.2949827    4.2949827    4.2949827     460.8848   -4429.6561   -4036.2472    9848.5577   -219.15107    538.98465   -251.96739    79.229017 
   50700     106.7048   -106.90874  0.096548748   -106.81219    441.88238    4.2954262    4.2954262    4.2954262    441.88238   -2808.4546   -2247.3656    6381.4674    -262.5633   -1769.0514     455.0482    79.253564 
   50800    91.875913   -106.89574  0.083131257   -106.81261   -1406.6517    4.2952954    4.2952954    4.2952954   -1406.6517    155.20437   -2361.2584   -2013.9011     960.0313    234.84351    478.95941    79.246322 
   50900    131.19629   -106.93088   0.11870916   -106.81217   -1129.7085    4.2956054    4.2956054    4.2956054   -1129.7085    -2587.285   -2620.3632    1818.5226     250.3622    1359.9665   -723.91508    79.263479 
   51000    63.412763   -106.86999    0.0573772   -106.81261    3103.8117    4.2946674    4.2946674    4.2946674    3103.8117   -2851.8889   -789.37292    12952.697    694.21287     948.1059   -1253.0843    79.211569 
   51100    104.93635   -106.90759  0.094948619   -106.81264   -2761.1997    4.2957455    4.2957455    4.2957455   -2761.1997   -6179.7187   -5236.7681    3132.8877   -1048.7612   -365.04287    287.67085    79.271236 
   51200    113.80426   -106.91517   0.10297248    -106.8122    458.63111    4.2952882    4.2952882    4.2952882    458.63111    177.06975   -95.790443     1294.614    947.00677   -1152.0509    344.40668    79.245924 
   51300    118.67522   -106.91968   0.10737984    -106.8123   -1076.6898    4.2951244    4.2951244    4.2951244   -1076.6898   -1945.1259    -3564.014    2279.0706   -41.853451    2433.2584   -212.79908    79.236855 
   51400    45.312175   -106.85399  0.040999408   -106.81299    3223.6248    4.2951774    4.2951774    4.2951774    3223.6248   -3386.8168   -490.07454    13547.766    570.71339    2199.3939   -1621.9507    79.239788 
   51500    131.90504   -106.93152   0.11935046   -106.81217   -551.52757    4.2949773    4.2949773    4.2949773   -551.52757   -4361.0269   -2031.8629    4738.3071   -206.44184   -1074.2368    828.91988    79.228718 
   51600    113.31735   -106.91491   0.10253192   -106.81238   -3116.7607    4.2960951    4.2960951    4.2960951   -3116.7607   -4770.4194   -3297.1057   -1282.7569   -562.31254   -170.23199    485.73906    79.290593 
   51700    94.004551   -106.89776  0.085057293    -106.8127    776.80641    4.2952133    4.2952133    4.2952133    776.80641   -1342.2926   -403.75295    4076.4647    970.92272    1264.5397    81.090453    79.241779 
   51800    87.374229   -106.89147  0.079058038   -106.81242    2824.9581    4.2947154    4.2947154    4.2947154    2824.9581    -2567.711   -3463.7542    14506.339    284.63566    1531.6931   -1179.9326    79.214223 
   51900    72.558404    -106.8785  0.065652369   -106.81285   -331.47958    4.2957554    4.2957554    4.2957554   -331.47958   -4815.9785    881.18846    2940.3513    695.98718    958.76589   -319.99814    79.271786 
   52000     161.9865    -106.9585   0.14656879   -106.81193    -3954.832    4.2954782    4.2954782    4.2954782    -3954.832   -5057.7913   -5056.8828   -1749.8221   -463.44286   -1191.3272   -27.127788     79.25644 
   52100    83.313785    -106.8882  0.075384064   -106.81282     617.5747    4.2955164    4.2955164    4.2955164     617.5747   -3604.5532    709.75942    4747.5179     470.9029    755.98811    445.38246    79.258555 
   52200    59.994566    -106.8674  0.054284345   -106.81311    1568.7095    4.2948961    4.2948961    4.2948961    1568.7095   -2972.2641   -3738.7074      11417.1     398.3599    3074.1683   -1947.8903    79.224221 
   52300    117.68771   -106.91878   0.10648632   -106.81229    495.67127    4.2953135    4.2953135    4.2953135    495.67127   -2166.7148   -188.24036     3841.969    782.85821    597.64932   -518.97231    79.247323 
   52400    115.38098   -106.91678   0.10439913   -106.81238   -2954.1011    4.2957571    4.2957571    4.2957571   -2954.1011   -5055.1958   -1939.5243   -1867.5831   -280.40981   -543.39731    1479.1741    79.271877 
   52500    110.63568   -106.91263   0.10010548   -106.81253   -2030.0915    4.2955129    4.2955129    4.2955129   -2030.0915   -5450.4056   -3905.9986    3266.1296   -464.41546    232.35605    177.72874    79.258362 
   52600    60.348422   -106.86722   0.05460452   -106.81262    4318.9021     4.294698     4.294698     4.294698    4318.9021   -1938.5291    801.19845    14094.037    725.93583    1520.2617   -512.37229    79.213262 
   52700    115.62417   -106.91735   0.10461918   -106.81273   -2198.5566    4.2954931    4.2954931    4.2954931   -2198.5566    -3100.726   -3888.9199    393.97595    26.593018     1913.998   -498.58111    79.257265 
   52800    101.54946   -106.90427  0.091884084   -106.81238    280.26213    4.2954523    4.2954523    4.2954523    280.26213   -1209.9174    1126.5737     924.1301    1209.4544   -864.82933    475.40458    79.255003 
   52900     131.7488   -106.93133   0.11920909   -106.81212   -1691.8531     4.295238     4.295238     4.295238   -1691.8531   -5762.4675   -4393.4994    5080.4077   -861.98459   -780.02185   -148.83167    79.243144 
   53000    37.785386   -106.84716  0.034189012   -106.81297     2533.264    4.2951279    4.2951279    4.2951279     2533.264   -3452.7088   -586.04414    11638.545    540.13353    1959.4742   -262.35831    79.237051 
   53100    138.33578   -106.93729   0.12516912   -106.81212   -833.32802     4.295211     4.295211     4.295211   -833.32802   -1745.8916   -2098.9328    1344.8403    460.57672    1479.5831   -2187.4862    79.241649 
   53200    107.78631   -106.90987  0.097527321   -106.81234   -468.40028    4.2955028    4.2955028    4.2955028   -468.40028   -736.62016    -1144.054    475.47327    812.03211    112.45654    1280.0863    79.257801 
   53300    83.389644   -106.88794  0.075452702   -106.81249   -188.72969     4.295441     4.295441     4.295441   -188.72969   -3754.3255   -2087.7514    5275.8878   -13.172525   -1207.9924    559.01564    79.254379 
   53400    96.991072   -106.89991   0.08775956   -106.81215    1401.6655    4.2949103    4.2949103    4.2949103    1401.6655   -4372.7168   -3598.4202    12176.133   -519.25873    302.45776    539.96606    79.225008 
   53500    99.190235   -106.90224  0.089749409   -106.81249   -1294.6939    4.2957349    4.2957349    4.2957349   -1294.6939   -2782.2381   -849.35914   -252.48455    317.78846    2300.2313   -869.94518    79.270649 
   53600    124.39944   -106.92511   0.11255923   -106.81255   -1792.2025    4.2953468    4.2953468    4.2953468   -1792.2025   -1163.9083   -3091.0482   -1121.6511    304.71189   -711.51949    1196.4974    79.249168 
   53700    88.282399   -106.89234  0.079879769   -106.81246    1895.8621    4.2951716    4.2951716    4.2951716    1895.8621   -1109.1172   -1033.0526    7829.7559    915.80191   -1772.3851    420.23612     79.23947 
   53800    65.225581   -106.87179  0.059017476   -106.81277    142.05879    4.2952238    4.2952238    4.2952238    142.05879   -5578.4472    -3386.022    9390.6456   -927.62499    535.16567    163.92641    79.242361 
   53900    132.86019    -106.9324   0.12021469   -106.81218   -2240.1733    4.2957384    4.2957384    4.2957384   -2240.1733   -3567.3842   -2490.8062   -662.32964    939.08503    1055.2728   -1658.8406    79.270842 
   54000    119.93816   -106.92093   0.10852257   -106.81241   -854.95827     4.295415     4.295415     4.295415   -854.95827   -2248.4174   -1591.8798    1275.4225   -185.33409    655.48918     135.2382    79.252942 
   54100    72.014123   -106.87803  0.065159892   -106.81287    863.19531    4.2951021    4.2951021    4.2951021    863.19531   -1535.0346   -2484.1475    6608.7681    1375.9091   -1123.4329    778.28845    79.235622 
   54200    77.659817    -106.8827  0.070268234   -106.81243    2538.2569    4.2950676    4.2950676    4.2950676    2538.2569    -2456.887    -2341.118    12412.776    -341.7339   -1677.0489    568.25982    79.233712 
   54300    129.29771   -106.92927   0.11699128   -106.81228   -2954.3347    4.2954282    4.2954282    4.2954282   -2954.3347   -5469.5858   -1616.7457   -1776.6727   -26.994395    1790.5543   -50.170179    79.253669 
   54400    114.34143   -106.91597   0.10345853   -106.81251   -1896.7511    4.2959418    4.2959418    4.2959418   -1896.7511   -3806.1812   -3139.9631    1255.8909    67.691407    567.60584    78.745741    79.282104 
   54500     92.69173    -106.8965  0.083869425   -106.81263    2859.0062    4.2944621    4.2944621    4.2944621    2859.0062   -1822.3253   -324.88943    10724.233    192.65974   -2196.2513    1723.7288    79.200207 
   54600    60.359291   -106.86764  0.054614355   -106.81302    1931.8209    4.2951865    4.2951865    4.2951865    1931.8209   -1729.5872   -3311.1914    10836.241    750.04252   -895.05817   -201.39213    79.240296 
   54700    126.03171   -106.92627   0.11403614   -106.81224   -2526.9996    4.2956424    4.2956424    4.2956424   -2526.9996   -4098.2706   -1428.1335   -2054.5946   -412.43178    602.18568    -307.8691    79.265527 
   54800    131.98408   -106.93162   0.11942197    -106.8122   -1705.5591    4.2954001    4.2954001    4.2954001   -1705.5591    -4231.085   -3084.9021    2199.3098    449.86661    1098.9235   -1378.5312    79.252118 
   54900    72.083169     -106.878  0.065222366   -106.81277    774.19481    4.2955643    4.2955643    4.2955643    774.19481   -4634.7308   -1897.0586    8854.3738   -237.32998    125.89565     601.4084    79.261204 
   55000    76.217482   -106.88157  0.068963179   -106.81261    2761.6905    4.2945325    4.2945325    4.2945325    2761.6905    60.303185   -2045.9045    10270.673    1398.6613   -2107.0777   -573.74667    79.204104 
   55100    132.87792    -106.9325   0.12023074   -106.81227   -2730.8832    4.2960149    4.2960149    4.2960149   -2730.8832   -2883.8086   -2977.4783   -2331.3627   -472.21947    255.14213    838.39946     79.28615 
   55200    92.973345   -106.89691  0.084124236   -106.81279   -1915.5615    4.2954411    4.2954411    4.2954411   -1915.5615   -3462.2372   -1705.5217   -578.92564     537.3819     1786.177   -1822.1863    79.254387 
   55300    109.29758   -106.91117  0.098894748   -106.81228     112.9323    4.2953804    4.2953804    4.2953804     112.9323   -4883.0842     -4568.51    9790.3911   -730.89994   -883.48238    1557.8065    79.251024 
   55400     63.25692   -106.86987  0.057236191   -106.81263    2311.3995    4.2950589    4.2950589    4.2950589    2311.3995   -1847.7035    201.56557    8580.3365    715.99997   -1674.4531    575.85482     79.23323 
   55500    129.53127   -106.92959   0.11720262   -106.81238   -2873.8667    4.2955568    4.2955568    4.2955568   -2873.8667   -31.369785   -5099.4738   -3490.7564    373.47816   -98.581517      -134.73    79.260789 
   55600    106.29774   -106.90858  0.096180432    -106.8124   -27.318488    4.2954578    4.2954578    4.2954578   -27.318488   -2573.5036   -111.25652    2602.8046   -452.06705    1693.1406   -1179.1585    79.255308 
   55700    82.457817   -106.88732  0.074609566   -106.81271   -186.61693    4.2950381    4.2950381    4.2950381   -186.61693   -3666.7095   -4436.4937    7543.3524    155.37426    1278.2253    289.31086    79.232081 
   55800    89.153559   -106.89308  0.080668014   -106.81242    1031.3704    4.2954162    4.2954162    4.2954162    1031.3704   -3816.2721   -1693.5009    8603.8844   -91.683308   -1459.1061   -506.73116    79.253008 
   55900    127.81402   -106.92766   0.11564881   -106.81201   -472.73552    4.2951126    4.2951126    4.2951126   -472.73552    1785.6609   -1794.3357   -1409.5318    854.15614   -406.21842    3.2087257    79.236204 
   56000    102.57729   -106.90521  0.092814092    -106.8124   -1401.0559    4.2956368    4.2956368    4.2956368   -1401.0559   -2151.2055   -3657.6316    1605.6693   -130.27636     1921.621   -741.22753    79.265218 
   56100    68.177808   -106.87425  0.061688714   -106.81256     2747.651    4.2948533    4.2948533    4.2948533     2747.651   -1990.4617   -658.09148    10891.506    248.41842    634.02294   -215.36313    79.221857 
   56200    115.04771   -106.91633   0.10409759   -106.81224   -502.40748    4.2951619    4.2951619    4.2951619   -502.40748   -4326.6556   -4592.6211    7412.0542   -469.81075   -996.80179    1050.9878     79.23893 
   56300    104.40456   -106.90685  0.094467441   -106.81238   -973.21678    4.2957644    4.2957644    4.2957644   -973.21678   -579.53405   -237.45321   -2102.6631    758.02692   -1131.4285   -333.68701    79.272281 
   56400     126.6488   -106.92681   0.11459449   -106.81221   -217.37853    4.2949679    4.2949679    4.2949679   -217.37853    649.37369   -5004.7979    3703.2887    -293.2202    1726.9048   -31.047495    79.228196 
   56500    54.353066    -106.8619  0.049179796   -106.81273    2312.5405    4.2952817    4.2952817    4.2952817    2312.5405   -3362.0803    -427.9702    10727.672    281.56657    2355.3193   -878.82074    79.245562 
   56600    93.112405   -106.89675  0.084250061    -106.8125   -669.51658    4.2952522    4.2952522    4.2952522   -669.51658   -3005.0761   -4419.1391    5415.6655   -214.12246   -778.66896     462.3827    79.243933 
   56700    154.00399   -106.95119   0.13934604   -106.81185   -2673.9753    4.2957573    4.2957573    4.2957573   -2673.9753   -3892.0976   -2033.4503    -2096.378    -33.89069   -656.25244    -908.8252    79.271888 
   56800     80.24814    -106.8854  0.072610204   -106.81279    364.53951    4.2953813    4.2953813    4.2953813    364.53951    527.40749    -2694.096     3260.307    630.73739    1618.3628    70.401548    79.251075 
   56900    81.435411   -106.88636  0.073684471   -106.81267    1103.9709    4.2950368    4.2950368    4.2950368    1103.9709   -2806.4919   -4452.6413    10571.046   -110.93679    1256.3458   -1696.4481    79.232007 
   57000      81.3643   -106.88603  0.073620129   -106.81241    1140.2109    4.2953868    4.2953868    4.2953868    1140.2109   -2638.2637   -905.95389    6964.8504    353.84745    313.60451      831.926    79.251378 
   57100    147.15521    -106.9453   0.13314913   -106.81215   -5204.7546     4.295842     4.295842     4.295842   -5204.7546   -5253.7447   -5148.8202   -5211.6989   -259.02185   -1251.5543   -758.35494     79.27658 
   57200    96.191906   -106.89977  0.087036458   -106.81273    1181.9252    4.2952393    4.2952393    4.2952393    1181.9252   -1590.5322    -940.2055    6076.5132    477.76388     164.2852    301.98284    79.243216 
   57300    76.799067   -106.88228   0.06948941   -106.81279    2100.9815    4.2947259    4.2947259    4.2947259    2100.9815    -1195.785   -3986.1154    11484.845   -2.6545479    3045.2912   -981.78113    79.214803 
   57400    75.063225   -106.88074  0.067918784   -106.81283    -19.32268    4.2954897    4.2954897    4.2954897    -19.32268   -2801.5726   -2195.9913    4939.5959   -5.8151439    687.12186    513.65593    79.257075 
   57500    148.54215   -106.94624   0.13440406   -106.81183   -2725.3416    4.2955749    4.2955749    4.2955749   -2725.3416   -3732.7747   -2917.2471    -1526.003   -335.76154   -1164.4417    123.20769    79.261792 
   57600     106.7699   -106.90912  0.096607649   -106.81252   -900.38171    4.2953562    4.2953562    4.2953562   -900.38171   -4404.3111   -2651.5778    4354.7437    121.68748    919.20229    -408.3145    79.249687 
   57700     55.17395   -106.86287   0.04992255   -106.81294     3063.445    4.2949533    4.2949533    4.2949533     3063.445   -807.76733   -3031.1951    13029.297    47.788747    1615.7114    -557.4958    79.227387 
   57800    114.72236   -106.91606    0.1038032   -106.81225    263.11781    4.2949797    4.2949797    4.2949797    263.11781   -1414.2089   -2671.1601    4874.7224   -78.107303     1218.044    198.41639     79.22885 
   57900    107.96365   -106.91004  0.097687781   -106.81235   -2724.3829    4.2959645    4.2959645    4.2959645   -2724.3829   -2255.2086   -2634.5043   -3283.4359    261.32181   -648.31396   -298.86006    79.283363 
   58000     117.3335   -106.91879   0.10616581   -106.81263   -1149.5424    4.2953107    4.2953107    4.2953107   -1149.5424   -5294.0815   -3150.7682    4996.2225   -509.50262   -1382.4584   -154.08478     79.24717 
   58100    73.758627   -106.87945  0.066738356   -106.81271    3033.2002    4.2948989    4.2948989    4.2948989    3033.2002   -838.48793   -2430.4971    12368.586    773.75661    2051.3674    130.97677    79.224379 
   58200    89.612775   -106.89383  0.081083522   -106.81274    -834.9303    4.2954314    4.2954314    4.2954314    -834.9303   -1287.3469   -3404.4915    2187.0475   -262.02934    1919.6989     -711.668    79.253848 
   58300    130.44339   -106.93002   0.11802792   -106.81199   -1906.2984    4.2955494    4.2955494    4.2955494   -1906.2984    323.98341    -2962.666   -3080.2126    194.89198   -1034.3873    1399.8432    79.260381 
   58400    98.981633   -106.90197  0.089560662   -106.81241   -741.35568     4.295491     4.295491     4.295491   -741.35568   -4288.1276   -2338.3695    4402.4301   -213.28465    -545.2035   -423.61258    79.257148 
   58500    70.207814   -106.87638  0.063525506   -106.81286    1097.4643    4.2951605    4.2951605    4.2951605    1097.4643   -2792.5284    -3571.213    9656.1343   -92.154164    1122.6402    364.04886    79.238854 
   58600    114.07816   -106.91542   0.10322032    -106.8122    792.68811    4.2952834    4.2952834    4.2952834    792.68811    633.21062   -2761.0419    4505.8957    22.003559     1536.764   -197.17117    79.245655 
   58700    114.89096   -106.91624   0.10395576   -106.81229    -2225.373    4.2955015    4.2955015    4.2955015    -2225.373   -15.678721   -2403.7892   -4256.6511   -95.373168   -469.32433    617.57363    79.257732 
   58800     91.38299   -106.89502   0.08268525   -106.81234   -262.45916    4.2954823    4.2954823    4.2954823   -262.45916   -1315.4731    -3977.137    4505.2326   -205.68815   -2067.5693   -866.64461    79.256666 
   58900    87.976482   -106.89194   0.07960297   -106.81234    2278.4977     4.294653     4.294653     4.294653    2278.4977   -4224.0313   -422.76577     11482.29    6.3214001    521.58718    24.405293    79.210772 
   59000    99.182949   -106.90239  0.089742816   -106.81264   -728.40733    4.2956733    4.2956733    4.2956733   -728.40733    311.25937    -4926.477    2429.9957     617.4943    1759.6079   -1087.5894     79.26724 
   59100    125.14528   -106.92545   0.11323408   -106.81221   -544.20549    4.2952768    4.2952768    4.2952768   -544.20549    -6.047551   -1086.5248   -540.04414   -394.58165   -236.67811    507.60919    79.245292 
   59200    98.942044   -106.90181  0.089524841   -106.81228     684.4316    4.2950779    4.2950779    4.2950779     684.4316    481.73555   -3673.2166    5244.7759    545.05996   -1471.8914   -50.272248    79.234286 
   59300    59.509133   -106.86662  0.053845114   -106.81278     1004.185    4.2952937    4.2952937    4.2952937     1004.185   -4976.0372   -2646.1682     10634.76   -542.72672   -223.46785   -385.98153    79.246227 
   59400    124.27141   -106.92461   0.11244338   -106.81217   -118.37172    4.2949741    4.2949741    4.2949741   -118.37172   -912.69362   -2263.7112    2821.2897    566.93195     1872.431    198.53185     79.22854 
   59500    128.91055   -106.92881   0.11664097   -106.81217   -1938.2526     4.295899     4.295899     4.295899   -1938.2526   -449.22544   -3923.6087   -1441.9237   -456.11186    7.8093796    133.50376    79.279736 
   59600    69.775088   -106.87603  0.063133966    -106.8129    1264.2587    4.2948373    4.2948373    4.2948373    1264.2587   -39.144088   -1745.5331    5577.4533    34.013359   -2610.0643   -565.12858    79.220968 
   59700    95.341387   -106.89858  0.086266891   -106.81231    1153.1904    4.2952313    4.2952313    4.2952313    1153.1904   -3410.5122   -4796.0415    11666.125   -334.10322   -503.49152   -609.50768    79.242773 
   59800     91.91621   -106.89582  0.083167718   -106.81265   -1598.8899    4.2954977    4.2954977    4.2954977   -1598.8899   -3839.4819   -1206.5252     249.3374    129.73192    1308.4701   -902.79964    79.257517 
   59900    139.36588   -106.93845   0.12610118   -106.81235   -3197.3253    4.2957206    4.2957206    4.2957206   -3197.3253   -1042.3495   -6261.4527   -2288.1736   -66.700168     88.86391   -1074.9541    79.269858 
   60000    90.515649   -106.89448  0.081900461   -106.81258    1640.1148    4.2952787    4.2952787    4.2952787    1640.1148    -880.6565   -931.77596    6732.7767    361.33868   -1043.4825     230.3529    79.245399 
   60100    52.892751   -106.86095  0.047858472   -106.81309    935.89233    4.2949523    4.2949523    4.2949523    935.89233   -1951.9768   -5493.1191    10252.773    -4.218455   -1464.5954   -950.26493    79.227332 
   60200    129.11947   -106.92898   0.11683001   -106.81215    -2355.118    4.2960678    4.2960678    4.2960678    -2355.118    -5576.095    -2503.708     1014.449   -269.02593    843.11556    242.27623    79.289079 
   60300    120.35467   -106.92119   0.10889944   -106.81229   -1584.2267    4.2951809    4.2951809    4.2951809   -1584.2267   -471.72315   -2690.9574   -1589.9996    661.59099    1126.9928   -544.67181    79.239984 
   60400    94.795188   -106.89841  0.085772678   -106.81264   -926.82072    4.2957335    4.2957335    4.2957335   -926.82072   -3112.3323   -5597.0916    5928.9618   -689.95087   -2543.4282    792.19029    79.270569 
   60500    56.848376   -106.86407  0.051437605   -106.81263    4652.5165    4.2945143    4.2945143    4.2945143    4652.5165    1354.1753   -737.10683    13340.481    667.93694    -1820.634   -292.76285    79.203096 
   60600    133.31765   -106.93314   0.12062861   -106.81251   -3453.3676    4.2956302    4.2956302    4.2956302   -3453.3676   -5096.8681   -5681.1549    417.92017   -1099.5016    840.98582   -762.30067    79.264853 
   60700    100.04904   -106.90313  0.090526477    -106.8126   -1072.6867    4.2959335    4.2959335    4.2959335   -1072.6867   -2123.2789   -490.99508   -603.78611    464.98884    188.92852   -504.92078    79.281645 
   60800    124.68393   -106.92509   0.11281664   -106.81227    754.23917    4.2945422    4.2945422    4.2945422    754.23917   -1489.8455   -4580.1052    8332.6682   -209.25986   -319.85045    102.08351    79.204642 
   60900    39.329437   -106.84866  0.035586101   -106.81308    3299.0441    4.2952801    4.2952801    4.2952801    3299.0441   -272.90646   -2017.7768    12187.816    280.24766   -1876.9949   -764.87292    79.245473 
   61000    125.51072   -106.92591   0.11356473   -106.81235   -1420.6806    4.2950876    4.2950876    4.2950876   -1420.6806   -622.79548   -3628.9336   -10.312694   -396.20133   -633.82203    81.568441    79.234821 
   61100    135.82794   -106.93499   0.12289998   -106.81209   -2035.0063     4.295693     4.295693     4.295693   -2035.0063   -4025.4452   -2274.9484    195.37463    341.04073    1655.8542    -170.8611    79.268332 
   61200    66.980451    -106.8735   0.06060532    -106.8129    852.74879    4.2952954    4.2952954    4.2952954    852.74879   -1228.4529    -2604.494    6391.1932    92.400458   -1047.9985     745.5367    79.246323 
   61300    97.089145    -106.9002  0.087848299   -106.81236    2276.1692    4.2945629    4.2945629    4.2945629    2276.1692   -1325.5538   -4207.5051    12361.567    167.38409     -2819.55    688.50608    79.205783 
   61400    94.284455   -106.89779  0.085310556   -106.81248    73.389447    4.2956261    4.2956261    4.2956261    73.389447    1884.7432   -1088.5192   -576.05569      185.082   -203.55628   -460.26698    79.264625 
   61500    131.99693   -106.93186    0.1194336   -106.81243   -4300.7877    4.2955384    4.2955384    4.2955384   -4300.7877   -4448.0865   -5527.1184   -2927.1582   -733.76652    951.04946   -18.882781    79.259772 
   61600    84.405091   -106.88894    0.0763715   -106.81257    2151.0498    4.2952815    4.2952815    4.2952815    2151.0498   -1553.0162   -422.40789    8428.5734    775.03069    190.50387    139.86523    79.245551 
   61700    79.713614   -106.88482  0.072126553    -106.8127    666.67724    4.2950649    4.2950649    4.2950649    666.67724   -2312.9734   -5182.4716    9495.4767   -696.93605   -1546.7711   -438.23255    79.233562 
   61800    105.35485   -106.90779  0.095327285   -106.81246   -514.19088     4.295533     4.295533     4.295533   -514.19088    1073.0523   -2292.3222   -323.30267    851.53678   -1112.8518    -166.1172    79.259471 
   61900    132.51448   -106.93189   0.11990189   -106.81199    -1383.171    4.2954919    4.2954919    4.2954919    -1383.171    -1200.113   -2915.0883   -34.311742   -590.21692    1355.8531   -48.474564    79.257198 
   62000    80.723196   -106.88569  0.073040044   -106.81265   -941.92539    4.2952921    4.2952921    4.2952921   -941.92539   -4398.3273   -3987.6204    5560.1714    409.95784    525.50168   -472.31059    79.246141 
   62100    70.128001   -106.87599  0.063453289   -106.81253    2793.7993    4.2951873    4.2951873    4.2951873    2793.7993   -1378.7647   -2115.0915    11875.254   -99.006232   -2261.1124    1161.9583    79.240341 
   62200    142.43402   -106.94099   0.12887729   -106.81212   -1721.5871    4.2952056    4.2952056    4.2952056   -1721.5871   -242.16112   -4352.9249   -569.67532    618.86567   -1276.9626    47.978243    79.241351 
   62300    80.375652   -106.88534  0.072725579   -106.81262   -236.55788    4.2957698    4.2957698    4.2957698   -236.55788    389.48636   -2423.1391    1323.9791   -73.254178    1036.9323   -236.49272    79.272582 
   62400    122.10047   -106.92263   0.11047907   -106.81215   -332.93324    4.2949586    4.2949586    4.2949586   -332.93324   -4212.9869   -3779.8775    6994.0646    -53.76595    1300.1272    319.42971    79.227681 
   62500    55.461392   -106.86294  0.050182633   -106.81276    2042.9679    4.2951643    4.2951643    4.2951643    2042.9679   -2108.4731   -2353.4536    10590.831    67.984845   -978.91087    342.85567    79.239067 
   62600    128.44809   -106.92861   0.11622253   -106.81239   -2682.0151    4.2956909    4.2956909    4.2956909   -2682.0151   -1757.8315    -4205.323   -2082.8908   -150.14705   -1499.7406   -79.575239    79.268215 
   62700    116.70928   -106.91781   0.10560101   -106.81221    703.15793    4.2950246    4.2950246    4.2950246    703.15793    2878.8479   -2904.6981     2135.324    735.64383    1455.7256      73.5118    79.231331 
   62800    79.920208   -106.88489  0.072313483   -106.81258   -526.44824    4.2956565    4.2956565    4.2956565   -526.44824   -4327.5723     -3977.49    6725.7176   -854.69943    1089.6828   -600.42163    79.266311 
   62900    78.952383   -106.88393  0.071437776   -106.81249    758.94112     4.294869     4.294869     4.294869    758.94112   -1765.2471   -4071.0277    8113.0982    644.69555   -1305.1652    537.15913    79.222723 
   63000    132.70118   -106.93202   0.12007081   -106.81195   -1921.7613    4.2957355    4.2957355    4.2957355   -1921.7613   -2092.0029    -2057.746   -1615.5349   -428.83383   -1488.2116    252.87342    79.270684 
   63100    96.943179   -106.90049  0.087716226   -106.81277   -1398.4521    4.2954268    4.2954268    4.2954268   -1398.4521    2055.1974   -5223.5457   -1027.0079    734.43344    168.11042   -26.254971    79.253594 
   63200    90.681489   -106.89449  0.082050517   -106.81244    1705.8362    4.2951029    4.2951029    4.2951029    1705.8362   -1108.4516   -2164.7497      8390.71    63.229251    2025.0815   -42.318221    79.235665 
   63300    84.424248   -106.88874  0.076388834   -106.81235    404.27856    4.2952821    4.2952821    4.2952821    404.27856   -3021.8457   -4551.3874    8786.0687    21.111322    64.432537   -217.53285    79.245585 
   63400    114.81453   -106.91625    0.1038866   -106.81237   -3070.5419    4.2957353    4.2957353    4.2957353   -3070.5419     -1841.42   -3649.9466   -3720.2591   -31.579199   -2052.8978    776.33817    79.270671 
   63500    123.22422     -106.924   0.11149586    -106.8125    86.411705      4.29533      4.29533      4.29533    86.411705    455.58911   -2580.4843    2384.1303    281.02433    1153.3891   -133.41618    79.248236 
   63600     74.51323   -106.88028  0.067421136   -106.81286    1856.7889    4.2948319    4.2948319    4.2948319    1856.7889    1244.6215   -4241.7957    8567.5409    328.99009    1774.5971   -629.93408    79.220667 
   63700    75.426893   -106.88084  0.068247838    -106.8126    1380.3249    4.2953713    4.2953713    4.2953713    1380.3249   -3799.2145   -2263.6588    10203.848   -133.47059   -439.03793   -72.794091    79.250522 
   63800     144.1979   -106.94233   0.13047329   -106.81186   -1966.4217    4.2953816    4.2953816    4.2953816   -1966.4217   -886.76241   -3771.9331   -1240.5696    177.01926   -1084.9697   -124.65765    79.251094 
   63900    100.72093    -106.9036  0.091134412   -106.81246   -1335.7163    4.2956966    4.2956966    4.2956966   -1335.7163   -2487.3057   -3080.5389    1560.6955   -473.52163   -509.02258    37.302357    79.268531 
   64000    75.557634   -106.88109  0.068366135   -106.81272    3188.5291    4.2946418    4.2946418    4.2946418    3188.5291    2014.4497   -2973.7693    10524.907    1135.6502    1487.4518    -334.1357    79.210152 
   64100    95.692882   -106.89915   0.08658493   -106.81256    1644.8034    4.2949997    4.2949997    4.2949997    1644.8034   -2367.7003   -3307.4534    10609.564   -219.66729    1694.6714   -1186.7951    79.229953 
   64200    110.49683   -106.91244  0.099979857   -106.81246   -2654.6316    4.2957815    4.2957815    4.2957815   -2654.6316   -3091.0495    -2644.541   -2228.3044    457.29972   -1460.8743    375.71301     79.27323 
   64300    133.71456   -106.93314   0.12098774   -106.81215   -1701.5664    4.2954018    4.2954018    4.2954018   -1701.5664   -2683.8929   -4032.5688    1611.7624   -95.694517   -318.76396    531.46169    79.252208 
   64400    61.882452   -106.86875  0.055992543   -106.81275    2499.1077    4.2951056    4.2951056    4.2951056    2499.1077   -740.68232   -2550.6788    10788.684    157.52459    2423.5414   -688.02847    79.235819 
   64500    79.284731   -106.88458   0.07173849   -106.81284    558.15383    4.2950196    4.2950196    4.2950196    558.15383   -645.50885   -4458.7179    6778.6882     787.0343    690.93711   -310.35609    79.231055 
   64600    141.05955   -106.93952   0.12763364   -106.81188   -2284.6079    4.2957213    4.2957213    4.2957213   -2284.6079   -3443.2717   -1805.1593   -1605.3928   -217.17698   -944.03403    82.938686    79.269898 
   64700    102.19585   -106.90505  0.092468956   -106.81258   -2330.1335    4.2954618    4.2954618    4.2954618   -2330.1335    -3466.091   -3737.0264    212.71704    231.58865   -868.46692   -232.43245     79.25553 
   64800    79.224547   -106.88436  0.071684035   -106.81268    520.14577    4.2954761    4.2954761    4.2954761    520.14577   -3314.1879   -3661.0754    8535.7006   -469.25815    279.70381    318.39188    79.256324 
   64900    79.984253   -106.88476  0.072371433   -106.81239    2519.6012    4.2948582    4.2948582    4.2948582    2519.6012    1029.9663   -2417.6495    8946.4868    733.31652     2198.108   -1226.5048    79.222126 
   65000    133.88619   -106.93353   0.12114304   -106.81239   -4061.0216    4.2959741    4.2959741    4.2959741   -4061.0216   -3391.5878   -4387.6242   -4403.8529    129.39047   -561.95485   -889.44347     79.28389 
   65100    97.658181   -106.90097  0.088363175   -106.81261   -106.25701    4.2954261    4.2954261    4.2954261   -106.25701   -2129.2622   -801.52545    2612.0166    636.00606    -1431.491    889.61223    79.253557 
   65200    101.45509   -106.90422  0.091798697   -106.81242    148.93399    4.2949423    4.2949423    4.2949423    148.93399   -4322.6072   -4723.8447    9493.2539   -552.71435    1094.9109    277.55265    79.226777 
   65300    55.416977   -106.86298  0.050142445   -106.81284    2117.2659    4.2954553    4.2954553    4.2954553    2117.2659    1149.7675   -2071.4947     7273.525    526.52651    1504.2585   -433.33051    79.255172 
   65400    149.57352   -106.94729   0.13533727   -106.81196   -1460.8432    4.2950968    4.2950968    4.2950968   -1460.8432   -818.99094   -2804.9036   -758.63498    761.81158   -590.50671    123.41633    79.235332 
   65500    104.47153   -106.90682  0.094528036   -106.81229    -521.5628    4.2957203    4.2957203    4.2957203    -521.5628   -1557.9967   -2221.3906    2214.6989    29.330118    -1645.497    723.51414    79.269839 
   65600    67.272336   -106.87348  0.060869424   -106.81261    1194.3682    4.2949553    4.2949553    4.2949553    1194.3682   -3500.7627   -2080.7521    9164.6195     223.0708   -619.69102    1148.3011    79.227501 
   65700    111.46239   -106.91297   0.10085352   -106.81212    773.99225    4.2949956    4.2949956    4.2949956    773.99225   -368.95672   -4450.6126    7141.5461   -872.59196    1740.1114   -409.11267    79.229732 
   65800    99.156889   -106.90211  0.089719237   -106.81239   -366.56048    4.2956534    4.2956534    4.2956534   -366.56048    1426.0573   -1415.7961   -1109.9427    1077.4583    -58.18503   -859.50569    79.266136 
   65900    129.29247   -106.92933   0.11698654   -106.81234   -1591.2496    4.2950569    4.2950569    4.2950569   -1591.2496   -1901.7657    -4111.417     1239.434   -21.928303   -1570.3645    625.64413    79.233122 
   66000    64.510875   -106.87089  0.058370795   -106.81252    2909.5201    4.2953436    4.2953436    4.2953436    2909.5201   -1841.7663   -352.71514    10923.042    432.47213   -359.15998    652.06353    79.248991 
   66100    100.27082   -106.90319  0.090727144   -106.81246   -2079.1263    4.2951399    4.2951399    4.2951399   -2079.1263   -3468.7079   -4999.4655    2230.7945   -667.80571    1235.6068    562.59995    79.237716 
   66200    111.20254   -106.91282    0.1006184    -106.8122   -488.61145    4.2956244    4.2956244    4.2956244   -488.61145    2501.6407   -2443.1771    -1524.298    709.46907    561.42364   -441.71685    79.264534 
   66300     121.6397   -106.92236   0.11006216    -106.8123   -760.96644    4.2952058    4.2952058    4.2952058   -760.96644   -1606.8138   -2725.6018    2049.5162    372.59052   -1860.8269    1085.9612    79.241363 
   66400    58.974345   -106.86625  0.053361227   -106.81289    1246.4553    4.2951083    4.2951083    4.2951083    1246.4553   -1750.0127   -3657.5555    9146.9341     562.3477   -1576.9987    1916.0893    79.235964 
   66500    104.77161   -106.90688  0.094799551   -106.81208   -192.89366    4.2957039    4.2957039    4.2957039   -192.89366   -4523.4911   -1290.8344    5235.6446   -357.68211    1243.9241    546.59515    79.268933 
   66600    125.73554   -106.92589   0.11376816   -106.81212   -2846.2094     4.295265     4.295265     4.295265   -2846.2094    251.68383   -5285.9469   -3504.3651   -459.94041    551.24039   -507.56953     79.24464 
   66700    88.694208   -106.89287  0.080252383   -106.81262    123.66384    4.2958869    4.2958869    4.2958869    123.66384    -1434.836   -1174.7041    2980.5316    794.25342   -1824.1692    289.81014    79.279063 
   66800    99.977767   -106.90287  0.090461984    -106.8124    2108.8344    4.2944287    4.2944287    4.2944287    2108.8344   -2157.0472   -3817.7973    12301.348   -322.18443   -846.83448    103.37507     79.19836 
   66900    76.473122   -106.88196  0.069194488   -106.81277    71.668775    4.2957755    4.2957755    4.2957755    71.668775   -4479.2605   -676.28165    5370.5485    797.95836    70.282202    1043.3471    79.272895 
   67000    133.73914   -106.93317   0.12100999   -106.81216   -2912.0275    4.2957127    4.2957127    4.2957127   -2912.0275   -3539.3069   -3604.2064   -1592.5693   -1191.4217    706.73154   -544.45795    79.269422 
   67100      110.512   -106.91222  0.099993579   -106.81222    580.22175     4.294976     4.294976     4.294976    580.22175   -451.83219   -2129.4482    4321.9456    868.28387   -1085.4723   -515.03928    79.228644 
   67200    57.314947   -106.86468  0.051859769   -106.81282     2179.461    4.2954384    4.2954384    4.2954384     2179.461    -3403.476   -2346.9688    12288.828    237.69875   -2738.2297    1963.4934    79.254236 
   67300    111.71808   -106.91345   0.10108487   -106.81237    340.67265    4.2945885    4.2945885    4.2945885    340.67265   -3034.5039   -1041.1654    5097.6873    881.76015   -363.27793    1636.5876    79.207203 
   67400    121.34825   -106.92193   0.10979845   -106.81213   -2244.3256    4.2962063    4.2962063    4.2962063   -2244.3256   -5458.2096   -490.95462   -783.81262   -420.65787    1058.1855   -448.89384    79.296749 
   67500    100.82053   -106.90389  0.091224535   -106.81266   -1766.2693    4.2950717    4.2950717    4.2950717   -1766.2693   -2368.5662   -4099.5571    1169.3153   -61.232341   -1757.8638   -110.10038    79.233941 
   67600    74.027645   -106.87954  0.066981769   -106.81256    3193.9306    4.2950417    4.2950417    4.2950417    3193.9306   -2863.1882   -520.67579    12965.656    322.42615    -1189.748    438.26706    79.232282 
   67700    100.77136   -106.90371  0.091180042   -106.81253    -904.4608    4.2954661    4.2954661    4.2954661    -904.4608   -2529.2505   -2210.3484    2026.2165     538.6823   -1326.5346    593.49477    79.255769 
   67800    116.34029    -106.9176   0.10526714   -106.81233   -2750.0024    4.2954033    4.2954033    4.2954033   -2750.0024   -4798.8175   -327.49172   -3123.6981    273.96958    251.77277    49.742302    79.252296 
   67900    116.35794   -106.91767   0.10528311   -106.81238   -836.57619    4.2957677    4.2957677    4.2957677   -836.57619   -4003.7229   -2371.4242    3865.4184   -1002.4884    284.04684   -1656.6261    79.272463 
   68000    60.929473   -106.86812  0.055130268   -106.81299    1440.5982    4.2945426    4.2945426    4.2945426    1440.5982   -2064.8303   -2983.2552    9369.8802    769.14563   -2368.8542    1214.8919    79.204663 
   68100    103.52573   -106.90606  0.093672257   -106.81239    20.685442     4.295891     4.295891     4.295891    20.685442   -2858.3189     -735.777    3656.1522     63.30469   -1626.9024    1902.8966    79.279291 
   68200    126.66983   -106.92661   0.11461353     -106.812   -1145.1631    4.2950536    4.2950536    4.2950536   -1145.1631   -1122.5518   -494.53933    -1818.398    1333.1509    604.93938     322.9646    79.232937 
   68300     96.13777   -106.89934  0.086987475   -106.81236   -1803.0467    4.2957926    4.2957926    4.2957926   -1803.0467   -5847.4453   -1467.7607    1906.0659   -641.70972    270.52373   -692.01417    79.273845 
   68400    75.275719    -106.8807  0.068111052   -106.81259    2830.7694    4.2948676    4.2948676    4.2948676    2830.7694   -1475.2568   -2201.0793    12168.644    156.78159   -1157.0791    564.21132    79.222646 
   68500    115.67214   -106.91712   0.10466259   -106.81245    -189.1949    4.2950973    4.2950973    4.2950973    -189.1949   -2535.2409   -1371.6577    3339.3139    244.13695    -1326.449    706.80019    79.235355 
   68600    96.359761   -106.89968  0.087188337    -106.8125   -507.38082    4.2960053    4.2960053    4.2960053   -507.38082   -397.21795   -468.18916   -656.73535    880.15973    3.1247845   -103.65661    79.285622 
   68700    126.34832   -106.92625   0.11432262   -106.81193   -155.26002    4.2947105    4.2947105    4.2947105   -155.26002   -3543.2803   -1003.4991    4080.9994   -131.70639     1481.721   -1593.1207    79.213951 
   68800    58.205688   -106.86513   0.05266573   -106.81247    1651.7918    4.2956212    4.2956212    4.2956212    1651.7918   -3736.8818   -1998.9525     10691.21   -450.14877   -908.47221   -238.60741    79.264357 
   68900    109.88337   -106.91177  0.099424783   -106.81235   -759.35744    4.2950255    4.2950255    4.2950255   -759.35744   -2328.1128   -2071.1607    2121.2012    43.252697   -1385.1863    1240.3132    79.231383 
   69000    132.55421   -106.93188   0.11993783   -106.81194   -417.27179    4.2954572    4.2954572    4.2954572   -417.27179   -1233.6561   -263.32091    245.16163    480.03526   -428.58488     506.9477    79.255274 
   69100    75.996829   -106.88134  0.068763528   -106.81257    122.44864    4.2954641    4.2954641    4.2954641    122.44864   -1728.6037   -429.52625    2525.4759    1062.3135    1266.8642   -541.62814    79.255657 
   69200    90.626964   -106.89434  0.082001181   -106.81234    387.22558    4.2948499    4.2948499    4.2948499    387.22558   -5300.1454   -3447.2593    9909.0814   -803.02686     309.2298   -594.70927    79.221666 
   69300    100.99299   -106.90357  0.091380582   -106.81219   -401.66359    4.2957451    4.2957451    4.2957451   -401.66359   -2882.5823   -284.13195    1961.7235    462.33253   -1174.0367    1209.7401    79.271214 
   69400    127.56365   -106.92779   0.11542227   -106.81236   -3530.7768     4.295422     4.295422     4.295422   -3530.7768    -3545.837   -3511.1038   -3535.3897    89.565816   -794.76208    386.22492    79.253326 
   69500    87.578367   -106.89182  0.079242747   -106.81258    2210.9657    4.2952036    4.2952036    4.2952036    2210.9657   -1245.6985    2088.0736    5790.5222    1003.5934    1879.3428    -1746.095    79.241241 
   69600    77.022924   -106.88241  0.069691961   -106.81272    1011.2846    4.2948609    4.2948609    4.2948609    1011.2846   -4136.3999   -2819.3551    9989.6087    96.951202    521.85668   -1068.1162    79.222273 
   69700    96.530765   -106.89984  0.087343065   -106.81249    -1903.081     4.295683     4.295683     4.295683    -1903.081   -5274.6872   -1843.2089    1408.6532   -629.00806   -989.23484    841.30237    79.267778 
   69800    139.03035    -106.9378   0.12579758     -106.812   -1603.2263    4.2955721    4.2955721    4.2955721   -1603.2263   -3836.6459   -408.45472   -564.57827    312.98631   -476.43328    32.203215    79.261639 
   69900     99.93986   -106.90296  0.090427685   -106.81254   -399.60063    4.2951561    4.2951561    4.2951561   -399.60063   -3362.8917   -2334.3336    4498.4234    394.05085    61.576749   -90.946899    79.238611 
   70000    40.129339   -106.84928   0.03630987   -106.81297    4204.2094    4.2950185    4.2950185    4.2950185    4204.2094   -2780.5422    1231.0082    14162.162    738.85871    1849.4134   -1182.5903    79.230994 
   70100    144.99592   -106.94345   0.13119535   -106.81225   -2046.7342    4.2952091    4.2952091    4.2952091   -2046.7342   -4497.2278   -3771.4759    2128.5009   -279.44054   -181.36814    548.15956    79.241545 
   70200    93.995131   -106.89767   0.08504877   -106.81262    -1879.636     4.296095     4.296095     4.296095    -1879.636   -4919.5896    357.29683   -1076.6151    272.31653   -1269.9685    1092.3091    79.290585 
   70300       124.65   -106.92528   0.11278594   -106.81249   -488.98576     4.295096     4.295096     4.295096   -488.98576   -4880.8645   -2794.0108     6207.918   -168.48835    600.50006   -889.97908    79.235288 
   70400    57.609227   -106.86481  0.052126039   -106.81269    4142.0218    4.2948231    4.2948231    4.2948231    4142.0218   -1512.2481    508.30914    13430.005    1088.8839    1966.4282   -1286.3076    79.220184 
   70500    97.941565    -106.9012  0.088619586   -106.81258   -1808.2107    4.2955699    4.2955699    4.2955699   -1808.2107    -3818.801   -2297.2527    691.42151   -118.24031   -336.91531    692.83007    79.261513 
   70600    140.52301     -106.939   0.12714818   -106.81185   -2144.4536    4.2955074    4.2955074    4.2955074   -2144.4536   -3244.0971     -1840.47   -1348.7936   -267.49027   -245.27582    421.54585    79.258056 
   70700    88.274843   -106.89231  0.079872933   -106.81244   -232.44124    4.2955204    4.2955204    4.2955204   -232.44124   -4940.9697   -696.44713    4940.0931    68.618792   -1358.2273   -108.26003    79.258775 
   70800    73.910031   -106.87961  0.066875349   -106.81274    1000.2722    4.2950129    4.2950129    4.2950129    1000.2722   -3746.8013   -2835.0329    9582.6509   -179.96457    1465.3111   -260.06966    79.230687 
   70900    107.87578    -106.9098  0.097608272   -106.81219    810.29794    4.2953038    4.2953038    4.2953038    810.29794   -246.92856    397.78883    2280.0336    1088.8751    1046.2382    -799.9749    79.246784 
   71000    119.26501   -106.92031   0.10791349    -106.8124   -3849.7679    4.2956227    4.2956227    4.2956227   -3849.7679   -3476.4742   -3552.5851   -4520.2442   -569.38675    -1151.415    1767.2077    79.264438 
   71100    90.544574   -106.89439  0.081926633   -106.81246    27.312139    4.2955237    4.2955237    4.2955237    27.312139    -2908.979   -1706.8055    4697.7209   -53.520043   -887.03148    235.84348    79.258959 
   71200    89.731373   -106.89356  0.081190832   -106.81237    2194.2036    4.2946405    4.2946405    4.2946405    2194.2036   -4330.3646    10.421295    10902.554   -71.198742    1175.6415    -1104.753     79.21008 
   71300    95.403638   -106.89911  0.086323217   -106.81278   -1138.4871    4.2956705    4.2956705    4.2956705   -1138.4871   -541.50465   -3015.5037    141.54708    861.58463     1211.438   -77.577094    79.267083 
   71400     124.2565   -106.92464   0.11242989   -106.81221   -599.45346     4.295256     4.295256     4.295256   -599.45346   -977.91066    161.64544   -982.09517    -149.0348    -599.9007    1336.9937     79.24414 
   71500    100.90902   -106.90372  0.091304604   -106.81242   -90.566083    4.2951155    4.2951155    4.2951155   -90.566083   -1820.6369    -3168.385    4717.3237   -80.168905   -1609.0986   -239.18643    79.236363 
   71600    56.790785   -106.86422  0.051385496   -106.81284    1834.0852    4.2954601    4.2954601    4.2954601    1834.0852   -4713.9298    -856.9861    11073.172   -551.39514     -154.941   -456.07993    79.255438 
   71700     133.0802   -106.93246   0.12041376   -106.81204    510.33105    4.2947051    4.2947051    4.2947051    510.33105   -1771.8414    354.16824    2948.6663    809.21465     1457.279   -1012.1984    79.213652 
   71800    116.12618   -106.91745   0.10507341   -106.81238   -1772.6246    4.2961366    4.2961366    4.2961366   -1772.6246   -804.29985   -2883.6865   -1629.8875    243.57392   -789.95023    1026.2477    79.292891 
   71900    80.229022   -106.88536  0.072592905   -106.81277    840.72898     4.294861     4.294861     4.294861    840.72898   -2601.6008    62.309971    5061.4777   -472.09267   -1384.2334    57.767577    79.222282 
   72000    89.670207   -106.89342  0.081135488   -106.81228    2218.1072    4.2950269    4.2950269    4.2950269    2218.1072   -2828.8119   -2629.0525    12112.186    211.16509   -674.04243   -431.13307    79.231462 
   72100    98.806933   -106.90197  0.089402589   -106.81256   -1439.3135    4.2957365    4.2957365    4.2957365   -1439.3135   -5555.7373    395.27084    842.52596   -230.25631     1291.952   -600.30573    79.270741 
   72200    134.63413   -106.93404   0.12181979   -106.81222   -1469.1829    4.2951089    4.2951089    4.2951089   -1469.1829    -1057.428   -2096.2634   -1253.8574    1050.8376   -250.64325     1104.083    79.236002 
   72300    97.793791   -106.90066  0.088485878   -106.81218    385.68824    4.2957867    4.2957867    4.2957867    385.68824   -3003.5625   -1155.5653    5316.1925   -389.49821   -1737.1405    713.44748    79.273519 
   72400    40.413571   -106.84945  0.036567048   -106.81289     1561.343     4.294591     4.294591     4.294591     1561.343   -3460.3487   -1442.9658    9587.3433    183.65561   -1953.6719   -380.81149    79.207338 
   72500    138.54333   -106.93731   0.12535691   -106.81196   -1963.5375    4.2960561    4.2960561    4.2960561   -1963.5375    -5410.134   -2072.2185      1591.74   -359.36612    995.02761   -571.79409    79.288432 
   72600    119.24639   -106.92025   0.10789664   -106.81236   -1835.5771    4.2952148    4.2952148    4.2952148   -1835.5771   -3729.0338    232.42037   -2010.1177    660.18307   -630.69641     210.4956    79.241863 
   72700    94.578085    -106.8982  0.085576239   -106.81263   -982.54237    4.2954963    4.2954963    4.2954963   -982.54237   -3279.4658   -4662.6769    4994.5155   -232.93253   -1139.4833    844.82853     79.25744 
   72800    63.133077   -106.86955  0.057124135   -106.81242    3488.8319    4.2949702    4.2949702    4.2949702    3488.8319    -2403.917    618.65519    12251.758    188.25711   -1641.6534   -854.80496    79.228326 
   72900    107.01711   -106.90947  0.096831326   -106.81264   -2553.7166    4.2952531    4.2952531    4.2952531   -2553.7166   -3892.1121   -3446.7874   -322.25043   -635.11466   -432.56227   0.46462807    79.243981 
   73000    129.17148   -106.92922   0.11687707   -106.81235        -2198    4.2962387    4.2962387    4.2962387        -2198   -5560.8523   -155.95357   -877.19428     85.51711    1405.1128    90.947177    79.298541 
   73100    110.27509   -106.91229  0.099779218   -106.81251    1474.7147    4.2943526    4.2943526    4.2943526    1474.7147   -1351.3835   -1869.5384    7645.0661    662.75106   -1011.2546    1906.0045    79.194152 
   73200     54.90013   -106.86261  0.049674791   -106.81293     1181.996    4.2956639    4.2956639    4.2956639     1181.996   -4029.7035   -3656.5516    11232.243   -521.84661    -2144.035    18.541387    79.266717 
   73300    100.22915   -106.90289  0.090689442    -106.8122    418.91114    4.2951175    4.2951175    4.2951175    418.91114   -196.44114    23.543827    1429.6307     128.7233   -85.744966   -504.57096    79.236475 
   73400    149.85516    -106.9476    0.1355921   -106.81201   -3337.5317    4.2956158    4.2956158    4.2956158   -3337.5317   -5209.8534   -2669.1175   -2133.6242   -516.19024    610.35199   -84.434108    79.264056 
   73500    71.453008   -106.87761  0.064652184   -106.81295    916.99085    4.2957354    4.2957354    4.2957354    916.99085   -2713.9168   -1041.9595    6506.8488    625.26335   -367.45295    1435.6514    79.270675 
   73600    98.375184   -106.90142  0.089011934   -106.81241    2594.9799    4.2942693    4.2942693    4.2942693    2594.9799   -1388.3813   -2559.6154    11732.936   -166.77179   -941.39084   -1719.1324     79.18954 
   73700    87.844004    -106.8922  0.079483101   -106.81272   -691.33407    4.2960049    4.2960049    4.2960049   -691.33407   -1218.2321   -1971.6102    1115.8401   -450.11773    -1334.832   -151.15985    79.285599 
   73800    115.56767   -106.91696   0.10456806    -106.8124   -2519.2412    4.2953741    4.2953741    4.2953741   -2519.2412   -2035.4813   -730.72426   -4791.5179   -779.62728    1715.2364   -387.89511    79.250676 
   73900    122.06333   -106.92257   0.11044546   -106.81212   -56.192315    4.2953939    4.2953939    4.2953939   -56.192315   -4385.0977   -1978.8173    6195.3381    609.62888     671.6267    1215.5407    79.251774 
   74000    53.201134   -106.86094  0.048137504    -106.8128    2037.4793    4.2952358    4.2952358    4.2952358    2037.4793   -1063.5403   -2030.1496    9206.1276   -285.28256   -1578.0903    586.95111    79.243022 
   74100     120.1698   -106.92092   0.10873216   -106.81218   -820.06139    4.2950977    4.2950977    4.2950977   -820.06139   -1886.6377   -1764.8452    1191.2987    109.39322   -1103.6886   -449.15833    79.235379 
   74200    113.00561   -106.91435   0.10224985    -106.8121   -819.82356    4.2956751    4.2956751    4.2956751   -819.82356    817.50366   -420.85471   -2856.1196   -378.04166    902.30612   -26.500976     79.26734 
   74300    91.200872   -106.89516  0.082520466   -106.81264   -1298.6378    4.2951702    4.2951702    4.2951702   -1298.6378   -5443.0202   -1123.6681    2670.7749   -9.9235383    483.35796    926.46481    79.239391 
   74400    87.179777   -106.89127  0.078882094   -106.81238    2605.9401    4.2950809    4.2950809    4.2950809    2605.9401   -1231.9773   -2386.0557    11435.853    779.07534    -656.0552   -183.67301    79.234451 
   74500    107.56106    -106.9096  0.097323503   -106.81228    -287.6264     4.295275     4.295275     4.295275    -287.6264   -1962.1987   -559.61392    1658.9335   -433.42035    -1491.066   -1531.5552     79.24519 
   74600    111.19709   -106.91279   0.10061347   -106.81218   -1997.8982    4.2956867    4.2956867    4.2956867   -1997.8982   -773.78882   -2209.8485   -3010.0572   -184.43056    534.15533     164.3012    79.267982 
   74700    101.03008   -106.90353  0.091414138   -106.81212    1431.4295    4.2950084    4.2950084    4.2950084    1431.4295   -2257.4229    1455.0037    5096.7077   -543.89844    1543.8859    126.32795    79.230436 
   74800    78.466262   -106.88357  0.070997923   -106.81257     814.3175    4.2950539    4.2950539    4.2950539     814.3175   -4913.5249   -3485.7696    10842.247    368.11021   -623.45377    1570.4605    79.232956 
   74900    100.74068   -106.90362  0.091152287   -106.81247    100.53003    4.2955006    4.2955006    4.2955006    100.53003   -1565.8395   -1317.7411    3185.1706   -70.751723   -1527.1296    -605.7441    79.257679 
   75000    141.10556   -106.93971   0.12767528   -106.81204   -1779.8045    4.2953915    4.2953915    4.2953915   -1779.8045   -1407.1454   -1435.7444   -2496.5237   -237.81999    73.165428    605.81558    79.251639 
   75100    70.067208   -106.87608  0.063398282   -106.81268   -178.67254    4.2955988    4.2955988    4.2955988   -178.67254   -2587.9452   -2202.5694     4254.497   -585.73021    1321.9579    816.76368    79.263114 
   75200    79.216177   -106.88416  0.071676462   -106.81248    1978.9908    4.2949356    4.2949356    4.2949356    1978.9908   -4289.2915    -212.9977    10439.262    653.40279    99.363248    1631.6088    79.226408 
   75300     123.2993   -106.92383    0.1115638   -106.81227   -1220.0448     4.295553     4.295553     4.295553   -1220.0448   -3028.8908   -4745.4427    4114.1991    107.23705   -1493.8186    -1430.161     79.26058 
   75400     106.5785   -106.90895  0.096434468   -106.81252   -2470.0926     4.295806     4.295806     4.295806   -2470.0926   -2249.2856   -347.49765   -4813.4947   -348.76123   -147.69903    401.05459    79.274584 
   75500    111.07991    -106.9128   0.10050743   -106.81229    -446.8133    4.2953291    4.2953291    4.2953291    -446.8133   -864.94276   -4235.2175    3759.7204   -406.66173    1925.2724   -8.4542803    79.248188 
   75600    52.117597   -106.85989  0.047157097   -106.81273    1677.1433    4.2951253    4.2951253    4.2951253    1677.1433   -4521.9855   -217.45177    9770.8671   -469.91595    243.37534    1563.5071    79.236908 
   75700    109.66486   -106.91165  0.099227067   -106.81243   -1602.4246    4.2956276    4.2956276    4.2956276   -1602.4246   -2591.7968   -4825.2721     2609.795    447.62422   -587.86545    -125.4909    79.264708 
   75800    147.66977   -106.94557   0.13361471   -106.81195    -1775.272    4.2954655    4.2954655    4.2954655    -1775.272   -2436.1104   -1060.8598   -1828.8459   -498.62043   -989.57889    226.67124    79.255736 
   75900    75.432803   -106.88104  0.068253186   -106.81279    222.67198    4.2952811    4.2952811    4.2952811    222.67198   -65.488286   -2889.4752    3622.9795   -316.84014    1448.6905    1266.6905    79.245528 
   76000    73.609511   -106.87915  0.066603433   -106.81254    1498.2815    4.2951214    4.2951214    4.2951214    1498.2815   -3085.6817    -2611.081    10191.607   -256.14387    1272.2991    895.02175    79.236693 
   76100    99.667679   -106.90237   0.09018141   -106.81219    628.98677    4.2950644    4.2950644    4.2950644    628.98677   -2472.7448     -706.997    5066.7021    333.94585   -989.24881    785.38773    79.233534 
   76200    144.24403   -106.94267   0.13051503   -106.81215   -3849.6625    4.2961154    4.2961154    4.2961154   -3849.6625   -2606.8027   -5393.0531   -3549.1315   -2.0456986   -613.67664   -826.24815    79.291717 
   76300    89.494708   -106.89351  0.080976693   -106.81254     2734.547    4.2946405    4.2946405    4.2946405     2734.547   -718.74679    1058.2628     7864.125    255.78175    1869.1847    340.62343     79.21008 
   76400    75.113752   -106.88051  0.067964501   -106.81255    2206.2248     4.294924     4.294924     4.294924    2206.2248   -101.10931   -4381.4453    11101.229   -749.24067    859.09076    500.08575    79.225765 
   76500    84.343758   -106.88891  0.076316005   -106.81259   -141.95485    4.2952957    4.2952957    4.2952957   -141.95485   -4274.2089    743.83502    3104.5093    116.01018    75.707601    1057.1987     79.24634 
   76600     150.1076   -106.94787   0.13582051   -106.81205   -2051.6575    4.2954982    4.2954982    4.2954982   -2051.6575   -813.56774    -3298.232   -2043.1728    200.77436   -1083.4655   -1272.3257    79.257544 
   76700    101.36728   -106.90421  0.091719247   -106.81249    5.0660454    4.2955474    4.2955474    4.2955474    5.0660454   -3720.5713   -2390.2869    6126.0563    -299.8524    241.28717    1048.3233    79.260269 
   76800    50.305229   -106.85828  0.045517228   -106.81276    3536.8049    4.2946635    4.2946635    4.2946635    3536.8049    435.80115   -1075.7961     11250.41   -96.082932    1765.3569    133.12951    79.211354 
   76900    119.88794   -106.92055   0.10847712   -106.81207   -875.32971    4.2956155    4.2956155    4.2956155   -875.32971   -3749.1703   -2300.1471    3423.3283   -619.23783    313.34146    1838.3118     79.26404 
   77000    107.92046   -106.91002    0.0976487   -106.81237   -2612.8529    4.2956227    4.2956227    4.2956227   -2612.8529   -3409.0714    121.11725   -4550.6046    498.38883   -1498.5158   -682.19121    79.264437 
   77100    118.68498   -106.91997   0.10738866   -106.81258    -1063.099    4.2956529    4.2956529    4.2956529    -1063.099   -3445.5604   -3879.8176    4136.0811    17.906917     869.7906    15.082769    79.266109 
   77200    70.700385   -106.87671  0.063971194   -106.81274    2727.5837    4.2949054    4.2949054    4.2949054    2727.5837   -2372.7712   -974.72209    11530.244   -94.778359    1650.6956     736.5245    79.224737 
   77300    82.917606   -106.88768  0.075025592   -106.81265   -646.04036    4.2954298    4.2954298    4.2954298   -646.04036   -1920.2145   -2194.9609    2177.0543   -895.58251    376.66905     1451.013    79.253759 
   77400    139.50406   -106.93817   0.12622621   -106.81194   -3027.0582    4.2959216    4.2959216    4.2959216   -3027.0582   -4675.0745   -681.01313    -3725.087    325.95441   -671.31941    -868.2619    79.280985 
   77500    98.128397    -106.9013  0.088788636   -106.81251   -364.31466    4.2949911    4.2949911    4.2949911   -364.31466   -3295.7094      -2161.4    4364.1655   -405.82536   -829.95754    -152.7653    79.229477 
   77600    75.453131   -106.88094  0.068271578   -106.81267    1209.9946    4.2956055    4.2956055    4.2956055    1209.9946   -3981.8295   -2556.7996    10168.613     306.7977    1358.8616    519.04275    79.263488 
   77700    99.593437   -106.90241  0.090114235   -106.81229    1163.7314    4.2947197    4.2947197    4.2947197    1163.7314   -216.94856   -1242.8657    4951.0084   -1073.8951    1180.6058    536.04308    79.214462 
   77800    119.60675   -106.92038    0.1082227   -106.81216   -2894.6143    4.2959921    4.2959921    4.2959921   -2894.6143    -4318.159   -857.94408   -3507.7399   -339.98388   -644.45263    954.98289    79.284888 
   77900    98.957042   -106.90183  0.089538411   -106.81229     -553.801    4.2953693    4.2953693    4.2953693     -553.801   -3042.8681   -2674.2231    4055.6882    245.32791   -730.20864   -1337.7762     79.25041 
   78000     87.29425   -106.89126  0.078985672   -106.81228     2297.425    4.2945532    4.2945532    4.2945532     2297.425   -4153.9139     -642.762    11688.951    -415.3342    1641.3543    792.50404     79.20525 
   78100    97.287693   -106.90048  0.088027949   -106.81245   -442.05822    4.2958239    4.2958239    4.2958239   -442.05822   -929.05451   -3543.6341    3146.5139    131.68227    1325.9445    1143.9386    79.275576 
   78200    112.92784   -106.91438   0.10217949    -106.8122   -771.25157    4.2948255    4.2948255    4.2948255   -771.25157   -1695.5201    1929.3836   -2547.6182   -1441.6011    -64.47886    188.75474    79.220315 
   78300    112.19714   -106.91376   0.10151833   -106.81224   -1094.4252    4.2959845    4.2959845    4.2959845   -1094.4252   -3434.0082   -3843.5941    3994.3266    395.12357   -1579.8449    -1682.277    79.284465 
   78400    61.754636   -106.86862  0.055876892   -106.81275    1638.9145    4.2948516    4.2948516    4.2948516    1638.9145   -3695.7029   -1023.7902    9636.2366   -249.58115    776.43271     562.6061    79.221759 
   78500    119.01089   -106.91984   0.10768356   -106.81216   -229.30928    4.2953618    4.2953618    4.2953618   -229.30928   -2457.8421   -2364.1096    4134.0239    29.270828    1082.5595   -589.98216    79.249999 
   78600    118.74214   -106.91961   0.10744038   -106.81217   -1674.8037    4.2958248    4.2958248    4.2958248   -1674.8037   -8.2707026   -1402.1739   -3613.9666   -1199.3954    325.93413    819.45191    79.275627 
   78700     81.65049   -106.88643  0.073879079   -106.81255   -126.44207    4.2949429    4.2949429    4.2949429   -126.44207   -2832.1229    1143.8751    1308.9216    130.24871   -1243.3041   -1913.0638    79.226814 
   78800    95.405569   -106.89859  0.086324964   -106.81226    836.42829      4.29584      4.29584      4.29584    836.42829   -3273.9342   -4905.2664    10688.486   -348.67755   -100.78583    305.84948     79.27647 
   78900    89.060022   -106.89313  0.080583379   -106.81254    509.38321    4.2947344    4.2947344    4.2947344    509.38321   -3693.9661    2011.5768    3210.5389    322.81354    1758.5905    894.40581    79.215274 
   79000    138.05387   -106.93715   0.12491404   -106.81224   -2677.9731    4.2961554    4.2961554    4.2961554   -2677.9731   -373.91039   -4417.2946   -3242.7144    -955.7282    777.23777    796.40653    79.293933 
   79100    87.319733   -106.89144  0.079008729   -106.81243    1750.6607    4.2948361    4.2948361    4.2948361    1750.6607   -1418.3651    3048.4835    3621.8636   -574.31362   -2024.3597   -1286.5292    79.220902 
   79200     70.55473   -106.87642  0.063839403   -106.81258     861.8178    4.2950552    4.2950552    4.2950552     861.8178   -2948.3742   -3320.2188    8854.0464    386.49789    -627.1757   -248.05349    79.233028 
   79300    105.27171   -106.90744  0.095252055   -106.81219    273.73878     4.295785     4.295785     4.295785    273.73878   -4512.2106    -34.00933    5367.4363   -447.42093    967.70205   -166.18657    79.273424 
   79400    139.88655   -106.93856   0.12657229   -106.81199     -1196.75    4.2947855    4.2947855    4.2947855     -1196.75   -1664.3919   -708.60929   -1217.2488    196.64506    247.02127   -232.98906    79.218102 
   79500    86.958497    -106.8912  0.078681875   -106.81252    129.21467    4.2959256    4.2959256    4.2959256    129.21467   -1559.2421   -1690.7733    3637.6594   -1230.3289    -809.1017   -847.70032    79.281205 
   79600    68.423226   -106.87429  0.061910773   -106.81238    3156.2859    4.2942658    4.2942658    4.2942658    3156.2859   -2737.5952    724.34853    11482.104     214.4526   -1400.8021   -945.96361    79.189349 
   79700    106.02047   -106.90815  0.095929552   -106.81222   -809.67041    4.2954417    4.2954417    4.2954417   -809.67041   -4130.4296   -2761.3506    4462.7689   -786.42228    407.15084    686.36968    79.254419 
   79800    127.74159   -106.92776   0.11558327   -106.81218   -2587.6131    4.2959547    4.2959547    4.2959547   -2587.6131   -5311.9536   -38.714596   -2412.1711      573.164    1540.9471    606.62999    79.282819 
   79900    114.09725   -106.91571   0.10323759   -106.81247    898.38144    4.2945973    4.2945973    4.2945973    898.38144     -1567.03   -1517.6453    5779.8195   -1514.8072   -809.67137    597.39011    79.207688 
   80000    55.670639    -106.8633  0.050371964   -106.81292    1650.4852    4.2956785    4.2956785    4.2956785    1650.4852   -3885.2108   -951.56103    9788.2274   -146.62884   -2116.9862   -1432.3983    79.267527 
   80100    85.468172    -106.8899  0.077333398   -106.81257   -376.12881    4.2948066    4.2948066    4.2948066   -376.12881   -3433.1836   -1662.1325    3966.9297   -718.46137    281.65325    149.97321    79.219267 
   80200    155.05921   -106.95225   0.14030083   -106.81195   -3843.3599    4.2961145    4.2961145    4.2961145   -3843.3599   -6261.9602   -2278.7185   -2989.4011   -92.731424    508.63316   -142.26218    79.291664 
   80300    93.743777   -106.89756  0.084821339   -106.81273     -1064.86    4.2956109    4.2956109    4.2956109     -1064.86   -4389.7887   -1644.5599    2839.7687   -59.057014   -55.252161   -598.51454    79.263786 
   80400     66.78067   -106.87314  0.060424554   -106.81271    2764.7193    4.2947374    4.2947374    4.2947374    2764.7193   -3001.9699   -830.50232     12126.63   -1644.1975   -1620.8148   -2130.0452     79.21544 
   80500    101.53125    -106.9043  0.091867612   -106.81244   -882.36498    4.2959132    4.2959132    4.2959132   -882.36498   -3150.8672   -2696.5045    3200.2767    216.19331   -1143.8273    639.79185    79.280521 
   80600    100.70815   -106.90355  0.091122849   -106.81243   -2691.8868    4.2954091    4.2954091    4.2954091   -2691.8868   -4218.7533   -143.70454   -3713.2026   -1245.5411    1200.0665   -308.33585    79.252617 
   80700    146.79389   -106.94488    0.1328222   -106.81206   -2468.4944    4.2959709    4.2959709    4.2959709   -2468.4944   -6514.2595   -4614.7953    3723.5716    423.48896    885.54678     974.5777    79.283717 
   80800     50.31864   -106.85847  0.045529363   -106.81294    3608.3646    4.2946793    4.2946793    4.2946793    3608.3646   -2403.6841    1769.0865    11459.691   -1273.5893   -1385.9732   -398.77999    79.212227 
   80900    99.696332   -106.90293  0.090207336   -106.81272   -816.95031    4.2954566    4.2954566    4.2954566   -816.95031   -3144.5866   -3974.0631    4667.7988   -345.59622   -1338.1261   -787.52111    79.255242 
   81000    119.35913   -106.92009   0.10799865   -106.81209   -541.15223    4.2955684    4.2955684    4.2955684   -541.15223   -898.84857    1415.1816   -2139.7897   -659.16262    549.86542    253.15828    79.261433 
   81100    102.96174   -106.90555  0.093161946   -106.81238   -1193.3805     4.295184     4.295184     4.295184   -1193.3805   -5327.0721   -1938.0921    3685.0227    96.312994    1144.1486   -111.89797    79.240157 
   81200     90.63781   -106.89446  0.082010995   -106.81245    1420.0057     4.295313     4.295313     4.295313    1420.0057    -4421.178   -1985.2679    10666.463   -203.89722   -652.87218   -1706.2298    79.247296 
   81300    90.606315   -106.89417  0.081982498   -106.81219    2497.2674    4.2946446    4.2946446    4.2946446    2497.2674   -1097.6458    2385.6904    6203.7578    -712.6043   -1847.0979    -376.7644    79.210307 
   81400    123.87754   -106.92426     0.112087   -106.81217   -3234.8987    4.2957266    4.2957266    4.2957266   -3234.8987    -1691.326   -3940.0902     -4073.28   -329.63874     568.8865    272.31603    79.270192 
   81500    78.080006   -106.88307   0.07064843   -106.81242    2324.1232    4.2951091    4.2951091    4.2951091    2324.1232    -1494.827    3795.0642    4672.1324   -820.49865    1444.6977    218.87892    79.236009 
   81600    117.57295   -106.91858   0.10638247    -106.8122   -134.79103    4.2948624    4.2948624    4.2948624   -134.79103   -5601.2132    -4520.409    9717.2491    698.63449    527.10519     929.9091     79.22236 
   81700     66.74607   -106.87325  0.060393247   -106.81286    1283.2006    4.2955101    4.2955101    4.2955101    1283.2006   -2862.8307    2799.6463    3912.7863   -1325.3943   -1183.9497   -1026.4263    79.258207 
   81800    154.65714   -106.95194   0.13993703   -106.81201   -2362.2145    4.2952357    4.2952357    4.2952357   -2362.2145   -989.49765   -2965.9869   -3131.1588    38.049452   -577.06283    261.62818    79.243016 
   81900    67.653897   -106.87393  0.061214668   -106.81271    931.55991    4.2952814    4.2952814    4.2952814    931.55991   -1001.9716     966.2497    2830.4016    -794.5347    1788.0108    455.04015    79.245546 
   82000    79.064062   -106.88412  0.071538825   -106.81258    772.60589    4.2954763    4.2954763    4.2954763    772.60589   -4486.9002   -2343.2978    9148.0157    343.87749    1245.2222    -535.5409    79.256332 
   82100    125.27476   -106.92527   0.11335124   -106.81192    308.55332    4.2949211    4.2949211    4.2949211    308.55332   -4730.4028   -384.98472    6041.0474   -189.62381   -1726.3504   -1526.8778    79.225607 
   82200    110.19387   -106.91195  0.099705731   -106.81224   -2507.6593    4.2961893    4.2961893    4.2961893   -2507.6593   -2468.8778   -424.98144   -4629.1188   -818.40813   -391.35269    767.29218    79.295807 
   82300    103.13718   -106.90586  0.093320685   -106.81254   -293.98721    4.2949992    4.2949992    4.2949992   -293.98721   -1681.9471   -2478.9481    3278.9335   -316.16308    1491.1003   -427.90124    79.229927 
   82400    60.686574    -106.8676  0.054910487   -106.81269    3045.1984    4.2949861    4.2949861    4.2949861    3045.1984   -1684.8687    422.33945    10398.125   -573.47696    1504.4007     613.1463    79.229205 
   82500    103.52137   -106.90631  0.093668315   -106.81264   -1821.2888    4.2957821    4.2957821    4.2957821   -1821.2888   -6681.2434   -3560.8253    4778.2024    36.582883    264.76566   -506.06151    79.273265 
   82600    144.71151   -106.94296   0.13093801   -106.81202   -1403.6515    4.2952591    4.2952591    4.2952591   -1403.6515   -3666.5526    431.55944   -975.96126   -1188.4952   -1059.8272    106.81232    79.244314 
   82700    100.64749   -106.90355  0.091067968   -106.81248   -647.97137    4.2957994    4.2957994    4.2957994   -647.97137   -2947.4037   -2280.6474     3284.137    105.23729    733.53654    9.9522637     79.27422 
   82800    43.041212   -106.85192  0.038944594   -106.81297     2245.391    4.2946634    4.2946634    4.2946634     2245.391   -1804.8187   -1300.9419    9841.9334   -1555.4221    2450.3891    405.27674    79.211347 
   82900    113.36403   -106.91468   0.10257415   -106.81211    355.53555    4.2954084    4.2954084    4.2954084    355.53555   -3372.0968   -2130.7102    6569.4137    790.69073    210.09982   -852.58452    79.252575 
   83000    132.62552   -106.93229   0.12000236   -106.81229   -3352.7272    4.2957587    4.2957587    4.2957587   -3352.7272   -6277.6064   -1140.5938   -2639.9814   -1084.9582     -1306.42   -317.28298    79.271969 
   83100    109.83598   -106.91179  0.099381906    -106.8124   -753.55535    4.2952757    4.2952757    4.2952757   -753.55535   -4106.7036   -2860.2829    4706.3204   -236.12299    635.97734    280.74405    79.245229 
   83200    68.661837   -106.87457  0.062126673   -106.81244    2796.5788    4.2950462    4.2950462    4.2950462    2796.5788   -2218.0942    624.74625    9983.0845    -446.8244    1701.4364    309.56291    79.232527 
   83300    74.172697   -106.88012  0.067113015   -106.81301   -823.28716    4.2949848    4.2949848    4.2949848   -823.28716   -2088.2619   -3668.6067    3287.0072   -835.28459    1588.3978   -488.81838     79.22913 
   83400    137.85435   -106.93696   0.12473351   -106.81222   -2095.1485     4.295966     4.295966     4.295966   -2095.1485   -4519.4631    694.39619   -2460.3786    560.29892   -670.40965   -128.41609    79.283445 
   83500    129.12912   -106.92923   0.11683874   -106.81239   -1273.4631     4.295081     4.295081     4.295081   -1273.4631   -4668.8847   -3048.3151    3896.8105   -1213.9303   -540.41214    496.91672    79.234452 
   83600    52.223736   -106.86024  0.047253133   -106.81299     1453.601    4.2953998    4.2953998    4.2953998     1453.601   -3999.2693   -1009.9358    9370.0083    307.95122    1667.5236   -414.66555    79.252097 
   83700    90.734607   -106.89432  0.082098579   -106.81222     1471.858    4.2950908    4.2950908    4.2950908     1471.858    515.87333   -1173.5558    5073.2564   -873.63475    1819.5272    486.94769    79.234999 
   83800     127.5951   -106.92762   0.11545073   -106.81217   -3227.5234    4.2955892    4.2955892    4.2955892   -3227.5234   -2677.5609   -2197.9475   -4807.0619    609.18517   -610.26253    -447.1005    79.262586 
   83900    94.880529   -106.89846  0.085849897   -106.81261     -80.4737    4.2958517    4.2958517    4.2958517     -80.4737   -4088.8723    256.36987    3591.0814   -943.44877   -1213.3025    324.30504    79.277118 
   84000    121.66317   -106.92219    0.1100834   -106.81211    986.55725    4.2946173    4.2946173    4.2946173    986.55725   -3484.0935   -3811.2251     10254.99    490.53603    912.25393    189.04511    79.208798 
   84100    43.519025   -106.85218  0.039376928    -106.8128    2011.5345    4.2955831    4.2955831    4.2955831    2011.5345   -1197.6404    1723.6909    5508.5531   -631.90762    2288.8032   -60.395363    79.262244 
   84200    141.05154   -106.93971    0.1276264   -106.81209   -2750.4735    4.2954258    4.2954258    4.2954258   -2750.4735    868.20118   -4913.4948   -4206.1268    251.28457   -98.980816   -781.07265    79.253537 
   84300    101.91046    -106.9046  0.092210724   -106.81239    1091.0361    4.2951193    4.2951193    4.2951193    1091.0361   -2987.4666    2631.0538    3629.5211   -363.85855   -1313.6365    718.04314    79.236576 
   84400    85.477846   -106.89004  0.077342151    -106.8127    117.69749    4.2956437    4.2956437    4.2956437    117.69749   -3852.1749   -4805.0616     9010.329   -208.70017    363.37281    -1210.577      79.2656 
   84500    102.34014   -106.90476  0.092599514   -106.81216    1749.4351    4.2945789    4.2945789    4.2945789    1749.4351   -1931.1901    941.07073    6238.4246    78.317698    1492.5313    538.49009    79.206673 
   84600    104.91202   -106.90706  0.094926604   -106.81214   -1062.3953    4.2959438    4.2959438    4.2959438   -1062.3953    1597.1385   -2173.7115    -2610.613   -757.91435    582.80473    109.04338    79.282216 
   84700     100.5601   -106.90343  0.090988894   -106.81244   -1313.4413    4.2950962    4.2950962    4.2950962   -1313.4413   -2046.9637   -2414.9221     521.5618    252.84265   -1564.0407   -481.81319    79.235298 
   84800    91.521278   -106.89501  0.082810375    -106.8122    2618.2749     4.295046     4.295046     4.295046    2618.2749   -2905.2682    43.139872    10716.953   -883.89131   -979.15545    149.56459     79.23252 
   84900    103.72191   -106.90617  0.093849766   -106.81232   -1261.5811    4.2954583    4.2954583    4.2954583   -1261.5811    -4518.232   -3765.7028    4499.1915    335.70309    2090.2682    469.49895    79.255336 
   85000    104.67853   -106.90703  0.094715335   -106.81232   -1012.3631     4.295189     4.295189     4.295189   -1012.3631    151.20226    195.62717   -3383.9187   -1137.0048    922.01676   -1059.8513    79.240434 
   85100    113.86587   -106.91526   0.10302823   -106.81223   -372.99941    4.2956697    4.2956697    4.2956697   -372.99941   -33.919712    -3062.886    1977.8075    526.99212    -1624.722    62.999989    79.267042 
   85200     60.44603   -106.86764  0.054692838   -106.81295    990.84489    4.2947355    4.2947355    4.2947355    990.84489    -4142.114     -1373.13    8487.7787   -988.85554   -749.49643   -427.22244    79.215333 
   85300    114.12926   -106.91552   0.10326656   -106.81225   -334.40432    4.2958215    4.2958215    4.2958215   -334.40432   -4164.7395   -2834.3098    5995.8363    415.33928    856.15507   -774.84351    79.275443 
   85400    134.27656   -106.93356   0.12149626   -106.81207    -2490.283    4.2953222    4.2953222    4.2953222    -2490.283   -3121.7097   -1322.6748   -3026.4645   -659.56664    829.24028     338.6197    79.247807 
   85500    74.437657   -106.88002  0.067352757   -106.81267    -636.7428    4.2956119    4.2956119    4.2956119    -636.7428    256.77961   -2304.1547    137.14673   -152.72232   -651.40836    -192.7832    79.263838 
   85600    88.397495   -106.89232  0.079983911   -106.81234    2172.8555    4.2951317    4.2951317    4.2951317    2172.8555   -2752.6862   -1104.8742    10376.127   -127.61092   -2238.0949    323.24298    79.237262 
   85700     91.25355   -106.89514   0.08256813   -106.81257    295.88118    4.2949487    4.2949487    4.2949487    295.88118   -3781.2986   -2621.9823    7290.9244   -938.82618    516.34702    3.1849583    79.227133 
   85800    132.51173   -106.93207    0.1198994   -106.81217   -3375.0922    4.2964819    4.2964819    4.2964819   -3375.0922    -5502.364    -1310.156   -3312.7568    549.35418    1719.5393    274.16362    79.312009 
   85900    120.18107   -106.92086   0.10874235   -106.81212   -245.72783     4.294781     4.294781     4.294781   -245.72783    260.37367   -2935.6881    1938.1309   -694.67991   -639.08804   -343.26934    79.217855 
   86000    38.724362   -106.84803  0.035038617   -106.81299    2318.1889    4.2954017    4.2954017    4.2954017    2318.1889   -2285.2663    390.28591    8849.5472    129.51105    -1776.909   -246.67518    79.252205 
   86100    105.22077   -106.90769  0.095205968   -106.81248    308.52358    4.2952681    4.2952681    4.2952681    308.52358   -2568.7306   -3897.9162    7392.2175   -428.06952    91.700729   -1273.0144    79.244812 
   86200     139.1899   -106.93799   0.12594194   -106.81205   -1246.1953    4.2952795    4.2952795    4.2952795   -1246.1953   -4234.7523    911.97147   -415.80508    444.89762    736.54292    247.94014     79.24544 
   86300    109.56684   -106.91168   0.09913838   -106.81254   -2525.3803    4.2962329    4.2962329    4.2962329   -2525.3803   -3508.0428   -3767.5496   -300.54858   -415.34353    437.33015    -445.7622    79.298222 
   86400    63.400139   -106.86999  0.057365778   -106.81262    3363.8686    4.2941123    4.2941123    4.2941123    3363.8686    1050.2386   -1160.1606    10201.528    294.23314   -1921.7487    156.50393    79.180856 
   86500    80.241123   -106.88509  0.072603854   -106.81249    980.22822    4.2955526    4.2955526    4.2955526    980.22822   -2652.9399   -313.98156    5907.6061   -666.39668   -993.45285   -284.66429    79.260555 
   86600    134.77183   -106.93412   0.12194438   -106.81217   -3084.0952    4.2955352    4.2955352    4.2955352   -3084.0952   -2437.0464   -4392.5525   -2422.6867    35.579663     1280.529    137.53718    79.259596 
   86700    124.51432   -106.92491   0.11266318   -106.81224    326.72667    4.2950665    4.2950665    4.2950665    326.72667   -3696.8417    2339.2073    2337.8145    -25.33536    996.49602   -133.87526    79.233652 
   86800     76.65168     -106.882  0.069356051   -106.81265    428.21777     4.295529     4.295529     4.295529    428.21777   -657.88801   -6089.5495    8032.0908    -324.9783   -1334.2574   -546.23025    79.259251 
   86900    48.256364   -106.85657  0.043663373   -106.81291    2736.5275    4.2943923    4.2943923    4.2943923    2736.5275    382.16392    1993.7071    5833.7116    288.97561   -1386.7652   -1172.8655    79.196346 
   87000    156.92037   -106.95393   0.14198485   -106.81194   -3008.9527     4.296139     4.296139     4.296139   -3008.9527   -1818.9034   -5110.7294   -2097.2254   -346.96216    694.67208   -538.92055    79.293023 
   87100    105.71953   -106.90818  0.095657251   -106.81252   -1385.2174    4.2952481    4.2952481    4.2952481   -1385.2174   -3877.6529   -70.722882   -207.27634    338.75795     1038.082   -1012.2797    79.243701 
   87200    87.810199   -106.89204  0.079452513   -106.81259    1603.2043    4.2952193    4.2952193    4.2952193    1603.2043   -1904.7371   -3135.9742    9850.3244   -97.921039   -1048.0572   -74.364281    79.242107 
   87300    78.850617    -106.8838  0.071345696   -106.81246    1574.9343    4.2952129    4.2952129    4.2952129    1574.9343    11.716766   -1860.4694    6573.5556    92.719209   -1780.8764   -236.37428    79.241756 
   87400    94.036895   -106.89749  0.085086558   -106.81241   -1558.8772    4.2953211    4.2953211    4.2953211   -1558.8772   -424.28079   -1134.2336   -3118.1173   -740.46754    185.28127   -1099.9096    79.247742 
   87500    151.31506   -106.94885   0.13691304   -106.81194    -2485.822    4.2961685    4.2961685    4.2961685    -2485.822   -3428.1983   -3774.5859   -254.68174    48.492218    1240.7086    1096.4028    79.294658 
   87600    74.431108   -106.87993   0.06734683   -106.81258    1858.0087    4.2946952    4.2946952    4.2946952    1858.0087   -3881.5383    -303.1709    9758.7354   -247.94075    471.30602   -479.55634    79.213104 
   87700    77.110399   -106.88243  0.069771109   -106.81265     457.2089    4.2955958    4.2955958    4.2955958     457.2089   -790.38677   -4156.1733    6318.1868    271.96229   -1986.4752   -774.59169    79.262952 
   87800    116.32362   -106.91743   0.10525206   -106.81217   -342.96175    4.2953058    4.2953058    4.2953058   -342.96175   -209.70697    591.44752   -1410.6258   -717.05677   -147.41542   -757.82136    79.246896 
   87900    109.62274   -106.91175  0.099188959   -106.81256   -1983.4247    4.2954356    4.2954356    4.2954356   -1983.4247    -1991.039   -2561.2001    -1398.035    376.34205    1679.9963   -219.04697     79.25408 
   88000     96.80444   -106.90011  0.087590692   -106.81252    316.05448    4.2957252    4.2957252    4.2957252    316.05448   -5336.9819   -1154.0494    7439.1948    283.36484     451.4884   -352.29841    79.270114 
   88100    92.698987   -106.89607  0.083875991   -106.81219    1645.7476    4.2944517    4.2944517    4.2944517    1645.7476    -1441.142   -2098.2692     8476.654   -119.23311   -2043.1575    223.14416    79.199632 
   88200    90.448644   -106.89423  0.081839834   -106.81239    -1476.872    4.2959948    4.2959948    4.2959948    -1476.872    -1301.256   -649.31462   -2480.0454    108.81618   -76.113082   -1070.2365    79.285037 
   88300    125.04615    -106.9251   0.11314438   -106.81196   -1223.5823      4.29524      4.29524      4.29524   -1223.5823   -277.53421   -2013.6539   -1379.5589   -797.43033    778.50589    936.15995    79.243255 
   88400    85.825753   -106.89005  0.077656945   -106.81239    1410.8909    4.2949544    4.2949544    4.2949544    1410.8909   -4561.1189    259.15409    8534.6375    472.93926    1743.7602    190.03751    79.227448 
   88500    93.092439   -106.89681  0.084231995   -106.81258   -583.91952    4.2957259    4.2957259    4.2957259   -583.91952   -3708.9243   -3560.9505    5518.1163   -238.44357   -801.58264   -742.29522    79.270152 
   88600    108.78825   -106.91055  0.098433892   -106.81211    390.68057     4.294702     4.294702     4.294702    390.68057    378.93206    821.14366   -28.034014    244.29899   -1211.1732   -289.50029    79.213484 
   88700    114.60361   -106.91585   0.10369576   -106.81216   -2330.1551    4.2960958    4.2960958    4.2960958   -2330.1551   -911.61716   -2973.0184   -3105.8298   -600.69414    1408.4599   -172.59161     79.29063 
   88800    66.454391   -106.87283  0.060129329    -106.8127    2044.1147    4.2947614    4.2947614    4.2947614    2044.1147   -1439.0587   -344.87765    7916.2804    719.49128    1771.0338   -301.82345     79.21677 
   88900    120.67329   -106.92134   0.10918773   -106.81216     281.5735     4.295255     4.295255     4.295255     281.5735   -5051.1044   -2242.1503    8137.9752    -187.9938   -1221.6326    209.62065    79.244086 
   89000     96.73977   -106.89993  0.087532177    -106.8124   -1150.0714    4.2957641    4.2957641    4.2957641   -1150.0714   -518.30385   -1864.6118   -1067.2985    558.42214   -940.71249   -1117.2127    79.272266 
   89100    115.74785   -106.91686   0.10473109   -106.81213   -1255.9699    4.2951688    4.2951688    4.2951688   -1255.9699    179.60102   -520.71174    -3426.799   -583.81949    571.96344   -423.36874    79.239314 
   89200    82.489909    -106.8869  0.074638603   -106.81226    1473.8415     4.295552     4.295552     4.295552    1473.8415   -473.43789   -3540.7223    8435.6848   -259.85845    1732.9446     1034.992    79.260525 
   89300    75.748677    -106.8811  0.068538995   -106.81256    974.62877    4.2949818    4.2949818    4.2949818    974.62877    -3960.478   -198.37481    7082.7391    419.11376    613.57536   -1338.7351    79.228964 
   89400    144.96071   -106.94304    0.1311635   -106.81188   -1920.5138     4.295789     4.295789     4.295789   -1920.5138   -2405.6993   -4861.0449    1505.2028   -270.80812   -1540.4464   -221.80827    79.273644 
   89500    98.343397   -106.90132  0.088983173   -106.81233   -469.07614    4.2954521    4.2954521    4.2954521   -469.07614    123.50748    1596.2317   -3126.9676   -295.03503    323.86518   -285.30339    79.254994 
   89600    77.696266   -106.88306  0.070301214   -106.81276    224.87623    4.2951368    4.2951368    4.2951368    224.87623   -54.366941   -4932.8964     5661.892   -285.73801    2073.5482    471.19654    79.237542 
   89700    78.914706   -106.88398  0.071403685   -106.81258     2571.511    4.2952533    4.2952533    4.2952533     2571.511   -2429.4935    59.289959    10084.737    755.21989     546.0756    -286.4701    79.243993 
   89800    132.67774   -106.93236   0.12004961   -106.81231   -2422.0717    4.2953285    4.2953285    4.2953285   -2422.0717   -3971.3673   -3328.3546     33.50676     -252.998   -1470.5688    -454.5793    79.248154 
   89900    117.24146   -106.91831   0.10608254   -106.81223   -1515.1405    4.2958161    4.2958161    4.2958161   -1515.1405    -1037.909   -1690.6905   -1816.8221    546.79009   -66.756127   -289.37377    79.275146 
   90000    79.397711   -106.88417  0.071840718   -106.81233    1915.3819    4.2947579    4.2947579    4.2947579    1915.3819   -394.11407   -709.44777    6849.7074   -950.91338    1583.5309    678.38798    79.216575 
   90100    68.439764   -106.87461  0.061925737   -106.81268    740.59436    4.2950884    4.2950884    4.2950884    740.59436   -1538.1736   -3282.1029    7042.0596    990.42482    1613.3867   -876.18115    79.234862 
   90200    118.75947   -106.91968   0.10745606   -106.81222   -766.45024    4.2955727    4.2955727    4.2955727   -766.45024   -4128.9237   -165.87423    1995.4472   -527.01498    -791.1035   -127.61306     79.26167 
   90300    151.04718   -106.94876   0.13667066   -106.81209   -2659.8038    4.2953301    4.2953301    4.2953301   -2659.8038   -3161.8373   -2860.8761   -1956.6979    509.19296   -307.25177   -268.93945    79.248241 
   90400     56.48535   -106.86395  0.051109132   -106.81284    1508.8585    4.2954233    4.2954233    4.2954233    1508.8585   -1429.2242   -691.43856    6647.2382   -347.82041    1329.3367    691.11729    79.253399 
   90500    79.893753   -106.88467  0.072289546   -106.81238     1832.407    4.2947652    4.2947652    4.2947652     1832.407    -1116.764    -2386.843    9000.8279    198.59192    1763.5692     518.0517    79.216977 
   90600    109.24061    -106.9112  0.098843201   -106.81236   -1392.4864    4.2955973    4.2955973    4.2955973   -1392.4864   -3889.2208   -949.20743      660.969    673.07494   -154.75096   -341.49354    79.263033 
   90700    134.60201   -106.93409   0.12179073    -106.8123   -3116.9568    4.2959282    4.2959282    4.2959282   -3116.9568     -4642.79   -1998.9619   -2709.1185   -140.91841   -1150.5736    276.25943    79.281352 
   90800    99.854927   -106.90278  0.090350836   -106.81242    1442.8784    4.2948564    4.2948564    4.2948564    1442.8784   -3016.8748   -928.01829    8273.5282    640.42224    928.35004     253.7646    79.222024 
   90900    52.760905    -106.8605  0.047739176   -106.81276    1745.4709      4.29544      4.29544      4.29544    1745.4709   -1418.6824   -2052.5175    8707.6125   -618.53342    2457.2096   -302.48924    79.254324 
   91000    102.07562   -106.90463  0.092360169   -106.81227   -941.14241    4.2953525    4.2953525    4.2953525   -941.14241   -2222.8078   -1545.9201    945.30062    1000.0876    230.35552   -609.90739     79.24948 
   91100      155.032   -106.95203   0.14027621   -106.81175   -3259.1854    4.2959206    4.2959206    4.2959206   -3259.1854   -5033.0967   -1987.4707    -2756.989   -294.21983   -819.37262   -402.97226    79.280928 
   91200    72.021129   -106.87807  0.065166231   -106.81291    893.33839    4.2953192    4.2953192    4.2953192    893.33839   -3711.8788   -357.80081    6749.6948     841.6179    538.97708   -31.727644    79.247639 
   91300    92.781526   -106.89651  0.083950675   -106.81255    1244.0962    4.2950324    4.2950324    4.2950324    1244.0962   -2575.0091   -2986.0686    9293.3664   -1050.4203     1256.588    1557.9771    79.231765 
   91400    80.558274   -106.88535  0.072890819   -106.81246     974.8847    4.2953777    4.2953777    4.2953777     974.8847   -32.955116     383.0045    2574.6047    945.18498    1635.7841   -782.33158    79.250878 
   91500    134.77052   -106.93417    0.1219432   -106.81222   -3782.6335    4.2956925    4.2956925    4.2956925   -3782.6335   -3614.9967   -3686.9569   -4045.9468    6.1156449   -1334.5692    -31.43171    79.268303 
   91600    103.14812   -106.90579  0.093330589   -106.81246    1137.7569    4.2952089    4.2952089    4.2952089    1137.7569   -3939.2283   -365.34182    7717.8407    214.50048   -672.62505    1053.0593    79.241536 
   91700    75.631598   -106.88105   0.06843306   -106.81261    1526.3645    4.2949233    4.2949233    4.2949233    1526.3645   -2541.2126   -1824.1266    8944.4327    21.906284    1926.0669   -468.32866    79.225726 
   91800    98.709255   -106.90171  0.089314208   -106.81239   -730.32927    4.2953795    4.2953795    4.2953795   -730.32927   -376.55826   -2794.9037    980.47411   -420.24168    1506.2102   -912.53222    79.250976 
   91900    115.26432   -106.91626   0.10429358   -106.81197   -129.35957    4.2953331    4.2953331    4.2953331   -129.35957    65.577825    705.27946    -1158.936    975.52137   -1046.9961   -285.37305    79.248407 
   92000     108.9015   -106.91084  0.098536363   -106.81231   -1228.9319    4.2953323    4.2953323    4.2953323   -1228.9319   -4456.0291   -4229.7517    4998.9852   -192.89681    -553.3385   -770.27741    79.248365 
   92100    66.112148   -106.87244  0.059819661   -106.81262    2850.8734    4.2950216    4.2950216    4.2950216    2850.8734   -2617.8407     954.3668    10216.094    535.73314    521.26773    1058.0975    79.231165 
   92200    134.64786   -106.93387   0.12183221   -106.81204   -1774.8453    4.2953236    4.2953236    4.2953236   -1774.8453   -1843.0749   -4314.6971    833.23611   -693.22893    1485.3766    138.15558    79.247882 
   92300    79.490335   -106.88439  0.071924526   -106.81246   -576.04563    4.2955149    4.2955149    4.2955149   -576.04563    1116.8465    611.00038   -3455.9838    986.22378   -183.62374   -608.54285    79.258473 
   92400    114.82844   -106.91605   0.10389918   -106.81215    18.143195    4.2952987    4.2952987    4.2952987    18.143195   -2864.6609   -3172.5695      6091.66   -246.87342    -1831.262    1331.3233    79.246506 
   92500     78.52876   -106.88356  0.071054473    -106.8125    2198.9138    4.2948832    4.2948832    4.2948832    2198.9138   -3773.0633    451.75776    9918.0469    832.53175    337.65488    455.90257     79.22351 
   92600    106.72994   -106.90891  0.096571491   -106.81234   -1738.9109    4.2959108    4.2959108    4.2959108   -1738.9109   -2905.6233   -2518.3845    207.27525   -639.82523    1696.6178   -255.26705    79.280387 
   92700    130.53399   -106.92995   0.11810989   -106.81184   -1702.7194    4.2953654    4.2953654    4.2953654   -1702.7194   -555.55106   -1888.8072      -2663.8     251.6269    176.03528   -896.51328    79.250198 
   92800    66.866596   -106.87296  0.060502302   -106.81246    797.77349    4.2954408    4.2954408    4.2954408    797.77349   -859.35158   -56.296235    3308.9683    793.96292   -1717.3025   -379.45398     79.25437 
   92900    93.493807     -106.897  0.084595161   -106.81241    348.79083    4.2953379    4.2953379    4.2953379    348.79083   -5450.8365   -3352.4355    9849.6446     176.8448    -151.4112    377.99413    79.248674 
   93000    110.62236   -106.91232   0.10009344   -106.81222    742.99139    4.2951654    4.2951654    4.2951654    742.99139   -3421.8499    2291.6658    3359.1583    664.64772    1005.6463    716.00358    79.239125 
   93100    129.58349   -106.92965   0.11724986    -106.8124   -3981.3456    4.2962001    4.2962001    4.2962001   -3981.3456   -3355.6062   -4144.4641   -4443.9663   -742.54541    768.87991   -796.49938    79.296405 
   93200    72.458771   -106.87835  0.065562218   -106.81279    1515.2365    4.2947806    4.2947806    4.2947806    1515.2365   -638.41348      610.621    4573.5021    1475.6128   -1834.0892    600.89015    79.217829 
   93300    83.254124   -106.88776  0.075330081   -106.81243    1431.2742     4.295223     4.295223     4.295223    1431.2742   -3701.7026    -1197.808    9193.3333   -23.458594   -691.24718    1360.2932    79.242316 
   93400    100.99682   -106.90392  0.091384044   -106.81254   -1019.2466    4.2954156    4.2954156    4.2954156   -1019.2466   -5099.7565   -513.18794    2555.2047    726.37868    298.08293    378.49421    79.252972 
   93500    145.97061   -106.94392   0.13207728   -106.81185   -1904.4862    4.2954964    4.2954964    4.2954964   -1904.4862   -3739.8088   -1101.0088     -872.641   -850.18216    1371.3983   -1137.9852    79.257445 
   93600    88.149147   -106.89225    0.0797592   -106.81249    93.950407    4.2954204    4.2954204    4.2954204    93.950407   -2285.1714   -670.61821    3237.6408    708.57043   -1039.5068   -812.72854     79.25324 
   93700    51.357785   -106.85937  0.046469603    -106.8129    1910.0945    4.2947123    4.2947123    4.2947123    1910.0945   -1802.7574   -1531.1358    9064.1766    578.92937    -1626.751    829.41581     79.21405 
   93800    117.93228   -106.91888    0.1067076   -106.81218    4.8794549    4.2954295    4.2954295    4.2954295    4.8794549   -4528.8356    1391.6241    3151.8498    345.62274      64.2741    86.042914    79.253746 
   93900    133.26324   -106.93288   0.12057938    -106.8123   -3067.4274    4.2955852    4.2955852    4.2955852   -3067.4274   -4112.6907   -3103.2283   -1986.3632    361.20157    1126.9598    -587.5508    79.262363 
   94000    98.539561   -106.90189  0.089160666   -106.81273   -209.04551    4.2953722    4.2953722    4.2953722   -209.04551   -4482.1747   -216.48233    4071.5204   -847.28889   -1019.0532    108.60852    79.250572 
   94100    71.287506   -106.87702  0.064502433   -106.81252    2614.2648    4.2949443    4.2949443    4.2949443    2614.2648   -736.80365   -1415.5126    9995.1106    1446.3118   -1283.8156    961.06424     79.22689 
   94200    79.575518   -106.88465  0.072001601   -106.81264    -553.0925    4.2951971    4.2951971    4.2951971    -553.0925   -3357.1966    433.39885    1264.5202   -420.64844   -1023.2776    1148.2943    79.240881 
   94300    137.24369   -106.93618   0.12418098     -106.812   -2012.0515    4.2960605    4.2960605    4.2960605   -2012.0515   -3406.1983   -742.88716    -1887.069    894.10664    503.83281   -129.24712    79.288677 
   94400    131.14905    -106.9307   0.11866642   -106.81203   -1508.9485    4.2951873    4.2951873    4.2951873   -1508.9485   -4307.7992   -2895.8792    2676.8331   -1256.5458    923.17742   -1868.9823     79.24034 
   94500    36.254608   -106.84568  0.032803931   -106.81287    2526.9761    4.2953728    4.2953728    4.2953728    2526.9761   -2518.3997    565.52534    9533.8027    640.90658   -1633.8288    1063.1302    79.250605 
   94600    117.96009   -106.91885   0.10673277   -106.81211   -199.13428     4.295244     4.295244     4.295244   -199.13428   -263.92703   -2703.0766    2369.6008    276.03368   -1232.6243    634.05637    79.243478 
   94700    95.730904     -106.899  0.086619333   -106.81238   -363.73345    4.2953165    4.2953165    4.2953165   -363.73345   -2755.4177    3871.4884   -2207.2711    790.31524    930.21973   -864.06561    79.247487 
   94800    134.11614   -106.93367    0.1213511   -106.81232   -2766.8343    4.2961619    4.2961619    4.2961619   -2766.8343    -2880.977   -6405.4466    985.92079   -507.11081    623.28316   -353.81849    79.294293 
   94900    81.705063    -106.8864  0.073928458   -106.81247    3113.2449    4.2942841    4.2942841    4.2942841    3113.2449    -3733.041    2605.4641    10467.312   -120.86333   -1057.9493    826.43717     79.19036 
   95000    73.812406   -106.87947  0.066787016   -106.81269    144.52958     4.295745     4.295745     4.295745    144.52958    874.41396   -2910.4726    2469.6474    968.73494   -1301.3855    902.32716    79.271207 
   95100    117.87929   -106.91879   0.10665966   -106.81213   -820.64956    4.2951905    4.2951905    4.2951905   -820.64956   -1908.6034    1222.2578   -1775.6031    138.47492   -367.57876    579.28093    79.240515 
   95200    117.55244   -106.91841   0.10636392   -106.81205    367.13175    4.2951196    4.2951196    4.2951196    367.13175   -574.29863   -672.26316     2347.957    768.82763    1203.4168   -1620.4672    79.236592 
   95300    88.247673   -106.89231  0.079848349   -106.81246   -392.25227    4.2957292    4.2957292    4.2957292   -392.25227   -4967.5901   -3836.8706    7627.7039   -1432.4447    188.20068   -96.744238    79.270336 
   95400    88.436365   -106.89229  0.080019082   -106.81227    1829.5481    4.2944369    4.2944369    4.2944369    1829.5481   -282.77843    1947.3267    3824.0962    1528.5613   -1486.6751    1679.0978    79.198815 
   95500     110.3136   -106.91199  0.099814061   -106.81217   -1353.5045    4.2959729    4.2959729    4.2959729   -1353.5045    162.67722   -2055.7197   -2167.4709   -232.41492   -87.535109     -989.887    79.283828 
   95600    98.306758   -106.90137  0.088950021   -106.81242   -735.24795    4.2950712    4.2950712    4.2950712   -735.24795   -2174.4177   -466.34005    435.01391    1182.1712    1517.9031   -671.93313    79.233915 
   95700    105.85163   -106.90789  0.095776783   -106.81212    1570.5007    4.2950891    4.2950891    4.2950891    1570.5007   -2452.0633   -3304.6424    10468.208   -1180.7327    417.16781     208.7676    79.234903 
   95800    94.398421   -106.89784  0.085413675   -106.81243    -1074.501    4.2956161    4.2956161    4.2956161    -1074.501   -4739.6013   -1033.0658    2549.1642    675.62809   -1545.4672    716.55073    79.264075 
   95900     90.36254   -106.89412  0.081761925   -106.81235   -733.31805    4.2950163    4.2950163    4.2950163   -733.31805    1137.6389   -539.27783   -2798.3153    329.92063   -600.77508    558.84624    79.230876 
   96000    125.31883    -106.9254   0.11339111   -106.81201   -1237.1257    4.2959924    4.2959924    4.2959924   -1237.1257   -2689.8997   -1544.3773    522.89986    711.41047     993.3088   -920.20851    79.284906 
   96100    66.478075   -106.87291  0.060150759   -106.81276    986.93628    4.2948306    4.2948306    4.2948306    986.93628   -1920.5256   -3540.7691    8422.1036   -410.39826    1047.0895   -1019.3118    79.220599 
   96200     120.8573   -106.92147   0.10935422   -106.81212   -1059.4814    4.2958503    4.2958503    4.2958503   -1059.4814   -5729.7446   -2739.0155     5290.316   -877.93302   -714.78423    1713.8298    79.277041 
   96300     107.1203   -106.90907  0.096924699   -106.81215   -1217.3483    4.2954942    4.2954942    4.2954942   -1217.3483    57.369574   -989.54983   -2719.8648      1255.87   -417.63912    142.29904    79.257327 
   96400    84.204638   -106.88872  0.076190126   -106.81253   -1668.3407     4.295556     4.295556     4.295556   -1668.3407   -1925.6149   -856.93348   -2222.4737    -459.3336    671.67498   -777.67441    79.260744 
   96500    100.87423   -106.90346  0.091273125   -106.81219    1100.3681    4.2956097    4.2956097    4.2956097    1100.3681   -1398.6694   -4278.8561    8978.6297    738.85364    1886.3445   -624.39006    79.263719 
   96600    92.099698   -106.89587  0.083333742   -106.81253    612.14548     4.294763     4.294763     4.294763    612.14548   -3638.5232   -1106.8854     6581.845   -1554.5944     -845.141    946.33309    79.216856 
   96700    125.25569   -106.92568   0.11333398   -106.81234   -2894.5747    4.2963138    4.2963138    4.2963138   -2894.5747   -2675.9716   -3977.5539   -2030.1985    903.30424   -1424.6237    635.29264    79.302701 
   96800    96.489248   -106.89947    0.0873055   -106.81217     1151.652    4.2947843    4.2947843    4.2947843     1151.652    1758.9912    1128.9361    567.02862    24.641394    1020.4156   -957.13738    79.218034 
   96900    74.304677   -106.87974  0.067232433    -106.8125     238.9222    4.2952958    4.2952958    4.2952958     238.9222   -2500.8691   -3487.0803     6704.716    533.32284    1107.7508   -1019.3222    79.246343 
   97000    93.582256   -106.89703  0.084675192   -106.81236    1351.1256    4.2954046    4.2954046    4.2954046    1351.1256     -295.638     -3670.96    8019.9749   -904.37135    145.45735    691.57334    79.252365 
   97100    147.96454   -106.94581   0.13388143   -106.81192   -1352.2524    4.2948904    4.2948904    4.2948904   -1352.2524   -3865.8168    543.86823   -734.80863    141.03372   -422.80089    840.33363    79.223905 
   97200    84.554017   -106.88907  0.076506251   -106.81256   -618.26266    4.2959758    4.2959758    4.2959758   -618.26266    1700.0737   -4171.9999    617.13827    333.91164    268.47489    -486.2948    79.283988 
   97300    76.594218   -106.88173  0.069304058   -106.81243    2942.7707    4.2942728    4.2942728    4.2942728    2942.7707      -1017.9    1640.3681    8205.8439    139.23275    1386.0219   -757.97239    79.189735 
   97400     95.50787   -106.89879  0.086417528   -106.81238    723.98538    4.2952978    4.2952978    4.2952978    723.98538    391.54396   -5872.4174    7652.8295    64.630806    1376.2568   -100.15671    79.246452 
   97500    118.31466   -106.91935   0.10705359    -106.8123   -1774.7959    4.2957393    4.2957393    4.2957393   -1774.7959   -3469.2695   -281.11449   -1574.0037   -980.79625   -1932.1403    1283.7974     79.27089 
   97600    136.25477   -106.93538   0.12328618   -106.81209   -315.49072    4.2948225    4.2948225    4.2948225   -315.49072   -145.58131   -1993.0752    1192.1844    950.52644     146.3684   -1048.8775    79.220149 
   97700    49.661347   -106.85772   0.04493463   -106.81279    2073.6262     4.295627     4.295627     4.295627    2073.6262   -198.04342   -1696.6698    8115.5918   -111.83742    1312.7832    -1566.424    79.264676 
   97800    76.855451   -106.88209  0.069540427   -106.81255    1241.4592    4.2946529    4.2946529    4.2946529    1241.4592   -1223.5882   -2622.1414    7570.1071    646.55847    963.80244  -0.44560659    79.210762 
   97900    152.49108   -106.94988   0.13797713    -106.8119   -2513.3664    4.2960519    4.2960519    4.2960519   -2513.3664   -1248.8155   -4584.7856   -1706.4982   -932.48634   -659.52579    692.17456    79.288202 
   98000    102.69678   -106.90548  0.092922204   -106.81255   -1941.4763    4.2957019    4.2957019    4.2957019   -1941.4763   -4624.6105    -682.1305   -517.68799    470.79656    385.19102    61.493326    79.268825 
   98100    84.361421   -106.88888  0.076331987   -106.81255    1381.5205    4.2949783    4.2949783    4.2949783    1381.5205    853.79496   -3907.1855    7197.9521    125.38435    593.82508   -271.53547    79.228772 
   98200    68.834695   -106.87484  0.062283079   -106.81255     1688.244    4.2955121    4.2955121    4.2955121     1688.244   -2955.4111   -698.13678      8718.28    455.66379    2081.5993   -984.59265    79.258317 
   98300     114.9575   -106.91657   0.10401597   -106.81256   -2841.7697    4.2953826    4.2953826    4.2953826   -2841.7697     -124.496   -5724.1446   -2676.6686   -722.83668   -599.55554    1717.8825    79.251145 
   98400    149.19547   -106.94702    0.1349952   -106.81203   -2429.4357    4.2960702    4.2960702    4.2960702   -2429.4357   -5189.5729   -2039.9969   -58.737213   -382.88322   -1003.5765     76.33197    79.289214 
   98500    63.086221   -106.86983  0.057081738   -106.81275    1591.0851    4.2948892    4.2948892    4.2948892    1591.0851   -49.636442   -2236.2522    7059.1439    251.12146    764.77238   -1860.5354    79.223839 
   98600    72.213606   -106.87802  0.065340388   -106.81268    271.57933    4.2953619    4.2953619    4.2953619    271.57933    -2414.937   -3379.0062    6608.6812    36.411903    1589.7294   -178.81884    79.250001 
   98700    116.28099   -106.91717   0.10521349   -106.81196   -400.76301    4.2955544    4.2955544    4.2955544   -400.76301    869.67729   -2174.6598    102.69351    325.31449    7.7123982    125.90158    79.260659 
   98800     133.1259   -106.93259   0.12045511   -106.81213   -3263.5584    4.2954758    4.2954758    4.2954758   -3263.5584   -4010.5382   -4325.7033   -1454.4337   -1195.3551   -730.35705    617.63488    79.256305 
   98900    86.811003   -106.89118   0.07854842   -106.81263    1110.4691    4.2954578    4.2954578    4.2954578    1110.4691   -1110.9426   -2020.7531    6463.1031    822.80132    389.51926   -123.71404     79.25531 
   99000    74.196972   -106.87961  0.067134979   -106.81247    2346.8265    4.2944896    4.2944896    4.2944896    2346.8265    23.617835   -1630.5975    8647.4591   -291.78806    1283.4116   -786.88167    79.201729 
   99100    98.926737   -106.90199   0.08951099   -106.81248   -2191.3762    4.2958104    4.2958104    4.2958104   -2191.3762   -136.44192    -3756.511   -2681.1757    482.65128    364.60419    506.67484    79.274831 
   99200    131.17037   -106.93071   0.11868571   -106.81203   -928.39347    4.2953909    4.2953909    4.2953909   -928.39347    26.218393   -2316.9888   -494.41001   -799.13799   -1524.4412    1516.0734    79.251608 
   99300    112.13311   -106.91377    0.1014604   -106.81231    329.68345    4.2950085    4.2950085    4.2950085    329.68345   -2822.1469   -2779.3257    6590.5229   -282.84906    -336.8103    -1250.417     79.23044 
   99400    45.303393   -106.85388  0.040991462   -106.81289    2833.9371    4.2952519    4.2952519    4.2952519    2833.9371    2436.8676   -1695.3004    7760.2443    359.30231    1112.6725   -859.73542    79.243915 
   99500    128.14757   -106.92799   0.11595062   -106.81204   -1026.3239    4.2950549    4.2950549    4.2950549   -1026.3239   -91.955187   -2138.8448   -848.17157    451.15908    1139.1771    -657.4874     79.23301 
   99600    100.81541   -106.90354    0.0912199   -106.81232   -1508.5969    4.2959223    4.2959223    4.2959223   -1508.5969    2514.7086   -3315.0578   -3725.4414   -346.78173   -1764.4729    703.48803    79.281026 
   99700    119.38508   -106.92044   0.10802213   -106.81242     -969.708    4.2954084    4.2954084    4.2954084     -969.708   -3975.4785   -3437.2864    4503.6409   -343.85017    46.928904     12.37555    79.252578 
   99800    72.657402   -106.87822  0.065741945   -106.81248    4051.6373    4.2947157    4.2947157    4.2947157    4051.6373    3947.8149   -1672.3874    9879.4842    616.43453    1220.0821   -944.89343    79.214242 
   99900    92.527997   -106.89629  0.083721276   -106.81257   -1249.1945    4.2957593    4.2957593    4.2957593   -1249.1945   -1335.1071   -1678.9352   -733.54122     340.9858    799.69719    -528.7699       79.272 
  100000    117.90942   -106.91882   0.10668692   -106.81214   -1522.6458    4.2953439    4.2953439    4.2953439   -1522.6458    3776.8567   -3809.3208   -4535.4733    421.98342   -1103.7098    1601.7502    79.249006 
Loop time of 22.3124 on 1 procs for 100000 steps with 8 atoms

Pair  time (%) = 7.12908 (31.9512)
Kspce time (%) = 5.36217 (24.0322)
Neigh time (%) = 0 (0)
Comm  time (%) = 1.07217 (4.80528)
Outpt time (%) = 0.0248106 (0.111196)
Other time (%) = 8.72417 (39.1001)

Nlocal:    8 ave 8 max 8 min
Histogram: 1 0 0 0 0 0 0 0 0 0
Nghost:    2189 ave 2189 max 2189 min
Histogram: 1 0 0 0 0 0 0 0 0 0
Neighs:    2344 ave 2344 max 2344 min
Histogram: 1 0 0 0 0 0 0 0 0 0

Total # of neighbors = 2344
Ave neighs/atom = 293
Neighbor list builds = 0
Dangerous builds = 0
unfix 20
unfix 21
print "seeds:4357066"
seeds:4357066
