LAMMPS (10 Feb 2015)
# ---- initialize simulations
clear
units metal
dimension 3
boundary p p p
atom_style charge
atom_modify map array
# ---- create atoms
read_data /Users/eugeneragasa/pyflamestk_git/pypospack/tests/tests_integration/workflow/WorkflowLammpsThermalExpansion/param_1902/MgO_NaCl_unit.npt.T2000/lammps.structure
  triclinic box = (0 0 0) to (4.2565 4.2565 4.2565) with tilt (0 0 0)
  1 by 1 by 1 MPI processor grid
  reading atoms ...
  8 atoms
# ---- define interatomic potential
include potential.mod
mass 1 24.305
mass 2 15.999

group Mg type 1
4 atoms in group Mg
group O type 2
4 atoms in group O

set group Mg charge 1.69754800024
  4 settings made for charge
set group O charge -1.69754800024
  4 settings made for charge

variable R_cut equal 10.0

pair_style buck/coul/long ${R_cut}
pair_style buck/coul/long 10
pair_coeff 1 1 0.0 0.5 0.0 ${R_cut}
pair_coeff 1 1 0.0 0.5 0.0 10
pair_coeff 1 2 1340.93810979 0.285979914483 0.0 ${R_cut}
pair_coeff 1 2 1340.93810979 0.285979914483 0.0 10
pair_coeff 2 2 11096.6994948 0.145827000496 3.24328494634 ${R_cut}
pair_coeff 2 2 11096.6994948 0.145827000496 3.24328494634 10

kspace_style pppm 1.0e-5

neighbor 1.0 bin
neigh_modify every 1 delay 0 check yes
# ---- define settings
compute eng all pe/atom
compute eatoms all reduce sum c_eng
# ---- run minimization
reset_timestep 0
fix 1 all box/relax iso 0.0 vmax 0.001
thermo 10
thermo_style custom step pe lx ly lz xy xz yz press pxx pyy pzz pxy pxz pyz c_eatoms
min_style cg
minimize 1e-25 1e-25 5000 10000
PPPM initialization ...
  G vector (1/distance) = 0.353134
  grid = 8 8 8
  stencil order = 5
  estimated absolute RMS force accuracy = 4.09436e-05
  estimated relative force accuracy = 2.84338e-06
  using double precision FFTs
  3d grid and FFT values/proc = 3375 512
Neighbor list info ...
  1 neighbor list requests
  update every 1 steps, delay 0 steps, check yes
  master list distance cutoff = 11
Memory usage per processor = 4.06549 Mbytes
Step PotEng Lx Ly Lz Xy Xz Yz Press Pxx Pyy Pzz Pxy Pxz Pyz eatoms 
       0   -117.43599       4.2565       4.2565       4.2565            0            0            0    33717.192    33717.192    33717.192    33717.192 -3.1023281e-11 -2.4163961e-10 -2.0934262e-10   -117.43599 
       8   -117.45138    4.2835821    4.2835821    4.2835821            0            0            0   -5.0124394   -5.0124394   -5.0124394   -5.0124394 6.8970478e-11 -1.4442567e-10 -9.765937e-11   -117.45138 
Loop time of 0.00853395 on 1 procs for 8 steps with 8 atoms

Minimization stats:
  Stopping criterion = linesearch alpha is zero
  Energy initial, next-to-last, final = 
        -117.435990229     -117.451383044     -117.451383044
  Force two-norm initial, final = 4.86878 0.0018005
  Force max component initial, final = 4.86878 0.000733039
  Final line search alpha, max atom move = 0.00390625 2.86343e-06
  Iterations, force evaluations = 8 25

Pair  time (%) = 0.00236797 (27.7477)
Kspce time (%) = 0.00134468 (15.7568)
Neigh time (%) = 0 (0)
Comm  time (%) = 0.000260115 (3.048)
Outpt time (%) = 0 (0)
Other time (%) = 0.00456119 (53.4475)

Nlocal:    8 ave 8 max 8 min
Histogram: 1 0 0 0 0 0 0 0 0 0
Nghost:    2189 ave 2189 max 2189 min
Histogram: 1 0 0 0 0 0 0 0 0 0
Neighs:    2344 ave 2344 max 2344 min
Histogram: 1 0 0 0 0 0 0 0 0 0

Total # of neighbors = 2344
Ave neighs/atom = 293
Neighbor list builds = 0
Dangerous builds = 0
unfix 1
# ---- define output variables ----
variable natoms equal "count(all)"
variable tot_energy equal "c_eatoms"
variable length_x equal "lx"
variable length_y equal "ly"
variable length_z equal "lz"
variable tilt_xy equal "xy"
variable tilt_xz equal "xz"
variable tilt_yz equal "yz"
variable tot_press equal "press"
variable press_xx equal "pxx"
variable press_yy equal "pyy"
variable press_zz equal "pzz"
variable press_xy equal "pxy"
variable press_xz equal "pxz"
variable press_yz equal "pyz"

# ---- output ----
print "pypospack:output_section:begin"
pypospack:output_section:begin
print "tot_energy = ${tot_energy}"
tot_energy = -117.45138304358
print "num_atoms = ${natoms}"
num_atoms = 8
print "xx = ${length_x}"
xx = 4.28358206284588
print "yy = ${length_y}"
yy = 4.28358206284588
print "zz = ${length_z}"
zz = 4.28358206284588
print "xy = ${tilt_xy}"
xy = 0
print "xz = ${tilt_xz}"
xz = 0
print "yz = ${tilt_yz}"
yz = 0
print "tot_press = ${tot_press}"
tot_press = -5.01243937142067
print "pxx = ${press_xx}"
pxx = -5.01243937108414
print "pyy = ${press_yy}"
pyy = -5.01243937158826
print "pzz = ${press_zz}"
pzz = -5.01243937158962
print "pxy = ${press_xy}"
pxy = 6.8970477610601e-11
print "pxz = ${press_xz}"
pxz = -1.44425666326158e-10
print "pyz = ${press_yz}"
pyz = -9.76593698696591e-11
print "pypospack:output_section:done"
pypospack:output_section:done
print "pypospack:lammps_sim:done"
pypospack:lammps_sim:done
#------------------------------------------------------------------------------
# RUN THERMOSTAT
# running using an NPT Nose-Hoover style thermostat
#------------------------------------------------------------------------------
variable tempdamp equal 0.1
variable pressdamp equal 1.0
# set initial velocities
velocity all create 2000 3250997 mom yes dist gaussian loop all
# fix for Nose-Hoover style thermostat
fix 20 all npt temp 2000 2000 0.1 aniso 0.0 0.0 1.0 drag 1.0 couple xyz
variable boxx equal lx
variable boxy equal ly
variable boxz equal lz
variable boxp equal press
variable boxt equal temp
# calculate averages every 10000 steps
reset_timestep 0
fix 21 all ave/time 10 10 100 v_boxx v_boxy v_boxz v_boxp v_boxt file lattice.out
thermo_style custom step temp pe ke etotal press lx ly lz press pxx pyy pzz pxy pxz pyz vol
thermo_modify flush yes
thermo 100
run 100000
PPPM initialization ...
  G vector (1/distance) = 0.352856
  grid = 8 8 8
  stencil order = 5
  estimated absolute RMS force accuracy = 4.14735e-05
  estimated relative force accuracy = 2.88018e-06
  using double precision FFTs
  3d grid and FFT values/proc = 3375 512
Memory usage per processor = 3.06549 Mbytes
Step Temp PotEng KinEng TotEng Press Lx Ly Lz Press Pxx Pyy Pzz Pxy Pxz Pyz Volume 
       0         2000   -117.45139     1.809642   -115.64175    24585.829    4.2835821    4.2835821    4.2835821    24585.829    18165.336    22759.086    32833.065    6457.0134   -8624.0263    16282.903     78.59977 
     100    695.31913   -116.05971   0.62913936   -115.43057    60636.421    4.3196835    4.3196835    4.3196835    60636.421    53775.288    13963.901    114170.07   -9433.8751   -3714.6218   -10941.746    80.603852 
     200     1633.811   -116.43881    1.4783065    -114.9605   -35383.207    4.3859784    4.3859784    4.3859784   -35383.207   -37794.689   -60056.432   -8298.4988    -8944.555    19275.196   -9048.8645     84.37222 
     300    1818.8635   -116.13008    1.6457459   -114.48434   -28861.417    4.4087343    4.4087343    4.4087343   -28861.417   -8209.5622   -89375.431    11000.741    2232.6781    12319.689   -10678.553    85.692294 
     400    1052.4545   -115.08415   0.95228295   -114.13187    27732.177    4.3752375    4.3752375    4.3752375    27732.177    38232.217   -37035.243    81999.559    -25834.54    19060.664    6864.1688    83.753875 
     500    2168.3944   -115.84166    1.9620088   -113.87965    10436.385       4.3482       4.3482       4.3482    10436.385   -8324.5145   -10837.108    50470.777   -4806.2851   -10812.145   -8283.5221    82.210735 
     600    2442.3987   -116.02268    2.2099337   -113.81274    469.90149    4.3635419    4.3635419    4.3635419    469.90149    40225.228   -42653.129    3837.6057    2525.7423    2556.7774    5185.3537    83.084008 
     700    1454.0676   -115.11203    1.3156709   -113.79636   -10507.175    4.4059211    4.4059211    4.4059211   -10507.175   -52358.929   -13316.588    34153.991   -13482.578   -10855.648   -81.634632    85.528361 
     800    2099.5192   -115.60303    1.8996891   -113.70334   -20760.738    4.4298251    4.4298251    4.4298251   -20760.738   -12367.552   -40416.381   -9498.2826   -1609.9817   -10940.752    -11326.81    86.928013 
     900    2046.4279   -115.51643     1.851651   -113.66478   -10777.492    4.4108789    4.4108789    4.4108789   -10777.492   -16360.439   -54002.577    38030.539   -21950.054   -10896.639   -6723.4524    85.817408 
    1000    1647.5031   -115.16622    1.4906954   -113.67553    17335.753    4.3831326    4.3831326    4.3831326    17335.753   -13328.287   -3963.6612    69299.206    7909.7991   -28615.539    16572.605    84.208092 
    1100    2630.9715   -116.11948    2.3805583   -113.73892   -2012.2531     4.388304     4.388304     4.388304   -2012.2531   -9688.6054    -22812.77    26464.616    17130.638    5699.7898    20773.341    84.506498 
    1200     1673.417   -115.28134    1.5141428    -113.7672   -12911.086    4.4200493    4.4200493    4.4200493   -12911.086   -21053.539    47888.763   -65568.482   -7381.3571    7341.4592   -20086.247    86.353779 
    1300    1652.5255   -115.20861    1.4952398   -113.71337   -46705.065    4.4228687    4.4228687    4.4228687   -46705.065   -73317.145   -56046.226   -10751.822   -22136.475   -10989.684   -34806.511     86.51913 
    1400    2336.4629   -115.77819    2.1140807   -113.66411    26564.529    4.3743846    4.3743846    4.3743846    26564.529   -30343.545    29101.918    80935.213   -9908.3552    1200.4238    12926.074    83.704903 
    1500    1702.7288   -115.23915    1.5406648   -113.69849     48661.65    4.3566387    4.3566387    4.3566387     48661.65   -15404.066    9240.5934    152148.42    10323.589    2055.9287    24526.809    82.690312 
    1600    1702.7727   -115.34173    1.5407045   -113.80103   -9708.9588    4.3998292    4.3998292    4.3998292   -9708.9588   -25410.273   -67384.504    63667.901   -12738.555    2770.8243    19741.815    85.174077 
    1700    1893.0024   -115.47929    1.7128283   -113.76647    -18104.96    4.4276575    4.4276575    4.4276575    -18104.96   -102813.42     1201.617    47296.926   -7407.5041    13893.026    5955.7687    86.800467 
    1800    2429.0098   -115.91551    2.1978191   -113.71769   -33249.583    4.4052401    4.4052401    4.4052401   -33249.583   -74148.785   -33995.206    8395.2419   -5541.7715    20607.952     -27679.1    85.488705 
    1900    3065.0128   -116.47901     2.773288   -113.70572     5685.825    4.3654249    4.3654249    4.3654249     5685.825   -25242.994    8038.3773    34262.091   -9268.9785   -16449.053    12140.063    83.191619 
    2000    1975.8385   -115.62078    1.7877802     -113.833    14767.445    4.3700698    4.3700698    4.3700698    14767.445   -63140.006    14385.284    93057.056    19406.472    13873.389    12926.537    83.457454 
    2100    1408.7498   -115.14719    1.2746665   -113.87253    -10415.88    4.4063606    4.4063606    4.4063606    -10415.88   -24774.185   -60340.262    53866.808    -7332.688   -12461.339    5803.5229    85.553956 
    2200    1703.7767   -115.32695     1.541613   -113.78534   -9712.9223    4.4142792    4.4142792    4.4142792   -9712.9223   -63244.382   -52755.907    86861.522    -1586.363    -8652.662    2726.9149    86.016028 
    2300    1855.6828   -115.40305    1.6790608   -113.72399    24065.338     4.388734     4.388734     4.388734    24065.338   -34547.217    -2777.072     109520.3    5013.7359   -9720.2338    1139.3799    84.531346 
    2400    2259.7542   -115.80695    2.0446731   -113.76228    7307.5639    4.3834098    4.3834098    4.3834098    7307.5639    27434.928   -20147.867    14635.631   -1299.4982   -18574.859    16063.761    84.224069 
    2500    1739.1089     -115.375    1.5735823   -113.80141    11300.692    4.4007827    4.4007827    4.4007827    11300.692    367.98304   -15414.902    48948.995   -3211.1061    -5515.222   -25554.794    85.229465 
    2600    1922.7248   -115.51388    1.7397218   -113.77416   -6451.0064    4.4233608    4.4233608    4.4233608   -6451.0064   -63723.462   -27724.226    72094.668    16417.667     5574.609    13708.389    86.548014 
    2700    2025.1647   -115.54076    1.8324116   -113.70835   -2430.8559     4.422745     4.422745     4.422745   -2430.8559   -53150.972   -57402.038    103260.44    1906.4834    26244.828    36184.192    86.511867 
    2800    1857.1938   -115.39172     1.680428    -113.7113   -21563.929    4.3830254    4.3830254    4.3830254   -21563.929   -38102.545   -64589.702    38000.461    35454.037    3799.8297    -20396.81    84.201915 
    2900    1962.6548   -115.52483    1.7758513   -113.74898    11171.408    4.3589575    4.3589575    4.3589575    11171.408   -62227.722   -7073.7436    102815.69      1800.29   -42267.972    20959.058    82.822416 
    3000    2292.0818   -115.90337    2.0739238   -113.82944   -10644.858    4.3818521    4.3818521    4.3818521   -10644.858   -3594.3702   -19005.763   -9334.4404    21494.139   -27422.304   -7502.4899    84.134312 
    3100    1713.3179   -115.36489     1.550246   -113.81464     -35592.6    4.4162747    4.4162747    4.4162747     -35592.6    -55662.31    -63426.47     12310.98    6749.0474    5371.0256    15474.761    86.132733 
    3200     2193.386   -115.70974    1.9846217   -113.72512   -59901.245    4.4225088    4.4225088    4.4225088   -59901.245    -77782.54   -59512.156    -42409.04   -34839.752   -9718.1125   -27052.055    86.498013 
    3300    2138.3356   -115.62411     1.934811    -113.6893    15845.251    4.3858605    4.3858605    4.3858605    15845.251   -4314.4283    9219.1124     42631.07    1656.3433   -8663.7337    19739.248    84.365414 
    3400    1929.9914   -115.44626    1.7462968   -113.69996    41320.348    4.3552875    4.3552875    4.3552875    41320.348    3332.5222   -20225.447    140853.97    849.59385     21992.04   -5524.9415    82.613398 
    3500    2292.7566   -115.85298    2.0745343   -113.77845    14488.824    4.3686155    4.3686155    4.3686155    14488.824   -21053.571    -37791.47    102311.51   -34038.798   -7548.7641   -11595.012     83.37416 
    3600    2139.4434   -115.75005    1.9358134   -113.81424   -23315.636    4.4100536    4.4100536    4.4100536   -23315.636   -46344.453   -11177.995   -12424.459    22446.038    27317.472   -7958.5434    85.769246 
    3700    2073.3651   -115.60956    1.8760243   -113.73354   -70123.652    4.4219237    4.4219237    4.4219237   -70123.652    -83282.11   -74963.921   -52124.924    25106.771    18599.908    1230.8865    86.463683 
    3800    2128.9343   -115.60744    1.9263045   -113.68114    12528.217    4.3750908    4.3750908    4.3750908    12528.217    56461.449   -27456.756    8579.9589   -19215.381   -1556.2687   -4957.5672    83.745447 
    3900    1277.5639   -114.83661    1.1559667   -113.68064    24708.084    4.3439277    4.3439277    4.3439277    24708.084    18971.189    13001.209    42151.855    11062.123    -20127.42     10874.81    81.968649 
    4000    1869.3538   -115.47694    1.6914306   -113.78551    36548.817     4.360113     4.360113     4.360113    36548.817    41906.938    64316.722    3422.7901    27450.478    26887.732    -603.6516    82.888302 
    4100    1989.6388   -115.58558     1.800267   -113.78531   -19947.969    4.4131112    4.4131112    4.4131112   -19947.969   -34606.057   -39154.601     13916.75    3264.9735   -34965.421    13318.132     85.94777 
    4200    1662.9112   -115.24718     1.504637   -113.74254     -46409.9    4.4003767    4.4003767    4.4003767     -46409.9   -75079.014    -55238.68   -8912.0076    6721.2236    9218.9444    19956.565     85.20588 
    4300    1785.1257   -115.29815    1.6152192   -113.68293    31526.933    4.3433251    4.3433251    4.3433251    31526.933    8269.9519    70122.218     16188.63     21980.31    44105.683   -10075.211    81.934541 
    4400    2921.3467   -116.35634    2.6432959   -113.71304    17604.892    4.3334576    4.3334576    4.3334576    17604.892    43267.537   -10217.747    19764.885   -12450.235   -19365.698    -3742.763    81.377374 
    4500    1887.7415   -115.50056    1.7080682   -113.79249     43105.05    4.3487872    4.3487872    4.3487872     43105.05    64874.429    8000.9733    56439.748    7647.9681   -10516.341    23728.913    82.244049 
    4600    2547.2617   -116.12838    2.3048159   -113.82357    -20898.93    4.3826774    4.3826774    4.3826774    -20898.93   -14419.263   -27815.943   -20461.583    31954.739   -1774.2986   -10577.974    84.181859 
    4700    1710.1014   -115.31774    1.5473357   -113.77041   -21535.576    4.3944999    4.3944999    4.3944999   -21535.576   -12830.937   -4529.0765   -47246.714   -33190.632    36555.492    7434.1869    84.864954 
    4800    2145.5342   -115.66857    1.9413244   -113.72724   -8368.0859    4.3511335    4.3511335    4.3511335   -8368.0859   -23550.626     10753.68   -12307.312   -27805.782   -7027.5633    17984.438    82.377241 
    4900    2118.4584   -115.63987    1.9168257   -113.72304    50932.115    4.3344931    4.3344931    4.3344931    50932.115    61127.531    29991.255    61677.559    11114.836    12460.507   -13638.449    81.435722 
    5000    2142.2048   -115.71211    1.9383119    -113.7738   -42590.031     4.356588     4.356588     4.356588   -42590.031   -44620.097   -41068.855   -42081.143   -24476.335     48274.61     24334.78    82.687428 
    5100    924.49021   -114.62273   0.83649817   -113.78623    37864.728    4.3617584    4.3617584    4.3617584    37864.728    97883.912   -17785.907     33496.18   -36090.827   -2087.0655    11138.162    82.982175 
    5200    2406.4941   -115.94717    2.1774464   -113.76972   -17497.804    4.3770543    4.3770543    4.3770543   -17497.804    -8475.332   -49218.688    5200.6082     10960.72    25141.493   -867.69028    83.858249 
    5300    1764.4756    -115.3517    1.5965346   -113.75517   -41914.201    4.3787713    4.3787713    4.3787713   -41914.201   -21527.702   -83480.199   -20734.701   -8531.4428    4474.1544    -2034.623    83.956975 
    5400    1582.6204   -115.18494    1.4319882   -113.75295    7502.2454    4.3438964    4.3438964    4.3438964    7502.2454    111164.91   -61139.077   -27519.097   -43169.213   -4484.5874      19835.8    81.966872 
    5500    2325.3817   -115.86257    2.1040542   -113.75852    58622.963    4.3279412    4.3279412    4.3279412    58622.963    138379.95   -21325.863    58814.804    37064.559   -12707.099   -1159.1326     81.06699 
    5600    2012.5363   -115.63651    1.8209851   -113.81552   -31296.685    4.3676816    4.3676816    4.3676816   -31296.685   -26676.394   -42868.477   -24345.185    7228.9521    6645.9382   -9298.9031      83.3207 
    5700    2040.8125    -115.5952      1.84657   -113.74863   -34460.272    4.3789887    4.3789887    4.3789887   -34460.272   -31585.624   -16157.352    -55637.84    2826.2143    16929.162    19043.882    83.969479 
    5800    2698.8619   -116.12963    2.4419869   -113.68764    14862.423    4.3524664    4.3524664    4.3524664    14862.423    49682.526    20841.597   -25936.854    22336.243    6493.2339    3795.1682    82.452967 
    5900    1653.1324   -115.23301    1.4957889   -113.73722    12880.742    4.3532507    4.3532507    4.3532507    12880.742   -38353.767    114387.22   -37391.229    20012.105    23368.603   -3970.2148    82.497548 
    6000    2231.1356    -115.7684    2.0187784   -113.74962    722.98574     4.380716     4.380716     4.380716    722.98574   -33364.379    59097.025   -23563.688    22994.072    6141.8094   -17519.741    84.068888 
    6100    1875.9129   -115.42635    1.6973654   -113.72898   -32762.927    4.4066224    4.4066224    4.4066224   -32762.927   -66540.197   -14769.294   -16979.291   -10451.411   -2497.3878    4900.1488    85.569208 
    6200    1534.1122   -115.06654    1.3880969   -113.67845   -81114.972    4.3977746    4.3977746    4.3977746   -81114.972   -101123.95   -62245.825   -79975.144   -10173.822    56562.454   -6493.4083    85.054812 
    6300    2208.4976   -115.67251     1.998295   -113.67422     24431.03    4.3281792    4.3281792    4.3281792     24431.03    2335.3226    50342.695    20615.073    11231.516    32112.307   -8608.7923    81.080364 
    6400    2122.9443   -115.60491    1.9208846   -113.68402    69139.969    4.2981359    4.2981359    4.2981359    69139.969     66331.57    44502.012    96586.326    6598.4351   -2909.8076     25506.29    79.403643 
    6500    1326.5582   -114.99831    1.2002978   -113.79801   -38863.837    4.3458682    4.3458682    4.3458682   -38863.837    16301.267   -84166.973   -48725.804   -9854.4881    24708.327   -13317.059    82.078545 
    6600    1146.7329   -114.82173     1.037588   -113.78414   -7634.4635    4.3782966    4.3782966    4.3782966   -7634.4635     39405.89   -51315.589   -10993.691    4487.6642    21633.516   -20401.691    83.929671 
    6700    2618.8652   -116.11343    2.3696043   -113.74383   -24346.869     4.380503     4.380503     4.380503   -24346.869    4617.3196   -58224.557   -19433.371   -13964.599   -21140.136    7221.8912    84.056625 
    6800    2034.2305   -115.56882    1.8406145   -113.72821   -31843.286    4.3652979    4.3652979    4.3652979   -31843.286   -37457.795   -46170.204   -11901.858    3560.3881    17809.642   -9460.9127    83.184356 
    6900    1717.0962   -115.29341    1.5536647   -113.73975   -10343.009    4.3340716    4.3340716    4.3340716   -10343.009    -9656.666    1208.5902    -22580.95    3203.0583    43306.834   -53424.903    81.411969 
    7000    2842.1833   -116.31906    2.5716672   -113.74739    29542.289    4.3195129    4.3195129    4.3195129    29542.289    1944.0917    34235.169    52447.607    13068.955    7772.8382    10188.855    80.594302 
    7100     2134.253   -115.74018     1.931117   -113.80906    34846.261    4.3490057    4.3490057    4.3490057    34846.261    47958.268    16193.369    40387.145    4891.2629     5689.135   -768.86782    82.256445 
    7200    1578.1823   -115.24136    1.4279725   -113.81339   -36115.132    4.3866533    4.3866533    4.3866533   -36115.132   -38523.899   -6431.2854    -63390.21   -8798.3207    29140.563    -14750.01    84.411174 
    7300    2698.1641   -116.16918    2.4413555   -113.72783    -41204.43    4.3951767    4.3951767    4.3951767    -41204.43   -58127.474   -57557.353    -7928.463    4717.7397    1183.4533    36320.154     84.90417 
    7400     2281.922   -115.74602     2.064731   -113.68129   -38506.861    4.3713736    4.3713736    4.3713736   -38506.861   -31037.299   -54796.488   -29686.795    9888.1562    19853.233   -32381.762    83.532174 
    7500    2107.7722    -115.5967    1.9071566   -113.68955   -9691.7255    4.3439237    4.3439237    4.3439237   -9691.7255    31228.551   -38497.685   -21806.042    18040.459    35732.936   -22810.944    81.968419 
    7600    2802.6415   -116.26684    2.5358889   -113.73095   -7203.6949    4.3530144    4.3530144    4.3530144   -7203.6949   -23761.088    3405.9772   -1255.9744   -18554.699    -16566.23    33824.515    82.484111 
    7700    2001.9631   -115.57837    1.8114183   -113.76695   -22930.841    4.3869221    4.3869221    4.3869221   -22930.841     62920.48   -67252.407   -64460.597    8086.9889    19931.365   -25323.109    84.426694 
    7800    1780.8497   -115.30974    1.6113503   -113.69839   -36238.681    4.4052318    4.4052318    4.4052318   -36238.681    14334.145   -57216.816   -65833.373   -11376.011    8904.6794   -27023.215    85.488227 
    7900    2016.0405   -115.47389    1.8241558   -113.64973     13270.34    4.3846452    4.3846452    4.3846452     13270.34     22064.43    59801.263   -42054.674   -19061.141   -18460.178    22539.304    84.295304 
    8000    1149.6942   -114.70269    1.0402674   -113.66242    26710.897    4.3646801    4.3646801    4.3646801    26710.897    145741.57   -14868.518   -50740.364    12218.019   -440.95649   -45673.797    83.149045 
    8100    1888.2719   -115.39543    1.7085481   -113.68688     19270.92    4.3540754    4.3540754    4.3540754     19270.92    59380.061    4627.7044   -6195.0067   -1247.1931    10967.419    3185.0682    82.544443 
    8200    1592.7402   -115.17476    1.4411448   -113.73362    14588.662    4.3577967    4.3577967    4.3577967    14588.662   -13927.346    76085.219   -18391.888   -15124.609   -28281.148   -18557.443    82.756267 
    8300    1900.2747    -115.4722    1.7194085   -113.75279   -8429.3807     4.375232     4.375232     4.375232   -8429.3807    20229.314    10035.822   -55553.279    3358.1674    12546.483   -26025.108    83.753558 
    8400     2035.396   -115.57861    1.8416691   -113.73694    -4628.636    4.3774266    4.3774266    4.3774266    -4628.636    71676.069   -27969.418    -57592.56    5942.3174    9595.6083    5780.1214    83.879651 
    8500    1809.7133   -115.36668    1.6374666   -113.72921   -10314.902    4.3631456    4.3631456    4.3631456   -10314.902    15479.738    5157.0031   -51581.448    3227.5416   -8008.9009    -39659.36    83.061375 
    8600    2599.3227   -116.07006    2.3519218   -113.71814   -2436.7088    4.3612641    4.3612641    4.3612641   -2436.7088    38479.696   -8656.8472   -37132.975   -19923.225   -13338.797   -13041.247    82.953969 
    8700    2267.2551   -115.78106    2.0514601    -113.7296   -19111.227    4.3726851    4.3726851    4.3726851   -19111.227    23349.774   -13269.809   -67413.646     6351.525     20186.97   -13438.981    83.607379 
    8800    1709.1142   -115.29579    1.5464425   -113.74935    13352.006    4.3635385    4.3635385    4.3635385    13352.006    88848.101   -61311.793     12519.71     39945.57   -15357.686     -15498.2    83.083815 
    8900    2576.7841    -116.0856    2.3315284   -113.75407    24135.206    4.3552896    4.3552896    4.3552896    24135.206    85993.684   -19822.589    6234.5253   -10613.954    30982.541    18132.279    82.613516 
    9000    1716.4446   -115.36136    1.5530752   -113.80828   -12368.837     4.378367     4.378367     4.378367   -12368.837    90423.036   -53099.266   -74430.282   -1964.0149    22132.637   -30537.781    83.933722 
    9100    2421.0951   -115.95908    2.1906577   -113.76842   -14711.735    4.3870508    4.3870508    4.3870508   -14711.735     24195.89   -61325.768   -7005.3256   -13538.917   -5084.4214    7173.2255    84.434121 
    9200    2119.0138   -115.66794    1.9173282   -113.75061   -16117.292    4.3771221    4.3771221    4.3771221   -16117.292   -19601.448   -31778.592    3028.1648    7371.0755    10451.237   -765.91977    83.862146 
    9300    1390.2315   -114.99928    1.2579106   -113.74137    32923.589    4.3596853    4.3596853    4.3596853    32923.589    108079.86    5668.6871   -14977.775    5917.2793    38719.113   -23799.159    82.863908 
    9400    2790.8463   -116.28514    2.5252164   -113.75993   -15623.873    4.3631806    4.3631806    4.3631806   -15623.873   -18524.774   -18872.105   -9474.7411    7818.2246    11384.519    19167.072    83.063374 
    9500    2148.6314   -115.71556    1.9441269   -113.77144     1880.324    4.3739439    4.3739439    4.3739439     1880.324    13787.086   -14854.707    6708.5922    5233.7645    -13026.26    -3946.573    83.679605 
    9600    1758.7312   -115.35358    1.5913369   -113.76224   -15914.517    4.3863992    4.3863992    4.3863992   -15914.517   -3387.9299   -47731.328    3375.7068   -3521.7974    13097.348   -20407.215    84.396505 
    9700    1790.2637   -115.34847    1.6198682    -113.7286   -90.193038    4.3873343    4.3873343    4.3873343   -90.193038    11433.895   -9589.1982   -2115.2759   -1872.4722    33039.803    24867.043    84.450492 
    9800    2324.3385   -115.81427    2.1031104   -113.71116   -3788.7134    4.3729052    4.3729052    4.3729052   -3788.7134    -39146.33   -9570.4596    37350.649   -6403.6533    6425.4637    2694.2992    83.620005 
    9900    2072.1608   -115.61641    1.8749346   -113.74148    22653.255    4.3683128    4.3683128    4.3683128    22653.255    12700.795    42721.104    12537.867   -7719.1809   -11832.225   -11757.611    83.356828 
   10000    1985.8798   -115.54309    1.7968657   -113.74622    18263.083    4.3756023    4.3756023    4.3756023    18263.083   -25827.631    29231.491     51385.39     6741.495    1516.5329    17370.332    83.774827 
   10100    2493.7815    -116.0027    2.2564259   -113.74628    -17874.62     4.379133     4.379133     4.379133    -17874.62   -33163.232    24804.808   -45265.436    4210.8328    2073.3773   -1895.3796    83.977781 
   10200    2074.4164   -115.65469    1.8769755   -113.77772   -20960.972    4.3841373    4.3841373    4.3841373   -20960.972   -7296.1133   -64819.858    9233.0562    5541.6771   -17864.205   -40941.496    84.266012 
   10300     2006.549   -115.57326    1.8155677   -113.75769   -41859.264    4.3783871    4.3783871    4.3783871   -41859.264   -78590.879   -30081.292    -16905.62   -8024.0543    20065.985   -6391.4872    83.934879 
   10400    1702.5452   -115.29486    1.5404987   -113.75436    32273.349    4.3598073    4.3598073    4.3598073    32273.349   -34109.162    25235.967    105693.24   -14151.888    7061.8261    28246.938    82.870868 
   10500    1749.5202   -115.37034    1.5830027   -113.78733    192.01791    4.3692034    4.3692034    4.3692034    192.01791    -46899.22   -25915.808    73391.082    7468.8272   -1107.0529   -947.54208    83.407824 
   10600    2275.3323   -115.83333    2.0587685   -113.77456   -70959.504    4.3838222    4.3838222    4.3838222   -70959.504   -124295.47   -63378.045       -25205    10443.478    26707.761   -17255.113    84.247846 
   10700    1878.1211   -115.46639    1.6993634   -113.76703    16374.558     4.373766     4.373766     4.373766    16374.558   -25545.167     41299.11    33369.731   -5765.0936    6831.7917   -13331.187    83.669395 
   10800    2074.2735   -115.63551    1.8768463   -113.75866   -1191.7025    4.3708584    4.3708584    4.3708584   -1191.7025    9430.6003   -36305.005    23299.297    27016.877   -211.03383    11510.486    83.502639 
   10900    1644.6314   -115.24406    1.4880971   -113.75596    3346.4073    4.3629603    4.3629603    4.3629603    3346.4073   -69872.446   -49082.738    128994.41    6640.2533    20576.893   -8132.3244    83.050792 
   11000    2606.6305    -116.1128    2.3585341   -113.75427    2500.1441    4.3580968    4.3580968    4.3580968    2500.1441   -14986.258   -5505.6096      27992.3   -5976.0025    -10317.42    7367.4998    82.773369 
   11100    1569.9374   -115.21656    1.4205123   -113.79605   -14484.153    4.3853854    4.3853854    4.3853854   -14484.153   -74443.742    -16387.03    47378.313    9592.2791   -13144.901    10114.858    84.337998 
   11200    2332.9649   -115.84483    2.1109156   -113.73391   -72638.741    4.3967338    4.3967338    4.3967338   -72638.741   -90876.635   -88735.661   -38303.927   -8675.1135   -5872.0878    -16665.53    84.994437 
   11300    2708.1806   -116.14404    2.4504188   -113.69362   -11143.939    4.3743166    4.3743166    4.3743166   -11143.939   -81381.352    46727.336    1222.1986    7689.6674   -12996.942   -8035.0019    83.700999 
   11400    2061.7313   -115.57391    1.8654978   -113.70841    11986.592     4.359714     4.359714     4.359714    11986.592   -42829.852    90512.222   -11722.593    5779.8772    2307.7151    8398.3063    82.865545 
   11500    1815.3681   -115.42596    1.6425832   -113.78338   -6693.5924    4.3734862    4.3734862    4.3734862   -6693.5924   -72769.816   -21025.755    73714.793   -6313.9956    9893.2695    41842.982    83.653337 
   11600    2659.8499   -116.18002    2.4066881   -113.77333   -41743.444     4.402326     4.402326     4.402326   -41743.444   -98943.037    14416.725   -40704.019    7650.4273    -1606.659   -3070.6876    85.319164 
   11700    2371.3787   -115.87629    2.1456733   -113.73062   -43253.834    4.4124076    4.4124076    4.4124076   -43253.834   -87126.277   -47898.071    5262.8451    8238.5146    16191.654    12661.062    85.906665 
   11800    2035.5738   -115.55866    1.8418299   -113.71683   -20929.538    4.3957059    4.3957059    4.3957059   -20929.538   -75640.381    29288.417    -16436.65    23959.333     9163.596    4880.0425    84.934842 
   11900    2550.2334   -116.02738    2.3075048   -113.71988    7661.9213    4.3678671    4.3678671    4.3678671    7661.9213   -47743.077    69387.148    1341.6937   -5750.2022   -1998.9221   -7578.5502    83.331319 
   12000    2693.7745   -116.17948    2.4373837    -113.7421   -28549.222    4.3478554    4.3478554    4.3478554   -28549.222   -29686.046   -7151.3153   -48810.305    10271.056   -7351.2268   -29510.554     82.19119 
   12100    1640.8236   -115.31888    1.4846517   -113.83423   -3260.3636    4.3695791    4.3695791    4.3695791   -3260.3636   -49058.839    53221.966   -13944.218    29342.639     11271.03   -18298.795    83.429343 
   12200    1929.8526   -115.56854    1.7461712   -113.82237    25577.087    4.3942452    4.3942452    4.3942452    25577.087   -42356.265     120513.3   -1425.7737   -9401.2945    7994.5005    23925.937      84.8502 
   12300    2150.2479   -115.72252    1.9455895   -113.77693   -23692.839    4.4055173    4.4055173    4.4055173   -23692.839   -27477.113    26208.684   -69810.087   -6213.3148   -2455.9711    1797.6215    85.504849 
   12400    2137.4224   -115.67333    1.9339847   -113.73934   -6688.2757    4.4072338    4.4072338    4.4072338   -6688.2757   -29463.232    19957.218   -10558.813    13638.418    15917.456   -5414.3849    85.604829 
   12500    2807.7722    -116.2453    2.5405313   -113.70477   -21624.801    4.4114517    4.4114517    4.4114517   -21624.801    -25363.12    36930.353   -76441.636   -9368.2919    783.04968     16113.62    85.850846 
   12600    1407.6752   -114.96466    1.2736941   -113.69097   -5011.8988    4.4014284    4.4014284    4.4014284   -5011.8988   -29595.131    73278.979   -58719.545   -10076.145   -19817.011   -32994.558    85.266987 
   12700    1975.7284   -115.47951    1.7876805   -113.69183    11486.338    4.3703484    4.3703484    4.3703484    11486.338   -74798.651    51920.063    57337.604    21168.837    -3339.564   -1390.8862    83.473416 
   12800    2427.9353   -115.90712    2.1968469   -113.71027   -13175.039    4.3483465    4.3483465    4.3483465   -13175.039    36539.477   -67217.939    -8846.654    684.93219    607.05757   -27634.243    82.219048 
   12900    815.59743   -114.51283   0.73796969   -113.77486    16634.019    4.3625639    4.3625639    4.3625639    16634.019    85651.175   -43397.772    7648.6551    1964.2203    3703.4049   -61773.725    83.028158 
   13000    2206.5688   -115.75567    1.9965498   -113.75912    17511.497    4.3882194    4.3882194    4.3882194    17511.497    42749.026    235.80976    9549.6542   -2811.3565   -13812.906    9242.5762    84.501615 
   13100    1789.6888   -115.35854     1.619348   -113.73919    -27414.34    4.4311959    4.4311959    4.4311959    -27414.34     7662.596   -60239.105   -29666.511    4712.7083     14845.86   -44801.471    87.008736 
   13200    1961.4071   -115.42868    1.7747224   -113.65396    -49008.94    4.4343505    4.4343505    4.4343505    -49008.94   -52698.468   -87577.913   -6750.4398   -4980.2515    677.98365    6928.8734     87.19469 
   13300    2228.9445   -115.67561    2.0167958   -113.65881    22597.185    4.3551994    4.3551994    4.3551994    22597.185   -19760.399    35871.065     51680.89   -14924.195   -23581.955   -5295.8821    82.608386 
   13400    1760.4238   -115.21824    1.5928685   -113.62537    121424.34    4.3060618    4.3060618    4.3060618    121424.34    131871.21    95625.528    136776.29    23679.588     18875.98   -40833.592    79.843722 
   13500    2297.4024   -115.90933     2.078738   -113.83059    23353.114    4.3669626    4.3669626    4.3669626    23353.114    14213.401    63131.922   -7285.9807    6032.1343   -19193.954    28361.191    83.279557 
   13600    2633.5924   -116.10424    2.3829298   -113.72131   -61994.289     4.437025     4.437025     4.437025   -61994.289   -24544.499   -57877.989   -103560.38    14744.188    8846.0356     777.6882     87.35256 
   13700    1976.2184   -115.39245     1.788124   -113.60432    -32651.55    4.4277797    4.4277797    4.4277797    -32651.55   -66881.801    8554.0231   -39626.873    1758.9986     8066.252   -41782.182    86.807651 
   13800    2109.6378   -115.45731    1.9088446   -113.54847    28463.877    4.3844508    4.3844508    4.3844508    28463.877    -35879.76      19940.7    101330.69   -6351.4367   -25270.417    -14590.25    84.284092 
   13900    2181.2481   -115.60659    1.9736391   -113.63295     32046.22    4.3726062    4.3726062    4.3726062     32046.22   -8334.7466    37314.125    67159.283   -3980.1743   -4279.4657   -22809.596    83.602854 
   14000    1787.7484    -115.3525    1.6175923   -113.73491   -16423.479    4.3964586    4.3964586    4.3964586   -16423.479    -36788.71     44436.53   -56918.256    47069.557    1419.3198    -7029.684    84.978483 
   14100    2619.6833   -116.09044    2.3703445   -113.72009   -21314.026    4.4189838    4.4189838    4.4189838   -21314.026   -91061.099     25782.07    1336.9509    15708.997    8391.2158     31148.39    86.291341 
   14200    1657.5448   -115.18819    1.4997813   -113.68841   -9070.1642    4.4176335    4.4176335    4.4176335   -9070.1642   -27538.704   -55914.302    56242.513    9362.4355   -3395.2164   -14703.852    86.212266 
   14300    1850.3915   -115.34803    1.6742731   -113.67376   -21905.232    4.3962588    4.3962588    4.3962588   -21905.232   -34027.364   -44512.279    12823.947   -4795.8257    2174.4956    11748.965    84.966897 
   14400      2843.96   -116.23539    2.5732748   -113.66211    20490.951    4.3396143    4.3396143    4.3396143    20490.951    1431.2494    12336.959    47704.645   -22975.016    1127.9771    40331.526     81.72471 
   14500    1169.2826   -114.79728    1.0579915   -113.73929    43501.245    4.3201552    4.3201552    4.3201552    43501.245    17264.362    25062.831    88176.543    22108.001   -2139.9165   -78103.454    80.630257 
   14600    1922.7969   -115.58259     1.739787    -113.8428   -32869.821    4.3624649    4.3624649    4.3624649   -32869.821   -36301.395   -63944.639    1636.5705    9047.2863   -13482.689   -34946.686    83.022506 
   14700    2794.3841   -116.33041    2.5284174   -113.80199   -46939.813    4.4098148    4.4098148    4.4098148   -46939.813   -82612.019   -63584.671    5377.2504   -12380.861    17809.914    20697.456    85.755316 
   14800    1339.9305   -114.95455    1.2123973   -113.74215   -55000.057    4.4129055    4.4129055    4.4129055   -55000.057    14001.777   -137626.17   -41375.779    23578.797   -18412.388   -39142.081    85.935755 
   14900    1631.8704   -115.16709    1.4765506   -113.69054    493.13303    4.3631167    4.3631167    4.3631167    493.13303    36690.122    -36789.53    1578.8066    35884.758    17912.596   -18500.893    83.059726 
   15000    2388.1401   -115.82135    2.1608393   -113.66051    53754.326    4.3251348    4.3251348    4.3251348    53754.326    15458.199    87243.194    58561.586   -15507.714    18430.224    20587.711     80.90939 
   15100    1938.8739   -115.53046    1.7543339   -113.77612    2119.5495    4.3532076    4.3532076    4.3532076    2119.5495    34615.296   -76070.836    47814.189    13999.431    -22755.32   -22943.962    82.495098 
   15200    1834.7534   -115.43238    1.6601235   -113.77225   -51253.734    4.4070523    4.4070523    4.4070523   -51253.734    -70023.07   -79812.254   -3925.8793    37529.962   -5002.7226    5313.5082    85.594252 
   15300    2140.8342   -115.63351    1.9370717   -113.69644   -6409.5257    4.3991207    4.3991207    4.3991207   -6409.5257   -50121.989        20244    10649.412    -4232.069    9459.3362     22156.76     85.13294 
   15400    2141.4321   -115.59883    1.9376127   -113.66122    22920.456    4.3676174    4.3676174    4.3676174    22920.456    58568.314    8629.0639    1563.9915    23344.713   -2783.5645   -16512.647    83.317027 
   15500    1794.3975   -115.33531    1.6236086    -113.7117    7689.1795    4.3651945    4.3651945    4.3651945    7689.1795    62371.022   -57097.886    17794.403    44310.038    -3924.282    12195.193    83.178447 
   15600    2510.5161   -115.99229    2.2715677   -113.72073    21310.815    4.3597527    4.3597527    4.3597527    21310.815    -5929.212    47892.114    21969.543   -8332.3314   -3255.0122    -2686.666    82.867756 
   15700    1002.2704   -114.68628   0.90687529    -113.7794    38111.453    4.3778201    4.3778201    4.3778201    38111.453    92243.806   -53362.677    75453.231     17232.21   -2729.6833   -41014.935    83.902276 
   15800    2539.1826   -116.01622    2.2975058   -113.71872   -14584.435     4.393215     4.393215     4.393215   -14584.435    11510.232   -23852.221   -31411.316   -1523.2779   -13795.521    19612.088    84.790532 
   15900    2378.6164   -115.85333    2.1522221   -113.70111    -2233.431    4.3572759    4.3572759    4.3572759    -2233.431    -19879.11    4788.9166    8389.9008    4752.6527    20120.185   -20092.821    82.726603 
   16000    1724.8811   -115.28383    1.5607087   -113.72312    10142.059    4.3271564    4.3271564    4.3271564    10142.059    50907.672   -13647.312   -6834.1826   -2933.0676    4128.7454   -69882.893    81.022901 
   16100    2158.4052   -115.73022    1.9529704   -113.77725    30499.749    4.3470178    4.3470178    4.3470178    30499.749   -40069.151    71694.117     59874.28     9352.698   -12649.772    5230.8727    82.143699 
   16200    2248.1029   -115.80864    2.0341308   -113.77451   -52606.832     4.377191     4.377191     4.377191   -52606.832   -57086.888   -25426.578   -75307.029    4615.0166    -7759.452   -16233.659    83.866111 
   16300     1136.115   -114.76721    1.0279807   -113.73923   -14386.373    4.3870356    4.3870356    4.3870356   -14386.373   -36535.172     6613.903   -13237.851    -340.3083    8228.2757   -44691.004    84.433243 
   16400    2883.1416   -116.29252    2.6087271   -113.68379   -13789.919    4.3736617    4.3736617    4.3736617   -13789.919   -49424.454    27348.676   -19293.978   -6099.9815   -17473.261    13150.102    83.663411 
   16500    990.31897   -114.59737   0.89606141   -113.70131    10175.131    4.3635568    4.3635568    4.3635568    10175.131    22704.954   -1098.1173    8918.5546    7371.0934   -11748.224   -85886.657    83.084862 
   16600    2562.1644    -116.0274    2.3183002    -113.7091   -9648.9042    4.3593793    4.3593793    4.3593793   -9648.9042   -34979.843    3978.1126    2055.0182   -18.431633    12194.265   -3828.0583    82.846462 
   16700    1453.2102   -115.05472    1.3148951   -113.73983    75147.046     4.341045     4.341045     4.341045    75147.046    103801.88    18082.962    103556.29   -3422.9531    3317.5937   -33739.718    81.805567 
   16800    1663.7604   -115.28933    1.5054054   -113.78393    27806.745    4.3550385    4.3550385    4.3550385    27806.745    86395.519   -3694.0773    718.79316    1731.4903   -4184.2683   -70758.934    82.599231 
   16900    3041.8147    -116.4829    2.7522978   -113.73061   -26294.208    4.3932206    4.3932206    4.3932206   -26294.208   -29472.029   -25517.793   -23892.802    9095.9538    4960.5669    19010.249    84.790859 
   17000    1608.2122   -115.14827    1.4551442   -113.69313   -8717.0495    4.3853475    4.3853475    4.3853475   -8717.0495    53816.025   -39584.905   -40382.268   -9362.3161   -15100.427   -71687.989    84.335816 
   17100    2429.1961   -115.84569    2.1979877    -113.6477    40506.219    4.3575211    4.3575211    4.3575211    40506.219    99198.806    4082.2073    18237.645    10290.743   -8782.6149    9179.2339    82.740568 
   17200    1948.9552   -115.45053    1.7634556   -113.68707    18271.052     4.344154     4.344154     4.344154    18271.052     87110.41   -23943.215   -8354.0408    3464.0235   -3533.4959   -45339.605    81.981456 
   17300     1956.026   -115.49961    1.7698534   -113.72976    25239.772    4.3477188    4.3477188    4.3477188    25239.772     100585.2   -24784.779    -81.10025    12479.456    5184.0423    -50756.58    82.183447 
   17400    2498.5472   -116.01992    2.2607381   -113.75918   -4855.4515    4.3791549    4.3791549    4.3791549   -4855.4515    10095.363   -27654.157    2992.4394   -20057.271   -24364.119    16324.883    83.979043 
   17500    1491.4457   -115.06324    1.3494914   -113.71375   -87600.677    4.3917899    4.3917899    4.3917899   -87600.677    2513.4137    -138392.3   -126923.14   -13756.295   -1390.2774   -94814.148    84.708048 
   17600     2992.565   -116.37237    2.7077357   -113.66463    14174.069    4.3390149    4.3390149    4.3390149    14174.069     8452.883     32807.69    1261.6331    2608.7587   -3791.1316    6366.2348    81.690849 
   17700    1811.5096   -115.32861     1.639092   -113.68951    41793.929    4.3213264    4.3213264    4.3213264    41793.929    120120.15    15301.449    -10039.81     20144.88    2421.4661   -40179.895    80.695852 
   17800     1312.609    -114.9486    1.1876762   -113.76093   -1550.0728    4.3492113    4.3492113    4.3492113   -1550.0728    44793.365   -3539.5633   -45904.021   -11579.826   -9085.9701   -62093.724    82.268109 
   17900    2420.5037   -115.93173    2.1901226   -113.74161    1137.8266    4.3694577    4.3694577    4.3694577    1137.8266   -63335.002    45414.825    21333.657    4351.3037   -1803.0677    34417.392    83.422387 
   18000    1920.3177   -115.46585    1.7375438   -113.72831   -55380.809    4.3793426    4.3793426    4.3793426   -55380.809   -5022.9639   -97708.873   -63410.589    16224.844   -479.96514   -46270.184    83.989841 
   18100    1943.0215   -115.47416    1.7580867   -113.71608    4422.9491    4.3434217    4.3434217    4.3434217    4422.9491    63281.235   -29064.238    -20948.15   -12337.558   -16778.458    -65827.08    81.940008 
   18200    2505.2949   -115.96957    2.2668435   -113.70273    32751.951    4.3223769    4.3223769    4.3223769    32751.951   -7904.2173    19411.141     86748.93    17315.681     7760.205    33086.054     80.75472 
   18300    1394.3627   -115.02249    1.2616487   -113.76084   -30922.281    4.3526963    4.3526963    4.3526963   -30922.281     83576.98   -106446.08   -69897.747    15417.333     5756.147   -58202.743     82.46603 
   18400    1793.1243   -115.35688    1.6224566   -113.73442    238.80612    4.3575478    4.3575478    4.3575478    238.80612    52072.729    -42027.83   -9328.4806   -21116.828    9333.8623   -46227.553    82.742088 
   18500    2571.0963   -116.04837     2.326382   -113.72199   -12735.053    4.3586302    4.3586302    4.3586302   -12735.053   -36142.937   -30239.396    28177.174   -14831.897    -17427.42    16201.115    82.803764 
   18600    1619.6787   -115.19518    1.4655193   -113.72966   -38546.349    4.3620596    4.3620596    4.3620596   -38546.349    26806.288    -85237.82   -57207.515    5376.4677   -12089.516   -20444.858    82.999368 
   18700     1962.741   -115.49962    1.7759293    -113.7237    9071.4705    4.3331073    4.3331073    4.3331073    9071.4705    23152.833    72.687806    3988.8908   -8937.1844    28499.177    2153.9081    81.357638 
   18800    2519.6708   -116.03108    2.2798511   -113.75123    7212.2315     4.343362     4.343362     4.343362    7212.2315     -1287.41    -43757.98    66682.085   -3975.2069   -13910.524   -3158.8426    81.936626 
   18900    1518.0726   -115.13192     1.373584   -113.75833   -54347.936    4.3600639    4.3600639    4.3600639   -54347.936    19173.105   -76600.059   -105616.85      2951.97   -15923.996   -70695.651      82.8855 
   19000    1834.7476   -115.39855    1.6601182   -113.73843    42772.475    4.3384223    4.3384223    4.3384223    42772.475     50247.73    655.73647    77413.958   -11483.705    309.94879    796.62082    81.657383 
   19100    2951.5384    -116.4194     2.670614   -113.74879   -14259.085    4.3451894    4.3451894    4.3451894   -14259.085   -862.34949   -29295.653   -12619.252   -12457.923   -1874.7611    4759.3136    82.040092 
   19200    1213.8319   -114.86766    1.0983006   -113.76936    22525.098    4.3513683    4.3513683    4.3513683    22525.098     89756.38   -24542.279    2361.1938    10956.987    9417.6299   -62349.641    82.390573 
   19300    2475.9395   -115.97221    2.2402821   -113.73193    33598.887    4.3569934    4.3569934    4.3569934    33598.887    30890.343     42205.95    27700.369   -22088.124   -11682.618    19228.775    82.710509 
   19400    2044.9743   -115.58243    1.8503357    -113.7321   -2495.4785    4.3596546    4.3596546    4.3596546   -2495.4785     35440.47    10581.306   -53508.211     4544.654    15844.963   -45417.997     82.86216 
   19500    1533.5299   -115.13337    1.3875701    -113.7458   -19153.179    4.3568951    4.3568951    4.3568951   -19153.179    38445.281   -50233.869   -45670.949   -9659.9372     12937.14    -75003.03    82.704912 
   19600    2811.8336    -116.2539    2.5442062   -113.70969    36579.281    4.3547721    4.3547721    4.3547721    36579.281    8616.1069    44360.692    56761.045    -16814.85   -12358.115    35498.868    82.584074 
   19700    1741.3429   -115.30263    1.5756036   -113.72703      -1309.2    4.3596427    4.3596427    4.3596427      -1309.2    31348.303   -11587.892   -23688.011    13869.689    28032.702   -52429.805    82.861482 
   19800    1527.2097   -115.12112    1.3818514   -113.73927   -16584.177    4.3668961    4.3668961    4.3668961   -16584.177   -38903.997    -40878.25    30029.718   -11112.999    8706.1654   -18492.309    83.275756 
   19900    2806.6687    -116.2616    2.5395328   -113.72207   -16394.615    4.3570147    4.3570147    4.3570147   -16394.615   -41608.179   -19000.678    11425.012    4166.5147   -27008.858    -2396.068    82.711722 
   20000     1722.687    -115.3097    1.5587234   -113.75098   -37912.084    4.3556017    4.3556017    4.3556017   -37912.084   -27950.382   -62209.635   -23576.235    12751.838    22893.611   -51888.275    82.631279 
   20100    1457.7442   -115.08251    1.3189975   -113.76352   -38886.786    4.3652203    4.3652203    4.3652203   -38886.786     -71215.2   -51885.496    6440.3375   -10290.966    49830.691   -6178.3128     83.17992 
   20200    2816.4993   -116.29536    2.5484277   -113.74693   -8592.0723    4.3385441    4.3385441    4.3385441   -8592.0723   -23738.945   -41518.262     39480.99   -29283.417   -10695.943    4401.3416    81.664264 
   20300    1888.8309   -115.47207    1.7090539   -113.76302    11605.684    4.3224946    4.3224946    4.3224946    11605.684    47911.616    -21277.78    8183.2161    9878.6081   -5644.5176   -24171.807    80.761317 
   20400    1429.2702   -115.08872    1.2932337   -113.79549   -13788.223    4.3515517    4.3515517    4.3515517   -13788.223   -16118.845   -8123.6582   -17122.166    1639.3245    83511.013    -660.5945    82.400991 
   20500    2495.0965    -116.0124    2.2576157   -113.75479   -30335.569    4.3678918    4.3678918    4.3678918   -30335.569   -27400.318   -34994.874   -28611.517   -13046.416   -5664.3555    9598.7479    83.332731 
   20600    2226.6858   -115.75998    2.0147521   -113.74522   -23027.311    4.3710333    4.3710333    4.3710333   -23027.311   -22184.533     -58371.7    11474.302    13652.983   -36352.898   -12592.249    83.512667 
   20700    2092.4828   -115.63212    1.8933224    -113.7388    35056.703    4.3674979    4.3674979    4.3674979    35056.703    128507.77   -67709.374    44371.715   -2954.9374   -2169.4812   -7090.9569     83.31019 
   20800     2387.633   -115.89829    2.1603805   -113.73791    13798.424    4.3594369    4.3594369    4.3594369    13798.424    33646.543   -14617.402    22366.131   -20998.857   -23673.139   -1815.0173    82.849747 
   20900    1303.2486   -114.92567    1.1792067   -113.74646    34529.746    4.3522231    4.3522231    4.3522231    34529.746    131253.16   -5869.0861   -21794.836   -7916.0156   -52044.332   -11249.258    82.439141 
   21000      1992.54   -115.54704     1.802892   -113.74415    6856.8829    4.3653877    4.3653877    4.3653877    6856.8829    15810.514   -63331.286     68091.42   -26320.796    1410.1278    16619.254     83.18949 
   21100     1874.835   -115.42047    1.6963901   -113.72408    25337.081    4.3710687    4.3710687    4.3710687    25337.081    16166.906   -58606.368     118450.7   -26456.589   -21321.654    5922.2309    83.514696 
   21200     1563.067   -115.13219    1.4142958   -113.71789    25335.741    4.3661389    4.3661389    4.3661389    25335.741    11703.209   -47728.354    112032.37    10618.118   -35806.267    20239.977    83.232442 
   21300    1194.7815   -114.81347    1.0810634   -113.73241   -33539.895    4.3765065    4.3765065    4.3765065   -33539.895    3406.8207   -130834.69    26808.182   -30493.166    2315.2774    28377.549    83.826772 
   21400    2373.3416   -115.85151    2.1474493   -113.70406   -3481.9263    4.3712844    4.3712844    4.3712844   -3481.9263    10631.509   -49381.653    28304.365    -24749.33   -10890.009    -15358.03    83.527056 
   21500    2025.6335   -115.55367    1.8328358   -113.72083     3234.209    4.3602932    4.3602932    4.3602932     3234.209     72511.68   -47092.436   -15716.617   -2164.0653   -36192.559    14457.972    82.898579 
   21600    1724.3593    -115.3055    1.5602365   -113.74527    15599.492    4.3401827    4.3401827    4.3401827    15599.492    89923.692   -65352.327    22227.111   -16647.115   -29110.719   -2975.2671    81.756831 
   21700    2126.3181   -115.67814    1.9239373    -113.7542    45924.386    4.3253846    4.3253846    4.3253846    45924.386    105304.01   -4767.8221    37236.971   -9220.6387    33517.906   -15155.218    80.923414 
   21800    2144.8648   -115.74869    1.9407188   -113.80797   -24663.425    4.3468727    4.3468727    4.3468727   -24663.425   -20850.119    -27628.79   -25511.365    9445.3466    64472.736    6713.4773    82.135472 
   21900    2093.9916   -115.67876    1.8946876   -113.78407   -29127.754    4.3701345    4.3701345    4.3701345   -29127.754    138.10025   -58811.654   -28709.709    12568.381   -26526.274    1891.4797     83.46116 
   22000    1610.0301   -115.19216    1.4567891   -113.73537     13115.41    4.3687012    4.3687012    4.3687012     13115.41    11905.976    4768.7137    22671.541    729.26797    51992.093    -5347.666    83.379065 
   22100    2295.7809   -115.79339    2.0772708   -113.71612   -20058.434    4.3722821    4.3722821    4.3722821   -20058.434   -24742.933   -51604.084    16171.716    7976.9098    60451.958    10959.654    83.584262 
   22200    2300.0637    -115.7932    2.0811459   -113.71205     12064.69    4.3632694    4.3632694    4.3632694     12064.69   -5834.3602   -13629.664    55658.093    10710.967   -15454.154   -2221.3553    83.068446 
   22300    1040.2305   -114.68209   0.94122242   -113.74087    44579.848    4.3632779    4.3632779    4.3632779    44579.848    26782.798    80432.851    26523.895   -8300.2915    50826.959   -3629.4215    83.068934 
   22400    2194.1753   -115.69593     1.985336    -113.7106    -2621.716    4.3860716    4.3860716    4.3860716    -2621.716   -64516.855   -2328.4116    58980.119    392.76376   -11044.648    7195.1665    84.377594 
   22500    2270.5704   -115.74815    2.0544598   -113.69369    9430.1289    4.3674199    4.3674199    4.3674199    9430.1289   -45093.804   -36113.027    109497.22    11392.552    9321.0817   -8088.9795    83.305723 
   22600    1575.5644   -115.14503    1.4256038   -113.71943   -4540.1399    4.3379318    4.3379318    4.3379318   -4540.1399   -18730.702    41572.552    -36462.27   -15851.165    43856.959    16501.406    81.629693 
   22700    1841.7488   -115.42304     1.666453   -113.75658   -1493.2448    4.3231086    4.3231086    4.3231086   -1493.2448    16308.537    2261.0379   -23049.309   -917.02312   -27389.514   -22027.809    80.795734 
   22800    2489.2971   -116.05024    2.2523683   -113.79787    14560.005    4.3329815    4.3329815    4.3329815    14560.005    15815.208   -15623.553     43488.36    194.11433   -1363.3437   -8387.6146    81.350552 
   22900    1851.3981   -115.48489    1.6751839    -113.8097   -9008.3012    4.3708341    4.3708341    4.3708341   -9008.3012   -16686.998   -22182.747    11844.841   -12022.963    14731.826    19472.334    83.501251 
   23000    2094.9977   -115.64359     1.895598     -113.748    15119.366    4.3813023    4.3813023    4.3813023    15119.366   -38369.322   -27099.958    110827.38   -10195.732    2073.8928   -24768.367    84.102643 
   23100    2658.7307   -116.13448    2.4056754   -113.72881   -18727.384    4.3669393    4.3669393    4.3669393   -18727.384   -20623.213   -45820.916    10261.979    16201.724     -17438.3    5739.7058    83.278228 
   23200    1019.9444   -114.70009   0.92286712   -113.77722    -13286.59    4.3400498    4.3400498    4.3400498    -13286.59   -53512.967   -75367.894    89021.092   -16312.006    10885.223    28192.259    81.749321 
   23300    1716.4958   -115.36851    1.5531215   -113.81539    28929.865    4.3255606    4.3255606    4.3255606    28929.865    13521.435   -38597.731    111865.89    5390.7899    13459.082    2685.1707    80.933291 
   23400    2827.5788   -116.39853    2.5584528   -113.84008    2288.1119    4.3445186    4.3445186    4.3445186    2288.1119    31186.086   -33806.707    9484.9561    7898.5363    27795.174   -30639.403    82.002099 
   23500    2505.3252   -116.09618    2.2668709   -113.82931   -4973.4953      4.35774      4.35774      4.35774   -4973.4953   -13643.462   -62202.869    60925.845   -24866.978   -34451.257   -2476.3089    82.753037 
   23600    1413.0385   -115.09706     1.278547   -113.81851   -19533.394    4.3645043    4.3645043    4.3645043   -19533.394   -8686.9237   -70125.882    20212.625    1233.3696    14799.305    6055.3735    83.138996 
   23700    1134.3486   -114.83379    1.0263825    -113.8074    -67385.41    4.3597312    4.3597312    4.3597312    -67385.41   -14074.776   -125187.67   -62893.783    20400.103   -7589.4891   -53545.779     82.86653 
   23800     2324.139   -115.88037    2.1029298   -113.77744    16112.814    4.3341067    4.3341067    4.3341067    16112.814    13254.649   -22589.775    57673.569    1079.1841   -14108.357   -3924.5142    81.413944 
   23900    2444.0345   -115.99333    2.2114138   -113.78191    73733.935    4.3284325    4.3284325    4.3284325    73733.935    126441.69    50458.589    44301.522   -6749.5726   -7339.2274   -7391.8547    81.094601 
   24000    1567.1525   -115.26394    1.4179925   -113.84595   -17587.016    4.3750859    4.3750859    4.3750859   -17587.016    19903.769   -89544.616    16879.799    22145.794    8008.0338   -49916.344    83.745166 
   24100    2188.3087   -115.71883    1.9800277    -113.7388   -52759.551    4.3959568    4.3959568    4.3959568   -52759.551    -63931.27   -99964.656    5617.2746    9234.2395     8273.742    15851.297    84.949389 
   24200    2479.6816   -115.97706     2.243668   -113.73339    33425.664    4.3286942    4.3286942    4.3286942    33425.664    42076.932    31626.738    26573.321   -22052.767    4932.4582    -18607.01    81.109315 
   24300    2220.3085   -115.70118    2.0089818    -113.6922    51667.355    4.2905701    4.2905701    4.2905701    51667.355    98039.557    13585.244    43377.265   -6772.3675     22329.74   -27702.385    78.985072 
   24400    2292.1204   -115.84948    2.0739587   -113.77552   -2452.8035    4.3335147    4.3335147    4.3335147   -2452.8035   -14540.166   -8368.4102    15550.166    3521.9149   -43240.999    12245.277    81.380587 
   24500     1879.883   -115.47718    1.7009576   -113.77622    12698.294     4.375917     4.375917     4.375917    12698.294    6816.0323    18449.974    12828.877   -19947.129    21952.097   -17597.297    83.792901 
   24600    1488.5596   -115.07425      1.34688   -113.72737   -29112.772    4.4101356    4.4101356    4.4101356   -29112.772   -37633.712    -353.8188   -49350.784   -901.28388    4648.8628    -6811.225    85.774032 
   24700    2555.7954   -115.97398    2.3125374   -113.66144   -45729.288    4.3904649    4.3904649    4.3904649   -45729.288   -38867.502   -42103.725   -56216.636    8330.2225   -13417.034    22121.451      84.6314 
   24800    1662.2178   -115.15002    1.5040096   -113.64601    47989.571    4.3217097    4.3217097    4.3217097    47989.571    70127.635    36977.024    36864.055   -42392.162   -3527.0456   -33405.147    80.717327 
   24900    1646.8231   -115.16828    1.4900801    -113.6782    30720.843    4.3069444    4.3069444    4.3069444    30720.843    58668.484    15810.766    17683.279   -4322.3667    8.7762981   -7881.6781    79.892828 
   25000    2717.6958   -116.19122    2.4590283   -113.73219    31708.344    4.3402865    4.3402865    4.3402865    31708.344    21508.782    36755.192    36861.058    23925.476   -2394.8583    14873.429    81.762694 
   25100    1551.3026   -115.16326    1.4036512   -113.75961     27517.92    4.3674606    4.3674606    4.3674606     27517.92    31590.528    17319.762    33643.469   -2942.7314   -3119.8638    -43735.83    83.308052 
   25200    1853.7076   -115.41663    1.6772735   -113.73935   -5219.5717    4.3896461    4.3896461    4.3896461   -5219.5717   -17382.061   -49137.662    50861.008   -11486.944    7545.0895   -13011.786     84.58406 
   25300    2511.4173   -115.98975    2.2723832   -113.71737    -50957.56    4.3695971    4.3695971    4.3695971    -50957.56   -57129.609   -90284.886   -5458.1841    56317.334    13036.236    11635.766    83.430373 
   25400    1795.2438    -115.3213    1.6243743   -113.69693    65609.784    4.3101902    4.3101902    4.3101902    65609.784    43807.838   -16457.927    169479.44    5529.9983    -19336.17   -42199.913    80.073589 
   25500    2359.2345   -115.86588     2.134685    -113.7312    35277.409    4.3068061    4.3068061    4.3068061    35277.409    21842.314    67688.483    16301.428    2262.5836    4921.0837   -11794.951    79.885134 
   25600    1664.0605   -115.29622    1.5056769   -113.79055    15644.253    4.3443728    4.3443728    4.3443728    15644.253   -36843.078    8304.4445    75471.392    52248.561    29361.088    8006.7586    81.993845 
   25700    2078.8533    -115.6343    1.8809902   -113.75331   -24360.122    4.3783365    4.3783365    4.3783365   -24360.122    740.15716    -38697.28   -35123.243   -10326.196   -10657.268   -31541.706     83.93197 
   25800    1609.2894   -115.17061    1.4561188   -113.71449   -20933.086    4.3862933    4.3862933    4.3862933   -20933.086   -34563.286   -35317.001    7081.0283    3715.0276     3245.637   -23610.847    84.390391 
   25900    2942.0222   -116.36257    2.6620035   -113.70056     3795.357    4.3479338    4.3479338    4.3479338     3795.357   -51827.757   -40626.026    103839.85    27165.735     16171.18     12510.27    82.195637 
   26000    1918.6185   -115.45698    1.7360064   -113.72097    45488.341    4.2894057    4.2894057    4.2894057    45488.341    43398.175    28808.536    64258.314   -10435.845   -6692.5608   -52438.558    78.920783 
   26100     1217.726   -114.90671    1.1018241   -113.80489   -11871.808    4.3001857    4.3001857    4.3001857   -11871.808    44071.575   -74937.175   -4749.8232   -37322.417   -11362.126   -21157.914    79.517301 
   26200    2617.1409   -116.16161    2.3680441   -113.79357   -19309.136    4.3504812    4.3504812    4.3504812   -19309.136   -58392.247   -12028.865    12493.705   -13408.884     6431.247    15121.996    82.340196 
   26300    1643.0515   -115.23873    1.4866675   -113.75206   -330.24952    4.3795357    4.3795357    4.3795357   -330.24952    13370.007    4734.9436   -19095.699    11109.635    46760.355   -37425.941    84.000955 
   26400    2034.2843   -115.53105    1.8406632   -113.69039   -32257.771    4.3827352    4.3827352    4.3827352   -32257.771   -6609.2828   -59652.715   -30511.315    4623.9478   -23383.141   -10212.544     84.18519 
   26500    1307.8906   -114.88758    1.1834069   -113.70417   -34801.315    4.3410293    4.3410293    4.3410293   -34801.315    -89264.08   -13984.218    -1155.648    39738.864    59542.458    4453.1724    81.804679 
   26600    2367.7613   -115.82272    2.1424002   -113.68032    58831.353    4.2991458    4.2991458    4.2991458    58831.353    37428.208    26958.396    112107.45    694.89223    39258.495    5931.9947    79.459625 
   26700    2194.0427   -115.74185     1.985216   -113.75663    43704.219    4.3261627    4.3261627    4.3261627    43704.219   -6785.5199    30843.907    107054.27   -3426.1522   -34716.043   -22361.514    80.967093 
   26800    776.74388   -114.48517   0.70281419   -113.78235   -53717.379    4.3706521    4.3706521    4.3706521   -53717.379   -124028.03    3698.4973   -40822.605    33683.777     74416.73   -8829.7854    83.490816 
   26900    2262.6677   -115.77128    2.0473093   -113.72397   -36534.328    4.3657275    4.3657275    4.3657275   -36534.328    -48738.34   -56961.853   -3902.7902   -10653.202    23250.193    23563.055    83.208916 
   27000    2157.9039    -115.6519    1.9525168   -113.69938    -20123.84    4.3519183    4.3519183    4.3519183    -20123.84   -77325.938   -4715.8314    21670.251     6097.694    9854.6778   -7824.8646    82.421818 
   27100     1213.533   -114.79933    1.0980301    -113.7013   -20541.078    4.3453053    4.3453053    4.3453053   -20541.078   -102970.46    62364.977   -21017.754    24551.591    80231.927   -8495.3398    82.046657 
   27200    3254.1338   -116.60877    2.9444086   -113.66436     19235.33    4.3321468    4.3321468    4.3321468     19235.33    19460.702    15466.818    22778.472    18050.199   -30481.263   -8069.6292    81.303549 
   27300    740.04733    -114.4141   0.66961037   -113.74449   -9389.0968    4.3500809    4.3500809    4.3500809   -9389.0968   -86732.811    112084.96   -53519.444   -1794.2907    71052.197    8420.8689    82.317468 
   27400    2569.8881   -116.01916    2.3252887   -113.69387   -33926.427    4.3661701    4.3661701    4.3661701   -33926.427   -49304.751    -15675.25    -36799.28    7271.9954     -6977.04    555.15449    83.234227 
   27500    2324.5199   -115.77379    2.1032745   -113.67052   -11999.762    4.3660491    4.3660491    4.3660491   -11999.762   -53007.024    14579.888    2427.8516   -17345.651     34162.59    14345.459    83.227307 
   27600    1627.3088   -115.13906    1.4724232   -113.66664   -29282.395    4.3730626    4.3730626    4.3730626   -29282.395   -55339.819    39775.047   -72282.412    6757.0304    35554.637    -131.0151    83.629032 
   27700    2254.2485   -115.67557    2.0396914   -113.63588    25155.637    4.3575612    4.3575612    4.3575612    25155.637    8.5154046    85260.878   -9802.4808    4084.6179    3107.6575   -6326.2279    82.742851 
   27800    1540.4159   -115.04818    1.3938007   -113.65438    16037.704    4.3413373    4.3413373    4.3413373    16037.704    6010.5935    84199.916   -42097.398    14570.085    106686.78   -9771.3574    81.822095 
   27900    2722.9828   -116.12771    2.4638121    -113.6639    22721.274    4.3452337    4.3452337    4.3452337    22721.274    40116.469    44482.785   -16435.432   -6122.7711   -24784.118    31738.948    82.042602 
   28000    1295.0479   -114.87736    1.1717866   -113.70557   -3949.9353     4.346898     4.346898     4.346898   -3949.9353   -2228.9439    51159.179   -60780.041   -1244.9254    103142.04    16136.843    82.136907 
   28100    2807.1787   -116.24719    2.5399943    -113.7072    25447.416    4.3456878    4.3456878    4.3456878    25447.416    27459.273    35096.194    13786.779   -7103.9399    18191.034     7198.534    82.068325 
   28200    1679.2859   -115.24407    1.5194532   -113.72462    10905.007    4.3525759    4.3525759    4.3525759    10905.007   -29094.068    106690.05   -44880.964    9128.7804    27815.346    4299.0368    82.459189 
   28300    1319.1281   -114.93606    1.1935748   -113.74248   -38120.903    4.3517051    4.3517051    4.3517051   -38120.903     -80199.1    40639.087   -74802.695   -32101.187    74013.318    20818.919    82.409706 
   28400    2750.6078   -116.20721    2.4888077   -113.71841    8548.1439    4.3404106    4.3404106    4.3404106    8548.1439    39402.953    8180.1043   -21938.625    7675.4819   -17878.442   -9982.9623    81.769709 
   28500    1308.3946   -114.93194    1.1838629   -113.74807   -17642.013    4.3262817    4.3262817    4.3262817   -17642.013   -71280.787    89962.586   -71607.837   -5765.3088    113968.63   -10851.732    80.973775 
   28600    2490.7934   -115.98866    2.2537222   -113.73494    13080.986    4.3351807    4.3351807    4.3351807    13080.986    36400.718    37212.425   -34370.186    8782.7311   -33783.178    2844.7879    81.474482 
   28700    1495.1009   -115.08426    1.3527987   -113.73146   -23800.568    4.3622675    4.3622675    4.3622675   -23800.568   -30587.891    39906.778   -80720.592   -22209.479    70956.845      8121.17    83.011235 
   28800    1852.6306   -115.38634    1.6762991   -113.71004   -20770.468    4.3536522    4.3536522    4.3536522   -20770.468   -23976.481    28185.926   -66520.848    2999.5182    63750.806   -32059.257    82.520378 
   28900    2639.9853   -116.08122    2.3887142   -113.69251    15187.852    4.3386363    4.3386363    4.3386363    15187.852    -20479.81     10376.47    55666.897   -13363.135   -27482.643   -9396.4168    81.669472 
   29000      1008.01   -114.65087    0.9120686    -113.7388     9235.952    4.3355413    4.3355413    4.3355413     9235.952   -111823.27     107665.7    31865.426   -7428.4274    109899.78   -21985.465    81.494816 
   29100    2440.6881   -115.93717    2.2083859   -113.72879    52084.055    4.3355848    4.3355848    4.3355848    52084.055   -27961.984    121237.29    62976.862   -10897.596   -5495.1842   -20481.648    81.497268 
   29200    1681.2574   -115.28941     1.521237   -113.76817   -13035.389    4.3573775    4.3573775    4.3573775   -13035.389   -44036.039    45009.552   -40079.679    6994.7805    59015.236   -2198.0747    82.732388 
   29300    1748.7607   -115.29675    1.5823154   -113.71444   -30820.228    4.3783323    4.3783323    4.3783323   -30820.228   -73633.163    43736.682   -62564.201    32984.849    27908.657   -9379.7123    83.931728 
   29400    1892.4502   -115.37828    1.7123287   -113.66595    29868.179    4.3552797    4.3552797    4.3552797    29868.179   -16106.944    125960.12   -20248.638    16638.831    27615.261   -5809.7863    82.612954 
   29500    1415.4101   -114.95941    1.2806928   -113.67872   -2339.1897    4.3413598    4.3413598    4.3413598   -2339.1897   -13916.694    57517.938   -50618.813    4637.4483    95780.465   -5013.7461    81.823366 
   29600    2332.6774    -115.7709    2.1106556   -113.66024    33766.392    4.3389734    4.3389734    4.3389734    33766.392    11198.704    91641.967   -1541.4948    15848.576   -19012.561   -11963.155    81.688505 
   29700    1417.5614   -114.98597    1.2826393   -113.70333   -10479.176    4.3408296    4.3408296    4.3408296   -10479.176   -37316.334    70182.906   -64304.101   -8224.9748    119380.36    4179.1824    81.793392 
   29800    3002.3173   -116.40263    2.7165598   -113.68607   -7794.9591    4.3611503    4.3611503    4.3611503   -7794.9591   -12703.553    22515.441   -33196.765      13617.8   -35448.953   -4661.9414    82.947476 
   29900    1034.3351   -114.63867   0.93588815   -113.70278   -33872.626    4.3647528    4.3647528    4.3647528   -33872.626   -58768.886    49680.248   -92529.241   -6443.2039    120177.01    2629.3331    83.153197 
   30000    2945.9925   -116.31681     2.665596   -113.65121    36138.066    4.3450399    4.3450399    4.3450399    36138.066    19935.786     51550.41    36928.002   -15935.261   -28262.765   -992.60366    82.031626 
   30100    1073.8895   -114.66578    0.9716778    -113.6941   -8392.1036    4.3437051    4.3437051    4.3437051   -8392.1036   -42059.414    100995.92   -84112.819    1202.9619    101454.57     287.6869    81.956047 
   30200    2199.6066   -115.66991    1.9902503   -113.67966   -21856.374    4.3406618    4.3406618    4.3406618   -21856.374   -16570.493    13420.186   -62418.814    2912.1228    44637.168   -8220.1401    81.783904 
   30300    2613.0456   -116.04364    2.3643385    -113.6793   -7094.6087     4.342151     4.342151     4.342151   -7094.6087    3467.8023   -7101.9385    -17649.69   -3917.7648    28608.895   -1344.1593    81.868108 
   30400    1142.3952   -114.74895    1.0336632   -113.71529   -44408.595    4.3544502    4.3544502    4.3544502   -44408.595   -108177.25    94408.409   -119456.95    9993.3244    114374.24     4247.024     82.56576 
   30500     2633.468   -116.06088    2.3828172   -113.67807    13074.159    4.3411898    4.3411898    4.3411898    13074.159    3257.6455    27832.838    8131.9927    298.49555    -40787.72    27911.813    81.813756 
   30600    1007.8859   -114.63396   0.91195632   -113.72201   -30927.583    4.3388098    4.3388098    4.3388098   -30927.583   -76845.721    53543.956   -69480.983    3032.7616    133411.12    5688.5382    81.679269 
   30700    2644.1054   -116.09678    2.3924421   -113.70434   -7031.0337    4.3474129    4.3474129    4.3474129   -7031.0337   -10989.638   -13198.134    3094.6712   -15841.512   -713.71025   -5102.4827    82.166097 
   30800     2341.756   -115.83094      2.11887   -113.71207   -40308.054    4.3507521    4.3507521    4.3507521   -40308.054   -38407.232    4361.8488   -86878.779    -489.4618    61628.426    -12481.09    82.355578 
   30900    1224.7914   -114.84276     1.108217   -113.73455   -14733.393    4.3451048    4.3451048    4.3451048   -14733.393   -47120.573    53162.256   -50241.863    5601.0346    88481.169    5204.1671    82.035299 
   31000    2638.4315   -116.09808    2.3873083   -113.71077    28954.632    4.3409375    4.3409375    4.3409375    28954.632    3897.7479   -6784.7606    89750.908    2257.7857   -31938.334   -3199.3269    81.799489 
   31100    1193.4459   -114.83209    1.0798549   -113.75223    -9266.712      4.35254      4.35254      4.35254    -9266.712    -52210.42    52981.405   -28571.121    1733.8419    100707.67    -5078.599    82.457149 
   31200    2614.6923   -116.09356    2.3658285   -113.72773   -6895.1085    4.3609161    4.3609161    4.3609161   -6895.1085   -39723.397   -22201.266    41239.338   -11241.314   -14266.894    9830.3297    82.934109 
   31300    1718.2709   -115.30532    1.5547276   -113.75059   -42845.164    4.3502945    4.3502945    4.3502945   -42845.164   -88232.061   -12210.904   -28092.528   -18638.637    60030.123    809.14374    82.329596 
   31400    1191.0113   -114.82408     1.077652   -113.74643    18214.218    4.3086253    4.3086253    4.3086253    18214.218   -76894.979    60376.702    71160.931    2232.8325    114381.13   -3195.5023    79.986408 
   31500    3128.6937   -116.56708    2.8309078   -113.73617    45955.966    4.3099034    4.3099034    4.3099034    45955.966    15117.423    60543.992    62206.483    8969.4527    -42120.43    2352.4125    80.057607 
   31600     769.4406    -114.4979   0.69620603    -113.8017    26145.018    4.3496198    4.3496198    4.3496198    26145.018   -94353.436    75980.623    96807.866   -4278.3147    107493.79    9258.4114    82.291296 
   31700    3076.0206   -116.49209    2.7832481   -113.70884   -38776.243    4.3883222    4.3883222    4.3883222   -38776.243   -54287.931   -33247.737   -28793.061    2261.4606   -11543.214    3988.2442    84.507553 
   31800    896.75831   -114.49415   0.81140576   -113.68275    26994.627    4.3690373    4.3690373    4.3690373    26994.627   -102923.76    82935.622    100972.02    4847.1929    73962.558    10554.443    83.398311 
   31900    2130.1259   -115.56824    1.9273827   -113.64086   -4453.3722    4.3419945    4.3419945    4.3419945   -4453.3722   -60797.144    48344.125    -907.0973   -7305.4218    53164.255    2315.5188    81.859257 
   32000    2513.7191   -115.91572    2.2744658   -113.64125    37216.091    4.3234979    4.3234979    4.3234979    37216.091   -1188.3182    34725.106    78111.486   -14523.984    14517.373    792.33049    80.817565 
   32100    977.98845   -114.60824    0.8849045   -113.72334    50161.032    4.3360382    4.3360382    4.3360382    50161.032    62146.259    86487.467    1849.3702    -24129.52    108097.09   -6360.1867    81.522837 
   32200    2848.9349   -116.26327    2.5777761   -113.68549    5287.4638    4.3763829    4.3763829    4.3763829    5287.4638    50984.459   -9358.5258   -25763.542   -22032.219   -44711.594    8379.2624    83.819666 
   32300    726.19694   -114.33792   0.65707825   -113.68084    21848.489     4.367031     4.367031     4.367031    21848.489    13394.581    89935.582   -37784.697   -35660.918    106597.46   -5183.1302    83.283472 
   32400    3301.8903   -116.59495    2.9876198   -113.60733    10069.214    4.3593079    4.3593079    4.3593079    10069.214    41013.347   -29746.287    18940.582   -12656.445   -28431.654   -11843.701    82.842394 
   32500     1420.585    -114.9324    1.2853752   -113.64703   -56857.433     4.368593     4.368593     4.368593   -56857.433   -109330.95    37135.284   -98376.629    14919.672    124381.92   -6137.1242    83.372869 
   32600    2450.7816   -115.86262    2.2175187    -113.6451   -798.30535    4.3517061    4.3517061    4.3517061   -798.30535   -39497.682     13870.36    23232.405   -2922.5118    14732.079   -849.48065    82.409765 
   32700    2101.3005   -115.56522    1.9013008   -113.66392    1860.9766    4.3327783    4.3327783    4.3327783    1860.9766    3434.0465    16446.898   -14298.015   -5912.7255    58643.991   -3223.7371    81.339105 
   32800    1347.1986   -114.93624    1.2189736   -113.71726   -22637.103    4.3329143    4.3329143    4.3329143   -22637.103   -49657.528    40781.763   -59035.545    27010.892    107207.46    4905.8716    81.346766 
   32900    2557.6137   -116.02185    2.3141826   -113.70767     1114.659    4.3461778    4.3461778    4.3461778     1114.659    3882.3387   -30402.982     29864.62    13318.757   -29890.382   -14630.303    82.096087 
   33000    1139.8915   -114.75633    1.0313978   -113.72493    -49342.74    4.3682125    4.3682125    4.3682125    -49342.74   -61852.314    36752.248   -122928.15   -1180.7466    115722.65   -11900.951    83.351085 
   33100    3222.2724   -116.56942    2.9155798   -113.65384   -43477.502    4.3683754    4.3683754    4.3683754   -43477.502   -60431.634     -59428.4   -10572.473    20289.962   -18000.265    12958.296    83.360413 
   33200     1321.069   -114.86731    1.1953309   -113.67198   -21018.356    4.3546536    4.3546536    4.3546536   -21018.356   -19351.402   -43173.333   -530.33277    52337.243    63005.833   -11646.956     82.57733 
   33300    1741.7664   -115.27906    1.5759869   -113.70308    10103.951    4.3347411    4.3347411    4.3347411    10103.951   -15080.515    29109.666    16282.702    -16480.84    57819.934    5440.2006    81.449702 
   33400    2920.8771   -116.32582     2.642871   -113.68295    47701.112    4.3257973    4.3257973    4.3257973    47701.112    55810.788     55820.37    31472.177    22649.767   -12143.259   -7539.7308    80.946581 
   33500    698.97944    -114.3994   0.63245128   -113.76695   -14192.795    4.3594159    4.3594159    4.3594159   -14192.795   -46894.657    26815.735   -22499.463    41629.992    109192.53   -1203.6458    82.848552 
   33600    3087.2513   -116.44376    2.7934099   -113.65035   -11742.156    4.3814182    4.3814182    4.3814182   -11742.156    38163.429   -35780.051   -37609.845   -29114.978   -15339.312      9747.78    84.109321 
   33700    1018.4611   -114.56503   0.92152504    -113.6435      45705.7    4.3706937    4.3706937    4.3706937      45705.7   -14195.444    88848.071    62464.474    21855.045    59162.752   -24963.504      83.4932 
   33800    2289.7215   -115.68308    2.0717882   -113.61129   -5627.1711    4.3773539    4.3773539    4.3773539   -5627.1711   -28882.533    47644.917   -35643.897    26683.192   -2935.2526   -13161.051    83.875472 
   33900    2028.7124   -115.49688    1.8356216   -113.66126    17845.969    4.3336148    4.3336148    4.3336148    17845.969    43010.439    45090.449   -34562.981   -9570.7395    23940.771   -16552.785    81.386229 
   34000    1272.0783   -114.82941    1.1510032    -113.6784    52522.695    4.3031847    4.3031847    4.3031847    52522.695    33018.142     83934.31    40615.634    25684.327    73292.681   -18792.108    79.683784 
   34100    2804.1092   -116.25566    2.5372169   -113.71844   -22209.914    4.3405966    4.3405966    4.3405966   -22209.914   -44648.398   -33082.479    11101.135    42095.972   -30916.042     18222.53    81.780223 
   34200    1352.0475   -114.95107     1.223361   -113.72771    29302.684    4.3468687    4.3468687    4.3468687    29302.684    18871.607    124782.17   -55745.722    24316.814     47679.22    2658.1565    82.135247 
   34300    2235.7889   -115.74948    2.0229887   -113.72649    25889.607    4.3603832    4.3603832    4.3603832    25889.607    21847.362    33264.195    22557.263     21358.15    29996.887   -13432.487    82.903713 
   34400    2058.5793     -115.544    1.8626459   -113.68135   -61095.914     4.384967     4.384967     4.384967   -61095.914   -57414.418   -39172.626   -86700.697    4294.3305   -18367.713     14301.67    84.313862 
   34500    2230.5105   -115.70623    2.0182128   -113.68802   -17182.378    4.3352141    4.3352141    4.3352141   -17182.378     -4420.69    11024.978   -58151.423   -19231.045    29719.112   -1612.4279    81.476366 
   34600    2288.9175   -115.70042    2.0710607   -113.62936     76887.36    4.2879506    4.2879506    4.2879506     76887.36    104037.04    39242.446    87382.595    71245.353    253.99853    9190.7969    78.840493 
   34700    1927.4482   -115.47043    1.7439956   -113.72644   -5053.2642       4.3241       4.3241       4.3241   -5053.2642   -168.29144    31697.192   -46688.693    12195.754   -25434.157    7170.4092    80.851331 
   34800    2426.9348   -115.89126    2.1959416   -113.69532   -6812.2148    4.3586745    4.3586745    4.3586745   -6812.2148    41827.091   -14814.527   -47449.209   -10919.557    2819.2731   -6775.8987    82.806288 
   34900    1655.6324   -115.18757     1.498051   -113.68952    28776.603     4.360268     4.360268     4.360268    28776.603   -29329.884    42595.676    73064.017    87729.257    16159.005   -7528.0764     82.89714 
   35000    2472.5861   -115.90175    2.2372479   -113.66451   -15792.306    4.3593009    4.3593009    4.3593009   -15792.306   -5648.1913    19661.076   -61389.804   -33086.105   -10376.567   -2242.4057    82.841995 
   35100    1192.0202   -114.76586    1.0785649    -113.6873    -19388.54    4.3359126    4.3359126    4.3359126    -19388.54   -36287.883   -55599.456    33721.721      97045.7   -26382.176    15303.647    81.515754 
   35200    2551.7188   -115.97838    2.3088488   -113.66953    51596.036    4.3088733    4.3088733    4.3088733    51596.036    31430.085    38878.963    84479.061    24154.118    18173.841   -13771.633    80.000221 
   35300    1402.8903   -115.01452    1.2693646   -113.74516    2471.8127    4.3347436    4.3347436    4.3347436    2471.8127   -15761.801    81918.995   -58741.756   -12916.962   -22881.975   -8427.1063    81.449842 
   35400    2047.8959   -115.56512    1.8529792   -113.71214   -16512.594    4.3690036    4.3690036    4.3690036   -16512.594   -53574.769    23349.706   -19312.718    64630.356   -3610.7249    -4517.869    83.396379 
   35500     1691.375   -115.22158    1.5303917   -113.69119    34775.648    4.3547916    4.3547916    4.3547916    34775.648    11859.686    39190.522    53276.735   -2300.0085    12465.309    5484.2369    82.585182 
   35600    1301.3143   -114.87138    1.1774565   -113.69393    4988.8563    4.3430047    4.3430047    4.3430047    4988.8563    33059.934   -7665.0382   -10428.327    -38511.94    -36068.56   -3124.5556    81.916409 
   35700    3311.0907   -116.68575    2.9959445   -113.68981    18555.691    4.3312116    4.3312116    4.3312116    18555.691    63170.772    -7996.845    493.14611      17486.6   -3020.1106    541.41937    81.250905 
   35800    1244.7187   -114.85121    1.1262476   -113.72496    80540.687    4.3087577    4.3087577    4.3087577    80540.687    144011.08    31077.821     66533.16    7245.1482    38331.762    2453.8556    79.993781 
   35900    2263.9215   -115.80335    2.0484438   -113.75491    19635.372    4.3398621    4.3398621    4.3398621    19635.372    28262.044    3288.0743    27355.997   -16205.102    5713.4706   -28624.355    81.738713 
   36000    1859.9182   -115.39276    1.6828931   -113.70986    16393.282    4.3651811    4.3651811    4.3651811    16393.282    25431.677   -28749.774    52497.944    59648.367    3142.9842   -498.77318     83.17768 
   36100    1531.3229   -115.06174    1.3855732   -113.67616    17146.158    4.3607333    4.3607333    4.3607333    17146.158    66587.137    30630.793   -45779.456    7604.1418    29259.876    15203.193    82.923685 
   36200    2894.6759   -116.26182    2.6191636   -113.64266   -30901.105    4.3682475    4.3682475    4.3682475   -30901.105   -34214.251   -54862.029   -3627.0362    25512.042   -8572.2711    15111.667    83.353093 
   36300    1544.0818   -115.08256    1.3971177   -113.68544   -24328.209    4.3499783    4.3499783    4.3499783   -24328.209   -39574.755   -29507.362   -3902.5113    48922.954    5324.7704   -5864.5786    82.311643 
   36400    1945.7838   -115.45178     1.760586    -113.6912    34037.423    4.3111007    4.3111007    4.3111007    34037.423    125333.39   -4112.1972   -19108.927   -22036.037    17499.955    40568.422    80.124346 
   36500    2659.3212   -116.12371    2.4062097    -113.7175    28377.932    4.3105457    4.3105457    4.3105457    28377.932    8803.4274   -14359.145    90689.514   -15494.304    -5542.472   -6455.8595    80.093405 
   36600    2213.0248   -115.76113    2.0023913   -113.75874    13468.481    4.3222567    4.3222567    4.3222567    13468.481     38178.81    17831.595   -15604.963    25160.619   -12117.053   -17812.505    80.747979 
   36700    1850.1785   -115.44482    1.6740804   -113.77074   -2772.1454    4.3407268    4.3407268    4.3407268   -2772.1454    23546.732   -36736.558    4873.3897   -11646.088    4418.6999    14998.923    81.787581 
   36800    1606.6487   -115.22179    1.4537295   -113.76806   -38611.972    4.3452665    4.3452665    4.3452665   -38611.972   -78785.409   -97526.951    60476.444   -121777.64    3829.2604    15297.874    82.044458 
   36900    3476.8408   -116.87002    3.1459186    -113.7241    30928.889     4.317794     4.317794     4.317794    30928.889    82955.971    12519.683   -2688.9891    39092.792   -567.10267   -4936.9422    80.498121 
   37000    1450.7785   -115.08521    1.3126949   -113.77252   -7405.7342    4.3159833    4.3159833    4.3159833   -7405.7342   -36974.954   -57517.776    72275.528   -108262.27   -2778.8154      9009.72    80.396894 
   37100    1476.2122   -115.10028    1.3357078   -113.76457    -9331.365    4.3246506    4.3246506    4.3246506    -9331.365   -48349.895   -37869.691    58225.491   -34941.058    1425.5733     29085.24    80.882222 
   37200    2510.2601   -116.01486    2.2713361   -113.74352   -36391.571    4.3469289    4.3469289    4.3469289   -36391.571    -43289.68   -54463.916   -11421.117    44764.995   -5105.4068   -7122.5391    82.138661 
   37300    1770.8858   -115.31102    1.6023347   -113.70869   -65661.122    4.3630841    4.3630841    4.3630841   -65661.122   -117980.42   -118814.81    39811.859   -110180.22    3308.8042    2840.0197    83.057863 
   37400    2377.1113   -115.83417    2.1508603   -113.68331    2371.3509    4.3271448    4.3271448    4.3271448    2371.3509   -19326.173    15526.684    10913.542    9845.9124    17465.192    17074.131    81.022247 
   37500    1753.0224   -115.27887    1.5861715    -113.6927    748.42624    4.3060453    4.3060453    4.3060453    748.42624   -58247.599   -30944.592    91437.469    4875.6563    13308.426    15547.848    79.842805 
   37600    2165.0552   -115.66823    1.9589874   -113.70925   -1819.8125    4.3186794    4.3186794    4.3186794   -1819.8125   -59664.307   -36417.142    90622.012   -58717.344    988.98047   -12875.988    80.547653 
   37700     1933.542   -115.47343    1.7495094   -113.72392    10752.054    4.3364757    4.3364757    4.3364757    10752.054   -7779.2513    36050.199    3985.2154    5838.8699    -7224.624   -1775.1479    81.547521 
   37800     2151.994   -115.65983    1.9471694   -113.71266   -36662.264    4.3588447    4.3588447    4.3588447   -36662.264   -103563.63   -35136.087    28712.923    52555.962    8058.9236    5063.6562    82.815987 
   37900    1690.5262     -115.249    1.5296236   -113.71938   -54674.958    4.3478549    4.3478549    4.3478549   -54674.958   -82688.597   -62206.292   -19129.987   -9636.1854   -16129.233   -10448.428    82.191162 
   38000    2169.6553   -115.66411    1.9631497   -113.70096    6576.4021    4.3019445    4.3019445    4.3019445    6576.4021     1465.384    26255.689   -7991.8661   -5122.5301   -7691.5907   -26137.065    79.614909 
   38100    1319.4795   -114.92647    1.1938928   -113.73257    26406.005    4.2926479    4.2926479    4.2926479    26406.005   -25874.386   -20801.527    125893.93    132747.39    2612.8148    4362.6696    79.099878 
   38200    3067.1547    -116.5194     2.775226   -113.74418    10441.898    4.3301083    4.3301083    4.3301083    10441.898    4797.7016    18709.191    7818.8008   -24705.709   -16406.793   -1994.4336    81.188828 
   38300    1241.9319    -114.8741    1.1237261   -113.75037   -17483.816    4.3612999    4.3612999    4.3612999   -17483.816    26036.362   -108981.54    30493.731     61182.85   -10654.432   -34055.631     82.95601 
   38400    2206.9992   -115.69296    1.9969392   -113.69602   -31233.171    4.3603913    4.3603913    4.3603913   -31233.171   -14750.361   -93561.952    14612.798    36930.969   -7541.5536    -6259.181    82.904171 
   38500    2316.3518   -115.74914    2.0958838   -113.65326    12450.206    4.3415281    4.3415281    4.3415281    12450.206   -21960.211    43506.291    15804.539    7135.5572    7423.6131    13109.997    81.832883 
   38600     1449.837   -114.97683     1.311843   -113.66499   -1054.8129    4.3398589    4.3398589    4.3398589   -1054.8129     6384.671   -32978.041    23428.931    89934.942   -1566.3878   -16258.909    81.738531 
   38700     3174.648   -116.53665    2.8724882   -113.66416    4302.1249     4.331023     4.331023     4.331023    4302.1249    15491.972    47506.068   -50091.666   -28310.878    2813.6855    -13196.26     81.24029 
   38800    1474.3424   -115.05782    1.3340159    -113.7238     7882.205    4.3113026    4.3113026    4.3113026     7882.205   -65702.109    69728.109    19620.615    59902.745    34381.391    4703.5873    80.135605 
   38900     1926.272   -115.50032    1.7429314   -113.75739    2576.9767    4.3166803    4.3166803    4.3166803    2576.9767    -12318.08   -1703.3121    21752.323    62016.485    10997.086    -9564.109    80.435851 
   39000    3439.3359    -116.8598    3.1119834   -113.74781    17798.821    4.3223704    4.3223704    4.3223704    17798.821    29499.561    51120.642    -27223.74   -24136.724   -8261.5291   -3494.4839    80.754352 
   39100    867.94558   -114.58369    0.7853354   -113.79836   -23259.632    4.3254996    4.3254996    4.3254996   -23259.632   -56856.594   -30795.891    17873.588    74586.332    32670.044   -4382.1944    80.929868 
   39200    1913.7718   -115.49852    1.7316209    -113.7669   -4229.0928    4.3263781    4.3263781    4.3263781   -4229.0928   -4813.4905   -11332.183    3458.3952    22267.469    21631.978    18458.677    80.979185 
   39300    2748.1196   -116.23031    2.4865564   -113.74376    10378.876    4.3238033    4.3238033    4.3238033    10378.876     1045.622    13896.667     16194.34   -6514.8818   -9801.9935    25924.272    80.834689 
   39400    1176.4199   -114.82611    1.0644494   -113.76167    -8074.879    4.3247251    4.3247251    4.3247251    -8074.879   -63917.707    343.98666    39349.083    77288.153   -2119.4799   -22747.986    80.886405 
   39500    2565.9152   -116.06318     2.321694   -113.74148    2814.2698    4.3154281    4.3154281    4.3154281    2814.2698   -3690.2392    35168.821   -23035.773    5088.7437    12183.861    21282.697    80.365873 
   39600    2248.3048   -115.79308    2.0343134   -113.75877     3745.771    4.3194507    4.3194507    4.3194507     3745.771   -15329.871    2776.2183    23790.966    20252.207   -8448.5474     28202.73    80.590818 
   39700    751.11798   -114.45955   0.67962733   -113.77992   -17527.633    4.3291571    4.3291571    4.3291571   -17527.633   -108962.54   -40192.263      96571.9     56707.02   -18148.091   -1276.2105    81.135338 
   39800    3035.6439   -116.46673    2.7467144   -113.72002   -4139.4127    4.3441785    4.3441785    4.3441785   -4139.4127    10369.703    12621.653   -35409.595   -33017.139    3072.7721   -29817.136    81.982843 
   39900    1199.2441   -114.80446    1.0851013   -113.71936   -50926.134    4.3515984    4.3515984    4.3515984   -50926.134   -92928.559   -58665.151   -1184.6936    91994.253    4007.5119   -11556.104    82.403647 
   40000    2032.1467   -115.54927    1.8387291   -113.71054    663.38761    4.3236698    4.3236698    4.3236698    663.38761    -50677.69     48120.63    4547.2228    -13560.75   -20173.052     11045.29    80.827207 
   40100    2543.9265   -116.00136    2.3017982   -113.69956    38742.701    4.3121812    4.3121812    4.3121812    38742.701    11454.575    47507.462    57266.067    11694.818    5631.1804    -19139.16    80.184605 
   40200    977.32567   -114.62879   0.88430481   -113.74449     26757.95    4.3293814    4.3293814    4.3293814     26757.95   -17409.009    42920.679    54762.178     74783.83    29890.352   -21913.093     81.14795 
   40300     3236.359   -116.60727    2.9283256   -113.67895   -9333.9514    4.3618289    4.3618289    4.3618289   -9333.9514   -22178.964    17472.922   -23295.812   -27940.116   -23139.482   -2244.2854    82.986197 
   40400    878.27795   -114.49722   0.79468435   -113.70254   -23798.281    4.3625003    4.3625003    4.3625003   -23798.281   -9119.7817   -34889.049   -27386.013    83864.446    22206.849    2500.6767    83.024524 
   40500    1810.6926   -115.33358    1.6383527   -113.69523   -6871.9071    4.3306352    4.3306352    4.3306352   -6871.9071   -13382.902    16761.258   -23994.078    27775.991    37821.401    3279.9598    81.218472 
   40600    3057.7931   -116.46149    2.7667555   -113.69473    35706.605    4.3034178    4.3034178    4.3034178    35706.605   -2707.9971    58537.046    51290.766   -8743.3598   -17373.591    3608.8337    79.696734 
   40700    1095.9131   -114.75533    0.9916052   -113.76372   -1865.4873      4.30394      4.30394      4.30394   -1865.4873   -44524.379    -20077.74    59005.657      95248.7    16362.851   -5242.7784    79.725751 
   40800    1952.7652   -115.55307     1.766903   -113.78616    3156.1321     4.331082     4.331082     4.331082    3156.1321    -54424.56    76327.453   -12434.497    7677.2358    40479.992   -7880.6823    81.243613 
   40900    2512.0028   -116.02714    2.2729129   -113.75422   -88.470596    4.3394243    4.3394243    4.3394243   -88.470596   -51196.476    53983.898   -3052.8339    8547.8412    -22805.64    6649.1786    81.713976 
   41000    1243.8686   -114.88471    1.1254784   -113.75923   -11059.238    4.3264239    4.3264239    4.3264239   -11059.238   -89805.356    19816.777    36810.864    78115.814   -5650.1604   -10036.899    80.981761 
   41100    2566.7494   -116.06333    2.3224488   -113.74088    6436.0894    4.3135575    4.3135575    4.3135575    6436.0894    -30040.87    37983.984    11365.154   -42335.878    20025.636    3002.8334     80.26141 
   41200    1843.4866   -115.42461    1.6680254   -113.75658     17682.48    4.3137556    4.3137556    4.3137556     17682.48   -49076.668    83322.008    18802.099    23338.091   -65371.491     5677.303    80.272464 
   41300    2464.3774   -115.98579    2.2298205   -113.75597    11693.976    4.3352276    4.3352276    4.3352276    11693.976   -33132.585    20331.241    47883.273    32398.966   -5239.3321   -1616.4541     81.47713 
   41400    1954.2584   -115.51175    1.7682541    -113.7435   -16662.684    4.3400253    4.3400253    4.3400253   -16662.684    -73655.69    14195.907    9471.7313   -26767.129    -5382.267   -4895.1825    81.747934 
   41500    1445.5261   -115.05316    1.3079424   -113.74522   -3073.8036    4.3292995    4.3292995    4.3292995   -3073.8036   -89756.244    92715.262   -12180.429   -10448.289   -72530.363    6035.8067    81.143344 
   41600     3402.975   -116.77567    3.0790833   -113.69658   -6424.8767    4.3350301    4.3350301    4.3350301   -6424.8767   -12929.819   -16820.597    10475.786    5508.4455    11930.382     9282.861    81.465993 
   41700    1039.9044   -114.66042   0.94092739   -113.71949   -19048.356     4.342542     4.342542     4.342542   -19048.356   -31526.045    34065.727    -59684.75   -32142.569   -64205.798    -42362.75     81.89023 
   41800    2747.1376   -116.16906    2.4856679   -113.68339    13680.103    4.3407495    4.3407495    4.3407495    13680.103   -21580.987    67595.093   -4973.7973   -3168.2063    7161.8773    22762.806    81.788861 
   41900    2108.3454   -115.61315    1.9076752   -113.70548   -15840.742    4.3357849    4.3357849    4.3357849   -15840.742    62354.788   -46637.692   -63239.323    16709.229    -7812.925   -43884.717    81.508552 
   42000    966.17379   -114.63084   0.87421435   -113.75663   -15025.972    4.3139774    4.3139774    4.3139774   -15025.972   -7995.3149     8666.937   -45749.537    -7332.598   -93400.512   -54121.859    80.284849 
   42100    2978.6755   -116.44259    2.6951682   -113.74742    26960.997    4.2994515    4.2994515    4.2994515    26960.997   -2284.2466    82721.571    445.66653   -9452.3796    6350.8997    17631.334    79.476577 
   42200    2274.1109   -115.84088    2.0576634   -113.78322   -1117.9156     4.319006     4.319006     4.319006   -1117.9156    18804.097    4971.1828   -27129.026    1187.4426    22434.812   -9476.9166    80.565929 
   42300      1418.79   -115.06453     1.283751   -113.78078   -43011.501     4.342312     4.342312     4.342312   -43011.501    -14371.83   -32775.342    -81887.33    6807.3539   -91417.293   -51714.216    81.877219 
   42400    2521.6418    -116.0181    2.2816345   -113.73647   -16401.105    4.3371778    4.3371778    4.3371778   -16401.105   -28075.867    16131.176   -37258.625    7296.2512    30526.141    21536.273    81.587136 
   42500    2227.8502   -115.74519    2.0158057   -113.72938   -28845.896    4.3274025    4.3274025    4.3274025   -28845.896   -34840.317    17681.633   -69379.003    6293.6602    38723.891   -10091.231    81.036723 
   42600    1503.8548   -115.10762    1.3607194    -113.7469   -20675.762    4.3123026    4.3123026    4.3123026   -20675.762   -4518.8764   -7697.7627   -49810.647    -2654.593   -77144.812   -74634.732    80.191382 
   42700    2223.1123   -115.76804    2.0115187   -113.75652     21503.23    4.3030375    4.3030375    4.3030375     21503.23    21427.507    36755.257    6326.9268     19199.14    9938.1004    19856.887    79.675607 
   42800    1971.8956   -115.55818    1.7842126   -113.77397    3152.3015    4.3248348    4.3248348    4.3248348    3152.3015    2894.5521    6220.3114    342.04116    1309.2354    7108.7064    1027.6851    80.892557 
   42900    1875.2673   -115.43971    1.6967813   -113.74293   -49457.258     4.350823     4.350823     4.350823   -49457.258   -30059.546   -33791.779   -84520.449   -6192.6123   -62861.227   -60209.713    82.359606 
   43000    1936.9464   -115.47203    1.7525898   -113.71944    13818.343     4.334665     4.334665     4.334665    13818.343    50132.359   -10612.337    1935.0062    36807.188     15922.19    54211.942    81.445412 
   43100    1659.0396   -115.21433    1.5011339    -113.7132    16279.145    4.3180209    4.3180209    4.3180209    16279.145    48403.879    19677.663   -19244.107   -10571.345   -2.1525867    4959.4522    80.510817 
   43200    2925.8858   -116.35704     2.647403   -113.70964    14743.655    4.3186052    4.3186052    4.3186052    14743.655    9977.9983    8375.5731    25877.393   -4968.6873   -6530.1031   -32487.296      80.5435 
   43300    1178.4043   -114.82002    1.0662449   -113.75378    28882.993    4.3176662    4.3176662    4.3176662    28882.993    38837.492   -6252.5148    54064.002    50622.119    3962.1024    75942.633    80.490975 
   43400    1934.5715   -115.51128    1.7504409   -113.76084    13665.578    4.3468642    4.3468642    4.3468642    13665.578    36924.791   -43461.816    47533.758    -22902.42      24219.7    12071.775    82.134993 
   43500    2602.8172    -116.0545    2.3550837   -113.69942   -27881.925    4.3621387    4.3621387    4.3621387   -27881.925   -32782.751   -8842.8056   -42020.217    19005.865     11698.47   -2458.0634    83.003881 
   43600    826.85228   -114.46519   0.74815332   -113.71704   -12454.058    4.3336996    4.3336996    4.3336996   -12454.058     16636.32   -48834.766   -5163.7286     42565.73   -10425.918    69900.375    81.391004 
   43700    3148.2376   -116.52798    2.8485915   -113.67939    47805.423    4.3099837    4.3099837    4.3099837    47805.423    47228.797    59349.253    36838.219   -17634.057     9822.297   -19495.121    80.062085 
   43800    1840.3561   -115.39294    1.6651929   -113.72774    3938.4106    4.3095131    4.3095131    4.3095131    3938.4106   -2253.5261    21618.076   -7549.3177    10749.123    1693.2079    3550.5029    80.035858 
   43900    1111.3239   -114.77993    1.0055492   -113.77438   -8627.8808    4.3250984    4.3250984    4.3250984   -8627.8808    14599.797   -64131.924    23648.484        45025   -5534.3172    54373.233    80.907351 
   44000    2424.9491   -115.93425    2.1941449   -113.74011   -9605.2299     4.342809     4.342809     4.342809   -9605.2299   -54250.417    10071.025    15363.702   -39941.178   -23346.292   -5791.7091    81.905335 
   44100    1806.5377   -115.36878    1.6345932   -113.73419   -10145.238    4.3392377    4.3392377    4.3392377   -10145.238   -22515.269   -17793.823    9873.3768   -26337.907     5385.277   -6393.0498    81.703437 
   44200    2747.5078   -116.18921    2.4860028    -113.7032    32750.457    4.3166607    4.3166607    4.3166607    32750.457    10614.326     41663.51    45973.536     30605.78    2586.8808    24655.025    80.434753 
   44300    1469.1529   -115.05843    1.3293204   -113.72911   -2956.3415    4.3079729    4.3079729    4.3079729   -2956.3415   -73278.378   -14102.361    78511.714    -107014.7   -26123.002    3925.2869    79.950078 
   44400    2035.0056   -115.59152    1.8413159    -113.7502   -22307.867    4.3208257    4.3208257    4.3208257   -22307.867   -48718.149    35979.661   -54185.113   -2777.9659   -11608.399   -17897.145    80.667805 
   44500    2367.4348    -115.8837    2.1421047    -113.7416   -15026.112    4.3290657    4.3290657    4.3290657   -15026.112   -41706.469   -23542.392    20170.524   -20228.219    8338.5367    2987.6997    81.130196 
   44600    2031.3583   -115.57214    1.8380157   -113.73412   -21035.923    4.3270856    4.3270856    4.3270856   -21035.923   -51151.214   -68683.212    56726.656   -71715.408   -12505.265   -140.30928    81.018924 
   44700    2000.4136    -115.5377    1.8100163   -113.72768   -18127.927    4.3247049    4.3247049    4.3247049   -18127.927   -4635.9762   -625.42745   -49122.378    15774.726   -54842.163   -13214.588    80.885267 
   44800    2149.7372   -115.66852    1.9451274   -113.72339    -26207.44    4.3235166    4.3235166    4.3235166    -26207.44   -56739.674   -63692.363    41809.716   -34912.391    5476.8885     69.70544    80.818615 
   44900    1972.6409   -115.50445     1.784887   -113.71956   -13082.488    4.3207282    4.3207282    4.3207282   -13082.488   -45738.704   -34787.754    41278.994   -38414.052   -14314.636    7481.4821    80.662343 
   45000    1947.0153   -115.47789    1.7617004   -113.71619   -24296.511    4.3271544    4.3271544    4.3271544   -24296.511   -28090.041    18530.199    -63329.69    12270.487   -81447.766   -20223.265    81.022787 
   45100    2302.2276   -115.79359    2.0831039   -113.71049   -2913.9467    4.3252261    4.3252261    4.3252261   -2913.9467   -23574.114    -50010.73    64843.004   -27884.211     29302.49   -2311.6915    80.914515 
   45200     1385.547   -114.98098     1.253672   -113.72731   -1823.6419    4.3238679    4.3238679    4.3238679   -1823.6419   -15766.546   -5808.6637    16104.284   -18738.328   -46993.532   -8574.5168    80.838313 
   45300    2754.3958   -116.20475    2.4922352   -113.71251   -6650.7446    4.3266343    4.3266343    4.3266343   -6650.7446    -779.7319    5418.4305   -24590.932    10389.977   -48004.419    11274.884    80.993574 
   45400    1690.9464   -115.26641    1.5300039   -113.73641   -905.39312    4.3208914    4.3208914    4.3208914   -905.39312   -11466.299   -71478.932    80229.052   -53611.274    19377.143   -3454.6234    80.671483 
   45500    1698.9167   -115.28706    1.5372155   -113.74985    13783.035    4.3236404    4.3236404    4.3236404    13783.035    25676.441   -40186.416    55859.081    12218.501   -16643.105   -8864.7702    80.825554 
   45600    3416.9394   -116.79878    3.0917186   -113.70706    2916.1534    4.3377841    4.3377841    4.3377841    2916.1534    36428.963   -13627.943    -14052.56   -19309.326   -1168.7427   -3719.1498    81.621353 
   45700    811.58807   -114.47088   0.73434194   -113.73654    6699.5965    4.3356951    4.3356951    4.3356951    6699.5965    30267.677   -91593.979    81425.091   -38592.934   -2653.4559   -5247.1218    81.503491 
   45800    2217.8892   -115.72132    2.0067927   -113.71453   -8416.8966    4.3308398    4.3308398    4.3308398   -8416.8966    -5500.019   -52538.107    32787.437    66214.091    22739.037    13140.505    81.229979 
   45900    2385.3915     -115.858    2.1583524   -113.69965    19160.575    4.3155467    4.3155467    4.3155467    19160.575    47160.013    22645.061    -12323.35   -48788.109    -28647.24    8485.8412    80.372496 
   46000     1028.664   -114.66711    0.9307568   -113.73635   -23298.638    4.3135515    4.3135515    4.3135515   -23298.638    -38384.38   -72371.754    40860.221   -6611.9501   -6714.2546   -7376.2482    80.261071 
   46100    2532.7619   -116.02555    2.2916962   -113.73386   -6706.3997    4.3215031    4.3215031    4.3215031   -6706.3997   -8881.2823   -48813.398    37575.481    64764.623    14132.515    603.34478    80.705753 
   46200    1644.6252    -115.2388    1.4880914   -113.75071   -1623.4438    4.3236947    4.3236947    4.3236947   -1623.4438    17749.566   -9506.6514   -13113.246   -36378.133   -11354.877    31192.687    80.828598 
   46300    1767.6738   -115.34709    1.5994284   -113.74767   -8006.1484    4.3372613    4.3372613    4.3372613   -8006.1484   -36954.838     14186.41   -1250.0179     -38798.3   -27598.224    8025.1203    81.591849 
   46400    3087.5553   -116.50058    2.7936849    -113.7069    26768.579    4.3349587    4.3349587    4.3349587    26768.579   -5369.4799     67853.67    17821.546    18526.257    30161.184   -238.62444    81.461966 
   46500    1207.1333   -114.82008    1.0922396   -113.72785    32351.198    4.3286594    4.3286594    4.3286594    32351.198    17244.301    26740.044    53069.249   -44521.034    14901.106    25360.714    81.107355 
   46600    2795.2227   -116.21943    2.5291763   -113.69026    4326.2667    4.3371776    4.3371776    4.3371776    4326.2667   -17442.685     32045.67   -1624.1846   -23909.849   -27210.724   -11303.765     81.58712 
   46700    1902.3162   -115.42731    1.7212557   -113.70606    18001.027    4.3264314    4.3264314    4.3264314    18001.027   -6583.8603    64806.998   -4220.0575     27177.86    61458.332    5570.6067    80.982178 
   46800    1794.9659   -115.34294    1.6241228   -113.71881    14628.251    4.3237834    4.3237834    4.3237834    14628.251      20200.4   -9096.3869    32780.742   -46860.347    44.285515    32322.392    80.833578 
   46900    2307.0567   -115.80153    2.0874734   -113.71406   -2415.1397    4.3347155    4.3347155    4.3347155   -2415.1397   -34773.255    49500.129   -21972.293   -21880.113    12999.406    10357.724    81.448256 
   47000     1491.334   -115.06841    1.3493903   -113.71902    414.14046    4.3333679    4.3333679    4.3333679    414.14046   -38317.298    40224.801   -665.08188    39714.812    51760.741    -22527.84    81.372319 
   47100    2484.8084   -115.95253    2.2483068   -113.70423    6526.1685    4.3302736    4.3302736    4.3302736    6526.1685   -30581.354    1728.5029    48431.357   -21244.358   -52100.016    20442.617    81.198128 
   47200    2026.1465   -115.55437    1.8332999   -113.72107    -25666.02    4.3304675    4.3304675    4.3304675    -25666.02   -50888.547    13875.485   -39984.997   -1446.2049    59111.795    2374.2014    81.209033 
   47300    1559.8191    -115.1516    1.4113571   -113.74025     -7529.02    4.3107738    4.3107738    4.3107738     -7529.02   -47954.434    41267.358   -15899.984    35483.606    40351.319   -23053.999    80.106123 
   47400    2046.4155   -115.60339    1.8516397   -113.75175    26423.368    4.3047837    4.3047837    4.3047837    26423.368   -21105.686    56592.479    43783.312    6009.7142   -102759.75    1481.7417    79.772647 
   47500    2467.4384   -115.98593    2.2325901   -113.75334   -8497.2784    4.3209045    4.3209045    4.3209045   -8497.2784   -45534.143    52213.906   -32171.598   -10214.727    54104.656    3523.3286    80.672218 
   47600    1869.1092   -115.45218    1.6912093   -113.76097   -6458.6861    4.3272349    4.3272349    4.3272349   -6458.6861   -42595.282    22749.727    469.49625    4616.0825    30564.257   -7566.3334     81.02731 
   47700    1788.7617   -115.37421    1.6185092    -113.7557   -25729.902    4.3335334    4.3335334    4.3335334   -25729.902   -47906.808   -8121.2905   -21161.607    27300.773   -83178.535   -4692.4056    81.381643 
   47800    2530.2061   -116.02203    2.2893837   -113.73264   -19166.633    4.3326493    4.3326493    4.3326493   -19166.633   -13595.844   -23051.908   -20852.146   -19244.633    41388.809    29040.566    81.331845 
   47900    2039.6572   -115.57345    1.8455247   -113.72792   -2383.5657    4.3270744    4.3270744    4.3270744   -2383.5657   -57286.594    36205.016    13930.882    1943.7758   -53409.486   -8119.2483    81.018295 
   48000      1625.52   -115.20861    1.4708047    -113.7378   -30857.791    4.3301923    4.3301923    4.3301923   -30857.791   -34228.259   -26814.108   -31531.006    20057.929   -55255.181   -15971.454    81.193554 
   48100    2500.0423   -115.97981    2.2620908   -113.71772   -4920.9487    4.3290315    4.3290315    4.3290315   -4920.9487     -5029.08   -11907.358     2173.592   -1151.3138    19771.336    19728.659    81.128275 
   48200    1853.1799   -115.40161    1.6767961   -113.72482   -13304.857    4.3292846    4.3292846    4.3292846   -13304.857   -66837.026    51581.713   -24659.257   -2127.1016   -92007.644    11397.434    81.142506 
   48300    2137.8533   -115.65222    1.9343746   -113.71784   -9566.2446    4.3285986    4.3285986    4.3285986   -9566.2446   -37404.618   -3075.1795    11781.064    30014.441    21182.242   -7639.7333    81.103937 
   48400    1726.5133    -115.2905    1.5621855   -113.72831   -6208.7006    4.3307184    4.3307184    4.3307184   -6208.7006   -32613.097     22194.74   -8207.7453    -18400.95   -6994.9447    5317.8229    81.223151 
   48500    2650.7796   -116.11061    2.3984811   -113.71212   -15595.764    4.3403651    4.3403651    4.3403651   -15595.764    -42628.85    22455.276   -26613.718   -1951.9683   -25085.103     28930.26    81.767136 
   48600    1199.6888   -114.80063    1.0855037   -113.71512   -12198.742    4.3442339    4.3442339    4.3442339   -12198.742   -33804.613   -26777.929    23986.317    36394.796    38247.909   -43120.881    81.985979 
   48700    2315.2048   -115.80136     2.094846   -113.70651    3326.0279    4.3386355    4.3386355    4.3386355    3326.0279   -57661.384    19277.811    48361.657   -50010.628   -9106.5845    21144.443    81.669424 
   48800    2250.2858   -115.75418    2.0361058   -113.71807    15832.227    4.3204384    4.3204384    4.3204384    15832.227    -1863.646    37807.851    11552.475     9607.159   -2779.5153   -28182.794    80.646116 
   48900     1195.572   -114.82077    1.0817786   -113.73899    44285.359    4.3118873    4.3118873    4.3118873    44285.359     30961.91    57851.277    44042.889    42799.851    36230.079   -54066.443    80.168215 
   49000    3539.7065   -116.91011    3.2028008   -113.70731   -3315.4436    4.3422009    4.3422009    4.3422009   -3315.4436    8670.1258   -11283.078    -7333.379   -22614.508   -17135.741    30431.279    81.870932 
   49100    1289.9112   -114.90166    1.1671388   -113.73452    4842.9828    4.3422213    4.3422213    4.3422213    4842.9828     72622.01   -35846.167   -22246.895    31416.859    14021.847    -61715.31    81.872086 
   49200    1697.9119   -115.25484    1.5363064   -113.71854    34957.353    4.3340253    4.3340253    4.3340253    34957.353    19843.157    18758.587    66270.316    28739.921    2354.8208   -18668.254    81.409356 
   49300    2528.2213   -115.97066    2.2875877   -113.68307   -27817.033     4.340506     4.340506     4.340506   -27817.033    25272.106   -73305.505     -35417.7   -34887.459   -19798.861   -12155.693    81.775098 
   49400    999.40432   -114.59977   0.90428203   -113.69549    9562.4977    4.3233456    4.3233456    4.3233456    9562.4977    52475.207   -36541.545    12753.831    26106.124    26921.218   -64068.891    80.809022 
   49500    3195.1887   -116.56266    2.8910739   -113.67159    7170.2351    4.3341421    4.3341421    4.3341421    7170.2351   -27306.217    4484.6245    44332.298    3568.7499    1752.4606    26170.056    81.415937 
   49600    1184.8548   -114.77985    1.0720815   -113.70777   -31822.433    4.3380401    4.3380401    4.3380401   -31822.433    12579.065   -96853.612   -11192.753   -22393.486   -20870.768   -79299.119    81.635807 
   49700    2364.4744   -115.84237    2.1394262   -113.70295    18295.664    4.3115207    4.3115207    4.3115207    18295.664    2759.6488   -20309.796    72437.139    5291.1216    12550.359    2179.1908    80.147766 
   49800    2618.2565   -116.08503    2.3690535   -113.71598    8600.6194    4.3136651    4.3136651    4.3136651    8600.6194     27653.12   -8005.7063    6154.4445    2363.0469    786.20649   -24755.473    80.267414 
   49900      843.584   -114.53015   0.76329253   -113.76686   -6101.1166    4.3190629    4.3190629    4.3190629   -6101.1166    17556.427   -21032.805   -14826.972    -24329.82   -19312.559   -97454.533    80.569112 
   50000    2730.4934   -116.22712    2.4706078   -113.75652    21200.154     4.328799     4.328799     4.328799    21200.154    -24155.82    38239.428    49516.856    12965.992     3129.537    39742.212    81.115202 
   50100    1896.5298    -115.4706    1.7160201   -113.75458   -5265.7477    4.3374168    4.3374168    4.3374168   -5265.7477    16866.529    19140.822   -51804.594      13037.5    31245.159    -51282.62    81.600624 
   50200    1534.6735   -115.12852    1.3886048   -113.73991    8367.3606    4.3304706    4.3304706    4.3304706    8367.3606    78383.636   -34488.845   -18792.709   -26628.027   -31277.903   -67441.921    81.209211 
   50300    3132.2465   -116.53203    2.8341225    -113.6979      10969.5    4.3303805    4.3303805    4.3303805      10969.5    26493.577    14537.479   -8122.5572   -5421.6645    2653.8586    22835.058    81.204142 
   50400    1359.5417    -114.9718    1.2301419   -113.74166   -27721.614    4.3231355    4.3231355    4.3231355   -27721.614    29051.619   -46044.365   -66172.097    11963.941    42295.307   -105157.76    80.797242 
   50500    2056.8092   -115.60267    1.8610442   -113.74163    26374.364    4.3098875    4.3098875    4.3098875    26374.364    30961.918   -19360.674     67521.85   -23773.558    18899.018    2491.5398    80.056719 
   50600    2517.4495   -116.02408    2.2778412   -113.74624    9556.6082    4.3168988    4.3168988    4.3168988    9556.6082    42001.524   -37796.888    24465.188   -23470.819   -13505.766   -19547.921    80.448068 
   50700    1272.4275   -114.91652    1.1513191    -113.7652   -3161.2673    4.3239086    4.3239086    4.3239086   -3161.2673    39100.138   -67815.388    19231.448     23208.37    7691.0977   -95700.964    80.840595 
   50800      2338.15   -115.84848    2.1156072   -113.73287    8132.9386    4.3293305    4.3293305    4.3293305    8132.9386     16109.07   -12264.059    20553.806   -5038.2023    38460.929    39730.648    81.145086 
   50900    1806.9184   -115.36792    1.6349377   -113.73298   -17197.647    4.3329197    4.3329197    4.3329197   -17197.647    48247.621   -55804.925   -44035.636     -13620.8   -25054.523   -65152.431    81.347074 
   51000    2089.0786   -115.61555    1.8902422   -113.72531   -754.46606    4.3171349    4.3171349    4.3171349   -754.46606    4606.3734   -17059.936    10190.165     7614.186    12316.882   -49688.822    80.461264 
   51100    1889.1685   -115.44036    1.7093593     -113.731    19980.197    4.3069805    4.3069805    4.3069805    19980.197    19434.805    53712.818   -13207.031    5815.3323    57369.327    47094.909    79.894839 
   51200    1687.0498   -115.28205    1.5264781   -113.75558   -7788.5762    4.3207133    4.3207133    4.3207133   -7788.5762    46166.132   -16006.726   -53525.134   -7024.4296   -7277.7071   -52313.297    80.661511 
   51300    2721.0904   -116.19499    2.4620998   -113.73289   -14151.783    4.3358237    4.3358237    4.3358237   -14151.783   -54959.978    7805.2489     4699.381   -8076.4758    14607.186   -20309.276     81.51074 
   51400    898.92043   -114.56668   0.81336209   -113.75332   -12926.567    4.3302025    4.3302025    4.3302025   -12926.567   -63803.237    95695.963   -70672.426   -2797.7696    57730.305    17270.852    81.194127 
   51500    2569.3707   -116.05259    2.3248206   -113.72777    22973.899    4.3196642    4.3196642    4.3196642    22973.899    10872.188    14548.819    43500.691   -3613.2665   -23001.454    13355.564    80.602769 
   51600    2685.4332   -116.16643    2.4298364   -113.73659   -2715.4422    4.3225662    4.3225662    4.3225662   -2715.4422   -32530.546    21633.014    2751.2059    1762.7099    39809.585    -17183.29    80.765325 
   51700    996.74079    -114.6641   0.90187202   -113.76223   -4524.6597    4.3257778    4.3257778    4.3257778   -4524.6597   -30688.767    51597.496   -34482.709   -5378.4367    47172.511    26655.791    80.945485 
   51800    2757.0271   -116.22781    2.4946161    -113.7332    15030.599    4.3272329    4.3272329    4.3272329    15030.599    33844.983   -12386.567    23633.383    4493.2066    -25445.54    6456.0581    81.027195 
   51900    1406.6876    -115.0272    1.2728005    -113.7544   -7266.4336    4.3292446    4.3292446    4.3292446   -7266.4336    28222.047   -16569.203   -33452.145    11256.409    39494.353   -70219.707    81.140254 
   52000    2118.7764   -115.66419    1.9171134   -113.74707   -19057.987    4.3269709    4.3269709    4.3269709   -19057.987   -35478.941    10282.307   -31977.328   -11158.174     53588.59    21060.255     81.01248 
   52100    2391.3653   -115.89415    2.1637576   -113.73039    6048.8377    4.3248466    4.3248466    4.3248466    6048.8377    17350.023     6449.095   -5652.6054    11460.741   -12198.995   -22778.458    80.893218 
   52200    931.10822   -114.59112   0.84248629   -113.74863    528.27957    4.3311035    4.3311035    4.3311035    528.27957    16510.833   -38552.089    23626.095    22600.149    28809.559    -83410.72    81.244822 
   52300    2945.5835   -116.37722    2.6652259     -113.712   -3475.1765    4.3388704    4.3388704    4.3388704   -3475.1765   -27545.049    2617.5416    14501.978   -23147.481    23804.619    29021.215    81.682692 
   52400    1611.2151   -115.18571    1.4578613   -113.72785   -7720.3961    4.3325767    4.3325767    4.3325767   -7720.3961    10198.366   -76309.846    42950.291    32132.102   -5930.1981   -50782.961    81.327751 
   52500    1425.1014   -115.02472    1.2894617   -113.73525    3926.4195    4.3207823    4.3207823    4.3207823    3926.4195    5868.0512    37183.717    -31272.51     44663.38    22459.877    -30736.13    80.665372 
   52600    3132.2749    -116.5377    2.8341481   -113.70355    7012.0517    4.3260655    4.3260655    4.3260655    7012.0517     -10596.1    44722.308   -13090.053   -21291.267    7354.9102    18218.571    80.961636 
   52700    928.47157   -114.57328   0.84010059   -113.73318   -8022.6844    4.3398091    4.3398091    4.3398091   -8022.6844    29927.304    -25386.39   -28608.968    41098.971    7246.5322   -104216.92     81.73572 
   52800    2396.4546   -115.86094    2.1683625   -113.69258    5718.1328    4.3507201    4.3507201    4.3507201    5718.1328    -46037.87    4913.9215    58278.347    38603.992    4425.3248     22460.34     82.35376 
   52900    2331.7967   -115.80018    2.1098586   -113.69032   -12937.686     4.340199     4.340199     4.340199   -12937.686    23485.687   -31126.299   -31172.444   -23341.451    1665.2366   -67150.426    81.757749 
   53000    926.29683   -114.56273   0.83813283    -113.7246   -14046.521    4.3171044    4.3171044    4.3171044   -14046.521    17600.657   -49498.345   -10241.875     73608.09    5138.3646   -74317.267    80.459562 
   53100    2536.0051   -116.00717    2.2946307   -113.71253    18784.625    4.3050378    4.3050378    4.3050378    18784.625    9130.8105   -6095.8259    53318.891    46264.541   -5676.8932    30220.736    79.786772 
   53200    1779.4308   -115.36304    1.6100664   -113.75297    14571.771    4.3171287    4.3171287    4.3171287    14571.771    90237.723   -5497.3075   -41025.101   -32495.742    5930.9503   -86216.948     80.46092 
   53300    1728.3473   -115.30648     1.563845   -113.74264    -23249.96    4.3436909    4.3436909    4.3436909    -23249.96   -3221.1492   -88010.588    21481.859    64712.542    5456.9753   -4053.9848     81.95524 
   53400    2272.5657   -115.76771    2.0562652   -113.71144   -20725.999    4.3437801    4.3437801    4.3437801   -20725.999   -37782.898   -41907.033    17511.934    36416.969   -14435.972   -17213.581    81.960291 
   53500    1359.6331   -114.95898    1.2302246   -113.72876   -29088.572    4.3273744    4.3273744    4.3273744   -29088.572    18216.449   -78463.345   -27018.822    -31490.31    6993.9758     -93122.6    81.035147 
   53600     2650.518   -116.11531    2.3982444   -113.71706    20390.845    4.3025347    4.3025347    4.3025347    20390.845   -13438.432   -4621.1156    79232.083   -16321.235   -8131.9841    29877.546    79.647685 
   53700    2065.7238   -115.60802    1.8691103   -113.73891    12429.751    4.3008043    4.3008043    4.3008043    12429.751    51926.472   -26892.294    12255.076    20917.109    2930.3951   -62838.921    79.551623 
   53800    1536.2643   -115.15713    1.3900443   -113.76709   -34488.851    4.3271466    4.3271466    4.3271466   -34488.851    24660.815   -80886.543   -47240.826   -16140.823    816.84234   -67861.933    81.022346 
   53900    2639.0628   -116.11299    2.3878795   -113.72511   -30472.568    4.3414428    4.3414428    4.3414428   -30472.568   -56883.934   -67336.174    32802.405   -67853.223   -9923.4246    26240.766    81.828061 
   54000     1732.004   -115.28904    1.5671537   -113.72188   -32300.055    4.3351583    4.3351583    4.3351583   -32300.055    43281.529   -62652.342   -77529.351    7797.5802   -792.92474   -112024.63    81.473223 
   54100    2578.5055    -116.0365     2.333086   -113.70342    -20417.08    4.3289614    4.3289614    4.3289614    -20417.08   -9762.9075   -18789.716   -32698.616   -6044.1383   -17384.006   -17270.004    81.124333 
   54200    1504.3769   -115.08698    1.3611918   -113.72579   -27909.671    4.3202307    4.3202307    4.3202307   -27909.671    -33585.52   -67324.041    17180.549    -68444.69     203.8333   -24362.133    80.634485 
   54300    1544.5132   -115.13786     1.397508   -113.74035    16558.216    4.3125477    4.3125477    4.3125477    16558.216    74298.218   -18744.963   -5878.6081   -10270.365    2209.7938   -99194.379    80.205054 
   54400    3068.5408   -116.50379    2.7764802   -113.72731    12057.016    4.3304332    4.3304332    4.3304332    12057.016    28858.348   -2466.4647    9779.1636    5317.3574   -5409.3958    30811.585    81.207107 
   54500    1127.7905    -114.7505    1.0204486   -113.73005   -42655.154    4.3517425    4.3517425    4.3517425   -42655.154    11907.577   -91139.437   -48733.601   -30030.029     1973.238   -49021.446    82.411834 
   54600    3040.4371   -116.42016    2.7510514   -113.66911   -17301.716    4.3406746    4.3406746    4.3406746   -17301.716    30050.521   -23363.563   -58592.107    11411.804   -5763.5545   -32943.844    81.784627 
   54700    1351.1173   -114.90552    1.2225193     -113.683    5988.0289    4.3310139    4.3310139    4.3310139    5988.0289    22377.302   -54168.596    49755.381   -33278.358    12653.315    33511.066    81.239779 
   54800    2111.9749   -115.59791    1.9109593   -113.68695   -18698.015    4.3411692    4.3411692    4.3411692   -18698.015   -798.86166   -40491.984     -14803.2   -11975.745   -9497.8246   -20911.907    81.812589 
   54900    2532.3581   -115.98855    2.2913308   -113.69722    27502.097    4.3229399    4.3229399    4.3229399    27502.097    30588.901   -45.470813    51962.862     8897.038   -18875.105   -6287.4146    80.786275 
   55000    766.11903   -114.43794    0.6932006   -113.74474    8089.1465    4.3169015    4.3169015    4.3169015    8089.1465    17265.417    -55523.24    62525.263   -53418.435   -740.54266    47896.991    80.448216 
   55100    3160.1973   -116.56994    2.8594129   -113.71052   -5400.2427     4.337564     4.337564     4.337564   -5400.2427    733.61005    -36108.81    19174.472   -2424.1036   -4556.3251     16569.02     81.60893 
   55200    1219.8725   -114.82213    1.1037662   -113.71836   -14842.508    4.3498477    4.3498477    4.3498477   -14842.508   -38633.418    1785.6702   -7679.7761    1877.4517   -29208.947   -20414.403    82.304232 
   55300    2684.9606    -116.1006    2.4294088   -113.67119    1323.0676    4.3565414    4.3565414    4.3565414    1323.0676   -4558.6137   -16004.883    24532.699   -16414.823    15620.243    3462.5211    82.684773 
   55400    1781.1438    -115.2793    1.6116163   -113.66769   -33157.992    4.3536732    4.3536732    4.3536732   -33157.992   -24305.999   -41304.955   -33863.021     8915.132   -26806.969   -26642.976    82.521569 
   55500    1482.3267   -115.01743    1.3412404   -113.67619     1076.043    4.3267774    4.3267774    4.3267774     1076.043     1340.313    2367.4588   -479.64284    5835.6257   -40931.476   -19521.714     81.00161 
   55600    2846.3943    -116.2428    2.5754774   -113.66733    42277.768    4.3108626    4.3108626    4.3108626    42277.768    83436.799   -10692.859    54089.365    1035.9052    21440.095    38140.437    80.111072 
   55700    1482.6109   -115.06881    1.3414975   -113.72731   -3386.1656    4.3216576    4.3216576    4.3216576   -3386.1656    -17540.89    19151.892   -11769.499    9120.6639   -49569.508     11467.08    80.714406 
   55800    2674.3651   -116.13475    2.4198218   -113.71493    -8976.437    4.3429849    4.3429849    4.3429849    -8976.437   -44431.037    7600.9581     9900.768     9222.487   -4780.2814   -13019.607    81.915285 
   55900     1472.561   -115.04681    1.3324041   -113.71441   -35849.511    4.3450253    4.3450253    4.3450253   -35849.511    11213.009   -50146.767   -68614.775   -10299.223   -4269.4079    99114.694    82.030799 
   56000    2242.8319   -115.72149    2.0293614   -113.69213    5293.3086    4.3226812    4.3226812    4.3226812    5293.3086   -49278.021    74308.242   -9150.2957   -5866.3314   -27901.438   -21429.892    80.771774 
   56100    1873.5494   -115.40268    1.6952268   -113.70746    2769.4382      4.31139      4.31139      4.31139    2769.4382    39661.134   -26709.826   -4642.9927   -2980.6581    8209.8602    66259.211     80.14048 
   56200    1718.6803   -115.28638     1.555098   -113.73128   -7220.7684    4.3082493    4.3082493    4.3082493   -7220.7684    69724.369   -35914.554   -55472.121    3049.7225   -10048.504    94113.772    79.965469 
   56300    2985.7735   -116.42468    2.7015906   -113.72309   -8026.5056    4.3221784    4.3221784    4.3221784   -8026.5056   -46113.368    11983.923    10049.928   -4197.7858    -32233.27   -30842.109    80.743592 
   56400    1040.1441    -114.6924   0.94114424   -113.75126   -30889.929    4.3392114    4.3392114    4.3392114   -30889.929    22095.823   -67460.993   -47304.615    1945.3885   -6445.1951    136092.56     81.70195 
   56500    2544.7892   -116.03019    2.3025788   -113.72761    -4794.926    4.3350642    4.3350642    4.3350642    -4794.926   -25960.026    1621.6152    9953.6325    6489.5412    9883.1573   -19167.926    81.467915 
   56600    1720.5626   -115.29359    1.5568012   -113.73678    9252.9258    4.3181456    4.3181456    4.3181456    9252.9258    57880.657    6823.7993   -36945.679   -3648.2129     7282.361    10872.615     80.51779 
   56700    1398.6495   -115.01819    1.2655275   -113.75266     5869.549     4.311423     4.311423     4.311423     5869.549    64440.614    12273.652   -59105.618    35.269442   -12132.869    107963.53    80.142317 
   56800    3240.4108   -116.64877    2.9319918   -113.71678    26559.303    4.3269576    4.3269576    4.3269576    26559.303    -3995.651    61269.136    22404.423   -12269.117   -7886.6926   -14329.269    81.011735 
   56900    858.73048   -114.50438   0.77699739   -113.72738    2339.1399    4.3532695    4.3532695    4.3532695    2339.1399    114011.54   -40787.313   -66206.808    1110.0616   -12098.603    88415.207    82.498617 
   57000    2910.8379   -116.26805    2.6337873   -113.63426   -19968.415    4.3629539    4.3629539    4.3629539   -19968.415    -11993.29   -17390.475   -30521.479   -7725.3818    846.41095   -58512.829     83.05043 
   57100    1059.9543   -114.60098   0.95906893   -113.64191   -12336.945     4.342716     4.342716     4.342716   -12336.945    53548.773   -64669.185   -25890.424   -7087.8664   -4192.3677    136368.23    81.900071 
   57200    2529.1819   -115.92493     2.288457   -113.63647    11767.061    4.3202525    4.3202525    4.3202525    11767.061    27697.126    6258.9712    1345.0849   -10025.598    8956.7514    -3729.686    80.635703 
   57300    1368.9129   -114.90911    1.2386212   -113.67049    28453.871    4.3120897    4.3120897    4.3120897    28453.871    183163.64   -58537.766   -39264.264   -11464.982    10821.293    84028.108    80.179503 
   57400    2208.9116   -115.68122    1.9986696   -113.68255    10319.013    4.3394624    4.3394624    4.3394624    10319.013    76522.541   -58744.192    13178.691   -15345.123     5295.905     22817.15     81.71613 
   57500    2268.2509   -115.71011    2.0523611   -113.65775   -36477.567    4.3633554    4.3633554    4.3633554   -36477.567    735.79775   -65388.955   -44779.544    541.56204   -3315.9135    45498.868    83.073359 
   57600    1865.0655   -115.33789    1.6875505   -113.65034   -12667.859    4.3467446    4.3467446    4.3467446   -12667.859    8529.1389   -25593.767    -20938.95    13672.249    4593.9015    85321.564    82.128213 
   57700    2592.8228   -115.97246    2.3460406   -113.62642   -6703.2502    4.3370267    4.3370267    4.3370267   -6703.2502    72740.693   -52230.862   -40619.581    17927.851   -7499.8327   -9002.1434    81.578607 
   57800    983.95677   -114.53861   0.89030476    -113.6483   -25368.767      4.33405      4.33405      4.33405   -25368.767    160352.67   -90046.831   -146412.14    4531.8592   -1688.0054    126837.84     81.41075 
   57900    3256.6604    -116.5567    2.9466948      -113.61    35899.774    4.3237981    4.3237981    4.3237981    35899.774    10505.186    82610.432    14583.703     -1355.92   -4726.7731   -22946.129    80.834401 
   58000    1247.3947   -114.81461    1.1286689   -113.68594   -37084.787    4.3355738    4.3355738    4.3355738   -37084.787    46639.077   -48270.884   -109622.55   -9960.4774   -3358.6022     143852.7    81.496649 
   58100    2570.3036   -116.01202    2.3256647   -113.68635    12364.443    4.3288582    4.3288582    4.3288582    12364.443     22150.75   -360.54465    15303.124    8026.4781    2014.2571   -57577.198    81.118529 
   58200    1338.6655   -114.92551    1.2112527   -113.71426     26109.27    4.3135059    4.3135059    4.3135059     26109.27    90426.349   -11972.381   -126.15766   -10221.398    11065.335    62927.458     80.25853 
   58300    1675.4072   -115.24815    1.5159437   -113.73221   -11322.914    4.3250129    4.3250129    4.3250129   -11322.914    20564.764   -7692.2512   -46841.254   -8350.6256   -5720.1782    73725.609     80.90255 
   58400    2744.6636   -116.18579    2.4834293   -113.70236    17131.476    4.3292515    4.3292515    4.3292515    17131.476   -22907.863    26353.832    47948.461   -1174.1266   -2633.4013   -7643.9288    81.140641 
   58500    1393.0123   -114.98634    1.2604268   -113.72591   -17723.569    4.3359864    4.3359864    4.3359864   -17723.569    67382.999   -71556.403   -48997.304     3107.651   -4357.7744    108221.31    81.519921 
   58600    3078.4803    -116.4688    2.7854737   -113.68333   -6586.7062    4.3398607    4.3398607    4.3398607   -6586.7062     -30694.7    327.39764    10607.184   -20638.351   -6437.8562   -55101.761    81.738632 
   58700    1288.2867   -114.86658    1.1656689   -113.70091   -21544.752    4.3305762    4.3305762    4.3305762   -21544.752    26170.112   -30744.555   -60059.813    11516.571   -5668.2174    117886.82    81.215149 
   58800    2277.3819   -115.76655     2.060623   -113.70593    898.56592    4.3151733    4.3151733    4.3151733    898.56592    37823.712   -23161.247   -11966.767   -3481.2251    7503.4711    41733.464    80.351635 
   58900    2116.6607   -115.63802    1.9151991   -113.72282    32777.443    4.3083998    4.3083998    4.3083998    32777.443    37885.289    63077.188   -2630.1494   -19000.734    8873.7929   -11394.192    79.973848 
   59000    1118.8607   -114.77436    1.0123687   -113.76199   -35217.448    4.3316521    4.3316521    4.3316521   -35217.448    75001.661   -64560.213   -116093.79    13056.907   -8883.8964     127070.9    81.275699 
   59100    3272.9902   -116.66218    2.9614704    -113.7007     9791.055    4.3399906    4.3399906    4.3399906     9791.055   -8205.3931    56465.468    -18886.91    9483.1371   -6886.7643   -36556.173    81.745973 
   59200    872.50047   -114.52178   0.78945676   -113.73232    18428.196    4.3217544    4.3217544    4.3217544    18428.196    78854.459    15921.758   -39491.628   -20996.063    6065.5634     127018.6    80.719832 
   59300    2293.4532   -115.80247    2.0751647    -113.7273    21357.426    4.3216375    4.3216375    4.3216375    21357.426    35009.615    50735.108   -21672.444   -1315.9074   -14041.603    15227.881    80.713279 
   59400    2460.3581   -115.94433    2.2261837   -113.71815    14997.852    4.3216763    4.3216763    4.3216763    14997.852    84535.558   -477.87848   -39064.124     2863.633    5551.2661    54008.724    80.715457 
   59500    888.87039   -114.54436   0.80426861    -113.7401     30352.15    4.3247517    4.3247517    4.3247517     30352.15    110597.17   -35177.172     15636.45   -9114.0397    16520.997    88271.814    80.887892 
   59600     2931.492   -116.32545    2.6524756   -113.67298     -28558.1    4.3496222    4.3496222    4.3496222     -28558.1   -10245.084   -49898.307   -25530.909   -7100.5301    6390.5699    2549.4466    82.291432 
   59700     1353.198   -114.90397    1.2244019   -113.67956   -16879.607    4.3425152    4.3425152    4.3425152   -16879.607    82815.456   -73895.702   -59558.574   -2453.2068   -5735.5182    132040.32    81.888711 
   59800    3434.0818   -116.74306    3.1072294   -113.63583    51078.233    4.3126809    4.3126809    4.3126809    51078.233    58792.028    31389.481    63053.189    -7908.955   -28.963074   -43412.237    80.212487 
   59900    534.16262    -114.1998   0.48332157   -113.71648   -21047.867    4.3179108    4.3179108    4.3179108   -21047.867       104450    -111385.8   -56207.799   -3864.8768    6773.4997     174710.4    80.504658 
   60000    3048.7712   -116.44942    2.7585922   -113.69083   -7875.9463     4.330467     4.330467     4.330467   -7875.9463   -8902.8449    3762.2683   -18487.262    5645.2182   -7290.5931    -5879.151    81.209006 
   60100    1731.1931   -115.27224    1.5664199   -113.70582   -13884.456    4.3460249    4.3460249    4.3460249   -13884.456    45661.096   -29410.604   -57903.859    539.77988   -10321.302    68328.335    82.087427 
   60200      1826.23   -115.34877    1.6524113   -113.69636   -29864.266    4.3538951    4.3538951    4.3538951   -29864.266    35142.391   -57397.867   -67337.321   -15298.306    8307.0257    69599.469    82.534189 
   60300    2429.1911   -115.85503    2.1979832   -113.65704    37074.167    4.3351935    4.3351935    4.3351935    37074.167     41792.99    53524.863    15904.647   -3098.6311   -209.16985     28384.57    81.475207 
   60400    1192.5171   -114.75095    1.0790145   -113.67193    19665.085    4.3339904    4.3339904    4.3339904    19665.085    101674.98   -2750.9133   -39928.808    9668.1064   -2877.4505    86002.716    81.407393 
   60500    3153.5023   -116.49202    2.8533552   -113.63866    250.75034    4.3358902    4.3358902    4.3358902    250.75034   -17281.195    12446.299    5587.1472    10830.353   -11516.253   -55833.131    81.514492 
   60600    1050.1063   -114.63129   0.95015829   -113.68113    6980.7593    4.3187029    4.3187029    4.3187029    6980.7593     74672.96   -67105.156    13374.474   -3484.1898    8138.7228    157938.85    80.548967 
   60700    3411.8579   -116.76573    3.0871208   -113.67861    22424.789    4.3203696    4.3203696    4.3203696    22424.789   -9678.0322    36882.096    40070.305   -7161.9759   -8796.1349    -34170.89    80.642263 
   60800    1150.6182   -114.77227    1.0411035   -113.73117   -11631.089    4.3242873    4.3242873    4.3242873   -11631.089    59041.316   -72731.958   -21202.626    9269.5179   -9629.1802    122077.62    80.861839 
   60900    1805.5388   -115.36311    1.6336894   -113.72942    4094.1923    4.3250005    4.3250005    4.3250005    4094.1923     39805.91    -662.6262   -26860.706   -590.49696    10106.413    35768.867    80.901857 
   61000    2104.7537   -115.61937    1.9044253   -113.71494   -17357.796    4.3379553    4.3379553    4.3379553   -17357.796    34311.587   -41615.403   -44769.571    8869.8762    -7738.423    6210.6965    81.631021 
   61100    1507.7422   -115.07546    1.3642368   -113.71123   -17742.662     4.330931     4.330931     4.330931   -17742.662    69512.009   -42752.973   -79987.021   -4624.9798   -10327.334     125247.5    81.235112 
   61200    3310.8033   -116.66587    2.9956844   -113.67019    20216.577    4.3226968    4.3226968    4.3226968    20216.577   -27512.703    66980.783    21181.652    482.87913   -2387.3453   -37047.835    80.772648 
   61300    897.00379   -114.53412   0.81162788   -113.72249   -49383.146    4.3264219    4.3264219    4.3264219   -49383.146    60079.586    -77628.93   -130600.09   -1519.7484    14102.718     147244.4    80.981647 
   61400    2975.3384   -116.39007    2.6921487   -113.69792    27242.185    4.3146295    4.3146295    4.3146295    27242.185    32269.945    29151.125    20305.486    2076.2659    4998.4421   -7111.0674    80.321261 
   61500    1662.2031   -115.23908    1.5039963   -113.73509    10562.999    4.3156637    4.3156637    4.3156637    10562.999    48810.021     40389.36   -57510.384    15443.064   -25206.717    75179.398    80.379036 
   61600    1280.9178   -114.90167    1.1590013   -113.74267   -35428.326     4.331213     4.331213     4.331213   -35428.326    21878.577   -40913.345    -87250.21   -5382.3236    8439.3173    95209.325    81.250981 
   61700    2981.8529   -116.40139    2.6980432   -113.70334    28365.455    4.3230321    4.3230321    4.3230321    28365.455    -16071.83    59990.417    41177.777   -6285.1367    23382.899   -27201.594    80.791445 
   61800    993.75404   -114.63913   0.89916954   -113.73996    10546.754    4.3209077    4.3209077    4.3209077    10546.754     75098.69   -31329.116   -12129.311    483.01144   -4011.2931    131346.05    80.672398 
   61900    3121.8758   -116.52151    2.8247388   -113.69677    19210.692    4.3263521    4.3263521    4.3263521    19210.692   -24960.664     54470.47     28122.27   -3532.0501   -19390.926   -30272.762    80.977725 
   62000    993.32202   -114.62227   0.89877863   -113.72349    5872.9515    4.3358842    4.3358842    4.3358842    5872.9515    91853.912   -37999.343   -36235.714    8124.5791    9860.1978    120744.21    81.514153 
   62100     2495.102   -115.93453    2.2576207   -113.67691   -12144.395    4.3472445    4.3472445    4.3472445   -12144.395    29624.119   -35207.617   -30849.689    5916.9714    21698.479    13465.473    82.156553 
   62200    1910.1667   -115.40472     1.728359   -113.67636    9382.2995    4.3249324    4.3249324    4.3249324    9382.2995    11752.899   -12897.451    29291.451   -3390.3338    3426.9166    59734.947    80.898034 
   62300    1932.4414   -115.44396    1.7485136   -113.69545   -1948.8875    4.3168561    4.3168561    4.3168561   -1948.8875    42444.897   -9100.1641   -39191.395   -4846.9869    2929.9283    99135.968    80.445678 
   62400    2762.5438   -116.18562    2.4996077   -113.68602   -7253.1873    4.3263512    4.3263512    4.3263512   -7253.1873   -21279.992     25976.93     -26456.5    13077.955   -4436.9657   -30259.008     80.97768 
   62500    1281.4028   -114.86778    1.1594402   -113.70834    9235.3568    4.3253552    4.3253552    4.3253552    9235.3568    34799.898   -2771.9715    -4321.856   -3313.3968    18385.742    84587.737    80.921765 
   62600    2575.5517   -116.02605    2.3304133   -113.69564    15773.438    4.3374085    4.3374085    4.3374085    15773.438    5982.8737    35570.958    5766.4828   -756.63248    -29163.49   -2839.9351    81.600155 
   62700    1044.3417    -114.6568   0.94494233   -113.71186   -23990.753    4.3436306    4.3436306    4.3436306   -23990.753    -5756.774   -32255.264    -33960.22   -6446.8126   -41497.354    6058.1006    81.951828 
   62800    2642.6335   -116.07055    2.3911103   -113.67944    6341.7888    4.3269222    4.3269222    4.3269222    6341.7888    27164.846   -25543.116    17403.637    1826.7389    4961.9867    33373.717    81.009743 
   62900    1189.0787   -114.78264    1.0759034   -113.70674   -321.81642    4.3196929    4.3196929    4.3196929   -321.81642   -45520.082    18080.909    26473.723   -108.02496   -13434.415   -2280.6569    80.604374 
   63000    1708.4764   -115.26279    1.5458654   -113.71692   -7597.2391    4.3253302    4.3253302    4.3253302   -7597.2391   -20246.997   -9265.2453    6720.5252   -2638.2294   -37005.971   -23355.852    80.920361 
   63100    2731.8761   -116.17617    2.4718589   -113.70431    11543.928    4.3290285    4.3290285    4.3290285    11543.928   -3418.0351   -26961.867    65011.686    5827.8657    22489.304    4944.6051    81.128105 
   63200    969.73289   -114.61522    0.8774347   -113.73779   -48264.422    4.3374797    4.3374797    4.3374797   -48264.422   -83350.293   -40108.245   -21334.727   -20770.096   -30115.276    1409.8853    81.604172 
   63300    2990.5344    -116.4118    2.7058983   -113.70591    7640.7077    4.3232209    4.3232209    4.3232209    7640.7077    8181.0114   -16699.538     31440.65   -3818.7604    -25326.52   -16016.635     80.80203 
   63400    1539.0972   -115.12592    1.3926075   -113.73331   -7700.9807    4.3157036    4.3157036    4.3157036   -7700.9807   -13361.192   -42125.875    32384.125    31137.067    31465.174    8164.6369    80.381264 
   63500    1378.8934   -115.00547    1.2476517   -113.75782    -22061.75    4.3214351    4.3214351    4.3214351    -22061.75   -51774.898   -53218.408    38808.057   -41074.647   -25990.806    4400.0891    80.701945 
   63600    3060.9502   -116.49323     2.769612   -113.72361    2800.7904    4.3257591    4.3257591    4.3257591    2800.7904     52979.55   -35259.033   -9318.1458    7035.7708    4897.4905    901.21283    80.944434 
   63700    877.73395   -114.54831   0.79419212   -113.75412   -25390.243    4.3352397    4.3352397    4.3352397   -25390.243   -65157.563   -33812.874    22799.708    26530.361    27904.403   -7790.0051    81.477808 
   63800     2579.864   -116.06539    2.3343152   -113.73107   -13994.589    4.3343945    4.3343945    4.3343945   -13994.589   -31227.636   -62759.535    52003.405   -33467.104    -8683.921    12088.856    81.430162 
   63900    2099.5812   -115.62551    1.8997452   -113.72576    -2804.836    4.3264228    4.3264228    4.3264228    -2804.836   -16680.036   -16909.939    25175.467     28786.17    15517.913   -5450.2985    80.981698 
   64000    1199.6921   -114.81917    1.0855066   -113.73367   -12787.445    4.3321239    4.3321239    4.3321239   -12787.445   -88855.061    34219.226    16273.501    37661.671    22159.318   -16819.297    81.302258 
   64100    3237.5114    -116.6158    2.9293684   -113.68643    1426.4263    4.3337058    4.3337058    4.3337058    1426.4263    4651.0889   -23755.706    23383.896   -23207.114   -12293.045    34821.355    81.391353 
   64200     1240.936   -114.84208     1.122825   -113.71926   -34526.312    4.3268055    4.3268055    4.3268055   -34526.312   -73827.026   -38068.557    8316.6479    53347.203    17279.024    24539.993     81.00319 
   64300    2383.5921   -115.87011    2.1567242   -113.71339    12651.262    4.3225248    4.3225248    4.3225248    12651.262   -48620.746    91283.132   -4708.6016    30651.282    19502.819   -6683.7951     80.76301 
   64400    1964.6575   -115.50995    1.7776634   -113.73229   -4262.4046    4.3205836    4.3205836    4.3205836   -4262.4046   -16148.494   -25620.073    28981.354   -70540.722   -8477.4729   -3682.7355    80.654246 
   64500    1861.6907   -115.42869    1.6844969    -113.7442    23770.173    4.3180041    4.3180041    4.3180041    23770.173    846.72481    40682.924    29780.868    14703.015    16623.103    14938.608    80.509876 
   64600    2676.0887   -116.15694    2.4213813   -113.73556   -5105.4021    4.3382309    4.3382309    4.3382309   -5105.4021   -57295.957    41960.816    18.934476   -28785.463     11304.51    1485.8804    81.646579 
   64700     1355.717   -114.95733    1.2266812   -113.73064   -17894.992    4.3474729    4.3474729    4.3474729   -17894.992   -18982.868    -54641.77    19939.662   -74733.266   -2518.3586   -9145.0219    82.169503 
   64800    2655.0838   -116.07897    2.4023756    -113.6766    15282.406     4.335445     4.335445     4.335445    15282.406    34653.896    7360.8699    3832.4533    28398.823    6392.5273    475.34446    81.489383 
   64900    1465.9405   -115.01536    1.3264138   -113.68894   -22025.021     4.337247     4.337247     4.337247   -22025.021   -85644.121   -36216.317    55785.376   -132291.21    4187.8666    693.53863     81.59104 
   65000    3190.6099    -116.5539    2.8869309   -113.66697    6364.2535    4.3320878    4.3320878    4.3320878    6364.2535    11331.966    16269.054   -8508.2598    39271.567   -2291.3697   -9701.3655    81.300225 
   65100    1191.4758   -114.79089    1.0780724   -113.71282   -6086.9581    4.3240819    4.3240819    4.3240819   -6086.9581   -16145.047   -39754.086    37638.258   -88495.202   -2826.4252    27975.067     80.85032 
   65200    1957.0357   -115.48397    1.7707671   -113.71321   -18504.711    4.3343272    4.3343272    4.3343272   -18504.711   -10690.293   -68846.421     24022.58   -44831.288   -2566.4637    17945.656     81.42637 
   65300     2231.977   -115.72657    2.0195397   -113.70703   -14893.896    4.3317824    4.3317824    4.3317824   -14893.896   -29569.538   -38224.371    23112.223    43776.593    8616.1061   -7104.8252    81.283031 
   65400    1327.6817   -114.92636    1.2013143   -113.72505   -18226.774    4.3202444    4.3202444    4.3202444   -18226.774   -18261.787   -93751.134    57332.599   -79330.996     4457.147   -1005.0599     80.63525 
   65500    2720.5675   -116.18278    2.4616267   -113.72115    5911.7307    4.3169299    4.3169299    4.3169299    5911.7307    50764.694   -15177.173   -17852.329    5286.1156   -11977.956    5725.7861    80.449805 
   65600    1445.2005   -115.05727    1.3076478   -113.74962    5313.0459    4.3164156    4.3164156    4.3164156    5313.0459   -6011.3824   -24481.712    46432.232   -20744.446   -10672.126    6966.4236    80.421051 
   65700    1828.7686   -115.40807    1.6547083   -113.75336    1766.2018    4.3193547    4.3193547    4.3193547    1766.2018    7067.4659   -79211.251    77442.391   -48713.888    12954.976   -10756.162    80.585444 
   65800    2360.2814   -115.87428    2.1356322   -113.73865   -4407.1156    4.3302636    4.3302636    4.3302636   -4407.1156    3522.7288    6927.3233   -23671.399    18042.692   -28769.406   -3067.6964    81.197566 
   65900     1133.658   -114.78465    1.0257576   -113.75889   -12244.705    4.3177787    4.3177787    4.3177787   -12244.705   -20741.327    6129.8994   -22122.689   -43961.512   -30506.723    10492.343    80.497266 
   66000    2420.8682   -115.93169    2.1904524   -113.74124    41318.448    4.3066695    4.3066695    4.3066695    41318.448    52193.486   -17840.102    89601.959   -43573.543    25119.251     -5460.77     79.87753 
   66100    2298.6028   -115.83034    2.0798241   -113.75052    2185.1942    4.3208477    4.3208477    4.3208477    2185.1942   -12213.532    48833.662   -30064.547    19681.476   -56850.482   -1487.2519    80.669037 
   66200    1183.6362   -114.82666    1.0709789   -113.75569   -13736.493     4.329765     4.329765     4.329765   -13736.493   -53673.446    26702.492   -14238.525    -50490.66   -8688.5055    9906.7873     81.16952 
   66300    2564.8411   -116.04396    2.3207222   -113.72324    29680.946    4.3287843    4.3287843    4.3287843    29680.946   -3314.5219    54260.792    38096.569   -26459.276    24800.462     2060.869    81.114376 
   66400    1717.3136   -115.28958    1.5538614   -113.73571    3341.2624    4.3288369    4.3288369    4.3288369    3341.2624   -56763.655    60340.794    6446.6482    45847.307    -58182.53   -2478.2246    81.117336 
   66500    2222.2216   -115.73765    2.0107128   -113.72694    2528.4059    4.3216861    4.3216861    4.3216861    2528.4059   -48994.973     36662.54    19917.651   -23152.415    19118.861   -2549.6013    80.716006 
   66600    2656.7189   -116.11544    2.4038551   -113.71159    43754.827    4.3129334    4.3129334    4.3129334    43754.827    -13154.44    105483.54    38935.383    1587.7247   -4179.5449   -8714.4041    80.226576 
   66700    1069.2476   -114.72872   0.96747774   -113.76125   -20192.379    4.3235539    4.3235539    4.3235539   -20192.379   -59639.855    8317.8767   -9255.1584    64875.666   -64168.204    6310.9288    80.820705 
   66800    2735.7432   -116.21846     2.475358    -113.7431   -513.75802    4.3314919    4.3314919    4.3314919   -513.75802   -18424.338   -5587.6418    22470.706   -17051.174    18482.395    -6868.093    81.266679 
   66900    1997.3005   -115.54712    1.8071995   -113.73992    53204.299    4.3229664    4.3229664    4.3229664    53204.299    40208.106    70602.127    48802.663    43679.902   -13225.204    7543.4683    80.787762 
   67000    1055.9538    -114.7059   0.95544923   -113.75045    -15703.53    4.3383329    4.3383329    4.3383329    -15703.53   -51956.711    10389.982   -5543.8601     66061.44   -43591.973   -6502.0349    81.652338 
   67100    3279.7181   -116.64893    2.9675578   -113.68137    3742.0973    4.3431284    4.3431284    4.3431284    3742.0973    20980.841   -27584.379     17829.83   -36309.211    24764.615   -10348.471    81.923409 
   67200    835.17513   -114.45464   0.75568401   -113.69896    12844.777    4.3402478    4.3402478    4.3402478    12844.777   -32938.536    18291.564    53181.303    60828.251   -33346.868     26009.08    81.760507 
   67300    2344.2103   -115.79224    2.1210907   -113.67115   -23582.478    4.3474105    4.3474105    4.3474105   -23582.478   -71440.897   -6869.4639    7562.9262   -1711.4443    1201.7999   -14069.177    82.165965 
   67400    2050.1785   -115.52683    1.8550446   -113.67179    34618.465    4.3227232    4.3227232    4.3227232    34618.465    69293.508    38472.001   -3910.1154    23315.664    10484.675    26089.118    80.774126 
   67500    1067.2438   -114.66862    0.9656646   -113.70295    41061.153    4.3202744    4.3202744    4.3202744    41061.153    22770.794    41589.611    58823.054    71021.373   -54870.682    18843.348    80.636929 
   67600    3302.3491   -116.65905    2.9880348   -113.67102   -20414.248    4.3521091    4.3521091    4.3521091   -20414.248   -8469.3839   -24471.367   -28301.994   -25670.625    16262.856   -7466.7375    82.432661 
   67700    939.56439   -114.54176    0.8501376   -113.69162    6200.5113    4.3483721    4.3483721    4.3483721    6200.5113    68165.266     -55664.9     6101.167    27448.725   -24158.899    71475.366    82.220501 
   67800    2429.0453   -115.84231    2.1978512   -113.64445    37738.285    4.3359122    4.3359122    4.3359122    37738.285    14023.436    40738.153    58453.267   -2914.1558    -14540.77   -33357.438    81.515736 
   67900    1516.9812   -115.03278    1.3725965   -113.66019   -18389.726    4.3462383    4.3462383    4.3462383   -18389.726    53294.364   -72423.785   -36039.756    8139.6968    20244.784    89640.532    82.099518 
   68000    2103.0964   -115.55535    1.9029258   -113.65242   -9787.0962    4.3354603    4.3354603    4.3354603   -9787.0962   -11749.344   -18434.449    822.50396    57051.796    959.38397    8475.5999    81.490248 
   68100    1923.8331   -115.40127    1.7407247   -113.66055    9962.8742    4.3181451    4.3181451    4.3181451    9962.8742    42395.022   -22594.246    10087.847    11738.851    -10150.19    55093.727    80.517761 
   68200    1633.0718   -115.18728    1.4776376   -113.70965   -8904.2925    4.3154003    4.3154003    4.3154003   -8904.2925    82483.311   -55599.186   -53597.003   -17970.701    10339.267    107002.64    80.364315 
   68300    3039.3249   -116.44775     2.750045    -113.6977    3444.2279    4.3168265    4.3168265    4.3168265    3444.2279   -20241.223   -96.461007    30670.368    30097.319    10111.048   -30515.435    80.444026 
   68400    795.11076   -114.46647   0.71943293   -113.74703   -5120.5755    4.3299122    4.3299122    4.3299122   -5120.5755    69709.548   -63703.589   -21367.685    18690.879    445.39642    133729.48    81.177798 
   68500     3376.417     -116.749     3.055053   -113.69394    167.57815    4.3482473    4.3482473    4.3482473    167.57815   -18823.595    18569.018    757.31137   -12513.637    5253.2931   -28710.133    82.213419 
   68600    931.89209   -114.54388   0.84319555   -113.70069     19779.71    4.3474454    4.3474454    4.3474454     19779.71    89654.205    -32267.21    1952.1347    20571.731   -8552.7503    112517.41    82.167944 
   68700    2667.5922   -116.03594    2.4136935   -113.62225     12435.14    4.3445993    4.3445993    4.3445993     12435.14    15150.836    17455.598    4698.9854    22178.295    1344.5163   -5013.8432     82.00667 
   68800    1556.1691   -115.01748    1.4080545   -113.60943   -44442.841    4.3536605    4.3536605    4.3536605   -44442.841    59360.589   -70697.621   -121991.49   -21909.929    6259.2316    106313.74    82.520849 
   68900    2211.6859   -115.60436    2.0011799   -113.60318    -12694.06    4.3482162    4.3482162    4.3482162    -12694.06    17921.996   -43674.651   -12329.525    27579.255   -4391.6665    9211.7961    82.211657 
   69000    1630.5976   -115.11416     1.475399   -113.63876   -18028.565     4.334526     4.334526     4.334526   -18028.565    70881.172   -55240.382   -69726.484    23600.367    1448.1952     59246.37    81.437577 
   69100    1692.0126   -115.21325    1.5309686   -113.68228   -10203.402    4.3127515    4.3127515    4.3127515   -10203.402    111952.06   -79851.376   -62710.894   -6885.7849   -9649.3837    112400.96    80.216425 
   69200     2914.232   -116.30634    2.6368584   -113.66948    23775.568    4.3089932    4.3089932    4.3089932    23775.568    18009.098    10310.277    43007.328   -10901.755    12403.391   -15036.006    80.006898 
   69300    1022.4627    -114.6546   0.92514575   -113.72946   -35157.933    4.3348742    4.3348742    4.3348742   -35157.933    56543.216   -105101.15   -56915.864    21541.077   -12561.256     125369.6    81.457202 
   69400    3038.7639   -116.41975    2.7495374   -113.67021   -6180.2805    4.3534041    4.3534041    4.3534041   -6180.2805   -12612.264   -6457.2592    528.68143   -9742.8329   -12474.786   -39815.677    82.506269 
   69500    732.26388   -114.33336   0.66256775   -113.67079   -24213.649     4.358226     4.358226     4.358226   -24213.649    96585.785   -80370.131     -88856.6   -27162.265    7659.8501    113431.34    82.780729 
   69600    3308.5992   -116.61908    2.9936901   -113.62539    5878.0213    4.3387513    4.3387513    4.3387513    5878.0213    24103.362   -14090.755    7621.4567    6851.7828   -8392.4079   -33400.387    81.675965 
   69700     1512.641   -115.04925    1.3686694   -113.68058    3478.3842    4.3201836    4.3201836    4.3201836    3478.3842    137412.29    -79689.12   -47288.014    -3492.138    5513.2171    93414.662    80.631845 
   69800    1444.6718   -115.03003    1.3071694   -113.72287   -26221.549    4.3180885    4.3180885    4.3180885   -26221.549    32203.097   -77035.694   -33832.049   -45921.649    13689.498    67197.685    80.514597 
   69900    2428.3442   -115.92052    2.1972169    -113.7233    47581.262    4.3167448    4.3167448    4.3167448    47581.262    64820.782    1951.3497    75971.654   -13976.023   -19568.848   -8841.9422    80.439457 
   70000    1869.7904   -115.44349    1.6918256   -113.75167   -11687.697    4.3478759    4.3478759    4.3478759   -11687.697    88617.796   -63240.498   -60440.389    8615.0008   -7383.1432    90813.207    82.192352 
   70100    2576.5482   -116.02981    2.3313149   -113.69849   -28069.744    4.3570348    4.3570348    4.3570348   -28069.744   -40775.845   -58960.102    15526.715   -52672.867   -2191.1801   -32711.042    82.712871 
   70200    1258.7899   -114.85067    1.1389796   -113.71169    36589.791    4.3132742    4.3132742    4.3132742    36589.791    58985.452    16302.939    34480.981   -4012.2679    1599.5503    79013.645    80.245597 
   70300    2026.1721   -115.53312    1.8333231    -113.6998    58319.835    4.2974946    4.2974946    4.2974946    58319.835    91466.453    58066.997    25426.055    12583.328   -1159.6162    42212.396    79.368105 
   70400    2546.5795    -116.0151    2.3041986    -113.7109    18677.859    4.3214459    4.3214459    4.3214459    18677.859      21766.6    13995.315    20271.663   -39500.555   -7191.9999   -17154.749    80.702546 
   70500    1235.2769   -114.85351    1.1177045    -113.7358   -481.69171    4.3394029    4.3394029    4.3394029   -481.69171    50533.527   -15524.594   -36454.008   -6511.8491    4130.9662    106819.86    81.712769 
   70600    3083.7399   -116.49519    2.7902326   -113.70496    -7656.615    4.3435859    4.3435859    4.3435859    -7656.615   -27539.762    9121.4223   -4551.5053    21396.517   -14535.753   -27281.875    81.949297 
   70700    1071.9176   -114.70135    0.9698936   -113.73146   -14762.548    4.3292168    4.3292168    4.3292168   -14762.548    74094.336   -28770.734   -89611.247   -9611.2994   -12534.027    80029.854    81.138694 
   70800    1363.9917   -114.96659    1.2341684   -113.73242    2389.3331    4.3102698    4.3102698    4.3102698    2389.3331    78134.819   -40242.917   -30723.902   -25890.649    13477.305    57752.656    80.078025 
   70900    2883.3632   -116.32765    2.6089276   -113.71872    28150.909    4.3121368    4.3121368    4.3121368    28150.909     29878.54    52301.374    2272.8138    10628.095    15474.767    -21655.58    80.182132 
   71000    1620.8937   -115.21959    1.4666187   -113.75297   -16487.427    4.3329368    4.3329368    4.3329368   -16487.427    63860.788   -61211.797   -52111.272   -4019.7106    4135.2882     109823.5    81.348033 
   71100    2135.2183   -115.65778    1.9319904   -113.72579   -20220.435     4.343575     4.343575     4.343575   -20220.435   -13704.059   -37992.326   -8964.9196    -48429.18    -21045.29   -14221.063     81.94868 
   71200    2082.2865   -115.58683    1.8840966   -113.70273   -4530.0976    4.3402378    4.3402378    4.3402378   -4530.0976   -5114.0987    26232.865   -34709.058    10847.989   -11005.267    27695.665    81.759945 
   71300    2260.4701   -115.73678    2.0453208   -113.69146    -13463.04    4.3317963    4.3317963    4.3317963    -13463.04    9677.9209   -52907.032    2839.9894   -14001.689    14114.732    66276.786    81.283815 
   71400    2098.0776   -115.60412    1.8983847   -113.70573    18499.095    4.3155932    4.3155932    4.3155932    18499.095   -32272.642    19627.266    68142.661   -63275.168   -11392.553   -36019.869    80.375096 
   71500     1716.292    -115.2857     1.552937   -113.73276    -814.5694    4.3135931    4.3135931    4.3135931    -814.5694    48378.055   -7401.5217   -43420.241    4275.4467   -11086.459    39044.477    80.263398 
   71600    2392.3438   -115.90209    2.1646429   -113.73744    19959.014    4.3159517    4.3159517    4.3159517    19959.014    18737.396   -5342.7612    46482.407    1011.4753   -7489.3267    31310.679    80.395126 
   71700    1508.8374   -115.12197    1.3652278   -113.75674    3088.8046    4.3248028    4.3248028    4.3248028    3088.8046   -36226.721    3341.6925    42151.442   -31038.206    21737.374   -6358.5249     80.89076 
   71800    2065.2015   -115.61358    1.8686378   -113.74495   -24641.635    4.3333895    4.3333895    4.3333895   -24641.635     22911.23   -43702.033   -53134.102   -2932.5371    11641.209   -52885.251    81.373537 
   71900    2212.0149   -115.72861    2.0014776   -113.72713    11722.862    4.3223934    4.3223934    4.3223934    11722.862   -860.55636    5254.7032    30774.438   -1181.5833    877.98549   -17057.233     80.75564 
   72000    1190.1669   -114.81515     1.076888   -113.73826    8462.5859    4.3183779    4.3183779    4.3183779    8462.5859   -38789.897   -11532.492    75710.147   -28110.314     23844.49    7714.6212    80.530784 
   72100    2714.1131   -116.16034    2.4557866   -113.70455    5567.1853     4.333775     4.333775     4.333775    5567.1853    52115.084   -5462.5902   -29950.938   -1172.8752    4021.7201   -46262.065    81.395254 
   72200    1441.2235   -115.01477    1.3040493   -113.71073   -4127.2456    4.3381016    4.3381016    4.3381016   -4127.2456   -29864.778    17710.841   -227.80007    22655.238   -14163.858    14547.587    81.639276 
   72300    1694.2928   -115.24265    1.5330318   -113.70962    6093.2667    4.3339081    4.3339081    4.3339081    6093.2667    -51501.81    25503.567    44278.043   -7698.4009    8898.3089    2927.4663    81.402754 
   72400     2894.627   -116.30214    2.6191193   -113.68302    15490.326    4.3266133    4.3266133    4.3266133    15490.326    16445.475    54561.743    -24536.24   -2562.1373   -19805.021   -13496.483    80.992393 
   72500    1114.0017   -114.73847    1.0079721    -113.7305    1900.5586    4.3186993    4.3186993    4.3186993    1900.5586   -37084.438    78081.208   -35295.094    33025.584   -23775.357    20981.918     80.54877 
   72600    2914.0439   -116.35801    2.6366881   -113.72132    7997.7688    4.3229599    4.3229599    4.3229599    7997.7688    23559.135     9543.608   -9109.4366   -2100.9274     17745.11    14818.253    80.787398 
   72700    1719.9659   -115.30357    1.5562613    -113.7473    15780.882     4.324125     4.324125     4.324125    15780.882    39627.208    75534.687   -67819.249   -4448.4918   -31749.041    -12767.51    80.852738 
   72800    1098.7539   -114.75688   0.99417559    -113.7627   -5523.2669    4.3348763    4.3348763    4.3348763   -5523.2669   -36483.372    81175.502    -61261.93    29863.531   -18570.299   -17239.187    81.457321 
   72900    3510.8623   -116.86804    3.1767019   -113.69134   -6016.3192     4.347651     4.347651     4.347651   -6016.3192    35165.797   -31672.909   -21541.846   -15742.067    11051.557    17198.871    82.179601 
   73000    1337.9834   -114.91271    1.2106355   -113.70207   -21296.347    4.3503536    4.3503536    4.3503536   -21296.347   -19532.395     16952.73   -61309.375    8356.5347   -27776.777     4790.807    82.332952 
   73100    2687.7716     -116.093    2.4319523   -113.66105   -28786.631    4.3464062    4.3464062    4.3464062   -28786.631   -11003.726   -9229.0688   -66127.098     5987.708   -41536.412    2114.5296    82.109032 
   73200    1653.8873   -115.16952     1.496472   -113.67305   -3460.3175     4.329206     4.329206     4.329206   -3460.3175    22544.928   -63422.904    30497.024   -50689.114    17914.987    41812.813    81.138087 
   73300    2524.8067   -115.97051    2.2844982   -113.68602    848.00532    4.3230985    4.3230985    4.3230985    848.00532   -36338.072    32450.224     6431.864    23360.679   -5336.5088   -15834.545    80.795167 
   73400    2204.1503   -115.71068    1.9943615   -113.71632   -16462.507    4.3251615    4.3251615    4.3251615   -16462.507   -14247.537   -35791.832    651.84614   -25063.336   -19557.255    2335.2017    80.910893 
   73500    1153.8375    -114.8025    1.0440165   -113.75848   -4622.6745    4.3095556    4.3095556    4.3095556   -4622.6745   -3590.6432   -57714.599    47437.219   -89793.311   -8329.6698    40751.842    80.038226 
   73600    2330.4584   -115.87313    2.1086478   -113.76448    20291.998    4.3044651    4.3044651    4.3044651    20291.998    26453.931    30822.066    3599.9962    19381.129    53802.219    9877.3215    79.754936 
   73700    2037.6088   -115.61641    1.8436713   -113.77274   -4354.1552    4.3179632    4.3179632    4.3179632   -4354.1552   -43758.689   -13235.694    43931.918   -23129.952    21397.226    623.95924    80.507587 
   73800    1690.2362   -115.29071    1.5293613   -113.76135   -15401.185    4.3297036    4.3297036    4.3297036   -15401.185   -36085.867   -50588.003    40470.316   -76647.724   -11443.862    29929.979    81.166067 
   73900    2496.0617   -115.98151     2.258489   -113.72302   -9165.5781    4.3401043    4.3401043    4.3401043   -9165.5781   -1874.9784    28030.937   -53652.693    26528.214     26112.56    9234.2529    81.752396 
   74000    1307.7437    -114.9013     1.183274   -113.71802   -26039.664    4.3448764    4.3448764    4.3448764   -26039.664   -101821.76   -32506.322    56209.083   -61763.939    16179.248   -7256.4549    82.022364 
   74100    2366.3893   -115.83986    2.1411588    -113.6987      3674.87    4.3235516    4.3235516    4.3235516      3674.87   -29881.221   -18699.267    59605.098     -34324.1    -10686.37   -3083.5326    80.820578 
   74200    2401.6146   -115.87096    2.1730313   -113.69793    17139.244    4.3061111    4.3061111    4.3061111    17139.244   -33114.511    94884.449   -10352.207    606.05118    14295.573   -741.13964    79.846467 
   74300     1154.887   -114.78933     1.044966   -113.74436    -11387.44    4.3139095    4.3139095    4.3139095    -11387.44   -86250.757    17918.178    34170.257   -90976.987    31587.994   -11299.682    80.281057 
   74400    3155.7684   -116.58059    2.8554056   -113.72519   -4217.2899    4.3285824    4.3285824    4.3285824   -4217.2899    17796.084   -5869.9609   -24577.992    15240.035   -18067.392    238.20331    81.103027 
   74500    1479.8615   -115.09051    1.3390098    -113.7515   -17663.464    4.3349007    4.3349007    4.3349007   -17663.464   -76079.695    60340.963   -37251.659   -31152.571   -38534.551    7470.5481    81.458697 
   74600    1376.4714   -114.99494    1.2454602   -113.74948     20292.22    4.3251251    4.3251251    4.3251251     20292.22     22701.04    33677.198    4498.4231   -80195.156    22274.515    6191.8057    80.908848 
   74700    3217.4087   -116.62617     2.911179     -113.715    21595.733     4.320365     4.320365     4.320365    21595.733    41194.616    26873.198   -3280.6169    58267.726   -522.38191   -2437.9909    80.642005 
   74800    887.60707   -114.55711   0.80312553   -113.75398    10541.547    4.3135762    4.3135762    4.3135762    10541.547   -36230.136    6401.8613    61452.915   -61756.522   -35909.571   -4511.1581    80.262453 
   74900    2380.8982   -115.90202    2.1542867   -113.74774    11659.178    4.3255479    4.3255479    4.3255479    11659.178   -19052.207    55683.047   -1653.3051   -23758.845   -11266.151   -323.05428    80.932576 
   75000    2591.7682   -116.07537    2.3450863   -113.73029   -7105.4534     4.333951     4.333951     4.333951   -7105.4534    -4578.762     16207.75   -32945.348   -1690.4243    28174.961   -19660.338    81.405169 
   75100     977.0824    -114.6356   0.88408469   -113.75151    19930.585     4.320967     4.320967     4.320967    19930.585    -35450.56    44260.242    50982.072   -90779.706   -2218.6365   -3017.5609    80.675718 
   75200    2934.7889   -116.38503    2.6554587   -113.72957   -7244.5876    4.3213669    4.3213669    4.3213669   -7244.5876   -18066.302    13235.106   -16902.567    17925.319   -3826.6353     15151.08    80.698124 
   75300    1467.8152   -115.08328      1.32811   -113.75517    8275.6202    4.3141982    4.3141982    4.3141982    8275.6202    21191.239     24199.72   -20564.099   -28564.114    37647.846    19938.672    80.297178 
   75400    1572.7752   -115.18943      1.42308   -113.76635     9042.979    4.3205878    4.3205878    4.3205878     9042.979   -7581.4821   -28683.476    63393.895   -76994.408    5804.2776   -22038.593    80.654482 
   75500     2674.051   -116.15567    2.4195376   -113.73613   -11637.004    4.3403342    4.3403342    4.3403342   -11637.004    52538.875   -26095.703   -61354.184    23695.917    -17178.62    3693.3609    81.765393 
   75600    1460.4729    -115.0649    1.3214665   -113.74343    5479.7963    4.3276438    4.3276438    4.3276438    5479.7963    17173.724    37121.642   -37855.977    -47842.46    34171.668    42444.186    81.050283 
   75700    2508.7605   -115.98546    2.2699792   -113.71548    6965.7667    4.3196483    4.3196483    4.3196483    6965.7667   -24065.389    21863.183    23099.506   -36650.954    1276.2098   -19022.651    80.601877 
   75800    1769.7448   -115.32113    1.6013023   -113.71983   -33306.511    4.3364706    4.3364706    4.3364706   -33306.511    27811.906   -30900.222   -96831.217    20748.428   -9863.4955    39525.311    81.547229 
   75900    1473.5728    -115.0428    1.3333197   -113.70948   -2585.1703    4.3320463    4.3320463    4.3320463   -2585.1703    10531.252    6849.4874    -25136.25   -38458.784    26795.047    23414.027    81.297887 
   76000     2833.794   -116.25019    2.5640764   -113.68612   -2643.3236    4.3293093    4.3293093    4.3293093   -2643.3236   -21880.384    15181.766   -1231.3521    20394.172   -25219.699   -12848.874    81.143892 
   76100    824.17026   -114.47042   0.74572658   -113.72469   -53325.192    4.3382599    4.3382599    4.3382599   -53325.192     20117.37   -57842.336   -122250.61    15794.833   -11876.549    67835.133    81.648217 
   76200     3111.057    -116.4933    2.8149498   -113.67835    8594.9733     4.323762     4.323762     4.323762    8594.9733   -2754.5547    32896.834   -4357.3595   -18169.841    25793.818   -29659.224    80.832374 
   76300    1378.4227   -114.96083    1.2472258    -113.7136    -15727.31    4.3301877    4.3301877    4.3301877    -15727.31   -34201.666    7450.5281   -20430.792    23043.878   -57807.545    52122.721    81.193297 
   76400     1683.798    -115.2378    1.5235358   -113.71426   -18020.989    4.3419094    4.3419094    4.3419094   -18020.989    426.93541   -23054.198   -31435.705    20760.275    4019.1374    46642.725    81.854447 
   76500    3257.8515   -116.65767    2.9477725    -113.7099    6545.8208    4.3233146    4.3233146    4.3233146    6545.8208   -12969.216    13789.389    18817.289    -12610.59    10631.545   -18844.422    80.807284 
   76600    796.27943   -114.48788   0.72049036   -113.76739   -2742.9898     4.304385     4.304385     4.304385   -2742.9898   -9868.9136    17699.948   -16060.004    20523.612   -73299.491     57923.55    79.750482 
   76700     2190.119   -115.74367    1.9816657     -113.762     2285.612     4.318441     4.318441     4.318441     2285.612    53897.532   -35253.645   -11787.052    17937.495    1117.6268    38861.493    80.534315 
   76800    2172.8477   -115.70691    1.9660383   -113.74087   -12897.982    4.3507492    4.3507492    4.3507492   -12897.982   -22234.841    36906.841   -53365.946   -13181.754   -33853.854   -22133.841    82.355413 
   76900    1602.5491   -115.12484    1.4500201   -113.67482   -33875.045    4.3750175    4.3750175    4.3750175   -33875.045   -60207.437     1607.983   -43025.681    24362.919   -57106.161    41562.619    83.741238 
   77000    3135.7092   -116.44867    2.8372556   -113.61142    -38650.13     4.362646     4.362646     4.362646    -38650.13   -58829.755    -12859.13   -44261.506   -14277.763    22668.582   -8467.8068    83.032845 
   77100    704.30867    -114.3039   0.63727328   -113.66663   -18886.025    4.3205714    4.3205714    4.3205714   -18886.025   -90326.097    62779.605   -29111.583    13293.349   -80407.845   -507.20664    80.653565 
   77200    3490.7361     -116.794    3.1584914   -113.63551    41021.674    4.2901733    4.2901733    4.2901733    41021.674    5347.6643    32628.381    85088.977    11579.893    13274.239    13251.822    78.963159 
   77300    1080.6442   -114.70513   0.97778959   -113.72734   -20449.341      4.31521      4.31521      4.31521   -20449.341   -43852.173    26449.198   -43945.047   -13099.524   -39831.238   -50928.077    80.353689 
   77400    1774.0158   -115.34023    1.6051668   -113.73507   -39261.846    4.3459006    4.3459006    4.3459006   -39261.846   -111771.29    58322.072   -64336.321   -14326.951   -34756.358   -399.73629    82.080382 
   77500    2807.1729   -116.23048     2.539989   -113.69049   -6549.9779     4.349135     4.349135     4.349135   -6549.9779     5622.956   -6489.1788   -18783.711     7060.681    16869.697   -498.55177    82.263783 
   77600    733.89884   -114.37506   0.66404709   -113.71101   -7774.2071    4.3368076    4.3368076    4.3368076   -7774.2071     3318.219    34442.384   -61083.224   -7683.8193   -71555.612   -47147.695    81.566244 
   77700    3148.9772   -116.53242    2.8492607   -113.68316    28481.407    4.3141856    4.3141856    4.3141856    28481.407    25792.043    40763.699    18888.478   -13261.767    3799.7583   -6465.4516    80.296475 
   77800    1740.8122   -115.29374    1.5751235   -113.71861    35285.815    4.3058056    4.3058056    4.3058056    35285.815    40586.318    37130.702    28140.423    21846.633    16503.379   -4558.0454    79.829473 
   77900    2078.2396   -115.61644    1.8804349     -113.736    1643.8572    4.3255649    4.3255649    4.3255649    1643.8572    6271.9113    7349.7003   -8690.0399    3101.7937   -64524.368    -28512.92    80.933533 
   78000    2175.3355   -115.69732    1.9682893   -113.72903    11478.854    4.3371806    4.3371806    4.3371806    11478.854   -5076.9452   -6793.8943    46307.401   -12185.665    44643.533    8165.2668    81.587295 
   78100     973.8753   -114.62851   0.88118283   -113.74732   -14553.489    4.3380565    4.3380565    4.3380565   -14553.489   -19259.706   -60851.341    36450.579    14574.862    40370.624   -4236.6996     81.63673 
   78200    3180.8536   -116.59774    2.8781032   -113.71964    25289.907    4.3203642    4.3203642    4.3203642    25289.907    36623.315   -5457.9735     44704.38    23214.336   -29720.777    -26939.18    80.641962 
   78300    1427.1044   -115.03614     1.291274   -113.74486    56115.887    4.2986676    4.2986676    4.2986676    56115.887    22079.851     107959.7    38308.109   -46861.387    18565.185    5231.2852    79.433113 
   78400    1716.2213   -115.31689    1.5528731   -113.76402     10102.56    4.3237424    4.3237424    4.3237424     10102.56   -25411.767    41174.388    14545.059   -26408.688    38288.151    10944.238    80.831274 
   78500    3042.6929   -116.45576    2.7530925   -113.70267   -15069.018    4.3482522    4.3482522    4.3482522   -15069.018   -65363.877    9249.5846    10907.239    12905.077   -35265.139   -12958.811    82.213697 
   78600    642.65905   -114.29681   0.58149141   -113.71532   -18550.956    4.3451184    4.3451184    4.3451184   -18550.956   -84661.483    77760.725   -48752.109   -31721.122    38041.274    4832.3932    82.036069 
   78700    2844.6726   -116.23103    2.5739195   -113.65711   -227.75336    4.3349152    4.3349152    4.3349152   -227.75336   -12160.715   -30938.254    42415.709    11936.192    4022.5169   -3676.6761    81.459515 
   78800    1310.0293   -114.88457     1.185342   -113.69922   -24382.974    4.3154132    4.3154132    4.3154132   -24382.974    -7966.224   -53188.732   -11993.967    43831.589    10439.367   -17362.767    80.365036 
   78900    2195.6078   -115.69767    1.9866321   -113.71104    12883.152    4.3009003    4.3009003    4.3009003    12883.152   -24386.202    83512.742   -20477.083    -18015.09    52764.611    12038.354    79.556952 
   79000    2322.8407   -115.83302    2.1017551   -113.73126    8600.9133    4.3148306    4.3148306    4.3148306    8600.9133    56954.101   -26474.954   -4676.4071    1608.6248   -5678.1253   -21019.209    80.332494 
   79100    1348.4592   -114.96991    1.2201143   -113.74979   -22466.521    4.3333691    4.3333691    4.3333691   -22466.521    7838.7139    -47147.37   -28090.908    47438.963     8256.667     -30512.7    81.372388 
   79200    2711.4903   -116.16476    2.4534134   -113.71134    6235.8854    4.3314635    4.3314635    4.3314635    6235.8854   -26612.935    74674.694   -29354.103   -13421.899    38103.311    6169.3563    81.265082 
   79300    1247.3756   -114.86502    1.1286516   -113.73637   -16633.702    4.3224265    4.3224265    4.3224265   -16633.702    36341.516   -60471.067   -25771.554   -50806.669   -11097.696    3941.2519    80.757499 
   79400    2532.0214   -116.01511    2.2910261   -113.72408    13677.351    4.3098067    4.3098067    4.3098067    13677.351    61695.461     6048.212    -26711.62    32262.321    797.21087   -20852.736    80.052217 
   79500    2485.9703   -115.99148    2.2493582   -113.74212    26956.467    4.3021072    4.3021072    4.3021072    26956.467    21472.098    46019.949    13377.353   -50350.218    11383.199    6774.6467    79.623943 
   79600    1228.4943   -114.89225    1.1115675   -113.78068   -3495.0356     4.310844     4.310844     4.310844   -3495.0356    61526.914    -62859.96   -9152.0605   -52404.993    5066.3458    34377.317    80.110037 
   79700    2618.8935   -116.11499    2.3696298   -113.74536    5721.3867    4.3294032    4.3294032    4.3294032    5721.3867    52252.675    9759.7936   -44848.308    26697.161   -19198.591   -4015.2467    81.149172 
   79800     1693.384   -115.27281    1.5322094    -113.7406   -23510.449    4.3368436    4.3368436    4.3368436   -23510.449   -51530.928    -79015.91    60015.492   -87325.432   -14859.191    -5437.807    81.568278 
   79900    2145.8786   -115.64608     1.941636   -113.70444   -8405.8957    4.3281781    4.3281781    4.3281781   -8405.8957    108.17532   -22675.155   -2650.7074   -6404.4266    4500.9774     36017.66    81.080306 
   80000    2282.1984   -115.75989    2.0649811    -113.6949   -8862.8996    4.3183962    4.3183962    4.3183962   -8862.8996   -9957.5999    -8186.965   -8444.1338   -15827.706    17401.139    21309.326    80.531812 
   80100    1476.7788   -115.06719    1.3362205   -113.73097   -21935.401    4.3152243    4.3152243    4.3152243   -21935.401   -111980.79   -46989.998    93164.585   -121416.11   -3952.2361   -11052.982    80.354483 
   80200    2916.1255   -116.35016    2.6385716   -113.71159    2574.3934    4.3163134    4.3163134    4.3163134    2574.3934    42661.025   -6232.8969   -28704.948     25817.23   -4960.7132    39759.134    80.415341 
   80300    1263.8719   -114.88893    1.1435779   -113.74535   -14590.658    4.3230043    4.3230043    4.3230043   -14590.658    4092.6419   -25794.248   -22070.368   -56415.958    6089.6111    42522.779    80.789886 
   80400    2420.0999   -115.91859    2.1897572   -113.72883    2546.1437     4.328279     4.328279     4.328279    2546.1437   -5379.0206   -2174.6052    15192.057   -39484.803    13220.933   -21603.868    81.085973 
   80500    2340.7807   -115.84095    2.1179875   -113.72296   -12774.814    4.3294681    4.3294681    4.3294681   -12774.814    30960.822   -49506.146   -19779.118    38751.434    4942.6402    42370.333    81.152823 
   80600    1032.1308   -114.67557   0.93389368   -113.74168    10410.392    4.3229549    4.3229549    4.3229549    10410.392    36668.327   -43089.244    37652.091   -63146.776   -2343.0423    43907.546    80.787118 
   80700    2973.5306   -116.38366     2.690513   -113.69314    13159.536    4.3258493    4.3258493    4.3258493    13159.536   -7274.1005    33475.365    13277.344   -5935.5676    15684.953   -15605.836    80.949496 
   80800    1190.7232   -114.80407    1.0773914   -113.72667   -8818.7021    4.3285428    4.3285428    4.3285428   -8818.7021    47622.902   -44861.571   -29217.437    14467.956   -2363.6337    34984.316    81.100802 
   80900    2470.8524   -115.95109    2.2356792   -113.71541    7332.7221    4.3329422    4.3329422    4.3329422    7332.7221    4071.3793     21134.76   -3207.9733   -34617.704   -6482.7403    21234.062    81.348336 
   81000    2079.5487   -115.59572    1.8816193    -113.7141   -1715.9384    4.3367722    4.3367722    4.3367722   -1715.9384    21511.666    19642.377   -46301.858    19643.414   -21147.977   -10647.163     81.56425 
   81100    1410.4592   -114.99133    1.2762132   -113.71511    -17137.11    4.3378865    4.3378865    4.3378865    -17137.11    28856.581   -64197.522   -16070.388    19702.646    5251.5519    29053.241    81.627133 
   81200    3120.5548   -116.49618    2.8235436   -113.67264    4606.9421    4.3369447    4.3369447    4.3369447    4606.9421   -32261.951    60023.875   -13941.097   -6620.9495   -535.25942   -7251.9787     81.57398 
   81300    1057.1441   -114.65338   0.95652619   -113.69686   -26917.291    4.3414698    4.3414698    4.3414698   -26917.291    11543.359   -81700.077   -10595.156    16683.877   -14393.963   -4955.8088    81.829587 
   81400    3081.7719   -116.43779     2.788452   -113.64934   -14666.146    4.3426415    4.3426415    4.3426415   -14666.146    18176.209   -30553.836   -31620.813   -7993.8293    8529.3567    12026.238    81.895857 
   81500    1351.9426   -114.90598    1.2232661   -113.68271   -40397.197    4.3294233    4.3294233    4.3294233   -40397.197   -70485.777   -21622.518   -29083.295   -17881.154   -12833.483   -8173.2462    81.150302 
   81600    2705.5668   -116.13392    2.4480537   -113.68586      17157.8    4.3074863    4.3074863    4.3074863      17157.8     46561.43   -33301.615    38213.586    25731.379   -4629.0073    4439.8061    79.922991 
   81700    2156.4953   -115.67481    1.9512422   -113.72357   -13518.536    4.3177765    4.3177765    4.3177765   -13518.536   -49952.772    21056.931   -11659.769   -18622.291     27404.43    7526.7313    80.497145 
   81800    1287.9297   -114.91437    1.1653458   -113.74902   -46337.685    4.3297934    4.3297934    4.3297934   -46337.685    -106332.7   -15914.356   -16766.003   -34306.232    750.98176    2281.8008    81.171116 
   81900    3408.8667    -116.7993    3.0844142   -113.71489    179.00382    4.3343071    4.3343071    4.3343071    179.00382   -10700.413   -19719.539    30956.963    19627.287   -10271.351   -9281.4853     81.42524 
   82000    924.50571   -114.57653    0.8365122   -113.74002   -26386.279    4.3511641    4.3511641    4.3511641   -26386.279   -124280.24    19199.164    25922.237   -10065.317    25216.224    11963.709    82.378973 
   82100    2159.8214   -115.63636    1.9542518    -113.6821     -3385.75    4.3512495    4.3512495    4.3512495     -3385.75   -56743.645   -20354.472    66940.866   -31423.475   -4548.0295    15215.018    82.383824 
   82200    2272.1057   -115.73137     2.055849   -113.67552   -16131.638     4.333083     4.333083     4.333083   -16131.638   -35006.907   -70630.737    57242.731    55469.616    4144.4936    9753.4115    81.356269 
   82300    1188.2526   -114.78407    1.0751559   -113.70891   -8153.7381     4.315726     4.315726     4.315726   -8153.7381   -49019.461    -32579.27    57137.516   -18142.891    37027.559   -11147.316    80.382517 
   82400    2691.7616     -116.141    2.4355625   -113.70544    7372.3749     4.314055     4.314055     4.314055    7372.3749    31311.169   -14765.128    5571.0841   -13908.932    17400.899    974.30859    80.289183 
   82500     1332.304   -114.95259    1.2054967   -113.74709   -15073.036    4.3223297    4.3223297    4.3223297   -15073.036   -52916.294   -63925.235    71622.421    105058.99   -28100.367    5628.0653    80.752069 
   82600    2220.0722   -115.74143     2.008768   -113.73266    7060.1417    4.3313445    4.3313445    4.3313445    7060.1417   -9190.8094    2499.9217    27871.313    -9852.062    35740.043   -8077.7844    81.258385 
   82700    2631.9643   -116.10012    2.3814566   -113.71866   -11820.175    4.3348109    4.3348109    4.3348109   -11820.175    -13583.02   -41536.889    19659.383    37215.442   -10888.851    -12022.15    81.453634 
   82800    1284.8708   -114.89621    1.1625781   -113.73363   -25856.094    4.3272348    4.3272348    4.3272348   -25856.094    -66065.68   -63722.566    52219.965    82894.995    -24284.03   -4683.1274    81.027303 
   82900    3319.1364   -116.68743    3.0032244   -113.68421    20504.751    4.3264508    4.3264508    4.3264508    20504.751    35266.233    20649.233    5598.7861   -23723.929     3431.661   -5223.7144     80.98327 
   83000    1016.1603    -114.6353   0.91944322   -113.71585    -34508.76    4.3398885    4.3398885    4.3398885    -34508.76   -21616.858   -110455.99    28546.565    95741.635   -164.84251   -16955.721    81.740204 
   83100     2427.953   -115.88048    2.1968629   -113.68362   -1468.3903    4.3335467    4.3335467    4.3335467   -1468.3903    20603.463    3489.6083   -28498.242   -5762.3289   -16153.033   -16617.117    81.382393 
   83200    2023.3056   -115.51849    1.8307294   -113.68776   -9807.4524    4.3288682    4.3288682    4.3288682   -9807.4524    12366.688   -66239.272    24450.226    46982.211     5077.332     14013.85    81.119092 
   83300    681.41657   -114.34135   0.61656003   -113.72479   -22134.127     4.325654     4.325654     4.325654   -22134.127    -31729.24   -105159.28    70486.141    89499.379    4986.7001    18561.524    80.938533 
   83400    3314.3444    -116.6808    2.9988885   -113.68191    31941.224    4.3216839    4.3216839    4.3216839    31941.224    74948.197    32840.778   -11965.303   -40060.722    11474.791   -2349.6936    80.715884 
   83500    1017.9648   -114.64127   0.92107599   -113.72019    -50286.15    4.3390675    4.3390675    4.3390675    -50286.15   -88347.542   -93951.088    31440.179    123515.21    3071.7665    5469.9643    81.693823 
   83600    2356.9052   -115.82759    2.1325774   -113.69501   -12859.781    4.3310614    4.3310614    4.3310614   -12859.781   -13702.022   -15544.737   -9332.5857    -29912.18    4958.5317    14268.309    81.242453 
   83700    2125.2814   -115.61594    1.9229993   -113.69294    20223.881    4.3141267    4.3141267    4.3141267    20223.881   -4494.4849    25540.486    39625.643    74332.297    1348.8077   -2617.7036    80.293184 
   83800    1350.3822   -114.94948    1.2218542   -113.72762    3481.3239    4.3223775    4.3223775    4.3223775    3481.3239    8969.4429    -37645.88    39120.409    93606.081    2136.7982     9684.788    80.754751 
   83900     2563.416    -116.0276    2.3194327   -113.70816    15473.095     4.335642     4.335642     4.335642    15473.095    94625.042   -6178.3965   -42027.361   -35637.756   -12807.498    29831.538    81.500494 
   84000    953.69554   -114.59488   0.86292377   -113.73196   -8870.4551    4.3411374    4.3411374    4.3411374   -8870.4551   -53806.064     -36606.2    63800.898    127375.91   -8063.0841   -984.17454     81.81079 
   84100    3273.1597   -116.63618    2.9616237   -113.67455    5388.2112    4.3435489    4.3435489    4.3435489    5388.2112    9196.9117    41757.599   -34789.877   -30510.773   -5033.5495   -4876.6684    81.947205 
   84200    1236.9725   -114.80915    1.1192387   -113.68991   -18946.363    4.3418597    4.3418597    4.3418597   -18946.363   -52645.972   -49234.652    45041.534    131947.58   -2372.5869    8691.2394    81.851635 
   84300    2024.3969   -115.51209    1.8317168   -113.68038    4140.5122    4.3272769    4.3272769    4.3272769    4140.5122    6373.6954   -9087.8929    15135.734    25868.756    2317.0684    25505.602    81.029669 
   84400    2042.2954   -115.54358    1.8479118   -113.69567    11477.778     4.315912     4.315912     4.315912    11477.778    28023.079    2789.0871    3621.1674   -412.54055    13587.513     3250.128    80.392909 
   84500    1273.4722   -114.89035    1.1522644   -113.73809   -1978.0953    4.3235877    4.3235877    4.3235877   -1978.0953   -18854.638   -35691.019    48611.372    117001.72    12533.782   -9485.0487    80.822598 
   84600     2438.406   -115.92327     2.206321   -113.71695   -6112.3122    4.3426985    4.3426985    4.3426985   -6112.3122    71790.304   -31505.563   -58621.678   -14819.671   -22163.198    46686.141    81.899081 
   84700    1340.7573   -114.92746    1.2131454   -113.71432   -6921.7884    4.3454125    4.3454125    4.3454125   -6921.7884    -47538.64   -11149.536    37922.811    57862.688    1276.7309   -1825.2857    82.052731 
   84800     2383.192   -115.84569    2.1563622   -113.68933   -34377.304    4.3384967    4.3384967    4.3384967   -34377.304   -32703.366   -70260.079   -168.46796    36091.145    5614.4005    1198.8128    81.661587 
   84900    1766.3713   -115.28964    1.5982499   -113.69139   -34554.585    4.3363248    4.3363248    4.3363248   -34554.585    4673.0054   -13142.771    -95193.99   -8118.1748   -24574.735    65058.208    81.539006 
   85000    1989.7887   -115.50198    1.8004026   -113.70158   -11509.966    4.3213466    4.3213466    4.3213466   -11509.966   -23340.997   -4315.7922   -6873.1077    45348.427   -13610.088   -6279.8033    80.696985 
   85100     2597.918   -116.06712    2.3506508   -113.71646    11971.493    4.3108206    4.3108206    4.3108206    11971.493    46948.581     10659.68   -21693.781    12005.393    10487.395   -15665.049    80.108731 
   85200    1690.2938   -115.28577    1.5294134   -113.75636   -47220.033    4.3202454    4.3202454    4.3202454   -47220.033    11170.934   -48130.514   -104700.52   -7842.6299   -14241.993    27163.401    80.635309 
   85300    2483.6555   -115.99953    2.2472637   -113.75226    5597.1004    4.3188117    4.3188117    4.3188117    5597.1004   -9708.7349    15209.109    11290.927    22213.542    -14626.53    9382.3956    80.555057 
   85400    2028.4871   -115.58827    1.8354177   -113.75286    -23821.37    4.3347977    4.3347977    4.3347977    -23821.37   -4499.8174    27743.454   -94707.747   -9830.3489    33650.587   -11791.593     81.45289 
   85500    1442.1859   -115.03579    1.3049201   -113.73087   -44703.463     4.351215     4.351215     4.351215   -44703.463   -618.41667   -44431.982   -89059.991   -689.39127   -2759.7741    16926.863    82.381864 
   85600    3299.3305   -116.66095    2.9853036   -113.67565   -6423.9903    4.3416256    4.3416256    4.3416256   -6423.9903   -40539.339    33072.199   -11804.831    26615.938   -4678.6841    923.17457    81.838395 
   85700    1075.8044   -114.66753   0.97341042   -113.69412   -18305.056    4.3265474    4.3265474    4.3265474   -18305.056    -5604.051    33239.905   -82551.022    3752.6408     38412.21    2998.0186    80.988697 
   85800    2996.9048   -116.39218    2.7116624   -113.68052     3229.916    4.3265999    4.3265999    4.3265999     3229.916    12864.211   -18291.874    15117.412    2254.9056   -19334.036   -7577.2925    80.991644 
   85900    1528.7563   -115.10461    1.3832508   -113.72136   -6884.0659    4.3326141    4.3326141    4.3326141   -6884.0659    -54360.36    68755.141   -35046.978    857.47018    34599.907   -4725.2534    81.329862 
   86000    1581.4408   -115.16008    1.4309209   -113.72916   -4860.8352    4.3385041    4.3385041    4.3385041   -4860.8352   -49895.103    58307.423   -22994.826    11220.872    38042.538    17653.569    81.662003 
   86100    3109.5762   -116.50758    2.8136099   -113.69397   -25278.663    4.3512611    4.3512611    4.3512611   -25278.663   -44666.588   -27578.862   -3590.5412    9610.6607   -6876.6963   -12192.744    82.384487 
   86200    810.43588   -114.44812   0.73329941   -113.71482   -23494.251    4.3488756    4.3488756    4.3488756   -23494.251   -79066.288    63117.152   -54533.618   -4692.9484    57365.126   -5825.2047     82.24906 
   86300    2970.4569    -116.3577    2.6877318   -113.66997    3667.1078    4.3283022    4.3283022    4.3283022    3667.1078   -53759.112    33856.824    30903.611   -13093.692    21750.688    3217.1732    81.087278 
   86400    1806.2695   -115.33222    1.6343506   -113.69787    -5222.682     4.318135     4.318135     4.318135    -5222.682    31271.781   -5012.0846   -41927.742   -2758.8332   -1376.6588    -43988.62    80.517196 
   86500    1979.9863   -115.51089    1.7915332   -113.71936   -208.62235    4.3230678    4.3230678    4.3230678   -208.62235   -48523.764     67348.63   -19450.733   -8596.1777    39141.598    4560.6449    80.793445 
   86600    2366.7426   -115.85943    2.1414784   -113.71795   -19799.994    4.3427071    4.3427071    4.3427071   -19799.994   -5763.4053    -38056.61   -15579.966   -11184.132    4477.8086   -34564.728    81.899569 
   86700    984.14761   -114.62747   0.89047744     -113.737   -18936.271    4.3434299    4.3434299    4.3434299   -18936.271    50350.617   -17040.749   -90118.682   -8741.6244   -13824.451   -46439.866    81.940471 
   86800    2783.4293   -116.22779    2.5185054   -113.70928    13814.156    4.3233658    4.3233658    4.3233658    13814.156   -25524.033    55461.294    11505.205    11171.544   -945.68764    34512.424    80.810158 
   86900     1453.839   -115.05046    1.3154641   -113.73499    12530.924    4.3079339    4.3079339    4.3079339    12530.924    50730.498   -23500.598    10362.871    14847.947    8515.9594    -100701.5    79.947907 
   87000    1829.6845   -115.40405     1.655537   -113.74852    26746.762    4.3135157    4.3135157    4.3135157    26746.762    92363.627     19188.41   -31311.751   -2081.2535   -5835.3575   -15369.725    80.259073 
   87100    2500.0385   -116.00328    2.2620873   -113.74119    1231.7285    4.3330311    4.3330311    4.3330311    1231.7285    11276.646   -5614.3228   -1967.1379   -17495.315   -28547.844   -1693.7121    81.353345 
   87200    1063.1502   -114.71619   0.96196068   -113.75423   -20741.363    4.3375451    4.3375451    4.3375451   -20741.363    25446.509   -65329.472   -22341.127     34584.74    6456.3666   -113000.61    81.607866 
   87300    2687.2988   -116.14762    2.4315244    -113.7161     32391.39    4.3237018    4.3237018    4.3237018     32391.39    12877.214    20301.557    63995.399    4542.4669   -1790.9935    34158.897    80.829001 
   87400    1496.4712   -115.09094    1.3540386    -113.7369     75.80316    4.3186917    4.3186917    4.3186917     75.80316    84772.816   -46269.315   -38276.091   -9299.0483    134.92894   -98418.992     80.54834 
   87500    2059.4766   -115.60708    1.8634577   -113.74362   -18121.955    4.3264607    4.3264607    4.3264607   -18121.955    25564.783   -38841.457   -41089.191    12685.053   -9207.0071   -55021.606    80.983825 
   87600     2776.946   -116.24136    2.5126391   -113.72872    1802.2688    4.3331821    4.3331821    4.3331821    1802.2688    26801.737   -57938.342    36543.411    25066.066   -79.037507   -2260.0877    81.361853 
   87700    766.22607   -114.44709   0.69329745   -113.75379   -20490.483    4.3400924    4.3400924    4.3400924   -20490.483    46152.705   -79312.237   -28311.916    1291.2536   -12262.715   -103575.43    81.751727 
   87800    3023.5112   -116.43364    2.7357365    -113.6979   -5431.4194    4.3384881    4.3384881    4.3384881   -5431.4194    6002.7196   -25290.319    2993.3409    3495.3975   -14678.365    45988.373      81.6611 
   87900    1888.8324   -115.41185    1.7090552    -113.7028   -10535.045    4.3376275    4.3376275    4.3376275   -10535.045    93749.744    -91487.74   -33867.138    10719.879    5407.6841   -96145.239    81.612513 
   88000    2545.8877   -115.99265    2.3035727   -113.68908   -31152.642    4.3420578    4.3420578    4.3420578   -31152.642   -5494.5788   -52298.993   -35664.354   -6092.6585    7221.7165   -14604.449     81.86284 
   88100    1828.8495    -115.3566    1.6547815   -113.70182   -19689.925    4.3335998    4.3335998    4.3335998   -19689.925    23361.576   -33017.427   -49413.925    9204.1158   -3244.8536    13942.859    81.385382 
   88200    1489.6333   -115.06963    1.3478515   -113.72178    5380.5388    4.3246589    4.3246589    4.3246589    5380.5388    104346.88   -33491.118   -54714.149    3167.2906    7960.4227   -88260.217    80.882686 
   88300    2666.5553   -116.12409    2.4127553   -113.71134   -9041.2178    4.3380941    4.3380941    4.3380941   -9041.2178    11442.593    6210.6718   -44776.919   -19792.472    12086.666    36816.169    81.638855 
   88400    1143.5166   -114.75838    1.0346778   -113.72371    5552.1645    4.3479234    4.3479234    4.3479234    5552.1645    91547.845   -58486.819   -16404.532    8322.3751    -14805.83   -39832.482    82.195047 
   88500    2382.0413   -115.83593     2.155321   -113.68061    9950.4926    4.3527533    4.3527533    4.3527533    9950.4926    39679.544    21412.934       -31241    1993.2364    1590.1481    -24589.76    82.469269 
   88600    1839.2683    -115.3574    1.6642086   -113.69319    3675.8372    4.3378296    4.3378296    4.3378296    3675.8372   -32418.081    82856.804   -39411.212    -36740.35    25224.697   -353.71149    81.623924 
   88700    1188.2428   -114.78704    1.0751471   -113.71189    33799.489    4.3184871    4.3184871    4.3184871    33799.489    130977.76    20097.768   -49677.056   -22314.851    526.60832   -72877.564    80.536895 
   88800    3282.4131   -116.66702    2.9699963   -113.69702    1768.2779     4.334772     4.334772     4.334772    1768.2779   -6205.5062    17648.738   -6138.3982    14036.498    11844.117    27494.774     81.45144 
   88900    1169.7013   -114.78422    1.0583703   -113.72585   -25199.122     4.343344     4.343344     4.343344   -25199.122   -18216.035   -67751.381    10370.051   -43926.062    10834.348    -49712.37    81.935608 
   89000    1529.4965   -115.10921    1.3839206   -113.72529    22262.907    4.3393807    4.3393807    4.3393807    22262.907    70906.724   -9858.8992    5740.8971   -14796.295    18409.031   -46115.351    81.711515 
   89100    2737.8559   -116.17891    2.4772695   -113.70164    7772.1991    4.3447773    4.3447773    4.3447773    7772.1991    13841.104   -2826.3093    12301.802    22064.029   -7536.4638    22059.134    82.016753 
   89200    1051.8701   -114.67231   0.95175413   -113.72056    9030.4497    4.3363707    4.3363707    4.3363707    9030.4497    67527.597   -54826.855    14390.607   -40102.532   -19252.143    -78171.64    81.541594 
   89300    3136.8596   -116.50986    2.8382964   -113.67156    11118.204    4.3454802    4.3454802    4.3454802    11118.204   -15155.262    78806.231   -30296.357    14769.239    6696.0161    17748.149    82.056561 
   89400    1189.6188   -114.77472    1.0763921   -113.69833   -46472.695    4.3471532    4.3471532    4.3471532   -46472.695    36946.958   -83153.249   -93211.795   -11495.959   -28675.936   -67301.602    82.151377 
   89500    1483.2903   -115.03422    1.3421122   -113.69211    36344.946    4.3229056    4.3229056    4.3229056    36344.946     66012.74    76017.186   -32995.089    -9850.343    6996.1276   -24199.815    80.784353 
   89600    2668.8048   -116.11538    2.4147906   -113.70059   -11348.619    4.3373216    4.3373216    4.3373216   -11348.619   -46129.426    36258.763   -24175.194    15832.532    38088.285    9323.2094    81.595248 
   89700    1236.7924   -114.86532    1.1190757   -113.74624   -31870.209    4.3309487    4.3309487    4.3309487   -31870.209    25868.106   -62624.742   -58853.991    -9139.482    7557.3799   -92051.005    81.236108 
   89800    2501.8994   -115.99286    2.2637711   -113.72909    37344.535    4.3202323    4.3202323    4.3202323    37344.535    37235.707    22239.584    52558.313   -13619.266   -11643.487   -21047.958    80.634576 
   89900    1866.7031   -115.42625    1.6890322   -113.73721   -40904.752    4.3510184    4.3510184    4.3510184   -40904.752   -35752.901   -12021.778   -74939.576    17864.574    62355.586    -15019.01    82.370701 
   90000    1650.0035   -115.19726    1.4929578    -113.7043   -33409.839    4.3582515    4.3582515    4.3582515   -33409.839    2072.3265   -74594.417   -27707.428   -15807.013     3038.295   -64984.648    82.782183 
   90100    2771.8067   -116.16898    2.5079889   -113.66099   -30821.265    4.3489478    4.3489478    4.3489478   -30821.265   -59557.133    8086.2666   -40992.928   -9.8099023    29805.142    20448.684    82.253159 
   90200    1013.5857    -114.6205   0.91711367   -113.70338   -70216.462    4.3394657    4.3394657    4.3394657   -70216.462   -39413.035   -48669.436   -122566.91    21721.965    70855.475   -47283.258    81.716318 
   90300    2445.8384   -115.92275    2.2130459    -113.7097     1712.894    4.3125663    4.3125663    4.3125663     1712.894     21499.03   -27654.442    11294.095    4898.3206   -16751.929   -54721.311    80.206093 
   90400    2261.6286   -115.78691    2.0463691   -113.74054    18647.772    4.3204027    4.3204027    4.3204027    18647.772   -33404.157    76092.659    13254.813   -4228.6956    29355.629    22806.404    80.644119 
   90500    1174.5265   -114.81055    1.0627363   -113.74781    -28642.88    4.3542428    4.3542428    4.3542428    -28642.88   -26462.486    5503.1362   -64969.291    7854.4024    40437.745   -77930.407    82.553964 
   90600    3057.8001    -116.4287    2.7667618   -113.66194   -18602.215    4.3685961    4.3685961    4.3685961   -18602.215   -15108.592   -46004.892    5306.8399   -10498.089   -14589.788   -7058.0527    83.373047 
   90700    1361.6246    -114.8982    1.2320266   -113.66618   -43368.748    4.3588659    4.3588659    4.3588659   -43368.748   -47475.758    -12266.32   -70364.168    4648.4005    46508.661    6639.4254    82.817199 
   90800    2906.9677   -116.27825    2.6302855   -113.64796    9748.2298    4.3267704    4.3267704    4.3267704    9748.2298    8324.4058    9062.0128    11858.271   -2510.0199   -4756.5662   -57274.061    81.001218 
   90900    1832.3257   -115.34139    1.6579268   -113.68347    4210.9369    4.3146325    4.3146325    4.3146325    4210.9369    3699.2278    31309.256   -22375.673   -7474.4177     11866.35    31022.988    80.321427 
   91000    1232.9083   -114.86078    1.1155613   -113.74522     17772.58       4.3259       4.3259       4.3259     17772.58     892.9074    81529.315   -29104.482   -3975.9714    11617.368    16257.528    80.952346 
   91100    3107.4039   -116.52132    2.8116444   -113.70968   -27349.096    4.3612777    4.3612777    4.3612777   -27349.096   -26523.102   -39294.975   -16229.209    4126.4149    6824.2528   -10138.054    82.954741 
   91200    1042.3726   -114.66065   0.94316066   -113.71749   -43127.135     4.361128     4.361128     4.361128   -43127.135   -87929.895   -24045.293   -17406.218     4632.691    39168.241    5800.3725    82.946202 
   91300    3268.4955   -116.59577    2.9574034   -113.63837    31097.015    4.3302926    4.3302926    4.3302926    31097.015    50855.805     13528.19    28907.051   -4765.0319   -19673.514    25830.795    81.199194 
   91400    1286.2208   -114.85255    1.1637996   -113.68875   -25643.392     4.327108     4.327108     4.327108   -25643.392   -14320.918   -55083.455    -7525.804   -13704.649    21991.362   -27391.533    81.020178 
   91500    1752.8976   -115.31716    1.5860586   -113.73111   -16442.187    4.3232554    4.3232554    4.3232554   -16442.187   -10652.781   -48771.865    10098.085   -5974.8651    34139.036   -15776.312    80.803966 
   91600    2861.6426    -116.3188    2.5892744   -113.72952    37290.007    4.3276277    4.3276277    4.3276277    37290.007    84201.637    16506.561    11161.823    8524.9757   -21637.627    13884.332    81.049373 
   91700    1519.8956   -115.13774    1.3752334    -113.7625   -23222.252    4.3411475    4.3411475    4.3411475   -23222.252   -48382.062    11824.159   -33108.852   -438.64115   -3976.3015   -7907.1221    81.811361 
   91800    2536.7085   -116.03065    2.2952672   -113.73538    19691.828    4.3286608    4.3286608    4.3286608    19691.828    52541.899   -23479.341    30012.926   -8642.9733      22208.6    5066.7475    81.107436 
   91900     1968.224   -115.52723    1.7808904   -113.74634    7467.3368    4.3313079    4.3313079    4.3313079    7467.3368    24793.621   -10896.691    8505.0801    13829.259   -41123.911    48563.129    81.256322 
   92000    1491.5594   -115.09372    1.3495943   -113.74413    -36153.46      4.34352      4.34352      4.34352    -36153.46   -99543.445    39073.727   -47990.662    11299.991   -29831.549   -10163.384    81.945569 
   92100    2911.0742   -116.34362    2.6340011   -113.70962    23848.523    4.3223406    4.3223406    4.3223406    23848.523    69516.771    2457.5242   -428.72558   -18015.487    28090.719    1042.3628     80.75268 
   92200    857.03624   -114.52064    0.7754644   -113.74517   -7410.2515    4.3209793    4.3209793    4.3209793   -7410.2515    11711.043    34236.707   -68178.505     14555.91   -67973.385     54817.71     80.67641 
   92300    1981.4062   -115.54608    1.7928179   -113.75327   -46140.816    4.3363021    4.3363021    4.3363021   -46140.816   -69565.708   -1846.2458   -67010.495    22086.116   -37202.258    2144.7991    81.537724 
   92400    2616.7909   -116.11191    2.3677274   -113.74418    18862.927    4.3191928    4.3191928    4.3191928    18862.927     11024.27     29896.19    15668.319    5499.3172    26307.227    5891.4217    80.576382 
   92500    1146.0865   -114.81574    1.0370032   -113.77873   -13735.501    4.3163838    4.3163838    4.3163838   -13735.501    11442.566    47325.104   -99974.175     4195.857    -56065.39    57824.771    80.419278 
   92600    2581.8192   -116.08479    2.3360843   -113.74871   -3560.6488    4.3350427    4.3350427    4.3350427   -3560.6488   -5809.1796    11866.413    -16739.18   -2102.6861    -5416.373   -95.204663    81.466705 
   92700    1838.6436   -115.38674    1.6636434    -113.7231   -18335.363    4.3487701    4.3487701    4.3487701   -18335.363   -60931.407    34013.978   -28088.661     7541.146    43045.479   -6988.3663    82.243074 
   92800    1857.9969   -115.37492    1.6811547   -113.69377    2474.7241    4.3528789    4.3528789    4.3528789    2474.7241   -7046.4064    38570.084   -24099.505   -3347.7103   -28676.878    38525.193    82.476414 
   92900    2713.4182   -116.12297    2.4551578   -113.66781   -39909.463    4.3567734    4.3567734    4.3567734   -39909.463   -20228.677    -50990.29   -48509.422   -6985.7276    14633.741    -49534.74     82.69798 
   93000    955.96728   -114.56245   0.86497928   -113.69747   -28000.075    4.3383326    4.3383326    4.3383326   -28000.075   -13977.834    10899.013   -80921.403   -1818.1123    35160.196   -1170.5971    81.652322 
   93100    3206.3604   -116.55534    2.9011822   -113.65416     55217.69    4.3162396    4.3162396    4.3162396     55217.69    57750.782    94849.466    13052.822     12427.06   -10113.135    12052.446     80.41122 
   93200    640.86966   -114.30869   0.57987233   -113.72882    11963.479    4.3392787    4.3392787    4.3392787    11963.479    26787.274    28745.302   -19642.139    5126.7483   -902.93992   -70934.634    81.705752 
   93300    2974.2732   -116.34277    2.6911849   -113.65158   -7868.3953    4.3694083    4.3694083    4.3694083   -7868.3953   -22198.685    14340.717   -15747.219   -8880.4683   -9428.4694    21536.491    83.419558 
   93400    1049.3401   -114.59766   0.94946497    -113.6482    2495.8871    4.3681177    4.3681177    4.3681177    2495.8871    44457.196    -4966.361   -32003.174    33786.532    15187.853    -29540.92    83.345661 
   93500    2393.8081   -115.78327    2.1659678    -113.6173    12154.359    4.3562556    4.3562556    4.3562556    12154.359   -354.43308   -8422.3697     45239.88    5055.0874    5250.5741   -7702.0482    82.668499 
   93600    2052.2812   -115.50246    1.8569471   -113.64551    20471.868    4.3283441    4.3283441    4.3283441    20471.868    8908.0243    34147.304    18360.277   -21754.732   -11655.904   -4022.5306    81.089632 
   93700    1134.2495   -114.71666    1.0262928   -113.69037     36028.09    4.3185144    4.3185144    4.3185144     36028.09    81266.788   -734.53084    27552.012    4626.7701   -4624.7892   -55656.574    80.538424 
   93800    2922.8308   -116.31999    2.6446388   -113.67535    16592.236    4.3395782    4.3395782    4.3395782    16592.236    16344.035   -7311.0332    40743.706   -3527.9785   -3212.9142    21344.495     81.72267 
   93900    754.14791   -114.39897   0.68236888    -113.7166    18035.986    4.3520504    4.3520504    4.3520504    18035.986    44315.708   -30563.118    40355.369    -544.5975   -16569.211   -2555.1991    82.429326 
   94000    2939.7916   -116.32698    2.6599852   -113.66699    11951.895    4.3668106    4.3668106    4.3668106    11951.895    20971.312     9555.559    5328.8137    15450.155    2674.4019   -27498.891    83.270864 
   94100    1145.8242   -114.73553    1.0367658   -113.69877   -53155.827    4.3603664    4.3603664    4.3603664   -53155.827   -20124.589   -108727.32   -30615.571   -21099.758   -12288.483    62142.767    82.902752 
   94200    2100.0578   -115.60388    1.9001764   -113.70371    5921.9769    4.3119836    4.3119836    4.3119836    5921.9769    27309.215   -44726.961    35183.677   -12230.654    -12460.79    15553.906    80.173586 
   94300    2651.7776   -116.08454    2.3993841   -113.68515    57962.963    4.2879236    4.2879236    4.2879236    57962.963    57802.871    34177.679    81908.341    14811.169    21601.729   -9107.0557    78.839002 
   94400     978.2011   -114.65256   0.88509692   -113.76747   -37993.713    4.3216148    4.3216148    4.3216148   -37993.713    9799.1755   -78600.819   -45179.496     -26675.7    15346.424    80343.083     80.71201 
   94500    3056.2321    -116.4703     2.765343   -113.70496    -20983.83    4.3613945    4.3613945    4.3613945    -20983.83    7825.0812   -32500.798   -38275.772    -8249.677   -2523.1009   -11000.593    82.961406 
   94600    994.66791    -114.5851   0.89999643   -113.68511   -41095.451    4.3707144    4.3707144    4.3707144   -41095.451   -41378.545   -12113.618   -69794.188    15026.251    48177.777   -6187.3009    83.494389 
   94700    2762.7405   -116.13648    2.4997857   -113.63669    7213.2356     4.346705     4.346705     4.346705    7213.2356   -2827.0596    20154.771    4311.9959   -9052.1657   -2534.5085    36671.223    82.125969 
   94800    1935.0269   -115.43049     1.750853   -113.67964   -23681.234    4.3183652    4.3183652    4.3183652   -23681.234   -41833.458    8095.6937   -37305.936   -2683.0586   -23273.718   -34856.048    80.530076 
   94900    1425.1821   -115.01912    1.2895347   -113.72959    16947.066    4.2917923    4.2917923    4.2917923    16947.066    285.16663    64153.202   -13597.171    21947.438    45145.266   -21551.639    79.052588 
   95000    3100.5685   -116.54691    2.8054595   -113.74145    4014.6762    4.3212732    4.3212732    4.3212732    4014.6762   -36306.729    18436.987     29913.77   -10156.404   -17605.884    25497.432    80.692872 
   95100    918.83351   -114.56203   0.83137987   -113.73065   -77623.272    4.3499547    4.3499547    4.3499547   -77623.272   -107894.47   -36575.215   -88400.135   -16480.427   -24966.927   -26049.167    82.310301 
   95200    3323.0759   -116.67046    3.0067889   -113.66367    2918.1805    4.3374076    4.3374076    4.3374076    2918.1805   -6725.2199   -7484.7081     22964.47    6542.7703    37383.657   -256.93363    81.600106 
   95300    776.31554   -114.39783   0.70242662   -113.69541    -72632.05     4.349989     4.349989     4.349989    -72632.05   -97332.194   -65583.507    -54980.45   -27555.144   -63355.337    16869.788    82.312249 
   95400     1742.313   -115.29245    1.5764814   -113.71597   -21663.917    4.3226757    4.3226757    4.3226757   -21663.917   -56203.384    17800.236   -26588.601   -23389.232   -50289.228    1591.0592    80.771465 
   95500    2849.1799   -116.27013    2.5779978   -113.69213    29241.116    4.3032358    4.3032358    4.3032358    29241.116    15864.434    32236.048    39622.865    19009.398    48433.321   -4361.1682    79.686623 
   95600    1192.8171   -114.81771     1.079286   -113.73843    -37303.89    4.3294848    4.3294848    4.3294848    -37303.89   -50610.612   -34728.904   -26572.154   -12463.626    -44793.23    4944.3811    81.153764 
   95700    3096.7421   -116.50798    2.8019973   -113.70598    2350.4497    4.3383179    4.3383179    4.3383179    2350.4497   -26822.275     17083.04    16790.585   -8027.0234    2888.3055    8969.6099    81.651491 
   95800    973.68412   -114.61061   0.88100986    -113.7296   -40110.354    4.3533288    4.3533288    4.3533288   -40110.354   -58613.187    1415.1636    -63133.04    21080.719    48029.534   -32649.743    82.501989 
   95900    2950.3449   -116.33695     2.669534   -113.66742   -29120.383    4.3533438    4.3533438    4.3533438   -29120.383   -28247.154   -30981.199   -28132.795    1988.1571   -29769.783    15135.731    82.502839 
   96000    1951.1842   -115.43523    1.7654725   -113.66976   -20778.369    4.3417074    4.3417074    4.3417074   -20778.369   -10274.908    27534.133   -79594.332    14601.824    66944.046   -9483.2825    81.843024 
   96100    1660.4312   -115.18962    1.5023931   -113.68723   -15638.612    4.3411762    4.3411762    4.3411762   -15638.612    25288.891   -28706.171   -43498.557     20189.18    23177.052   -25456.961    81.812984 
   96200    3354.1374   -116.70254     3.034894   -113.66765    6601.1372    4.3362904    4.3362904    4.3362904    6601.1372   -6612.0926    47996.838   -21581.334   -8648.9611   -1246.1593     18933.91    81.537065 
   96300    1212.7573    -114.8297    1.0973283   -113.73238   -22481.901    4.3306521    4.3306521    4.3306521   -22481.901    -54210.51    30131.871   -43367.064    13579.329    53372.432    -23657.48    81.219421 
   96400    2867.4953   -116.31149      2.59457   -113.71692    4193.5486    4.3229897    4.3229897    4.3229897    4193.5486   -13810.509    3268.6646     23122.49    14764.244   -9638.9227   -11846.401    80.789071 
   96500    1800.8844   -115.36542    1.6294781   -113.73594   -34108.741    4.3341551    4.3341551    4.3341551   -34108.741   -86590.197    31814.494   -47550.521   -14184.497    37063.365    1663.8831    81.416671 
   96600    1409.4022   -115.02259    1.2752567   -113.74733   -34457.089    4.3407099    4.3407099    4.3407099   -34457.089   -100104.39    26223.227   -29490.102    -25877.64    4059.5606    16603.694    81.786626 
   96700    3271.4625   -116.65337     2.960088   -113.69329   -2237.0101    4.3388456    4.3388456    4.3388456   -2237.0101   -25005.621    2065.8253    16228.765    3857.9963    9049.7907     -3905.09    81.681292 
   96800    1173.0572   -114.77338    1.0614068   -113.71197    -33752.16    4.3427597    4.3427597    4.3427597    -33752.16   -76597.081    21560.579   -46219.977   -8063.2383     75477.33    4567.4804    81.902546 
   96900    2666.1232   -116.09962    2.4123643   -113.68725   -15305.187    4.3374718    4.3374718    4.3374718   -15305.187   -36836.253   -7361.2885    -1718.019   -29345.228   -59897.098    14482.209    81.603725 
   97000    1626.1506   -115.17973    1.4713752   -113.70835   -19270.801     4.333993     4.333993     4.333993   -19270.801   -69381.089    57502.339   -45933.652    29060.958    70488.594   -1701.5493    81.407538 
   97100     1748.272     -115.297    1.5818733   -113.71513   -12461.139    4.3310745    4.3310745    4.3310745   -12461.139   -46945.395    53515.058    -43953.08    18650.027    45303.767    -2305.876     81.24319 
   97200    2861.5853   -116.29205    2.5892225   -113.70283    21294.357    4.3267799    4.3267799    4.3267799    21294.357    18170.162     25964.67     19748.24   -26414.641   -30895.936   -10143.137    81.001751 
   97300     1247.393   -114.86845    1.1286674   -113.73979   -31872.844    4.3464768    4.3464768    4.3464768   -31872.844   -45038.824    54776.921   -105356.63    21871.451    111433.02   -6578.5002    82.113034 
   97400    2751.0459   -116.18071    2.4892041   -113.69151   -11876.647    4.3463093    4.3463093    4.3463093   -11876.647    14586.441   -47215.186   -3001.1946    263.83031   -28125.554   -5875.7699     82.10354 
   97500    1305.5855   -114.89176    1.1813212   -113.71044    27971.424    4.3116812    4.3116812    4.3116812    27971.424    20722.858    21263.636    41927.776   -41219.477    76449.797    3730.4762     80.15672 
   97600    2316.4257   -115.81036    2.0959506   -113.71441    24773.767    4.3073713    4.3073713    4.3073713    24773.767     11706.51    56816.634     5798.156   -3706.0764    36828.234    4052.9051    79.916588 
   97700    2976.1851   -116.42348    2.6929148   -113.73057   -201.17444     4.329655     4.329655     4.329655   -201.17444    25969.349   -13365.524   -13207.348    8480.9353   -27507.118   -3995.5792    81.163332 
   97800    867.21808   -114.55262   0.78467714   -113.76794   -21737.072    4.3455235    4.3455235    4.3455235   -21737.072    -51481.73    -24419.46    10689.973   -47958.245    94121.496    10962.178    82.059017 
   97900    2446.8384   -115.94604    2.2139508   -113.73209   -21427.115    4.3485088    4.3485088    4.3485088   -21427.115   -36009.168   -52428.827     24156.65   -19305.968   -25444.414    6439.6384    82.228254 
   98000    1638.2806   -115.20672    1.4823507   -113.72437   -16737.301    4.3303383    4.3303383    4.3303383   -16737.301   -86462.496    79623.298   -43372.706    5614.0752    71646.052    9238.4017    81.201769 
   98100    1626.2425   -115.17165    1.4714584   -113.70019    11802.463     4.308862     4.308862     4.308862    11802.463   -77690.425    58777.445    54320.368   -30015.767    49690.578   -1148.5748    79.999589 
   98200    2678.3574   -116.12373     2.423434    -113.7003    -6723.749    4.3219095    4.3219095    4.3219095    -6723.749   -27739.791   -35495.357    43063.901   -33202.777   -13105.206    1558.1097    80.728522 
   98300    1618.8319   -115.19281    1.4647531   -113.72806   -19190.708    4.3311681    4.3311681    4.3311681   -19190.708   -72916.495    32417.377   -17073.007    25227.232    110012.44   -3698.2963    81.248454 
   98400    2113.3943   -115.63658    1.9122436   -113.72433    24032.299    4.3212306    4.3212306    4.3212306    24032.299   -6120.4832    28397.187    49820.194   -31279.738   -26103.124    1253.4671    80.690486 
   98500    1693.3441   -115.27955    1.5321733   -113.74738   -21274.696    4.3324989    4.3324989    4.3324989   -21274.696   -62164.819    7576.7642   -9236.0341   -18222.229   -11364.413    6450.9886    81.323376 
   98600     2383.604   -115.88979     2.156735   -113.73305    3603.2459    4.3262275    4.3262275    4.3262275    3603.2459   -29105.167    47685.904    -7770.999    33791.983    72723.267   -3443.3905    80.970731 
   98700    1837.0816   -115.39969    1.6622301   -113.73746    36869.273    4.3032409    4.3032409    4.3032409    36869.273   -6901.9047    65527.744    51981.981   -38117.064   -59652.853    5971.5184    79.686907 
   98800     1486.094   -115.11388    1.3446491   -113.76923    -36192.23    4.3218242    4.3218242    4.3218242    -36192.23   -100906.63   -33020.984    25350.927   -16782.031   -32817.421    1329.2837    80.723745 
   98900    2949.5934   -116.39683    2.6688541   -113.72797   -1185.3465    4.3327112    4.3327112    4.3327112   -1185.3465   -12307.732   -14358.886    23110.578    26735.315    16505.952   -18557.233     81.33533 
   99000    1603.7002   -115.19408    1.4510617   -113.74301   -14447.372    4.3354305    4.3354305    4.3354305   -14447.372    -44499.66    24861.187   -23703.643   -29994.838   -74362.996   -2973.1724     81.48857 
   99100    1942.2738   -115.49019    1.7574102   -113.73278   -29766.344     4.340791     4.340791     4.340791   -29766.344   -70066.865   -45056.805    25824.638   -55188.462    2079.0794    103.47044    81.791207 
   99200     2137.311   -115.65689    1.9338839   -113.72301   -16800.792     4.330373     4.330373     4.330373   -16800.792    -38763.69    24535.007   -36173.694    5163.9844    -31200.58   -7893.5097     81.20372 
   99300     1480.761     -115.069    1.3398236   -113.72917    3731.5846    4.3142365    4.3142365    4.3142365    3731.5846   -6093.7447    68513.069   -51224.571    2521.2432   -87759.774    2259.8812    80.299314 
   99400    2734.8496   -116.19321    2.4745494   -113.71866    17347.927    4.3222164    4.3222164    4.3222164    17347.927    10567.111   -39032.676    80509.346   -58961.908    33042.926   -14766.666    80.745722 
   99500    1471.7137   -115.08081    1.3316375   -113.74917   -16291.109    4.3372492    4.3372492    4.3372492   -16291.109   -47929.712    16378.412   -17322.026    9486.9366   -106559.65    3333.2237    81.591166 
   99600    1995.5264   -115.53904    1.8055942   -113.73344    6294.8026    4.3384262    4.3384262    4.3384262    6294.8026   -50520.806    17598.067    51807.147    18195.695   -35513.713   -4868.1299    81.657603 
   99700    2354.7161   -115.85313    2.1305967   -113.72253    3912.7623    4.3316738    4.3316738    4.3316738    3912.7623   -7669.9156   -27668.053    47076.255   -25805.779    11447.287   -2901.8783    81.276921 
   99800    1306.5927   -114.91805    1.1822326   -113.73582    28654.363    4.3220658    4.3220658    4.3220658    28654.363    3263.3216    61134.252    21565.516   -1432.4951   -125133.51    10836.319    80.737283 
   99900    3193.2606   -116.61075    2.8893293   -113.72142    17246.513     4.329232     4.329232     4.329232    17246.513    72276.136   -25344.117    4807.5205   -7345.2473    20799.123   -11019.574    81.139547 
  100000    1536.4194   -115.14304    1.3901845   -113.75285   -13288.249    4.3274213    4.3274213    4.3274213   -13288.249    35926.132    23560.911   -99351.791   -2048.0308   -55412.827   -13592.045    81.037783 
Loop time of 22.558 on 1 procs for 100000 steps with 8 atoms

Pair  time (%) = 7.06801 (31.3326)
Kspce time (%) = 5.36549 (23.7853)
Neigh time (%) = 0.28238 (1.25179)
Comm  time (%) = 1.08991 (4.83159)
Outpt time (%) = 0.0245936 (0.109024)
Other time (%) = 8.72764 (38.6897)

Nlocal:    8 ave 8 max 8 min
Histogram: 1 0 0 0 0 0 0 0 0 0
Nghost:    1978 ave 1978 max 1978 min
Histogram: 1 0 0 0 0 0 0 0 0 0
Neighs:    2196 ave 2196 max 2196 min
Histogram: 1 0 0 0 0 0 0 0 0 0

Total # of neighbors = 2196
Ave neighs/atom = 274.5
Neighbor list builds = 3225
Dangerous builds = 0
unfix 20
unfix 21
print "seeds:3250997"
seeds:3250997
