LAMMPS (10 Feb 2015)
# ---- initialize simulations
clear
units metal
dimension 3
boundary p p p
atom_style charge
atom_modify map array
# ---- create atoms
read_data /Users/eugeneragasa/pyflamestk_git/pypospack/tests/tests_integration/workflow/WorkflowLammpsThermalExpansion/param_2217/MgO_NaCl_unit.npt.T700/lammps.structure
  triclinic box = (0 0 0) to (4.2565 4.2565 4.2565) with tilt (0 0 0)
  1 by 1 by 1 MPI processor grid
  reading atoms ...
  8 atoms
# ---- define interatomic potential
include potential.mod
mass 1 24.305
mass 2 15.999

group Mg type 1
4 atoms in group Mg
group O type 2
4 atoms in group O

set group Mg charge 1.63539617609
  4 settings made for charge
set group O charge -1.63539617609
  4 settings made for charge

variable R_cut equal 10.0

pair_style buck/coul/long ${R_cut}
pair_style buck/coul/long 10
pair_coeff 1 1 0.0 0.5 0.0 ${R_cut}
pair_coeff 1 1 0.0 0.5 0.0 10
pair_coeff 1 2 1445.86118726 0.28350177361 0.0 ${R_cut}
pair_coeff 1 2 1445.86118726 0.28350177361 0.0 10
pair_coeff 2 2 14001.7361193 0.0970682303871 13.3227844282 ${R_cut}
pair_coeff 2 2 14001.7361193 0.0970682303871 13.3227844282 10

kspace_style pppm 1.0e-5

neighbor 1.0 bin
neigh_modify every 1 delay 0 check yes
# ---- define settings
compute eng all pe/atom
compute eatoms all reduce sum c_eng
# ---- run minimization
reset_timestep 0
fix 1 all box/relax iso 0.0 vmax 0.001
thermo 10
thermo_style custom step pe lx ly lz xy xz yz press pxx pyy pzz pxy pxz pyz c_eatoms
min_style cg
minimize 1e-25 1e-25 5000 10000
PPPM initialization ...
  G vector (1/distance) = 0.35265
  grid = 8 8 8
  stencil order = 5
  estimated absolute RMS force accuracy = 3.8734e-05
  estimated relative force accuracy = 2.68993e-06
  using double precision FFTs
  3d grid and FFT values/proc = 3375 512
Neighbor list info ...
  1 neighbor list requests
  update every 1 steps, delay 0 steps, check yes
  master list distance cutoff = 11
Memory usage per processor = 4.06549 Mbytes
Step PotEng Lx Ly Lz Xy Xz Yz Press Pxx Pyy Pzz Pxy Pxz Pyz eatoms 
       0   -107.83625       4.2565       4.2565       4.2565            0            0            0    103722.55    103722.55    103722.55    103722.55 -7.9651797e-11 -6.6040977e-11 3.4954802e-10   -107.83625 
      10   -107.94585     4.299065     4.299065     4.299065            0            0            0    48505.206    48505.206    48505.206    48505.206 -1.814552e-10 -8.0829294e-11 -4.0355362e-11   -107.94585 
      20   -107.98099     4.341612     4.341612     4.341612            0            0            0  -0.16598057  -0.16598057  -0.16598058  -0.16598057 -1.539671e-10 -9.8603927e-12 -7.0562295e-11   -107.98099 
      24     -107.981    4.3416118    4.3416118    4.3416118            0            0            0 -0.022137581 -0.022137581 -0.022137581 -0.022137581 -7.2866315e-11 -1.1353573e-10 -3.1341588e-11     -107.981 
Loop time of 0.0121839 on 1 procs for 24 steps with 8 atoms

Minimization stats:
  Stopping criterion = linesearch alpha is zero
  Energy initial, next-to-last, final = 
        -107.836253395     -107.981002151     -107.981002151
  Force two-norm initial, final = 14.9776 3.56003e-06
  Force max component initial, final = 14.9776 3.3258e-06
  Final line search alpha, max atom move = 0.5 1.6629e-06
  Iterations, force evaluations = 24 36

Pair  time (%) = 0.00329971 (27.0826)
Kspce time (%) = 0.00195146 (16.0167)
Neigh time (%) = 0 (0)
Comm  time (%) = 0.000370502 (3.04092)
Outpt time (%) = 2.28882e-05 (0.187856)
Other time (%) = 0.00653934 (53.672)

Nlocal:    8 ave 8 max 8 min
Histogram: 1 0 0 0 0 0 0 0 0 0
Nghost:    2189 ave 2189 max 2189 min
Histogram: 1 0 0 0 0 0 0 0 0 0
Neighs:    2344 ave 2344 max 2344 min
Histogram: 1 0 0 0 0 0 0 0 0 0

Total # of neighbors = 2344
Ave neighs/atom = 293
Neighbor list builds = 0
Dangerous builds = 0
unfix 1
# ---- define output variables ----
variable natoms equal "count(all)"
variable tot_energy equal "c_eatoms"
variable length_x equal "lx"
variable length_y equal "ly"
variable length_z equal "lz"
variable tilt_xy equal "xy"
variable tilt_xz equal "xz"
variable tilt_yz equal "yz"
variable tot_press equal "press"
variable press_xx equal "pxx"
variable press_yy equal "pyy"
variable press_zz equal "pzz"
variable press_xy equal "pxy"
variable press_xz equal "pxz"
variable press_yz equal "pyz"

# ---- output ----
print "pypospack:output_section:begin"
pypospack:output_section:begin
print "tot_energy = ${tot_energy}"
tot_energy = -107.981002151143
print "num_atoms = ${natoms}"
num_atoms = 8
print "xx = ${length_x}"
xx = 4.34161184326772
print "yy = ${length_y}"
yy = 4.34161184326772
print "zz = ${length_z}"
zz = 4.34161184326772
print "xy = ${tilt_xy}"
xy = 0
print "xz = ${tilt_xz}"
xz = 0
print "yz = ${tilt_yz}"
yz = 0
print "tot_press = ${tot_press}"
tot_press = -0.0221375810241508
print "pxx = ${press_xx}"
pxx = -0.0221375810918532
print "pyy = ${press_yy}"
pyy = -0.0221375807194137
print "pzz = ${press_zz}"
pzz = -0.0221375812611855
print "pxy = ${press_xy}"
pxy = -7.28663154154814e-11
print "pxz = ${press_xz}"
pxz = -1.13535727889352e-10
print "pyz = ${press_yz}"
pyz = -3.13415884666446e-11
print "pypospack:output_section:done"
pypospack:output_section:done
print "pypospack:lammps_sim:done"
pypospack:lammps_sim:done
#------------------------------------------------------------------------------
# RUN THERMOSTAT
# running using an NPT Nose-Hoover style thermostat
#------------------------------------------------------------------------------
variable tempdamp equal 0.1
variable pressdamp equal 1.0
# set initial velocities
velocity all create 700 3590621 mom yes dist gaussian loop all
# fix for Nose-Hoover style thermostat
fix 20 all npt temp 700 700 0.1 aniso 0.0 0.0 1.0 drag 1.0 couple xyz
variable boxx equal lx
variable boxy equal ly
variable boxz equal lz
variable boxp equal press
variable boxt equal temp
# calculate averages every 10000 steps
reset_timestep 0
fix 21 all ave/time 10 10 100 v_boxx v_boxy v_boxz v_boxp v_boxt file lattice.out
thermo_style custom step temp pe ke etotal press lx ly lz press pxx pyy pzz pxy pxz pyz vol
thermo_modify flush yes
thermo 100
run 100000
PPPM initialization ...
  G vector (1/distance) = 0.3518
  grid = 8 8 8
  stencil order = 5
  estimated absolute RMS force accuracy = 4.02804e-05
  estimated relative force accuracy = 2.79732e-06
  using double precision FFTs
  3d grid and FFT values/proc = 3375 512
Memory usage per processor = 3.06549 Mbytes
Step Temp PotEng KinEng TotEng Press Lx Ly Lz Press Pxx Pyy Pzz Pxy Pxz Pyz Volume 
       0          700   -107.98101   0.63337471   -107.34764    8264.5603    4.3416118    4.3416118    4.3416118    8264.5603    11323.331    3615.9663    9854.3838   -808.40117    33.688718    -1413.731    81.837618 
     100    172.25211   -107.41737   0.15585733   -107.26151   -6706.1357     4.362968     4.362968     4.362968   -6706.1357    73.537842     712.5846    -20904.53   -143.19146   -3671.8974    104.45697     83.05123 
     200    499.40933   -107.53598   0.45187605    -107.0841   -7785.2658    4.3625668    4.3625668    4.3625668   -7785.2658   -1844.0986   -5741.3763   -15770.322   -2544.5871   -1518.5977   -1253.5019    83.028322 
     300    659.00164   -107.53821   0.59627854   -106.94194    14967.472    4.3568261    4.3568261    4.3568261    14967.472    43907.668   -2800.5629    3795.3114   -1764.8062   -1308.8263   -407.85874    82.700982 
     400    449.62285   -107.23195    0.4068282   -106.82512   -15759.992    4.3743882    4.3743882    4.3743882   -15759.992   -13161.928     4810.842   -38928.892    165.24534   -6417.4275   -747.52113    83.705106 
     500    984.46275   -107.63551   0.89076258   -106.74475     8215.542    4.3625234    4.3625234    4.3625234     8215.542    27257.113   -310.19642   -2300.2908    7468.8748    4710.2096    -456.3267    83.025843 
     600    473.43383    -107.1428   0.42837288   -106.71443   -11775.718    4.3733357    4.3733357    4.3733357   -11775.718   -5448.4521   -9743.1103   -20135.593    747.67274   -5192.8444    1406.8638    83.644705 
     700    598.38801   -107.24518   0.54143405   -106.70375   -17635.263    4.3713079    4.3713079    4.3713079   -17635.263   -29156.826    5874.0469   -29623.011    3506.3337    -1930.889   -1385.8997    83.528408 
     800    883.94832    -107.5016   0.79981502   -106.70178    25825.893    4.3594302    4.3594302    4.3594302    25825.893    66746.577    5981.6085    4749.4935   -6141.1422    1105.0618    3350.4438    82.849364 
     900    604.60668   -107.26737   0.54706083   -106.72031   -16265.549    4.3791444    4.3791444    4.3791444   -16265.549    606.58111   -7104.1025   -42299.126    2322.1651   -3963.1022   -288.33219    83.978441 
    1000    744.76338   -107.38661   0.67387756   -106.71274    7650.2817    4.3654884    4.3654884    4.3654884    7650.2817    28521.291    3655.7709   -9226.2171    2114.6331    1808.0845    1092.2458    83.195249 
    1100    564.46615   -107.22045   0.51074084   -106.70971     8464.404    4.3632253    4.3632253    4.3632253     8464.404    21027.336    6152.2544   -1786.3778   -2324.7333   -5278.0927    1820.0574    83.065929 
    1200    649.16378   -107.30021   0.58737703   -106.71283   -26737.033    4.3802937    4.3802937    4.3802937   -26737.033   -33201.709   -8095.8004   -38913.591    5549.0033   -3047.9687   -675.09793    84.044577 
    1300    911.59202   -107.53092   0.82482762    -106.7061     18183.54    4.3602265    4.3602265    4.3602265     18183.54    57087.562   -1954.4986   -582.44495   -1593.1177   -276.85851    1093.9031    82.894776 
    1400    346.99893   -107.04005   0.31397192   -106.72608    13189.801    4.3659992    4.3659992    4.3659992    13189.801    52742.659    1913.1761   -15086.431   -986.62933   -6704.3176    126.03143    83.224453 
    1500    659.50448   -107.32457   0.59673351   -106.72784   -25733.632    4.3817172    4.3817172    4.3817172   -25733.632   -32648.809   -17581.961   -26970.125   -4016.1836    7991.5123    1192.0907    84.126543 
    1600    892.44555   -107.52405   0.80750349   -106.71654    8869.3841    4.3581587    4.3581587    4.3581587    8869.3841    24907.052   -2463.8117    4164.9117     3567.018   -5004.1658    351.11834    82.776892 
    1700    441.33737    -107.1212   0.39933133   -106.72187    2570.3057    4.3695854    4.3695854    4.3695854    2570.3057    27742.136    4990.0372   -25021.256   -2623.4849   -2025.9016    759.28569    83.429703 
    1800    1019.9039   -107.63774   0.92283052   -106.71491   -12082.097    4.3773393    4.3773393    4.3773393   -12082.097     2770.737    -22651.01   -16366.017     426.2909    1814.8545    2042.2657    83.874636 
    1900    641.66598   -107.29767   0.58059286   -106.71708    14800.842    4.3573456    4.3573456    4.3573456    14800.842    44217.724    3228.3016   -3043.5003   -1206.3164    -8272.871   -2103.3949    82.730572 
    2000    349.16398   -107.03909   0.31593091   -106.72315   -11794.551    4.3766146    4.3766146    4.3766146   -11794.551   -2147.4866   -6211.0123   -27025.153    656.69466    2248.1905    1472.9632    83.832982 
    2100    1215.8665   -107.80631    1.1001416   -106.70617   -11280.749     4.371514     4.371514     4.371514   -11280.749   -9022.3644   -14567.351   -10252.532   -196.82991    96.805279   -722.53228    83.540222 
    2200    404.53173   -107.07732   0.36602881   -106.71129    8039.6953    4.3635023    4.3635023    4.3635023    8039.6953    34781.105    3600.8684   -14262.888   -2128.0058   -2910.5119   -1088.0112    83.081749 
    2300    857.64597   -107.48635    0.7760161   -106.71033    -16595.89    4.3754185    4.3754185    4.3754185    -16595.89   -1285.6496   -23461.217   -25040.803    451.71165    9913.8528   -652.20617    83.764268 
    2400    690.94704   -107.33413    0.6251834   -106.70894    11419.287    4.3677994    4.3677994    4.3677994    11419.287    41487.072   -5588.7736   -1640.4367    3402.6096   -6087.6158   -2228.2125    83.327441 
    2500    545.36189   -107.21134    0.4934549   -106.71788    -7219.066    4.3686428    4.3686428    4.3686428    -7219.066    1834.8903    -250.8551   -23241.233    3364.2731    6647.3488    939.29949    83.375722 
    2600    1136.3817   -107.73881    1.0282221   -106.71059   -6884.9915    4.3706314    4.3706314    4.3706314   -6884.9915     9436.528    -18430.42   -11661.083    2737.0547    2275.6142   -2840.7412    83.489631 
    2700    332.71894   -107.01795   0.30105109    -106.7169    3331.4977    4.3689965    4.3689965    4.3689965    3331.4977    14673.818     2001.294    -6680.619    7119.1736    -3182.357    320.93711    83.395975 
    2800    643.38041   -107.29681   0.58214412   -106.71466    439.65256    4.3688273    4.3688273    4.3688273    439.65256    17708.792   -982.29793   -15407.537   -6574.8668    7498.1317    -1248.199    83.386285 
    2900    1156.2041   -107.75879    1.0461578   -106.71264   -11211.466    4.3697325    4.3697325    4.3697325   -11211.466   -9666.8873   -12181.002   -11786.508   -5474.3897   -3795.2932   -1464.9913     83.43813 
    3000     468.9837   -107.15288   0.42434631   -106.72853    7826.0045    4.3619808    4.3619808    4.3619808    7826.0045    18898.787    15866.458   -11287.232   -1091.2138    5545.7003    1146.4926    82.994872 
    3100    731.28222   -107.38425   0.66167952   -106.72257    -4689.279    4.3758141    4.3758141    4.3758141    -4689.279    11286.853    -14723.48    -10631.21     2774.695    3666.1349   -1900.8863     83.78699 
    3200     732.8118   -107.37872   0.66306352   -106.71566   -3998.6757    4.3637814    4.3637814    4.3637814   -3998.6757   -1532.9124     1081.903   -11545.018    2371.0282   -4264.4851    3527.8185    83.097691 
    3300    414.49853   -107.09132   0.37504698   -106.71628    18308.875    4.3637377    4.3637377    4.3637377    18308.875    43261.269    17725.687   -6060.3302    9653.4016    8499.9568   -2400.1759    83.095194 
    3400    988.55649    -107.6061   0.89446668   -106.71164   -8685.6623    4.3761987    4.3761987    4.3761987   -8685.6623    6984.2037   -21243.565   -11797.626   -2313.2008   -4125.4365    2728.1109    83.809085 
    3500    628.13536   -107.28495   0.56835007    -106.7166    1701.0599    4.3585431    4.3585431    4.3585431    1701.0599    13852.696    2695.2905   -11444.807    828.54108   -1217.0132    1762.2235    82.798798 
    3600    494.95319   -107.16362   0.44784405   -106.71577    4727.2303    4.3701693    4.3701693    4.3701693    4727.2303    12022.591    3300.4203   -1141.3206   -2421.8669    5695.7119   -1406.6572    83.463154 
    3700     962.0516   -107.57855   0.87048451   -106.70807   -15880.038    4.3726014    4.3726014    4.3726014   -15880.038   -24222.417   -7362.5272   -16055.171    3003.8888   -5092.4754    5716.6935     83.60258 
    3800     397.5975   -107.07153   0.35975457   -106.71178    20015.843    4.3586755    4.3586755    4.3586755    20015.843    53273.653    11582.191   -4808.3137   -66.589896    6781.1559   -1727.7764    82.806345 
    3900    916.51509   -107.54069   0.82928211   -106.71141   -2175.3055    4.3734524    4.3734524    4.3734524   -2175.3055    25291.775   -21238.896   -10578.796    3557.6112    1631.8585    5184.1691      83.6514 
    4000    685.47911   -107.33582    0.6202359   -106.71558   -2666.9133    4.3683951    4.3683951    4.3683951   -2666.9133    3959.3503      3718.88    -15678.97   -3988.8593     6165.182    1830.6859    83.361539 
    4100    515.62796   -107.18673   0.46655102   -106.72018    1388.2947     4.363539     4.363539     4.363539    1388.2947    13834.093    2392.9402   -12062.149    1004.6503    8211.1086    830.00854    83.083844 
    4200    906.57364   -107.53857   0.82028688   -106.71829   -1727.0728    4.3719143    4.3719143    4.3719143   -1727.0728    27656.755   -23078.078    -9759.895    11.749346   -1134.8358    6503.9735    83.563173 
    4300    724.59572   -107.37896   0.65562944   -106.72333   -15584.232    4.3711585    4.3711585    4.3711585   -15584.232    -14248.31   -5897.9982   -26606.388   -2068.8453    8274.3393   -2594.3179    83.519841 
    4400     804.5066   -107.45084   0.72793448   -106.72291     13104.27    4.3578968    4.3578968    4.3578968     13104.27    54552.245   -12471.812   -2767.6241    2592.7064    434.30295     7901.702    82.761969 
    4500    558.67414    -107.2342    0.5055001    -106.7287   -9498.0853    4.3792289    4.3792289    4.3792289   -9498.0853    4246.6853   -18950.661    -13790.28    2259.6409   -74.539624    1200.7478    83.983298 
    4600    720.34169   -107.37267    0.6517803   -106.72089   -11217.957     4.368396     4.368396     4.368396   -11217.957   -10698.331    -4559.388   -18396.152    3341.2212    12175.052    2486.5975    83.361595 
    4700    748.33736   -107.38766   0.67711137   -106.71055    18216.009    4.3630093    4.3630093    4.3630093    18216.009    64519.359   -11758.385    1887.0542   -2740.0517   -2179.9069    5736.9236    83.053593 
    4800    706.21299   -107.35093   0.63899636   -106.71194   -7532.8435    4.3775943    4.3775943    4.3775943   -7532.8435    17117.732   -14902.472    -24813.79   -1847.2928    13836.984   -465.57945    83.889292 
    4900    714.14766    -107.3545   0.64617581   -106.70832    4258.5536    4.3667326    4.3667326    4.3667326    4258.5536    24317.338   -681.53438   -10860.142   -5604.5919   -3414.9782    6564.6007    83.266399 
    5000    561.09176   -107.21837   0.50768762   -106.71068    2393.9463    4.3688023    4.3688023    4.3688023    2393.9463    18774.599   -4571.7527   -7021.0074    824.66985    3439.0205   -791.73158    83.384855 
    5100     814.2684   -107.44912   0.73676716   -106.71235   -16290.683    4.3722698    4.3722698    4.3722698   -16290.683   -11631.534   -10672.824   -26567.692    556.54726    -2906.738    2728.7322    83.583558 
    5200    590.20248   -107.24457   0.53402761   -106.71054    11161.182    4.3689306    4.3689306    4.3689306    11161.182      49981.7   -7128.4845   -9369.6706     4571.254    266.95916    3769.1074    83.392202 
    5300    746.42638   -107.38503   0.67538228   -106.70964   -387.70663    4.3686473    4.3686473    4.3686473   -387.70663    18371.525    424.16748   -19958.812   -133.54344   -1208.5322   -4237.0306    83.375978 
    5400    712.84065   -107.35931    0.6449932   -106.71432   -8841.0745    4.3687493    4.3687493    4.3687493   -8841.0745    4692.1139   -5906.9668   -25308.371    4465.0075    9603.1908     4736.012    83.381822 
    5500    637.22699   -107.29787   0.57657637   -106.72129    603.05059    4.3701435    4.3701435    4.3701435    603.05059    38542.734   -19738.105   -16995.478   -9736.0156    -540.6642   -6223.5079    83.461675 
    5600    680.57235   -107.33952   0.61579616   -106.72373    5341.9017    4.3681002    4.3681002    4.3681002    5341.9017    29407.365    9773.8992   -23155.559   -24.727951    11737.896    568.47746    83.344657 
    5700    778.85583   -107.42727   0.70472512   -106.72254   -12012.707     4.367461     4.367461     4.367461   -12012.707    17023.885   -20694.099   -32367.906    249.31979    -3124.391   -1043.2295    83.308076 
    5800    639.76577    -107.2947   0.57887351   -106.71582     8350.084    4.3698629    4.3698629    4.3698629     8350.084    46756.106   -8065.3812   -13640.473     3649.902   -2188.4479   -5468.4188    83.445601 
    5900    624.88843   -107.28066   0.56541218   -106.71524   -11161.726    4.3711363    4.3711363    4.3711363   -11161.726   -1178.4184   -9788.8632   -22517.897   -1248.4864   -362.17275    4776.5908    83.518567 
    6000     811.7974   -107.45102   0.73453135   -106.71649   -9885.8047    4.3627973    4.3627973    4.3627973   -9885.8047    25899.601   -31756.491   -23800.525    4396.2072   -5514.4393   -9715.2311    83.041488 
    6100    793.65686   -107.43074    0.7181174   -106.71262    6071.2459    4.3732871    4.3732871    4.3732871    6071.2459    38763.443   -12445.112    -8104.594   -2674.3009    1167.2293    102.87365    83.641916 
    6200    689.96369   -107.33855   0.62429365   -106.71425   -24272.486    4.3731983    4.3731983    4.3731983   -24272.486   -14854.595   -24561.322    -33401.54    1518.3971    2743.3568   -2168.4909    83.636818 
    6300    457.00998   -107.12636   0.41351224   -106.71285    25251.087    4.3575148    4.3575148    4.3575148    25251.087     86740.32   -10897.342   -89.718909    2582.6574    -147.6229   -7691.2434    82.740207 
    6400    987.50525   -107.60431    0.8935155    -106.7108    -12558.58    4.3790549    4.3790549    4.3790549    -12558.58    979.85021   -16228.973   -22426.617    3114.7923    13061.219    2998.9076    83.973292 
    6500    428.48594   -107.10248   0.38770308   -106.71478   -1350.9943    4.3708495    4.3708495    4.3708495   -1350.9943    42641.257   -15505.744   -31188.496    5519.9173   -8494.8617   -8941.6306     83.50213 
    6600    804.63812   -107.43431   0.72805348   -106.70626    17277.477     4.355036     4.355036     4.355036    17277.477     41834.41     6824.432    3173.5901    3915.4364    10347.382   -365.68582    82.599088 
    6700    681.89043   -107.33415   0.61698879   -106.71716   -24306.982    4.3812304    4.3812304    4.3812304   -24306.982   -12660.456   -33444.225   -26816.265   -3721.7011   -5874.1849   -4000.2264    84.098504 
    6800     520.0339   -107.19162    0.4705376   -106.72108     3699.947     4.367705     4.367705     4.367705     3699.947    45422.136   -14638.986    -19683.31   -10663.343   -7028.9389   -5468.0097    83.322042 
    6900     920.2912   -107.54669   0.83269882   -106.71399     21791.97    4.3581307    4.3581307    4.3581307     21791.97    61401.905    -4692.365     8666.371    2607.4005    -2802.005   -201.99857    82.775301 
    7000    619.09716   -107.28008   0.56017212   -106.71991   -24887.578    4.3803731    4.3803731    4.3803731   -24887.578    8476.6104   -45903.676    -37235.67   -5423.8111     1373.169   -11949.265    84.049149 
    7100    554.44969   -107.21572   0.50167773   -106.71404    2584.4037    4.3655651    4.3655651    4.3655651    2584.4037    19109.181   -12779.737    1423.7665    6909.1411   -1309.0913    1976.5387    83.199633 
    7200    818.80545   -107.45176   0.74087238   -106.71089    8052.3191    4.3601124    4.3601124    4.3601124    8052.3191    40299.691   -17161.183    1018.4496    3421.6041    8284.4755   -8266.1092    82.888266 
    7300     637.3784   -107.29072   0.57671337   -106.71401     -14952.3    4.3798968    4.3798968    4.3798968     -14952.3    26561.173   -40416.609   -31001.464    -145.5819    2374.3699   -3231.2894     84.02173 
    7400    782.69354   -107.41491   0.70819756   -106.70671    12325.646    4.3658934    4.3658934    4.3658934    12325.646    46063.269   -9758.9041    672.57494    2311.7719    5410.7558    1385.7486    83.218404 
    7500     640.3499   -107.29055   0.57940205   -106.71115    -4966.208    4.3647089    4.3647089    4.3647089    -4966.208    23083.148     -23976.2   -14005.572   -4412.9662     -5235.45   -8575.4219    83.150687 
    7600    729.45833   -107.37629   0.66002922   -106.71626   -15383.098    4.3736217    4.3736217    4.3736217   -15383.098   -7499.7637   -20683.246   -17966.285     7797.514   -6868.2466    4892.5552    83.661114 
    7700    665.67571   -107.31925   0.60231737   -106.71693    11568.244    4.3663622    4.3663622    4.3663622    11568.244    60860.123   -13712.888   -12442.502   -4553.9505   -801.81146   -7487.5717    83.245215 
    7800    825.27491   -107.46266   0.74672608   -106.71594   -10497.319    4.3652005    4.3652005    4.3652005   -10497.319    7015.1072   -17145.365   -21361.699   -2611.9177   -2070.6356    1519.2662    83.178788 
    7900    566.10082   -107.22697   0.51221992   -106.71475    7316.8663    4.3684939    4.3684939    4.3684939    7316.8663     48149.16    -10516.55   -15682.012    459.10354   -2672.1294    806.10626    83.367197 
    8000    683.20843   -107.33407   0.61818134   -106.71589   -15226.236    4.3705993    4.3705993    4.3705993   -15226.236    7466.6381   -30559.328   -22586.017   -7019.3211    4993.7952   -6263.2147    83.487794 
    8100    784.30424   -107.42421   0.70965496   -106.71456    8831.5742    4.3586209    4.3586209    4.3586209    8831.5742    31129.465    2412.1007    -7046.843    3044.6097    714.91242    7469.9187     82.80323 
    8200     758.1251   -107.40238   0.68596752   -106.71642    -3866.448    4.3698618    4.3698618    4.3698618    -3866.448     19677.54   -17631.809   -13645.074   -439.68009   -3728.9301   -6858.1612    83.445535 
    8300    583.43674     -107.241   0.52790582    -106.7131   -1696.7247    4.3702572    4.3702572    4.3702572   -1696.7247    49919.259   -30188.004   -24821.429    3745.5516    773.05509    7007.1598    83.468191 
    8400    912.05566   -107.53076   0.82524713   -106.70551    8363.5115    4.3551074    4.3551074    4.3551074    8363.5115     11572.25    13459.159    59.125625    6627.0073   -9065.3984   -1226.9005     82.60315 
    8500     367.3537   -107.04903   0.33238935   -106.71664   -7543.1769    4.3761952    4.3761952    4.3761952   -7543.1769    28191.834   -22721.496   -28099.868   -2235.4269    5862.3564    -377.1231    83.808883 
    8600    1021.1762   -107.63228    0.9239817    -106.7083   -6522.6261    4.3642528    4.3642528    4.3642528   -6522.6261    14216.475   -22774.053   -11010.301   -4726.0407   -9639.4542     8797.406    83.124623 
    8700    673.86279   -107.32023   0.60972521    -106.7105    10649.941    4.3604646    4.3604646    4.3604646    10649.941    48347.813   -1815.6239   -14582.365    1088.8142    7581.2118   -5890.7193    82.908356 
    8800    572.16095   -107.23102   0.51770325   -106.71332   -10715.653    4.3749895    4.3749895    4.3749895   -10715.653    26271.181    -31807.81    -26610.33    -155.2929   -15.002664    9419.4818    83.739632 
    8900    853.31667   -107.47863   0.77209885   -106.70653      12220.8    4.3604014    4.3604014    4.3604014      12220.8    39969.552   -1460.4326   -1846.7183   -3915.5244    3604.0424    1120.9055    82.904751 
    9000     642.2947   -107.29689   0.58116174   -106.71572   -16254.616    4.3661632    4.3661632    4.3661632   -16254.616    5757.5339   -24507.003   -30014.379    5049.7333     1464.053    1484.9984    83.233835 
    9100    586.49673   -107.24877   0.53067456    -106.7181    10860.616    4.3692281    4.3692281    4.3692281    10860.616    73876.544   -17736.275    -23558.42    3504.3292   -6903.9601    7798.0698    83.409239 
    9200    914.48181   -107.54549   0.82744236   -106.71804    4111.6537     4.365048     4.365048     4.365048    4111.6537     29610.29   -9725.6905   -7549.6387    7297.5988   -1247.0599   -2839.8401    83.170071 
    9300    407.22661   -107.09335    0.3684672   -106.72489   -9360.3817    4.3662604    4.3662604    4.3662604   -9360.3817    32718.242   -25652.682   -35146.705   -4883.2882   -4311.9445    14639.309    83.239394 
    9400    977.15761   -107.60026   0.88415274    -106.7161   -7799.0886    4.3677855    4.3677855    4.3677855   -7799.0886   -8686.5983   -10607.919   -4102.7482     1456.683    4917.9729   -2687.5253    83.326647 
    9500    481.39622   -107.15628   0.43557741   -106.72071    2059.4151    4.3682945    4.3682945    4.3682945    2059.4151    65174.767   -29860.111    -29136.41    2684.9933    1959.2302    10579.801    83.355783 
    9600    908.62032   -107.53967   0.82213876   -106.71753   -5810.4026     4.363629     4.363629     4.363629   -5810.4026     19188.43   -20095.793   -16523.845    -9899.123     5872.888    7494.0873    83.088986 
    9700    789.87577   -107.42912    0.7146962   -106.71442    2326.5256    4.3685276    4.3685276    4.3685276    2326.5256    32487.658   -17427.033    -8081.048   -2067.3176   -3728.2343   -611.07507    83.369129 
    9800    345.51474   -107.03114     0.312629   -106.71851   -18036.093    4.3725325    4.3725325    4.3725325   -18036.093    12806.963   -40103.298   -26811.944    6025.2703    2047.8887    14389.246    83.598629 
    9900    948.34887   -107.56957   0.85808599   -106.71149    8447.2321    4.3578144    4.3578144    4.3578144    8447.2321    30890.714   -4777.0772   -771.94074    -4104.229   -8513.5468   -2890.6052    82.757278 
   10000    790.67765   -107.43311   0.71542175   -106.71768   -12081.209    4.3748213    4.3748213    4.3748213   -12081.209    19169.974   -30746.376   -24667.226    38.850105     4874.778     10637.79    83.729974 
   10100    492.37008   -107.16152    0.4455068   -106.71601    9179.2547    4.3657832    4.3657832    4.3657832    9179.2547    58986.842   -10493.579   -20955.498    2242.6134     1710.922    4464.5624    83.212104 
   10200     878.3181   -107.50516   0.79472068   -106.71044   -4189.3122    4.3591461    4.3591461    4.3591461   -4189.3122   -5007.6186   -8169.1277    608.80974   -2806.1821    9876.6914    2184.3314     82.83317 
   10300    429.43371   -107.10369   0.38856064   -106.71513   -8220.1288    4.3760641    4.3760641    4.3760641   -8220.1288    24666.029   -26043.777   -23282.638    -1396.053   -1694.5777    11449.918    83.801351 
   10400    892.06817   -107.51572   0.80716203   -106.70856    5184.4857    4.3604604    4.3604604    4.3604604    5184.4857    22814.391      2043.71   -9304.6441    2238.9094    12340.276   -4675.0619    82.908113 
   10500    817.75389   -107.45454   0.73992091   -106.71462   -6011.8318    4.3640506    4.3640506    4.3640506   -6011.8318    15227.496   -24661.568   -8601.4234   -1398.6184   -4940.4272    12298.222    83.113069 
   10600    491.74543   -107.15924   0.44494159   -106.71429    6056.2607    4.3715632    4.3715632    4.3715632    6056.2607    49350.191   -23233.507   -7947.9028    5236.2465    405.06685    107.68707    83.543044 
   10700    841.10753   -107.47036   0.76105177   -106.70931   -5290.7904    4.3603562    4.3603562    4.3603562   -5290.7904   -11927.712   -2351.2012   -1593.4585    1541.6455   -5906.7103    1136.7419     82.90217 
   10800    584.57615   -107.24418   0.52893679   -106.71524   -1761.2806    4.3716504    4.3716504    4.3716504   -1761.2806    42119.184   -31772.897    -15630.13    2070.0793   -157.83301    9067.5618    83.548042 
   10900    926.76687   -107.54616   0.83855814    -106.7076   -1951.5979    4.3676726    4.3676726    4.3676726   -1951.5979    13495.639   -11777.745   -7572.6875     4723.651   -8211.9719    -3405.725    83.320186 
   11000    628.46062   -107.28115   0.56864438   -106.71251   -2911.1868    4.3632157    4.3632157    4.3632157   -2911.1868    8281.3846   -13387.998   -3626.9467    291.01194    4131.4401     8843.235    83.065379 
   11100    598.26679   -107.25404   0.54132436   -106.71271     3287.128    4.3720606    4.3720606    4.3720606     3287.128    45466.041   -22244.728   -13359.929    3322.1472   -1921.4929   -2629.3259    83.571561 
   11200     933.6344   -107.55397   0.84477203    -106.7092    2533.1921    4.3625216    4.3625216    4.3625216    2533.1921    1200.5193    7511.1756   -1112.1185    881.12509    10154.085    3529.9121    83.025744 
   11300    455.04175   -107.12839   0.41173134   -106.71666    9331.5349    4.3681488    4.3681488    4.3681488    9331.5349    56613.019   -15656.222   -12962.193   -4965.3374   -910.70835    4578.5719    83.347444 
   11400    950.21006   -107.56444   0.85977003   -106.70467    -8241.382    4.3710941    4.3710941    4.3710941    -8241.382    7522.3676   -17025.809   -15220.705   -3429.9011    11245.224   -6208.3416    83.516149 
   11500    506.09365   -107.16378   0.45792417   -106.70586    2762.1463    4.3589433    4.3589433    4.3589433    2762.1463    1585.8048    7610.8332   -910.19925    1548.5783   -4278.1836    8549.6073    82.821609 
   11600    587.63161   -107.24475   0.53170143   -106.71305   -4353.3427    4.3697461    4.3697461    4.3697461   -4353.3427    29828.803   -21064.523   -21824.308     -640.775    1375.8724   -7024.5695    83.438905 
   11700    983.00279   -107.59831   0.88944159   -106.70887    2590.9923    4.3692528    4.3692528    4.3692528    2590.9923    28963.574   -14299.415   -6891.1815   -2562.3195   -4129.5165    2141.2351    83.410652 
   11800    463.89126   -107.13486   0.41973856   -106.71512    7985.5415    4.3593031    4.3593031    4.3593031    7985.5415    50582.339   -16483.006   -10142.708   -1105.3627   -2469.3582   -263.53223    82.842121 
   11900    857.72527   -107.48649   0.77608785    -106.7104   -12505.956    4.3719013    4.3719013    4.3719013   -12505.956    2576.5891   -24563.462   -15530.995    1291.9618   -5394.7876   -7071.4138    83.562425 
   12000    643.92507   -107.29147   0.58263694   -106.70883    405.70834    4.3674018    4.3674018    4.3674018    405.70834    10275.358   -9698.4781    640.24526   -5701.9967    -1772.246    6873.2867    83.304691 
   12100    605.90749   -107.26167   0.54823783   -106.71344   -5028.3423    4.3599298    4.3599298    4.3599298   -5028.3423    23166.377   -19857.722   -18393.682    1121.6105   -5933.3989   -9588.7844     82.87785 
   12200    905.84053   -107.53175   0.81962355   -106.71213    670.47216    4.3719844    4.3719844    4.3719844    670.47216    29256.516   -14739.993   -12505.106    8925.6541    3642.2868    1409.0224    83.567192 
   12300    575.89972   -107.23734   0.52108617   -106.71626    14780.547    4.3611329    4.3611329    4.3611329    14780.547     51821.35   -2305.4558   -5174.2551   -2849.8945     935.5391   -1702.2842    82.946478 
   12400    632.91262    -107.2891   0.57267264   -106.71643   -11395.291    4.3704517    4.3704517    4.3704517   -11395.291   -1488.6651   -12063.572   -20633.636    -7992.032    4198.4489   -9877.1026    83.479336 
   12500    856.97216   -107.48385   0.77540642   -106.70844    5332.2942    4.3641414    4.3641414    4.3641414    5332.2942    22006.048   -6342.4517    333.28645    3053.4108    -143.7026    3907.6195     83.11826 
   12600    565.02642   -107.22465   0.51124778   -106.71341   -1182.4358    4.3657592    4.3657592    4.3657592   -1182.4358    38148.516    -25611.73   -16084.094   -7384.2602   -504.84759    -10395.05     83.21073 
   12700    827.95058   -107.45713   0.74914708   -106.70798   -7190.4361    4.3722723    4.3722723    4.3722723   -7190.4361    10508.485   -8041.2562   -24038.537   -5239.2204   -3297.8448   -2964.2712    83.583701 
   12800    733.25952   -107.36747   0.66346863     -106.704    15057.514    4.3574654    4.3574654    4.3574654    15057.514    42832.717   -8739.9102    11079.734    2590.3425    216.68296   -1456.9745    82.737395 
   12900    551.35814   -107.20891   0.49888043   -106.71003   -19314.919    4.3757256    4.3757256    4.3757256   -19314.919   -8303.8177   -21621.357   -28019.582   -2618.6712   -4648.2246   -7078.3496    83.781904 
   13000    700.18033   -107.33834   0.63353788    -106.7048    12006.414    4.3625547    4.3625547    4.3625547    12006.414    41774.421    378.11167   -6133.2901    410.24153   -1013.6951   -1130.6609    83.027636 
   13100    873.11616   -107.49691   0.79001385   -106.70689   -3350.8651    4.3609259    4.3609259    4.3609259   -3350.8651    4762.9024   -17176.895    2361.3968   -3448.8416    -2652.852   -4163.2019    82.934668 
   13200    528.91702   -107.18718   0.47857524   -106.70861   -6368.6598    4.3765824    4.3765824    4.3765824   -6368.6598    7566.5179   -2187.1338   -24485.364    268.75575   -2521.5934   -1237.7465    83.831131 
   13300    740.02972   -107.37174   0.66959444   -106.70214    11868.309    4.3564842    4.3564842    4.3564842    11868.309    22604.186    3744.2299    9256.5109    -2866.474    -1237.933   -2183.5995    82.681514 
   13400    560.29261   -107.21605   0.50696453   -106.70909   -8077.2522    4.3721141    4.3721141    4.3721141   -8077.2522    15852.478    -24825.82   -15258.415   -6671.1476   -1807.9461   -1907.5314     83.57463 
   13500    799.81301   -107.42878   0.72368762   -106.70509    2478.9494    4.3664469    4.3664469    4.3664469    2478.9494    12907.862    10227.268   -15698.282    1153.7178   -12098.367    1238.3177     83.25006 
   13600    778.56502   -107.41039   0.70446199   -106.70593   -950.13771    4.3608386    4.3608386    4.3608386   -950.13771    11940.994   -16190.794    1399.3872   -1343.8857   -59.485682   -1955.7914    82.929689 
   13700    545.58116   -107.20254    0.4936533   -106.70889   -13084.265    4.3735947    4.3735947    4.3735947   -13084.265   -7457.5169   -9854.9537   -21940.324    -6201.569   -10716.752   -2991.1529    83.659564 
   13800    661.84234   -107.30624   0.59884886   -106.70739    11771.008    4.3597777    4.3597777    4.3597777    11771.008    41494.683   -1643.4116   -4538.2478    5398.5437   -3098.5831    2403.0672    82.869176 
   13900    793.65622   -107.43018   0.71811683   -106.71206    4347.4969    4.3652693    4.3652693    4.3652693    4347.4969      31164.1     -13097.9    -5023.709     4683.121   -1286.9696   -6789.2875    83.182721 
   14000    817.84479   -107.45118   0.74000315   -106.71118   -4437.2443    4.3710512    4.3710512    4.3710512   -4437.2443   -1393.0448    5369.9819    -17288.67    1783.1474    1027.2884   -277.69758    83.513689 
   14100    461.03312   -107.13058   0.41715245   -106.71343    4251.8663    4.3625786    4.3625786    4.3625786    4251.8663    21542.469    1482.4485   -10269.319    813.66679    2257.2988   -2409.7604    83.028998 
   14200     792.2591   -107.42982   0.71685269   -106.71297   -3203.2838    4.3635405    4.3635405    4.3635405   -3203.2838    7317.6143   -9219.1033   -7708.3625   -3534.8346    2746.0374   -5816.7502    83.083928 
   14300    604.88337   -107.25941   0.54731119    -106.7121    2661.0076    4.3741559    4.3741559    4.3741559    2661.0076    27180.635    2978.7864   -22176.399    2316.8098   -4063.1949    3979.8456    83.691775 
   14400    876.73995   -107.50085   0.79329273   -106.70756    135.90829    4.3587781    4.3587781    4.3587781    135.90829    28518.458   -19474.968   -8635.7653   -7933.7273    4963.3647   -7861.4109    82.812193 
   14500    698.84453   -107.34156   0.63232922   -106.70923    1509.1165    4.3656436    4.3656436    4.3656436    1509.1165    8065.5571    7524.7634   -11062.971   -2934.7117   -9490.0782    1573.6964    83.204119 
   14600    471.14931   -107.13807   0.42630579   -106.71177   -14500.261    4.3765331    4.3765331    4.3765331   -14500.261   -2477.2613   -20273.561   -20749.961    3571.4744    2390.9492   -2981.2045      83.8283 
   14700    888.38787   -107.51091   0.80383202   -106.70708    7048.2418    4.3565746    4.3565746    4.3565746    7048.2418    22866.153   -1754.9368     33.50901   -10423.203   -4714.4517   -4683.8879    82.686662 
   14800    765.31853   -107.40252   0.69247629   -106.71004     4925.096    4.3681572    4.3681572    4.3681572     4925.096    17454.038    11401.085   -14079.835    1486.0891   -2335.1685    1733.8829    83.347925 
   14900    502.16859    -107.1644   0.45437269   -106.71003   -2616.9384    4.3731986    4.3731986    4.3731986   -2616.9384    25932.831   -16440.416   -17343.231    7152.0146    1395.7929   -5331.7857    83.636838 
   15000    861.17004    -107.4808   0.77920475    -106.7016    6918.0524    4.3606997    4.3606997    4.3606997    6918.0524    14197.421   -2551.5843    9108.3208   -3803.7504    3499.9475    3507.1271    82.921766 
   15100    508.58714    -107.1686   0.46018033   -106.70842   -1820.4076     4.371076     4.371076     4.371076   -1820.4076    16285.661   -1134.6537    -20612.23    8220.2849    555.33425    94.247057    83.515115 
   15200    891.66825   -107.51072   0.80680017   -106.70392   -7825.9497    4.3690217    4.3690217    4.3690217   -7825.9497    17968.965   -27809.459   -13637.356    3657.5091    4408.8507    -334.6257    83.397417 
   15300    738.83538   -107.37036   0.66851378   -106.70185    6096.0044     4.362873     4.362873     4.362873    6096.0044    11608.812    9252.1055   -2572.9043   -3508.8266   -1632.1657    3019.7901    83.045809 
   15400    392.90006   -107.06604   0.35550423   -106.71054   -13097.421    4.3721337    4.3721337    4.3721337   -13097.421    12294.381   -23344.487   -28242.158    6778.0034   -1290.0344    1348.5701    83.575754 
   15500    956.91331   -107.56854   0.86583527    -106.7027    4449.2433    4.3660619    4.3660619    4.3660619    4449.2433    16925.334    230.78504   -3808.3888   -2858.9896    189.62623    1663.0842    83.228038 
   15600    712.90801    -107.3514   0.64505415   -106.70635    2178.7348    4.3654382    4.3654382    4.3654382    2178.7348    32658.631    1728.7978   -27851.224    4274.4165   -11415.627   -712.49492    83.192375 
   15700    546.69287   -107.20666    0.4946592     -106.712   -7998.9914    4.3690921    4.3690921    4.3690921   -7998.9914    24001.206   -22100.545   -25897.636    9087.5716    1245.0859    124.81285    83.401448 
   15800    932.49082   -107.54838   0.84373729   -106.70464    4233.8229    4.3643219    4.3643219    4.3643219    4233.8229     20503.56   -8081.6216    279.53061   -2325.4884   -6736.2543   -2921.9524    83.128572 
   15900    423.70929   -107.09735   0.38338107   -106.71397   -18687.364    4.3742545    4.3742545    4.3742545   -18687.364    5731.5529   -25403.223   -36390.423    6130.6718    1753.5257   -262.39334    83.697433 
   16000    925.31205    -107.5446   0.83724179   -106.70736   -5020.6909    4.3601302    4.3601302    4.3601302   -5020.6909    8057.7736   -14146.571   -8973.2756    3701.7483    306.55927     1091.963    82.889282 
   16100    851.34143    -107.4776   0.77031162   -106.70729   -269.38279    4.3650466    4.3650466    4.3650466   -269.38279    12235.959   -4312.7668   -8731.3408   -3843.7939    5779.3197   -2659.3959    83.169989 
   16200    284.92897   -106.97421   0.25780972    -106.7164   -15656.566    4.3756707    4.3756707    4.3756707   -15656.566     29270.18   -46771.294   -29468.585    14797.278    1903.5983    2065.9932    83.778751 
   16300    958.65554   -107.57594   0.86741167   -106.70853    15779.543    4.3506685    4.3506685    4.3506685    15779.543    19199.309    21021.306    7118.0147     -332.742    7722.8808    -414.4407    82.350832 
   16400    584.56807   -107.24969   0.52892947   -106.72076   -13773.555    4.3820461    4.3820461    4.3820461   -13773.555    19473.979   -27450.591   -33344.052    172.00074   -1968.2759    3807.6547    84.145485 
   16500    670.80026   -107.32337   0.60695417   -106.71642   -13411.231     4.364501     4.364501     4.364501   -13411.231   -4497.0229   -13267.348   -22469.321    14681.499    7110.1295    2047.8879    83.138808 
   16600    835.47658   -107.45932   0.75595677   -106.70336    22202.187    4.3482972    4.3482972    4.3482972    22202.187    39199.543     9595.009     17812.01     -8330.41   -5043.4866    1176.0048    82.216252 
   16700    600.29464   -107.24646   0.54315921    -106.7033   -27862.501    4.3900172    4.3900172    4.3900172   -27862.501   -4813.0173   -35098.603   -43675.882    6527.4291    2384.0828    5148.7289    84.605512 
   16800    624.47001   -107.26833   0.56503359    -106.7033    23136.225     4.347098     4.347098     4.347098    23136.225    54378.029    12193.792    2836.8544    5578.6301   -1263.0398     489.0859    82.148248 
   16900    796.37247   -107.43283   0.72057455   -106.71226    1334.9152    4.3636056    4.3636056    4.3636056    1334.9152    22596.047    -13646.13   -4945.1714   -5050.2956    728.00667    396.72978     83.08765 
   17000    634.70788   -107.27904   0.57429703   -106.70474    -21047.05    4.3841106    4.3841106    4.3841106    -21047.05    10695.771    -38348.01   -35488.911    6966.4073    2915.2494    4008.9458     84.26447 
   17100    709.95089   -107.34342   0.64237849   -106.70104    13846.353    4.3484214    4.3484214    4.3484214    13846.353    25482.676     12750.19    3306.1919   -5958.4611    2975.7796     1271.165    82.223296 
   17200    730.99558   -107.37115   0.66142016   -106.70973    3361.7798    4.3658986    4.3658986    4.3658986    3361.7798    37856.277    -12721.93   -15049.008   -2118.7376   -1087.8187   -1058.9353      83.2187 
   17300    657.92575   -107.30685   0.59530505   -106.71155   -17842.172    4.3770594    4.3770594    4.3770594   -17842.172   -75.441156   -21687.761   -31763.315    4725.0276    4276.9272    4654.3029    83.858544 
   17400    605.83132   -107.25673   0.54816891   -106.70856    19776.206     4.355379     4.355379     4.355379    19776.206     54376.42    5515.8414   -563.64389   -8747.9097   -1456.3675   -2817.4641    82.618605 
   17500    909.47672   -107.53348   0.82291365   -106.71056   -9049.2492    4.3639078    4.3639078    4.3639078   -9049.2492    5802.6272   -17817.597   -15132.778   -462.68485     1137.427    2861.5405    83.104913 
   17600    434.09629   -107.10898   0.39277945    -106.7162   -5250.5038    4.3745271    4.3745271    4.3745271   -5250.5038    16920.961   -3078.5153   -29593.957    5187.3181    1210.4513    3153.8516     83.71308 
   17700    912.59798   -107.53748   0.82573783   -106.71174    9315.0166    4.3574513    4.3574513    4.3574513    9315.0166    33553.547   -8414.3098    2805.8129   -7534.6172   -704.76904   -4975.5481    82.736594 
   17800    593.30274   -107.25698   0.53683279   -106.72015   -5489.0089    4.3671019    4.3671019    4.3671019   -5489.0089    27120.068   -24010.429   -19576.666    6592.4412    3461.2688    5216.1517    83.287531 
   17900    741.70439   -107.38836   0.67110972   -106.71725   -2887.7067    4.3673887    4.3673887    4.3673887   -2887.7067    8039.1277   -5229.6893   -11472.559    1939.2624    4767.3926    -1399.867    83.303941 
   18000     749.6859    -107.3892   0.67833156   -106.71087    10088.476    4.3632661    4.3632661    4.3632661    10088.476    41097.785    711.43675   -11543.792   -3203.7837   -2215.1424    648.82572    83.068258 
   18100    678.46374    -107.3268   0.61388825   -106.71291   -20581.275    4.3682952    4.3682952    4.3682952   -20581.275   -19003.301   -19370.876   -23369.648     582.0201    12741.406    2005.8853     83.35582 
   18200    585.69886   -107.23971   0.52995264   -106.70976    19474.725    4.3604896    4.3604896    4.3604896    19474.725     53389.04    5286.3074   -251.17278   -5546.5271    -2003.171   -2306.5778    82.909781 
   18300    884.01912   -107.51059   0.79987908   -106.71072   -13805.291    4.3711049    4.3711049    4.3711049   -13805.291   -6625.6975   -8206.5063   -26583.671   -1896.4535    5858.1735    5263.2293    83.516767 
   18400    505.26347   -107.17058   0.45717301   -106.71341    677.07491    4.3658568    4.3658568    4.3658568    677.07491    22964.147    3132.2052   -24065.128    4940.8816    8119.5194   -4369.3391    83.216312 
   18500    883.86519   -107.50642    0.7997398   -106.70668    9451.6084     4.357683     4.357683     4.357683    9451.6084    13850.366    7780.0892    6724.3695    170.09081   -3020.9518    5288.8456     82.74979 
   18600    515.03248   -107.17885   0.46601222   -106.71284    -20063.95    4.3770981    4.3770981    4.3770981    -20063.95   -288.26054   -22203.987   -37699.602    8203.8577    8064.6754    510.88135    83.860771 
   18700    784.12538   -107.41745   0.70949312   -106.70795    6154.6524    4.3570733    4.3570733    4.3570733    6154.6524    20080.961    2681.9558   -4298.9597    2898.8833    2289.3575   -753.69208    82.715064 
   18800    758.37756   -107.39791   0.68619595   -106.71171    11489.101    4.3645242    4.3645242    4.3645242    11489.101    43810.816    2297.9721   -11641.486   -4454.0573    1957.6847    7295.4076    83.140135 
   18900    634.24897    -107.2887    0.5738818   -106.71482   -24951.038     4.374478     4.374478     4.374478   -24951.038   -25468.985   -21257.079    -28127.05    2493.3511    6753.3803   -3257.3467    83.710265 
   19000    726.49476    -107.3675   0.65734773   -106.71015    18722.813    4.3517719    4.3517719    4.3517719    18722.813    53098.259   -3764.3732    6834.5531   -701.40451   -658.67942     8501.831    82.413505 
   19100    686.15401    -107.3377   0.62084657   -106.71686   -7167.1581    4.3722563    4.3722563    4.3722563   -7167.1581   -648.26996    1173.8584   -22027.063    -3056.119    2648.2715    899.94249    83.582783 
   19200    664.38192   -107.31588   0.60114672   -106.71473   -8266.6463    4.3685068    4.3685068    4.3685068   -8266.6463    3261.3692   -11032.423   -17028.885    4476.4063   -244.48161    3200.2014    83.367936 
   19300    737.98565   -107.37391   0.66774493   -106.70616    25920.599    4.3529807    4.3529807    4.3529807    25920.599    63880.904      2613.58    11267.313    2199.5581   -1073.7886     7024.461    82.482198 
   19400     590.5722   -107.24912   0.53436213   -106.71476   -27464.159    4.3773195    4.3773195    4.3773195   -27464.159   -33637.578   -15029.791   -33725.106    4577.1129    2226.7187   -3131.5121    83.873494 
   19500    787.75067   -107.42607   0.71277336    -106.7133    12489.281    4.3585585    4.3585585    4.3585585    12489.281    46678.535   -8303.7928    -906.8999   -655.95679   -721.54769    8782.6514    82.799675 
   19600    865.78904    -107.4978   0.78338412   -106.71442    466.00521    4.3632652    4.3632652    4.3632652    466.00521    12662.917    480.34408   -11745.246   -129.77368    4386.6782   -1460.2078    83.068207 
   19700     394.9894   -107.07508   0.35739471   -106.71768   -8460.3906    4.3685046    4.3685046    4.3685046   -8460.3906    17250.191   -21147.516   -21483.847    1683.4965    4929.5577    1998.1514     83.36781 
   19800     872.5778   -107.49785   0.78952673   -106.70832    718.06914    4.3636604    4.3636604    4.3636604    718.06914    26682.882   -22327.913   -2200.7618    3395.8801   -3764.3497    4733.5198    83.090782 
   19900    668.77176   -107.31741   0.60511874   -106.71229    2823.4226     4.363788     4.363788     4.363788    2823.4226    33914.873    -6336.611   -19107.995   -5472.0024    4567.5953   -5063.1477    83.098067 
   20000    756.25868   -107.39831   0.68427874   -106.71404   -10023.096    4.3673644    4.3673644    4.3673644   -10023.096    1773.2441   -13748.695   -18093.838    1090.9316    19.593666    4534.1572    83.302547 
   20100    762.95529   -107.40019   0.69033798   -106.70985   -29.220403    4.3647452    4.3647452    4.3647452   -29.220403    28075.323    -23459.57   -4703.4139    692.48194     1897.424   -4886.1004    83.152761 
   20200    486.62076   -107.15666   0.44030469   -106.71636   -4475.6682    4.3638799    4.3638799    4.3638799   -4475.6682    5884.6304    5995.0227   -25306.658    366.95143    3007.1488    478.26918    83.103318 
   20300    838.32387   -107.47125   0.75853305   -106.71271   -2139.4062     4.368767     4.368767     4.368767   -2139.4062    17343.438   -12140.305   -11621.351    10107.484    1077.9353   -1904.5216    83.382833 
   20400    825.96946   -107.45763   0.74735453   -106.71028    5601.3639    4.3610623    4.3610623    4.3610623    5601.3639    22337.168     7497.494    -13030.57   -155.79414    1383.5268   -6528.9257    82.942453 
   20500    447.14916   -107.12005   0.40458996   -106.71546   -9027.1973    4.3661788    4.3661788    4.3661788   -9027.1973   -1264.0151    1812.9961   -27630.573    5322.5932    6220.4472    2756.2442    83.234725 
   20600    774.54707   -107.41206   0.70082646   -106.71123    2242.5621    4.3641947    4.3641947    4.3641947    2242.5621    27906.978    -19950.78   -1228.5119   -3081.8035   -1818.9966   -7409.0131    83.121305 
   20700    650.17173   -107.30708   0.58828905   -106.71879   -5202.6259    4.3676198    4.3676198    4.3676198   -5202.6259    3700.3303    5171.0422    -24479.25    2902.8394    3007.0038    418.34833    83.317166 
   20800    824.94911   -107.46393   0.74643129    -106.7175   -11198.138    4.3632968    4.3632968    4.3632968   -11198.138   -4471.1446   -11336.434   -17786.835    11257.612   -915.90465    -2637.281    83.070008 
   20900    603.57125   -107.26061   0.54612395   -106.71449    13005.589    4.3611258    4.3611258    4.3611258    13005.589    59416.592   -18516.979   -1882.8466   -3172.9231    280.34309   -3252.7062    82.946078 
   21000    630.73262   -107.28558   0.57070013   -106.71488   -25052.209    4.3751405    4.3751405    4.3751405   -25052.209   -25015.405   -16967.391   -33173.832    7517.8736    3463.1181    2540.1884      83.7483 
   21100    837.53008   -107.46925   0.75781481   -106.71144    11130.102    4.3554024    4.3554024    4.3554024    11130.102    30324.674    5467.3102   -2401.6794    2949.4398   -3407.5023   -6024.8642    82.619935 
   21200    727.42798    -107.3764   0.65819212   -106.71821    1104.0443    4.3620069    4.3620069    4.3620069    1104.0443    25251.935   -7194.3233   -14745.478   -6656.9188    6767.7553    1929.8664    82.996361 
   21300    571.02067   -107.23524    0.5166715   -106.71857   -14854.413    4.3754676    4.3754676    4.3754676   -14854.413   -2282.4479   -10713.295   -31567.497    10059.468    1955.4375    -877.1651    83.767085 
   21400    809.92223   -107.44287   0.73283466   -106.71004     11306.82    4.3536267    4.3536267    4.3536267     11306.82    34027.768   -2953.2298     2845.921   -5073.7144   -820.03448   -3367.5478    82.518925 
   21500    570.48806   -107.23206   0.51618959   -106.71587   -2907.4318    4.3631808    4.3631808    4.3631808   -2907.4318    7421.9183    7042.1586   -23186.372    3366.1764    10900.792    2834.4934    83.063385 
   21600    869.04981   -107.49571   0.78633453   -106.70938   -18413.654    4.3742135    4.3742135    4.3742135   -18413.654   -15990.588   -10029.623   -29220.751    7201.7117   -5934.5108   -3036.9185    83.695082 
   21700    539.50634   -107.19793   0.48815668   -106.70978    13330.343    4.3554652    4.3554652    4.3554652    13330.343    56138.157   -9671.5898   -6475.5394   -7438.7126    4754.3525   -1580.7086    82.623511 
   21800    741.73284    -107.3856   0.67113546   -106.71447   -12822.817    4.3641286    4.3641286    4.3641286   -12822.817   -10690.692   -7137.0986    -20640.66   -708.52732    2282.8242     2050.953    83.117526 
   21900    659.10068   -107.30703   0.59636814   -106.71066   -4054.6529    4.3736481    4.3736481    4.3736481   -4054.6529    31666.345   -16122.204   -27708.099     2101.564   -8972.3264   -7175.9481    83.662629 
   22000     728.1556   -107.36581   0.65885049   -106.70696    5708.5875    4.3510027    4.3510027    4.3510027    5708.5875    1106.8848    12579.057    3439.8208    -11812.06     8850.137    82.447156    82.369806 
   22100    682.50924   -107.33148    0.6175487   -106.71394   -10167.376    4.3691284    4.3691284    4.3691284   -10167.376     15025.12   -15644.558   -29882.692    4676.1565   -127.50058     -2519.97    83.403529 
   22200    756.76177   -107.39423   0.68473395    -106.7095   -2808.6385    4.3678591    4.3678591    4.3678591   -2808.6385    12257.805   -15783.455   -4900.2653   -3178.6184   -2009.5695   -8218.5472     83.33086 
   22300    566.88673   -107.22375   0.51293103   -106.71082    16629.112    4.3544121    4.3544121    4.3544121    16629.112    46367.675    7806.6363   -4286.9764   -4812.7343    12955.544    1987.9483    82.563593 
   22400    807.67906   -107.44455   0.73080499   -106.71375   -18779.035    4.3737133    4.3737133    4.3737133   -18779.035   -5081.2232   -20522.951   -30732.931     4671.933   -4981.9649   -11965.968    83.666372 
   22500     632.9267   -107.28466   0.57268538   -106.71198    16233.364    4.3581752    4.3581752    4.3581752    16233.364    47691.591   -7104.8457    8113.3462   -4971.3073    7670.5152   -843.69831    82.777832 
   22600    695.94872    -107.3439   0.62970903   -106.71419   -12259.176    4.3650938    4.3650938    4.3650938   -12259.176    4941.8037   -20951.489   -20767.844   -1489.2626    3305.8203   -2613.5909    83.172692 
   22700    719.11184    -107.3621   0.65066751   -106.71144   -4628.1326     4.368971     4.368971     4.368971   -4628.1326    29580.921   -25320.806   -18144.512    1099.8187   -6321.5831   -13111.941    83.394514 
   22800    823.93027   -107.45501   0.74550942    -106.7095    13106.092    4.3540572    4.3540572    4.3540572    13106.092     31247.12   -1676.9831    9748.1398   -6727.9934    8937.0975    2863.2187    82.543408 
   22900    495.25168   -107.16458   0.44811413   -106.71646    -15701.69    4.3742909    4.3742909    4.3742909    -15701.69    17949.037   -36262.843   -28791.263    177.16916    -915.2308   -10984.013    83.699521 
   23000    897.51468   -107.51874   0.81209015   -106.70665   -2234.2731    4.3636953    4.3636953    4.3636953   -2234.2731    17160.705   -21291.418   -2572.1065   -3203.1503   -3316.2376    -5684.646    83.092774 
   23100    671.86368   -107.31561   0.60791638   -106.70769    13332.256    4.3563905    4.3563905    4.3563905    13332.256    34990.911    3909.3618    1096.4941   -1941.5784    13980.988   -1438.3191     82.67618 
   23200    701.70299   -107.34527   0.63491561   -106.71035   -20136.055    4.3744169    4.3744169    4.3744169   -20136.055    -4415.913   -23166.328   -32825.925    3497.4273   -4545.6094   -12919.421    83.706759 
   23300    680.66007    -107.3212   0.61587553   -106.70532    22556.746    4.3578662    4.3578662    4.3578662    22556.746    53488.874   -3003.0921    17184.455    579.09854    1696.6586    3401.7365    82.760226 
   23400    686.12334   -107.33201   0.62081882   -106.71119    -10698.71    4.3648244    4.3648244    4.3648244    -10698.71    5729.0509   -14461.453   -23363.727    -2001.368    3665.1057   -10309.846    83.157292 
   23500    690.66445    -107.3365    0.6249277   -106.71157    7094.7004    4.3644383    4.3644383    4.3644383    7094.7004    40940.456   -10343.617   -9312.7374    3055.0704   -1608.9699    -4666.485    83.135227 
   23600    899.51502   -107.52241   0.81390009   -106.70851     -3212.69    4.3646753    4.3646753    4.3646753     -3212.69    647.88848   -8511.4224    -1774.536   -8631.6487   -1096.1269    3935.9742    83.148767 
   23700    398.89402   -107.07733    0.3609277    -106.7164   -7730.9914    4.3639641    4.3639641    4.3639641   -7730.9914    25290.086   -26654.159   -21828.901   -3435.8903    4364.1015   -12649.195    83.108127 
   23800    704.33358   -107.35342   0.63729583   -106.71612    6902.4894    4.3610377    4.3610377    4.3610377    6902.4894    33303.379    -16997.78    4401.8696   -4121.4063   -6429.5941    8364.1307    82.941048 
   23900    849.95365   -107.48222   0.76905593   -106.71316   -16230.561     4.371264     4.371264     4.371264   -16230.561   -4269.6624   -24132.331   -20289.689   -8951.2249    12919.443   -8803.9858    83.525891 
   24000    593.89075   -107.24894   0.53736483   -106.71158    14023.232     4.353979     4.353979     4.353979    14023.232    52462.582    -3107.504   -7285.3802   -569.09389   -5036.6603    -1232.419    82.538959 
   24100    753.66689   -107.39213   0.68193364   -106.71019   -11944.217    4.3728584    4.3728584    4.3728584   -11944.217   -3262.2255   -32776.587    206.16141    -1433.726    6259.4386    9111.6075    83.617318 
   24200    568.55247   -107.22424   0.51443822    -106.7098    321.98807    4.3641867    4.3641867    4.3641867    321.98807    20374.951   -10663.484    -8745.503   -7280.2547    2843.8695   -15032.496    83.120846 
   24300    792.88535   -107.42561   0.71741933   -106.70819    6067.2194    4.3526266    4.3526266    4.3526266    6067.2194    26360.567    105.16447   -8264.0734    6151.2994    3515.6123    14876.691    82.462073 
   24400    798.92554   -107.43111   0.72288462   -106.70822   -8678.1334    4.3768694    4.3768694    4.3768694   -8678.1334    1138.8622   -17736.693   -9436.5689   -1867.4558   -1953.0733   -1666.0931    83.847627 
   24500    638.96191   -107.28597   0.57814616   -106.70782    6143.2651    4.3606675    4.3606675    4.3606675    6143.2651    35155.279    -9041.583   -7683.9006    4780.4301   -2129.1192   -6576.2397    82.919928 
   24600    582.77048    -107.2361   0.52730298    -106.7088    2836.3831    4.3599888    4.3599888    4.3599888    2836.3831    23971.316    -10246.77   -5215.3961    2279.2601    -3193.962     14277.91    82.881215 
   24700    827.14847    -107.4563   0.74842132   -106.70788   -3966.0318    4.3710083    4.3710083    4.3710083   -3966.0318    20231.194   -15729.834   -16399.455    1464.5801   -4502.6893   -11299.184    83.511231 
   24800    721.87015   -107.36314   0.65316328   -106.70997    4161.8266    4.3600729    4.3600729    4.3600729    4161.8266    24600.343   -3544.5939   -8570.2695   -6596.7008    551.42416    6984.0909    82.886012 
   24900    661.69414   -107.30947   0.59871477   -106.71076   -4044.5716    4.3634997    4.3634997    4.3634997   -4044.5716    9708.2874   -15352.318   -6489.6842   -1478.1576   -2663.4846    859.40488    83.081599 
   25000    762.25724   -107.39776   0.68970637   -106.70805   -3090.0915    4.3688387    4.3688387    4.3688387   -3090.0915    20610.438   -20025.885   -9854.8281   -10840.344     2685.316   -5544.1168    83.386939 
   25100     597.7405   -107.25038   0.54084816   -106.70954    2491.0936    4.3640626    4.3640626    4.3640626    2491.0936    22120.537   -1526.1089   -13121.147    237.46507    2286.6151    11909.585    83.113756 
   25200    825.46308   -107.45458   0.74689634   -106.70769    4490.2484    4.3604563    4.3604563    4.3604563    4490.2484    22498.316   -2358.8857   -6668.6851   -4767.7144    270.41592    -10058.91    82.907879 
   25300      801.013    -107.4333    0.7247734   -106.70853   -942.14084    4.3685015    4.3685015    4.3685015   -942.14084     20946.83   -16851.779   -6921.4736   -457.90632   -302.99641    9162.1738    83.367635 
   25400    543.50024   -107.20241   0.49177044   -106.71064   -5037.7237    4.3649918    4.3649918    4.3649918   -5037.7237    14658.166   -11595.248   -18176.089    2503.0118    5347.6141    4523.3779    83.166861 
   25500    722.62776    -107.3632   0.65384879   -106.70935    -2239.867    4.3590409    4.3590409    4.3590409    -2239.867    4247.3783   -2302.4451   -8664.5342   -2158.5665   -5771.5993   -3270.3841    82.827172 
   25600    766.42849   -107.40355   0.69348061   -106.71007    2508.5069    4.3669645    4.3669645    4.3669645    2508.5069    16833.572   -7367.3422   -1940.7089    1532.2931    2685.7156    12513.598    83.279669 
   25700    719.89079   -107.36061   0.65137232   -106.70924   -2464.2429    4.3673429    4.3673429    4.3673429   -2464.2429    9363.8677   -9700.7213   -7055.8751     3960.142   -12387.619    -4526.562    83.301319 
   25800    643.65542   -107.28987   0.58239295   -106.70747    3365.7897     4.360305     4.360305     4.360305    3365.7897    19302.671   -10082.313    877.01176   -5979.4813    1607.8151    7821.4954    82.899253 
   25900    660.07154   -107.30281    0.5972466   -106.70556    8970.3488    4.3620923    4.3620923    4.3620923    8970.3488    25936.637    7789.6963   -6815.2871    5723.3075   -4669.4372    2711.7958    83.001237 
   26000    634.88668   -107.28162   0.57445881   -106.70716   -16663.875    4.3747009    4.3747009    4.3747009   -16663.875    -17134.96   -16022.667   -16833.998   -4190.7186   -5990.3009   -1795.4134    83.723061 
   26100    829.28644    -107.4547    0.7503558   -106.70434    11304.078    4.3539588    4.3539588    4.3539588    11304.078    32878.137    2463.0626   -1428.9644   -10054.912    5878.7996    8258.8082    82.537809 
   26200    824.73904   -107.45598   0.74624122   -106.70974   -5630.7558    4.3636838    4.3636838    4.3636838   -5630.7558    5073.7963   -6048.0377   -15918.026    6561.5113   -2140.7571   -5287.8539    83.092118 
   26300    413.13139   -107.08631   0.37380996    -106.7125    -13465.97    4.3754663    4.3754663    4.3754663    -13465.97    14978.089   -21631.234   -33744.765   -10633.006   -3250.2363    3287.4173     83.76701 
   26400    948.19473   -107.56304   0.85794652   -106.70509    7891.5106    4.3500948    4.3500948    4.3500948    7891.5106    17935.737     6980.317   -1241.5218    895.07682    2477.5396    1766.1691    82.318254 
   26500    698.66207   -107.34691   0.63216412   -106.71474   -11084.322    4.3647472    4.3647472    4.3647472   -11084.322   -4974.0315   -13907.518   -14371.418    11767.236   -7715.2413   -5557.3622    83.152879 
   26600    589.87436   -107.24688   0.53373072   -106.71315   -10513.332    4.3705754    4.3705754    4.3705754   -10513.332    8715.1822    -16840.23    -23414.95   -15295.525    3922.0671    3851.2371    83.486424 
   26700    860.49613    -107.4852   0.77859498   -106.70661     694.2589    4.3566025    4.3566025    4.3566025     694.2589    2359.6079    7944.9913   -8221.8225    9149.3395   -6884.7253   -2224.9034     82.68825 
   26800    400.89967   -107.07877   0.36274245   -106.71603   -870.35139    4.3600625    4.3600625    4.3600625   -870.35139     15985.55   -2190.4135   -16406.191    203.02084   -8239.8128   -632.34699    82.885421 
   26900    950.78267   -107.57251   0.86028814   -106.71222   -9372.7583    4.3682066    4.3682066    4.3682066   -9372.7583   -13838.386   -6884.6987   -7395.1906   -15655.538    1431.5391    2379.0845    83.350749 
   27000    635.37611   -107.28614   0.57490165   -106.71124    3795.0385    4.3614489    4.3614489    4.3614489    3795.0385    21492.333   -917.55898    -9189.658     11197.68   -4220.9532   -245.51478     82.96451 
   27100    584.22776   -107.23822   0.52862156    -106.7096    -8738.562    4.3576432    4.3576432    4.3576432    -8738.562   -4630.6787   -9195.0065   -12390.001    -8260.057   -6191.8264    2385.8554    82.747525 
   27200    791.08182   -107.42179   0.71578746     -106.706   -6865.4378    4.3714203    4.3714203    4.3714203   -6865.4378    10949.254   -10778.339   -20767.228   -2905.1356    8639.9744    448.76915    83.534847 
   27300    647.37858   -107.29612   0.58576174   -106.71036    3381.2423    4.3556517    4.3556517    4.3556517    3381.2423    7861.0954   -6818.3538    9100.9855    13279.268   -5637.4146    245.15377    82.634126 
   27400    765.96859   -107.40402   0.69306448   -106.71095    1675.4315    4.3615745    4.3615745    4.3615745    1675.4315     26029.14   -7737.5936   -13265.252   -8407.7975   -414.95628    2143.8183     82.97168 
   27500     660.0141   -107.30665   0.59719463   -106.70946   -12528.672    4.3698313    4.3698313    4.3698313   -12528.672   -2006.8875   -6356.9069    -29222.22    5117.9692    3010.6301   -2178.6875    83.443786 
   27600    524.14787   -107.18335   0.47426001   -106.70909     12670.94    4.3479383    4.3479383    4.3479383     12670.94    14413.136    3837.5862    19762.096    8664.5944   -10233.568   -813.04015    82.195892 
   27700    866.70861    -107.4935   0.78421616   -106.70928    -11987.68    4.3728649    4.3728649    4.3728649    -11987.68   -230.67185    -13364.93   -22367.438    -8873.361    1722.5511    230.55567    83.617695 
   27800    706.96038   -107.35128   0.63967261    -106.7116   -161.34844    4.3565336    4.3565336    4.3565336   -161.34844    6653.1147   -5123.2065   -2013.9536    9070.6207    -1470.321   -2954.9626     82.68433 
   27900    501.67071   -107.16675    0.4539222   -106.71283    10404.047    4.3588793    4.3588793    4.3588793    10404.047    45491.897   -6296.7689   -7982.9871   -2726.8994   -7981.7383    1105.0263    82.817959 
   28000    839.21253   -107.46743   0.75933713    -106.7081   -18630.741     4.368669     4.368669     4.368669   -18630.741   -8461.1533    -17006.38    -30424.69   -3243.7283     14056.15   -7377.0813    83.377224 
   28100     606.6233   -107.25614   0.54888551   -106.70726     17565.18    4.3506444    4.3506444    4.3506444     17565.18    43284.883   -259.60677    9670.2629    11409.895   -11359.253    1582.8071    82.349459 
   28200    853.00074   -107.47532     0.771813   -106.70351    -17379.33    4.3737202    4.3737202    4.3737202    -17379.33   -6731.5162   -19313.854   -26092.621   -368.30285   -379.00166   -3526.0641    83.666767 
   28300    551.23915   -107.20337   0.49877277    -106.7046    14936.088    4.3480497    4.3480497    4.3480497    14936.088    55925.427    6744.8698   -17862.033    5542.9952    9547.3889   -11271.905    82.202211 
   28400    706.05971   -107.35186   0.63885767     -106.713   -4284.4959     4.366048     4.366048     4.366048   -4284.4959     7166.385   -11675.791   -8344.0815    10363.434   -12371.585    6442.7715    83.227244 
   28500    743.22502   -107.38111   0.67248561   -106.70863   -2657.7393    4.3683099    4.3683099    4.3683099   -2657.7393      30934.7   -21035.264   -17872.655   -3301.7495    6309.2125   -12083.146    83.356666 
   28600    631.80402   -107.27692   0.57166956   -106.70525    9906.7197    4.3449917    4.3449917    4.3449917    9906.7197    14664.028    13052.601    2003.5302    6531.5975      6429.64   -3586.3875    82.028894 
   28700    725.09887   -107.36217   0.65608469   -106.70608   -19255.157     4.371431     4.371431     4.371431   -19255.157   -5430.2818   -23468.543   -28866.647    8306.1498   -14604.633    504.71876    83.535461 
   28800    629.34729    -107.2751   0.56944665   -106.70566    140.44482    4.3587974    4.3587974    4.3587974    140.44482    24052.767   -4363.1896   -19268.243    2013.6305    15110.336   -10758.377    82.813294 
   28900    772.48328   -107.40599    0.6989591   -106.70703   -2174.6875     4.355108     4.355108     4.355108   -2174.6875   -1387.9939   -6940.2158    1804.1472    5563.9584    -11682.67    2823.3461    82.603182 
   29000     694.6572   -107.33345   0.62854044   -106.70491   -8725.9927    4.3689922    4.3689922    4.3689922   -8725.9927    19094.538   -16664.963   -28607.553    5437.6635    -2803.946   -10855.295     83.39573 
   29100    605.15953   -107.25718   0.54756106   -106.70962   -1344.8239    4.3562718    4.3562718    4.3562718   -1344.8239    19190.745    2826.6202   -26051.837   -4848.9702    6050.2961       996.27    82.669422 
   29200    804.82485   -107.44036   0.72822244   -106.71214    379.21197    4.3557453    4.3557453    4.3557453    379.21197    5475.1048    -4373.987    36.518114    12312.337   -10466.489   -2628.7185    82.639454 
   29300    655.84566   -107.30554   0.59342293   -106.71212   -8362.0699    4.3698682    4.3698682    4.3698682   -8362.0699    26281.576   -25927.454   -25440.332   -1520.8585    581.10027   -11836.615    83.445902 
   29400    715.93615   -107.35456   0.64779408   -106.70677    4003.5375    4.3528618    4.3528618    4.3528618    4003.5375    2383.1275    12951.933   -3324.4483    2522.5838    5284.0636    6677.2989     82.47544 
   29500    595.48004   -107.24814   0.53880286   -106.70934    7161.1988     4.357559     4.357559     4.357559    7161.1988      39383.8   -10672.687   -7227.5159     9531.436   -2028.0888   -8836.7908    82.742725 
   29600    836.06531   -107.46481   0.75648946   -106.70832   -18517.354    4.3702879    4.3702879    4.3702879   -18517.354   -4134.2202   -20412.259   -31005.581   -2609.0905    7718.7702   -6149.7537    83.469946 
   29700    717.19572    -107.3554   0.64893376   -106.70647    25733.216    4.3486999    4.3486999    4.3486999    25733.216     51631.94    7768.8381     17798.87    8686.6186   -2394.1684     3128.493    82.239094 
   29800    544.41082    -107.2054   0.49259435    -106.7128   -20555.732    4.3706981    4.3706981    4.3706981   -20555.732   -7530.0445    -29049.67    -25087.48    3346.1705   -6598.9164    -10510.41    83.493456 
   29900    708.90017   -107.34965   0.64142777   -106.70822    10904.042    4.3502055    4.3502055    4.3502055    10904.042    35890.574    9786.4135   -12964.863   -5162.1858    1071.5835      1510.23    82.324539 
   30000     834.1464   -107.46595   0.75475319   -106.71119    -1971.529     4.362776     4.362776     4.362776    -1971.529    10257.298   -10296.677   -5875.2069     10169.79   -2974.9808   -4757.6093    83.040268 
   30100    579.35343   -107.23579   0.52421116   -106.71158   -18531.402    4.3672409    4.3672409    4.3672409   -18531.402   -8976.0845   -30582.208   -16035.914   -6391.1868   -1911.9933   -7169.2854    83.295481 
   30200    741.78468   -107.37399   0.67118237   -106.70281    25953.027    4.3405625    4.3405625    4.3405625    25953.027    45738.746    24156.899    7963.4362   -3814.8172    10231.168    6381.9997    81.778292 
   30300    670.02605   -107.31416   0.60625365   -106.70791   -24739.374      4.37873      4.37873      4.37873   -24739.374   -8589.7575   -36173.343   -29455.022    3485.5555   -2895.7383   -12974.663    83.954598 
   30400     574.2937   -107.23007     0.519633   -106.71044    14693.031    4.3484261    4.3484261    4.3484261    14693.031    32364.631   -114.79905    11829.262   -11404.448    610.98777    2113.1021    82.223559 
   30500    924.91259   -107.54654   0.83688035   -106.70966    488.23686    4.3548852    4.3548852    4.3548852    488.23686    6420.4348   -8438.4362     3482.712    -158.4137    13922.803    598.93826    82.590508 
   30600    476.59152    -107.1408   0.43123003   -106.70957    -22022.59    4.3732733    4.3732733    4.3732733    -22022.59   -19033.802   -26896.651   -20137.315    4802.1835    -9340.244   -17341.562    83.641124 
   30700    749.30661   -107.38065   0.67798837   -106.70266    20126.736    4.3381275    4.3381275    4.3381275    20126.736     23561.11    10244.522    26574.575   -8941.5023    8895.7547    10431.325    81.640738 
   30800    896.85336   -107.51793   0.81149176   -106.70644   -16942.756    4.3742767    4.3742767    4.3742767   -16942.756    3465.2875   -28774.212   -25519.344    455.00241    633.17055   -8428.1463    83.698707 
   30900    526.59836   -107.18833   0.47647726   -106.71185    7556.6625    4.3522754    4.3522754    4.3522754    7556.6625    14109.669   -7828.2141    16388.532    1334.5538   -5609.0319   -6910.6135    82.442114 
   31000    586.28279   -107.24381   0.53048099   -106.71333    5123.1892    4.3543228    4.3543228    4.3543228    5123.1892    14989.525   -7004.1027    7384.1453   -13077.946    4807.8485    9992.0677    82.558513 
   31100    956.83435   -107.57151   0.86576383   -106.70574   -11916.815    4.3689263    4.3689263    4.3689263   -11916.815   -6375.0199   -18104.256   -11271.169    3533.1456   -928.80691   -9517.7838    83.391954 
   31200    584.10765   -107.23599   0.52851287   -106.70748    19742.026    4.3442498    4.3442498    4.3442498    19742.026    25592.143   -6761.2416    40395.176   -8003.9354   -624.78079    6259.6522    81.986879 
   31300    659.10925    -107.3058    0.5963759   -106.70943   -20504.445    4.3728785    4.3728785    4.3728785   -20504.445   -19013.874   -33084.116   -9415.3464   -3379.8556    3910.7315    8735.4385    83.618473 
   31400    871.03381   -107.49601   0.78812969   -106.70788    15430.947    4.3456991    4.3456991    4.3456991    15430.947    14932.709    7316.5286    24043.602   -446.20135    1521.3533   -4993.7461    82.068965 
   31500    443.48062   -107.12461   0.40127058   -106.72334    3378.4284    4.3560204    4.3560204    4.3560204    3378.4284    25390.384   -22058.118    6803.0196   -10759.709     1183.248    12768.195    82.655114 
   31600    967.40985   -107.58305   0.87533276   -106.70772   -20461.844    4.3736516    4.3736516    4.3736516   -20461.844   -8474.5056   -31882.112   -21028.916     663.7753     10212.02    5914.8463    83.662829 
   31700    709.50306   -107.34438   0.64197328    -106.7024    32008.153    4.3340286    4.3340286    4.3340286    32008.153    43828.727    13854.507    38341.224    -3709.001   -4033.7717   -738.09992    81.409542 
   31800    284.19463   -106.97635   0.25714528   -106.71921    -27691.18    4.3712923    4.3712923    4.3712923    -27691.18   -28953.848   -38102.809   -16016.882   -10110.074    7970.3139    19629.231    83.527513 
   31900    1113.7766   -107.71297    1.0077685    -106.7052    3279.2673    4.3596885    4.3596885    4.3596885    3279.2673    5817.1242   -6669.7634    10690.441    6454.2472   -2267.0929   -4970.5319    82.864091 
   32000    630.70162   -107.27769   0.57067208   -106.70702    8558.3258    4.3478326    4.3478326    4.3478326    8558.3258    12302.821   -8074.4324    21446.589   -6877.1939   -4973.2033    12615.212    82.189898 
   32100    356.86328   -107.03518    0.3228974   -106.71228   -22359.465    4.3671244    4.3671244    4.3671244   -22359.465   -18515.018    -32451.95   -16111.427   -3923.7877    1604.7977    12782.024    83.288815 
   32200    951.92637   -107.56534   0.86132299   -106.70401     10996.08    4.3535741    4.3535741    4.3535741     10996.08    20840.275    2441.1745    9706.7923    5917.4633   -5450.6359   -9358.1414    82.515937 
   32300    602.89662   -107.25917   0.54551353   -106.71366   -9819.5272    4.3618399    4.3618399    4.3618399   -9819.5272    6771.9862    -26048.17   -10182.397   -10740.733    4212.7588    18884.973    82.986828 
   32400    795.30099   -107.42989   0.71960505   -106.71029    278.97102    4.3532953    4.3532953    4.3532953    278.97102     10125.94    -13348.11    4059.0832   -363.08059   -126.14266    -3750.613    82.500082 
   32500    745.53258   -107.38306   0.67457355   -106.70849   -98.428198    4.3619269    4.3619269    4.3619269   -98.428198    12535.185   -11404.058   -1426.4113     -2980.59    7551.5098   -16.157934    82.991794 
   32600    495.58932   -107.16216   0.44841963   -106.71374    -2304.977    4.3577909    4.3577909    4.3577909    -2304.977   -7427.1171   -20623.929    21136.115   -8011.5391   -831.21478    17193.126    82.755939 
   32700    921.63561   -107.54318   0.83391527   -106.70926    8501.4114    4.3524253    4.3524253    4.3524253    8501.4114    10617.396   -2782.1634    17669.001   -162.90925    9662.1874   -12132.767    82.450632 
   32800    748.52839   -107.38511   0.67728421   -106.70783    2146.3056    4.3653292    4.3653292    4.3653292    2146.3056    9676.9514   -15165.033    11926.999   -3423.2657    3392.7576    8514.9175    83.186143 
   32900    501.29693   -107.16314     0.453584   -106.70955    2711.1572    4.3517691    4.3517691    4.3517691    2711.1572   -1551.7048   -8213.1787    17898.355   -3742.6873    1319.9307    5260.5598     82.41334 
   33000    674.97627   -107.32323   0.61073272    -106.7125    353.34098    4.3577378    4.3577378    4.3577378    353.34098    6930.3245   -7910.0399    2039.7383    3303.4894    7198.0134   -20564.972    82.752913 
   33100    888.71448   -107.51341   0.80412753   -106.70928    7672.4825    4.3599151    4.3599151    4.3599151    7672.4825    7620.2127   -11430.567    26827.802   -7900.4907   -3658.7043    13913.192    82.877012 
   33200    606.58992   -107.26142   0.54885531   -106.71256   -7229.6625    4.3583612    4.3583612    4.3583612   -7229.6625    -1066.858   -16208.639   -4413.4899    1246.2321    1006.8109    -12096.73    82.788431 
   33300    700.39664   -107.34314    0.6337336    -106.7094   -2137.1938     4.356989     4.356989     4.356989   -2137.1938    1506.5757   -8992.7968    1074.6396    547.08922   -3813.6136   -10965.783     82.71026 
   33400    791.27319   -107.42377   0.71596061   -106.70781    8643.6052    4.3564226    4.3564226    4.3564226    8643.6052   -2904.6602   -13319.514    42154.989   -9391.5181   -36.758446    9588.7427    82.678009 
   33500    613.08592   -107.26928   0.55473303   -106.71455   -17304.383    4.3638062    4.3638062    4.3638062   -17304.383   -13805.416    -25813.35   -12294.384    4301.6262    1263.5756   -25088.319    83.099108 
   33600    882.08085    -107.5063   0.79812529   -106.70817    15318.412    4.3500939    4.3500939    4.3500939    15318.412    13610.183    6385.3389    25959.713   -1854.8168    5283.6412    305.79663    82.318205 
   33700    561.75783    -107.2204   0.50829029   -106.71211   -16626.958    4.3674271    4.3674271    4.3674271   -16626.958   -4779.2469   -24259.442   -20842.185   -4693.2908     3385.309   -5429.2648    83.306134 
   33800     519.6766   -107.18434   0.47021431   -106.71413   -3729.8242    4.3511143    4.3511143    4.3511143   -3729.8242    4487.3987   -4102.5126   -11574.359     6752.014    5151.3288   -16884.838    82.376148 
   33900      946.758   -107.56488   0.85664654   -106.70823      13530.3     4.355632     4.355632     4.355632      13530.3    8115.0238    1365.4493    31110.426   -3548.2029    1914.7566    5626.7944    82.633006 
   34000    570.74383   -107.22851   0.51642101   -106.71209   -19036.734    4.3678478    4.3678478    4.3678478   -19036.734    -43.91548   -23481.742   -33584.544   -1050.5437    5304.1096   -16315.419    83.330214 
   34100    513.11015   -107.17248   0.46427284   -106.70821    19669.083    4.3428616    4.3428616    4.3428616    19669.083    8850.8102    17704.375    32452.065    2367.2154    5155.2599   -4138.6529     81.90831 
   34200    923.78557   -107.54221    0.8358606   -106.70635   -13967.142    4.3707913    4.3707913    4.3707913   -13967.142   -16226.356   -24878.225   -796.84531   -8301.4301   -3523.2629   -1829.2076    83.498794 
   34300    680.94875    -107.3286   0.61613674   -106.71246    3104.7072    4.3496817    4.3496817    4.3496817    3104.7072    1336.8409   -4144.9223    12122.203   -356.24872    8134.9789   -18343.732    82.294808 
   34400     663.3603   -107.31082   0.60022234   -106.71059    4768.2521    4.3506049    4.3506049    4.3506049    4768.2521    4460.7877    10244.452   -400.48304    -2650.047    1980.1766    7790.9994    82.347216 
   34500    685.76697   -107.32432   0.62049636   -106.70382   -24864.401    4.3736291    4.3736291    4.3736291   -24864.401   -14009.217   -29899.473   -30684.511    -6774.957   -3178.0396   -12134.608    83.661537 
   34600    690.03594   -107.32696   0.62435902    -106.7026    21391.155    4.3363863    4.3363863    4.3363863    21391.155    19918.879    19203.184    25051.401    5473.3589    14559.543   -7932.1084    81.542476 
   34700    762.34399   -107.39892   0.68978486   -106.70914   -11102.181    4.3679673    4.3679673    4.3679673   -11102.181   -12672.467   -9613.2508   -11020.826   -1217.4087   -3200.9886    7420.0523    83.337051 
   34800    684.87521   -107.32755   0.61968948   -106.70786   -3138.6542    4.3579707    4.3579707    4.3579707   -3138.6542    2722.5115   -1317.9742     -10820.5   -65.047108   -1972.0582   -15945.701    82.766179 
   34900    485.79369   -107.14563   0.43955634   -106.70607    20772.593    4.3442404    4.3442404    4.3442404    20772.593    18420.132    33138.234    10759.413    2941.2056    16062.128    4431.8834    81.986352 
   35000    880.64369   -107.49814   0.79682492   -106.70131   -23505.537    4.3734533    4.3734533    4.3734533   -23505.537   -31798.769   -19670.152   -19047.691   -7428.0252   -15652.386    4277.7385     83.65145 
   35100    790.55961   -107.41644   0.71531495   -106.70113    20140.917    4.3420832    4.3420832    4.3420832    20140.917    14304.036    20559.375     25559.34   -2403.2579     10347.21   -9618.2139    81.864273 
   35200    519.05207    -107.1784   0.46964922   -106.70875   -12758.311    4.3628838    4.3628838    4.3628838   -12758.311   -4137.6816    5456.7253   -39593.978   -2561.3644    8576.5791     10250.09    83.046423 
   35300    778.91718   -107.41105   0.70478063   -106.70627    -9478.278    4.3567916    4.3567916    4.3567916    -9478.278   -493.63344   -10839.502   -17101.698    -8125.169   -12643.594     2506.673     82.69902 
   35400    698.50208   -107.34062   0.63201936    -106.7086    14017.762    4.3480817    4.3480817    4.3480817    14017.762    14456.021    24794.688    2802.5755    -1373.313    24715.793   -5772.1227    82.204026 
   35500    761.08133   -107.39461   0.68864239   -106.70597   -16810.948     4.368696     4.368696     4.368696   -16810.948   -16293.269   -11404.035    -22735.54    66.896174   -3603.6812    10120.829     83.37877 
   35600    640.87223    -107.2842   0.57987466   -106.70433    12966.855    4.3427138    4.3427138    4.3427138    12966.855    20655.854    15615.767    2628.9446   -6557.0268    4957.7227   -867.40469    81.899951 
   35700    575.78236   -107.23106   0.52097998   -106.71008   -5666.0293    4.3634125    4.3634125    4.3634125   -5666.0293   -7430.3032    12217.175    -21784.96   -1809.4297    17373.613   -2745.8501    83.076618 
   35800    930.67993   -107.54946   0.84209876   -106.70736   -2206.1905    4.3568134    4.3568134    4.3568134   -2206.1905     4545.447   -7591.2668   -3572.7518   -1693.1191   -12029.713    10679.132    82.700262 
   35900    641.94305   -107.28954   0.58084356    -106.7087    12189.942    4.3467132    4.3467132    4.3467132    12189.942    12120.478    10691.156     13758.19   -8099.3389    17053.475   -3902.1253     82.12643 
   36000    633.12175   -107.27907   0.57286186   -106.70621   -14704.607    4.3659457    4.3659457    4.3659457   -14704.607   -1004.0977   -1164.9416   -41944.782    1480.3669    6409.6935   -416.80823    83.221395 
   36100    617.82933   -107.26625   0.55902496   -106.70722    10264.454    4.3474748    4.3474748    4.3474748    10264.454    32304.316    864.47479   -2375.4293   -3506.5857   -7824.3345     11394.62    82.169606 
   36200     851.7666   -107.48136   0.77069632   -106.71066   -6392.3099    4.3574611    4.3574611    4.3574611   -6392.3099   -17239.473    2013.0862   -3950.5424   -4119.2438    19332.905   -8349.6508    82.737148 
   36300    781.38229    -107.4152   0.70701112   -106.70819    76.790338    4.3591397    4.3591397    4.3591397    76.790338    13652.913     -7272.54   -6150.0018    5870.7596   -7725.0194    3636.7561    82.832806 
   36400    595.65865   -107.24688   0.53896447   -106.70792    2499.6026     4.351014     4.351014     4.351014    2499.6026    10522.084    1846.4327   -4869.7084   -6814.1491    3164.7743     4891.689    82.370449 
   36500    614.73094   -107.26439   0.55622147   -106.70817   -305.60837    4.3601193    4.3601193    4.3601193   -305.60837   -1518.4458    4459.9242   -3858.3035   -443.16572    14882.674   -7822.1823     82.88866 
   36600    820.69519   -107.44934   0.74258226   -106.70675    7273.8929    4.3547593    4.3547593    4.3547593    7273.8929    22954.078   -7952.9513    6820.5524    1296.4763   -8092.3505    10098.071    82.583347 
   36700    742.06465   -107.38074   0.67143569   -106.70931   -1930.5614      4.35446      4.35446      4.35446   -1930.5614   -11551.256    1210.8372    4548.7345   -7479.3994    11419.546   -559.65141     82.56632 
   36800    559.58234   -107.21498   0.50632186   -106.70866     2890.387    4.3537236    4.3537236    4.3537236     2890.387    11778.704     6502.697   -9610.2399    2366.4129    5876.9044   -4736.1709    82.524433 
   36900    650.13438   -107.29739   0.58825525   -106.70913   -12024.844     4.362457     4.362457     4.362457   -12024.844    952.42635   -12911.539   -24115.419   -306.75658   -9223.3179    11867.966    83.022057 
   37000    869.85464   -107.49548   0.78706276   -106.70842    988.11872    4.3524036    4.3524036    4.3524036    988.11872   -6714.4151     2120.112    7558.6592   -3129.8197    8481.2606   -9665.1297    82.449399 
   37100    732.72126    -107.3719    0.6629816   -106.70892    7081.2735    4.3510962    4.3510962    4.3510962    7081.2735    19507.794   -3155.5485    4891.5747    4655.6032   -4843.5314   -1662.8825    82.375121 
   37200    639.53407   -107.28618   0.57866387   -106.70751   -15561.305    4.3665638    4.3665638    4.3665638   -15561.305   -2680.7858   -17157.844   -26845.285   -3744.5147   -6421.5251    13581.227    83.256744 
   37300     564.1566   -107.21805   0.51046075   -106.70759    16457.502    4.3467947    4.3467947    4.3467947    16457.502    12525.849    14852.297    21994.359   -1888.2437    9151.3259   -18984.223    82.131051 
   37400    760.55465   -107.39981   0.68816583   -106.71164   -5534.4877    4.3558303    4.3558303    4.3558303   -5534.4877    7834.0291   -10931.878   -13505.615    1457.5943   -10261.366    11386.137    82.644289 
   37500    807.52913   -107.43866   0.73066933   -106.70799   -4656.2646    4.3616672    4.3616672    4.3616672   -4656.2646   -5727.0681    -8510.301    268.57538   -4004.4739    -3961.827    8520.2294    82.976969 
   37600     625.2612   -107.27252   0.56574948   -106.70677   -873.21092    4.3504746    4.3504746    4.3504746   -873.21092    10457.019    6457.1804   -19533.832    2196.7988    4717.0256   -21041.098    82.339818 
   37700    611.60348    -107.2624   0.55339168   -106.70901   -14007.905    4.3566388    4.3566388    4.3566388   -14007.905   -349.40259   -8702.6093   -32971.702    4759.9721   -11444.413    20403.245    82.690316 
   37800    807.57077    -107.4392     0.730707   -106.70849    1651.3018    4.3571738    4.3571738    4.3571738    1651.3018   -828.16116    379.78937    5402.2772   -2065.4074   -1020.3977   -8854.5233    82.720786 
   37900    775.84675   -107.41179   0.70200244   -106.70979   -5673.3947    4.3559116    4.3559116    4.3559116   -5673.3947   -1061.2854   -4330.1787    -11628.72    5833.7017     3512.975   -9613.8587     82.64892 
   38000    579.70962   -107.23609   0.52453344   -106.71156    3803.8543    4.3512789    4.3512789    4.3512789    3803.8543    12538.198    7796.0328   -8922.6678    1215.4151    -12029.08    16390.895    82.385496 
   38100    693.15877   -107.33615   0.62718462   -106.70897   -406.74187    4.3608359    4.3608359    4.3608359   -406.74187      2430.64    4825.0939   -8475.9595   -841.16135     2510.542   -16577.408    82.929535 
   38200    696.15761   -107.33992   0.62989803   -106.71002   -9118.1149    4.3561199    4.3561199    4.3561199   -9118.1149   -3268.5797   -8275.3255   -15810.439   -287.76632   -3099.7807    2709.3381    82.660773 
   38300    677.69034   -107.32351   0.61318846   -106.71032    7992.0233    4.3486678    4.3486678    4.3486678    7992.0233    9385.2476    9966.0381    4624.7842    3558.6916   -13794.519    6958.0689    82.237274 
   38400    770.38458   -107.40532   0.69706016   -106.70826   -7191.1786    4.3630946    4.3630946    4.3630946   -7191.1786   -10.695999    1159.3648   -22722.204   -3390.8638    4551.8224    -16298.67    83.058463 
   38500     595.5153   -107.24973   0.53883476   -106.71089    -425.3142    4.3521399    4.3521399    4.3521399    -425.3142    986.19298    18164.057   -20426.192    717.41166   -12913.309    13378.583    82.434413 
   38600    733.90965   -107.37486   0.66405688    -106.7108    6710.1639    4.3538973    4.3538973    4.3538973    6710.1639    556.99797    11099.363    8474.1313   -450.50573   -2950.1594   -2849.2566    82.534315 
   38700    798.22711   -107.43091   0.72225267   -106.70866   -10306.252    4.3607157    4.3607157    4.3607157   -10306.252   -19105.407   -9958.3974   -1854.9503    -8406.758   -888.51697    -5855.291    82.922677 
   38800    535.70982   -107.19541   0.48472151   -106.71069    2041.7436    4.3500336    4.3500336    4.3500336    2041.7436   -1272.3081    14074.691   -6677.1525    3819.6036   -13791.655    12904.752    82.314784 
   38900    908.96766   -107.52835   0.82245304    -106.7059     -1921.36    4.3601168    4.3601168    4.3601168     -1921.36   -1814.0022   -1335.7065   -2614.3714   -4131.2532    7704.1451   -9017.7664    82.888518 
   39000    712.36709    -107.3537   0.64456472   -106.70914   -4766.5815     4.356591     4.356591     4.356591   -4766.5815   -18274.586    10061.813   -6086.9725   -3515.2118   -11490.105    2796.7223    82.687594 
   39100    542.16802   -107.20308   0.49056501   -106.71251    5560.3242    4.3512121    4.3512121    4.3512121    5560.3242   -2797.0374    16688.774    2789.2364    6078.9761   -6792.5518    16719.889      82.3817 
   39200     813.3314   -107.44278   0.73591934   -106.70686   -2349.6162    4.3611314    4.3611314    4.3611314   -2349.6162   -8006.7646   -3787.4314    4745.3473    -6277.957    2166.3941   -5659.1789    82.946394 
   39300    498.54184   -107.16329   0.45109114    -106.7122    972.81185    4.3531962    4.3531962    4.3531962    972.81185   -5272.7651     17337.45   -9146.2489    292.91653   -17520.273    13026.662    82.494449 
   39400    826.34346   -107.45694   0.74769293   -106.70925    257.84251    4.3566449    4.3566449    4.3566449    257.84251     3911.553   -8119.1555      4981.13    -365.7934    1441.9074    10100.277    82.690668 
   39500    835.45214    -107.4626   0.75593465   -106.70667   -6103.6719    4.3579797    4.3579797    4.3579797   -6103.6719   -22514.266   -9876.5655    14079.816   -8560.4669   -7821.1639   -7062.3556    82.766696 
   39600    374.34881   -107.05269   0.33871867   -106.71398   -5151.4051    4.3505089    4.3505089    4.3505089   -5151.4051   -5480.9267    6272.8134   -16246.102    2415.8952   -6952.1713    18822.915     82.34177 
   39700    904.52227   -107.52867   0.81843076   -106.71024   -5419.4073    4.3592488    4.3592488    4.3592488   -5419.4073   -11452.189   -3948.9206   -857.11239   -6402.5287    4749.0859   -381.08392    82.839022 
   39800    805.10444   -107.43892   0.72847541   -106.71044   -6181.7444    4.3588986    4.3588986    4.3588986   -6181.7444   -21372.258    1808.5718    1018.4533   -4457.6319   -9686.2064    1475.3033    82.819058 
   39900    457.40259   -107.12622   0.41386747   -106.71235    -2730.574    4.3510182    4.3510182    4.3510182    -2730.574   -3304.6969     5848.522   -10735.547     5023.304    1.1212851    22760.538    82.370688 
   40000     724.0426   -107.36344   0.65512896   -106.70832   -4100.8571    4.3583363    4.3583363    4.3583363   -4100.8571   -11004.452   -10353.624     9055.505   -10491.965    1192.0443   -6359.1259    82.787012 
   40100    660.34785   -107.30741   0.59749661   -106.70992   -7815.3464    4.3583727    4.3583727    4.3583727   -7815.3464    -7548.581    2276.1553   -18173.614     2951.216   -8551.7582     10353.89    82.789085 
   40200    752.47127   -107.39084   0.68085182   -106.70999    -6834.857    4.3547031    4.3547031    4.3547031    -6834.857   -254.49806   -8053.6188   -12196.454   -3684.6086    8039.1091    11568.393    82.580149 
   40300     864.2997   -107.48867   0.78203653   -106.70664   -1910.3666    4.3559308    4.3559308    4.3559308   -1910.3666   -16436.015   -7955.8301    18660.745    -12689.38   -2803.6317   -9451.2486    82.650008 
   40400    541.28761   -107.20017    0.4897684    -106.7104   -6382.9878    4.3556616    4.3556616    4.3556616   -6382.9878   -9518.4801    1215.9554   -10846.439    2430.9088   -2637.5399    16138.269    82.634689 
   40500    591.63478    -107.2459   0.53532358   -106.71057    -4126.625    4.3591537    4.3591537    4.3591537    -4126.625   -14906.302    330.12677    2196.2999   -11335.961    8416.7861    1328.0361    82.833602 
   40600    875.60149   -107.49928   0.79226263   -106.70702    2574.2692    4.3551794    4.3551794    4.3551794    2574.2692   -10193.543    6386.1624    11530.188   -5823.4767    -6116.703   -1871.6574    82.607248 
   40700    737.99112   -107.37829   0.66774988   -106.71054    268.86778    4.3524148    4.3524148    4.3524148    268.86778   -6804.5881    11559.077   -3947.8858    1088.3456    -1340.029    13558.418    82.450032 
   40800    513.68892   -107.17607   0.46479653   -106.71127   -10015.694    4.3617221    4.3617221    4.3617221   -10015.694   -18766.759   -12693.463    1413.1412    -11714.35    4575.9824   -12565.633    82.980105 
   40900    770.66732   -107.40487   0.69731599   -106.70756   -232.26858    4.3505813    4.3505813    4.3505813   -232.26858     6377.787   -3250.0896   -3824.5032     3157.657   -5634.2118    314.21567    82.345879 
   41000    731.11499   -107.37283   0.66152821    -106.7113    1946.2724    4.3550993    4.3550993    4.3550993    1946.2724     -4980.14    73.021726    10745.935   -8784.6837    866.12417    6195.2711    82.602691 
   41100    708.38905   -107.35235    0.6409653   -106.71139   -7280.9056    4.3630462    4.3630462    4.3630462   -7280.9056   -12005.092   -12252.391    2414.7657   -10579.304      2782.99   -14910.767    83.055699 
   41200    731.28388   -107.36802   0.66168102   -106.70634    12889.831    4.3448765    4.3448765    4.3448765    12889.831    7322.5001    17266.961    14080.033    2996.1639   -5101.5645    12991.922    82.022369 
   41300    416.36153   -107.08893   0.37673267    -106.7122   -8230.7987    4.3613755    4.3613755    4.3613755   -8230.7987   -18130.831    -3390.718   -3170.8474   -14618.481    3041.0301    -4057.612    82.960322 
   41400     804.5699   -107.43651   0.72799175   -106.70852   -13413.634    4.3606396    4.3606396    4.3606396   -13413.634   -10946.175   -15732.563   -13562.163   -1818.1758   -2018.4395   -16656.507     82.91834 
   41500    1003.4678   -107.61228   0.90795873   -106.70432    14796.747    4.3424601    4.3424601    4.3424601    14796.747    10416.137    14168.039    19806.066     1731.873   -4923.2043    14012.115    81.885596 
   41600    475.72892   -107.14314   0.43044952   -106.71269   -18536.596    4.3664545    4.3664545    4.3664545   -18536.596   -16662.329   -31849.104   -7098.3546   -12979.342    3473.3387   -19055.565    83.250491 
   41700    657.18231   -107.30262   0.59463236   -106.70799   -4660.1926    4.3557302    4.3557302    4.3557302   -4660.1926    -2893.849   -8941.3456   -2145.3834    7623.5737   -5070.3115   -4825.0394    82.638591 
   41800    705.11878   -107.34446   0.63800629   -106.70645    12917.011    4.3454871    4.3454871    4.3454871    12917.011    4383.4895    14010.583    20356.962   -4481.1802   -323.34477    8762.2687    82.056955 
   41900    612.64613   -107.26639    0.5543351   -106.71206   -20042.153    4.3671529    4.3671529    4.3671529   -20042.153   -15501.603   -26346.972   -18277.885   -8877.3901    3410.4651   -25999.532    83.290447 
   42000    991.85683   -107.60231   0.89745291   -106.70486    5108.9065    4.3496388    4.3496388    4.3496388    5108.9065    4417.1215    3352.2656    7557.3323    9366.0694   -3447.5178    3920.3617    82.292373 
   42100    501.36637   -107.16474   0.45364683   -106.71109   -4460.8537    4.3544239    4.3544239    4.3544239   -4460.8537    9525.3094     -13346.8   -9561.0702   -12103.748   -2780.9175   -9819.9365    82.564265 
   42200    621.35179   -107.27509   0.56221216   -106.71288   -11905.935    4.3582888    4.3582888    4.3582888   -11905.935   -6794.0278   -16253.316   -12670.462     1867.406    6044.1192   -17523.992    82.784306 
   42300    877.11597   -107.50162   0.79363296   -106.70798    11207.441    4.3553769    4.3553769    4.3553769    11207.441    20628.117    3895.5967    9098.6082    5646.4678   -10296.265    4429.0667    82.618488 
   42400     642.9425   -107.29421   0.58174789   -106.71246   -5017.1893    4.3554686    4.3554686    4.3554686   -5017.1893    5806.7085     -18968.3   -1889.9769   -8538.4063    1060.6297   -16465.183    82.623706 
   42500    643.60274    -107.2929   0.58234528   -106.71055    9361.1891    4.3513614    4.3513614    4.3513614    9361.1891    20546.548   -3240.8475    10777.867    7649.6072     7596.195   -1319.6914    82.390184 
   42600    688.76834   -107.33155   0.62321207   -106.70834   -6940.8209    4.3640207    4.3640207    4.3640207   -6940.8209   -4637.5433   -10318.128   -5866.7917    762.74719   -11435.567   -2879.9339    83.111362 
   42700    642.63013   -107.29218   0.58146525   -106.71072    4775.8335    4.3466247    4.3466247    4.3466247    4775.8335    8975.8861     1309.031    4042.5834   -5197.7282    9316.4884   -18018.015    82.121418 
   42800    848.21551   -107.47954   0.76748321   -106.71206    4260.8362    4.3547462    4.3547462    4.3547462    4260.8362    19365.144   -7866.3526    1283.7166    7298.5346   -1572.9936    4027.2705    82.582598 
   42900    728.59891   -107.36884    0.6592516   -106.70959   -9935.1764    4.3651851    4.3651851    4.3651851   -9935.1764    2116.9492   -18498.746   -13423.732    749.57778   -9429.5448   -13856.232    83.177908 
   43000    625.16637   -107.27032   0.56566367   -106.70466    16838.119    4.3430557    4.3430557    4.3430557    16838.119    28660.377    6640.0664    15213.913    -319.1013    7862.1482   -10314.165    81.919294 
   43100    704.15675   -107.34478   0.63713583   -106.70764   -5954.3702    4.3610858    4.3610858    4.3610858   -5954.3702   -11630.784    -4235.388   -1996.9385    11921.796   -5948.5326    8107.3025    82.943795 
   43200    734.63208   -107.37416   0.66471054   -106.70945    6716.7739    4.3538345    4.3538345    4.3538345    6716.7739    15419.306   -1006.0301    5737.0455   -5442.6677   -3387.7215   -17325.043    82.530743 
   43300    807.55903   -107.43983   0.73069638   -106.70913    4871.4119    4.3537564    4.3537564    4.3537564    4871.4119     16233.12   -7414.9082    5796.0239    7737.3619    13545.505    2014.1796    82.526302 
   43400    520.90165   -107.18291   0.47132276   -106.71159   -14137.785    4.3604843    4.3604843    4.3604843   -14137.785   -21956.616   -7904.4057   -12552.332    8106.5058   -8990.5179   -2750.4382    82.909476 
   43500     732.4721   -107.37005   0.66275615    -106.7073    15023.252    4.3443889    4.3443889    4.3443889    15023.252    23211.863    15716.545    6141.3474   -3132.7188    345.33033   -17173.688    81.994755 
   43600    863.16001   -107.48835   0.78100532   -106.70734    -16378.21    4.3672513    4.3672513    4.3672513    -16378.21   -15866.313    -20190.67   -13077.648    16002.778    5315.0118    4016.0334    83.296077 
   43700     518.3028   -107.18246   0.46897127   -106.71349    401.46315    4.3473628    4.3473628    4.3473628    401.46315    8450.3555   -2638.1283   -4607.8378    6157.6852   -17258.722   -15687.022    82.163261 
   43800    873.20403   -107.50139   0.79009335    -106.7113    10304.122    4.3504007    4.3504007    4.3504007    10304.122    20954.789    7466.7303    2490.8456    1451.0941    1925.5345   -3961.3012    82.335622 
   43900    647.03176   -107.29687   0.58544794   -106.71142    -17708.84    4.3673474    4.3673474    4.3673474    -17708.84   -26685.807   -14744.082   -11696.631    9558.8744    -3365.364    1180.5086    83.301578 
   44000    512.71555   -107.17453    0.4639158   -106.71061    16905.208    4.3388523    4.3388523    4.3388523    16905.208    24732.892    24060.242    1922.4894   -2538.5449    -13992.31   -16394.626     81.68167 
   44100    967.29319   -107.58189   0.87522721   -106.70667   -5999.2909    4.3641507    4.3641507    4.3641507   -5999.2909    3133.9598   -17194.366   -3937.4669   -1469.7503    1675.7678    5396.3923     83.11879 
   44200    403.13284   -107.08014   0.36476306   -106.71537   -215.18345    4.3539718    4.3539718    4.3539718   -215.18345   -363.24535     2243.099    -2525.404     7360.082    -8767.812   -10338.339    82.538547 
   44300    793.34215   -107.43023   0.71783265   -106.71239    2708.4062    4.3483825    4.3483825    4.3483825    2708.4062    8548.7169    14812.217   -15235.716   -4557.6887   -9860.4134   -11865.635     82.22109 
   44400    1015.8632   -107.62456   0.91917436   -106.70539   -3814.0123    4.3637573    4.3637573    4.3637573   -3814.0123    -3429.519     -11702.6    3690.0824    10759.089    1347.5652     5413.294    83.096317 
   44500    397.43727   -107.07272   0.35960959   -106.71311    4877.4493    4.3451418    4.3451418    4.3451418    4877.4493     9370.137   -918.38444    6180.5955    4922.2512   -13005.372   -17106.084    82.037395 
   44600    693.75591   -107.34107   0.62772492   -106.71335   -3781.4093    4.3601029    4.3601029    4.3601029   -3781.4093    9977.0974   -11839.521   -9481.8042   -1811.6725    2838.1664    2120.1496    82.887723 
   44700    871.82549   -107.49831   0.78884602   -106.70946    7231.4225    4.3545645    4.3545645    4.3545645    7231.4225     3351.558    793.80822    17548.901    14702.352    1405.4766    805.21492    82.572263 
   44800     561.2467   -107.22115   0.50782781   -106.71332   -516.43169    4.3503924    4.3503924    4.3503924   -516.43169    9203.6618    7095.7801   -17848.737   -7876.7481   -13167.878   -15131.352    82.335155 
   44900     760.5688   -107.39753   0.68817863   -106.70935    -6726.874    4.3593075    4.3593075    4.3593075    -6726.874   -5693.5141   -16395.687    1908.5792    9815.0799    8846.7482     5669.372    82.842369 
   45000     636.4981   -107.28619   0.57591685   -106.71027    10866.776    4.3484476    4.3484476    4.3484476    10866.776    11210.368    2459.5239    18930.437    4529.3521   -8373.9769   -10010.215     82.22478 
   45100    716.60371   -107.36204    0.6483981   -106.71364   -14993.511    4.3609579    4.3609579    4.3609579   -14993.511    -16332.54   -2815.7722   -25832.221   -3784.0955   -8761.1406   -9316.4453    82.936494 
   45200    830.16343   -107.46015   0.75114932   -106.70901    10601.644    4.3509139    4.3509139    4.3509139    10601.644    1565.6217    1129.5281    29109.784    10663.397     10980.29    6649.5066    82.364764 
   45300    612.34217   -107.26593   0.55406006   -106.71187   -5872.2549     4.352719     4.352719     4.352719   -5872.2549    5810.9046   -16628.876   -6798.7934   -3091.0268   -11840.427   -9244.3524     82.46732 
   45400    549.64256    -107.2085   0.49732814   -106.71117   -12148.887    4.3618514    4.3618514    4.3618514   -12148.887   -3848.5513   -18489.794   -14108.315   -1425.9982   -3852.6158   -2424.2777    82.987485 
   45500     935.5788   -107.55162   0.84653136   -106.70509    8999.1725    4.3485418    4.3485418    4.3485418    8999.1725    9104.7971    4703.9229    13188.798    7026.3331    5213.4811    6447.9853    82.230124 
   45600    627.49261   -107.27887    0.5677685   -106.71111   -10486.137    4.3580368    4.3580368    4.3580368   -10486.137   -11610.653   -2573.1154   -17274.642    -3233.321   -22070.652   -15679.115    82.769947 
   45700    616.66936   -107.26768   0.55797539    -106.7097    -4495.826    4.3565456    4.3565456    4.3565456    -4495.826   -12130.042   -9715.3038    8357.8676    1606.6588    3145.1019     404.5768    82.685009 
   45800    692.03892   -107.33416   0.62617136   -106.70799   -394.85275    4.3535262    4.3535262    4.3535262   -394.85275    3460.5043   -7574.6043    2929.5417    7622.7002    691.03373   -731.85592    82.513213 
   45900    678.76418   -107.32456   0.61416009    -106.7104   -9062.5677    4.3557243    4.3557243    4.3557243   -9062.5677   -14578.819    2613.4671   -15222.351   -3244.3844   -18059.227   -17312.896    82.638259 
   46000     847.9821   -107.47481   0.76727202   -106.70754   -3149.1692    4.3557535    4.3557535    4.3557535   -3149.1692   -7449.2625    429.50545   -2427.7504    7771.9042    14118.952    6903.5874    82.639918 
   46100    568.26714    -107.2253   0.51418005   -106.71112   -8514.4998    4.3525295    4.3525295    4.3525295   -8514.4998    674.95985   -12562.092   -13656.367     2043.976   -12991.119   -2213.1796    82.456552 
   46200    596.60972   -107.25334   0.53982501   -106.71352   -5382.7836    4.3550428    4.3550428    4.3550428   -5382.7836    592.32268   -13698.195   -3042.4784   -3508.0391   -10987.546   -10655.977    82.599477 
   46300    957.72577    -107.5732   0.86657041   -106.70663   -4627.5074    4.3604407    4.3604407    4.3604407   -4627.5074   -4552.0229   -12087.251    2756.7514    7098.3872    10560.118    10048.221    82.906989 
   46400    435.31904   -107.10755   0.39388581   -106.71367   -1693.5273    4.3486662    4.3486662    4.3486662   -1693.5273   -2265.4056    5988.5695   -8803.7458   -10072.982   -22687.395   -10562.815     82.23718 
   46500    761.87766   -107.40132   0.68936292   -106.71195   -4780.6874    4.3559358    4.3559358    4.3559358   -4780.6874   -10047.703   -7973.2906    3678.9318    3473.8685    5607.4435   -3440.5195    82.650298 
   46600    813.19084   -107.44448   0.73579217   -106.70869   -5959.2113     4.360551     4.360551     4.360551   -5959.2113   -276.40497   -8130.2274   -9471.0015    1547.7642   -1312.2631    4843.1163    82.913285 
   46700    505.60105   -107.17248   0.45747845     -106.715   -2165.4463     4.348837     4.348837     4.348837   -2165.4463   -173.62544    3793.0763    -10115.79   -7933.6009   -20766.597   -13328.543    82.246872 
   46800    979.26546    -107.5947   0.88605997   -106.70864     2152.316    4.3571499    4.3571499    4.3571499     2152.316    -3695.976    534.69448    9618.2295    5461.7361    1803.1095    3732.2451    82.719427 
   46900    518.36784   -107.18453   0.46903012    -106.7155    -276.4231    4.3552569    4.3552569    4.3552569    -276.4231    141.90531   -6712.4105    5741.2359    -2679.889   -14647.298   -915.65803    82.611659 
   47000    480.35706   -107.15246   0.43463716   -106.71782   -1888.3312    4.3546716    4.3546716    4.3546716   -1888.3312    3980.5512   -13892.301     4246.756   -5479.9732   -15128.897   -14569.615    82.578352 
   47100    1229.5612   -107.81816    1.1125328   -106.70563     5671.792    4.3556089    4.3556089    4.3556089     5671.792    4997.3797   -5402.1282    17420.125    1313.9269    6279.2049    3963.2616    82.631688 
   47200    383.77687   -107.06471   0.34724938   -106.71746   -5708.1293    4.3548535    4.3548535    4.3548535   -5708.1293   -9076.8719    1552.1109   -9599.6269   -3014.2545   -17748.599   -11883.107    82.588703 
   47300    656.77472    -107.3083   0.59426357   -106.71403   -7676.1532    4.3552908    4.3552908    4.3552908   -7676.1532   -7322.6269   -6738.4457   -8967.3869   -6736.7598   -3635.4004   -10751.115    82.613588 
   47400    944.11039   -107.56282   0.85425093   -106.70857    6974.6476     4.354421     4.354421     4.354421    6974.6476   -3750.5281     6745.044    17929.427    3743.3505    3189.1012    6191.8909    82.564101 
   47500    453.82002   -107.12735   0.41062589   -106.71672   -12580.946    4.3602609    4.3602609    4.3602609   -12580.946   -9086.2041   -8138.7982   -20517.835   -6944.2468   -24232.878   -14034.301    82.896736 
   47600    842.74317   -107.47089   0.76253173   -106.70836    12619.592    4.3477906    4.3477906    4.3477906    12619.592    4852.4186     12151.07    20855.289    187.10422     8531.677   -1274.9701    82.187517 
   47700    644.68194   -107.29535   0.58332177   -106.71202   -5408.2252    4.3579904    4.3579904    4.3579904   -5408.2252   -18170.346    762.28069    1183.3902   -1078.3191   -8429.6043   -1903.9096    82.767303 
   47800    415.11139   -107.09024   0.37560151   -106.71464   -15885.994    4.3606701    4.3606701    4.3606701   -15885.994   -1288.4356   -17731.196   -28638.352   -6857.2056   -14252.618   -17092.361    82.920079 
   47900    1144.3726    -107.7404    1.0354524   -106.70495    12776.796    4.3422446    4.3422446    4.3422446    12776.796    17826.523    10890.498     9613.368    5165.1223    18061.046     3060.287    81.873406 
   48000    652.53716   -107.30284   0.59042934   -106.71241   -14414.065      4.36369      4.36369      4.36369   -14414.065   -18175.039   -11123.465    -13943.69   -7726.1897   -18074.777   -12101.285    83.092472 
   48100    450.50806   -107.12084   0.40762916   -106.71321   -875.53624    4.3512063    4.3512063    4.3512063   -875.53624   -1910.5885    596.45452   -1312.4748    96.281154      484.873   -10452.559    82.381372 
   48200    781.01452   -107.41503   0.70667835   -106.70835    8624.9825    4.3511043    4.3511043    4.3511043    8624.9825   -4799.1112    13769.799    16904.259    2188.8515    7091.2198    10177.405    82.375581 
   48300    664.61816   -107.31253   0.60136048   -106.71117   -11838.927    4.3628852    4.3628852    4.3628852   -11838.927   -3549.6902   -12523.858   -19443.232   -5557.0507   -21338.241   -17146.031    83.046503 
   48400    783.16964   -107.41536   0.70862835   -106.70673    10699.683    4.3466364    4.3466364    4.3466364    10699.683    12386.844    15418.054      4294.15    1763.6566    11759.281   -130.13942    82.122079 
   48500    711.92792   -107.35153   0.64416734   -106.70736   -9035.8764    4.3587588    4.3587588    4.3587588   -9035.8764   -14228.621    232.22844   -13111.236   -1049.4516   -165.93157     2684.559    82.811091 
   48600    477.17885   -107.14319   0.43176145   -106.71143   -1792.8274    4.3533982    4.3533982    4.3533982   -1792.8274    13659.671   -3843.7625    -15194.39   -5810.4359   -9556.4417   -21897.204    82.505935 
   48700    926.33503   -107.54678    0.8381674   -106.70861    2409.0609    4.3535389    4.3535389    4.3535389    2409.0609    1800.0064    901.53831     4525.638   -1439.0342    15411.582    8030.1265    82.513931 
   48800    762.92661   -107.40045   0.69031203   -106.71013    -2820.142     4.357189     4.357189     4.357189    -2820.142   -582.17504   -8470.3291    592.07815   -567.29262   -6891.0883   -1568.7377    82.721654 
   48900    531.93079   -107.19083   0.48130216   -106.70953    6816.9639    4.3484052    4.3484052    4.3484052    6816.9639    6115.9746    11113.862    3221.0554   -6266.1121   -872.75178   -15366.322    82.222373 
   49000    723.25646   -107.36146   0.65441765   -106.70705   -11543.387    4.3623284    4.3623284    4.3623284   -11543.387   -19193.494   -1951.8015   -13484.866    4098.8341     9760.727    14713.975    83.014712 
   49100    712.12874   -107.35536   0.64434905   -106.71101    3854.5947    4.3471887    4.3471887    4.3471887    3854.5947    17103.557    5745.4685   -11285.241   -3633.1115   -7733.0697   -12780.118    82.153387 
   49200    812.30865   -107.44724   0.73499394   -106.71225    5353.5176    4.3531091    4.3531091    4.3531091    5353.5176    10014.899    8590.7564    -2545.102   -495.61399    5884.7182   -11907.427    82.489497 
   49300    746.79608   -107.38368   0.67571679   -106.70797   -14986.582    4.3634962    4.3634962    4.3634962   -14986.582   -19059.872    -14236.46   -11663.415    3002.7759    6071.1772     12303.04    83.081402 
   49400    394.76329   -107.06594   0.35719012   -106.70875    16312.633    4.3404832    4.3404832    4.3404832    16312.633    25580.811    16458.015     6899.074   -7598.9514   -7664.5466   -22953.475    81.773813 
   49500     859.0318   -107.48615   0.77727003   -106.70888   -7842.1198      4.36164      4.36164      4.36164   -7842.1198   -8766.6553   -1059.1142    -13700.59    5091.2483    8855.3487    5231.3615    82.975421 
   49600    799.19611   -107.43296   0.72312944   -106.70983   -1482.9949    4.3553722    4.3553722    4.3553722   -1482.9949    4938.2113   -2129.6901    -7257.506    -2400.142   -1628.6792    3674.6682    82.618217 
   49700    620.87903   -107.27165   0.56178439   -106.70986    7717.8178      4.34355      4.34355      4.34355    7717.8178    10888.147    13661.547   -1396.2402   -1358.5698   -6651.7447    -23996.55    81.947265 
   49800    747.52359   -107.38331   0.67637505   -106.70694   -12449.276    4.3629881    4.3629881    4.3629881   -12449.276   -22356.252   -295.64074   -14695.935    4809.5799    11623.369    15289.145    83.052383 
   49900    591.44183   -107.24542     0.535149   -106.71027    2324.1554    4.3507917    4.3507917    4.3507917    2324.1554    4199.1973    8519.0946   -5745.8256   -3122.3157   -4626.7814    -13749.92    82.357828 
   50000    753.85902   -107.39194   0.68210748   -106.70983    3117.6367    4.3522524    4.3522524    4.3522524    3117.6367    7092.6616    1399.3148    860.93376   -84.910279    1700.3297    -9231.537    82.440805 
   50100    781.48948   -107.41488   0.70710811   -106.70777   -1720.3868    4.3568006    4.3568006    4.3568006   -1720.3868   -8183.6034    2392.7852    629.65795    764.34499    7579.3716    17226.689    82.699533 
   50200    541.05344   -107.20102   0.48955652   -106.71146   -2361.9979     4.352801     4.352801     4.352801   -2361.9979    8084.1102   -765.58626   -14404.518   -4963.1886   -4622.8414   -22621.102    82.471983 
   50300    795.76437   -107.42845   0.72002433   -106.70843   -2012.6777    4.3537112    4.3537112    4.3537112   -2012.6777   -4243.4914    8701.3677   -10495.909    207.60118    828.60807    2972.9651    82.523731 
   50400    732.12399   -107.37153   0.66244117   -106.70909   -59.817301    4.3539554    4.3539554    4.3539554   -59.817301    5303.7268   -3178.1271   -2305.0517    1318.2937    3643.9345    2296.0935    82.537617 
   50500    653.62087   -107.30166    0.5914099   -106.71025   -6673.6456    4.3558619    4.3558619    4.3558619   -6673.6456   -687.17781   -17677.031   -1656.7277   -6114.4975   -4700.3989   -20969.421    82.646091 
   50600    688.28736   -107.33112   0.62277687   -106.70835    7139.9679    4.3494491    4.3494491    4.3494491    7139.9679   -14337.056    18054.131    17702.829    7956.9471    2752.6194    10403.208    82.281607 
   50700    698.42491   -107.34174   0.63194953   -106.70979   -7753.9529    4.3590726    4.3590726    4.3590726   -7753.9529   -8337.6418   -5578.5461   -9345.6708   -258.96258    4271.2415   -5980.1303     82.82898 
   50800    741.23383    -107.3786   0.67068394   -106.70791   -3077.7446     4.353461     4.353461     4.353461   -3077.7446   -8994.6735    1936.1933   -2174.7537   -1754.8487   -6527.7678   -10249.163    82.509502 
   50900    638.88343   -107.28676   0.57807515   -106.70869    2426.7535    4.3491396    4.3491396    4.3491396    2426.7535   -2445.7509    717.43711    9008.5743    11024.893    7483.9067    9827.2146    82.264044 
   51000    746.81666   -107.38541   0.67573541   -106.70967   -9462.0614    4.3601786    4.3601786    4.3601786   -9462.0614   -2085.6265   -13728.649   -12571.908   -4419.2524   -1698.6866    -15352.16    82.892043 
   51100    794.94328   -107.42799   0.71928139   -106.70871    4069.9094    4.3507304    4.3507304    4.3507304    4069.9094   -13395.971     12805.55    12800.149    8851.3999   -9298.1059   -3002.0729    82.354347 
   51200    580.92104   -107.23616   0.52562956   -106.71053   -2088.1102     4.352696     4.352696     4.352696   -2088.1102    623.87628    -12866.11     5977.903    4889.5692    9098.5099    3177.7531    82.466013 
   51300    653.02879   -107.29962   0.59087417   -106.70874    654.32158    4.3549437    4.3549437    4.3549437    654.32158    7371.2609   -9540.1872    4131.8911    92.245606   -8312.4134   -12122.651    82.593833 
   51400    696.04159    -107.3392   0.62979306    -106.7094    -1787.696    4.3547006    4.3547006    4.3547006    -1787.696   -24959.859    16297.075    3299.6953    8279.4573   -3507.2103    7141.0148    82.580003 
   51500    795.39109   -107.42907   0.71968657   -106.70938   -3795.2048    4.3547728    4.3547728    4.3547728   -3795.2048     770.9693    768.48909   -12925.073   -943.44797      11064.7   -6162.4279    82.584113 
   51600    848.43591   -107.47486   0.76768264   -106.70718    5363.4778    4.3505226    4.3505226    4.3505226    5363.4778   -1661.5425    14874.168    2877.8076    3793.5684   -12644.982   -5145.7217    82.342547 
   51700    481.96145   -107.14717   0.43608885   -106.71108   -13485.233    4.3597328    4.3597328    4.3597328   -13485.233   -18190.333   -23928.118    1662.7532    2196.8658    4294.4875    3482.0751    82.866617 
   51800    644.87575   -107.29314   0.58349713   -106.70964    3038.6951    4.3492785    4.3492785    4.3492785    3038.6951    12196.239   -14144.194    11064.041   -560.92311    4260.2782   -4420.6901    82.271926 
   51900    920.68432   -107.54182   0.83305452   -106.70877    4415.5759    4.3530854    4.3530854    4.3530854    4415.5759   -10672.999    20079.285    3840.4417    2365.1552   -17346.226    1844.4396    82.488151 
   52000    642.57067    -107.2922   0.58141145   -106.71079   -13655.381    4.3610299    4.3610299    4.3610299   -13655.381   -13285.105   -18136.881   -9544.1582    2077.5389    10060.654    6534.5063    82.940606 
   52100    601.47372   -107.25187   0.54422606   -106.70765    7282.5777    4.3440701    4.3440701    4.3440701    7282.5777     17774.19     2373.033    1700.5105   -2281.6608   -7720.8436   -3051.4868    81.976708 
   52200    682.69798   -107.32734   0.61771948   -106.70962   -2551.0514     4.358368     4.358368     4.358368   -2551.0514   -16002.006    16933.879   -8585.0273    3520.7887   -14375.734    1227.5254    82.788821 
   52300    826.54937   -107.45785   0.74787924   -106.70997   -2117.7797    4.3556605    4.3556605    4.3556605   -2117.7797   -2391.4622   -916.33722   -3045.5398    3060.3998    14153.178     2887.932    82.634628 
   52400    653.97652   -107.30237   0.59173169   -106.71064    14890.234    4.3461939    4.3461939    4.3461939    14890.234    4761.6867    32411.758    7497.2581   -5728.9535   -20132.035    -8317.654    82.097002 
   52500    700.72002   -107.34097    0.6340262   -106.70694   -10240.597    4.3612801    4.3612801    4.3612801   -10240.597   -14257.371   -18406.353    1941.9345     4785.818    -4564.575    5818.6612    82.954882 
   52600    572.60768   -107.22708   0.51810746   -106.70897   -1533.4258    4.3499601    4.3499601    4.3499601   -1533.4258    9212.2435   -12239.383   -1573.1381   -4703.8026    3362.5517   -2575.8546    82.310613 
   52700    759.77527   -107.39974   0.68746063   -106.71228    1613.6658    4.3510221    4.3510221    4.3510221    1613.6658   -8666.3887    27158.582   -13651.195   -2044.6898   -27795.057   -3387.5855    82.370912 
   52800    1001.7432   -107.61334   0.90639832   -106.70694   -1417.9701    4.3583434    4.3583434    4.3583434   -1417.9701   -2943.9135    3362.6251   -4672.6219    678.65151    8222.0269    2220.5175    82.787421 
   52900    397.20086   -107.07263   0.35939568   -106.71324    896.29897    4.3502336    4.3502336    4.3502336    896.29897    1801.2056    6287.9828   -5400.2914   -7577.0745   -13165.507   -6385.2225    82.326139 
   53000    575.46544   -107.23325   0.52069322   -106.71256     5153.973    4.3554017    4.3554017    4.3554017     5153.973   -6765.0457    20784.822    1442.1429    451.20054   -18579.214   -1923.7209    82.619895 
   53100    1037.8295   -107.64644   0.93904993   -106.70739    6314.4747    4.3517729    4.3517729    4.3517729    6314.4747    3565.1293    6967.5209    8410.7739   -5934.7562      9563.83   -2100.5397    82.413559 
   53200    356.86649   -107.04201    0.3229003   -106.71911   -1549.8285    4.3553153    4.3553153    4.3553153   -1549.8285   -11615.709     25576.88   -18610.656   -6816.8944   -30513.989   -2854.2238    82.614979 
   53300    1005.7101   -107.61651   0.90998759   -106.70652   -1752.8766    4.3567055    4.3567055    4.3567055   -1752.8766    3046.4759   -2910.5521   -5394.5534    142.74453   -2552.7743   -2237.8291    82.694117 
   53400    666.87775   -107.31488     0.603405   -106.71148     706.1404    4.3481167    4.3481167    4.3481167     706.1404    13407.019   -7597.2421   -3691.3556    -5348.044   -5690.6784     134.4054    82.206012 
   53500    404.87202   -107.08647   0.36633671   -106.72013   -12698.763    4.3573918    4.3573918    4.3573918   -12698.763   -15962.195    4052.8789   -26186.973     -4068.75   -26864.238   -4987.9597    82.733202 
   53600    1147.8914   -107.74501    1.0386362   -106.70637    5609.2957    4.3546031    4.3546031    4.3546031    5609.2957    -1624.924    12264.681    6188.1307    4231.2267     10795.88    -1211.818    82.574461 
   53700    409.66426   -107.08746   0.37067283   -106.71679   -6638.2672     4.351828     4.351828     4.351828   -6638.2672   -9833.6237    -496.2583   -9584.9195    -3218.421   -25114.062    -3515.016     82.41669 
   53800    626.45358   -107.28271   0.56682836   -106.71588   -1030.2114    4.3545639    4.3545639    4.3545639   -1030.2114    2126.4533    8069.4358   -13286.523   -3341.0341   -13036.976   -4405.8803    82.572226 
   53900    1006.1307    -107.6187    0.9103682   -106.70834     7815.226    4.3524155    4.3524155    4.3524155     7815.226    2149.9406      14507.8    6787.9373    4272.5889    776.95732    2627.3628    82.450074 
   54000    292.67654   -106.98262   0.26481988    -106.7178   -8493.7622    4.3564165    4.3564165    4.3564165   -8493.7622   -14155.608    12968.626   -24294.304   -8655.0168   -30833.691   -5653.6579    82.677664 
   54100     922.6763   -107.54308   0.83485691   -106.70822    7330.4606    4.3531895    4.3531895    4.3531895    7330.4606    13865.704    13252.411   -5126.7337    476.88715    8459.8581    4832.5286    82.494067 
   54200    857.42983    -107.4852   0.77582053   -106.70938    48.871601    4.3542978    4.3542978    4.3542978    48.871601    1926.4824    3484.4304   -5264.2981   -398.56636   -12381.123   -864.26479    82.557089 
   54300    484.78675   -107.15263   0.43864524   -106.71398   -1884.7974    4.3531627    4.3531627    4.3531627   -1884.7974   -519.67236    4623.3447   -9758.0644   -3324.6652   -16503.785   -1744.3197    82.492547 
   54400    822.45289   -107.45039   0.74417266   -106.70622    2793.6688    4.3539932    4.3539932    4.3539932    2793.6688   -12791.115    13766.958    7405.1628     3416.175    10702.728    4768.4059    82.539767 
   54500    547.19651    -107.2067    0.4951149   -106.71159   -5002.1986    4.3561314    4.3561314    4.3561314   -5002.1986     -16941.9    10143.506   -8208.2008   -1305.9531    -25616.87   -4875.5081     82.66143 
   54600    809.53985    -107.4433   0.73248867   -106.71081    7659.0253    4.3486684    4.3486684    4.3486684    7659.0253    26085.177    4032.8534   -7140.9547   -50.052058    802.80578   -261.63463    82.237305 
   54700    806.34768   -107.43859   0.72960032   -106.70899    3005.1019    4.3583472    4.3583472    4.3583472    3005.1019   -787.14666    14604.534   -4802.0818    1131.4163    4378.0824    405.79115    82.787632 
   54800    588.16659   -107.24147   0.53218549   -106.70928   -3777.2196    4.3541079    4.3541079    4.3541079   -3777.2196   -13819.469    11112.145   -8624.3349   -5078.2889   -19917.135   -2831.2125    82.546292 
   54900    585.67086   -107.23896   0.52992731   -106.70903    11133.935    4.3476461    4.3476461    4.3476461    11133.935    10780.736    18386.231     4234.837    1305.7332    15072.683   -1010.7751    82.179322 
   55000    861.38799   -107.48856   0.77940195   -106.70916    -2462.406    4.3596794    4.3596794    4.3596794    -2462.406    -7770.734    7410.3256   -7026.8096    -1395.878   -7716.5608    4938.9457    82.863576 
   55100    788.49805   -107.42225   0.71344961    -106.7088    12400.995     4.350119     4.350119     4.350119    12400.995     21355.25    18011.359   -2163.6233   -1280.7379   -11583.738   -6761.9202    82.319628 
   55200    524.66049   -107.18501   0.47472384   -106.71029   -2308.0316    4.3541298    4.3541298    4.3541298   -2308.0316   -5427.3517    3701.3605   -5198.1037     3878.384    12604.025    531.49144    82.547536 
   55300    635.33572   -107.28212   0.57486511   -106.70726   -623.19054     4.356047     4.356047     4.356047   -623.19054   -18046.102    20986.365    -4809.834   -1610.0221   -13675.003    1882.0822    82.656626 
   55400     828.4931   -107.45834   0.74963796    -106.7087    2315.6773    4.3487033    4.3487033    4.3487033    2315.6773    17819.597    682.83595   -11555.401   -35.891891    4301.4771   -16398.501    82.239284 
   55500    744.24486   -107.38457   0.67340839   -106.71117   -7928.2091    4.3590814    4.3590814    4.3590814   -7928.2091   -6019.9306   -342.99763   -17421.699    393.58982    8612.7128    8779.3191     82.82948 
   55600     868.3245   -107.49095   0.78567826   -106.70528    2018.4094    4.3525138    4.3525138    4.3525138    2018.4094   -2906.0741    11144.929   -2183.6266   -1829.8382   -9184.6332   -13372.694     82.45566 
   55700    422.97934   -107.09253    0.3827206   -106.70981   -4069.6265    4.3537991    4.3537991    4.3537991   -4069.6265    -498.9827    2063.7223   -13773.619    699.13258    11381.303   -6434.3974    82.528729 
   55800    700.14529   -107.34269   0.63350617   -106.70919   -650.28608    4.3542634    4.3542634    4.3542634   -650.28608   -6202.3946    8120.9845   -3869.4481    4307.6871   -32.850331    8915.6117    82.555135 
   55900    869.05747   -107.49444   0.78634146   -106.70809    7427.8019    4.3525957    4.3525957    4.3525957    7427.8019    23155.216    7027.8884   -7899.6985   -754.96916   -5582.1141   -18058.464    82.460313 
   56000    600.94241   -107.25539   0.54374532   -106.71164   -9292.4405    4.3562144    4.3562144    4.3562144   -9292.4405    2164.9459   -6398.1403   -23644.127    508.95146    15120.852     7873.302    82.666156 
   56100    691.04344   -107.33272   0.62527063   -106.70745    5593.7263    4.3487024    4.3487024    4.3487024    5593.7263   -7592.0743    19871.234    4502.0195    2496.0876   -1872.3306   -2642.6914    82.239235 
   56200     653.7503   -107.30186   0.59152701   -106.71034    -14630.21     4.358834     4.358834     4.358834    -14630.21   -7185.0736   -11353.058   -25352.498   -4348.3935     3927.968   -12791.885    82.815377 
   56300    698.06762   -107.34307   0.63162625   -106.71144   -3219.6484    4.3524937    4.3524937    4.3524937   -3219.6484    4884.8863   -1665.1091   -12878.722    2291.7518    16503.302    14152.674    82.454515 
   56400    966.93191   -107.58207   0.87490032   -106.70717    2856.4579    4.3484365    4.3484365    4.3484365    2856.4579    6848.6004   -243.54476     1964.318    223.14115   -5528.3068   -10100.065    82.224149 
   56500      495.532   -107.16042   0.44836776   -106.71205   -10217.362    4.3601533    4.3601533    4.3601533   -10217.362    -5453.972   -2610.3515   -22587.762    485.17073    7873.8159   -2117.1588    82.890597 
   56600    638.68372    -107.2865   0.57789445   -106.70861    1949.0433    4.3501527    4.3501527    4.3501527    1949.0433    1442.6279    7172.3489    -2767.847    2061.6151      7537.64    14449.983    82.321545 
   56700    750.93927   -107.38723   0.67946563   -106.70776     1642.563     4.353725     4.353725     4.353725     1642.563    13110.847   -65.221673   -8117.9363   -446.81496    -5547.324   -20860.758    82.524513 
   56800    639.43258   -107.29058   0.57857203   -106.71201   -7673.2815    4.3543359    4.3543359    4.3543359   -7673.2815    14069.082   -9142.7665    -27946.16   -1274.5683    13580.726    12025.546    82.559259 
   56900    810.47836   -107.44301   0.73333785   -106.70968    3312.6592    4.3523813    4.3523813    4.3523813    3312.6592     3600.564    15366.991   -9029.5775   -51.569417    2552.5153    1250.6064    82.448127 
   57000    736.17146   -107.37574   0.66610341   -106.70963    -9160.124    4.3558063    4.3558063    4.3558063    -9160.124   -6097.3858   -3417.8936   -17965.093    497.16705    3323.2064   -13309.806    82.642926 
   57100     415.0591   -107.08827    0.3755542   -106.71271   -5306.6832    4.3511033    4.3511033    4.3511033   -5306.6832    7506.0259   -7079.6307   -16346.445    -162.7994    15978.744    24140.421    82.375525 
   57200    941.79816   -107.55814   0.85215877   -106.70598   -2438.8288    4.3576262    4.3576262    4.3576262   -2438.8288    6006.0399   -10557.555   -2764.9715    1553.7182   -5369.3248    -12154.49    82.746554 
   57300    729.51909   -107.37041   0.66008421   -106.71032   -2323.2213    4.3525847    4.3525847    4.3525847   -2323.2213    10590.132   -410.38924   -17149.406    1046.1402    11333.459    9110.7349    82.459687 
   57400    587.74226   -107.24506   0.53180155   -106.71326   -24.577884    4.3523444    4.3523444    4.3523444   -24.577884    14640.805     6464.222   -21178.761   -1192.6001    7131.2734    11565.709    82.446034 
   57500    894.11529   -107.51516   0.80901431   -106.70614    -2481.158    4.3577042    4.3577042    4.3577042    -2481.158     1726.586   -3035.9358   -6134.1242   -2215.9231    -7102.555   -8741.6634       82.751 
   57600    400.02572   -107.07532   0.36195168   -106.71337    819.98842    4.3488173    4.3488173    4.3488173    819.98842    29056.338   -5558.4509   -21037.921   -1673.3863    17331.558    21539.279    82.245754 
   57700    761.44422   -107.40134   0.68897073   -106.71237   -8558.7684    4.3601028    4.3601028    4.3601028   -8558.7684   -8818.0481   -2053.4514   -14804.806   -2084.2791   -2458.7042   -458.48618    82.887716 
   57800    999.30204   -107.61117   0.90418948   -106.70698    8437.3091    4.3495901    4.3495901    4.3495901    8437.3091    16019.431    11670.018   -2377.5214   -2838.1389   -2580.5601    8774.1852    82.289606 
   57900    412.99181   -107.08881   0.37368367   -106.71512   -5550.2302     4.353137     4.353137     4.353137   -5550.2302    6502.0395   -7490.8125   -15661.918    1743.5905      14936.4    18960.541    82.491083 
   58000    700.17022   -107.34183   0.63352873   -106.70831   -8008.5701     4.359801     4.359801     4.359801   -8008.5701   -3373.1341   -16013.548   -4639.0279    1659.0457   -16098.286   -3132.2706    82.870506 
   58100    731.98612   -107.37028   0.66231642   -106.70797     7522.765     4.346769     4.346769     4.346769     7522.765    29320.272   -962.47429   -5789.5027    721.92021     8941.007     15162.71    82.129595 
   58200    606.87761   -107.26237   0.54911561   -106.71325   -11852.352      4.35901      4.35901      4.35901   -11852.352   -9867.5128    2791.0677    -28480.61    4552.1112    7212.9388    7734.5348     82.82541 
   58300    996.84438   -107.60815   0.90196575   -106.70619     2111.427    4.3518476    4.3518476    4.3518476     2111.427    3798.5492    4662.8895   -2127.1576     644.6873   -14978.451   -4855.9933    82.417805 
   58400    495.76627   -107.16025   0.44857974   -106.71167   -5437.3355    4.3525013    4.3525013    4.3525013   -5437.3355    7845.5373   -15126.214   -9031.3296   -2614.5974    19314.793    14182.869    82.454951 
   58500     553.3059   -107.21292    0.5006428   -106.71228   -12619.907    4.3563526    4.3563526    4.3563526   -12619.907   -16638.072   -12427.589   -8794.0594    2747.7822   -9061.8662    779.70343    82.674024 
   58600    934.54585   -107.55339   0.84559673    -106.7078    5861.5884    4.3506445    4.3506445    4.3506445    5861.5884    25326.525   -4265.8595   -3475.9006   -4387.6252   -3782.8899    -253.2878    82.349465 
   58700    629.43324   -107.28312   0.56952443    -106.7136     -15783.6    4.3597409    4.3597409    4.3597409     -15783.6   -12075.593   -7361.7924   -27913.414   -677.34621    16466.236    15130.359    82.867079 
   58800    745.18097   -107.38283    0.6742554   -106.70857    5468.3628    4.3456593    4.3456593    4.3456593    5468.3628    11981.724    338.91369    4084.4505    4250.1341   -10365.947   -5902.7988    82.066709 
   58900    606.68323    -107.2599   0.54893974   -106.71096   -12107.876    4.3574263    4.3574263    4.3574263   -12107.876    1195.3271   -26900.509   -10618.447   -768.73556     8282.239    1775.7055    82.735168 
   59000    524.33742   -107.18742   0.47443152   -106.71298   -12193.641    4.3577384    4.3577384    4.3577384   -12193.641   -22650.224    2425.1731   -16355.871    714.86808     15208.33    9063.0623    82.752946 
   59100    1026.1305   -107.63322   0.92846448   -106.70475    10243.783    4.3434764    4.3434764    4.3434764    10243.783    16698.587    13123.626    909.13584    3788.8474   -12356.698   -10789.174    81.943102 
   59200    538.63875   -107.20007   0.48737166    -106.7127   -15425.695    4.3626231    4.3626231    4.3626231   -15425.695   -7858.0519   -14421.246   -23997.788   -944.83329    18005.342    7606.5364    83.031537 
   59300    683.64391    -107.3279   0.61857538   -106.70933    1949.5114    4.3499934    4.3499934    4.3499934    1949.5114    2588.4786    2253.1892    1006.8663   -230.27893    11594.579    3705.7793    82.312498 
   59400    730.18882   -107.36906   0.66069019   -106.70837     2696.109    4.3493702    4.3493702    4.3493702     2696.109    18302.946   -14845.325    4630.7059    2342.1394   -5980.7674    -11091.51     82.27713 
   59500    475.25143    -107.1434   0.43001748   -106.71338   -14992.569    4.3611718    4.3611718    4.3611718   -14992.569    -20381.21   -8502.2837   -16094.212   -1839.2603    27974.637    11726.906    82.948702 
   59600    1062.4611   -107.66669   0.96133714   -106.70535    5668.1036    4.3493351    4.3493351    4.3493351    5668.1036    8886.9861   -454.78947    8572.1141    2204.0992   -1863.4302   -9430.0332    82.275135 
   59700    626.86379   -107.27866   0.56719953   -106.71146   -9263.5332    4.3542262    4.3542262    4.3542262   -9263.5332   -3837.2208   -19992.159   -3961.2202   -1747.2446    5639.7657   -6588.6702    82.553022 
   59800    495.22357   -107.16251   0.44808869   -106.71442   -7765.2859    4.3544351    4.3544351    4.3544351   -7765.2859   -14720.891   -2769.4891   -5805.4779   -490.71234    19668.573    11755.121    82.564903 
   59900    960.99157   -107.57417   0.86952537   -106.70464    2433.6918    4.3561584    4.3561584    4.3561584    2433.6918    4136.9465       2821.4    342.72874   -1362.1285   -7992.8041   -12202.318    82.662967 
   60000    462.79022   -107.13253   0.41874231   -106.71379   -6715.1332     4.353284     4.353284     4.353284   -6715.1332   -11539.617    1179.6374   -9785.4195   -4739.4819    21746.346    7400.0163     82.49944 
   60100    775.92607   -107.41508   0.70207421   -106.71301    7781.3794    4.3501089    4.3501089    4.3501089    7781.3794    8226.2708    6092.0822    9025.7851    1608.4184    6697.3135    11044.936    82.319055 
   60200    879.30765   -107.50365   0.79561604   -106.70803   -1152.2338    4.3583793    4.3583793    4.3583793   -1152.2338   -949.77195   -8836.9776    6330.0481   -3373.8673    1820.0385   -7024.0143    82.789462 
   60300    247.79873   -106.94051   0.22421349   -106.71629   -8639.4392    4.3521347    4.3521347    4.3521347   -8639.4392   -9448.4288    1883.7241   -18353.613   -2271.7236    25756.458    12321.991    82.434117 
   60400    934.53701   -107.55458   0.84558872   -106.70899   -1464.6837     4.353267     4.353267     4.353267   -1464.6837    308.69492    802.16542   -5504.9114   -300.38415    -10270.99    5149.4825    82.498474 
   60500    878.80428   -107.50655   0.79516058   -106.71139   -2598.0361    4.3549719    4.3549719    4.3549719   -2598.0361   -10798.557   -72.847696    3077.2965    669.98831    15751.423   -4367.7338    82.595441 
   60600    516.36918   -107.18273   0.46722169   -106.71551   -8218.4499    4.3515126    4.3515126    4.3515126   -8218.4499    692.48256     -12538.5   -12809.332   -3934.1711    15488.058    15906.763    82.398772 
   60700    805.37828   -107.43704   0.72872319   -106.70832    4477.1167    4.3541736    4.3541736    4.3541736    4477.1167    2981.7117    10076.034    373.60491    -780.4083   -14366.252    437.30984    82.550027 
   60800     536.7073   -107.19833   0.48562405   -106.71271    -4845.868    4.3546353    4.3546353    4.3546353    -4845.868   -1483.6097    4283.3915   -17337.386   -1540.1422    25419.835    3297.2372    82.576288 
   60900    658.78457   -107.31025   0.59608212   -106.71417    -4211.218    4.3531364    4.3531364    4.3531364    -4211.218     4086.112    688.76052   -17408.527   -6641.0578   -7930.6007    15258.141    82.491049 
   61000    1040.3227   -107.64909   0.94130587   -106.70779    4272.0624     4.351857     4.351857     4.351857    4272.0624   -1435.9455    12363.375    1888.7571    161.74263   -9656.6668   -6400.1745    82.418335 
   61100    429.26753   -107.10048   0.38841029   -106.71207   -11772.039    4.3593755    4.3593755    4.3593755   -11772.039   -2191.1609    -5385.456     -27739.5    -2083.757    20988.812    13540.936    82.846247 
   61200    595.09879   -107.24731   0.53845789   -106.70886   -4667.0008    4.3515727    4.3515727    4.3515727   -4667.0008   -7382.3401    4589.2495   -11207.912    1652.6136   -21908.348    3356.0528    82.402183 
   61300     841.1158   -107.46759   0.76105925   -106.70653    9921.0775    4.3493077    4.3493077    4.3493077    9921.0775    8079.9946    17067.426    4615.8117    2223.0221    13891.104    -2993.065     82.27358 
   61400    644.17392   -107.29391    0.5828621   -106.71104   -14101.075    4.3643749    4.3643749    4.3643749   -14101.075    2542.3311   -18354.085    -26491.47    2423.4215    9063.1973    19465.649    83.131599 
   61500    768.17837   -107.40193   0.69506393   -106.70686     7163.283    4.3462311    4.3462311    4.3462311     7163.283    9752.8121    11300.211    436.82549   -2435.7248   -14350.928   -6510.4762    82.099109 
   61600    601.98412   -107.25304   0.54468788   -106.70835    176.73152    4.3501791    4.3501791    4.3501791    176.73152    10536.101    8063.4327   -18069.339    2004.3476    17127.217    11000.939    82.323042 
   61700    580.20837     -107.235   0.52498473   -106.71002   -24537.222    4.3644874    4.3644874    4.3644874   -24537.222   -22933.436   -21379.722   -29298.508   -3371.6945   -8290.3864    14025.621    83.138029 
   61800    953.79193   -107.56835   0.86301098   -106.70534    10932.827    4.3424184    4.3424184    4.3424184    10932.827    4219.0001    16801.935    11777.547   -4083.7311    -4543.837   -9573.0211    81.883234 
   61900    731.26769   -107.37156   0.66166637   -106.70989   -6242.4828    4.3556975    4.3556975    4.3556975   -6242.4828    11478.181   -4044.8821   -26160.748    2975.1962    9214.7756    19210.683    82.636733 
   62000    540.81799   -107.19886   0.48934348   -106.70952   -10379.808     4.359464     4.359464     4.359464   -10379.808   -9187.6783   -4826.3524   -17125.395   -7727.1822   -10271.927    3012.8882     82.85129 
   62100    628.85788   -107.27455   0.56900383   -106.70554    13671.016    4.3448202    4.3448202    4.3448202    13671.016    18407.604    13953.497    8651.9461    4097.7871    3715.8253   -4214.6942    82.019178 
   62200    676.24609   -107.32202   0.61188167   -106.71014   -9938.1989    4.3569868    4.3569868    4.3569868   -9938.1989    4888.3426   -14305.537   -20397.403   -3863.8529    2030.5653     24063.45    82.710133 
   62300    872.92544   -107.49769   0.78984128   -106.70784    1677.5149     4.354217     4.354217     4.354217    1677.5149   -2821.0883    2579.1755    5274.4575   -5640.3296   -10689.112   -5026.1057    82.552495 
   62400    686.86307   -107.33079   0.62148814    -106.7093   -6454.2427    4.3526442    4.3526442    4.3526442   -6454.2427    10933.414   -4810.4454   -25485.697    825.83347    2892.8296     10442.62     82.46307 
   62500    627.82878   -107.27762   0.56807267   -106.70955   -8104.9361    4.3523411    4.3523411    4.3523411   -8104.9361   -7129.3747   -4427.8917   -12757.542   -2364.0743   -2787.6791    16891.276    82.445844 
   62600      714.645   -107.35522   0.64662581    -106.7086     4165.145    4.3539957    4.3539957    4.3539957     4165.145   -6112.9044    6179.6898     12428.65   -864.16283   -7110.1653   -8205.9266    82.539912 
   62700    637.57522   -107.28982   0.57689146   -106.71292   -7852.2784     4.356332     4.356332     4.356332   -7852.2784    17704.287   -12104.701   -29156.422    3633.9133    7626.0358    21534.596     82.67285 
   62800    889.93563   -107.51268   0.80523246   -106.70744    16233.363    4.3484356    4.3484356    4.3484356    16233.363     20333.02    17980.159    10386.909   -524.13763    -1165.828   -1940.0369    82.224099 
   62900    579.24911   -107.23598   0.52411677   -106.71186    -5398.695    4.3582969    4.3582969    4.3582969    -5398.695    12550.226   -12982.581   -15763.729   -1855.6297   -451.98615    8624.6781    82.784771 
   63000    471.60198   -107.14049   0.42671538   -106.71378   -5701.2709    4.3530313    4.3530313    4.3530313   -5701.2709    14112.861   -10606.462   -20610.212     1789.319    6987.1337    19746.821    82.485076 
   63100    984.51485   -107.59711   0.89080973    -106.7063     13032.55    4.3488336    4.3488336    4.3488336     13032.55    1605.4059    19853.752    17638.493   -7962.7655   -764.85041     -7527.51    82.246681 
   63200    519.10013   -107.18431   0.46969271   -106.71462   -14558.884    4.3613797    4.3613797    4.3613797   -14558.884    15574.009    -19044.65   -40206.012    568.85168   -988.06801    23829.054    82.960563 
   63300    835.70451   -107.46637     0.756163   -106.71021    3596.3495    4.3495979    4.3495979    4.3495979    3596.3495     9958.474    11849.371   -11018.797   -489.79607    8526.1296   -858.12926     82.29005 
   63400    863.95525   -107.48945   0.78172486   -106.70772    8079.3148    4.3508446    4.3508446    4.3508446    8079.3148    9255.7364    8466.0009     6516.207   -1898.2776   -1703.2537    5955.8097    82.360827 
   63500    332.57618   -107.01706   0.30092192   -106.71614   -14867.996     4.359458     4.359458     4.359458   -14867.996    7574.0026   -20216.625   -31961.366    3609.7289    4100.1199    18343.289    82.850951 
   63600    892.39898   -107.51541   0.80746135   -106.70795    10333.438    4.3506578    4.3506578    4.3506578    10333.438    9101.0801    16817.127    5082.1066    1043.6509    8399.9629   -9953.8192    82.350221 
   63700    794.32291   -107.42859   0.71872006   -106.70987    2820.6952    4.3539858    4.3539858    4.3539858    2820.6952    32285.845   -5756.7679   -18066.992    1023.6995   -3448.3149    22315.486    82.539346 
   63800    518.70809   -107.18324   0.46933798    -106.7139   -5365.0818    4.3542397    4.3542397    4.3542397   -5365.0818    15331.971   -9346.1596   -22081.056   -317.62388    7069.6795   -4248.3396    82.553789 
   63900    791.01153   -107.42446   0.71572386   -106.70874    6968.9445    4.3515835    4.3515835    4.3515835    6968.9445   -2546.7184    14279.403    9174.1487    2715.4227    793.69683    308.05468    82.402798 
   64000    604.86418   -107.25796   0.54729382   -106.71067   -1838.5669    4.3555178    4.3555178    4.3555178   -1838.5669    19749.455   -1592.8872   -23672.269   -2124.1008   -2187.1792    15533.486    82.626503 
   64100    646.51994   -107.29742   0.58498483   -106.71244    -7871.918    4.3532987    4.3532987    4.3532987    -7871.918    -4303.615    597.05966   -19909.199    5734.5199    9041.4052   -17796.364    82.500278 
   64200    994.29758   -107.60759   0.89966134   -106.70793    6232.8017    4.3518024    4.3518024    4.3518024    6232.8017    13656.438    5568.2937   -526.32617    814.21087   -1355.3759    13276.506    82.415235 
   64300    695.80318    -107.3402   0.62957734   -106.71062   -8189.2034    4.3569155    4.3569155    4.3569155   -8189.2034    4571.1792   -8318.9248   -20819.865    4696.8849    5567.9177   -2988.2856    82.706073 
   64400    390.59149   -107.06613   0.35341539   -106.71272   -3198.8777    4.3541536    4.3541536    4.3541536   -3198.8777   -8530.1877     5647.053   -6713.4984   -17.043591    6743.7883    -11485.71    82.548891 
   64500    887.31715   -107.50819   0.80286321   -106.70533    9969.8645    4.3528487    4.3528487    4.3528487    9969.8645    24549.173    10835.817   -5475.3962   -3824.5568   -5338.0587    8269.2705    82.474695 
   64600    618.56784   -107.27309   0.55969318    -106.7134   -5781.1638     4.355037     4.355037     4.355037   -5781.1638    12642.674   -1163.0284   -28823.137    1510.1475    11367.601   -15704.424    82.599142 
   64700    667.54821   -107.31785   0.60401165   -106.71383    2345.7245     4.352602     4.352602     4.352602    2345.7245   -11198.632    16497.739    1738.0657   -3114.2144   -1833.9776   -3798.3888    82.460674 
   64800    926.61284   -107.54473   0.83841877   -106.70631    1037.1525    4.3559297    4.3559297    4.3559297    1037.1525    43.022166    13031.403   -9962.9674    1018.6732   -625.77537   -4421.0139    82.649949 
   64900    277.81698   -106.96748   0.25137464   -106.71611   -14076.241    4.3546129    4.3546129    4.3546129   -14076.241     -15454.1    2830.1366   -29604.761    4005.3786     11061.29   -15075.188    82.575018 
   65000    949.81851   -107.57018   0.85941574   -106.71076    7296.1579    4.3516275    4.3516275    4.3516275    7296.1579     11444.62    7377.1608    3066.6928    2657.3722   -3807.2499    845.40395      82.4053 
   65100    880.14692   -107.50711   0.79637543   -106.71074    917.10269    4.3565175    4.3565175    4.3565175    917.10269    11871.683    2153.2361   -11273.611   -1002.6908    6138.6285    -8128.537    82.683412 
   65200    356.61533   -107.03738   0.32267304   -106.71471    -5294.533    4.3543862    4.3543862    4.3543862    -5294.533   -11611.749    7376.0501     -11647.9    129.86584    6944.1528   -8159.9141    82.562119 
   65300    884.69742   -107.50524   0.80049282   -106.70475    7615.3897    4.3552806    4.3552806    4.3552806    7615.3897     6542.417    13168.744    3135.0082   -4058.5515    -171.4957      8499.39    82.613006 
   65400    596.16506   -107.25197   0.53942268   -106.71255   -2204.4079    4.3515018    4.3515018    4.3515018   -2204.4079   -3807.2603    17600.594   -20406.557   -1833.9726    9652.5213   -7972.9943    82.398158 
   65500    713.08095   -107.35906   0.64521063   -106.71385   -2099.3392    4.3537249    4.3537249    4.3537249   -2099.3392   -3832.4189    1260.1143   -3725.7129    3842.1799    16.863855    1472.5871    82.524512 
   65600    887.32811   -107.50998   0.80287312   -106.70711    -682.1968    4.3583161    4.3583161    4.3583161    -682.1968   -2560.0582    11421.001   -10907.533   -202.15644    4566.7334    12667.067     82.78586 
   65700     553.2709   -107.21058   0.50061114   -106.70997   -1683.9067    4.3472765    4.3472765    4.3472765   -1683.9067   -9098.4632    16922.989   -12876.245    1175.2464    8384.8021   -9635.1344    82.158367 
   65800    611.09503   -107.26491   0.55293163   -106.71198   -2548.0722     4.355361     4.355361     4.355361   -2548.0722    14629.852   -6836.4881    -15437.58    1769.9883   -3027.6932    15419.156     82.61758 
   65900     797.6546   -107.43046   0.72173465   -106.70872    504.93148    4.3571774    4.3571774    4.3571774    504.93148     2321.543    13381.794   -14188.542   -2197.8993    11230.425    6975.0833    82.720989 
   66000    721.30469   -107.36111   0.65265164   -106.70846    4213.6276    4.3487502    4.3487502    4.3487502    4213.6276   -2294.5544    19297.959   -4362.5222    1632.0016    2423.4375   -2483.9382    82.241945 
   66100    576.78936   -107.23119   0.52189114    -106.7093   -7013.7174    4.3581249    4.3581249    4.3581249   -7013.7174   -3589.9848   -1774.7606   -15676.407    2716.6473    707.37481    21733.936    82.774969 
   66200    762.72399   -107.39538   0.69012869   -106.70525   -984.70485    4.3540033    4.3540033    4.3540033   -984.70485   -10399.211    22854.108   -15409.011    535.40638    11655.219   -5356.8223    82.540342 
   66300     750.3914   -107.38605    0.6789699   -106.70708   -7340.0782    4.3516939    4.3516939    4.3516939   -7340.0782    7953.1286   -16532.089   -13441.275    8220.8448    -4305.877    13330.429    82.409071 
   66400    721.74922   -107.36224   0.65305386   -106.70919   -5365.8229    4.3557272    4.3557272    4.3557272   -5365.8229   -1936.2285    3348.6972   -17509.937   -1841.2601    7396.1553    11189.621    82.638422 
   66500    789.40021   -107.42028    0.7142659   -106.70602     -1076.97    4.3549479    4.3549479    4.3549479     -1076.97   -13093.512    27470.317   -17607.716    2965.1993    3653.9664   -6237.4577    82.594075 
   66600     503.2455   -107.16504    0.4553471   -106.70969   -5745.6125    4.3522716    4.3522716    4.3522716   -5745.6125    11059.418   -3480.6827   -24815.573     1650.708   -2653.4718    22754.612    82.441893 
   66700    712.12975   -107.35368   0.64434996   -106.70933    3110.3618    4.3537451    4.3537451    4.3537451    3110.3618    4508.2713    19265.958   -14443.144   -5371.8575    13643.757   -3528.7961     82.52566 
   66800    844.74737   -107.47077   0.76434517   -106.70643   -5304.4612    4.3584518    4.3584518    4.3584518   -5304.4612   -1007.2099   -284.09261   -14622.081    2284.6517   -882.35068    9956.6776    82.793597 
   66900    568.84589   -107.22364   0.51470371   -106.70894    640.24465    4.3480862    4.3480862    4.3480862    640.24465    4363.6728   -2044.4452   -398.49367    3079.3613    5951.9804    15991.661    82.204279 
   67000    578.39224    -107.2331   0.52334146   -106.70976    -3514.965    4.3547645    4.3547645    4.3547645    -3514.965    -9401.921    10354.022   -11496.996   -3723.1328    12057.866   -9796.1283    82.583643 
   67100    889.25954   -107.51167   0.80462072   -106.70705   -7991.8482    4.3582467    4.3582467    4.3582467   -7991.8482     3186.319   -10828.946   -16332.918    4047.5746   -8456.4617    13607.388    82.781908 
   67200    751.96267   -107.38894   0.68039162   -106.70855    1981.2308    4.3479928    4.3479928    4.3479928    1981.2308     2443.748    9766.8341   -6266.8896    5003.3886        13934     630.9724    82.198984 
   67300    589.79973   -107.24406   0.53366319    -106.7104   -9372.4195    4.3554927    4.3554927    4.3554927   -9372.4195   -19002.226    12546.494   -21661.526    -7590.198    633.43188   -6014.8983    82.625074 
   67400    723.78565   -107.36269   0.65489647   -106.70779   -1757.0751    4.3527946    4.3527946    4.3527946   -1757.0751   -1620.7165    3181.5192   -6832.0282    8738.8914   -4216.5795    11673.291     82.47162 
   67500    569.95094   -107.22751   0.51570358   -106.71181    -638.8917    4.3542115    4.3542115    4.3542115    -638.8917   -699.01999    4708.8967   -5926.5518   -290.36618    19372.019   -5639.6857    82.552184 
   67600    850.75179   -107.47747    0.7697781   -106.70769   -3356.3444    4.3551375    4.3551375    4.3551375   -3356.3444    -5853.684    3030.5267   -7245.8761   -1889.9386   -8164.3261   -3648.3866    82.604862 
   67700    686.05208    -107.3277   0.62075434   -106.70695    2734.5836    4.3506919    4.3506919    4.3506919    2734.5836   -2960.2732    724.79061    10439.233    9258.8033     8491.881    4965.2286    82.352161 
   67800    447.99224   -107.11713    0.4053528   -106.71178    -15806.29    4.3563697    4.3563697    4.3563697    -15806.29   -17512.595    50.558366   -29956.834   -3144.6169    8522.5208    -16256.11    82.674996 
   67900    983.87742     -107.597   0.89023297   -106.70677   -2333.8093    4.3522241    4.3522241    4.3522241   -2333.8093    13.040899    3814.0239   -10828.493    4904.1587   -13447.996    667.13645    82.439197 
   68000    817.32067    -107.4486   0.73952892   -106.70907   -5378.8249    4.3543574    4.3543574    4.3543574   -5378.8249   -3928.8915   -6638.8852   -5568.6981    3773.8553    16152.277    -4608.951    82.560479 
   68100    458.51618   -107.12651   0.41487507   -106.71163   -8089.2865    4.3542926    4.3542926    4.3542926   -8089.2865   -20461.299    10425.767   -14232.327   -5403.9481   -5097.1089   -11766.357    82.556794 
   68200    743.33646   -107.37931   0.67258645   -106.70672    3686.2197    4.3525159    4.3525159    4.3525159    3686.2197   -7675.0742    11350.196    7383.5371    4555.1605   -1836.4376    6752.1921    82.455781 
   68300    646.14155   -107.29507   0.58464245   -106.71043    1772.8573    4.3545401    4.3545401    4.3545401    1772.8573    7632.9878    7054.1557   -9368.5715   -3885.5273    15702.742   -8405.7713    82.570875 
   68400    723.15308    -107.3636    0.6543241   -106.70928    1314.9884     4.352834     4.352834     4.352834    1314.9884    3230.2487    13293.208   -12578.492   -6156.8373   -14475.954   -5207.0318    82.473859 
   68500    749.93885   -107.38387   0.67856043   -106.70531    625.81977    4.3556286    4.3556286    4.3556286    625.81977   -4273.2263    3100.9074    3049.7781    12238.767    4894.9471    1378.2842    82.632808 
   68600    575.14562   -107.22966   0.52040384   -106.70926   -6668.1705    4.3520671    4.3520671    4.3520671   -6668.1705   -8112.7673    11553.272   -23445.017   -5222.0693    295.32584   -14421.447    82.430277 
   68700    804.67333    -107.4366   0.72808534   -106.70852   -1864.3593    4.3533167    4.3533167    4.3533167   -1864.3593   -729.67433    6948.8938   -11812.297    6439.3082    -14221.05    -2098.379    82.501301 
   68800    888.03431   -107.50931   0.80351211    -106.7058   -4191.4301    4.3572883    4.3572883    4.3572883   -4191.4301   -159.28416   -8692.4497   -3722.5564    14349.095    6988.0312   -2330.2479    82.727307 
   68900    481.12064   -107.14519   0.43532806   -106.70986    2451.6127      4.34899      4.34899      4.34899    2451.6127   -5314.3188    15327.855   -2658.6977   -10021.558   -4817.5468   -12883.703    82.255553 
   69000     700.8145   -107.34338   0.63411169   -106.70927    3431.3008    4.3541691    4.3541691    4.3541691    3431.3008   -5650.5466     13704.87    2239.5791    13557.757   -5367.0342    7489.2603     82.54977 
   69100    771.48454   -107.40624   0.69805543   -106.70819    5839.8796     4.355482     4.355482     4.355482    5839.8796    11758.365    8970.2456   -3208.9715    1164.4013    7242.0498    -8692.653    82.624467 
   69200    597.72922   -107.25051   0.54083796   -106.70967    870.31506    4.3505199    4.3505199    4.3505199    870.31506    4357.0128    8257.7587   -10003.826   -4084.3711   -8157.9603   -7426.8806    82.342392 
   69300    753.51661   -107.38889   0.68179766   -106.70709    238.85567    4.3546902    4.3546902    4.3546902    238.85567    1765.4605   -3533.6385     2484.745    13692.192   -3125.8068    7487.2356    82.579413 
   69400    802.93837   -107.43422   0.72651551   -106.70771     234.9285    4.3521942    4.3521942    4.3521942     234.9285    2639.7425    13235.521   -15170.478   -5530.5757    2751.0694   -19230.146    82.437495 
   69500    628.05883   -107.27898   0.56828083    -106.7107   -3753.0266    4.3545369    4.3545369    4.3545369   -3753.0266   -7182.8233    8700.5416   -12776.798    5352.2733   -11063.737     7976.774     82.57069 
   69600    727.69245    -107.3655   0.65843142   -106.70706    4781.3929    4.3532993    4.3532993    4.3532993    4781.3929    13305.677    1098.1231   -59.620956    4543.8931     2111.836   -2550.1069    82.500311 
   69700    649.31071   -107.29529   0.58750997   -106.70778    1384.2301    4.3527726    4.3527726    4.3527726    1384.2301     1536.947     5108.861   -2493.1177   -6623.3896   -2715.2203   -14743.641    82.470369 
   69800    686.52363   -107.33095   0.62118101   -106.70977   -1917.2013    4.3531162    4.3531162    4.3531162   -1917.2013   -9095.5458    4538.4487   -1194.5069     10344.78   -5417.5303      14423.6      82.4899 
   69900    824.29001   -107.45291   0.74583493   -106.70708    6250.3043    4.3523607    4.3523607    4.3523607    6250.3043    23450.662    3146.8785   -7846.6277     1138.701    2800.0299   -18414.806    82.446958 
   70000    622.95019    -107.2717   0.56365843   -106.70804   -13317.073    4.3591505    4.3591505    4.3591505   -13317.073   -4319.3346   -18033.561   -17598.324    1248.1635   -9528.2419   -4251.1886    82.833419 
   70100    584.74819   -107.23733   0.52909245   -106.70824    2017.6163    4.3488915    4.3488915    4.3488915    2017.6163    3865.3193    428.86721    1758.6625     15127.57   -2488.5056    8321.7881    82.249965 
   70200    911.05443   -107.53035    0.8243412   -106.70601    3063.0572    4.3539682    4.3539682    4.3539682    3063.0572    13130.863    8648.8804   -12590.572   -2906.0435   -2224.8717   -18205.129    82.538345 
   70300    644.86468   -107.29385   0.58348711   -106.71036   -7002.0174    4.3573312    4.3573312    4.3573312   -7002.0174   -14086.169    3246.3955   -10166.279    6301.6202   -9853.6862    11765.727    82.729751 
   70400    571.52156   -107.22576   0.51712472   -106.70863    5493.6044    4.3481924    4.3481924    4.3481924    5493.6044    13321.679   -5317.0009    8476.1352     6840.195    2516.5228   -1414.8411    82.210304 
   70500    778.84321    -107.4108    0.7047137   -106.70608   -4279.9561    4.3585276    4.3585276    4.3585276   -4279.9561    5849.0031   -18831.425    142.55361   -6379.8913   -2794.6933   -13756.358    82.797915 
   70600    695.28045   -107.33944   0.62910437   -106.71033   -1899.6466    4.3508473    4.3508473    4.3508473   -1899.6466   -10434.186    4475.9044    259.34226    13036.749    -6678.802    10669.791    82.360986 
   70700    843.06957   -107.47213   0.76282706   -106.70931    3306.0559    4.3522295    4.3522295    4.3522295    3306.0559    16395.137    2286.0142   -8762.9839   -1579.1741    6178.9844   -15907.514    82.439503 
   70800    633.08811   -107.28009   0.57283143   -106.70726   -9573.9107    4.3596106    4.3596106    4.3596106   -9573.9107   -1526.6991   -9797.6176   -17397.415    2161.2485    -6610.398   -686.87749    82.859649 
   70900    456.38161   -107.12231   0.41294367   -106.70937    1514.9711    4.3468648    4.3468648    4.3468648    1514.9711    4463.6741   -3900.8839     3982.123    14807.984   -4390.2304    6582.0245    82.135023 
   71000    926.30188   -107.54514   0.83813741     -106.707     5569.845     4.353916     4.353916     4.353916     5569.845    11309.743    2303.9242    3095.8673   -8604.8019    2347.2039   -12516.688    82.535374 
   71100    720.01749   -107.36172   0.65148696   -106.71023   -1960.5051    4.3577654    4.3577654    4.3577654   -1960.5051   -8405.0206    5485.4635   -2961.9581    6379.3147   -12370.765     6772.847    82.754485 
   71200    618.72485   -107.26851   0.55983524   -106.70868    5512.1399    4.3499662    4.3499662    4.3499662    5512.1399    10045.322   -442.17826    6933.2757    8285.3941    3958.4077   -3479.3177    82.310958 
   71300    686.47085   -107.32796   0.62113325   -106.70683    92.464024    4.3529296    4.3529296    4.3529296    92.464024     6820.677   -8951.6212    2408.3363    -10268.71   -6385.2636   -8882.8743    82.479295 
   71400    603.22216    -107.2583   0.54580808    -106.7125   -2012.5266    4.3540057    4.3540057    4.3540057   -2012.5266   -5702.4495    3521.5546   -3856.6848    12819.524   -5920.0367    7329.8187    82.540475 
   71500    960.73784   -107.57664   0.86929579   -106.70734   -279.28043    4.3555269    4.3555269    4.3555269   -279.28043   -32.525878       5810.7   -6616.0154    1625.3747    4813.8599   -492.50835    82.627024 
   71600    652.95585   -107.29916   0.59080817   -106.70835   -788.15283    4.3519367    4.3519367    4.3519367   -788.15283   -1158.1849    944.33586   -2150.6094   -7184.2229   -11345.364   -307.24819    82.422867 
   71700    557.26131   -107.21361   0.50422174   -106.70939    -3352.555    4.3531941    4.3531941    4.3531941    -3352.555    2459.7912   -14327.648    1810.1914    18455.106    -296.8393    12872.581    82.494328 
   71800    776.90659   -107.41044   0.70296141   -106.70748    1719.7197    4.3553085    4.3553085    4.3553085    1719.7197    40.380802   -3015.1674    8133.9459   -14975.828   -202.06934    -5896.213    82.614594 
   71900    685.28629   -107.33015   0.62006144   -106.71009    4592.0968    4.3518497    4.3518497    4.3518497    4592.0968   -6840.5832    14597.957    6018.9165     4036.674      -9077.2    506.21557    82.417923 
   72000    738.76907   -107.37622   0.66845378   -106.70776     2637.238    4.3556135    4.3556135    4.3556135     2637.238   -3840.1122    5245.7236    6506.1027     7134.831    1163.2116     6559.744    82.631952 
   72100    609.46546   -107.25953   0.55145716   -106.70807   -2660.2393    4.3528596    4.3528596    4.3528596   -2660.2393   -4605.2004   -8077.7215    4702.2038   -19745.671   -3680.0098   -9311.5582    82.475312 
   72200    605.22614   -107.25738   0.54762133   -106.70976    -2946.174    4.3504627    4.3504627    4.3504627    -2946.174    637.62145   -11361.516    1885.3725    14684.132   -7035.9192    6118.6204    82.339145 
   72300    831.15023    -107.4602    0.7520422   -106.70816   -3185.6328    4.3577452    4.3577452    4.3577452   -3185.6328   -11780.307    1752.0244    471.38434   -7486.1838    1909.1473    8012.0902    82.753335 
   72400    800.75203   -107.43363   0.72453727    -106.7091   -5763.3377    4.3539258    4.3539258    4.3539258   -5763.3377    -14003.71    2195.6979   -5482.0008   -11561.439   -9863.4255   -4333.2622    82.535933 
   72500    618.52753   -107.26939   0.55965671   -106.70973    9776.6282    4.3471902    4.3471902    4.3471902    9776.6282    10745.137     15450.51    3134.2383    14589.382    -3399.439    8806.3352    82.153474 
   72600    691.18295   -107.33477   0.62539686   -106.70937   -4497.1212    4.3580111    4.3580111    4.3580111   -4497.1212   -9249.5748   -8379.3628    4137.5741   -13205.437   -265.18449     3503.199    82.768486 
   72700    663.06013    -107.3093   0.59995074   -106.70935   -3025.1902    4.3545831    4.3545831    4.3545831   -3025.1902   -10842.165    5812.3386   -4045.7438     423.7488   -12142.422   -8143.3762    82.573319 
   72800    724.66368   -107.36452   0.65569092   -106.70883    4311.2584    4.3474131    4.3474131    4.3474131    4311.2584   -693.37405    1634.7331    11992.416    10338.267    1946.5656    13393.668    82.166112 
   72900    790.21206   -107.42262   0.71500048   -106.70762   -7946.3939    4.3600414    4.3600414    4.3600414   -7946.3939   -12349.414   -14250.407    2760.6387   -14886.032   -4401.3368   -2946.0244    82.884219 
   73000    634.35872   -107.28308    0.5739811   -106.70909    725.48452    4.3523523    4.3523523    4.3523523    725.48452      6563.13     598.4704   -4985.1469    11315.257   -8669.6578    2819.6317    82.446479 
   73100    609.03771    -107.2605   0.55107012   -106.70943    6189.0543    4.3488706    4.3488706    4.3488706    6189.0543   -4495.9027     15466.51    7596.5552   -2737.5256     2741.295     15669.85    82.248781 
   73200    754.40373   -107.39036   0.68260035   -106.70776   -3161.8021    4.3568075    4.3568075    4.3568075   -3161.8021   -19309.931    18946.989   -9122.4641    -7009.038   -7775.9339   -8800.4246    82.699926 
   73300    607.37279   -107.25996   0.54956367    -106.7104   -3068.5462    4.3540848    4.3540848    4.3540848   -3068.5462    3142.5358   -864.32061   -11483.854    11264.266   -3066.0186    7697.5282    82.544976 
   73400    922.12816   -107.54149   0.83436094   -106.70713   -1391.4016    4.3521036    4.3521036    4.3521036   -1391.4016     929.9293   -11014.966    5910.8324    -9148.735    260.72885    6791.1978    82.432349 
   73500    720.70131    -107.3611   0.65210569   -106.70899   -1403.3014    4.3520546    4.3520546    4.3520546   -1403.3014   -4938.2549    6790.7814   -6062.4307    4647.8208   -5934.3862   -9002.2475    82.429565 
   73600    436.15328   -107.10742   0.39464065   -106.71278   -6357.6044    4.3564317    4.3564317    4.3564317   -6357.6044   -11451.755    971.24703   -8592.3051     7569.783   -320.62139    18027.289    82.678525 
   73700    835.21067   -107.46196   0.75571617   -106.70625    6302.6487    4.3528746    4.3528746    4.3528746    6302.6487   -9541.6235    25817.243    2632.3272    -5194.099   -1684.0943    2431.6959    82.476167 
   73800    661.29583   -107.31037   0.59835436   -106.71202    3007.8608    4.3492719    4.3492719    4.3492719    3007.8608    10052.406     7567.901   -8596.7246    9691.0749   -3000.9622    -2444.219    82.271552 
   73900    741.77508   -107.38308   0.67117368    -106.7119   -10005.504    4.3578339    4.3578339    4.3578339   -10005.504   -5853.2157   -14739.696   -9423.5989    5422.9136    2872.7726    18767.912    82.758385 
   74000    796.88897    -107.4278   0.72104189   -106.70676    1603.0139    4.3520275    4.3520275    4.3520275    1603.0139   -15927.432    23530.159    -2793.686   -3041.4828   -1611.2026   -10112.585    82.428024 
   74100    432.61694   -107.10466    0.3914409   -106.71322   -6604.2087    4.3507625    4.3507625    4.3507625   -6604.2087    2031.3849   -8183.5663   -13660.445    10704.523   -2026.1736    7923.8323     82.35617 
   74200    826.73853    -107.4598    0.7480504   -106.71175   -6.1589479    4.3565031    4.3565031    4.3565031   -6.1589479    -1704.997    11935.249   -10248.729   -1288.6025    5904.3793    10215.286    82.682592 
   74300    883.02167   -107.50805   0.79897657   -106.70907    8004.3816    4.3511225    4.3511225    4.3511225    8004.3816    7508.7799    15369.102    1135.2629   -3018.0246   -4442.5646   -2590.6598    82.376614 
   74400    395.22454   -107.07111   0.35760747   -106.71351   -4657.4924    4.3532747    4.3532747    4.3532747   -4657.4924    1681.6377   -7417.7049     -8236.41    9738.8168    2977.2387    13981.639    82.498913 
   74500     727.0831   -107.36526   0.65788007   -106.70738   -5547.2808    4.3562526    4.3562526    4.3562526   -5547.2808   -22989.887    12815.983   -6467.9383   -8237.9032    6755.5472    1387.8683     82.66833 
   74600    814.58993   -107.44555   0.73705809   -106.70849    5519.2522     4.349258     4.349258     4.349258    5519.2522    18360.501    878.75391   -2681.4979     4611.368   -6288.1547    -1711.433     82.27076 
   74700    713.86389   -107.35771   0.64591905   -106.71179   -6702.4584    4.3557652    4.3557652    4.3557652   -6702.4584    4951.7585   -8728.5373   -16330.596    5424.0606    8841.6265    8662.6893    82.640587 
   74800    748.30124   -107.38563   0.67707868   -106.70855    -1199.259     4.353731     4.353731     4.353731    -1199.259   -23316.063    25274.951   -5556.6651   -8658.8352    4966.9773   -3067.0889    82.524854 
   74900     589.5287   -107.24312   0.53341796    -106.7097    9902.8516    4.3462349    4.3462349    4.3462349    9902.8516    11199.442     15563.92    2945.1927    6488.3976   -4460.4864     5698.451    82.099324 
   75000    548.94643   -107.21072   0.49669826   -106.71402   -9370.2633    4.3608072    4.3608072    4.3608072   -9370.2633   -16084.628    5204.5067   -17230.669   -2832.2673    14269.524    11121.332    82.927896 
   75100    1025.2308    -107.6349    0.9276504   -106.70725    6804.1324    4.3513551    4.3513551    4.3513551    6804.1324    3672.7946    8003.3022    8736.3003   -7529.2057    1723.4661   -4501.1525    82.389826 
   75200     651.0594   -107.29857   0.58909222   -106.70948    6125.3652    4.3474671    4.3474671    4.3474671    6125.3652    11082.347    5053.5687    2240.1799    2181.8075    3330.4738    12331.712     82.16917 
   75300    378.29576   -107.05588   0.34228995   -106.71359    -14837.66    4.3596714    4.3596714    4.3596714    -14837.66   -40777.838    8230.4134   -11965.554   -11146.473    14415.946   -227.90319    82.863116 
   75400    970.13998   -107.58411   0.87780304   -106.70631    8139.0074    4.3488382    4.3488382    4.3488382    8139.0074     8687.038    13448.639    2281.3453   -7029.7181   -4370.1397    1583.1183    82.246941 
   75500    661.72208   -107.31229   0.59874004   -106.71355    112.64177    4.3533745    4.3533745    4.3533745    112.64177    10308.851    10675.869   -20646.795    845.89719    11734.338    12049.662    82.504587 
   75600     715.9243   -107.35935   0.64778335   -106.71157   -7210.8096    4.3559352    4.3559352    4.3559352   -7210.8096   -24384.393      5442.83   -2690.8658   -17746.766     7279.378   -1006.2257     82.65026 
   75700    793.73173   -107.42469   0.71818515   -106.70651    14073.338    4.3481963    4.3481963    4.3481963    14073.338    10331.137    17327.994    14560.882    2762.4188    -5469.712    9958.5546    82.210523 
   75800    371.52965   -107.05174   0.33616784   -106.71557   -9767.7349    4.3569641    4.3569641    4.3569641   -9767.7349    -21327.61    55.695011   -8031.2894   -9643.5923    19016.307    7423.0454    82.708841 
   75900    913.05181   -107.53659   0.82614847   -106.71044    4030.9305    4.3528614    4.3528614    4.3528614    4030.9305   -1487.1665   -655.65452    14235.613   -10163.611   -2172.6409   -5507.6481    82.475415 
   76000    896.31807   -107.51939   0.81100742   -106.70838    5130.5213    4.3521267    4.3521267    4.3521267    5130.5213    3800.3893    9790.1834    1800.9911    7024.4122     5594.965    7345.8472     82.43366 
   76100    323.85744   -107.00847   0.29303302   -106.71544   -11733.992    4.3532041    4.3532041    4.3532041   -11733.992   -34931.125    5185.4046   -5456.2546   -18471.252    16735.928   -733.44318    82.494897 
   76200    852.40326   -107.48061   0.77127238   -106.70934    468.36398    4.3538938    4.3538938    4.3538938    468.36398    861.64995    1614.0275   -1070.5855     4316.059   -5341.8864   -6825.5884    82.534117 
   76300    760.88858   -107.39903   0.68846798   -106.71056   -2013.1962    4.3553159    4.3553159    4.3553159   -2013.1962     1370.096    8110.7714   -15520.456   -4387.0945    10827.743    9030.1091    82.615012 
   76400    645.74878   -107.29737   0.58428707   -106.71308   -3650.6911    4.3489182    4.3489182    4.3489182   -3650.6911   -8959.1987   -3714.0959    1721.2213   -16517.377    7982.1296   -6388.7823    82.251478 
   76500    856.28281   -107.48277   0.77478268   -106.70799    5960.1547    4.3547378    4.3547378    4.3547378    5960.1547    3662.1871    5501.7844    8716.4926    8961.5108   -1313.1943   -4691.7011     82.58212 
   76600    489.00093   -107.15603   0.44245832   -106.71357   -8038.2205    4.3548423    4.3548423    4.3548423   -8038.2205   -28372.642    4621.1763   -363.19537   -15210.928    14046.528    5784.0205    82.588064 
   76700    606.49213   -107.26192   0.54876682   -106.71315    1202.8823    4.3492216    4.3492216    4.3492216    1202.8823    6468.4593   -13912.145    11052.333    -6266.188    3366.9918   -13723.694    82.268697 
   76800     971.3565   -107.58588   0.87890378   -106.70698   -925.05322    4.3565824    4.3565824    4.3565824   -925.05322   -2451.6743     1235.934   -1559.4193    7234.9153    5196.9054   -2925.9986    82.687109 
   76900    548.73659   -107.20961    0.4965084    -106.7131      -7288.5    4.3505713    4.3505713    4.3505713      -7288.5   -28999.023    5168.0696    1965.4528   -15957.476    10925.006   -426.71624    82.345309 
   77000    591.92547   -107.24742    0.5355866   -106.71184   -2999.5381    4.3522879    4.3522879    4.3522879   -2999.5381    8580.6108   -10291.749   -7287.4762    1827.2663   -4709.5786    -13005.65    82.442822 
   77100    826.40376   -107.45551   0.74774749   -106.70777   -7781.8864    4.3575632    4.3575632    4.3575632   -7781.8864   -8226.9707    1392.7998   -16511.488    3646.1522     10722.16     2584.868    82.742964 
   77200    722.29237   -107.36404   0.65354531    -106.7105   -1594.4645    4.3478238    4.3478238    4.3478238   -1594.4645    5180.5262   -6375.7821   -3588.1376   -14964.882    3053.3339   -5393.4389    82.189397 
   77300    789.81336   -107.42416   0.71463973   -106.70952   -3255.6745    4.3546376    4.3546376    4.3546376   -3255.6745    6665.5974   -9321.7413   -7110.8797    8487.2449   -929.12572   -11103.164    82.576419 
   77400    657.06037    -107.3034   0.59452203   -106.70888   -6113.1164    4.3543027    4.3543027    4.3543027   -6113.1164   -26329.729    7827.1836    163.19568   -4807.0281    15444.151     3902.351     82.55737 
   77500    499.87745   -107.16333   0.45229962   -106.71103    -4022.642    4.3509618    4.3509618    4.3509618    -4022.642    6306.9874   -15535.148    -2839.765   -8808.5009    -1794.808   -17848.489    82.367487 
   77600    788.28262   -107.42232   0.71325468   -106.70907   -1589.0026    4.3551448    4.3551448    4.3551448   -1589.0026    4756.0808   -3114.0349   -6409.0537    9628.2777    6659.0317   -5273.7844    82.605279 
   77700    808.25643   -107.43972    0.7313274   -106.70839    1747.4705    4.3506843    4.3506843    4.3506843    1747.4705   -12826.068    9035.0791    9033.4001   -13719.288     8778.721   -1450.8245    82.351727 
   77800    561.89764   -107.21881   0.50841679   -106.71039   -8233.6209    4.3556902    4.3556902    4.3556902   -8233.6209    3703.9869    -15870.79   -12534.059    1416.6846   -2884.1831   -20506.368    82.636315 
   77900    675.45196   -107.31854   0.61116313   -106.70737     1160.479    4.3520964    4.3520964    4.3520964     1160.479    80.732773    7662.2711   -4261.5669    2165.8866    6856.7171    9283.4052    82.431941 
   78000    787.97565    -107.4214   0.71297692   -106.70843   -3244.4011    4.3510585    4.3510585    4.3510585   -3244.4011    7662.8897    -6878.886   -10517.207   -9767.8952    1707.6568   -13454.677    82.372979 
   78100     751.5727   -107.39072   0.68003878   -106.71068   -5180.6564    4.3561563    4.3561563    4.3561563   -5180.6564    6785.9974     -9030.57   -13297.397    5573.4902     -2653.39     -9107.57    82.662846 
   78200    778.13377   -107.41199   0.70407179   -106.70792    2994.6438     4.350953     4.350953     4.350953    2994.6438   -14292.346    10429.566    12846.711    -976.0316      9092.14    7848.2062    82.366987 
   78300    514.05349   -107.17532    0.4651264    -106.7102   -5012.4955    4.3524821    4.3524821    4.3524821   -5012.4955     1453.985   -12006.508   -4484.9632   -1968.0948   -5815.7706    -27122.47    82.453858 
   78400    591.99524   -107.24565   0.53564974      -106.71    416.95315    4.3538796    4.3538796    4.3538796    416.95315    1996.0624    486.20882   -1231.4118    2948.7859    1034.5618    4209.2321    82.533304 
   78500    842.74281   -107.47132   0.76253141   -106.70879    825.56444    4.3527464    4.3527464    4.3527464    825.56444    2296.3844    2614.4666   -2434.1576    4535.2886    7881.1751   -2238.2726    82.468878 
   78600     817.8723   -107.45003   0.74002804      -106.71   -2055.1054    4.3520199    4.3520199    4.3520199   -2055.1054    6753.4014   -2011.7484   -10906.969   -3445.3358   -9940.6505   -21769.192    82.427591 
   78700    679.62417   -107.32389   0.61493823   -106.70896   -1619.2791    4.3545206    4.3545206    4.3545206   -1619.2791    -5649.284    1577.4804   -786.03358    8047.1486    5786.6591    18155.796    82.569765 
   78800    596.37254   -107.24926    0.5396104   -106.70965   -4527.3361    4.3527015    4.3527015    4.3527015   -4527.3361     3339.822   -9125.2939   -7796.5364    4232.5432    1868.4485   -16722.723    82.466328 
   78900    680.39612    -107.3248   0.61563671   -106.70916    5757.8507    4.3518045    4.3518045    4.3518045    5757.8507    8007.1345    7278.9318     1987.486   -1985.3677   -676.77468   -8278.3239    82.415352 
   79000     768.4408   -107.40459   0.69530139   -106.70929   -3555.6183     4.357462     4.357462     4.357462   -3555.6183   -15391.712   -3769.0414    8493.8984     14707.56    6829.7435    12103.216    82.737202 
   79100     729.3399    -107.3681   0.65992207   -106.70817    7637.8576    4.3481808    4.3481808    4.3481808    7637.8576    9326.8023    7730.2575     5856.513    615.03812    2119.1896   -24966.943    82.209646 
   79200     608.8734   -107.26076   0.55092145   -106.70984   -922.17298    4.3524993    4.3524993    4.3524993   -922.17298   -2009.6924   -922.94207     166.1155    2806.8087    6056.8814    9759.0808    82.454835 
   79300    482.15913   -107.14825   0.43626771   -106.71199   -10541.696    4.3583182    4.3583182    4.3583182   -10541.696    706.42583   -13540.421   -18791.093    11994.815    3756.9073    209.17272    82.785979 
   79400    1027.0843   -107.63447   0.92932749   -106.70514    7199.1377    4.3478518    4.3478518    4.3478518    7199.1377    12446.444    7293.9592    1857.0097   -6687.3007    1607.9992   -13544.154     82.19099 
   79500    715.76477    -107.3587     0.647639   -106.71106   -4766.4845    4.3546449    4.3546449    4.3546449   -4766.4845   -9796.8192   -10755.356    6252.7222    3130.0443    3981.9304     14676.63    82.576837 
   79600    592.28051   -107.24637   0.53590785   -106.71046    -4889.035    4.3543748    4.3543748    4.3543748    -4889.035   -4679.0452   -6141.9498     -3846.11    6715.8314    3784.4263   -11671.163    82.561469 
   79700    675.78066   -107.31841   0.61146055   -106.70695     2859.379    4.3507291    4.3507291    4.3507291     2859.379    574.67056    1952.9313    6050.5352   -6763.2567   -2305.3081    323.43245    82.354269 
   79800    535.45789   -107.19821   0.48449356   -106.71372    -6994.909    4.3520671    4.3520671    4.3520671    -6994.909   -15834.915    -13921.48    8771.6676    10519.057    7007.4481    9639.5481    82.430276 
   79900    986.07073   -107.60112   0.89221752    -106.7089     2439.455    4.3545486    4.3545486    4.3545486     2439.455   -2833.3808     124.5429    10027.203    2347.0111    1622.9071   -7322.7076     82.57136 
   80000    708.48637   -107.35161   0.64105335   -106.71055   -6147.4423    4.3541557    4.3541557    4.3541557   -6147.4423   -11639.915   -13082.786    6280.3744   -3601.2968    -5809.127    9868.9746     82.54901 
   80100    418.88832   -107.09085   0.37901895   -106.71183     -2574.58    4.3481792    4.3481792    4.3481792     -2574.58    2377.6875   -5951.4219   -4150.0057    13146.714    7006.9589    6174.8407    82.209554 
   80200     838.3523   -107.46583   0.75855878   -106.70727   -3133.2554    4.3575041    4.3575041    4.3575041   -3133.2554   -6365.8488     9513.694   -12547.611   -6184.9253   -10224.862   -5053.2117      82.7396 
   80300    712.11373   -107.35604   0.64433547    -106.7117   -4223.1617    4.3535205    4.3535205    4.3535205   -4223.1617   -14878.943    -9754.842      11964.3    4384.4986   -3430.0698    9944.4622    82.512887 
   80400    801.71055   -107.43412   0.72540455   -106.70872    4836.3134    4.3476617    4.3476617    4.3476617    4836.3134   -8181.2913    7048.4404    15641.791    11049.082     299.5183   -2247.8699    82.180205 
   80500    611.61017   -107.26149   0.55339774   -106.70809   -7533.0129    4.3586301    4.3586301    4.3586301   -7533.0129   -17161.815    1632.2177   -7069.4412   -4982.9222   -9459.3038   -1562.8317    82.803754 
   80600    497.81215    -107.1615    0.4504309   -106.71107   -1486.8897    4.3504264    4.3504264    4.3504264   -1486.8897   -7600.8612   -12724.983    15865.176    14689.512    5663.5464    8546.8602     82.33708 
   80700    901.53137   -107.52347   0.81572453   -106.70775    5892.6815    4.3520557    4.3520557    4.3520557    5892.6815    879.27279    13375.719    3423.0528   -1078.8693   -4166.1528   -2979.3781    82.429629 
   80800    771.24344   -107.40755   0.69783727   -106.70971   -5866.8647    4.3574553    4.3574553    4.3574553   -5866.8647   -15868.985   -6936.8017    5205.1923   -120.88122     -4637.84    7571.3974    82.736819 
   80900    540.13051   -107.19808   0.48872143   -106.70935    1017.3685    4.3492247    4.3492247    4.3492247    1017.3685    1917.6368   -3832.7216    4967.1903    12871.297    2637.3071    4304.5411    82.268871 
   81000    693.65003   -107.33496   0.62762913   -106.70733   -5928.3293    4.3536388    4.3536388    4.3536388   -5928.3293   -16654.662    22056.728   -23187.054   -5996.3153    -15140.92   -658.61347    82.519616 
   81100    708.61536   -107.35127   0.64117007    -106.7101   -3443.6369    4.3543167    4.3543167    4.3543167   -3443.6369   -14790.599   -6176.4909    10636.179     11498.28    1009.2917    7799.6263    82.558169 
   81200    818.02873   -107.44966   0.74016959   -106.70949    4467.1017    4.3509787    4.3509787    4.3509787    4467.1017   -7109.7266    2124.9095    18386.122    8588.2544   -4286.5035    1073.3426    82.368443 
   81300    681.20357   -107.32485   0.61636731   -106.70848   -1848.6881    4.3542884    4.3542884    4.3542884   -1848.6881   -10251.063    9645.0136   -4940.0146    547.52934   -15095.683    1933.3119    82.556554 
   81400    489.60823   -107.15231   0.44300782    -106.7093   -237.54102    4.3536679    4.3536679    4.3536679   -237.54102   -890.52585   -10187.243    10365.146    11716.675    7119.8345    9395.9075    82.521267 
   81500    788.44777   -107.42113   0.71340411   -106.70773    -1782.378    4.3527153    4.3527153    4.3527153    -1782.378   -11817.151    14506.946   -8036.9295   -628.78568   -19893.583    586.16702    82.467114 
   81600    894.83542   -107.51733   0.80966589   -106.70766   -1691.4137    4.3532181    4.3532181    4.3532181   -1691.4137   -13463.261    5646.1511    2742.8685    6263.2297   -7434.0852    2434.6694    82.495696 
   81700    641.03811    -107.2889   0.58002475   -106.70887   -1832.9461    4.3536289    4.3536289    4.3536289   -1832.9461   -6465.4469   -7116.3801    8082.9888     8088.261   -633.11624     8563.512    82.519051 
   81800     602.9792   -107.25365   0.54558825   -106.70806   -3885.2947    4.3525324    4.3525324    4.3525324   -3885.2947    -13629.29     17291.92   -15318.515   -781.71436   -18628.595    -6457.339    82.456716 
   81900    602.65612   -107.25535   0.54529592   -106.71005    3936.2647    4.3525238    4.3525238    4.3525238    3936.2647   -275.97955    1192.0429    10892.731    10255.704      7452.53     5532.564    82.456226 
   82000    803.51694   -107.43721   0.72703902   -106.71018    1885.7472    4.3547052    4.3547052    4.3547052    1885.7472   -8906.3674   -1883.0959    16446.705    3920.0091   -8069.1465    4515.3929    82.580264 
   82100    802.21248   -107.43364   0.72585871   -106.70778    517.09579    4.3538289    4.3538289    4.3538289    517.09579   -1919.8723    5759.2021   -2288.0425   -1813.6293   -5945.0176   -5095.0031    82.530425 
   82200    523.11406   -107.18213   0.47332459   -106.70881    79.785979    4.3516581    4.3516581    4.3516581    79.785979   -48.418117   -11009.186    11296.962    9642.8396     3176.917    13850.175    82.407035 
   82300    753.84144   -107.38958   0.68209157   -106.70748    -4647.648    4.3547542    4.3547542    4.3547542    -4647.648    -10689.47    1516.3799   -4769.8541   -2279.9445   -13289.744   -2137.3778    82.583053 
   82400    769.83999   -107.40621    0.6965674   -106.70964    1478.5024    4.3522604    4.3522604    4.3522604    1478.5024   -7934.2085   -294.45232    12664.168    2022.7789    2851.6821    1442.2657    82.441258 
   82500    672.03034   -107.31938   0.60806717   -106.71132   -1576.3692     4.353118     4.353118     4.353118   -1576.3692   -6314.5121   -12475.397    14060.801    9488.4023   -51.666347    12140.184    82.490005 
   82600     827.1842   -107.45474   0.74845364   -106.70629   -224.39883    4.3535924    4.3535924    4.3535924   -224.39883    5029.5078    5579.1225   -11281.827   -659.73826   -8483.9062   -6166.7634    82.516972 
   82700    413.79198   -107.08673   0.37440768   -106.71233    2298.5021    4.3527438    4.3527438    4.3527438    2298.5021   -1084.6345   -4439.8126    12419.953     9290.018    8602.6863    7663.8549    82.468734 
   82800    826.27703   -107.45785   0.74763282   -106.71022   -1381.6981    4.3551646    4.3551646    4.3551646   -1381.6981   -9756.0813   -5861.6403    11472.627    6660.4874   -4949.7958    13760.484    82.606404 
   82900    855.68553   -107.48135   0.77424225   -106.70711    11359.429    4.3514513    4.3514513    4.3514513    11359.429    12182.909    737.27727    21158.102     1455.604   -5165.4749   -8341.0944    82.395291 
   83000    418.11956   -107.09241   0.37832336   -106.71409   -9028.4683    4.3562655    4.3562655    4.3562655   -9028.4683    618.69322   -24842.614    -2861.484     8687.866    8732.4182    18725.125    82.669066 
   83100    945.83122   -107.56218   0.85580796   -106.70637    6019.3018    4.3510946    4.3510946    4.3510946    6019.3018     10279.94    953.40537    6824.5597   -1910.6835   -4664.9299   -429.78416    82.375029 
   83200    640.32821   -107.29237   0.57938242   -106.71299   -2676.7279    4.3531514    4.3531514    4.3531514   -2676.7279   -7897.5434   -13942.791     13810.15     4320.367    2529.3487   -4925.4794    82.491904 
   83300    583.53888   -107.24232   0.52799824   -106.71432   -15887.937    4.3592844    4.3592844    4.3592844   -15887.937   -20159.565   -21557.564   -5946.6809    4212.8691    12258.988    18732.583    82.841051 
   83400    1058.8125   -107.66195   0.95803577   -106.70391     14177.73    4.3451854    4.3451854    4.3451854     14177.73    14848.724    5755.6136    21928.854   -3095.4443   -5825.8131   -10334.347    82.039864 
   83500    380.31882   -107.05958   0.34412046   -106.71546   -7067.6838    4.3583569    4.3583569    4.3583569   -7067.6838   -1071.5382   -25016.026    4884.5133    6764.1144    5783.2501     12527.98     82.78819 
   83600     720.2942   -107.36392   0.65173733   -106.71218   -3772.0102    4.3543215    4.3543215    4.3543215   -3772.0102   -13379.513    -1668.108    3731.5903    2294.5609    8518.2712    9667.3941    82.558437 
   83700    810.59338   -107.44077   0.73344192   -106.70732    13033.727    4.3472686    4.3472686    4.3472686    13033.727    10756.905   -2640.2598    30984.534   -1108.3963   -6742.4443   -2565.6952     82.15792 
   83800    444.59896   -107.11524   0.40228248   -106.71296   -19485.059    4.3630674    4.3630674    4.3630674   -19485.059   -5135.7974   -25348.427   -27970.953    8838.4223    11274.508    16116.982    83.056907 
   83900    969.78521   -107.58169   0.87748204    -106.7042    8617.6465    4.3460876    4.3460876    4.3460876    8617.6465    11804.184    9691.8007    4356.9549   -3293.4552    4235.8244   -1267.4566    82.090978 
   84000    672.27748   -107.31775   0.60829079   -106.70946    143.20837    4.3537983    4.3537983    4.3537983    143.20837   -3497.3329   -17895.413    21822.371     1121.233    241.67886    7182.1077    82.528683 
   84100    492.23622   -107.15723   0.44538567   -106.71184   -15470.349    4.3583212    4.3583212    4.3583212   -15470.349   -29278.988   -12557.924   -4574.1357     3768.976    10430.451     15044.19     82.78615 
   84200    881.83989   -107.50302   0.79790726   -106.70511    9163.4662    4.3469098    4.3469098    4.3469098    9163.4662   -3247.6734    5393.3217     25344.75   -6097.8823   -3713.8457   -1984.6248    82.137576 
   84300    715.04289   -107.35647   0.64698583   -106.70948   -12017.976    4.3591114    4.3591114    4.3591114   -12017.976   -3175.9977   -26103.225   -6774.7048    6501.3895    4065.4696    17019.512    82.831189 
   84400    709.61574   -107.35055   0.64207523   -106.70847   -498.64554    4.3503193    4.3503193    4.3503193   -498.64554    -11946.21    11631.901   -1181.6271   -1864.3926    6770.5508    5654.9791    82.331004 
   84500    643.00188   -107.28923   0.58180161   -106.70743    4247.7951    4.3537491    4.3537491    4.3537491    4247.7951    -10619.29     -1734.57    25097.245    578.40647   -3677.4219   -2758.6739    82.525885 
   84600    533.47326   -107.19415   0.48269782   -106.71146    -2852.627     4.354761     4.354761     4.354761    -2852.627   -1561.6311   -10079.771    3083.5213    9100.9764    11944.671    15483.012     82.58344 
   84700    843.49864     -107.471   0.76321529   -106.70779    8225.6106    4.3504579    4.3504579    4.3504579    8225.6106    2283.6889    14943.955    7449.1882   -5409.9906   -628.71677   -6495.8464    82.338873 
   84800    712.12832   -107.35243   0.64434867   -106.70808   -5459.0196     4.358058     4.358058     4.358058   -5459.0196   -11567.199   -18266.273    13456.414    8549.4589   -4915.2688    7076.2576    82.771157 
   84900    586.85247    -107.2391   0.53099645    -106.7081   -2778.1815     4.347657     4.347657     4.347657   -2778.1815   -19706.061    5317.2325    6054.2843    3993.6411    9938.7839    12311.468    82.179941 
   85000    770.34601   -107.40479   0.69702526   -106.70777   -4176.8202    4.3569532    4.3569532    4.3569532   -4176.8202   -26038.382     3994.058    9513.8636   -3216.4519   -11012.099   -5044.9699    82.708221 
   85100    757.09804   -107.39666   0.68503822   -106.71162   -7977.9788    4.3549619    4.3549619    4.3549619   -7977.9788   -1553.6734   -22790.851     410.5883    14284.188    195.98569    17162.964    82.594873 
   85200    772.47862   -107.40671   0.69895489   -106.70776    10817.239    4.3439976    4.3439976    4.3439976    10817.239   -24.366527    20610.642    11865.441     1646.558    4827.2386    3647.5675    81.972605 
   85300    601.63849   -107.25166   0.54437515   -106.70729   -8835.7444    4.3627673    4.3627673    4.3627673   -8835.7444   -27961.375   -5865.3014    7319.4436    4345.4306   -10154.452    51.041757    83.039772 
   85400    477.57952   -107.14397   0.43212399   -106.71185    3326.0472    4.3463985    4.3463985    4.3463985    3326.0472    -1404.312   -1981.7303    13364.184    15959.867    7085.5721    19027.865    82.108593 
   85500    964.48421   -107.58219   0.87268558   -106.70951    8649.2939    4.3494435    4.3494435    4.3494435    8649.2939    2604.4013    24015.617   -672.13686   -2988.8168   -4108.8259   -1596.3246    82.281287 
   85600    781.28719   -107.41564   0.70692507   -106.70871   -10293.797     4.363635     4.363635     4.363635   -10293.797   -11586.236   -16726.955   -2568.2006    8613.4895   -5009.8833     11080.48    83.089331 
   85700     520.3315   -107.17796   0.47080687   -106.70715    5122.7669     4.343265     4.343265     4.343265    5122.7669   -12829.383     16984.34    11213.343    6338.0408     184.9835    14796.843     81.93114 
   85800    740.54115   -107.37619    0.6700572   -106.70613   -2341.6979     4.355543     4.355543     4.355543   -2341.6979   -32961.632    13267.725    12668.813   -5129.8581   -6980.4811   -5316.9671    82.627936 
   85900    666.10513   -107.31181   0.60270592    -106.7091   -2102.1307    4.3571174    4.3571174    4.3571174   -2102.1307   -5497.3993    -12031.57    11222.577    9503.7492   -446.29051    15636.671    82.717574 
   86000    834.69555   -107.46146   0.75525008   -106.70621     9666.207    4.3474195    4.3474195    4.3474195     9666.207    1672.2319    19559.687    7766.7025   -984.29488    244.66639   -110.19253    82.166472 
   86100    730.37112   -107.36561   0.66085514   -106.70476    -3709.216    4.3572042    4.3572042    4.3572042    -3709.216     -21371.6    3114.6566    7129.2953    2590.9977   -4359.6875   -2038.7835    82.722516 
   86200    445.41034   -107.11268   0.40301664   -106.70967    1577.1525    4.3499426    4.3499426    4.3499426    1577.1525   -3026.4582    5484.8937    2273.0221    10159.797    4545.9753    18117.107    82.309615 
   86300    866.48965   -107.49247   0.78401805   -106.70845   -1090.5101    4.3545919    4.3545919    4.3545919   -1090.5101   -14394.907    11921.961   -798.58464   -5109.5241   -4435.5231   -5068.9997    82.573823 
   86400     832.8168   -107.46184   0.75355015   -106.70829     5041.149    4.3531782    4.3531782    4.3531782     5041.149    5250.1483   -3967.7737    13841.072    7025.8414   -5627.6245    12035.412    82.493426 
   86500    550.71336   -107.20759   0.49829703    -106.7093    2660.5575    4.3507758    4.3507758    4.3507758    2660.5575   -10779.348    5688.6253    13072.396    2526.6739      4441.34     14128.41    82.356922 
   86600    608.18674   -107.25804   0.55030015   -106.70774   -7784.7056     4.355352     4.355352     4.355352   -7784.7056   -43616.681    6768.7175    13493.847   -6506.8504   -9180.1357   -7071.0479    82.617068 
   86700    686.68939   -107.33116   0.62133099   -106.70983    6213.1944    4.3480185    4.3480185    4.3480185    6213.1944    7083.1269    3326.6839    8229.7723     4693.952    2458.5467    23375.982    82.200442 
   86800    931.47214   -107.55121   0.84281556    -106.7084    -8497.218    4.3574507    4.3574507    4.3574507    -8497.218   -7682.9565   -7298.7431   -10509.954   -2812.1053    -674.9079    2604.4021    82.736559 
   86900    697.09866   -107.33934   0.63074952   -106.70859   -1586.3108    4.3520307    4.3520307    4.3520307   -1586.3108   -14274.318    2242.1318     7273.254   -6312.8151   -7217.3316    4167.0637    82.428205 
   87000    551.61271   -107.20776   0.49911077   -106.70865    7297.6558    4.3479079    4.3479079    4.3479079    7297.6558    2491.2926    259.67128    19142.004    5134.0435    201.25687    24471.124    82.194168 
   87100    657.69441   -107.30281   0.59509572   -106.70771   -6880.7723    4.3607613    4.3607613    4.3607613   -6880.7723   -34494.562   -3966.1791    17818.424   -6708.9601   -7286.8926   -6232.5711    82.925282 
   87200    726.96581   -107.36647   0.65777394   -106.70869    4903.1573    4.3481291    4.3481291    4.3481291    4903.1573    12260.373   -6017.9485    8467.0477   -3212.4415   -6532.7835    19603.849    82.206717 
   87300    849.09045   -107.47506   0.76827488   -106.70678    4486.6414    4.3503857    4.3503857    4.3503857    4486.6414    9087.8053   -3492.1662     7864.285    1856.4658    -717.3701    12026.472    82.334773 
   87400    577.55515   -107.23062   0.52258403   -106.70804   -17176.354    4.3612908    4.3612908    4.3612908   -17176.354   -44610.035   -4339.2371   -2579.7907   -9124.8983    -4300.785   -3665.2407    82.955492 
   87500    574.19441   -107.22833   0.51954317   -106.70879    4873.5925    4.3460921    4.3460921    4.3460921    4873.5925    3889.9495    683.07358    10047.754    2220.6016    2651.1729     27048.24    82.091231 
   87600    931.03573   -107.54953    0.8424207   -106.70711    8164.3754    4.3516099    4.3516099    4.3516099    8164.3754    3603.5575   -3749.1844    24638.753   -4383.2086     30.36755   -6716.1355      82.4043 
   87700    609.92553    -107.2634   0.55187344   -106.71152   -7985.0756    4.3598534    4.3598534    4.3598534   -7985.0756   -16945.407   -8362.7502    1352.9309   -5247.6985   -2145.4683    14658.636    82.873494 
   87800    659.67536   -107.30475   0.59688813   -106.70786    7796.5142    4.3465508    4.3465508    4.3465508    7796.5142    10584.754    582.92999    12221.859    109.61859    95.349916    15095.781    82.117226 
   87900    745.60822   -107.38157   0.67464199   -106.70693   -3202.0249    4.3530931    4.3530931    4.3530931   -3202.0249   -23128.558    2255.3511    11267.132   -8409.4035   -2917.2792   -11429.009    82.488586 
   88000    610.07699   -107.26309   0.55201048   -106.71108   -5618.5065    4.3567439    4.3567439    4.3567439   -5618.5065   -4831.0078   -4273.3217   -7751.1899    1445.8994   -3035.5562    22893.591    82.696305 
   88100    922.97034   -107.54125   0.83512296   -106.70613    9820.1338    4.3493765    4.3493765    4.3493765    9820.1338    17480.574   -5018.7785    16998.606   -6318.9086    1573.4655   -6769.1291    82.277486 
   88200    593.52064   -107.24604   0.53702995   -106.70901    861.45366    4.3526904    4.3526904    4.3526904    861.45366   -17258.827   -2765.4185    22608.606   -6911.7726   -2813.3765   -1297.8077    82.465694 
   88300    517.90655    -107.1785   0.46861273   -106.70989   -1849.0572    4.3541935    4.3541935    4.3541935   -1849.0572   -9559.4825    2241.5046    1770.8063    995.94156    -1404.893    21573.006    82.551157 
   88400    788.70364   -107.42056   0.71363563   -106.70692    2703.3374    4.3523252    4.3523252    4.3523252    2703.3374    10891.546   -10145.654    7364.1203   -9349.8951    1146.7278   -15362.849    82.444943 
   88500    824.59604   -107.45466   0.74611183   -106.70855   -222.33718    4.3524001    4.3524001    4.3524001   -222.33718       8062.5   -3693.2659   -5036.2456   -5226.2691   -7650.0472    12226.436    82.449198 
   88600    757.25017   -107.39209   0.68517587   -106.70692    1239.1693    4.3535835    4.3535835    4.3535835    1239.1693    8342.1094   -5576.5074    951.90587    752.90114    7.2272309     6454.854    82.516469 
   88700     515.1846   -107.17473   0.46614985   -106.70858    2969.0879    4.3518657    4.3518657    4.3518657    2969.0879   -3933.5716   -9647.9728    22488.808   -7322.6213   -5117.8957   -18966.744    82.418829 
   88800    713.61815   -107.35266    0.6456967   -106.70697       1384.1    4.3537423    4.3537423    4.3537423       1384.1   -9478.9752    886.60506     12744.67   -1401.4103   -3012.7677    19112.043    82.525496 
   88900    762.81316   -107.39891   0.69020938    -106.7087    1505.0544    4.3528961    4.3528961    4.3528961    1505.0544    16690.332   -20444.622    8269.4533    867.55917    1566.6509   -13772.938     82.47739 
   89000    772.31723   -107.40805   0.69880886   -106.70924   -103.31758    4.3505129    4.3505129    4.3505129   -103.31758    4388.8607   -9711.7478    5012.9343   -5514.5219   -3089.6323   -8323.5466    82.341995 
   89100    784.91219   -107.41645   0.71020504   -106.70625   -4892.5139    4.3559372    4.3559372    4.3559372   -4892.5139   -16505.784    2764.1671   -935.92521    4034.6289    1893.4324    13059.432    82.650376 
   89200    442.10685   -107.11184   0.40002757   -106.71182   -6947.3325    4.3528879    4.3528879    4.3528879   -6947.3325    4317.7904   -26176.616    1016.8286   -5039.9544    -1549.372    -29111.83    82.476925 
   89300    923.91116   -107.54449   0.83597423   -106.70852    9261.8055    4.3497214    4.3497214    4.3497214    9261.8055    12571.415   -4058.8346    19272.836     -1572.44   -3194.3377    3007.6104    82.297059 
   89400    758.53879   -107.39611   0.68634183   -106.70977   -2575.3978    4.3567964    4.3567964    4.3567964   -2575.3978    9691.1344   -21407.831    3990.5028    1094.6038   -1623.7598   -10396.471     82.69929 
   89500    326.82234   -107.01079   0.29571572   -106.71508    2913.0546    4.3491189    4.3491189    4.3491189    2913.0546    11701.017   -21790.988    18829.135   -9791.7588   -1749.8557   -24415.816    82.262868 
   89600    998.27268   -107.60779    0.9032581   -106.70453    4423.5529    4.3544424    4.3544424    4.3544424    4423.5529    -6559.715    1098.4461    18731.927      3319.71   -3831.3895    8875.6081    82.565316 
   89700    609.09739   -107.26416   0.55112412   -106.71303   -10439.587    4.3550065    4.3550065    4.3550065   -10439.587    12327.898   -35366.822   -8279.8384   -5265.2822    3029.6259    -26874.82    82.597409 
   89800    663.19923   -107.31259    0.6000766   -106.71251    6568.3642    4.3445358    4.3445358    4.3445358    6568.3642    18039.417   -8741.2535    10406.929   -6429.8379   -1844.1043   -5017.7695    82.003075 
   89900    912.91796   -107.53351   0.82602736   -106.70748   -7967.3036    4.3607924    4.3607924    4.3607924   -7967.3036   -10372.292   -10461.567   -3068.0512    2715.4666   -2509.7567   -1820.9877    82.927055 
   90000     425.2401   -107.10105   0.38476618   -106.71629   -4514.5534      4.35057      4.35057      4.35057   -4514.5534    908.82973   -29034.648    14582.158   -7544.3343    4196.6182   -27542.166    82.345238 
   90100     831.8677   -107.46286   0.75269138   -106.71016    7773.2116    4.3470908    4.3470908    4.3470908    7773.2116     7917.883   -6977.4271    22379.179   -924.40207   -5755.6015    7457.9091    82.147838 
   90200    751.64372   -107.38882   0.68010303   -106.70872   -12059.139      4.36067      4.36067      4.36067   -12059.139    4561.3182   -21785.122   -18953.613   -440.71532   -3055.4287   -13692.797    82.920071 
   90300    455.50203   -107.12487   0.41214781   -106.71272    3307.6462    4.3446922    4.3446922    4.3446922    3307.6462    13723.931    -14303.09    10502.098   -6941.8006   -202.18475   -13722.538    82.011929 
   90400    924.03247   -107.54505     0.836084   -106.70896   -1727.4485    4.3545656    4.3545656    4.3545656   -1727.4485    1008.4388   -4982.6744   -1208.1098    309.02079   -5701.4189    12493.546    82.572326 
   90500    778.61685   -107.41407   0.70450889   -106.70956    -6078.717      4.35625      4.35625      4.35625    -6078.717    9368.1253    -22504.39   -5099.8867   -3003.8318   -2556.3382    -17068.02    82.668184 
   90600    494.60953   -107.15725   0.44753309   -106.70972    8399.8521    4.3437573    4.3437573    4.3437573    8399.8521    20785.883   -2195.2888    6608.9623   -5473.3301    3502.6904     3314.378    81.959003 
   90700    691.66375   -107.33343    0.6258319   -106.70759   -10219.249    4.3598287    4.3598287    4.3598287   -10219.249   -2019.6172   -14466.952   -14171.177    2923.0044   -8502.1407      5862.81    82.872086 
   90800    724.36401   -107.36501   0.65541978   -106.70959    3606.2158    4.3497867    4.3497867    4.3497867    3606.2158    2711.2491   -10699.321    18806.719   -9763.9714    1519.0311     -17724.7    82.300764 
   90900    810.06463   -107.44204    0.7329635   -106.70908    604.07728     4.349692     4.349692     4.349692    604.07728    8792.2915   -10040.017     3059.957   -874.88127   -4479.3619    12216.575    82.295389 
   91000    734.48917   -107.37181   0.66458123   -106.70723   -9846.4487    4.3579825    4.3579825    4.3579825   -9846.4487    5084.5438   -12917.698   -21706.192   -802.06653   -3540.0923   -1325.7623    82.766854 
   91100    520.70365   -107.18051    0.4711436   -106.70937    3631.0928    4.3465561    4.3465561    4.3465561    3631.0928    14384.026   -3207.0136   -283.73348   -13315.124    4928.2869   -8247.8602    82.117529 
   91200     733.4422     -107.374   0.66363391   -106.71037   -3414.9544    4.3563134    4.3563134    4.3563134   -3414.9544    9614.5153   -15715.581   -4143.7976    6762.2169   -653.28827    19683.595    82.671792 
   91300    926.47153   -107.54574   0.83829091   -106.70745    4193.3026    4.3519037    4.3519037    4.3519037    4193.3026    8512.9084   -13214.172    17281.171   -9064.7048    6613.2124   -8275.5908    82.420992 
   91400    457.21925   -107.12488   0.41370159   -106.71118    3438.0532    4.3488516    4.3488516    4.3488516    3438.0532    12116.434   -7868.2628    6065.9882   -5122.4321    5009.2563    1458.8055    82.247703 
   91500     583.2529   -107.23662   0.52773948   -106.70888   -10665.552    4.3577165    4.3577165    4.3577165   -10665.552    6577.3165   -15268.962   -23305.009    7118.5529    -526.3449    17846.518    82.751697 
   91600    865.63431   -107.48966   0.78324411   -106.70642    7262.4797    4.3479481    4.3479481    4.3479481    7262.4797    7363.7886   -2881.4321    17305.083   -12204.564    1644.1031   -11761.101    82.196446 
   91700    735.95106   -107.37621   0.66590398    -106.7103   -12641.573    4.3568591    4.3568591    4.3568591   -12641.573   -1969.8093   -26651.906   -9303.0033     2150.134    2193.6735    16758.396    82.702865 
   91800    814.14528   -107.44322   0.73665576   -106.70656    2351.2539    4.3498036    4.3498036    4.3498036    2351.2539     9238.702   -5313.0373    3128.0969    1144.3028   -7655.5139    12569.751    82.301725 
   91900    577.16855   -107.23119   0.52223423   -106.70896    264.89432    4.3501404    4.3501404    4.3501404    264.89432    4788.1343   -7646.7106    3653.2593   -12260.683    2965.7094   -2785.2419    82.320846 
   92000    498.39165   -107.16482   0.45095524   -106.71386   -9469.1129    4.3585814    4.3585814    4.3585814   -9469.1129    7121.2442   -27483.541   -8045.0424    6917.1924    1898.2994    23806.968     82.80098 
   92100    1071.9218    -107.6755   0.96989734    -106.7056    15010.241    4.3456311    4.3456311    4.3456311    15010.241    11477.717   -901.65778    34454.664   -4921.3016   -5357.2183    1515.9025    82.065114 
   92200    555.72458   -107.21611   0.50283127   -106.71328   -3935.4631    4.3528408    4.3528408    4.3528408   -3935.4631    2725.0406   -17044.928    2513.4984   -6356.4677    9353.2481    8101.9349    82.474246 
   92300    446.05458   -107.11763   0.40359956   -106.71403   -9117.9603    4.3555076    4.3555076    4.3555076   -9117.9603    8591.9105   -19093.379   -16852.412    10225.166   -2146.1475    20187.403    82.625926 
   92400    1066.1885   -107.67038   0.96470973   -106.70567    8066.5326    4.3475437    4.3475437    4.3475437    8066.5326    9598.9271    2004.2888    12596.382   -10791.784    891.09101   -6496.7026    82.173518 
   92500    583.30949   -107.24194   0.52779069   -106.71415   -9081.2725    4.3551706    4.3551706    4.3551706   -9081.2725   -2035.2581   -30719.162    5510.6026    5276.2856    3341.9751    24159.962    82.606744 
   92600    657.57661   -107.30603   0.59498914   -106.71104    134.18827    4.3512715    4.3512715    4.3512715    134.18827   -471.14155   -7972.3275    8846.0338    3694.7284    2477.8025    3126.4351    82.385077 
   92700    757.89939   -107.39408   0.68576329   -106.70832    4423.4333    4.3495228    4.3495228    4.3495228    4423.4333    6942.9277   -6532.5617    12859.934   -6162.7326    1064.3522   -855.37391    82.285787 
   92800    501.21606   -107.16889   0.45351083   -106.71538   -5990.0436    4.3546661    4.3546661    4.3546661   -5990.0436    9769.6261   -25508.372   -2231.3847    10686.186    3658.1174     25252.92    82.578044 
   92900     1000.512   -107.61276   0.90528425   -106.70747      3246.78    4.3516969    4.3516969    4.3516969      3246.78     6123.845    -4780.862    8397.3572   -3863.4967    289.26085   -13168.986    82.409243 
   93000    653.49772   -107.30094   0.59129847   -106.70964    209.68487    4.3518426    4.3518426    4.3518426    209.68487    1023.1231    -11614.29    11220.221    1413.7747   -2027.6448    13669.748    82.417516 
   93100      433.987   -107.10561   0.39268056   -106.71293   -2943.4834    4.3525383    4.3525383    4.3525383   -2943.4834    3786.6431   -13257.253    640.15962    7701.3506    888.33097    10516.822    82.457051 
   93200    887.89429   -107.51101   0.80338542   -106.70762    4345.2002    4.3535368    4.3535368    4.3535368    4345.2002    7705.9476   -5825.8784    11155.531   -5283.0798   -5690.5433   -15901.002    82.513813 
   93300    721.64376   -107.36346   0.65295844    -106.7105    -339.7569    4.3511584    4.3511584    4.3511584    -339.7569     271.5086   -17772.456    16481.677    7754.1398   -3289.7394    22718.416    82.378651 
   93400     549.0406   -107.20737   0.49678347   -106.71058   -5399.4237    4.3502741    4.3502741    4.3502741   -5399.4237    -4089.124   -7034.9772   -5074.1699    3463.8491    4120.1036   -7483.0937    82.328438 
   93500    732.74001   -107.37102   0.66299856   -106.70802   -9925.8154    4.3562584    4.3562584    4.3562584   -9925.8154   -10604.833   -7502.6788   -11669.935   -198.49675    -5826.918   -5180.3277    82.668662 
   93600    776.13154   -107.41086   0.70226013    -106.7086    1281.5704    4.3510534    4.3510534    4.3510534    1281.5704    8573.6608   -10292.723    5563.7731    9936.2002    3440.1601    16419.041    82.372689 
   93700    763.60611   -107.39923   0.69092686   -106.70831    1804.2221    4.3486413    4.3486413    4.3486413    1804.2221    6039.9264   -4474.4395    3847.1795   -776.12135    1428.9009   -22067.444    82.235766 
   93800    602.04039   -107.25349    0.5447388   -106.70875    1157.6801    4.3556243    4.3556243    4.3556243    1157.6801   -13150.974     -7294.09    23918.104    5421.6243   -10119.965    9081.9622    82.632566 
   93900    619.48009   -107.26825    0.5605186   -106.70773    2421.1878    4.3510777    4.3510777    4.3510777    2421.1878   -555.36692    814.17505    7004.7552    6672.8227    6260.2244   -4091.8715    82.374066 
   94000    711.06383   -107.35323    0.6433855   -106.70984   -5246.5489    4.3518491    4.3518491    4.3518491   -5246.5489    1214.2628   -2251.4608   -14702.449   -917.25636   -8765.4553   -14260.126    82.417887 
   94100    955.12772   -107.57063   0.86421963   -106.70641    1771.0165    4.3527252    4.3527252    4.3527252    1771.0165   -3486.3657   -3089.6336    11889.049     12528.88   -4453.8016    10693.057    82.467673 
   94200    623.12605   -107.27272   0.56381754    -106.7089   -1383.9642    4.3522211    4.3522211    4.3522211   -1383.9642   -3842.3441   -3970.5317    3660.9833   -2284.0632    6152.7179   -16959.632    82.439024 
   94300    404.77473   -107.07743   0.36624868   -106.71118   -2670.1318    4.3527933    4.3527933    4.3527933   -2670.1318   -24400.985   -1122.8754    17513.465    6561.4941    -8665.749   -4647.0554    82.471545 
   94400    891.28443   -107.51389   0.80645288   -106.70744     11136.44    4.3486763    4.3486763    4.3486763     11136.44   -273.37214    4707.6473    28975.044    10079.179    1066.6109   -643.30987    82.237757 
   94500    752.85181   -107.39328   0.68119614   -106.71208   -2240.9685    4.3553186    4.3553186    4.3553186   -2240.9685   -89.671554   -2547.2447   -4085.9892   -4675.5119    -861.0959   -18391.518    82.615166 
   94600    696.95257   -107.34039   0.63061733   -106.70977   -5939.7582    4.3536145    4.3536145    4.3536145   -5939.7582   -25447.639    911.62627    6716.7378    12799.214   -10490.334    298.89692    82.518233 
   94700    733.32936   -107.36881   0.66353182   -106.70528    12157.233    4.3457475    4.3457475    4.3457475    12157.233    5251.7347    16521.868    14698.095    -64.65611    2865.2307   -5722.9323    82.071705 
   94800    472.66784   -107.14003   0.42767979   -106.71235   -10010.579    4.3577689    4.3577689    4.3577689   -10010.579   -18480.522   -2674.5636   -8876.6515    510.01876   -4848.3557   -12772.352    82.754683 
   94900     847.2461   -107.47637   0.76660607   -106.70976    10636.602    4.3505506    4.3505506    4.3505506    10636.602   -2665.8973    8266.1663    26309.537    9656.6282    -5124.091     5358.434    82.344138 
   95000    870.05803   -107.49588   0.78724679   -106.70863    8291.0688    4.3471157    4.3471157    4.3471157    8291.0688    4397.3536    2713.3164    17762.536   -4629.3078    5668.5968   -10036.077    82.149251 
   95100    426.43761   -107.09854   0.38584971   -106.71269   -12804.699    4.3582741    4.3582741    4.3582741   -12804.699   -33834.504    768.29266   -5347.8843    6735.2972   -11074.158    -6803.108    82.783468 
   95200    821.66056   -107.44977   0.74345575   -106.70631     4354.717    4.3485649    4.3485649    4.3485649     4354.717   -856.96899    12303.359    1617.7607    4064.3494   -30.097214    7242.2012    82.231436 
   95300     644.2773   -107.29418   0.58295564   -106.71122    -2817.113    4.3524404    4.3524404    4.3524404    -2817.113    676.08596   -2204.8288   -6922.5961   -5018.0811   -2904.5126   -9954.5059    82.451488 
   95400    824.33684   -107.45515    0.7458773   -106.70927     1314.858    4.3540811    4.3540811    4.3540811     1314.858   -16191.472    8237.3349    11898.711    5629.7419   -7961.6887    4914.1506    82.544766 
   95500    701.25396   -107.34234   0.63450932   -106.70783    8881.3766    4.3494869    4.3494869    4.3494869    8881.3766    3191.2047    5081.2812    18371.644   -3460.1167    2211.4399    6797.0348    82.283752 
   95600    437.65703   -107.10854   0.39600128   -106.71254   -9185.4953    4.3541607    4.3541607    4.3541607   -9185.4953   -17387.788    1502.3156   -11671.014   -6796.2293   -5198.8781   -13670.273    82.549296 
   95700    873.96711   -107.49771    0.7907838   -106.70692    6969.4953    4.3496333    4.3496333    4.3496333    6969.4953     6140.025    15474.925   -706.46368    2760.8657   -3796.0294    8633.7788     82.29206 
   95800    756.26168    -107.3951   0.68428146   -106.71082   -10047.862     4.356394     4.356394     4.356394   -10047.862    461.87912   -18842.272   -11763.192   -8429.0779   -2376.5187    -1046.718    82.676383 
   95900    716.54848    -107.3585   0.64834812   -106.71016   -505.24492    4.3498673    4.3498673    4.3498673   -505.24492   -14153.998    6062.0587    6576.2049   -3909.5227   -10782.473   -14358.522     82.30534 
   96000    648.44351   -107.29462   0.58672532    -106.7079    5132.4379      4.34852      4.34852      4.34852    5132.4379    4187.2636    5191.2598    6018.7903    2059.2361    1093.7086    20035.328    82.228888 
   96100    464.67643   -107.13158     0.420449   -106.71113   -16081.556    4.3607323    4.3607323    4.3607323   -16081.556   -11282.259   -16670.803   -20291.606   -9024.2169    -6409.336   -7877.2448    82.923627 
   96200    930.16995   -107.54796   0.84163732   -106.70633    12353.585    4.3435152    4.3435152    4.3435152    12353.585     12051.01     14041.24    10968.506    2910.6491   -7677.7861   -2621.7428    81.945299 
   96300    823.75492   -107.45564   0.74535076   -106.71029    -4522.016    4.3534822    4.3534822    4.3534822    -4522.016    6692.3281   -14756.708   -5501.6681   -2539.0954    6590.0803    21497.426    82.510709 
   96400    529.73863   -107.18958   0.47931865   -106.71026   -7810.8677    4.3569323    4.3569323    4.3569323   -7810.8677   -15392.109   -7348.3731   -692.12093   -6373.9512   -8780.0111   -18842.168    82.707033 
   96500    688.08891   -107.32879   0.62259731   -106.70619    8200.8157    4.3441277    4.3441277    4.3441277    8200.8157    7381.3429    8906.2381    8314.8662    5863.8955   -86.938184    15176.696     81.97997 
   96600    692.56363   -107.33632   0.62664613   -106.70967   -8838.1257    4.3568314    4.3568314    4.3568314   -8838.1257    520.47137   -21604.151   -5430.6975   -7322.5476   -1185.3668    10016.603    82.701285 
   96700    804.33984   -107.43741   0.72778359   -106.70962   -541.57042    4.3493585    4.3493585    4.3493585   -541.57042   -6701.2846   -4037.6149    9114.1883   -251.04186   -9916.7775   -12772.057    82.276463 
   96800    704.76419   -107.34612   0.63768545   -106.70844   -5058.5084    4.3527955    4.3527955    4.3527955   -5058.5084    498.43747   -5857.4333   -9816.5294    3551.5597    100.62506    22560.835    82.471671 
   96900    633.33512   -107.28109   0.57305492   -106.70804    -8667.871    4.3542528    4.3542528    4.3542528    -8667.871   -10780.904   -5493.1705   -9729.5381   -6033.6756   -4820.8276   -9506.7876    82.554531 
   97000    654.05759   -107.30102   0.59180505   -106.70922    8050.4968    4.3463271    4.3463271    4.3463271    8050.4968    10759.577    873.17261    12518.741    7346.9859   -6931.3147   -4161.6621    82.104548 
   97100    836.36609   -107.46419   0.75676161   -106.70743   -4345.4157    4.3578738    4.3578738    4.3578738   -4345.4157    3758.9168   -21403.424    4608.2605   -2428.7432    5262.3664    14892.487    82.760659 
   97200    614.03052   -107.26553   0.55558772   -106.70994    3699.7252    4.3479994    4.3479994    4.3479994    3699.7252   -4272.8558   -3012.5606    18384.592   -2268.5636   -7648.5361   -15646.989    82.199359 
   97300    624.27123   -107.27528   0.56485372   -106.71043   -3922.3525    4.3498733    4.3498733    4.3498733   -3922.3525   -1222.1285    1902.1321   -12447.061    8081.0234   -5393.9262    10046.262    82.305685 
   97400    821.45364   -107.45065   0.74326851   -106.70738   -9018.2954    4.3567757    4.3567757    4.3567757   -9018.2954   -5172.1456   -8504.5378   -13378.203   -7077.4061    5100.8171    9248.0295    82.698112 
   97500    676.00871   -107.32118   0.61166689   -106.70951   -979.45357    4.3474467    4.3474467    4.3474467   -979.45357   -4193.1775   -6373.8823     7628.699    5383.6529   -13439.725   -14095.485    82.168017 
   97600    740.37201   -107.37806   0.66990416   -106.70816   -5526.8763    4.3542189    4.3542189    4.3542189   -5526.8763   -7585.2819   -5499.3538   -3495.9933    4013.6867    418.85739    13158.223    82.552603 
   97700    689.46226   -107.33279   0.62383994   -106.70895    985.64596    4.3512807    4.3512807    4.3512807    985.64596   -16061.943    4340.1746    14678.707   -7502.1603    7196.7512     -3942.44    82.385596 
   97800    631.86311    -107.2823   0.57172302   -106.71057    152.62389    4.3512466    4.3512466    4.3512466    152.62389   -3369.3293   -3036.1389    6863.3398     11265.67   -11174.414   -5850.6661    82.383663 
   97900    734.25847   -107.37266   0.66437249   -106.70829   -3722.8782    4.3543012    4.3543012    4.3543012   -3722.8782   -2095.7282   -10702.692    1629.7858   -4848.9518    14610.996    11119.546    82.557284 
   98000    645.90187   -107.29408   0.58442559   -106.70966    3652.4489    4.3467824    4.3467824    4.3467824    3652.4489   -647.92113    1853.8834    9751.3846   -2434.0947    3533.4658   -5119.4644    82.130352 
   98100     725.4663   -107.36591   0.65641715   -106.70949   -6398.8978    4.3568841    4.3568841    4.3568841   -6398.8978   -6120.4003    4968.5085   -18044.802    8567.6663   -8589.8862   -403.67879    82.704285 
   98200    800.52688   -107.43202   0.72433354   -106.70769   -598.43115    4.3509392    4.3509392    4.3509392   -598.43115   -7153.4833    14512.356   -9154.1666   -9337.4096    19322.447    3810.3987    82.366204 
   98300     622.6506   -107.27275   0.56338735   -106.70936    5079.4128    4.3476555    4.3476555    4.3476555    5079.4128    108.34074   -2621.1568    17751.054    7218.9528   -11286.036   -6566.6197    82.179857 
   98400    644.22235   -107.29175   0.58290592   -106.70884   -6180.6179    4.3564922    4.3564922    4.3564922   -6180.6179   -15281.833   -6740.1419    3480.1212    4187.3979    5763.2224    -5147.295    82.681973 
   98500    715.66874   -107.35694   0.64755212   -106.70939    6306.4979    4.3487511    4.3487511    4.3487511    6306.4979   -11354.584    12710.502    17563.576   -3878.7638    14313.481    5080.9336    82.242001 
   98600     787.8917   -107.42142   0.71290097   -106.70852   -1241.1638    4.3536088    4.3536088    4.3536088   -1241.1638    -2719.263   -2576.0959    1571.8677    13298.158   -9865.9469   -7854.6226    82.517905 
   98700    644.80726   -107.29227   0.58343516   -106.70884   -2211.0648    4.3520458    4.3520458    4.3520458   -2211.0648   -2884.6316    3790.8043   -7539.3672   -5425.7808    19413.543    2812.7841    82.429067 
   98800    647.89157   -107.29492   0.58622591   -106.70869    1761.3591    4.3495612    4.3495612    4.3495612    1761.3591    2937.4699   -6435.7767     8782.384     3344.246    -148.0286    4733.6458     82.28797 
   98900     731.7522   -107.37137   0.66210477   -106.70927   -3491.9774    4.3549571    4.3549571    4.3549571   -3491.9774   -6392.1906    2473.6267   -6557.3682    7892.7255   -2953.8272   -9301.2214    82.594598 
   99000    790.35681   -107.42403   0.71513145    -106.7089    5020.0748     4.350277     4.350277     4.350277    5020.0748   -9733.1428    24277.606    515.76116   -7597.8075    16351.968    5155.1305    82.328599 
   99100    694.90866   -107.33652   0.62876796   -106.70775    921.60452    4.3531085    4.3531085    4.3531085    921.60452   -2029.4793   -14583.621    19377.913    12957.694    -5511.215   -1886.4826     82.48946 
   99200    559.82456   -107.21576   0.50654103   -106.70922   -1646.1798    4.3513737    4.3513737    4.3513737   -1646.1798   -10753.508   -2561.3181    8376.2866    1603.9981    12032.969   -9282.0975    82.390879 
   99300    739.52233   -107.37766   0.66913534   -106.70852    2234.7243    4.3513137    4.3513137    4.3513137    2234.7243   -7318.3561    8335.8276    5686.7014    1750.3811    16000.791    7518.9096    82.387473 
   99400    842.21839   -107.47125    0.7620569   -106.70919   -1950.4558    4.3528265    4.3528265    4.3528265   -1950.4558    2133.3754   -6828.8547   -1155.8881    13315.129    -2558.606   -837.20203     82.47343 
   99500    642.04438   -107.29159   0.58093525   -106.71066    1404.1517    4.3497886    4.3497886    4.3497886    1404.1517    5115.9883    9351.7315   -10255.265   -1007.2253    19548.692   -6975.4281    82.300872 
   99600    657.06639    -107.3032   0.59452748   -106.70867    -1386.136    4.3544543    4.3544543    4.3544543    -1386.136    6699.5536    -15653.12    4795.1587    5924.7244    880.81871    11784.397    82.565995 
   99700    656.81593   -107.30384   0.59430086   -106.70954   -313.34212    4.3516412    4.3516412    4.3516412   -313.34212    239.77646   -5778.9102    4599.1074    7067.5441    2385.7281   -6902.2302    82.406077 
   99800    755.23221   -107.39331   0.68334997   -106.70996    3142.9617    4.3498277    4.3498277    4.3498277    3142.9617   -11600.519     23761.64   -2732.2363   -1508.6744    19841.012   -1929.5745    82.303093 
   99900    818.62041   -107.44953   0.74070495   -106.70882    -819.2814    4.3531445    4.3531445    4.3531445    -819.2814    3651.2268   -13200.113    7091.0423    7941.8954   -6037.7336    12657.832    82.491512 
  100000    546.71516   -107.20529   0.49467937   -106.71062   -2874.1172    4.3511393    4.3511393    4.3511393   -2874.1172    3072.2271   -10552.424   -1142.1546    2155.9327    18577.096   -10537.928    82.377568 
Loop time of 22.5982 on 1 procs for 100000 steps with 8 atoms

Pair  time (%) = 7.10053 (31.4208)
Kspce time (%) = 5.45449 (24.1368)
Neigh time (%) = 0 (0)
Comm  time (%) = 1.13005 (5.0006)
Outpt time (%) = 0.0271721 (0.12024)
Other time (%) = 8.88596 (39.3215)

Nlocal:    8 ave 8 max 8 min
Histogram: 1 0 0 0 0 0 0 0 0 0
Nghost:    2189 ave 2189 max 2189 min
Histogram: 1 0 0 0 0 0 0 0 0 0
Neighs:    2056 ave 2056 max 2056 min
Histogram: 1 0 0 0 0 0 0 0 0 0

Total # of neighbors = 2056
Ave neighs/atom = 257
Neighbor list builds = 0
Dangerous builds = 0
unfix 20
unfix 21
print "seeds:3590621"
seeds:3590621
