LAMMPS (10 Feb 2015)
# ---- initialize simulations
clear
units metal
dimension 3
boundary p p p
atom_style charge
atom_modify map array
# ---- create atoms
read_data /Users/eugeneragasa/pyflamestk_git/pypospack/tests/tests_integration/workflow/WorkflowLammpsThermalExpansion/MgO_NaCl_unit.npt.T1300/lammps.structure
  triclinic box = (0 0 0) to (4.2565 4.2565 4.2565) with tilt (0 0 0)
  1 by 1 by 1 MPI processor grid
  reading atoms ...
  8 atoms
# ---- define interatomic potential
include potential.mod
mass 1 24.305
mass 2 15.999

group Mg type 1
4 atoms in group Mg
group O type 2
4 atoms in group O

set group Mg charge 1.7
  4 settings made for charge
set group O charge -1.7
  4 settings made for charge

variable R_cut equal 10.0

pair_style buck/coul/long ${R_cut}
pair_style buck/coul/long 10
pair_coeff 1 1 0.0 0.5 0.0 ${R_cut}
pair_coeff 1 1 0.0 0.5 0.0 10
pair_coeff 1 2 929.69 0.29909 0.0 ${R_cut}
pair_coeff 1 2 929.69 0.29909 0.0 10
pair_coeff 2 2 4870 0.2679 77 ${R_cut}
pair_coeff 2 2 4870 0.2679 77 10

kspace_style pppm 1.0e-5

neighbor 1.0 bin
neigh_modify every 1 delay 0 check yes
# ---- define settings
compute eng all pe/atom
compute eatoms all reduce sum c_eng
# ---- run minimization
reset_timestep 0
fix 1 all box/relax iso 0.0 vmax 0.001
thermo 10
thermo_style custom step pe lx ly lz xy xz yz press pxx pyy pzz pxy pxz pyz c_eatoms
min_style cg
minimize 1e-25 1e-25 5000 10000
PPPM initialization ...
  G vector (1/distance) = 0.353152
  grid = 8 8 8
  stencil order = 5
  estimated absolute RMS force accuracy = 4.10333e-05
  estimated relative force accuracy = 2.84961e-06
  using double precision FFTs
  3d grid and FFT values/proc = 3375 512
Neighbor list info ...
  1 neighbor list requests
  update every 1 steps, delay 0 steps, check yes
  master list distance cutoff = 11
Memory usage per processor = 4.06549 Mbytes
Step PotEng Lx Ly Lz Xy Xz Yz Press Pxx Pyy Pzz Pxy Pxz Pyz eatoms 
       0   -119.82944       4.2565       4.2565       4.2565            0            0            0   -43102.631   -43102.631   -43102.631   -43102.631 -1.1410716e-10 2.0651384e-11 1.0044018e-10   -119.82944 
       9    -119.8549     4.222448     4.222448     4.222448            0            0            0   -490.28356   -490.28356   -490.28356   -490.28356 -3.7927136e-11 -7.2182599e-11 3.2130495e-11    -119.8549 
Loop time of 0.229296 on 1 procs for 9 steps with 8 atoms

Minimization stats:
  Stopping criterion = linesearch alpha is zero
  Energy initial, next-to-last, final = 
        -119.829437963     -119.854898204     -119.854898204
  Force two-norm initial, final = 6.22404 0.0696885
  Force max component initial, final = 6.22404 0.069669
  Final line search alpha, max atom move = 1.75215e-06 1.2207e-07
  Iterations, force evaluations = 9 35

Pair  time (%) = 0.119355 (52.0526)
Kspce time (%) = 0.0049839 (2.17356)
Neigh time (%) = 0 (0)
Comm  time (%) = 0.000645399 (0.28147)
Outpt time (%) = 0 (0)
Other time (%) = 0.104312 (45.4923)

Nlocal:    8 ave 8 max 8 min
Histogram: 1 0 0 0 0 0 0 0 0 0
Nghost:    2189 ave 2189 max 2189 min
Histogram: 1 0 0 0 0 0 0 0 0 0
Neighs:    2344 ave 2344 max 2344 min
Histogram: 1 0 0 0 0 0 0 0 0 0

Total # of neighbors = 2344
Ave neighs/atom = 293
Neighbor list builds = 0
Dangerous builds = 0
unfix 1
# ---- define output variables ----
variable natoms equal "count(all)"
variable tot_energy equal "c_eatoms"
variable length_x equal "lx"
variable length_y equal "ly"
variable length_z equal "lz"
variable tilt_xy equal "xy"
variable tilt_xz equal "xz"
variable tilt_yz equal "yz"
variable tot_press equal "press"
variable press_xx equal "pxx"
variable press_yy equal "pyy"
variable press_zz equal "pzz"
variable press_xy equal "pxy"
variable press_xz equal "pxz"
variable press_yz equal "pyz"

# ---- output ----
print "pypospack:output_section:begin"
pypospack:output_section:begin
print "tot_energy = ${tot_energy}"
tot_energy = -119.854898204259
print "num_atoms = ${natoms}"
num_atoms = 8
print "xx = ${length_x}"
xx = 4.222448
print "yy = ${length_y}"
yy = 4.222448
print "zz = ${length_z}"
zz = 4.222448
print "xy = ${tilt_xy}"
xy = 0
print "xz = ${tilt_xz}"
xz = 0
print "yz = ${tilt_yz}"
yz = 0
print "tot_press = ${tot_press}"
tot_press = -490.283556338482
print "pxx = ${press_xx}"
pxx = -490.283556338668
print "pyy = ${press_yy}"
pyy = -490.283556338614
print "pzz = ${press_zz}"
pzz = -490.283556338163
print "pxy = ${press_xy}"
pxy = -3.79271362347293e-11
print "pxz = ${press_xz}"
pxz = -7.2182599384956e-11
print "pyz = ${press_yz}"
pyz = 3.21304951944417e-11
print "pypospack:output_section:done"
pypospack:output_section:done
print "pypospack:lammps_sim:done"
pypospack:lammps_sim:done
#------------------------------------------------------------------------------
# RUN THERMOSTAT
# running using an NPT Nose-Hoover style thermostat
#------------------------------------------------------------------------------
variable tempdamp equal 0.1
variable pressdamp equal 1.0
# set initial velocities
velocity all create 1300 9986335 mom yes dist gaussian loop all
# fix for Nose-Hoover style thermostat
fix 20 all npt temp 1300 1300 0.1 aniso 0.0 0.0 1.0 drag 1.0 couple xyz
variable boxx equal lx
variable boxy equal ly
variable boxz equal lz
variable boxp equal press
variable boxt equal temp
# calculate averages every 10000 steps
reset_timestep 0
fix 21 all ave/time 10 10 100 v_boxx v_boxy v_boxz v_boxp v_boxt file lattice.out
thermo_style custom step temp pe ke etotal press lx ly lz press pxx pyy pzz pxy pxz pyz vol
thermo_modify flush yes
thermo 100
run 100000
PPPM initialization ...
  G vector (1/distance) = 0.353501
  grid = 8 8 8
  stencil order = 5
  estimated absolute RMS force accuracy = 4.03791e-05
  estimated relative force accuracy = 2.80417e-06
  using double precision FFTs
  3d grid and FFT values/proc = 3375 512
Memory usage per processor = 3.06549 Mbytes
Step Temp PotEng KinEng TotEng Press Lx Ly Lz Press Pxx Pyy Pzz Pxy Pxz Pyz Volume 
       0         1300    -119.8549    1.1762673   -118.67863    16199.213     4.222448     4.222448     4.222448    16199.213    9019.1924    21286.107     18292.34    837.18132    2690.4521    5726.3575    75.282309 
     100    726.53522    -119.1995   0.65738433   -118.54212    9408.6238    4.2589695    4.2589695    4.2589695    9408.6238   -5292.2876    34837.056   -1318.8968   -743.61998    8107.8537    7121.9538    77.252689 
     200    797.53021   -118.94361   0.72162209   -118.22198   -40187.957    4.3050626    4.3050626    4.3050626   -40187.957    -54522.19   -35298.693   -30742.989   -16274.677   -8106.7777   -4761.1708    79.788152 
     300    854.35191    -118.7066   0.77303556   -117.93357    1373.8718    4.2841512    4.2841512    4.2841512    1373.8718     2161.381   -12236.129    14196.363    -17066.55   -15821.386     3155.955    78.631102 
     400    1194.5835   -118.77175    1.0808843   -117.69086    45408.174    4.2557832    4.2557832    4.2557832    45408.174    9630.5344    47125.935    79468.051    6893.3146   -6223.8009   -21090.185    77.079428 
     500    1305.0322   -118.76779    1.1808205   -117.58697   -6731.2227    4.2933698    4.2933698    4.2933698   -6731.2227   -19152.644   -20713.542    19672.517   -382.87507    -21851.17   -15368.727    79.139792 
     600    1156.0331   -118.52324     1.046003   -117.47724   -50239.356    4.3260197    4.3260197    4.3260197   -50239.356   -52639.493   -59667.705   -38410.869    3655.5003    16135.856    -6894.112    80.959065 
     700    1645.2787   -118.90864    1.4886827   -117.41996     -18798.2     4.291674     4.291674     4.291674     -18798.2    22583.256   -29840.014   -49137.843    1362.5323    17194.025   -15020.293    79.046051 
     800    1129.0599   -118.43756    1.0215971   -117.41596    54739.334    4.2676081    4.2676081    4.2676081    54739.334     58822.77    43051.175    62344.057   -5718.9405    2814.5797    17174.492     77.72372 
     900    1193.0625   -118.56191     1.079508    -117.4824   -25471.647    4.3056196    4.3056196    4.3056196   -25471.647   -25757.607   -10925.728   -39731.608   -9298.7581    9085.6735    8774.2499    79.819128 
    1000    1283.9011   -118.62518    1.1617007   -117.46348   -15787.853    4.3048669    4.3048669    4.3048669   -15787.853   -7751.6866   -29695.501   -9916.3713    11769.814     2188.728   -16497.554    79.777274 
    1100    1396.2617   -118.70114    1.2633669   -117.43778    36584.013    4.2659726    4.2659726    4.2659726    36584.013    49124.028      691.735    59936.275   -10691.842    963.00498    9304.3806    77.634396 
    1200    923.49983   -118.31634   0.83560205   -117.48073     19194.57    4.2790472    4.2790472    4.2790472     19194.57    26922.552   -10666.693    41327.853   -2307.6075   -7183.3927    -7474.124    78.350405 
    1300    1348.6136   -118.70686    1.2202539    -117.4866   -48476.418    4.3126331    4.3126331    4.3126331   -48476.418   -60352.465   -39825.394   -45251.393   -6526.0836   -18393.578   -6207.2939     80.20982 
    1400    1348.1491   -118.67582    1.2198336   -117.45599   -50724.174    4.3038218    4.3038218    4.3038218   -50724.174   -63915.419   -14008.448   -74248.655    13018.014   -1269.8819   -5298.3437    79.719183 
    1500    1161.0786   -118.48502    1.0505683   -117.43445     6915.732    4.2638329    4.2638329    4.2638329     6915.732   -5530.9697    33681.705    -7403.539    1498.0152    25128.166    4372.9209    77.517638 
    1600       1234.5    -118.5935    1.1170016    -117.4765   -9909.2134    4.2688692    4.2688692    4.2688692   -9909.2134   -24102.118   -1315.8655   -4309.6563   -5986.4669   -7448.4231    22851.629    77.792644 
    1700    1220.7755   -118.59255    1.1045833   -117.48797   -17644.698    4.2912486    4.2912486    4.2912486   -17644.698   -66269.795   -647.42294    13983.124   -14561.079    5022.1103    3735.4976     79.02255 
    1800    1485.7595   -118.81976    1.3443464   -117.47541    9552.3644    4.2798201    4.2798201    4.2798201    9552.3644   -33532.009    47106.702      15082.4   -14192.433   -6717.9832    5170.7382    78.392866 
    1900    1394.4054    -118.7417    1.2616873   -117.48001     23932.14    4.2705632    4.2705632    4.2705632     23932.14      43413.3    60153.298   -31770.179     1927.247    2132.0724    4142.8526    77.885293 
    2000     956.0296   -118.36391   0.86503567   -117.49887    25682.364    4.2758058    4.2758058    4.2758058    25682.364   -26356.522    44739.002    58664.612    12470.227     8048.973    5048.1309    78.172483 
    2100    951.21803   -118.35765   0.86068206   -117.49697   -9146.8389    4.2865192    4.2865192    4.2865192   -9146.8389   -35887.766     21375.71    -12928.46    364.85507   -5776.2739     11868.32    78.761563 
    2200    1212.9762   -118.58398    1.0975264   -117.48645    14358.302    4.2792548    4.2792548    4.2792548    14358.302    14838.775    54385.589   -26149.458   -18499.501   -6452.3709    638.28435    78.361804 
    2300    1407.2133   -118.75948    1.2732761    -117.4862   -6074.1719    4.2788434    4.2788434    4.2788434   -6074.1719   -33685.104    54810.066   -39347.478    19529.398   -18535.357    9130.3409    78.339207 
    2400    1292.4375   -118.65045    1.1694246   -117.48103    12839.234    4.2731005    4.2731005    4.2731005    12839.234   -20392.961    41173.147    17737.516    30859.014    14795.508   -19301.109    78.024199 
    2500    1089.9812   -118.48243   0.98623787    -117.4962   -17871.545    4.2914593    4.2914593    4.2914593   -17871.545   -57414.497    4831.0134   -1031.1515   -18899.752   -2459.0643    2493.7302    79.034186 
    2600    1208.9114   -118.56961    1.0938484   -117.47577   -41203.712    4.2931269    4.2931269    4.2931269   -41203.712    -69192.77    2111.6563   -56530.022   -16549.343   -13223.936    16281.724    79.126358 
    2700    1255.0579   -118.59071    1.1356028   -117.45511    36994.623    4.2623924    4.2623924    4.2623924    36994.623    2594.0552    51016.306    57373.508   -754.14642    331.73665    8228.8711    77.439097 
    2800    1272.8231   -118.64315    1.1516771   -117.49147    6843.0905    4.2878812    4.2878812    4.2878812    6843.0905   -9378.5015    39989.438   -10081.665   -11531.388    4002.8434    7309.6997    78.836662 
    2900    1258.8377   -118.60844    1.1390228   -117.46941   -50632.477    4.3004506    4.3004506    4.3004506   -50632.477   -102433.41   -37950.466   -11513.551   -13622.075    11124.366    1631.2341    79.531998 
    3000     1084.088   -118.42072   0.98090562   -117.43981    41791.132    4.2615981    4.2615981    4.2615981    41791.132   -12665.764    87255.196    50783.964    3342.7331    3561.9334    9885.9979    77.395815 
    3100    1290.7794   -118.64021    1.1679243   -117.47229   -1263.8191    4.2796911    4.2796911    4.2796911   -1263.8191    10528.716    20357.596   -34677.769    12227.644   -6959.0936    9359.7836    78.385777 
    3200    1421.3469   -118.74405    1.2860646   -117.45798   -20849.985    4.2998709    4.2998709    4.2998709   -20849.985   -79525.348    45038.067   -28062.675   -9635.2892    10613.229   -3739.0793     79.49984 
    3300     886.8303   -118.26374   0.80242269   -117.46131     18885.77    4.2907861    4.2907861    4.2907861     18885.77   -53036.655    116912.07   -7218.1022   -17105.546    17713.789   -23912.446    78.997002 
    3400    1243.5649   -118.59406    1.1252037   -117.46886    3857.2184    4.2806878    4.2806878    4.2806878    3857.2184   -25305.414    62666.659   -25789.589   -12135.084   -11038.275     4458.498    78.440557 
    3500    1370.6084   -118.71903    1.2401553   -117.47887   -14258.119    4.2807473    4.2807473    4.2807473   -14258.119   -39685.525    37896.511   -40985.343    16317.981   -1086.4586   -4415.0213    78.443829 
    3600    1233.8951   -118.60633    1.1164542   -117.48987   -18570.621    4.2880611    4.2880611    4.2880611   -18570.621   -53752.659    50118.202   -52077.406   -9186.8787    11964.142   -10465.256    78.846588 
    3700    1400.6062   -118.74582    1.2672979   -117.47852    8692.6744    4.2763154    4.2763154    4.2763154    8692.6744   -8889.7742    37307.623   -2339.8254    6751.0815   -8745.2482     3439.416    78.200441 
    3800    892.97291   -118.31296   0.80798065   -117.50497    9481.9798    4.2841706    4.2841706    4.2841706    9481.9798     7051.368   -1521.2739    22915.845    15909.553   -9639.4623    3106.0494    78.632171 
    3900    1293.4253   -118.65926    1.1703184   -117.48895   -20450.638    4.2951239    4.2951239    4.2951239   -20450.638   -47162.163    3440.5268   -17630.277    550.45638   -1091.2151   -15201.083     79.23683 
    4000    1773.2606   -119.05993    1.6044834   -117.45545   -383.69386    4.2839828    4.2839828    4.2839828   -383.69386   -84.073663   -18665.816    17598.808   -320.07823    5399.6889    3485.6525    78.621832 
    4100    551.93137   -117.97812    0.4993991   -117.47872    6504.6221    4.3039132    4.3039132    4.3039132    6504.6221    -36778.76   -21870.872    78163.498   -4040.9169   -14380.597   -13761.693    79.724261 
    4200     1307.116   -118.63526     1.182706   -117.45255   -3607.1957    4.2966032    4.2966032    4.2966032   -3607.1957   -47998.989    9547.4262    27629.975   -4935.0333    886.69663    -7796.613    79.318726 
    4300    1861.6717   -119.12547    1.6844797   -117.44099   -2527.1017    4.2881044    4.2881044    4.2881044   -2527.1017   -40706.054    26012.896    7111.8522   -2442.1538    9829.9343   -12812.872    78.848975 
    4400    1381.8825   -118.70618    1.2503563   -117.45583    11023.312    4.2966996    4.2966996    4.2966996    11023.312   -9616.6794    46793.689    -4107.075    17832.676    17601.966    7873.7315    79.324068 
    4500    1489.1434   -118.79407    1.3474082   -117.44666   -21467.683    4.3094183    4.3094183    4.3094183   -21467.683   -35172.994   -4752.8858    -24477.17    -1960.376   -2426.1975    10744.362    80.030576 
    4600    1332.0445   -118.63745    1.2052619   -117.43219   -3057.6202    4.3042113    4.3042113    4.3042113   -3057.6202   -42703.658    -14537.13    48067.928   -12374.976   -5458.2517   -6358.9099    79.740829 
    4700    1020.8316   -118.37185   0.92366986   -117.44818    8875.0159    4.2892089    4.2892089    4.2892089    8875.0159    5128.5176     10079.46     11417.07    16486.746    16524.827    -37059.13    78.909919 
    4800     741.3833   -118.13522   0.67081919    -117.4644   -2150.3595    4.2812468    4.2812468    4.2812468   -2150.3595    -13952.56   -17004.515    24505.996   -8323.4025   -1671.0478    -25429.38     78.47129 
    4900     1249.131   -118.59212      1.13024   -117.46188    23187.279    4.2780443    4.2780443    4.2780443    23187.279   -17853.881   -3123.4305    90539.149   -8861.2357   -7105.4282   -7600.7523    78.295324 
    5000    1717.9126   -119.04257    1.5544034   -117.48816   -29036.213    4.3057976    4.3057976    4.3057976   -29036.213   -49901.684    -42684.28    5477.3254   -19070.855    2497.7425   -2071.8777    79.829028 
    5100    1122.9528   -118.49775    1.0160713   -117.48168    1015.5482    4.2922908    4.2922908    4.2922908    1015.5482   -6456.1462    20825.829   -11323.038    14528.072    15765.153    11221.666    79.080137 
    5200    1351.2479   -118.67795    1.2226375   -117.45531    36849.506    4.2639722    4.2639722    4.2639722    36849.506    63597.019    10749.489    36202.009     12974.22    2336.6769    10457.472    77.525234 
    5300    1117.8235   -118.51365    1.0114302   -117.50222    1370.4879    4.3103946    4.3103946    4.3103946    1370.4879    45084.886   -21331.728   -19641.693    28768.779    9085.2044   -5017.8742    80.084985 
    5400    1595.4975   -118.88336    1.4436397   -117.43972   -27061.805    4.3272933    4.3272933    4.3272933   -27061.805   -44241.518    7848.9565   -44792.852    12239.611    4579.5379   -8166.1898    81.030589 
    5500    1244.6374   -118.53546    1.1261741   -117.40928    11777.754    4.3016245    4.3016245    4.3016245    11777.754    16667.057    3905.4504    14760.753   -10376.845   -8980.7812   -7598.8118    79.597146 
    5600    1746.9376   -119.00717    1.5806659   -117.42651   -43914.556    4.3014629    4.3014629    4.3014629   -43914.556   -41425.687   -54788.694   -35529.287    1702.7486   -2798.9043    10284.049    79.588177 
    5700    1613.6811   -118.89712    1.4600926   -117.43703   -14426.855    4.2951234    4.2951234    4.2951234   -14426.855   -30822.471    55093.439   -67551.534   -8792.3337    8980.9617    5828.2844    79.236803 
    5800    887.09219   -118.26095   0.80265966   -117.45829    15300.379    4.2966014    4.2966014    4.2966014    15300.379    4094.5417    68060.637   -26254.042    25007.825    26292.629   -6928.8738    79.318627 
    5900    1007.0427   -118.36664   0.91119336   -117.45544   -21630.286    4.3062274    4.3062274    4.3062274   -21630.286   -3578.6488   -12012.936   -49299.274    18613.839   -15933.305    3153.0189    79.852936 
    6000    1204.0153   -118.52569    1.0894183   -117.43628   -20615.679    4.2950292    4.2950292    4.2950292   -20615.679   -12067.717   -4528.9071   -45250.412   -11885.749    16049.972    13646.838    79.231588 
    6100    1443.8694   -118.75453    1.3064433   -117.44808    9894.3984    4.2820438    4.2820438    4.2820438    9894.3984   -2986.6101    56467.976    -23798.17   -6062.7651    8584.2788   -4995.8522    78.515123 
    6200    2046.2828   -119.32529    1.8515197   -117.47377   -28024.926     4.295985     4.295985     4.295985   -28024.926   -20748.928   -23719.649   -39606.202   -10300.646   -14334.643   -3973.7002    79.284494 
    6300    1231.8317   -118.59504    1.1145872   -117.48046   -11397.637    4.3000631    4.3000631    4.3000631   -11397.637    -20751.94    22314.495   -35755.467    12312.914   -4550.9672    2590.4988    79.510502 
    6400    1152.4377   -118.51678    1.0427498   -117.47403    -8302.485    4.2771301    4.2771301    4.2771301    -8302.485    434.39285      4363.47   -29705.318   -544.96947     9481.263     3419.932    78.245141 
    6500    1362.4976   -118.70501    1.2328165   -117.47219    17290.033    4.2620469    4.2620469    4.2620469    17290.033    45524.609   -4417.6865    10763.176   -17741.203    4591.2477   -4746.5703     77.42027 
    6600    1010.2623   -118.43444   0.91410657   -117.52034    6008.2159    4.3012777    4.3012777    4.3012777    6008.2159    38891.281    1614.8501   -22481.484   -8890.8739   -18711.213    9593.1572    79.577893 
    6700    1061.5221   -118.42729   0.96048749    -117.4668   -43238.956     4.331499     4.331499     4.331499   -43238.956    -13486.15   -57268.579   -58962.138     26842.04    5596.9964    3808.6517    81.267082 
    6800    1803.4982   -119.06086     1.631843   -117.42902   -8919.9864    4.2778706    4.2778706    4.2778706   -8919.9864    9805.9803   -39407.648    2841.7084   -7021.4874    9036.9822    -11.19413    78.285789 
    6900    1787.8928   -119.04583     1.617723   -117.42811    35419.618    4.2586538    4.2586538    4.2586538    35419.618    3920.0183    68670.516     33668.32   -9.0115387    8693.7331    9809.7627    77.235511 
    7000    313.51256   -117.77749   0.28367275   -117.49382   -7599.8088    4.3300581    4.3300581    4.3300581   -7599.8088   -88627.883    53029.513    12798.944    27556.243    5165.8347    28020.764    81.186006 
    7100    1712.3562   -118.95945    1.5493758   -117.41008   -70877.674    4.3298261    4.3298261    4.3298261   -70877.674   -88432.019   -54357.644   -69843.357   -5708.4036    26981.608   -4486.0319    81.172959 
    7200    1782.9292    -118.9674    1.6132318   -117.35417   -13110.192    4.2792581    4.2792581    4.2792581   -13110.192   -40415.153   -3831.6657    4916.2438    4489.6532    184.06004   -8093.9075    78.361987 
    7300    862.28904   -118.18949   0.78021724   -117.40927    22160.563    4.2778423    4.2778423    4.2778423    22160.563   -25576.439   -3688.3195    95746.447    39411.991     4960.893    3592.7021    78.284235 
    7400    1338.3756   -118.64623    1.2109904   -117.43524   -24181.129    4.3027836    4.3027836    4.3027836   -24181.129   -17680.604   -12034.646   -42828.136    4888.0482    13860.248    10238.616    79.661505 
    7500    1259.1379   -118.58095    1.1392944   -117.44166   -24018.981    4.3038936    4.3038936    4.3038936   -24018.981   -31159.242   -14455.768   -26441.934    2941.4185    22570.222   -10221.828    79.723171 
    7600    1549.7839   -118.83887    1.4022771    -117.4366   -20861.021    4.2862634    4.2862634    4.2862634   -20861.021   -33280.597   -36801.641    7499.1755    20619.125    4987.0173   -151.57146    78.747464 
    7700    1770.0874   -119.03854    1.6016123   -117.43693    656.36199     4.273134     4.273134     4.273134    656.36199   -547.81711    27503.405   -24986.502    2922.6617    2745.5542    941.72122    78.026034 
    7800    1308.5718    -118.6558    1.1840233   -117.47178    3203.0482    4.2912967    4.2912967    4.2912967    3203.0482    3153.8018      35519.9   -29064.557   -7486.9673     24808.18   -17803.236    79.025203 
    7900    939.90599   -118.30959   0.85044669   -117.45914   -21550.884    4.3088932    4.3088932    4.3088932   -21550.884    27651.291   -51546.021   -40757.923    23079.695   -3601.2521   -4372.9739    80.001325 
    8000    1340.3404   -118.65018    1.2127682   -117.43742    24198.193     4.270612     4.270612     4.270612    24198.193     33862.05    62338.163   -23605.633    5542.7967   -13914.681    19029.138    77.887964 
    8100    1126.3997   -118.48182    1.0191901   -117.46263    25971.656    4.2692119    4.2692119    4.2692119    25971.656    693.57856    102399.41   -25178.017    21299.745    33695.783   -4283.7476    77.811383 
    8200    1493.4598   -118.81993    1.3513138   -117.46861   -23797.689    4.2914065    4.2914065    4.2914065   -23797.689   -9718.1623   -6512.7652   -55162.138   -8657.2096    22339.161    154.40497    79.031268 
    8300    1368.4934    -118.7022    1.2382416   -117.46396    5300.1692    4.2780307    4.2780307    4.2780307    5300.1692    42118.365    9841.3944   -36059.251    1815.9659   -18466.404    8708.6483    78.294576 
    8400    1349.0791   -118.69874    1.2206751   -117.47807   -8267.4145    4.2696958    4.2696958    4.2696958   -8267.4145    12041.305   -15887.422   -20956.127   -1481.4756   -14302.347    753.21042    77.837842 
    8500    1570.3592   -118.90627     1.420894   -117.48537     3923.866    4.2657595    4.2657595    4.2657595     3923.866    5548.0343    3632.4953    2591.0684   -7788.5762    14877.886   -6488.4067    77.622761 
    8600    1443.5043   -118.79692     1.306113    -117.4908    10092.274    4.2731475    4.2731475    4.2731475    10092.274    51991.717    2186.0647   -23900.959   -22770.496    1900.9036    18413.002    78.026774 
    8700    1262.7457   -118.62984    1.1425588   -117.48728   -10056.164    4.2795057    4.2795057    4.2795057   -10056.164   -15284.764    33065.055   -47948.782   -7015.5103   -15822.119    6732.8556    78.375593 
    8800    1190.1699   -118.55085    1.0768908   -117.47396    50.026998    4.2753049    4.2753049    4.2753049    50.026998   -28452.702    46162.949   -17560.166    19528.838   -8261.2787    710.73614    78.145015 
    8900    1376.2921   -118.71208     1.245298   -117.46678    5124.9611    4.2764939    4.2764939    4.2764939    5124.9611   -22757.589    15524.684    22607.788    1572.7276    6493.5272   -3824.4945    78.210233 
    9000    1438.0089   -118.76696    1.3011407   -117.46582   -14843.841    4.2782159    4.2782159    4.2782159   -14843.841   -32378.313    973.38314   -13126.592    -30054.18    4889.5097   -1482.8401     78.30475 
    9100    1093.5108   -118.45759   0.98943153   -117.46816    15563.996    4.2818066    4.2818066    4.2818066    15563.996    22530.333    13693.939    10467.717    557.51545   -13742.376   -7404.3434    78.502075 
    9200    1478.2881   -118.79841    1.3375862   -117.46082   -24604.067    4.2974509    4.2974509    4.2974509   -24604.067   -15659.064   -48110.901   -10042.236     21675.29   -6094.1085    13166.714    79.365688 
    9300    1374.6533   -118.70546    1.2438152   -117.46165    14044.491     4.268213     4.268213     4.268213    14044.491    13801.462    -11248.71    39580.721   -23758.262    17356.916   -766.32888    77.756777 
    9400     957.5799   -118.33762   0.86643842   -117.47118    34041.717    4.2588613    4.2588613    4.2588613    34041.717    3259.9913    55054.576    43810.584   -30059.041   -22619.812   -668.03854    77.246799 
    9500     1249.351   -118.61474    1.1304391    -117.4843   -20799.815    4.2841905    4.2841905    4.2841905   -20799.815   -20917.176    6608.4353   -48090.704    13041.379   -3734.8797    17527.037    78.633266 
    9600    1856.4592   -119.13844    1.6797633   -117.45868    3343.7248    4.2748493    4.2748493    4.2748493    3343.7248    14915.462    4273.5214    -9157.809    3671.5418    917.94924   -253.51823    78.120033 
    9700    1007.6803   -118.39374   0.91177035   -117.48197   -21338.472    4.2935461    4.2935461    4.2935461   -21338.472   -40855.658   -7815.6016   -15344.158    -35195.44    20768.465    7247.9648    79.149537 
    9800    927.36785   -118.30282   0.83910191   -117.46372   -19414.136    4.2849466    4.2849466    4.2849466   -19414.136    -33752.79    35675.544   -60165.162   -26845.928    5707.4444     767.0916    78.674909 
    9900     1779.795   -119.04516    1.6103959   -117.43476    17306.349    4.2573822    4.2573822    4.2573822    17306.349   -8436.4209    25035.779    35319.688    15965.293   -14021.498    -7349.841    77.166344 
   10000    1159.8369    -118.5159    1.0494448   -117.46646    -39599.97    4.2958736    4.2958736    4.2958736    -39599.97   -59931.217   -75464.183    16595.489    -15571.02    18994.632   -4592.2212    79.278327 
   10100    1201.1346   -118.53764    1.0868118   -117.45083   -8574.2997    4.2840931    4.2840931    4.2840931   -8574.2997   -8983.6029   -14105.327   -2633.9693   -29249.277    10448.684    2680.6636    78.627904 
   10200    1667.8797   -118.93852    1.5091326   -117.42938    46438.306    4.2581783    4.2581783    4.2581783    46438.306    53040.196    15061.171     71213.55    6635.6031    24188.503       4277.3    77.209642 
   10300    1594.6922   -118.90451     1.442911    -117.4616   -6149.9432    4.2843583    4.2843583    4.2843583   -6149.9432    16066.002   -64203.271    29687.439   -12927.557   -8831.4813    3702.9747     78.64251 
   10400    837.20548   -118.21935   0.75752111   -117.46183   -646.94873    4.2960243    4.2960243    4.2960243   -646.94873    40738.647   -32431.725   -10247.768   -22436.903    2087.5896   -6083.0689     79.28667 
   10500    953.76006   -118.32072   0.86298214   -117.45774   -3262.6933    4.2756587    4.2756587    4.2756587   -3262.6933    20222.477   -25414.145   -4596.4117    17505.997   -1156.0373    -17708.94    78.164416 
   10600    1832.3674   -119.10289    1.6579645   -117.44493    6535.6541    4.2568035    4.2568035    4.2568035    6535.6541    18186.636   -18648.699    20069.026     7009.481   -1848.9077   -12032.041     77.13488 
   10700    1355.7961    -118.7171    1.2267528   -117.49035   -9298.6114    4.2940938    4.2940938    4.2940938   -9298.6114   -35397.215   -23426.996    30928.377   -29624.684    758.63487   -2466.2279    79.179835 
   10800    1211.1909   -118.56173    1.0959109   -117.46582   -34411.953    4.3023398    4.3023398    4.3023398   -34411.953   -23734.199   -31597.856   -47903.804    13199.695    2074.7972    22714.191    79.636857 
   10900    989.53233   -118.32453   0.89534965   -117.42918    60310.246    4.2556929    4.2556929    4.2556929    60310.246    85812.571   -6788.7243    101906.89    19382.114   -2486.0352   -19747.449    77.074523 
   11000    1664.4933   -118.95659    1.5060685   -117.45052   -10604.611    4.2738514    4.2738514    4.2738514   -10604.611   -15036.322   -45216.049    28438.539    11880.301   -195.99705   -10323.554    78.065342 
   11100    1484.0193   -118.79143    1.3427718   -117.44866    -5737.498    4.2879118    4.2879118    4.2879118    -5737.498    27616.972   -32059.097   -12770.369   -15853.286    9354.0493    14141.872    78.838349 
   11200    1165.0546   -118.51444    1.0541659   -117.46028   -18590.356    4.2877122    4.2877122    4.2877122   -18590.356   -50111.765   -12403.796    6744.4913    14191.471     11139.57   -915.43516    78.827341 
   11300    641.13589   -118.04992   0.58011323   -117.46981   -25716.189    4.2772914    4.2772914    4.2772914   -25716.189   -59975.833   -39624.109    22451.373    53822.313    4075.9529   -27158.927    78.253993 
   11400    1763.4002   -119.04692    1.5955616   -117.45135    20139.141    4.2477732    4.2477732    4.2477732    20139.141    10616.818    14893.288    34907.316    3503.1519   -10816.836   -1607.6473    76.645023 
   11500    1598.9016    -118.9368    1.4467198   -117.49008   -14960.166    4.2853445    4.2853445    4.2853445   -14960.166   -1169.9977   -13371.437   -30339.064   -19667.359    14535.624    9855.6471    78.696824 
   11600    1333.9166   -118.66805    1.2069558    -117.4611   -28002.449    4.2986423    4.2986423    4.2986423   -28002.449    -10323.56   -52009.527   -21674.262    36571.733   -1206.1455   -6069.7525    79.431713 
   11700     1109.698   -118.43741     1.004078   -117.43333    43320.619    4.2704564    4.2704564    4.2704564    43320.619    95860.898   -7551.3701    41652.329    20480.899    4704.6834   -20735.249    77.879452 
   11800    1082.1786    -118.4374   0.97917796   -117.45822   -14301.073    4.2867021    4.2867021    4.2867021   -14301.073   -45345.405   -7607.4762    10049.663   -41845.455   -9917.7913   -2907.8227    78.771644 
   11900    1484.5296   -118.79037    1.3432336   -117.44714   -13387.676    4.2739449    4.2739449    4.2739449   -13387.676   -30170.646   -7044.3624   -2948.0199   -8179.3606   -17521.428    1617.6675    78.070461 
   12000     1419.693   -118.73959    1.2845681   -117.45502    33090.185    4.2603741    4.2603741    4.2603741    33090.185    73704.518   -3873.3347    29439.371     29596.16   -7670.3636   -5731.5072    77.329147 
   12100    1248.8807   -118.60181    1.1300135    -117.4718   -3348.6062    4.2835245    4.2835245    4.2835245   -3348.6062   -2921.0318   -26794.247     19669.46   -29374.824   -12408.048   -5436.6048    78.596599 
   12200    1239.6677    -118.5768    1.1216774   -117.45513    25435.274    4.2795945    4.2795945    4.2795945    25435.274    75640.484   -10860.254    11525.591   -26791.871    16710.177    1758.5203    78.380468 
   12300    1611.8409   -118.91309    1.4584275   -117.45467    5835.9251    4.2757036    4.2757036    4.2757036    5835.9251    31537.963   -3816.7461   -10213.441     11595.17    3791.7413   -6838.5366    78.166882 
   12400    951.54295   -118.32756   0.86097605   -117.46659   -12073.371    4.2760374    4.2760374    4.2760374   -12073.371   -12010.752   -6660.0782   -17549.283   -4540.7714   -20796.046     -11667.9    78.185191 
   12500    1258.6774   -118.59909    1.1388778   -117.46021    17111.072    4.2653854    4.2653854    4.2653854    17111.072    7362.2576    8193.2849    35777.674   -19990.666    9746.5591    13704.884     77.60234 
   12600    1760.6511   -119.06446    1.5930741   -117.47138   -27969.826    4.2970037    4.2970037    4.2970037   -27969.826     -33733.7    -11524.66   -38651.119    506.97194    10489.182    3613.1561    79.340909 
   12700    951.52316   -118.31339   0.86095816   -117.45243   -19675.445    4.3001147    4.3001147    4.3001147   -19675.445   -52925.467    24460.431   -30561.298     953.3118   -17373.453   -29511.236    79.513363 
   12800    1321.9317    -118.6125    1.1961116   -117.41639    27685.368    4.2595945    4.2595945    4.2595945    27685.368     25610.23    41500.388    15945.487     3578.353   -5395.6481    6482.6578    77.286701 
   12900     1499.996   -118.80124    1.3572279   -117.44402   -15559.179    4.2810081    4.2810081    4.2810081   -15559.179    5973.8079   -41924.788   -10726.558    12047.036    11422.714    52084.077    78.458166 
   13000    1312.0762   -118.62526    1.1871941   -117.43807   -25576.233    4.2986681    4.2986681    4.2986681   -25576.233   -21327.406   -39782.105   -15619.189   -2892.7011   -18184.815   -10094.684    79.433142 
   13100     1459.332   -118.75489    1.3204342   -117.43445    2892.4165    4.2699928    4.2699928    4.2699928    2892.4165   -6468.8882    9001.3593    6144.7785   -3936.2045   -18123.336   -13617.514     77.85409 
   13200    1088.4816   -118.43272     0.984881   -117.44784      14981.7    4.2559895    4.2559895    4.2559895      14981.7    43814.778    2029.7838   -899.46018    4586.7698    1916.6038    51670.943    77.090638 
   13300    1138.7633   -118.50519    1.0303769   -117.47481    1216.8298    4.2783526    4.2783526    4.2783526    1216.8298    29931.608     -3746.84   -22534.278    1175.2392    4348.2665     17868.25    78.312253 
   13400    1577.5384   -118.87873    1.4273899   -117.45134   -17990.706    4.3033638    4.3033638    4.3033638   -17990.706   -23722.324   -12576.679   -17673.115   -1620.2769    -2159.199   -17067.237    79.693736 
   13500    1071.8334   -118.42127   0.96981738   -117.45145   -33731.599    4.2885488    4.2885488    4.2885488   -33731.599    7693.9918   -52270.433   -56618.355   -2922.1126   -816.81077     65262.34    78.873493 
   13600    1114.7672   -118.43723    1.0086648   -117.42857    45836.259    4.2391365    4.2391365    4.2391365    45836.259    62658.543    60666.583     14183.65   -9235.3646    8241.4035    33063.339    76.178465 
   13700    1831.5739   -119.13125    1.6572465   -117.47401    3631.0561    4.2651435    4.2651435    4.2651435    3631.0561   -6437.2315    4818.3817    12512.018   -3942.5868   -994.02392   -23796.329     77.58914 
   13800    1029.1638   -118.39792   0.93120905   -117.46671    -38083.95    4.3014261    4.3014261    4.3014261    -38083.95    -39154.87   -22651.639    -52445.34    8390.3594    -6114.252    32506.756    79.586131 
   13900    1222.5746   -118.54788    1.1062112   -117.44167    9603.4304    4.2806435    4.2806435    4.2806435    9603.4304   -6894.6203   -15128.869     50833.78   -1565.0693   -522.03595    38349.315    78.438124 
   14000    2018.8497   -119.25395    1.8266977   -117.42725   -5127.5485    4.2728351    4.2728351    4.2728351   -5127.5485   -25694.522   -16077.932    26389.809   -2262.1579    -5152.882   -24090.329    78.009664 
   14100     939.6383     -118.302   0.85020448   -117.45179    18962.031    4.2666219    4.2666219    4.2666219    18962.031    5927.3639     44618.73    6339.9993   -4276.9157   -3122.0179    32582.357    77.669854 
   14200     668.7868   -118.07719   0.60513236   -117.47206    16759.661    4.2778411    4.2778411    4.2778411    16759.661   -20952.672     58973.04    12258.614   -6676.3235   -365.85578    55327.223    78.284172 
   14300    1906.2961   -119.17151    1.7248567   -117.44666   -9600.8355    4.2824298    4.2824298    4.2824298   -9600.8355   -36363.395    19604.966   -12044.078   -611.19692   -683.17075   -24052.701    78.536355 
   14400    1491.5377   -118.80056    1.3495746   -117.45099    14057.677    4.2652874    4.2652874    4.2652874    14057.677    22258.914     1426.261    18487.854    7147.6618   -3267.8618    27863.857    77.596993 
   14500     665.9647   -118.07327   0.60257885   -117.47069    4447.0966    4.2729117    4.2729117    4.2729117    4447.0966      17837.1   -18959.566    14463.756    4860.9052   -1902.2308    59049.809    78.013859 
   14600    1781.1788   -119.06432     1.611648   -117.45268    1476.1684    4.2671417    4.2671417    4.2671417    1476.1684   -22739.551    32504.981   -5336.9254   -279.36374   -5523.0564   -15234.983    77.698244 
   14700      1429.41   -118.75602    1.2933602   -117.46266    21379.113    4.2676522    4.2676522    4.2676522    21379.113    15948.732    -18766.01    66954.617   -4351.0014   -4577.9033   -63.026058    77.726131 
   14800    1091.6161   -118.45608   0.98771722   -117.46836   -32645.541    4.2869046    4.2869046    4.2869046   -32645.541    9442.6445   -54830.087    -52549.18   -1171.5638    -1554.827    63291.464    78.782806 
   14900    1465.9601   -118.76881    1.3264315   -117.44237    8002.2841     4.271308     4.271308     4.271308    8002.2841   -9415.7819    25263.976    8158.6582    15684.275   -8120.2981    -3708.437    77.926051 
   15000    1502.1042   -118.80929    1.3591355   -117.45016   -18826.126    4.2718168    4.2718168    4.2718168   -18826.126   -24825.955   -36457.535    4805.1119   -1407.6342    4453.4581   -5079.1656    77.953902 
   15100    818.73359    -118.2089   0.74080736    -117.4681   -9440.5352    4.2697233    4.2697233    4.2697233   -9440.5352    9839.4812    11938.566   -50099.652   -11181.917    5514.3453    45050.686    77.839347 
   15200    1524.6987   -118.84777    1.3795794   -117.46819    10683.517    4.2701807    4.2701807    4.2701807    10683.517   -1029.3184   -11521.755    44601.624    3800.7686     5533.718    37771.464    77.864369 
   15300    1625.1986    -118.9283    1.4705138   -117.45778   -1483.4562    4.2905852    4.2905852    4.2905852   -1483.4562   -2252.0048   -19825.334     17626.97     12466.25    7839.0409   -33298.407    78.985903 
   15400    1122.4463   -118.46925     1.015613   -117.45364    15952.835    4.2668283    4.2668283    4.2668283    15952.835    17004.179    8401.7351    22452.591    7629.8144   -2872.5375    41427.191    77.681126 
   15500    989.64539   -118.36196   0.89545195   -117.46651    14804.641    4.2706892    4.2706892    4.2706892    14804.641    12208.254   -25801.004    58006.673   -5043.2733   -5745.3775    39142.518    77.892188 
   15600    2006.1858   -119.24921    1.8152391   -117.43397   -38652.631    4.2999168    4.2999168    4.2999168   -38652.631   -39763.111   -18916.866   -57277.915   -6513.7994   -11311.612   -24291.412    79.502383 
   15700    892.88968   -118.23084   0.80790535   -117.42294    13214.675    4.2900189    4.2900189    4.2900189    13214.675    74099.805   -26874.539   -7581.2394   -5737.9779   -1007.5517    44100.966     78.95463 
   15800    1295.9872   -118.58952    1.1726365   -117.41688    9744.4643    4.2877735    4.2877735    4.2877735    9744.4643    55616.426   -33518.493    7135.4597    1736.0861    4066.6752   -2073.0432    78.830725 
   15900    1483.2565   -118.76438    1.3420817    -117.4223   -3538.5729    4.2820884    4.2820884    4.2820884   -3538.5729    69256.467   -44955.171   -34917.015     2685.352   -5985.9561   -10713.887    78.517575 
   16000     703.4455    -118.0826   0.63649227   -117.44611    24803.387    4.2698251    4.2698251    4.2698251    24803.387    59922.008   -23146.156    37634.307    6270.1304    1100.7421    47865.129    77.844917 
   16100    1604.1063    -118.9032    1.4514291   -117.45177   -31199.151    4.2771554    4.2771554    4.2771554   -31199.151   -44712.912   -25031.837   -23852.704   -6468.4975    11883.974    15506.898     78.24653 
   16200    1317.0979   -118.64168    1.1917378   -117.44994     6831.212    4.2719533    4.2719533    4.2719533     6831.212   -28233.588   -4033.7832    52761.007     2672.114   -1284.8672   -24993.279    77.961373 
   16300    1087.6268   -118.45085   0.98410754   -117.46674   -12859.239    4.2766734    4.2766734    4.2766734   -12859.239    19872.153   -21668.563   -36781.309    9706.3104   -9675.7828    18383.221     78.22008 
   16400    1141.1569   -118.49661    1.0325427   -117.46407    13791.444    4.2785447    4.2785447    4.2785447    13791.444    1631.0406    20381.977    19361.316   -4779.4855    -1381.023    14168.303    78.322804 
   16500    1925.6531    -119.1925    1.7423714   -117.45013   -5628.2402    4.2692492    4.2692492    4.2692492   -5628.2402   -44452.611    11928.597    15639.292   -10336.017    5044.8851   -3021.0443    77.813424 
   16600    914.66358   -118.29483   0.82760683   -117.46722    14251.208    4.2707601    4.2707601    4.2707601    14251.208    26452.681   -17492.373    33793.315   -3340.1838   -14376.468   -21545.231    77.896066 
   16700    1217.1503   -118.56309    1.1013031   -117.46179    1669.3093    4.2723722    4.2723722    4.2723722    1669.3093    37162.835   -49776.369    17621.461    4110.5579   -2201.5838   -26950.788    77.984311 
   16800    1526.9141     -118.836     1.381584   -117.45442   -3333.1921    4.2740173    4.2740173    4.2740173   -3333.1921    -17331.01      2436.41    4895.0234   -7369.2577    7326.0478    9123.6315     78.07443 
   16900    1135.4961   -118.48247    1.0274207   -117.45505    -10066.38    4.2800842    4.2800842    4.2800842    -10066.38   -52094.316    8632.1549    13263.022   -18221.297    6263.8511   -667.39928     78.40738 
   17000    1168.9233   -118.50596    1.0576664    -117.4483   -2581.0289    4.2823012    4.2823012    4.2823012   -2581.0289    29993.817    3863.5789   -41600.483    2130.2163   -3690.2085   -33659.361    78.529283 
   17100    1286.6816   -118.60679    1.1642165   -117.44257   -21926.921    4.2850573    4.2850573    4.2850573   -21926.921   -11823.139     5902.023   -59859.648   -6127.2772   -676.19115   -14557.614    78.681004 
   17200    1252.2164   -118.57492    1.1330317   -117.44189   -33362.985    4.2841935    4.2841935    4.2841935   -33362.985   -73335.328    6487.7348   -33241.361   -28810.178    26988.821    8575.5988    78.633433 
   17300    1553.3187   -118.84109    1.4054754   -117.43562   -26677.233     4.273493     4.273493     4.273493   -26677.233    1636.9224    -40673.71   -40994.911     16450.87    2487.3536   -23671.085    78.045703 
   17400    1202.7797   -118.52857    1.0883003   -117.44027    11097.364     4.268393     4.268393     4.268393    11097.364    66947.361     5058.441    -38713.71   -1851.6832    287.51617   -16269.863    77.766616 
   17500    950.12646   -118.32007   0.85969439   -117.46038   -11834.592    4.2855279    4.2855279    4.2855279   -11834.592    19152.012    -15645.25   -39010.539   -40660.677    26121.817    2953.4241     78.70693 
   17600    1251.2591   -118.58671    1.1321656   -117.45455   -4817.1465    4.2794441    4.2794441    4.2794441   -4817.1465    16229.045   -8290.1175   -22390.366   -9501.2082    18293.767   -473.94536    78.372206 
   17700    1510.9076   -118.81373    1.3671009   -117.44663    5408.4305    4.2765431    4.2765431    4.2765431    5408.4305    22114.094   -16836.271    10947.468    14180.915   -1238.5105   -20428.688    78.212932 
   17800    1138.3593   -118.48045    1.0300114   -117.45044   -9567.2589    4.2915961    4.2915961    4.2915961   -9567.2589   -50414.635     9961.781    11751.078   -16600.675   -9351.9122   -11615.289    79.041749 
   17900    1265.7707    -118.5882    1.1452959   -117.44291    14571.039    4.2724625    4.2724625    4.2724625    14571.039    -45611.64    35179.341    54145.417   -25582.723    26167.186    15682.336    77.989257 
   18000    1472.2114   -118.78153    1.3320878   -117.44944    19875.551    4.2671589    4.2671589    4.2671589    19875.551    63784.848    -17917.75    13759.555    16620.969    21870.817   -2685.9103    77.699184 
   18100    1484.9783   -118.80432    1.3436395   -117.46068    4810.9222    4.2721954    4.2721954    4.2721954    4810.9222     32010.03   -23296.255     5718.991   -3103.9553   -11921.016   -10998.047     77.97463 
   18200    680.32556   -118.09345   0.61557286   -117.47787    44956.664     4.274894     4.274894     4.274894    44956.664      97981.9   -18532.431    55420.523   -24536.695    3682.9219   -584.26764    78.122484 
   18300    1248.2075   -118.60126    1.1294044   -117.47185   -28918.089    4.2915144    4.2915144    4.2915144   -28918.089   -53161.347   -26140.993   -7451.9258    1928.5978    19041.912   -10187.634     79.03723 
   18400    1449.6875   -118.77186    1.3117078   -117.46015    18721.876    4.2575486    4.2575486    4.2575486    18721.876        16520    6224.4277      33421.2    17545.556   -12400.743    2294.7751    77.175394 
   18500    1342.2944   -118.69046    1.2145362   -117.47592    25736.907    4.2578275    4.2578275    4.2578275    25736.907     72387.15     7252.632   -2429.0623   -9233.7799   -14292.453    14329.124    77.190558 
   18600    1239.6569   -118.59007    1.1216676    -117.4684   -27820.623    4.2987262    4.2987262    4.2987262   -27820.623   -28451.036   -36575.941   -18434.893   -33778.607    3618.1007    4001.8948    79.436363 
   18700    1768.5363   -119.03125    1.6002088   -117.43104    3918.8727    4.2789267    4.2789267    4.2789267    3918.8727    39609.214   -14800.109   -13052.487     20211.92    14777.615   -7491.5266    78.343783 
   18800    1426.9415    -118.7307    1.2911267   -117.43958   -22224.582    4.2741134    4.2741134    4.2741134   -22224.582   -21956.305   -19022.146   -25695.296    15946.521   -19147.214    19473.542    78.079698 
   18900     822.1136   -118.20591   0.74386566   -117.46204   -13490.396    4.2766276    4.2766276    4.2766276   -13490.396   -52370.204    33543.921   -21644.904   -13913.748   -34403.633    10189.569    78.217568 
   19000    1836.9519   -119.12046    1.6621127   -117.45835   -17831.505    4.2770175    4.2770175    4.2770175   -17831.505   -18339.877   -20461.796   -14692.842   -16111.396    8210.4802   -6186.3261    78.238963 
   19100    1302.6016   -118.64878    1.1786213   -117.47016   -27240.323     4.295155     4.295155     4.295155   -27240.323   -17343.865   -63508.463   -868.64018   -657.27825   -7014.4748    24059.941     79.23855 
   19200    1218.2008   -118.54687    1.1022537   -117.44461    3333.7718    4.2889527    4.2889527    4.2889527    3333.7718    41788.914   -5087.5403   -26700.059    14594.912    -24826.34    3047.5528    78.895779 
   19300    1651.0218   -118.92082    1.4938792   -117.42694   -8763.8142    4.2747078    4.2747078    4.2747078   -8763.8142    16270.697   -47704.272    5142.1317   -16346.074    10368.455   -7173.0986    78.112278 
   19400    1413.7256   -118.72603    1.2791686   -117.44686      11942.7    4.2561195    4.2561195    4.2561195      11942.7    27514.955   -34256.288    42569.433   -13060.632     9959.811    12716.878    77.097705 
   19500    1160.4006    -118.5339    1.0499549   -117.48394    -392.4687    4.2659485    4.2659485    4.2659485    -392.4687   -5459.8064   -30101.325    34383.726    11577.913    -3692.469    6715.6533    77.633082 
   19600    1005.6738   -118.39594   0.90995477   -117.48599   -22146.926    4.2863493    4.2863493    4.2863493   -22146.926   -38180.356   -5176.8955   -23083.526     4564.606   -28770.355    4190.8824    78.752198 
   19700    976.37721   -118.35506   0.88344661   -117.47161   -8199.6089    4.2882053    4.2882053    4.2882053   -8199.6089    1431.3903   -39116.286    13086.069   -9975.1972   -1024.3245   -12697.823    78.854543 
   19800    1940.0211   -119.20111    1.7553719   -117.44573   -12667.265    4.2779517    4.2779517    4.2779517   -12667.265   -35929.465   -4005.8528    1933.5238    9246.8697    8204.2299   -864.81463     78.29024 
   19900     1304.422   -118.63256    1.1802685   -117.45229    24260.908    4.2766118    4.2766118    4.2766118    24260.908    2458.5587    69282.001    1042.1644   -11235.945   -20590.187    2482.0833    78.216699 
   20000    729.73227   -118.12569   0.66027709   -117.46541    7997.6339    4.2966006    4.2966006    4.2966006    7997.6339   -27127.582    72646.506   -21526.022   -16994.932   -8270.1374   -15878.657    79.318583 
   20100    1604.0933   -118.87921    1.4514173    -117.4278   -31587.543    4.3033131    4.3033131    4.3033131   -31587.543    -55645.09   -31668.624   -7448.9152    15077.598    15428.992      14178.9    79.690922 
   20200    1289.5259   -118.57792    1.1667901   -117.41113    20290.791     4.287239     4.287239     4.287239    20290.791    25482.518   -14783.082    50172.939   -4185.1348   -31945.443   -965.31531    78.801244 
   20300    550.72814   -117.92526    0.4983104   -117.42695    41812.532    4.2881961    4.2881961    4.2881961    41812.532    34510.985    53318.029    37608.582   -17606.402   -24783.053   -20361.348    78.854036 
   20400    1769.3412   -119.01234    1.6009371    -117.4114   -42919.202    4.2982524    4.2982524    4.2982524   -42919.202   -40276.605   -31771.763   -56709.237   -1056.2222    45139.595     8846.527    79.410098 
   20500    1272.0381   -118.55964    1.1509668   -117.40868    2191.5897    4.2898247    4.2898247    4.2898247    2191.5897    12601.397    47384.703   -53411.331   -338.06294   -19542.448    4743.0036    78.943913 
   20600    1219.5343   -118.52352    1.1034602   -117.42006    10979.209    4.2669818    4.2669818    4.2669818    10979.209   -19094.189    84816.214   -32784.399    9728.4037   -37774.905   -3699.0879    77.689508 
   20700    1225.6898   -118.55195    1.1090299   -117.44292    17202.752    4.2641641    4.2641641    4.2641641    17202.752    26482.346    51677.371   -26551.462   -18489.582    36281.251   -8299.0781    77.535705 
   20800    1186.2004   -118.53711    1.0732991   -117.46381   -21077.529    4.2847325    4.2847325    4.2847325   -21077.529   -24347.508    26856.887   -65741.966   -699.18479   -23495.415   -1588.5655    78.663113 
   20900    1276.6672   -118.60942    1.1551553   -117.45427   -48848.047    4.2997678    4.2997678    4.2997678   -48848.047   -65235.037   -18793.153   -62515.952    10264.349   -41803.268    10704.458    79.494123 
   21000    1534.7343   -118.81811    1.3886598   -117.42945   -17966.627    4.2911403    4.2911403    4.2911403   -17966.627   -44947.967   -32274.657    23322.744    4429.6427    21212.127   -9398.3161    79.016562 
   21100    1325.5046   -118.62694    1.1993444   -117.42759    8290.1898    4.2728219    4.2728219    4.2728219    8290.1898   -29026.425    50947.551    2949.4428   -1628.3939   -16990.801   -10943.793    78.008939 
   21200     725.4365   -118.10452   0.65639019   -117.44813   -606.36741    4.2721721    4.2721721    4.2721721   -606.36741   -25089.423    58375.303   -35104.982    12937.737   -45315.598   -1227.2996    77.973353 
   21300    1226.6548   -118.56935     1.109903   -117.45945   -15193.787    4.2816398    4.2816398    4.2816398   -15193.787    202.48919   -33699.858   -12083.993    7839.8909   -4752.6211    17260.626    78.492904 
   21400    1885.9642   -119.16796      1.70646    -117.4615   -10940.867     4.277914     4.277914     4.277914   -10940.867   -10458.543   -30083.971    7719.9122   -19417.818      16035.2    5781.3376    78.288173 
   21500    1292.5313   -118.63685    1.1695095   -117.46734    40536.704    4.2656646    4.2656646    4.2656646    40536.704    48373.409    44087.446    29149.257   -15848.989   -35111.415    -10933.72    77.617581 
   21600    1126.4817   -118.49192    1.0192643   -117.47266   -10102.729    4.2862697    4.2862697    4.2862697   -10102.729   -12005.382   -13512.141   -4790.6655   -3736.9039   -23903.489    14168.552    78.747809 
   21700    1480.0382   -118.79184    1.3391697   -117.45267   -23247.677    4.2858011    4.2858011    4.2858011   -23247.677    13638.112   -65321.175   -18059.967    4028.5734    12658.302    16073.756    78.721985 
   21800    1287.6085     -118.623    1.1650552   -117.45794    1751.8048     4.263943     4.263943     4.263943    1751.8048    28427.578   -24082.191    910.02752   -20324.241    4787.3718   -15314.045    77.523641 
   21900    1451.6308    -118.7842     1.313466   -117.47074    11484.686    4.2539362    4.2539362    4.2539362    11484.686    48517.974   -19663.773    5599.8566   -9901.8895   -16500.811   -18715.477    76.979116 
   22000    1962.1743   -119.25787    1.7754166   -117.48246    3729.1285    4.2636188    4.2636188    4.2636188    3729.1285    55835.442   -28365.496   -16282.561    8794.9839   -21094.057     6767.733    77.505963 
   22100    1188.5235   -118.56889    1.0754011   -117.49349   -4234.6264    4.2855656    4.2855656    4.2855656   -4234.6264   -7336.6854   -37103.514     31736.32   -4378.6464    24175.135    3739.1005    78.709008 
   22200    863.61443   -118.26815   0.78141649   -117.48673   -10384.568    4.2773199    4.2773199    4.2773199   -10384.568    4127.1565    -46502.78     11221.92   -6659.4503    23680.842   -34049.481    78.255558 
   22300    1212.2967   -118.56923    1.0969115   -117.47232    26051.647    4.2475871    4.2475871    4.2475871    26051.647    42435.778   -30334.853    66054.016    6573.4519    1789.7075   -15808.026    76.634951 
   22400    1463.7823   -118.82591     1.324461   -117.50145   -4926.2634    4.2654621    4.2654621    4.2654621   -4926.2634    20031.843   -39834.676    5024.0428    15646.397    7091.4282    30109.215     77.60653 
   22500    1216.5492   -118.58784    1.1007593   -117.48708   -18677.078    4.2849432    4.2849432    4.2849432   -18677.078    2126.0408   -35683.613   -22473.663     2076.801    15472.744    14272.653    78.674719 
   22600    1372.5895   -118.71049    1.2419478   -117.46854    9376.2366    4.2763767    4.2763767    4.2763767    9376.2366   -18783.264   -15378.594    62290.568   -13743.559    22826.556   -6507.1686    78.203799 
   22700    1238.8649   -118.59706     1.120951   -117.47611    5020.6842    4.2714304    4.2714304    4.2714304    5020.6842    7698.9085   -42979.699    50342.843     2461.806   -6046.6093    4904.0332     77.93275 
   22800    961.17511   -118.34786   0.86969144   -117.47816    6044.5704    4.2701168    4.2701168    4.2701168    6044.5704    20903.593   -49192.035    46422.152    9333.0921   -18361.884    3993.5799    77.860871 
   22900    1028.2613   -118.40692    0.9303924   -117.47653    18642.532    4.2648328    4.2648328    4.2648328    18642.532     19678.23    5986.6345    30262.732   -4806.9232    21437.915   -13205.594    77.572183 
   23000    1624.3453   -118.94704    1.4697417   -117.47729    11758.102    4.2718488    4.2718488    4.2718488    11758.102    26296.247    15075.762   -6097.7028   -5793.1092    4642.1716   -10444.766    77.955653 
   23100    1457.7633   -118.80051    1.3190149    -117.4815   -10567.774    4.2803526    4.2803526    4.2803526   -10567.774    26751.039   -48640.203   -9814.1591   -8417.4428   -12043.439    15090.517    78.422133 
   23200    950.07784   -118.33399   0.85965039   -117.47434     19300.47    4.2639829    4.2639829    4.2639829     19300.47    97503.461   -49390.081      9788.03    6883.5564   -10526.778    4628.4568    77.525821 
   23300    1564.9071   -118.88107    1.4159608   -117.46511     -16306.1    4.2723905    4.2723905    4.2723905     -16306.1   -9883.5466   -16799.994   -22234.759    6247.2904    18793.848   -22214.211    77.985313 
   23400    1395.2282   -118.71989    1.2624318   -117.45746    8378.1308     4.281693     4.281693     4.281693    8378.1308    382.09681    6882.9999    17869.296   -8359.0563    9151.7993    23994.583     78.49583 
   23500    1217.6227   -118.55497    1.1017306   -117.45324    3708.6428    4.2849979    4.2849979    4.2849979    3708.6428    41017.691   -31283.455     1391.692   -12324.716   -4595.5036    22006.187    78.677736 
   23600    1495.3125   -118.79933    1.3529901   -117.44634   -36914.804    4.2939831    4.2939831    4.2939831   -36914.804    -5750.468   -51789.511   -53204.432   -5872.1151   -2604.5899   -35886.663     79.17371 
   23700    1539.7231   -118.82774    1.3931738   -117.43457   -6191.5737    4.2787375    4.2787375    4.2787375   -6191.5737   -39261.848     22908.08   -2220.9536    2640.5223   -6671.8095   -11038.108    78.333389 
   23800    1081.3249   -118.43283   0.97840548   -117.45443   -6315.4251     4.278472     4.278472     4.278472   -6315.4251    9396.2753   -8467.0691   -19875.482   -2794.9684    2028.5732    63294.368    78.318808 
   23900    1469.8916   -118.78312    1.3299888   -117.45313   -18738.618    4.2887889    4.2887889    4.2887889   -18738.618   -35718.455    3754.0845   -24251.484   -9060.1179   -5906.8456    19808.104     78.88674 
   24000    1835.2835   -119.11585     1.660603   -117.45525   -14861.755    4.2740019    4.2740019    4.2740019   -14861.755   -19951.896   -16367.049   -8266.3194   -3007.1142   -9647.0506   -19277.349    78.073587 
   24100    1179.4347   -118.52899    1.0671773   -117.46181      30730.8    4.2498738    4.2498738    4.2498738      30730.8    38208.004    29482.624    24501.771    6889.9101    3757.1878    37081.477    76.758786 
   24200    1073.3857   -118.47159   0.97122198   -117.50037   -632.17742    4.2836777    4.2836777    4.2836777   -632.17742   -12230.126    21477.694     -11144.1    1482.8434    7581.6775    44002.015    78.605034 
   24300    1530.9487   -118.82109    1.3852346   -117.43585   -44020.467    4.3165752    4.3165752    4.3165752   -44020.467   -24118.847   -61373.703   -46568.851   -2564.2119    -18582.42   -21787.766    80.429976 
   24400    980.10495   -118.30507   0.88681955   -117.41825    35992.729     4.273817     4.273817     4.273817    35992.729    95756.384     21593.69    -9371.886    -2193.546   -7599.7175    32331.238    78.063454 
   24500    1408.9691   -118.69658    1.2748648   -117.42171    23838.073    4.2607502    4.2607502    4.2607502    23838.073    99779.527   -5275.1551   -22990.153   -5130.6364   -4431.4394    28359.161    77.349624 
   24600    1686.9383   -118.96639    1.5263772   -117.44001   -30327.115    4.2958105    4.2958105    4.2958105   -30327.115   -47538.027   -28180.175   -15263.145   -17788.271   -7498.2603   -15493.233    79.274836 
   24700    817.35065   -118.17287   0.73955605   -117.43332    5117.9361    4.3021587    4.3021587    4.3021587    5117.9361    451.79643    16877.654   -1975.6422    7781.0205    -7835.644    53489.593    79.626804 
   24800    1300.6977   -118.58446    1.1768986   -117.40757    16329.635    4.2740379    4.2740379    4.2740379    16329.635    4877.1563    50830.043   -6718.2952     5467.249    11641.508    27853.775    78.075562 
   24900     1771.314   -119.00851    1.6027221   -117.40579    4340.1613    4.2666782    4.2666782    4.2666782    4340.1613   -6599.1583     14001.93    5617.7125     68.42756    4359.8499   -24224.207    77.672926 
   25000    1059.5808    -118.4029   0.95873096   -117.44417    2035.8241    4.2858395    4.2858395    4.2858395    2035.8241    41779.659   -7363.3973   -28308.789   -6103.2466   -7454.7001    25908.774    78.724103 
   25100    1203.1537   -118.52011    1.0886387   -117.43147   -18163.736    4.3020684    4.3020684    4.3020684   -18163.736   -12259.512    -33677.94   -8553.7543   -2190.0262   -12187.458    10611.504    79.621791 
   25200    1592.4485   -118.86366    1.4408809   -117.42278   -7214.1948    4.2751753    4.2751753    4.2751753   -7214.1948   -24786.684   -34780.008    37924.108    16267.763    7237.2936   -15349.502     78.13791 
   25300    783.33432   -118.14061   0.70877736   -117.43184    54191.456    4.2458777    4.2458777    4.2458777    54191.456    80789.295    52340.966    29444.108    791.24367    13804.635    42062.747    76.542462 
   25400     1428.534    -118.7511    1.2925676   -117.45854   -1926.2043    4.2734006    4.2734006    4.2734006   -1926.2043    6637.6595   -19534.926    7118.6534    397.14944     351.0015    14205.403    78.040637 
   25500    1444.9831   -118.76254    1.3074511   -117.45509    3438.2977     4.279384     4.279384     4.279384    3438.2977    22199.422    5275.2313   -17159.761    2125.5016    6492.3757   -30392.226    78.368903 
   25600    1183.8374   -118.53118     1.071161   -117.46002    181.65288     4.270021     4.270021     4.270021    181.65288    5510.8695    8029.5673   -12995.478    25074.368   -3793.9729    16366.144    77.855629 
   25700    1532.2075   -118.84844    1.3863736   -117.46206    -28776.39    4.2676799    4.2676799    4.2676799    -28776.39     -20503.8   -41242.203   -24583.167    749.51396    13422.841    39224.971    77.727648 
   25800    1280.5635   -118.62466    1.1586808   -117.46598    11237.977    4.2638952    4.2638952    4.2638952    11237.977    11393.367     -1646.31    23966.872    -6409.113    19826.422   -21460.031    77.521037 
   25900    821.67642   -118.21546   0.74347009   -117.47199   -22284.551    4.2901598    4.2901598    4.2901598   -22284.551   -40063.239   -52907.379    26116.965    32042.118   -2829.3767   -37096.324     78.96241 
   26000    1623.6902   -118.91985    1.4691491    -117.4507   -13491.865    4.2747028    4.2747028    4.2747028   -13491.865   -31633.498   -47931.363    39089.265    12445.069   -14684.434    11866.088    78.112006 
   26100    1837.7309   -119.10251    1.6628175    -117.4397    11142.216    4.2556216    4.2556216    4.2556216    11142.216    24644.737   -10833.325    19615.235   -8159.2323    15117.733   -13657.201    77.070649 
   26200    913.59748   -118.29923    0.8266422   -117.47259   -21577.085    4.2762504    4.2762504    4.2762504   -21577.085    12106.996   -45963.616   -30874.635    5682.3298   -3413.4616   -44574.578    78.196871 
   26300    1014.8979   -118.38675   0.91830099   -117.46845    10861.133     4.271719     4.271719     4.271719    10861.133    63267.859   -24621.512   -6062.9471    21889.564   -4271.7944   -4832.7409    77.948545 
   26400    1532.3773   -118.85175    1.3865272   -117.46522    10598.008     4.272359     4.272359     4.272359    10598.008    40361.684   -8480.1023   -87.557865    11914.148    8644.8236    15976.788    77.983588 
   26500    1363.1905   -118.69453    1.2334434   -117.46109     6290.427    4.2676789    4.2676789    4.2676789     6290.427    35236.464    22228.852   -38594.035   -17978.834   -5105.5505   -5983.4481    77.727593 
   26600    1030.3066   -118.39538   0.93224303   -117.46314    14876.856     4.263947     4.263947     4.263947    14876.856   -4364.5975    30804.811    18190.355    36095.304   -2109.4165   -12821.381    77.523861 
   26700    1247.9671   -118.59266    1.1291869   -117.46347   -4077.3285     4.281715     4.281715     4.281715   -4077.3285   -1915.6797    -10225.06   -91.246195    45524.081    149.29059    2934.1694    78.497038 
   26800    2000.9146   -119.25334    1.8104696   -117.44287   -2810.4759    4.2737728    4.2737728    4.2737728   -2810.4759   -17391.919    3271.6626    5688.8284   -15941.552   -1112.0922    11872.625    78.061032 
   26900    821.47233   -118.20514   0.74328543   -117.46186    1968.5112    4.2655555    4.2655555    4.2655555    1968.5112    23209.128   -35322.335     18018.74    38896.701     1830.355   -11318.468    77.611628 
   27000    1080.5405   -118.44394   0.97769578   -117.46625   -12725.035    4.2651277    4.2651277    4.2651277   -12725.035   -41393.757   -2751.9466    5970.5981    42458.359    3439.1581    1756.7583    77.588279 
   27100    1726.3415    -119.0159      1.56203   -117.45387   -9312.1905    4.2862421    4.2862421    4.2862421   -9312.1905    1911.2193    -25055.83   -4791.9607   -19564.038    585.53201   -4793.5664    78.746288 
   27200    1002.1859   -118.35252   0.90679888   -117.44572    11542.315    4.2922985    4.2922985    4.2922985    11542.315    19860.694   -38603.173    53369.422    14028.357   -19592.818    53.966656    79.080562 
   27300    1383.4503   -118.67255    1.2517749   -117.42077    2551.3615    4.2778992    4.2778992    4.2778992    2551.3615   -6542.8115    -1207.972    15404.868    17818.796    11833.094   -15985.846    78.287359 
   27400    1509.1121   -118.77712    1.3654764   -117.41164   -561.48043    4.2844416    4.2844416    4.2844416   -561.48043   -6992.0759    39743.842   -34436.207   -23655.078    5440.6659    4610.0322    78.647095 
   27500    727.68025   -118.07683   0.65842038   -117.41841     24845.37    4.3061982    4.3061982    4.3061982     24845.37    2642.9729    75676.788   -3783.6512    13550.334   -13726.899    19329.812    79.851312 
   27600    1558.9717    -118.8085    1.4105904   -117.39791   -50027.739    4.3098013    4.3098013    4.3098013   -50027.739   -43289.137   -49195.599   -57598.482    2959.2737    6944.9603   -14503.957    80.051919 
   27700    1233.1106   -118.50623    1.1157444   -117.39049    14263.144     4.262487     4.262487     4.262487    14263.144    52217.701   -22783.836    13355.566   -10516.398    8327.3314    12113.117    77.444255 
   27800    774.87764   -118.13377   0.70112557   -117.43265    55153.787    4.2660567    4.2660567    4.2660567    55153.787    72031.424   -8857.6485    102287.58    15386.182    -11255.48    25792.328    77.638991 
   27900    1758.4399   -119.00276    1.5910733   -117.41168   -50220.254    4.3096878    4.3096878    4.3096878   -50220.254   -50385.128   -83072.253   -17203.382    6328.8074    3647.8532   -8712.9036    80.045595 
   28000    1279.0579   -118.55611    1.1573185   -117.39879    16972.797    4.2819387    4.2819387    4.2819387    16972.797    25753.911    51359.895   -26195.414   -7787.4151    14604.249     21604.98    78.509341 
   28100    730.80086   -118.07946   0.66124397   -117.41822    35786.626    4.2714333    4.2714333    4.2714333    35786.626    4167.5992    75526.846    27665.432    12653.867    12839.322     28691.09    77.932909 
   28200    1581.1145    -118.8525    1.4306257   -117.42188   -29912.803     4.288739     4.288739     4.288739   -29912.803   -63746.372   -8398.4832   -17593.553    30839.866   -1395.5513   -14443.003    78.883984 
   28300     1472.304   -118.75551    1.3321716   -117.42334   -8629.3902    4.2852069    4.2852069    4.2852069   -8629.3902    1901.8244   -28270.927    480.93234   -5454.0171   -6979.8938    16556.467    78.689245 
   28400    886.56488   -118.23631   0.80218253   -117.43413   -12319.009    4.2927125    4.2927125    4.2927125   -12319.009   -5416.8271   -38733.521    7193.3223    18966.553    4689.1962     24389.31    79.103447 
   28500    1730.6626   -118.98196    1.5659399   -117.41602   -20815.474    4.2780365    4.2780365    4.2780365   -20815.474   -23513.643   -59943.675    21010.897    26675.638    10739.187   -15575.159    78.294896 
   28600    1212.9186   -118.52468    1.0974742   -117.42721    16702.102     4.253059     4.253059     4.253059    16702.102    84088.602   -27531.607   -6450.6903    1415.9058   -63.143706    31640.092    76.931506 
   28700    815.11961   -118.19939   0.73753735   -117.46185    16171.374    4.2618708    4.2618708    4.2618708    16171.374    97809.361   -27732.467   -21562.771    7383.5667   -11585.189    22051.577    77.410673 
   28800    1638.9461   -118.93486    1.4829529    -117.4519   -32077.586    4.2892846    4.2892846    4.2892846   -32077.586   -8630.1574   -51051.282    -36551.32     -3133.87    -1877.841   -16470.632    78.914098 
   28900    1382.8053   -118.70568    1.2511913   -117.45449   -10093.581    4.2715367    4.2715367    4.2715367   -10093.581    18462.241   -32723.218   -16019.767    175.81444    12277.385    46737.146    77.938571 
   29000    1077.5516   -118.41893   0.97499129   -117.44394    34052.224    4.2424286    4.2424286    4.2424286    34052.224    69535.726   -8867.2212    41488.167    3896.5584    5117.9768    34998.319    76.356082 
   29100    1269.6009   -118.60962    1.1487616   -117.46086   -12904.297    4.2648546    4.2648546    4.2648546   -12904.297   -37464.858   -6940.1152     5692.083   -6169.2527   -34852.447   -35396.829    77.573376 
   29200      1101.28   -118.45189   0.99646127   -117.45542   -9414.8841    4.2814682    4.2814682    4.2814682   -9414.8841   -9960.7582    19287.014   -37570.909   -2006.9889   -14246.099    18155.241    78.483466 
   29300    1816.7525   -119.08316    1.6438358   -117.43932   -9211.1712    4.2774403    4.2774403    4.2774403   -9211.1712   -980.66148   -6309.5386   -20343.313    11307.745    17545.735    33248.203     78.26217 
   29400    1187.4989   -118.52243     1.074474   -117.44796    -15637.93    4.2667133    4.2667133    4.2667133    -15637.93   -50154.949    13313.313   -10072.155    2084.6629   -29131.844   -15908.545    77.674844 
   29500    709.57167   -118.10131   0.64203536   -117.45928    26660.244    4.2538587    4.2538587    4.2538587    26660.244   -22980.937    79463.369    23498.301    2524.5733   -25622.396   -13515.555    76.974907 
   29600    1863.3437   -119.14176    1.6859925   -117.45576    162.04151    4.2740596    4.2740596    4.2740596    162.04151    7597.7219     -16772.5    9660.9027   -6730.8817    15425.166   -5962.7114    78.076751 
   29700    1274.2657   -118.60784    1.1529824   -117.45486    7511.0203    4.2808871    4.2808871    4.2808871    7511.0203    7012.5008   -8470.7648    23991.325   -2886.4738   -29152.731    12179.896    78.451512 
   29800    929.81249   -118.29284   0.84131388   -117.45152    334.61745    4.2761159    4.2761159    4.2761159    334.61745   -3157.8425    7700.1176   -3538.4227    10856.229   -38316.167   -4695.2966    78.189493 
   29900    1950.6733   -119.19232    1.7650102   -117.42731    -19920.62    4.2690216    4.2690216    4.2690216    -19920.62   -33199.829   -22871.917   -3690.1143    10094.997    11919.259    -11432.88     77.80098 
   30000    867.85059   -118.23932   0.78524945   -117.45407   -6059.8106     4.277771     4.277771     4.277771   -6059.8106   -54611.734    14331.834    22100.468   -19541.263   -22934.373    8254.5554    78.280323 
   30100    936.57653    -118.2837   0.84743413   -117.43627   -18960.154    4.2912972    4.2912972    4.2912972   -18960.154   -54404.692     46934.64    -49410.41   -17242.132   -23518.899   -5598.0474    79.025234 
   30200    2219.3695   -119.41215    2.0081322   -117.40402   -17159.336    4.2717844    4.2717844    4.2717844   -17159.336   -29619.339   -12385.346   -9473.3215    3417.9921    23428.477    7524.2768    77.952128 
   30300    849.63864   -118.19992    0.7687709   -117.43115   -13292.592    4.2619557    4.2619557    4.2619557   -13292.592   -12872.713   -17949.505   -9055.5586   -23577.138   -45939.478   -8695.7587    77.415298 
   30400    921.35235   -118.29217   0.83365897   -117.45851    17585.754    4.2579311    4.2579311    4.2579311    17585.754   -3521.5247    19330.067     36948.72   -14209.002    -23806.98   -4536.8444    77.196193 
   30500    2164.7395   -119.40488    1.9587018   -117.44618   -16476.209    4.2789924    4.2789924    4.2789924   -16476.209    -19194.22   -20465.458   -9768.9501    8285.6755    23816.996   -902.74388     78.34739 
   30600    1146.4645   -118.49587    1.0373451   -117.45852    4905.7683    4.2732044    4.2732044    4.2732044    4905.7683   -19396.701     15253.06    18860.946   -5952.9138   -31570.029   -9479.4704    78.029888 
   30700    790.51448   -118.17481   0.71527412   -117.45953    12530.794    4.2607677    4.2607677    4.2607677    12530.794    -7216.244    21922.683    22885.944   -13274.827   -27248.018   -11615.446    77.350578 
   30800    2032.6524   -119.27716    1.8391866   -117.43798   -20579.459    4.2760362    4.2760362    4.2760362   -20579.459   -19475.398   -26603.532   -15659.447    4644.0898    9532.0339    12818.416    78.185123 
   30900    966.55524   -118.31787   0.87455949   -117.44332    7803.9724    4.2848722    4.2848722    4.2848722    7803.9724   -29960.835    76053.805   -22681.053   -11004.067   -37394.945    1405.4112    78.670807 
   31000    1066.6929   -118.39496   0.96516611   -117.42979   -4147.4419    4.2892786    4.2892786    4.2892786   -4147.4419   -25538.327     43797.84   -30701.839   -5461.3157   -12237.256    -4238.113    78.913768 
   31100    1952.4867   -119.15709     1.766651   -117.39043   -11840.611    4.2833021    4.2833021    4.2833021   -11840.611    11260.398   -18169.078   -28613.152    15335.636    20476.842    12303.063     78.58436 
   31200     538.2547   -117.89934   0.48702417   -117.41231    13835.092     4.284741     4.284741     4.284741    13835.092    16556.557    26623.957   -1675.2371   -11703.605    -56655.94   -10480.954    78.663581 
   31300    1604.4047   -118.86138    1.4516991   -117.40968    -8684.157    4.2844016    4.2844016    4.2844016    -8684.157   -2926.4575   -26642.122    3516.1089    13130.816   -9153.3682    11988.884    78.644891 
   31400    1783.4828   -119.01833    1.6137327    -117.4046      9441.93    4.2635144    4.2635144    4.2635144      9441.93   -31479.629    22782.409    37023.009    13106.712    1469.6207    2694.0326    77.500269 
   31500    428.22335   -117.83504   0.38746549   -117.44758    12321.945     4.264541     4.264541     4.264541    12321.945   -56935.398    92680.862    1220.3717   -11178.418   -54219.447   -15230.446    77.556264 
   31600    1295.8076   -118.62343     1.172474   -117.45096   -22270.598    4.2738979    4.2738979    4.2738979   -22270.598   -44160.149    8918.1968   -31569.842   -612.82393    11661.828   -7697.6748    78.067888 
   31700    1784.6302   -119.05379    1.6147709   -117.43902   -4728.0696    4.2660528    4.2660528    4.2660528   -4728.0696   -19066.137    29162.735   -24280.807     10926.86    6855.8123    14612.615    77.638778 
   31800     820.9067   -118.20357   0.74277363    -117.4608   -27687.628    4.2761475    4.2761475    4.2761475   -27687.628     -43688.6    4644.9204   -44019.205   -9759.6991   -69424.871   -11158.557     78.19123 
   31900    1381.3167   -118.70621    1.2498444   -117.45636   -7442.4904    4.2599129    4.2599129    4.2599129   -7442.4904    29346.014   -13291.019   -38382.467   -5945.9708   -8316.6959   -27889.658    77.304034 
   32000    1996.1537   -119.25386    1.8061618    -117.4477    -8375.073    4.2606803    4.2606803    4.2606803    -8375.073    -5866.763    7636.4613   -26894.917    98.476233    9731.4848    915.21516    77.345817 
   32100    971.16835   -118.34516   0.87873354   -117.46643   -28954.001    4.2829842    4.2829842    4.2829842   -28954.001   -53142.684    3053.5449   -36772.864   -6934.5159   -53439.329   -13109.985    78.566865 
   32200    1084.6819   -118.43435   0.98144296   -117.45291    4312.7156    4.2740845    4.2740845    4.2740845    4312.7156   -17552.137    6475.1215    24015.162    826.96541   -21987.568   -16000.453    78.078111 
   32300    1807.0829    -119.0646    1.6350866   -117.42951    5614.0252    4.2699442    4.2699442    4.2699442    5614.0252   -9938.6444    11998.978    14781.742    935.84972    13617.647    7161.2846    77.851429 
   32400    794.76438   -118.16522   0.71911951    -117.4461    12817.768    4.2743814    4.2743814    4.2743814    12817.768   -63191.132     74301.61    27342.826   -12841.677   -27510.395    4528.9643    78.094386 
   32500    1163.4961   -118.50273    1.0527558   -117.44998    450.08331    4.2756644    4.2756644    4.2756644    450.08331    12264.527    10663.387   -21577.664   -9997.0226   -23306.507   -13261.838    78.164731 
   32600    1992.6901    -119.2342    1.8030279   -117.43118   -16982.087    4.2689743    4.2689743    4.2689743   -16982.087   -33086.272   -22731.686    4871.6976    7285.7814    6899.3685    5869.0217    77.798391 
   32700    828.16895   -118.20062   0.74934467   -117.45127     2444.989     4.268861     4.268861     4.268861     2444.989   -50083.151    44316.345    13101.773      6687.49   -17242.072   -4089.9461    77.792199 
   32800    1137.8608    -118.4838    1.0295604   -117.45424   -21503.339    4.2766813    4.2766813    4.2766813   -21503.339   -49779.519    13494.003     -28224.5   -4787.3093   -16429.003    -7118.995    78.220515 
   32900    1832.2769   -119.09632    1.6578826   -117.43843   -4765.9276    4.2707893    4.2707893    4.2707893   -4765.9276    5428.2374   -22636.471    2910.4507    -4268.549    6069.7752   -20771.069    77.897664 
   33000    1261.0973    -118.5898    1.1410673   -117.44873    5888.7191    4.2677754    4.2677754    4.2677754    5888.7191    5784.6798    9830.4611    2051.0163    15616.231   -16371.995    4764.8341    77.732862 
   33100    1044.6998   -118.39736   0.94526633    -117.4521    10204.302    4.2744203    4.2744203    4.2744203    10204.302   -10707.025    24480.846    16839.084    2938.8332   -23758.075    3030.8525    78.096516 
   33200    1724.8538   -118.99503     1.560684   -117.43434    1372.8358    4.2770829    4.2770829    4.2770829    1372.8358    8274.6641   -32439.945    28283.788   -9729.2991    9784.7535   -27443.156    78.242552 
   33300     1154.725   -118.49163    1.0448194   -117.44681    15110.767    4.2683898    4.2683898    4.2683898    15110.767    48269.451   -18153.305    15216.154    18223.974   -19011.332     3228.638    77.766438 
   33400    742.07631   -118.13265   0.67144624    -117.4612    4559.0361    4.2679195    4.2679195    4.2679195    4559.0361   -39259.951   -2272.4799    55209.539   -5719.9582   -24485.193    15968.686    77.740736 
   33500    1949.2084   -119.20909    1.7636847    -117.4454    -14716.58    4.2785179    4.2785179    4.2785179    -14716.58   -15438.727   -29647.189    936.17449   -26069.976    9897.2256   -3458.8581    78.321334 
   33600    1241.1912   -118.56884    1.1230558   -117.44578   -23659.063    4.2952768    4.2952768    4.2952768   -23659.063   -61890.281    18308.844   -27395.751    30337.106   -2915.2286   -222.13009    79.245293 
   33700    817.37405   -118.17464   0.73957722   -117.43506    29370.879    4.2772241    4.2772241    4.2772241    29370.879   -21759.769     77543.06    32329.346    27420.967   -19926.266    7051.0442    78.250301 
   33800    1842.0521   -119.08618    1.6667274   -117.41945    4194.6265    4.2720681    4.2720681    4.2720681    4194.6265   -27557.919    45031.038   -4889.2394   -14158.219    10073.778   -3337.1563    77.967659 
   33900    1173.9088   -118.50097    1.0621774    -117.4388   -13050.011    4.2771447    4.2771447    4.2771447   -13050.011   -37193.933   -17771.564    15815.463    22640.112   -16539.703   -2900.2169    78.245942 
   34000    734.86158   -118.11804    0.6649182   -117.45312    27748.045    4.2614325    4.2614325    4.2614325    27748.045   -49302.035    13958.841    118587.33    35625.204   -23978.564     6182.257    77.386789 
   34100    1757.5976   -119.05204    1.5903112   -117.46173   -14939.435    4.2661086    4.2661086    4.2661086   -14939.435   -35196.235   -13054.347     3432.278   -8696.3998    6589.8821   -15941.564     77.64182 
   34200    1441.4759   -118.76738    1.3042777    -117.4631   -16055.131    4.2695354    4.2695354    4.2695354   -16055.131   -3864.6115    -23166.69   -21134.093   -5655.7205    7244.4635   -6093.6221    77.829072 
   34300    793.84712   -118.19073   0.71828955   -117.47244   -8398.9311    4.2627677    4.2627677    4.2627677   -8398.9311    1295.7491   -42765.625    16273.082    39074.558    -21718.07    9011.4886    77.459554 
   34400    1433.9349   -118.76726    1.2974544    -117.4698    -15955.17    4.2706237    4.2706237    4.2706237    -15955.17   -4467.6375   -17677.929   -25719.942    6243.8116   -39293.703   -5979.1441    77.888606 
   34500    1761.3082   -119.04619    1.5936687   -117.45253   -19758.278    4.2819237    4.2819237    4.2819237   -19758.278   -14410.528   -25213.376   -19650.931   -18731.981    5098.9852    8099.8097    78.508519 
   34600    806.91194   -118.17738   0.73011088   -117.44727    -6330.815    4.2763879    4.2763879    4.2763879    -6330.815    4950.6531   -39091.912    15148.814    35666.925     7132.188    20147.212    78.204418 
   34700     1093.174   -118.43375   0.98912679   -117.44462   -11993.577    4.2697398    4.2697398    4.2697398   -11993.577   -23272.514    8517.7423   -21225.958     10586.42   -27020.698   -6459.6774    77.840251 
   34800    1835.0173    -119.0951    1.6603622   -117.43474   -27996.279    4.2772371    4.2772371    4.2772371   -27996.279   -7977.6004   -20529.753   -55481.483    -11999.71   -10230.167    12499.399    78.251015 
   34900    955.28637   -118.30119   0.86436319   -117.43682   -9619.5235    4.2832991    4.2832991    4.2832991   -9619.5235    29541.261   -48939.048   -9460.7841    45683.105    370.22848    35908.632    78.584197 
   35000     1341.166   -118.64973    1.2135152   -117.43622   -19875.799    4.2805291    4.2805291    4.2805291   -19875.799    11352.217   -47137.672   -23841.941    25535.396   -1607.9954   -9152.3103    78.431835 
   35100    1875.8924   -119.11796    1.6973468   -117.42061   -29915.049     4.279588     4.279588     4.279588   -29915.049   -1655.2436   -50501.348   -37588.557   -13301.827    6650.8417    3557.6839    78.380114 
   35200    617.34633   -117.99158   0.55858794   -117.43299    8149.8012    4.2814961    4.2814961    4.2814961    8149.8012     8956.634   -60183.551     75676.32    35618.483   -5456.9096    41162.835    78.484997 
   35300     1087.563   -118.42098   0.98404987   -117.43693    22505.372    4.2816311    4.2816311    4.2816311    22505.372   -18959.026    2238.3719    84236.771    8545.7687   -5287.9874    17410.532    78.492422 
   35400    1859.1992   -119.10295    1.6822426   -117.42071   -15135.194     4.284159     4.284159     4.284159   -15135.194   -23234.308   -16343.319   -5827.9554   -5037.0075   -65.238557   -10785.346    78.631535 
   35500    779.50339     -118.139   0.70531105   -117.43369    203.50043    4.2822829    4.2822829    4.2822829    203.50043   -5610.4786    4655.4633    1565.5166    46873.356   -3906.1529    18540.427    78.528276 
   35600    1203.2906   -118.53685    1.0887626   -117.44808   -4259.0106    4.2646864    4.2646864    4.2646864   -4259.0106      21121.2    -32900.85   -997.38143    15993.404    9012.7194    12530.361      77.5642 
   35700    1993.5744   -119.24847     1.803828   -117.44464    21993.673     4.248884     4.248884     4.248884    21993.673    22636.625     48562.88   -5218.4866   -19976.107   -13859.599   -16066.851    76.705167 
   35800    1031.2873   -118.41309   0.93313039   -117.47996   -12344.199    4.2786947    4.2786947    4.2786947   -12344.199   -22972.281   -1058.2511   -13002.065    17956.019   -20503.399    489.46082    78.331042 
   35900    663.46049   -118.08051   0.60031299    -117.4802    964.50978    4.2730863    4.2730863    4.2730863    964.50978   -11922.681   -9056.3678    23872.578    21831.281    1063.3778    23515.169    78.023423 
   36000    1374.2848   -118.71022    1.2434817   -117.46673    33554.044    4.2559742    4.2559742    4.2559742    33554.044    42276.301    58227.655    158.17701   -8196.7098    2942.2674    18009.488    77.089805 
   36100    1991.6974   -119.26687    1.8021297   -117.46474   -20650.965    4.2721612    4.2721612    4.2721612   -20650.965   -28161.528    2320.2117   -36111.579   -7121.7117   -4209.3395   -11324.307     77.97276 
   36200    935.34459   -118.31844   0.84631944   -117.47212    19705.981    4.2629038    4.2629038    4.2629038    19705.981   -3857.3661    20356.469    42618.841    45251.121    -6848.191    5933.5063    77.466976 
   36300     774.1125   -118.18079   0.70043326   -117.48036    3993.3639    4.2623564    4.2623564    4.2623564    3993.3639    15967.046   -34188.111    30201.157    37938.769   -5980.4877     30484.14    77.437138 
   36400    1655.6515    -118.9664    1.4980683   -117.46833    -19569.14    4.2746217    4.2746217    4.2746217    -19569.14     8407.508   -43922.861   -23192.067    -21972.44     7601.536    2195.3399    78.107557 
   36500    1328.4909   -118.66421    1.2020465   -117.46217   -479.69989    4.2784256    4.2784256    4.2784256   -479.69989   -9096.5444   -44093.804    51751.248    8852.6814   -7594.3593   -9687.8973    78.316264 
   36600    1035.8577   -118.39647    0.9372658   -117.45921   -22327.846     4.281457     4.281457     4.281457   -22327.846   -57269.335   -46107.839    36393.635    50409.269       1718.9    25474.525    78.482847 
   36700    1683.8281   -118.96082    1.5235631   -117.43726   -18373.914    4.2860173    4.2860173    4.2860173   -18373.914   -6766.2113   -4500.7998   -43854.732    -6083.426    21870.247    6707.8818    78.733899 
   36800    1254.0293   -118.56905    1.1346721   -117.43437   -19111.623    4.2963608    4.2963608    4.2963608   -19111.623   -5469.3363   -64699.633      12834.1    9708.8849   -15210.224   -9388.9454    79.305306 
   36900    909.18177   -118.25502   0.82264677   -117.43237     23024.78    4.2731942    4.2731942    4.2731942     23024.78    54209.549    -39491.72    54356.511    43155.001    -7225.114    1871.8844     78.02933 
   37000    1347.6145   -118.64297    1.2193499   -117.42362    14248.651    4.2723934    4.2723934    4.2723934    14248.651    56395.593   -13400.944   -248.69704    3517.9077    21682.447    618.67938     77.98547 
   37100    1204.0588   -118.52289    1.0894577   -117.43343    -22695.32    4.2848834    4.2848834    4.2848834    -22695.32   -8061.1778   -10398.522    -49626.26   -8818.7405   -3687.7205   -9086.6772    78.671427 
   37200    1095.7063   -118.43489   0.99141806   -117.44347     21284.25    4.2646573    4.2646573    4.2646573     21284.25     10891.39    39017.335    13944.026    20887.764   -25574.767   -4750.7375    77.562609 
   37300    1537.0685   -118.85193    1.3907719   -117.46116    9963.2167    4.2617142    4.2617142    4.2617142    9963.2167     20756.64    16035.336   -6902.3257    1981.2375    10595.891    16573.755    77.402138 
   37400    1388.4919   -118.72577    1.2563366   -117.46944    18784.376    4.2662028    4.2662028    4.2662028    18784.376    23104.996    16237.701    17010.431   -11004.001    14566.527    19710.037    77.646966 
   37500    1183.6414   -118.54903    1.0709836   -117.47805   -5581.3336    4.2785264    4.2785264    4.2785264   -5581.3336   -41706.143    19171.949    5790.1932    2086.5671   -28048.358   -11267.021    78.321798 
   37600    1055.7622   -118.42725    0.9552758   -117.47198   -31596.771    4.2792152    4.2792152    4.2792152   -31596.771    -48413.33   -11757.126   -34619.857    7395.4327   -21863.009    1006.9762    78.359632 
   37700    1353.3531    -118.6842    1.2245424   -117.45965    5567.2787    4.2520959    4.2520959    4.2520959    5567.2787    11198.248   -736.11655    6239.7049    6364.8483    25974.859    12610.591    76.879251 
   37800    1192.3442   -118.55578    1.0788581   -117.47692    1904.0656    4.2636622    4.2636622    4.2636622    1904.0656   -3814.2592    54798.408   -45271.952    8416.1481   -19580.176    5419.7528    77.508326 
   37900    1418.3941   -118.75542    1.2833928   -117.47203   -14453.447      4.27792      4.27792      4.27792   -14453.447   -13473.159    40873.122   -70760.305   -8351.2697     -30804.3   -10283.613    78.288503 
   38000    1564.4211   -118.87271    1.4155211   -117.45719    18268.773    4.2674314    4.2674314    4.2674314    18268.773    18849.906    38912.822   -2956.4069    1672.7893    2816.9581    12120.775     77.71407 
   38100    1251.2247    -118.5936    1.1321344   -117.46147   -7129.1293    4.2762538    4.2762538    4.2762538   -7129.1293    14144.338    998.75622   -36530.482   -7828.7818   -20007.572    6102.6603    78.197057 
   38200    1131.2616   -118.47961    1.0235892   -117.45603   -26128.786    4.2781393    4.2781393    4.2781393   -26128.786   -3209.8279    8906.4453   -84082.977   -10216.133   -31065.428    -9734.058     78.30054 
   38300    1546.7324   -118.84281     1.399516   -117.44329   -15148.216    4.2746333    4.2746333    4.2746333   -15148.216    9191.2648   -25267.371   -29368.543    4725.5798    11076.009   -7762.7388    78.108196 
   38400    1236.6124   -118.56086    1.1189129   -117.44195   -9781.3291    4.2792217    4.2792217    4.2792217   -9781.3291   -43767.183   -27247.193    41670.389   -5172.3741   -6432.7254    7298.8778    78.359987 
   38500     797.8326   -118.16818   0.72189571   -117.44628    18689.542    4.2690982    4.2690982    4.2690982    18689.542   -37632.191    66347.954    27352.863   -2426.3144   -56002.946    3957.2553    77.805166 
   38600    1585.4618   -118.88269    1.4345591   -117.44813      7776.62    4.2741081    4.2741081    4.2741081      7776.62   -14925.976    14972.348    23283.488   -3713.7309    -4981.598   -2130.9579    78.079409 
   38700    1535.8165   -118.82754     1.389639    -117.4379    -18241.45    4.2863222    4.2863222    4.2863222    -18241.45   -10052.316   -16725.293   -27946.741    17315.426    11872.093    7065.9937    78.750705 
   38800    957.02503   -118.30521   0.86593636   -117.43927    15510.359    4.2712449    4.2712449    4.2712449    15510.359    20057.894    63932.952    -37459.77   -2084.0384    -30851.79   -8931.7868    77.922598 
   38900    1441.3792   -118.74829    1.3041902    -117.4441    5633.4414     4.266063     4.266063     4.266063    5633.4414    2717.2612     40210.68   -26027.617   -5172.6769   -31386.758    4564.2934    77.639335 
   39000     1582.035   -118.88285    1.4314585    -117.4514    7725.9863    4.2662055    4.2662055    4.2662055    7725.9863    54433.908   -22008.939   -9247.0097    705.85732    17742.459    37237.241    77.647114 
   39100     1229.302   -118.57174    1.1122983   -117.45945   -16220.602     4.275472     4.275472     4.275472   -16220.602    9224.2804   -10373.196   -47512.891   -4546.8254   -28927.968    7680.9249    78.154176 
   39200    1201.3349   -118.53961     1.086993   -117.45262   -21207.271    4.2756681    4.2756681    4.2756681   -21207.271   -27300.007    4830.8526   -41152.659   -1326.3263   -44175.599   -2973.8795    78.164931 
   39300    1483.6191   -118.79275    1.3424098   -117.45034   -12103.167     4.269797     4.269797     4.269797   -12103.167    9688.2536   -22693.597   -23304.158    4506.5777    12011.306    48310.508    77.843378 
   39400    1698.9646   -118.98984    1.5372589   -117.45258   -25562.434    4.2698725    4.2698725    4.2698725   -25562.434   -27625.674   -12961.024   -36100.606    3551.2084   -10921.739    15239.673    77.847511 
   39500    1243.9725   -118.58304    1.1255724   -117.45747    -3633.968    4.2627188    4.2627188    4.2627188    -3633.968    -16453.08    19531.128   -13979.952   -1055.0647   -49302.492   -12324.917    77.456887 
   39600    845.07227   -118.23059   0.76463915   -117.46595     8343.139    4.2699017    4.2699017    4.2699017     8343.139    54377.489   -7220.6079   -22127.465    5725.9182   -17956.431    26892.676    77.849105 
   39700    1417.0981   -118.73713    1.2822201   -117.45491   -9817.0821    4.2840994    4.2840994    4.2840994   -9817.0821    35483.565   -22629.131   -42305.681   -5627.8945    16581.432    14547.265    78.628253 
   39800    1774.1074   -119.04176    1.6052497   -117.43651   -5059.0153    4.2689633    4.2689633    4.2689633   -5059.0153   -50060.904   -2273.4185    37157.276    3861.3499   -1809.7787   -10510.882    77.797793 
   39900    726.51554   -118.11344   0.65736653   -117.45607   -5183.6098    4.2646234    4.2646234    4.2646234   -5183.6098    5446.6699   -12840.202   -8157.2971    5077.1876   -26901.115    39759.991    77.560758 
   40000    1050.3099   -118.41218   0.95034245   -117.46183   -23610.432    4.2705074    4.2705074    4.2705074   -23610.432    18533.809   -30082.638   -59282.465   -8731.2695   -8042.7584    31327.806    77.882242 
   40100    2026.4653   -119.28666    1.8335884   -117.45307    483.01566    4.2692888    4.2692888    4.2692888    483.01566   -18175.761    22015.544   -2390.7363   -5050.4207    79.955109   -10378.549     77.81559 
   40200    970.20614   -118.34464   0.87786291   -117.46678     11081.46    4.2817508    4.2817508    4.2817508     11081.46    11284.653    45040.978   -23081.251    21945.627   -16915.307    20567.113    78.499008 
   40300    930.73597   -118.28957   0.84214946   -117.44742   -1405.9622    4.2788503    4.2788503    4.2788503   -1405.9622   -10407.195   -5628.2078    11817.516    5260.0222   -10680.552    34935.703    78.339589 
   40400    1832.1909   -119.08697    1.6578048   -117.42916   -2703.3788    4.2692354    4.2692354    4.2692354   -2703.3788   -24050.133   -16569.052    32509.049   -15083.955    15018.822   -9338.9954    77.812668 
   40500    1111.9284   -118.45479    1.0060961    -117.4487    20983.929    4.2745195    4.2745195    4.2745195    20983.929     60518.07   -20342.161    22775.878     23313.21   -22253.087    17468.338    78.101956 
   40600    985.88038   -118.34496   0.89204529   -117.45291    -3054.989    4.2906974    4.2906974    4.2906974    -3054.989    62018.982   -40188.199   -30995.751     7387.321   -23169.241    26349.509    78.992099 
   40700    1743.7121   -119.00215    1.5777474    -117.4244   -25507.487    4.2831514    4.2831514    4.2831514   -25507.487    -28347.02   -25740.768   -22434.673   -9120.4254    15638.715   -21925.837    78.576064 
   40800      879.876    -118.2338    0.7961303   -117.43767    -4740.231    4.2682793    4.2682793    4.2682793    -4740.231   -38951.335    42667.695   -17937.052    25290.386   -14345.876    11602.006      77.7604 
   40900    895.99251   -118.27177   0.81071285   -117.46106    8660.4338     4.270708     4.270708     4.270708    8660.4338    12450.619     32780.13   -19249.447    4590.6753    4470.5176    38083.049    77.893218 
   41000    1799.6259   -119.07246    1.6283394   -117.44412    -19830.58    4.2861035    4.2861035    4.2861035    -19830.58    -15042.06    7842.4389   -52292.119   -15228.564    11370.388    -8109.766    78.738648 
   41100    1281.1473   -118.60694     1.159209   -117.44773   -9565.6269    4.2791714    4.2791714    4.2791714   -9565.6269   -27253.863   -20225.873    18782.856    23350.276   -7927.0738   -11789.467    78.357225 
   41200    736.24616   -118.12262     0.666171   -117.45645    26557.938    4.2549989    4.2549989    4.2549989    26557.938    55152.333   -3018.6985     27540.18    24090.187    -2840.422    26071.444    77.036822 
   41300    1463.3678   -118.79002     1.324086   -117.46593    5732.5964    4.2660341    4.2660341    4.2660341    5732.5964    8881.2314   -818.18755    9134.7452   -9507.5913    10674.154    9261.2803    77.637753 
   41400    1650.7435   -118.95526    1.4936274   -117.46163   -7040.4418      4.28101      4.28101      4.28101   -7040.4418   -28970.333   -3506.0056    11355.013   -1961.0655    7735.7572    -9760.408     78.45827 
   41500     1291.443    -118.6311    1.1685248   -117.46257    5196.5893    4.2702097    4.2702097    4.2702097    5196.5893     5799.959    19819.426   -10029.617    19394.337   -11112.689    14278.245    77.865954 
   41600    1056.8585   -118.42161   0.95626776   -117.46534    13006.731    4.2631328    4.2631328    4.2631328    13006.731    5610.3713    1498.3751    31911.446   -635.62073   -11221.014    39782.017    77.479462 
   41700    1387.4055   -118.72437    1.2553537   -117.46902    8809.2974    4.2668875    4.2668875    4.2668875    8809.2974    2568.5889     14902.23    8957.0739   -13519.465    -9196.032    6638.5322    77.684358 
   41800    1388.3584   -118.72529    1.2562159   -117.46908     698.9349    4.2770958    4.2770958    4.2770958     698.9349    6581.0379    13473.463   -17957.696   -12846.084    18565.556   -11711.229    78.243261 
   41900    811.98214    -118.1994   0.73469851   -117.46471   -14768.983    4.2839333    4.2839333    4.2839333   -14768.983    29470.872   -18642.255   -55135.567     11782.65   -223.15308     22287.43    78.619104 
   42000    1319.0344   -118.64592      1.19349   -117.45243    14801.248    4.2686504    4.2686504    4.2686504    14801.248    37420.294    47540.764   -40557.314   -1373.4554   -18624.922     5023.468    77.780682 
   42100     1826.659    -119.1034    1.6527994    -117.4506   -13009.568    4.2762855    4.2762855    4.2762855   -13009.568   -44539.998    2272.6097     3238.683   -27407.021    5113.0322   -13804.665    78.198798 
   42200    1221.8847   -118.55399    1.1055869    -117.4484    5886.2835     4.281658     4.281658     4.281658    5886.2835   -16068.435    17436.329    16290.956   -4634.3069   -3896.6963    23619.622    78.493902 
   42300     1261.008   -118.58608    1.1409865   -117.44509   -7322.6782     4.281179     4.281179     4.281179   -7322.6782     4270.383    14296.524   -40534.941    15750.867   -11606.053    7898.1826    78.467562 
   42400    1370.2457   -118.69343    1.2398271    -117.4536    -6657.662    4.2655285    4.2655285    4.2655285    -6657.662    2828.4544   -18023.955   -4777.4852   -3698.2017   -2229.2935   -13279.956    77.610156 
   42500    1756.6291   -119.04999    1.5894349   -117.46055    20411.996    4.2470587    4.2470587    4.2470587    20411.996   -1241.8578    26787.366    35690.479   -14373.515    4600.4914   -15397.251    76.606356 
   42600    1236.3805    -118.6128    1.1187031    -117.4941   -15799.769     4.274236     4.274236     4.274236   -15799.769   -31523.263   -8470.4506    -7405.593    8969.2433   -5795.1078    18295.048    78.086419 
   42700    1088.3242   -118.45077   0.98473858   -117.46603   -31962.161    4.2908133    4.2908133    4.2908133   -31962.161   -44675.583   -26225.284   -24985.615    -1119.616   -8495.7192   -5614.4792    78.998501 
   42800    1434.4981   -118.73188    1.2979641   -117.43391    6066.8556    4.2775164    4.2775164    4.2775164    6066.8556    28363.886    24334.153   -34497.472   -2334.5105     255.5476   -22299.334    78.266343 
   42900    1551.0884    -118.8388    1.4034574   -117.43534    960.58107    4.2727935    4.2727935    4.2727935    960.58107   -7286.8735    35673.642   -25505.026    25521.274    11789.163    16462.421    78.007381 
   43000    1246.6583   -118.57355    1.1280026   -117.44555    14984.342    4.2688652    4.2688652    4.2688652    14984.342   -13561.809    43126.221    15388.615    11643.989   -6200.5385    14920.611    77.792428 
   43100    1048.3389   -118.41109   0.94855907   -117.46253   -27769.028    4.2810929    4.2810929    4.2810929   -27769.028   -14256.347   -44792.851   -24257.886   -7775.7772   -3485.9748   -31219.313     78.46283 
   43200    1453.2225   -118.77624    1.3149063   -117.46133   -16138.473    4.2663575    4.2663575    4.2663575   -16138.473    38302.117   -47170.978   -39546.557   -30132.421    5810.2639   -19287.845     77.65541 
   43300    1510.3265   -118.83564    1.3665752   -117.46907    16416.072    4.2476282    4.2476282    4.2476282    16416.072    36965.985   -6636.6086     18918.84   -2634.7313    -774.2295    25114.312    76.637174 
   43400    974.48485   -118.37864   0.88173437   -117.49691   -12629.734    4.2738168    4.2738168    4.2738168   -12629.734    13477.028    -35958.53   -15407.698    30032.323    5546.5872   -18665.621    78.063442 
   43500    1201.5138   -118.55525    1.0871549   -117.46809   -16136.845    4.2918175    4.2918175    4.2918175   -16136.845    31358.151   -30699.235   -49069.451    7790.6117   -6707.4005   -21053.733     79.05398 
   43600    1364.8236   -118.68488    1.2349211   -117.44996   -6578.4213    4.2804768    4.2804768    4.2804768   -6578.4213    55429.573   -47453.239   -27711.597   -12455.267   -20374.291    23756.104    78.428958 
   43700    1068.0479   -118.41114    0.9663922   -117.44475    9413.4996    4.2590768    4.2590768    4.2590768    9413.4996     49608.15   -36096.448    14728.796    29093.474   -11759.626   -7962.2218    77.258527 
   43800    1218.1653   -118.56533    1.1022216    -117.4631   -8265.0773    4.2736576    4.2736576    4.2736576   -8265.0773    23999.087   -30718.636   -18075.682    16912.942   -434.09284   -28712.314    78.054721 
   43900    1609.4865     -118.908    1.4562972    -117.4517   -34100.501    4.2973713    4.2973713    4.2973713   -34100.501   -57608.995   -21989.008   -22703.501   -5847.3001    7515.5456    11978.335    79.361275 
   44000     1329.553   -118.63604    1.2030075   -117.43304     2374.539    4.2898504    4.2898504    4.2898504     2374.539   -3051.7812   -22745.048    32920.446    12938.833    6549.2594    25358.592    78.945328 
   44100    911.98158   -118.25342    0.8251801   -117.42824    15013.713    4.2870384    4.2870384    4.2870384    15013.713    -1237.923   -3163.1385    49442.199    24013.996   -826.08004   -10386.221    78.790185 
   44200    1221.4213   -118.54228    1.1051676   -117.43711   -1083.3851    4.2704689    4.2704689    4.2704689   -1083.3851    471.17786   -21428.611    17707.278   -6285.5646   -25847.318   -4870.3949    77.880132 
   44300    1292.3269   -118.61285    1.1693246   -117.44352    35604.029    4.2461149    4.2461149    4.2461149    35604.029    68382.992    16764.571    21664.522    819.40135   -13310.383    24090.091    76.555293 
   44400    1208.7249   -118.57789    1.0936797   -117.48421   -28821.399    4.2761615    4.2761615    4.2761615   -28821.399   -7438.4763   -71245.597   -7780.1227     38503.23    3179.7136    17033.335    78.191998 
   44500    1443.7782   -118.76924    1.3063609   -117.46288   -37773.781    4.2811084    4.2811084    4.2811084   -37773.781   -11447.015   -55089.437   -46784.893    12281.103   -1198.5716    -3920.227    78.463679 
   44600    1677.7209   -118.97051    1.5180371   -117.45248   -7451.8612    4.2627203    4.2627203    4.2627203   -7451.8612    12975.792   -10525.218   -24806.157   -4086.3109   -5863.2246    7875.7856    77.456972 
   44700    911.27592   -118.29693    0.8245416   -117.47239   -20853.584    4.2732573    4.2732573    4.2732573   -20853.584   -31517.803   -78294.755    47251.805    47586.875      1547.78    18818.109    78.032786 
   44800    1134.6233   -118.49076     1.026631   -117.46413    5692.9608     4.271839     4.271839     4.271839    5692.9608   -7344.6475   -45941.274    70364.804    11454.656    938.28709    14047.007    77.955115 
   44900    1616.4933   -118.92173    1.4626371    -117.4591   -9133.5408    4.2804173    4.2804173    4.2804173   -9133.5408   -19434.804   -31327.249     23361.43   -19776.553   -2032.2094   -2491.9603    78.425686 
   45000    1028.6375   -118.39179   0.93073279   -117.46105   -12610.302    4.2788905    4.2788905    4.2788905   -12610.302   -25903.705   -33139.248    21212.046    45681.775    2200.0069   -25928.562    78.341796 
   45100    1303.4477   -118.63007    1.1793868   -117.45068    17159.679     4.257549     4.257549     4.257549    17159.679    16956.068    6424.4422    28098.528     15423.12     -12855.5   -15613.043    77.175414 
   45200    1615.5517   -118.92623    1.4617851   -117.46445   -20556.124    4.2796045    4.2796045    4.2796045   -20556.124   -21823.721   -5416.0038   -34428.648   -24196.533    1005.5373    3669.9858     78.38102 
   45300      987.966    -118.3482    0.8939324   -117.45427   -28385.712     4.295617     4.295617     4.295617   -28385.712   -41726.477   -21890.925   -21539.734     42398.72     11583.38    9009.3884    79.264125 
   45400    1187.5433   -118.50695    1.0745141   -117.43244    25357.688    4.2713979    4.2713979    4.2713979    25357.688    47115.628   -2595.4646      31552.9    17096.538    10110.622    3391.9637    77.930973 
   45500    1380.2034   -118.68938    1.2488371   -117.44054     17455.97    4.2624277    4.2624277    4.2624277     17455.97    36954.666   -16132.903    31546.147   -30240.274    6632.3905    7590.5366     77.44102 
   45600    1236.7322   -118.57315    1.1190213   -117.45413    16442.161    4.2724856    4.2724856    4.2724856    16442.161     42371.22    13400.674   -6445.4111    26045.019     1862.191   -9150.5161    77.990522 
   45700    1367.1145    -118.6882    1.2369939   -117.45121   -28667.184    4.2987961    4.2987961    4.2987961   -28667.184   -7361.4349    -48718.48   -29921.636    24174.667   -6.9287869    77.747664    79.440238 
   45800    1200.9554   -118.52556    1.0866497   -117.43891   -13876.932    4.2865767    4.2865767    4.2865767   -13876.932   -25283.998   -28412.179    12065.382   -41957.544   -2872.2112     789.5175    78.764729 
   45900    1768.2275   -119.01012    1.5999294   -117.41019    19144.643    4.2478027    4.2478027    4.2478027    19144.643    19546.379    37469.943    417.60706    971.58227    10410.639   -11132.035    76.646619 
   46000    1441.6731   -118.74834    1.3044561   -117.44389   -11223.153    4.2579464    4.2579464    4.2579464   -11223.153   -5341.2304   -55690.944    27362.714    44135.001   -754.40282    137.55388    77.197024 
   46100    731.65765   -118.12493   0.66201922   -117.46291   -12177.556    4.2757517    4.2757517    4.2757517   -12177.556   -4579.9842   -73671.315    41718.632   -16645.457   -11854.522   -3900.2963    78.169518 
   46200     1393.639   -118.71604    1.2609939   -117.45504    -7635.694    4.2789246    4.2789246    4.2789246    -7635.694    32117.393   -25424.858   -29599.617   -27000.287    1169.0497     10730.46    78.343669 
   46300    1610.2832   -118.90303    1.4570181   -117.44601    11498.386    4.2746892    4.2746892    4.2746892    11498.386    5473.8497    34101.107    -5079.798    24632.046    8922.5508   -3610.9861    78.111255 
   46400    1127.3295   -118.46988    1.0200314   -117.44984    36476.396    4.2684935    4.2684935    4.2684935    36476.396    53635.744    11813.773    43979.672   -4871.8985    2634.3084   -8172.7084    77.772111 
   46500    1175.0874    -118.5141    1.0632437   -117.45086   -18570.759    4.2893728    4.2893728    4.2893728   -18570.759    6916.6743   -58035.037    -4593.915   -34613.914   -34.535858    9965.4639    78.918965 
   46600    1624.1509   -118.89211    1.4695659   -117.42254   -28470.977    4.2898966    4.2898966    4.2898966   -28470.977   -14353.697   -31248.631   -39810.603    8213.4082    11485.048    7055.8613    78.947879 
   46700    934.46504   -118.27147   0.84552361   -117.42595    15937.812    4.2809583    4.2809583    4.2809583    15937.812    14959.678     1885.107     30968.65   -19810.088     6912.877   -11343.193    78.455427 
   46800    1184.8704   -118.50162    1.0720956   -117.42952   -3617.6276    4.2844198    4.2844198    4.2844198   -3617.6276   -12322.591   -23307.633    24777.341   -26619.502   -2758.7117    -18729.82    78.645894 
   46900    2161.8549   -119.36827    1.9560918   -117.41218   -27796.899    4.2787555    4.2787555    4.2787555   -27796.899   -9024.0866   -32548.901   -41817.708    24251.111    1565.3709   -262.73958    78.334379 
   47000    958.29641   -118.30669   0.86708673    -117.4396    -21700.12    4.2845179    4.2845179    4.2845179    -21700.12   -27390.779   -69591.663    31882.082   -15902.652    11930.954   -1146.3326    78.651297 
   47100    936.28868   -118.28481   0.84717368   -117.43764    10.869075    4.2788017    4.2788017    4.2788017    10.869075   -16146.819   -34896.381    51075.807   -15488.824   -1878.6932   -15237.583    78.336919 
   47200    1926.8065    -119.1603     1.743415   -117.41688   -8364.6938    4.2755214    4.2755214    4.2755214   -8364.6938    13937.322   -9471.9511   -29559.452    7430.9785   -6623.0201    1847.5172    78.156888 
   47300    1087.8628   -118.41817   0.98432108   -117.43384   -5900.5716    4.2817653    4.2817653    4.2817653   -5900.5716   -21039.981   -17765.707    21103.973   -59736.852    1843.1263    3580.7584    78.499805 
   47400    1168.6894   -118.48784    1.0574547   -117.43039    15937.187    4.2760254    4.2760254    4.2760254    15937.187    22854.638   -29022.526    53979.449   -11111.535    8872.2597   -7751.5841    78.184531 
   47500    1627.8383   -118.89645    1.4729023   -117.42355    20613.405    4.2653378    4.2653378    4.2653378    20613.405    18614.566    20979.558    22246.092    20107.416    6383.8907   -2798.5252    77.599746 
   47600    900.86178   -118.26442   0.81511867    -117.4493    8681.7685    4.2684872    4.2684872    4.2684872    8681.7685    13619.369    1286.9336    11139.003   -55762.779   -9453.3954    2610.0673    77.771766 
   47700    1405.9392   -118.71927    1.2721233   -117.44714   -19244.186    4.2800879    4.2800879    4.2800879   -19244.186   -6226.2641   -42726.782   -8779.5116   -15373.643    1422.7721    3581.8785    78.407584 
   47800     1908.154   -119.15795    1.7265379   -117.43141   -7150.8592    4.2765098    4.2765098    4.2765098   -7150.8592   -50154.219    10473.714    18227.928    22538.381   -2723.0471    773.66013    78.211103 
   47900    720.53439   -118.09817   0.65195466   -117.44622    14085.308    4.2789734    4.2789734    4.2789734    14085.308   -11876.461   -12628.469    66760.853    -38357.91    -3105.459   -1258.3662    78.346347 
   48000    1299.6096   -118.60259    1.1759141   -117.42667    8406.2411    4.2805492    4.2805492    4.2805492    8406.2411   -9068.6721   -13992.492    48279.887    13371.968    5128.2876     4538.614    78.432935 
   48100    1362.1766   -118.66221     1.232526   -117.42969    26987.876    4.2704416    4.2704416    4.2704416    26987.876   -23910.934    29118.165    75756.397   -11720.665    1240.6056    3780.9724    77.878642 
   48200    1120.7674   -118.46032    1.0140939   -117.44623    5159.9837    4.2764238    4.2764238    4.2764238    5159.9837   -30107.825   -17680.115    63267.891   -37979.462   -3171.0923   -7697.0466    78.206384 
   48300    1636.3752   -118.91064    1.4806267   -117.43002    -17797.57    4.2780662    4.2780662    4.2780662    -17797.57   -33892.308    21059.565   -40559.966    22018.533     -7543.63   -582.85793    78.296529 
   48400    1036.6851   -118.37814   0.93801445   -117.44013   -13291.945    4.2741346    4.2741346    4.2741346   -13291.945    19657.536   -30645.846   -28887.525   -35062.421    2338.7924    6702.8695     78.08086 
   48500    1334.7059   -118.64803    1.2076699   -117.44036   -18127.369    4.2762502    4.2762502    4.2762502   -18127.369   -12406.024    -48996.45    7020.3661   -36583.744    6627.3056   -693.90727     78.19686 
   48600    1592.9711   -118.87621    1.4413537   -117.43486      13037.3    4.2707143    4.2707143    4.2707143      13037.3   -18086.836   -743.50967    57942.246    25618.763    6954.1446   -3487.1522    77.893562 
   48700    879.50157    -118.2508    0.7957915   -117.45501    16147.475    4.2797494    4.2797494    4.2797494    16147.475    6131.0529   -45417.095    87728.465   -30057.989    2393.7377    3291.9891    78.388981 
   48800    1337.4304   -118.65067    1.2101351   -117.44053    6540.2719    4.2823914    4.2823914    4.2823914    6540.2719   -22757.042   -10204.192     52582.05   -25460.333   -4061.7247     8652.385    78.534243 
   48900    1828.1149   -119.08086    1.6541168   -117.42674   -12401.921     4.272827     4.272827     4.272827   -12401.921    15230.712   -38573.955   -13862.519    35298.497   -8773.1166   -4690.9287    78.009216 
   49000     805.7242   -118.17301   0.72903619   -117.44398   -1807.7166    4.2662705    4.2662705    4.2662705   -1807.7166    23092.667   -60183.433    31667.616   -36649.806   -9092.5929   -1622.9444     77.65066 
   49100    1164.8107   -118.50793    1.0539452   -117.45398   -2513.3229    4.2651376    4.2651376    4.2651376   -2513.3229   -6086.0742    -16969.19    15515.296   -34971.642    3352.1268    6609.2061    77.588821 
   49200    1866.8822   -119.13735    1.6891942   -117.44816   -6809.3053    4.2732333    4.2732333    4.2732333   -6809.3053   -11026.024    -28461.25    19059.358    17281.278    1885.4428    675.67612    78.031473 
   49300     916.0719   -118.29339    0.8288811   -117.46451    23038.622    4.2706856    4.2706856    4.2706856    23038.622    26874.765    -22097.41     64338.51   -49529.158    8736.6096   -7707.7256     77.89199 
   49400    1194.7771   -118.54058    1.0810594   -117.45952      2841.99    4.2716193    4.2716193    4.2716193      2841.99    40811.919   -66122.133    33836.184   -16089.534    4267.6651   -4154.8486     77.94309 
   49500    1903.4314   -119.15925    1.7222647   -117.43698   -24757.873    4.2752126    4.2752126    4.2752126   -24757.873   -14706.403   -37603.175   -21964.042    21491.948    621.22493   -1031.5164    78.139955 
   49600    1029.6179   -118.38042   0.93161994    -117.4488    -7915.411    4.2752014    4.2752014    4.2752014    -7915.411   -197.53822   -35979.177    12430.482   -47566.016   -8597.2457    4587.0292     78.13934 
   49700    1174.0777   -118.50849    1.0623301   -117.44616   -14390.647    4.2768438    4.2768438    4.2768438   -14390.647   -19113.713   -36069.904    12011.677   -4487.7128    12332.175    7934.2345    78.229432 
   49800    1721.4886   -118.99245    1.5576391   -117.43482    11284.968    4.2633167    4.2633167    4.2633167    11284.968   -23384.094   -3665.4883    60904.486    20359.469   -1767.3824    5408.4871    77.489486 
   49900    967.55378   -118.33511   0.87546299   -117.45965    17137.977    4.2717247    4.2717247    4.2717247    17137.977   -4519.0292   -34784.073    90717.034   -42754.046    3445.6205   -1711.1803    77.948861 
   50000    1039.8868   -118.39118   0.94091146   -117.45026   -3492.6529    4.2865008    4.2865008    4.2865008   -3492.6529    -14867.77    -21973.04    26362.852   -5852.1842   -10932.837    717.93764     78.76055 
   50100    1601.6387   -118.87903    1.4491963   -117.42984   -20132.594    4.2763653    4.2763653    4.2763653   -20132.594   -45752.255    578.09555   -15223.623    1617.5301     5530.233     8800.628    78.203177 
   50200    1136.6786   -118.46624    1.0284907   -117.43775    2036.4767    4.2645945    4.2645945    4.2645945    2036.4767   -10580.591     1225.113    15464.908    -63313.79    2504.2417    -15821.75    77.559183 
   50300    1445.6066    -118.7532    1.3080153   -117.44518   -7760.2622    4.2722668    4.2722668    4.2722668   -7760.2622    16409.785   -26343.787   -13346.784   -11582.368    3398.0511    -2751.317    77.978541 
   50400    1382.7809   -118.69495    1.2511692   -117.44378    3766.2288     4.279263     4.279263     4.279263    3766.2288    5019.1579   -18354.078    24633.607     9316.494   -17783.499   -1283.6536    78.362258 
   50500    903.46332   -118.25845   0.81747259   -117.44098    220.59842     4.288052     4.288052     4.288052    220.59842   -34799.132   -23479.831    58940.758   -40342.507   -5518.3972    4277.3672    78.846084 
   50600    1739.8914   -118.98932    1.5742903   -117.41503   -26455.696    4.2848948    4.2848948    4.2848948   -26455.696   -38585.946   -3903.1901   -36877.951     1853.752    6595.1531    -4530.278    78.672055 
   50700    1058.6564   -118.37791    0.9578946   -117.42002    17458.005    4.2700311    4.2700311    4.2700311    17458.005    33897.293    23885.201   -5408.4787   -9797.6046   -5902.6983    3430.3961    77.856184 
   50800    774.95366   -118.14082   0.70119436   -117.43962    2247.8245    4.2820918    4.2820918    4.2820918    2247.8245   -7736.1616    10693.608    3786.0276   -46952.137   -1655.9435    13639.284    78.517763 
   50900    1974.5816   -119.20466    1.7866429   -117.41801   -33017.685    4.2848797    4.2848797    4.2848797   -33017.685     -40680.4   -26315.509   -32057.146    14686.083    2635.2467    862.89939     78.67122 
   51000    1271.2922   -118.57308    1.1502919   -117.42279    20668.817    4.2719254    4.2719254    4.2719254    20668.817   -27546.502    7356.5161    82196.438   -7528.6733   -10036.611   -6524.7837     77.95985 
   51100    636.09671   -118.01634   0.57555367   -117.44078     20716.43    4.2876315    4.2876315    4.2876315     20716.43   -31793.147   -20944.747    114887.18   -35851.185   -10553.204   -4996.8799    78.822891 
   51200    1733.6321    -118.9754    1.5686268   -117.40677   -45890.334    4.2999266    4.2999266    4.2999266   -45890.334   -56856.749    -53489.67   -27324.584    17521.758    5214.4713    11348.831    79.502927 
   51300    1022.9989   -118.32739   0.92563089   -117.40176    3868.9674    4.2772053    4.2772053    4.2772053    3868.9674   -9099.4385     17643.25    3063.0909   -36334.107   -18600.763   -16326.485    78.249269 
   51400    1569.6483   -118.83104    1.4202508   -117.41079    17510.012    4.2692349    4.2692349    4.2692349    17510.012    40014.466   -21458.989    33974.559   -30638.526   -2575.9168    3642.2753     77.81264 
   51500    1859.3791   -119.09933    1.6824052   -117.41692   -2453.3161    4.2753566    4.2753566    4.2753566   -2453.3161    1718.0186   -189.65954   -8888.3075     27851.96   -8019.2103    4628.2249    78.147851 
   51600    464.95044   -117.86565   0.42069693   -117.44496    28811.505    4.2667171    4.2667171    4.2667171    28811.505    23220.377    40074.243    23139.894   -18412.891   -29454.914   -12839.686    77.675049 
   51700    1030.6043   -118.38641   0.93251241   -117.45389   -12874.958    4.2720935    4.2720935    4.2720935   -12874.958   -39982.971   -52.754725    1410.8516   -33068.164    1708.8736    -1362.291    77.969051 
   51800    2187.3019    -119.4185    1.9791167   -117.43938   -2240.0213    4.2624627    4.2624627    4.2624627   -2240.0213    27128.869   -23232.951   -10615.982    14718.146    8569.2366    1167.1679    77.442929 
   51900     974.7664   -118.35043   0.88198912   -117.46844    17548.472    4.2665968    4.2665968    4.2665968    17548.472    22086.221    39750.892   -9191.6971   -5859.5098   -24529.979   -14912.914    77.668478 
   52000    894.68245    -118.2644   0.80952749   -117.45488   -26745.533    4.2852391    4.2852391    4.2852391   -26745.533   -18257.931   -42034.851   -19943.817   -47137.529   -8314.3712    217.17007    78.691022 
   52100     1824.762   -119.07791     1.651083   -117.42683   -17018.622    4.2776284    4.2776284    4.2776284   -17018.622   -48996.282   -1021.0134   -1038.5714    8596.6711    6334.9645    7299.7747    78.272494 
   52200    698.94042   -118.07187   0.63241598   -117.43946    27823.744    4.2708983    4.2708983    4.2708983    27823.744    11828.661    24506.539    47136.031   -19149.953    -25014.98   -24213.426    77.903632 
   52300    1331.0681   -118.63085    1.2043784   -117.42647   -10935.159    4.2848346    4.2848346    4.2848346   -10935.159   -62865.385    29187.011     872.8972   -28921.462   -434.53873   -1890.2914    78.668738 
   52400    1940.3316   -119.16361    1.7556528   -117.40795   -41207.311    4.3016344    4.3016344    4.3016344   -41207.311    -16.03874   -61178.173    -62427.72    9066.8662    9546.1812    1606.7726    79.597697 
   52500    544.90801   -117.90639   0.49304422   -117.41334    22266.739    4.2920101    4.2920101    4.2920101    22266.739    59247.999    9029.7012   -1477.4829   -17055.016   -29912.963   -34862.862    79.064626 
   52600    1867.8683   -119.06404    1.6900865   -117.37396   -24621.587     4.277066     4.277066     4.277066   -24621.587   -16301.399    -18765.13   -38798.234    8027.2069    8419.6982    13288.411    78.241624 
   52700    1050.6038   -118.35242   0.95060842   -117.40182   -8335.9945    4.2908969    4.2908969    4.2908969   -8335.9945    1012.9754   -35573.085    9552.1267    4806.2601    4380.2841   -20000.855    79.003118 
   52800    642.76169   -117.97809   0.58158428    -117.3965   -4182.5019    4.3033574    4.3033574    4.3033574   -4182.5019   -27659.151   -6709.1612    21820.806   -484.73625   -14004.336   -45857.727    79.693383 
   52900    2078.7992   -119.23939    1.8809412   -117.35844   -19817.186    4.2850332    4.2850332    4.2850332   -19817.186   -15020.511    -42895.84   -1535.2079    13828.434    26574.749    18963.505    78.679677 
   53000     925.7068   -118.22812   0.83759896   -117.39052    13129.374    4.2861982    4.2861982    4.2861982    13129.374     70281.01   -28498.119    -2394.768   -28564.469   -17647.445   -15661.157    78.743869 
   53100    1487.1623   -118.74079    1.3456157   -117.39518    -8722.341    4.2942818    4.2942818    4.2942818    -8722.341    62367.597   -42595.331   -45939.289   -2997.9326   -2564.5936   -7506.9453     79.19023 
   53200    1473.7595   -118.72508    1.3334886   -117.39159    -21845.67    4.2798725    4.2798725    4.2798725    -21845.67     -40686.4   -24808.249   -42.360414    747.36589    7220.0805    6848.1325    78.395745 
   53300    538.55271   -117.90555   0.48729381   -117.41825   -1572.0112    4.2682694    4.2682694    4.2682694   -1572.0112   -33317.608    8438.6071    20162.968   -35699.766   -17454.336   -20588.683     77.75986 
   53400    1414.6847   -118.72274    1.2800364    -117.4427    9000.2087     4.266753     4.266753     4.266753    9000.2087   -28690.334    50950.933     4740.028   -1343.0847    2127.1712   -4136.4918    77.677011 
   53500    2001.2122   -119.26082    1.8107388   -117.45009   -10936.773    4.2709057    4.2709057    4.2709057   -10936.773   -26553.362    7922.9264   -14179.883     990.0895    1573.8382    10489.629    77.904037 
   53600    1006.8178   -118.37349    0.9109899    -117.4625   -9865.4019    4.2718203    4.2718203    4.2718203   -9865.4019   -17575.293    2751.3442   -14772.256   -34747.113   -24759.162   -27357.361    77.954096 
   53700     1128.293   -118.48142    1.0209032   -117.46051   -3554.3372    4.2589882    4.2589882    4.2589882   -3554.3372    8209.2751   -8756.2583   -10116.029   -12541.067   -7009.5031   -16344.438    77.253704 
   53800    1724.7128   -119.01929    1.5605564   -117.45873   -90.880436    4.2620821    4.2620821    4.2620821   -90.880436   -2216.3419   -14950.058    16893.759    14509.799    9701.0381    35246.685    77.422184 
   53900    965.88447   -118.34289   0.87395256   -117.46894   -8229.4287     4.278708     4.278708     4.278708   -8229.4287    7756.3573   -39431.582    6986.9385   -17287.047   -8457.4105   -5473.0507    78.331773 
   54000    1223.2993   -118.56662    1.1068669   -117.45975    803.59958    4.2751767    4.2751767    4.2751767    803.59958   -10118.295    6530.5061    5998.5878   -8532.5606   -21513.404   -15292.989    78.137986 
   54100    2167.4478   -119.39829    1.9611523   -117.43714     -30404.5    4.2809619    4.2809619    4.2809619     -30404.5   -13489.747   -31798.265   -45925.489    18651.119    7505.5584    14962.688    78.455626 
   54200     849.3188   -118.21066    0.7684815   -117.44218   -10673.963    4.2870725    4.2870725    4.2870725   -10673.963   -40949.023   -14343.634    23270.769   -16039.066    916.14781   -8982.7317    78.792065 
   54300    900.24045    -118.2473   0.81455648   -117.43274    26555.246    4.2706155    4.2706155    4.2706155    26555.246   -9349.6114     38108.66    50906.688   -7160.0411   -7657.8081   -16963.092    77.888157 
   54400    1500.9767   -118.78899    1.3581153   -117.43087   -669.80927    4.2773286    4.2773286    4.2773286   -669.80927   -16763.452    9723.3163    5030.7083    21540.545   -83.568912     409.9204    78.256039 
   54500    1152.8995   -118.48299    1.0431677   -117.43982   -35829.337    4.2855824    4.2855824    4.2855824   -35829.337   -15625.011    -69794.53   -22068.471   -26773.276    1617.1725   -3449.4907    78.709936 
   54600    1579.4379   -118.86323    1.4291086   -117.43412    16809.408    4.2645273    4.2645273    4.2645273    16809.408    62885.396   -20543.576    8086.4049   -19016.589   -11776.961    -8213.981    77.555515 
   54700    1603.8343   -118.89566    1.4511829   -117.44448   -317.34363    4.2736779    4.2736779    4.2736779   -317.34363   -29257.235    11517.858    16787.346    3838.2456     5414.924   -8824.7928    78.055833 
   54800    632.99589   -118.02861   0.57274799   -117.45586    12197.218     4.272465     4.272465     4.272465    12197.218    -2382.582   -10135.542    49109.777   -21768.728     21319.04   -906.30621    77.989394 
   54900    1200.8771   -118.53821    1.0865788   -117.45163    16169.791     4.273136     4.273136     4.273136    16169.791    39689.791   -18265.744    27085.326   -11791.998    6072.6511    2123.5551    78.026142 
   55000    2081.3579    -119.3167    1.8832564   -117.43345   -23547.059    4.2892995    4.2892995    4.2892995   -23547.059   -15346.397    1977.2832   -57272.064    7153.3144   -5466.2515    976.87949    78.914918 
   55100    784.34684   -118.14769    0.7096935     -117.438    50480.854    4.2732711    4.2732711    4.2732711    50480.854    42538.298    85634.708    23269.555   -33423.333    13056.554   -12993.066    78.033543 
   55200    913.41755   -118.27179    0.8264794   -117.44531    22872.008    4.2830527    4.2830527    4.2830527    22872.008    30072.776    36253.262    2289.9865   -11735.972    12129.412   -4308.6345    78.570636 
   55300    2025.5855    -119.2438    1.8327923   -117.41101   -38169.752    4.2938783    4.2938783    4.2938783   -38169.752   -38715.307   -34712.273   -41081.678    15859.434   -5524.0765    4727.8229     79.16791 
   55400     831.9566    -118.1767   0.75277181   -117.42393    26395.336    4.2678204    4.2678204    4.2678204    26395.336    12484.145    20737.906    45963.957    -33724.29    7180.3908   -7255.4582    77.735325 
   55500    774.18024   -118.14032   0.70049455   -117.43983    27629.743    4.2665749    4.2665749    4.2665749    27629.743    10116.725    28814.042    43958.463   -26573.711     17659.07   -6228.2395    77.667284 
   55600    2022.1479   -119.25995     1.829682   -117.43027   -32092.862    4.2853628    4.2853628    4.2853628   -32092.862    -15838.41   -36037.149   -44403.027    3036.6214    4048.6713    13514.703    78.697833 
   55700    1276.6186   -118.58622    1.1551114   -117.43111    1826.6345    4.2841099    4.2841099    4.2841099    1826.6345     6865.328   -11142.447    9757.0229   -23455.176   -9757.0145   -4165.6277    78.628828 
   55800    637.25707   -118.01254   0.57660358   -117.43594    19122.789    4.2833755    4.2833755    4.2833755    19122.789   -20946.563    32211.284    46103.644   -24886.321    21379.989   -15789.413    78.588398 
   55900    1898.1989   -119.13643    1.7175303    -117.4189    -8240.459    4.2697404    4.2697404    4.2697404    -8240.459   -15934.965    19626.255   -28412.667    16092.245    15850.193   -5605.9544    77.840282 
   56000    1308.6805   -118.61973    1.1841216   -117.43561   -3941.1608     4.262655     4.262655     4.262655   -3941.1608    23016.132   -59664.649    24825.034   -10510.706   -4350.1831    16568.804    77.453411 
   56100    743.37339   -118.13346   0.67261986   -117.46084   -13786.184    4.2760012    4.2760012    4.2760012   -13786.184   -3451.4934   -74881.349     36974.29    -14996.54    3185.0755   -2330.0441    78.183204 
   56200    1573.8954   -118.87483    1.4240937   -117.45074    1481.9499    4.2697611    4.2697611    4.2697611    1481.9499    22413.314   -31260.864    13293.399    18184.321   -3499.1395   -16786.174    77.841414 
   56300    1705.3835    -118.9934    1.5430668   -117.45034   -575.82781     4.262499     4.262499     4.262499   -575.82781    3388.9918   -25742.357    20625.882   -19931.344   -1443.6023   -4203.7569    77.444911 
   56400    748.56335   -118.14906   0.67731585   -117.47175    15062.812    4.2590716    4.2590716    4.2590716    15062.812    34127.421   -18325.937    29386.951   -47060.368    -10095.77    1074.0439    77.258245 
   56500    1205.5677   -118.56678     1.090823   -117.47596    3695.5355    4.2630786    4.2630786    4.2630786    3695.5355    52497.149   -60035.731    18625.188    7066.2691    345.14246    8554.4235    77.476506 
   56600    1857.2083   -119.14418    1.6804411   -117.46374   -18039.601    4.2744911    4.2744911    4.2744911   -18039.601    4470.6206   -42195.485   -16393.939    21534.506    7034.1376   -5955.4083    78.100398 
   56700    1131.0625   -118.48876    1.0234091   -117.46535   -1107.8615    4.2688736    4.2688736    4.2688736   -1107.8615   -23695.048    8145.2982    12226.165   -17282.894   -1063.8739   -4227.4711    77.792888 
   56800      758.822    -118.1565   0.68659809    -117.4699    3434.7863    4.2661367    4.2661367    4.2661367    3434.7863   -20600.998   -1771.3738     32676.73   -32376.503    3186.0955    1132.3851    77.643357 
   56900    1715.9011   -119.01318    1.5525833   -117.46059    913.36956    4.2621206    4.2621206    4.2621206    913.36956    6175.6209   -10328.618    6893.1059   -282.36356    2778.4781   -5291.5931    77.424286 
   57000    1411.2902   -118.74655    1.2769651   -117.46959    19308.475    4.2661364    4.2661364    4.2661364    19308.475    4169.8342    45600.415    8155.1757    17909.664    5950.4519    6292.5045    77.643338 
   57100    924.89507   -118.30636    0.8368645    -117.4695   -23026.649    4.2863335    4.2863335    4.2863335   -23026.649   -62341.302   -14003.511    7264.8669   -27824.947   -8288.2302    6843.2791    78.751328 
   57200    1527.4833   -118.81894     1.382099   -117.43684   -24176.783    4.2797351    4.2797351    4.2797351   -24176.783    -59808.17   -25009.435    12287.258   -36515.877    2720.1063   -3209.0048    78.388196 
   57300    1234.3908   -118.55214    1.1169028   -117.43523   -587.65812    4.2773926    4.2773926    4.2773926   -587.65812   -37965.242    25700.887    10501.381    25130.432    3020.5962   -10462.798    78.259548 
   57400    1092.7983   -118.42736    0.9887869   -117.43858   -29753.806    4.2916323    4.2916323    4.2916323   -29753.806   -86019.694    36047.516   -39289.239     1574.231   -18653.218   -8432.9005    79.043745 
   57500    1724.8819   -118.98942    1.5607094   -117.42871   -892.22556    4.2669931    4.2669931    4.2669931   -892.22556   -35848.916    29428.958    3743.2812   -20109.375    3725.4243    7121.0914    77.690123 
   57600    1409.6251   -118.71991    1.2754584   -117.44445    1293.1798    4.2557986    4.2557986    4.2557986    1293.1798       -51943    22998.647    32823.892    31702.441    4625.4708    3018.0193    77.080265 
   57700    662.10267   -118.07575   0.59908441   -117.47667   -6582.9312    4.2640905    4.2640905    4.2640905   -6582.9312   -82205.605    33546.515    28910.297    29098.555   -13712.162   -1761.9927    77.531688 
   57800    1127.8152   -118.49786    1.0204709   -117.47738    14321.897    4.2655068    4.2655068    4.2655068    14321.897   -17317.448    14428.229    45854.911   -14720.161   -18749.069    3019.2216    77.608969 
   57900     1642.432   -118.95599     1.486107   -117.46988   -9422.9818    4.2743786    4.2743786    4.2743786   -9422.9818   -8897.9419   -30873.782    11502.779    1222.9177     11673.85    1965.5251    78.094232 
   58000     1477.684   -118.79982    1.3370395   -117.46278     9817.642    4.2634423    4.2634423    4.2634423     9817.642      34806.5   -8701.0587    3347.4842    34682.883   -7638.7608    11222.067    77.496334 
   58100    1025.5251   -118.39963   0.92791665   -117.47171    21850.206    4.2628342    4.2628342    4.2628342    21850.206    16587.105     20209.97    28753.543    14017.292   -29134.157   -3465.3028    77.463181 
   58200    1575.7064   -118.88088    1.4257322   -117.45515   -21767.585    4.2738606    4.2738606    4.2738606   -21767.585   -25050.447   -35288.261   -4964.0463   -10637.776    4865.8802    1765.6981    78.065846 
   58300    1477.1718   -118.78945    1.3365761   -117.45287    13610.752    4.2662203    4.2662203    4.2662203    13610.752    43530.607   -21145.448    18447.096    9213.5356    829.28267    26682.412    77.647919 
   58400    1234.3522   -118.58311    1.1168678   -117.46624   -9157.5543    4.2781013    4.2781013    4.2781013   -9157.5543    -9777.699   -33595.882    15900.918    12110.936   -22497.218   -3965.7701    78.298453 
   58500    1387.0575   -118.70239    1.2550388   -117.44735   -30881.896    4.2833054    4.2833054    4.2833054   -30881.896   -27777.555   -27074.487   -37793.645   -1171.8543   -15040.206   -17724.211    78.584542 
   58600    1505.8275   -118.79626    1.3625043   -117.43375    3479.6699    4.2668664    4.2668664    4.2668664    3479.6699   -14415.257    20383.491    4470.7758   -8147.7086     5221.645    12037.151    77.683205 
   58700    929.04495   -118.29772    0.8406194    -117.4571    13834.231    4.2723556    4.2723556    4.2723556    13834.231   -23965.099    38161.621    27306.171     17310.27    -3061.076    23801.626    77.983403 
   58800     1289.401   -118.62265    1.1666771   -117.45597    17236.589    4.2714433    4.2714433    4.2714433    17236.589   -18291.731    51368.172    18633.326    4107.9438   -6934.4159   -4150.7475    77.933454 
   58900    1400.8055   -118.71928    1.2674783    -117.4518    6284.5475    4.2758587    4.2758587    4.2758587    6284.5475    13588.271    38250.641    -32985.27   -17647.872   -1528.0688   -26744.949    78.175388 
   59000    1138.5775   -118.48923    1.0302089   -117.45902     595.0235    4.2687394    4.2687394    4.2687394     595.0235    9804.1526    23727.068    -31746.15    5922.0396    4186.8439    7471.3021    77.785552 
   59100    1358.0882   -118.68319    1.2288267   -117.45436    20219.456    4.2503711    4.2503711    4.2503711    20219.456   -14058.186    41214.235     33502.32    13693.323   -6393.1219    31844.831    76.785738 
   59200    1121.4727   -118.49176    1.0147321   -117.47702     3382.813    4.2650885    4.2650885    4.2650885     3382.813    13506.172   -7447.2241    4089.4916   -12330.901   -3391.2425   -26067.651    77.586142 
   59300    1208.7567   -118.56552    1.0937085   -117.47182   -15615.402     4.276739     4.276739     4.276739   -15615.402    17495.583   -24994.853   -39346.935   -7897.8002    9121.3945   -25397.888    78.223678 
   59400    1999.6671   -119.25916    1.8093408   -117.44981   -11924.411      4.26577      4.26577      4.26577   -11924.411   -9047.8958    -19356.99   -7368.3475    1814.9529    8214.0601     29099.92    77.623339 
   59500    1141.3266   -118.49406    1.0326963   -117.46136    8811.4388    4.2629002    4.2629002    4.2629002    8811.4388    22537.802   -19366.477    23262.992    4636.5656   -11800.704   -12699.084    77.466777 
   59600    716.95247   -118.12281   0.64871366   -117.47409    5880.0638    4.2674631    4.2674631    4.2674631    5880.0638    23700.287   -13457.581    7397.4856    2395.8331    -10226.39   -36638.525    77.715799 
   59700    1589.3608   -118.90306     1.438087   -117.46498   -5433.1488    4.2746359    4.2746359    4.2746359   -5433.1488   -18431.413    16404.352   -14272.386    7734.2005     19269.23    9076.5985    78.108338 
   59800    1627.6498   -118.92256    1.4727317   -117.44983   -17001.991    4.2857022    4.2857022    4.2857022   -17001.991   -24280.341   -9411.9266   -17313.705    2657.2328    9689.1294    -8971.457    78.716534 
   59900    946.73372   -118.30024   0.85662457   -117.44362   -16407.665    4.2860631    4.2860631    4.2860631   -16407.665    15097.066   -35724.623   -28595.438     4466.548   -10320.124   -33920.201    78.736425 
   60000    1087.5933   -118.41815   0.98407725   -117.43407     22168.91    4.2673095    4.2673095    4.2673095     22168.91    43975.071    5881.0991    16650.561   -4017.0571    3514.2583    7371.5151    77.707408 
   60100    1434.8344   -118.74162    1.2982684   -117.44335    3103.7242    4.2708744    4.2708744    4.2708744    3103.7242    53114.502   -28531.397   -15271.933    3279.7321    9781.3642    5004.0583     77.90232 
   60200    1278.8109   -118.61633    1.1570949   -117.45924   -5251.3673    4.2715989    4.2715989    4.2715989   -5251.3673     56397.28   -39090.754   -33060.628    3816.7916   -1314.7244   -11500.679    77.941975 
   60300    1320.5538   -118.64907    1.1948648   -117.45421    18318.789     4.256561     4.256561     4.256561    18318.789   -2657.6425    9626.8995     47987.11    2358.4869   -12028.281    -10653.49    77.121698 
   60400    1166.2601   -118.52306    1.0552566    -117.4678   -12823.049     4.273291     4.273291     4.273291   -12823.049   -26523.469   -5504.4681   -6441.2094   -7521.5875    2065.7155    14742.465    78.034637 
   60500    1127.7539   -118.47588    1.0204154   -117.45547   -5841.9126     4.284613     4.284613     4.284613   -5841.9126    -31122.01    3710.6268    9885.6453   -2135.5428     7642.554    25416.556    78.656532 
   60600    1711.3156   -118.98339    1.5484343   -117.43496    -6900.721    4.2891926    4.2891926    4.2891926    -6900.721   -7633.3969   -40761.996     27693.23    2463.4854    -14858.83   -5858.3183    78.909021 
   60700    873.35465    -118.2299   0.79022964   -117.43967   -5775.4105    4.2843611    4.2843611    4.2843611   -5775.4105    38222.038   -31145.892   -24402.377   -7033.4417   -14329.108    13796.962     78.64266 
   60800    1170.8638   -118.49377    1.0594222   -117.43435    19908.376    4.2630836    4.2630836    4.2630836    19908.376    18512.685    10580.363     30632.08   -12906.854    1664.0812    9477.4035     77.47678 
   60900    1807.9348   -119.07435    1.6358574   -117.43849   -23392.541    4.2862088    4.2862088    4.2862088   -23392.541   -59598.571   -17511.053    6932.0015   -2469.3461   -3562.2968   -7498.7894    78.744455 
   61000    1052.8557   -118.39123   0.95264595   -117.43858    -19922.42    4.2967864    4.2967864    4.2967864    -19922.42   -23127.535   -5623.3893   -31016.336    6690.8907   -11035.668    11431.719    79.328876 
   61100     1327.373    -118.6245     1.201035   -117.42347    24169.096    4.2676036    4.2676036    4.2676036    24169.096    44838.762    14115.938    13552.588    6443.2102    8153.3974    17267.658    77.723479 
   61200    1898.2645   -119.13905    1.7175896   -117.42146    2566.9297    4.2536539    4.2536539    4.2536539    2566.9297    17090.787   -1005.1974   -8384.8009   -804.79017    6938.1447   -20127.201    76.963791 
   61300    716.68466   -118.11154   0.64847134   -117.46307    21624.666    4.2606027    4.2606027    4.2606027    21624.666   -888.71429      53361.3    12401.412   -6448.6068   -16761.707   -3529.8401    77.341594 
   61400     1329.926   -118.66923     1.203345   -117.46588   -26815.238    4.2851564    4.2851564    4.2851564   -26815.238   -45910.346    17690.618   -52225.987    4734.8027     -10894.2    21656.126    78.686464 
   61500    2017.2324   -119.26332    1.8252342   -117.43809   -13341.636    4.2804508    4.2804508    4.2804508   -13341.636   -9219.4648   -12905.838   -17899.605    3727.3372    12103.524   -4501.6832    78.427526 
   61600    1038.7442    -118.3839   0.93987758   -117.44403     4009.891    4.2626051    4.2626051    4.2626051     4009.891    14942.233    38530.041   -41442.601    3458.1125   -9819.3564   -27615.559     77.45069 
   61700    732.97109    -118.1223   0.66320765   -117.45909   -7978.6928    4.2653458    4.2653458    4.2653458   -7978.6928   -23373.365    17258.379   -17821.093    1957.8321   -41083.666    6457.1935    77.600183 
   61800    1819.6225   -119.09372    1.6464327   -117.44729   -7140.1789    4.2640802    4.2640802    4.2640802   -7140.1789    -16249.69   -11183.507    6012.6603   -5342.9303   -5130.5854    13441.579    77.531125 
   61900    1250.6653   -118.59388    1.1316282   -117.46225   -2457.0354    4.2691925    4.2691925    4.2691925   -2457.0354   -8034.9466   -11617.596    12281.437   -2994.8815     8916.458   -23343.622    77.810319 
   62000    1122.0097   -118.47666     1.015218   -117.46144   -21818.489    4.2741028    4.2741028    4.2741028   -21818.489   -37622.895    2230.0861   -30062.657    12198.177   -35931.198   -17994.314    78.079118 
   62100    1658.2031   -118.94205     1.500377   -117.44168    10966.663    4.2603825    4.2603825    4.2603825    10966.663   -4417.4105    23460.801    13856.598   -8945.5447   -10866.467    11230.728    77.329602 
   62200    953.84785   -118.31986   0.86306158   -117.45679   -9619.8654    4.2768694    4.2768694    4.2768694   -9619.8654   -26802.798     600.7496   -2657.5475   -39186.118    9636.1738   -6893.5796    78.230836 
   62300    932.67151   -118.29149   0.84390079   -117.44759   -10949.681    4.2778831    4.2778831    4.2778831   -10949.681   -6533.6157    1962.9431   -28278.372   -1606.2538   -9883.0043   -15877.608    78.286476 
   62400    1859.4592   -119.10838    1.6824778    -117.4259   -1406.5725    4.2633422    4.2633422    4.2633422   -1406.5725    3347.5902    14082.015   -21649.323    4904.8091   -6580.3175    10152.339     77.49088 
   62500     1534.205   -118.82931    1.3881809   -117.44113    -28265.94    4.2798284    4.2798284    4.2798284    -28265.94   -25259.256   -37841.247   -21697.316   -35024.894    -1864.851   -6860.8093    78.393323 
   62600    783.18578   -118.15099   0.70864295   -117.44235   -6708.4808    4.2767248    4.2767248    4.2767248   -6708.4808   -6968.3302    6193.7957   -19350.908   -13321.089    12286.958   -10607.468    78.222902 
   62700    1314.7713    -118.6239    1.1896327   -117.43426    21849.293    4.2597054    4.2597054    4.2597054    21849.293    17829.727    36935.059    10783.093    6294.2677    6700.0667    6360.5884    77.292738 
   62800    1474.3436    -118.7825    1.3340171   -117.44848   -4993.8376     4.265025     4.265025     4.265025   -4993.8376   -9589.7312   -34024.382    28632.601    3159.4485   -9185.2849    6411.2874    77.582676 
   62900    1228.8012   -118.57135    1.1118452   -117.45951    6783.2888    4.2664088    4.2664088    4.2664088    6783.2888    488.99624   -11837.912    31698.782   -14596.759    11241.015   -5772.2568    77.658217 
   63000    1611.0463   -118.91046    1.4577085   -117.45275   -11446.852    4.2761323    4.2761323    4.2761323   -11446.852   -2556.7453   -21743.792   -10040.018    -3657.197    2771.4705   -22832.207    78.190394 
   63100     1188.945   -118.52244    1.0757824   -117.44666   -5986.6585    4.2728484    4.2728484    4.2728484   -5986.6585   -20240.588   -14722.013    17002.625    14460.042   -2652.9466    2790.5354    78.010393 
   63200    690.69447   -118.07424   0.62495488   -117.44929    30946.583     4.264089     4.264089     4.264089    30946.583   -2201.1359    10906.545    84134.338   -6988.0585    5658.3433    17031.329    77.531608 
   63300    1835.4268   -119.10544    1.6607328    -117.4447   -12825.178    4.2772813    4.2772813    4.2772813   -12825.178    11258.598   -31535.999   -18198.133    2755.9533   -6720.7966    289.89972    78.253441 
   63400    1761.5157   -119.03447    1.5938564   -117.44062   -11259.871    4.2699332    4.2699332    4.2699332   -11259.871    16939.265   -35463.717    -15255.16   -3239.6558    7107.0765   -709.45599    77.850831 
   63500    496.26801    -117.9065   0.44903372   -117.45747    36103.192    4.2601322    4.2601322    4.2601322    36103.192    36921.772   -12937.705     84325.51    178.34234     10503.76    2966.5464    77.315973 
   63600    1404.4306   -118.72454    1.2707583   -117.45378   -7616.0447    4.2720545    4.2720545    4.2720545   -7616.0447   -3898.4872   -28726.983    9777.3361    9456.6773   -9111.3556    16136.282    77.966914 
   63700    1918.3456   -119.17766    1.7357594    -117.4419   -10920.385    4.2691653    4.2691653    4.2691653   -10920.385   -7267.1382   -20714.604   -4779.4135   -1241.0109   -929.50074    2421.8086    77.808833 
   63800    821.97081   -118.20144   0.74373646   -117.45771    21091.563    4.2620766    4.2620766    4.2620766    21091.563    2923.5793   -11011.779    71362.888   -7123.6937    2897.0765   -3033.4051    77.421889 
   63900    1034.8848   -118.39547   0.93638548   -117.45909     3048.084    4.2702017    4.2702017    4.2702017     3048.084    10407.306   -46148.805    44885.751   -7645.9407   -2258.7233    4556.9383    77.865514 
   64000    1986.0968    -119.2402    1.7970622   -117.44314   -14574.727    4.2750656    4.2750656    4.2750656   -14574.727   -33525.391   -36344.479    26145.688    3804.5282   -5421.6112   -7744.4579    78.131893 
   64100    842.73614   -118.22182   0.76252537   -117.45929   -5607.6678     4.270865     4.270865     4.270865   -5607.6678   -29780.628   -894.76236    13852.387   -12950.394   -1462.2213   -15668.098    77.901808 
   64200    969.34027   -118.33646   0.87707945   -117.45939    1439.3675    4.2511592    4.2511592    4.2511592    1439.3675   -2965.7603   -17750.315    25034.178   -25580.362    7719.7978   -4017.6524    76.828457 
   64300    1928.5915   -119.20033    1.7450301    -117.4553    216.21319    4.2568432    4.2568432    4.2568432    216.21319    5216.9882   -35537.322    30968.973   -2946.0288   -913.44169   -1208.7076    77.137039 
   64400    1033.0903   -118.40254   0.93476183   -117.46778   -9803.4607     4.280502     4.280502     4.280502   -9803.4607   -19090.293   -21654.786    11334.697    9166.3808    3973.4472    8701.0792    78.430342 
   64500    948.68255   -118.31733   0.85838791   -117.45894    4931.0155    4.2701604    4.2701604    4.2701604    4931.0155   -55445.337    104.88895    70133.495   -10702.838     705.4591    1963.5535    77.863258 
   64600    1731.6706   -119.00765     1.566852    -117.4408    3373.4781    4.2564837    4.2564837    4.2564837    3373.4781   -7241.8844   -11572.145    28934.464   -858.19595   -2620.1874   -976.22343    77.117497 
   64700    1111.1737   -118.46415    1.0054133   -117.45874     14793.99    4.2595716    4.2595716    4.2595716     14793.99    21208.508   -25772.765    48946.228    20994.241    2409.8386    8944.0939    77.285458 
   64800     889.4111   -118.27313   0.80475785   -117.46837    630.43206    4.2811699    4.2811699    4.2811699    630.43206   -15747.397   -16517.495    34156.188    6021.1444   -974.85933   -2028.4797     78.46706 
   64900    1839.9186   -119.10074     1.664797   -117.43594   -20376.526    4.2847509    4.2847509    4.2847509   -20376.526   -3628.5834   -20862.875    -36638.12   -5359.3829    4444.2629   -12195.692    78.664128 
   65000    1405.0004   -118.69574    1.2712739   -117.42446   -3253.3995    4.2637598    4.2637598    4.2637598   -3253.3995    18011.646   -36640.263    8868.4188    7792.5183    431.68161    11856.981    77.513652 
   65100    791.69925   -118.15651   0.71634612   -117.44016    3062.3621     4.266382     4.266382     4.266382    3062.3621     6045.605   -27369.808    30511.289    11306.582    6309.1045    10749.809    77.656751 
   65200    1343.4148   -118.65516    1.2155499   -117.43961   -22153.746    4.2801143    4.2801143    4.2801143   -22153.746   -3466.4792   -48895.866   -14098.892    4723.4462    2515.0784    -23681.74    78.409032 
   65300    1485.4906    -118.7908    1.3441031   -117.44669    10633.743    4.2615243    4.2615243    4.2615243    10633.743    13842.605   -23471.561    41530.183   -6200.3825   -6.6129078   -35524.174    77.391792 
   65400    1258.2397   -118.59793    1.1384817   -117.45945    7755.2548      4.25817      4.25817      4.25817    7755.2548   -4791.2418    3909.8077    24147.199   -6713.7318    418.15599    5968.7401    77.209186 
   65500    1234.8049   -118.58033    1.1172775   -117.46306   -16277.243    4.2663505    4.2663505    4.2663505   -16277.243   -7462.9555   -30883.271   -10485.502     5761.268    8162.1859    3228.2062    77.655032 
   65600    1423.7954   -118.74604      1.28828   -117.45776    7305.7318    4.2674019    4.2674019    4.2674019    7305.7318    27030.956    29670.788   -34784.549   -464.26533   -680.45968   -26695.623    77.712459 
   65700    1220.9466   -118.56416    1.1047381   -117.45942   -17642.947    4.2838343    4.2838343    4.2838343   -17642.947   -21695.096   -2314.7223   -28919.023   -3033.3322   -7153.3419   -9993.8061    78.613654 
   65800    1213.5392   -118.53965    1.0980358   -117.44161    15739.551    4.2713354    4.2713354    4.2713354    15739.551    9951.1111    36905.177    362.36516    12245.287    10014.278    3187.8465    77.927548 
   65900    1392.3323   -118.69575    1.2598115   -117.43594   -6758.0849    4.2689857    4.2689857    4.2689857   -6758.0849    24639.602    5829.4038    -50743.26     6336.741   -4051.8019   -12701.312    77.799015 
   66000    1031.9712   -118.37724   0.93374922   -117.44349    -25075.77    4.2735448    4.2735448    4.2735448    -25075.77    20436.688   -34465.701   -61198.298   -11220.717   -21991.868   -9031.4017    78.048542 
   66100    1438.1155   -118.74162    1.3012371   -117.44038     3707.128    4.2640088    4.2640088    4.2640088     3707.128    20085.109   -24774.208    15810.482   -3713.6278   -10100.044    2487.0322    77.527232 
   66200    1561.0105   -118.86053    1.4124351   -117.44809   -25146.926     4.272703     4.272703     4.272703   -25146.926   -20641.995   -40757.986   -14040.798   -3803.1561    5486.4415   -13154.358    78.002427 
   66300    940.11177    -118.3028   0.85063289   -117.45217   -1263.0276    4.2632192    4.2632192    4.2632192   -1263.0276   -2809.6059    27010.992   -27990.469   -1243.8226   -3267.0746   -24757.597     77.48417 
   66400    1402.7684   -118.71959    1.2692544   -117.45034    11773.143    4.2605798    4.2605798    4.2605798    11773.143     3014.299    34663.366   -2358.2363   -10224.444   -24841.185   -5838.1431    77.340345 
   66500    1390.2439   -118.70973    1.2579219    -117.4518   -21886.738    4.2770664    4.2770664    4.2770664   -21886.738    -27032.99    2730.2713   -41357.494   -6589.4788    6673.8484     5771.562    78.241646 
   66600    1004.1803     -118.363   0.90860345    -117.4544    10547.061    4.2652237    4.2652237    4.2652237    10547.061    8114.6527    63102.883   -39576.353   -2792.2938    18221.318   -4749.7659    77.593519 
   66700    1452.8604   -118.76854    1.3145787   -117.45396       -11635    4.2619548    4.2619548    4.2619548       -11635   -16765.939   -10437.505   -7701.5558    14216.111   -10887.662   -9287.4985    77.415249 
   66800    1335.3159   -118.66334    1.2082219   -117.45512   -11117.981    4.2580449    4.2580449    4.2580449   -11117.981   -16742.726   -32277.301    15666.084    7754.1151   -8712.0907    3246.8983    77.202384 
   66900    1223.0878   -118.57597    1.1066755   -117.46929   -5667.9449    4.2613877    4.2613877    4.2613877   -5667.9449    20669.599   -16908.771   -20764.663   -23484.999    14832.378    5498.4434    77.384353 
   67000    1528.2989   -118.84819     1.382837   -117.46535   -27677.441    4.2712332    4.2712332    4.2712332   -27677.441   -8251.6252   -30533.664   -44247.034    1919.9733    15915.823   -4024.0227    77.921956 
   67100    1117.9818   -118.47299    1.0115734   -117.46141   -1458.3298    4.2590729    4.2590729    4.2590729   -1458.3298   -10389.043   -1101.2126    7115.2663    33284.438   -12755.196   -1892.8282    77.258311 
   67200    838.92165   -118.23061   0.75907394   -117.47153    15480.312     4.259266     4.259266     4.259266    15480.312    26904.883   -3431.9525    22968.005    12163.858   -17091.212   -5356.6451    77.268821 
   67300    1879.8577   -119.15833    1.7009348    -117.4574   -13800.668    4.2646148    4.2646148    4.2646148   -13800.668   -50.143698   -23636.059   -17715.801   -22218.433    7080.5258    3070.0099    77.560291 
   67400    1460.6904   -118.78729    1.3216634   -117.46562    2870.2196    4.2630838    4.2630838    4.2630838    2870.2196   -8361.5362    16279.547    692.64824    23914.473   -711.84998    9789.3924    77.476791 
   67500    623.30293   -118.04197   0.56397759   -117.47799    -19032.47    4.2697113    4.2697113    4.2697113    -19032.47   -63529.138    2671.8215    3759.9077     49377.19   -32420.473   -6862.5354    77.838691 
   67600    1506.0549   -118.82369    1.3627101   -117.46098    -6025.764    4.2570856    4.2570856    4.2570856    -6025.764    -32170.02    13214.323    878.40502   -9897.9109   -10800.283   -5973.2739    77.150215 
   67700    1729.4617   -119.02871    1.5648533   -117.46386   -13286.612    4.2687341    4.2687341    4.2687341   -13286.612   -31827.091   -22318.193    14285.449     4197.176    8644.1171    5793.5171    77.785262 
   67800    1023.8878   -118.39045   0.92643518   -117.46401    -18791.77    4.2769239    4.2769239    4.2769239    -18791.77   -33457.688   -48970.241    26052.619    45048.061   -4363.9803    3372.4107    78.233823 
   67900    1420.1069   -118.73286    1.2849425   -117.44792    3150.1198    4.2655725    4.2655725    4.2655725    3150.1198   -6579.2377    12613.048     3416.549   -1091.1874   -18043.521   -2692.1632    77.612557 
   68000    1386.0832   -118.69381    1.2541572   -117.43965    3916.3555    4.2709545    4.2709545    4.2709545    3916.3555   -1199.1564    -6826.129    19774.352    7532.7713    -249.7971   -3230.0393    77.906702 
   68100    892.92913    -118.2534   0.80794105   -117.44545    8724.1913    4.2660442    4.2660442    4.2660442    8724.1913    27633.027   -47877.432    46416.979    40192.186    709.59845    1441.3472    77.638305 
   68200    1469.8097   -118.77804    1.3299147   -117.44813   -1145.9642    4.2726843    4.2726843    4.2726843   -1145.9642   -6479.9058   -2711.0971    5753.1104    6271.4309   -14340.118     -4936.27    78.001405 
   68300    1812.7694   -119.07416    1.6402319   -117.43393    -13696.28    4.2834934    4.2834934    4.2834934    -13696.28   -11578.753   -25967.389   -3542.6987    -7552.835    1570.5491   -4018.8753    78.594889 
   68400    661.14016   -118.03173   0.59821351   -117.43351    31651.458    4.2732025    4.2732025    4.2732025    31651.458   -1224.0228     46815.63    49362.768    32346.389    2677.6193    17687.688    78.029786 
   68500    1270.0431   -118.57809    1.1491617   -117.42893   -6921.1725    4.2777075    4.2777075    4.2777075   -6921.1725   -36798.185    21682.452   -5647.7852    4845.9122   -469.21741    9695.5867    78.276835 
   68600    1650.7022   -118.91871      1.49359   -117.42512   -29993.452    4.2836161    4.2836161    4.2836161   -29993.452   -23467.204   -43947.932   -22565.219    -1180.163    5244.4962   -10519.065    78.601645 
   68700    902.77146   -118.24919   0.81684659   -117.43235    5960.0507    4.2777694    4.2777694    4.2777694    5960.0507    8676.2284   -56662.103    65866.027    27221.764   -4311.7944   -865.02133    78.280231 
   68800    1679.7964   -118.94191    1.5199151     -117.422     1040.915    4.2667632    4.2667632    4.2667632     1040.915   -587.70694   -7201.1243    10911.576   -3900.7243   -11005.385    12946.988     77.67757 
   68900    1374.9499   -118.68029    1.2440836    -117.4362     -2394.44    4.2621391    4.2621391    4.2621391     -2394.44   -7004.1864    6332.4755   -6511.6092   -424.29794   -2611.9931   -5891.4571    77.425294 
   69000    908.81878   -118.27876   0.82231834   -117.45644    4178.8494    4.2628329    4.2628329    4.2628329    4178.8494    16906.102   -29559.885    25190.331    28144.669    6677.3772   -4622.4997    77.463111 
   69100    1625.3866    -118.9257    1.4706839   -117.45502   -4232.0618    4.2648479    4.2648479    4.2648479   -4232.0618    29347.203   -42208.134    164.74577   -4608.2087   -32.614283    3105.4429    77.573011 
   69200    1132.3829   -118.48397    1.0246038   -117.45937    7962.1136    4.2754706    4.2754706    4.2754706    7962.1136    28088.632   -465.20994   -3737.0812   -12839.103   -39056.818   -799.67657    78.154099 
   69300    1223.8984   -118.55023     1.107409   -117.44282    6145.0436    4.2776382    4.2776382    4.2776382    6145.0436    32338.703   -33038.402     19134.83     20165.19   -10743.856    3894.0442    78.273028 
   69400    1626.5746   -118.90267    1.4717589   -117.43091   -16847.778    4.2690974    4.2690974    4.2690974   -16847.778    -20230.82   -31915.454    1602.9387    2642.4197    10844.483    541.79959    77.805122 
   69500    782.08714   -118.15267   0.70764888   -117.44502   -20868.145    4.2687026    4.2687026    4.2687026   -20868.145   -37917.578   -18615.741   -6071.1148   -23185.791   -36239.208    11211.847    77.783538 
   69600    1181.4808   -118.52171    1.0690287   -117.45268    13560.421    4.2635476    4.2635476    4.2635476    13560.421    59372.221   -9485.2294   -9205.7288    4666.8626   -21804.633    20610.148    77.502077 
   69700    2020.0664   -119.27661    1.8277985   -117.44881   -15786.547    4.2699849    4.2699849    4.2699849   -15786.547    -4427.353   -17617.985   -25314.305    12981.217     15844.77     1713.206    77.853656 
   69800    1011.1138   -118.37486   0.91487698   -117.45998   -7586.7256    4.2665793    4.2665793    4.2665793   -7586.7256   -19436.297    6333.8781    -9657.758   -7417.5385   -30455.194   -8187.7567    77.667525 
   69900    677.10892   -118.07798   0.61266238   -117.46532    8653.1081    4.2594003    4.2594003    4.2594003    8653.1081   -645.85715    1275.5061    25329.675   -12601.584   -33198.407     20131.98    77.276132 
   70000    1763.6578   -119.05535    1.5957946   -117.45956   -8971.6141     4.263034     4.263034     4.263034   -8971.6141   -5684.8002   -19954.774   -1275.2678   -3495.5116    22340.506     29278.25    77.474075 
   70100    1556.7707   -118.86848    1.4085988   -117.45989    13186.829     4.260229     4.260229     4.260229    13186.829    10156.616    25228.271    4175.5994   -237.48019   -29527.502   -10818.307    77.321245 
   70200    1088.0574   -118.44988   0.98449718   -117.46538   -3755.0974    4.2629892    4.2629892    4.2629892   -3755.0974   -20922.075    15422.734    -5765.951    1319.3314   -47402.288    -5568.381     77.47163 
   70300    911.83087   -118.28785   0.82504373   -117.46281   -6566.4581     4.266326     4.266326     4.266326   -6566.4581   -10526.978    -14854.77     5682.373   -10328.175    12566.503    32362.779    77.653695 
   70400    1579.9419    -118.8894    1.4295646   -117.45983   -763.33819    4.2618444    4.2618444    4.2618444   -763.33819     6842.507   -20769.725    11637.204   -1190.4415    -948.8289     5398.048    77.409232 
   70500    1766.1039   -119.05194    1.5980079   -117.45393   -6527.1152    4.2704062    4.2704062    4.2704062   -6527.1152   -23936.945    39304.023   -34948.424    4716.7635   -19960.206    -13211.29    77.876702 
   70600    594.86365   -117.99776   0.53824513   -117.45952    15381.628    4.2817645    4.2817645    4.2817645    15381.628    36650.926    8792.9468    701.01142   -9904.2605   -6500.0354    44331.571    78.499763 
   70700    1252.8264   -118.56948    1.1335837    -117.4359   -11226.612    4.2801495    4.2801495    4.2801495   -11226.612    4323.4948   -43412.704    5409.3744     2917.809    682.96262    14430.333    78.410966 
   70800    1999.7712   -119.22453     1.809435   -117.41509   -16128.309    4.2732018    4.2732018    4.2732018   -16128.309   -17919.468   -37432.239    6966.7796    16971.695   -3716.6197   -3446.2323     78.02975 
   70900    887.68902   -118.24381   0.80319968   -117.44061    10562.386    4.2771605    4.2771605    4.2771605    10562.386    55456.966     -15162.7   -8607.1073   -15528.385   -1480.4152    53465.514    78.246813 
   71000    1264.3323   -118.57814    1.1439944   -117.43415    -10303.32     4.279963     4.279963     4.279963    -10303.32   -6323.8089   -104.47618   -24481.676   -12788.148   -13886.955    6884.2548    78.400721 
   71100    1811.4367   -119.05627     1.639026   -117.41724   -18714.796     4.272875     4.272875     4.272875   -18714.796   -20211.977   -37374.155    1441.7434    2844.6615   -542.85867   -7732.7651    78.011849 
   71200    885.79547   -118.24097   0.80148635   -117.43949    16664.543    4.2657976    4.2657976    4.2657976    16664.543    60652.656   -41031.574    30372.548   -4682.7405    2077.3814    46322.154    77.624845 
   71300    1172.5038   -118.50719     1.060906   -117.44629    18044.275    4.2725112    4.2725112    4.2725112    18044.275    33039.711   -25802.427    46895.542   -15723.595   -5716.2315   -1815.4059    77.991924 
   71400    1789.4997   -119.05273    1.6191769   -117.43355    -10685.93    4.2762482    4.2762482    4.2762482    -10685.93   -34743.797   -12877.179    15563.188   -768.70661    3561.2324   -3667.7001     78.19675 
   71500    1233.2815   -118.55274     1.115899   -117.43684    13239.315    4.2738648    4.2738648    4.2738648    13239.315    40472.815   -19580.654    18825.784    4524.3116   -581.47457    49712.855    78.066072 
   71600    1193.0662   -118.51312    1.0795113   -117.43361   -2071.5647     4.281864     4.281864     4.281864   -2071.5647    37443.196   -36198.984   -7458.9057   -16893.009   -6618.9538   -3862.4088    78.505233 
   71700    1358.9986   -118.65296    1.2296505   -117.42331   -5052.8217    4.2753636    4.2753636    4.2753636   -5052.8217    5500.1375    -30929.42    10270.818   -1229.1377   -4787.1522   -15055.955    78.148236 
   71800    1254.7051   -118.56021    1.1352836   -117.42492   -9537.6674    4.2738215    4.2738215    4.2738215   -9537.6674    18320.557   -41541.997   -5391.5617     2881.701    7673.3304    40311.951    78.063702 
   71900    1177.7011   -118.50298    1.0656087   -117.43737   -2552.1143    4.2681475    4.2681475    4.2681475   -2552.1143    36615.924   -19006.674   -25265.592   -6772.9528    2515.5701    -7753.028    77.753195 
   72000    1438.8487   -118.74571    1.3019006   -117.44381    3789.3136    4.2599005    4.2599005    4.2599005    3789.3136   -387.65709    17043.511   -5287.9129   -16929.171    2417.4164   -43345.849    77.303361 
   72100    1560.3514   -118.86075    1.4118387   -117.44891   -25217.968    4.2744217    4.2744217    4.2744217   -25217.968   -18123.257    -41191.49   -16339.156    13097.107    4515.0455    31512.884    78.096597 
   72200    981.98722   -118.33834   0.88852267   -117.44982   -5335.9948    4.2698527    4.2698527    4.2698527   -5335.9948    40247.411   -73482.812    17227.417    5413.2312   -5716.0651    9947.5223    77.846424 
   72300    996.18088   -118.35064   0.90136539   -117.44927    10546.588    4.2617447    4.2617447    4.2617447    10546.588     32782.52   -38548.816    37406.058   -12110.315   -4071.1343   -48634.285    77.403803 
   72400    1822.8711   -119.09796    1.6493721   -117.44859   -12065.858     4.271772     4.271772     4.271772   -12065.858   -31795.989   -4467.8779    66.294378    14877.942   -4467.4518    9565.7775    77.951447 
   72500    1315.1749   -118.63664    1.1899979   -117.44664   -2344.8008    4.2751967    4.2751967    4.2751967   -2344.8008   -13381.129   -32406.436    38753.163    9236.1888    4799.7673     3790.037    78.139083 
   72600    901.30158   -118.26144   0.81551661   -117.44592    13087.212     4.274101     4.274101     4.274101    13087.212    49582.417   -57212.835    46892.052   -6313.7309    1390.4486       -20178    78.079016 
   72700    1629.3834   -118.91125    1.4743003   -117.43695   -19792.643    4.2670791    4.2670791    4.2670791   -19792.643    -5811.254   -52468.882   -1097.7921    10800.352   -4406.1524    695.75271    77.694823 
   72800    1147.0743   -118.49119    1.0378969   -117.45329    19023.133    4.2535521    4.2535521    4.2535521    19023.133   -22011.774    7451.6515    71629.523    35523.125    5102.9163   -2830.2562    76.958264 
   72900    1253.8999   -118.60281     1.134555   -117.46825   -366.71224    4.2674442    4.2674442    4.2674442   -366.71224   -30383.508    24941.523    4341.8487   -8892.7848    967.24437   -19064.909     77.71477 
   73000    1410.8218   -118.72957    1.2765412   -117.45303   -8342.0924    4.2735808    4.2735808    4.2735808   -8342.0924   -7809.9538    13916.329   -31132.652   -10200.243    541.44323    -11405.29    78.050511 
   73100    989.95863   -118.34322   0.89573537   -117.44749    9977.6246    4.2671346    4.2671346    4.2671346    9977.6246   -3518.9037    12717.212    20734.566    42890.997   -2424.4984    1830.3131    77.697855 
   73200    1262.8956    -118.5906    1.1426945   -117.44791   -22159.733     4.270076     4.270076     4.270076   -22159.733   -32370.963   -31079.269    -3028.968   -5523.3056    2650.5041    5580.3033    77.858639 
   73300    1554.9013   -118.85407    1.4069074   -117.44716   -3778.1093    4.2595419    4.2595419    4.2595419   -3778.1093   -15009.755    11222.714   -7547.2868   -38590.999    1947.4823   -12511.876    77.283839 
   73400    1487.9368   -118.80375    1.3463165   -117.45743   -3802.5687    4.2654689    4.2654689    4.2654689   -3802.5687   -6301.7311   -16204.664    11098.689    21862.606   -8314.8194    4827.6549    77.606901 
   73500    1281.4642   -118.60882    1.1594958   -117.44932   -17812.641       4.2836       4.2836       4.2836   -17812.641   -11515.999   -45022.957    3101.0343    21762.595   -3416.2206    8299.8162     78.60076 
   73600    838.88916   -118.20179   0.75904454   -117.44275    1762.3019    4.2736861    4.2736861    4.2736861    1762.3019    7934.7267   -17568.055    14920.234   -31572.557   -7443.4308   -18791.326    78.056283 
   73700    1372.1231   -118.68223    1.2415258    -117.4407    9230.3211    4.2609257    4.2609257    4.2609257    9230.3211   -2941.3512   -485.95784    31118.272    1329.7998    9110.2847    15625.817    77.359182 
   73800    1903.2578   -119.16039    1.7221076   -117.43828   -2511.9129    4.2641159    4.2641159    4.2641159   -2511.9129   -29713.394    25215.728   -3038.0726    14056.407    10592.147    2105.0038    77.533076 
   73900      951.758   -118.31344   0.86117064   -117.45227    7772.5093    4.2761438    4.2761438    4.2761438    7772.5093   -19816.109   -14008.125    57141.762   -28201.532   -18751.878    -34781.12    78.191023 
   74000    1100.3019   -118.43869   0.99557626   -117.44311   -10410.759    4.2822135    4.2822135    4.2822135   -10410.759   -30683.421   -27462.293    26913.437   -4090.8526    6379.7036    4219.7912    78.524458 
   74100     1539.658    -118.8229    1.3931149   -117.42978   -7334.7515    4.2631285    4.2631285    4.2631285   -7334.7515   -5792.0724   -1785.1085   -14427.074   -370.91502    20418.756    16537.079    77.479223 
   74200    985.52936   -118.33888   0.89172767   -117.44715    28029.627    4.2530836    4.2530836    4.2530836    28029.627    59190.561    15138.331    9759.9891   -28263.804   -11287.975   -16852.576    76.932837 
   74300    1331.4307   -118.65879    1.2047065   -117.45409   -11539.192    4.2734124    4.2734124    4.2734124   -11539.192     15397.87    -17937.93   -32077.514   -29250.733     -2112.29    4860.1312    78.041288 
   74400    1558.4126   -118.84964    1.4100845   -117.43956   -3198.2937    4.2699694    4.2699694    4.2699694   -3198.2937    31634.644   -34631.099   -6598.4261    11765.315    14564.673    28542.618    77.852811 
   74500    938.84694     -118.299   0.84948845   -117.44951   -1489.0629    4.2722455    4.2722455    4.2722455   -1489.0629   -17465.046   -22619.649    35617.506   -1973.7544   -8833.8741   -20403.701    77.977372 
   74600    1094.3506    -118.4349   0.99019141   -117.44471    1631.2026    4.2707478    4.2707478    4.2707478    1631.2026   -17274.019   -10899.635    33067.262   -25740.477   -6793.5189   -19620.355    77.895393 
   74700    1518.4162    -118.8134    1.3738948   -117.43951    11181.556    4.2710284    4.2710284    4.2710284    11181.556    9024.5306    4872.0779     19648.06     9289.492    8773.3362    35739.495    77.910749 
   74800    1362.8864   -118.66806    1.2331683   -117.43489   -38007.083    4.2864756    4.2864756    4.2864756   -38007.083   -21793.605   -41079.612   -51148.033   -1568.5192   -15378.889   -20272.577    78.759158 
   74900    1144.1117   -118.47124    1.0352163   -117.43602    15450.811    4.2569273    4.2569273    4.2569273    15450.811    24347.657    9789.2492    12215.528   -13663.548   -1176.3115   -37306.732     77.14161 
   75000     1383.654   -118.69226    1.2519592   -117.44031    17240.463    4.2562096    4.2562096    4.2562096    17240.463    40197.844   -3494.7356     15018.28    13172.378    4635.3808    20365.753    77.102601 
   75100    1321.9174   -118.64255    1.1960987   -117.44646   -8025.3018    4.2725163    4.2725163    4.2725163   -8025.3018    46355.358   -27941.915   -42489.348   -718.21625   -9486.5119    4926.0465    77.992204 
   75200    876.85007   -118.24538   0.79339237   -117.45199    32864.708    4.2682291    4.2682291    4.2682291    32864.708    57076.632    37702.787    3814.7045   -15224.625   -15878.979   -29923.183    77.757659 
   75300    1887.5267   -119.13984    1.7078738   -117.43197   -37308.093    4.2861626    4.2861626    4.2861626   -37308.093   -54359.712   -42003.906   -15560.661    13733.857    1544.6621    14565.378    78.741907 
   75400     1226.583   -118.53502     1.109838   -117.42518     20559.88    4.2662436    4.2662436    4.2662436     20559.88    75.817295    23388.978    38214.845    4198.6363    -3432.659    -15782.68    77.649195 
   75500    601.31254    -117.9852   0.54408023   -117.44112    37528.333    4.2651129    4.2651129    4.2651129    37528.333    39445.022    27840.547    45299.431   -10826.308   -21966.667   -42422.582    77.587472 
   75600     1963.112   -119.19316     1.776265    -117.4169   -46541.545    4.2915582    4.2915582    4.2915582   -46541.545   -54848.934   -41010.377   -43765.324    11484.375    7864.0138     23656.67    79.039653 
   75700    888.46012   -118.22058   0.80389739   -117.41668    29197.698    4.2774297    4.2774297    4.2774297    29197.698     73835.02    12875.691    882.38315   -18547.077   -3683.5331   -18702.122    78.261588 
   75800    991.23526    -118.3169    0.8968905   -117.42001    36346.617    4.2745711    4.2745711    4.2745711    36346.617     36643.93    59492.656    12903.264   -2785.8375   -6173.5416   -28749.757    78.104785 
   75900      2040.77   -119.24676    1.8465315   -117.40023   -44060.391    4.2896155    4.2896155    4.2896155   -44060.391   -53908.933    -48002.07    -30270.17   -283.06443    2501.2829    11654.769     78.93236 
   76000    780.84208    -118.1224   0.70652233   -117.41587    37033.872    4.2705204    4.2705204    4.2705204    37033.872     26232.09     27905.11    56964.415   -22947.687   -1131.5018   -40062.393    77.882954 
   76100    1317.3387   -118.62011    1.1919558   -117.42815    13628.062     4.272581     4.272581     4.272581    13628.062    12227.838    21215.295    7441.0521     -10251.4   -8918.6512   -17851.558    77.995746 
   76200    1943.3393   -119.18892    1.7583742   -117.43055   -3844.4427    4.2661568    4.2661568    4.2661568   -3844.4427    5688.4935    1501.4903   -18723.312    7941.5295    4530.0846    18942.614    77.644455 
   76300    763.77467   -118.14926   0.69107937   -117.45819    23146.679    4.2549383    4.2549383    4.2549383    23146.679    15141.668    29303.918    24994.451   -29422.829   -5709.0992   -30562.633    77.033529 
   76400    821.14915   -118.21722     0.742993   -117.47423   -20424.688    4.2698836    4.2698836    4.2698836   -20424.688   -17959.382   -42009.354   -1305.3271   -27655.795   -8465.0103   -27807.097    77.848119 
   76500    2002.3228   -119.26594    1.8117437    -117.4542   -6827.6578    4.2628919    4.2628919    4.2628919   -6827.6578    17993.035   -23219.883   -15256.126    22529.795    17756.342    19628.405    77.466324 
   76600    1380.8065   -118.71652    1.2493827   -117.46714   -2897.3326    4.2621145    4.2621145    4.2621145   -2897.3326    44855.033   -37131.592   -16415.438   -6549.0612   -1525.5614   -19577.728    77.423952 
   76700    531.25318   -117.95583   0.48068904   -117.47514   -383.91597    4.2696875    4.2696875    4.2696875   -383.91597    493.35548   -5336.6369    3691.5335   -36508.658    -1260.327   -31708.975    77.837391 
   76800     1798.194   -119.07274    1.6270437    -117.4457   -10641.387    4.2740079    4.2740079    4.2740079   -10641.387   -16096.565   -4927.4762    -10900.12   -7619.1311    5824.4718    7557.5488    78.073916 
   76900    1421.2572   -118.72767    1.2859834   -117.44168    8273.1967     4.278854     4.278854     4.278854    8273.1967   -7124.0094    37051.963   -5108.3633   -352.32902   -495.18003   -19648.199    78.339788 
   77000    862.53504   -118.22086   0.78043983   -117.44042     7594.505    4.2723532    4.2723532    4.2723532     7594.505    27119.575   -19766.685    15430.625    -30270.76   -604.90824   -27607.006    77.983273 
   77100    1735.4203   -119.00057    1.5702448   -117.43032   -16960.154    4.2719217    4.2719217    4.2719217   -16960.154    -30621.06   -13123.274   -7136.1277   -14937.557   -3453.1804    13820.126    77.959647 
   77200    1322.3558   -118.63709    1.1964953   -117.44059   -22399.873    4.2828723    4.2828723    4.2828723   -22399.873    15492.632   -39143.384   -43548.866    10964.446    510.54187   -807.17593    78.560704 
   77300    663.11907   -118.04568   0.60000407   -117.44568    21593.158    4.2710285    4.2710285    4.2710285    21593.158    72103.201   -3871.5523    -3452.175   -13657.725   -20989.639   -29223.141    77.910756 
   77400     1845.241    -119.1002    1.6696128   -117.43059    3138.7199    4.2689497    4.2689497    4.2689497    3138.7199    26821.379   -27195.754    9790.5353    4160.2463     10706.85    10291.035    77.797045 
   77500    1362.0078   -118.66429    1.2323733   -117.43192   -38493.829    4.2936847    4.2936847    4.2936847   -38493.829   -34297.486   -41189.491    -39994.51    343.26478    -9883.577   -16540.055    79.157202 
   77600    839.21589   -118.18973   0.75934017   -117.43039      10309.5     4.275926     4.275926     4.275926      10309.5   -6248.2982    45459.222   -8282.4236   -7625.9515   -14074.587   -29309.261    78.179076 
   77700     1588.539   -118.85292    1.4373435   -117.41558    3887.9685    4.2675445    4.2675445    4.2675445    3887.9685   -13556.398     34218.36   -8998.0559    30.789893    3203.7296    6920.7615    77.720247 
   77800    1133.1196   -118.46116    1.0252704   -117.43589   -19147.424    4.2714639    4.2714639    4.2714639   -19147.424    13241.425   -11886.107   -58797.591    3334.2632    679.33501   -14255.087    77.934582 
   77900    839.09949   -118.21494   0.75923485    -117.4557    34342.415     4.259356     4.259356     4.259356    34342.415    47555.691    7194.8872    48276.667   -9961.3694   -20246.347   -37010.229     77.27372 
   78000    1872.9132   -119.15577    1.6946513   -117.46112   -8439.2946     4.267952     4.267952     4.267952   -8439.2946   -17873.953   -17969.485    10525.554   -4297.8254   -9774.7502    4849.6999    77.742513 
   78100    1720.4398   -119.01555    1.5566901   -117.45886    2482.5927    4.2593976    4.2593976    4.2593976    2482.5927    21025.339    3515.3606   -17092.922    3658.2409    15851.173     3225.001    77.275984 
   78200    782.31096   -118.18208    0.7078514   -117.47423     4200.074    4.2592997    4.2592997    4.2592997     4200.074    15495.412    9612.7178   -12507.908   -7607.6863   -5038.9618   -44813.487    77.270655 
   78300    1003.1644   -118.38502   0.90768424   -117.47734   -17198.101    4.2652274    4.2652274    4.2652274   -17198.101   -13352.686    -24431.08   -13810.537   -11041.537   -25028.098   -9418.2701    77.593722 
   78400    1892.7146   -119.17285    1.7125679   -117.46029    4201.7666    4.2613289    4.2613289    4.2613289    4201.7666    12318.816   -21891.055    22177.539   -8004.3921   -1383.4062    12867.504    77.381149 
   78500    1252.8579   -118.59774    1.1336121   -117.46412   -3140.7717    4.2762244    4.2762244    4.2762244   -3140.7717    21897.789    -13169.62   -18150.484    2081.1693    1049.0282   -45951.861    78.195447 
   78600    854.25842   -118.22919   0.77295097   -117.45624   -10784.515    4.2716283    4.2716283    4.2716283   -10784.515    17358.393    -11498.44     -38213.5   -1975.1039   -10493.943   -28330.663    77.943581 
   78700    1711.3979   -118.98351    1.5485088     -117.435   -19841.593    4.2662002    4.2662002    4.2662002   -19841.593   -15512.273   -16821.193   -27191.314    655.36003     2693.698    5572.7844    77.646826 
   78800    1405.0259   -118.72242    1.2712969   -117.45112   -11563.213    4.2809479    4.2809479    4.2809479   -11563.213     31792.72    -77512.66    11030.301    881.19302    4859.9051   -42475.432    78.454858 
   78900    1332.5304   -118.64399    1.2057015   -117.43829   -2137.6299    4.2812535    4.2812535    4.2812535   -2137.6299    44657.747   -39040.328   -12030.309   -2664.1471   -20498.536   -17370.865    78.471657 
   79000    1284.1232   -118.58915    1.1619016   -117.42725    2239.0165    4.2684961    4.2684961    4.2684961    2239.0165     26153.76   -1562.2204    -17874.49    2989.1123   -24740.429    9828.3824    77.772248 
   79100    898.22961   -118.25263   0.81273703   -117.43989   -18443.359    4.2687349    4.2687349    4.2687349   -18443.359    30942.716    -13917.23   -72355.562    1884.2774   -10815.602   -47166.929    77.785307 
   79200    1505.9476   -118.80477    1.3626131   -117.44216   -20523.522    4.2739259    4.2739259    4.2739259   -20523.522   -20025.161    6140.8567   -47686.261    6450.3898    3748.5311   -14403.884     78.06942 
   79300    1529.7321   -118.82883    1.3841338   -117.44469    7209.5964    4.2773353    4.2773353    4.2773353    7209.5964   -4654.2942    39063.725   -12780.641   -17468.793   -27993.202    9099.5435    78.256401 
   79400    1178.7504   -118.51187    1.0665581   -117.44531   -5070.3947    4.2768566    4.2768566    4.2768566   -5070.3947    37226.329   -4516.3911   -47921.122   -750.72157   -473.23531   -30689.827    78.230131 
   79500    1316.2373    -118.6278    1.1909592   -117.43684     -6847.16    4.2664298    4.2664298    4.2664298     -6847.16   -4240.7239   -15301.928   -998.82807    13722.896    15881.985   -14529.251    77.659359 
   79600    1182.2435   -118.50996    1.0697187   -117.44024    9850.1539    4.2609353    4.2609353    4.2609353    9850.1539   -4025.1807    42820.761   -9245.1189   -5344.4952   -12949.375    14936.274    77.359706 
   79700    1122.4713   -118.47564    1.0156356      -117.46    11326.336    4.2752961    4.2752961    4.2752961    11326.336    4089.0837   -1993.0117    31882.936    256.59446   -5440.0934   -18091.152    78.144535 
   79800    1705.9982   -118.99409     1.543623   -117.45047   -6318.3488    4.2764035    4.2764035    4.2764035   -6318.3488   -5349.7086   -9490.4403   -4114.8974      2417.84    8314.5698   -25286.991    78.205272 
   79900    1582.0255   -118.87375    1.4314499    -117.4423    2512.6546    4.2637159    4.2637159    4.2637159    2512.6546   -19578.279    35096.207   -7979.9639   -2135.0674   -7640.0495    17192.722    77.511259 
   80000    887.92275   -118.25857   0.80341117   -117.45516   -24896.206    4.2726612    4.2726612    4.2726612   -24896.206   -14041.259    -11635.24   -49012.121   -9678.0171   -18362.996   -22177.284    78.000139 
   80100    927.60335   -118.30362     0.839315   -117.46431    650.24695    4.2593084    4.2593084    4.2593084    650.24695    15246.123    12495.388    -25790.77   -5882.6001    9709.4615   -35237.876    77.271129 
   80200    1917.3924   -119.19568     1.734897   -117.46079    5830.7072    4.2595058    4.2595058    4.2595058    5830.7072    1859.6161    8532.0578    7100.4476    3898.4682    6215.4937     7594.562    77.281875 
   80300    1559.6938   -118.87785    1.4112437   -117.46661   -23518.841    4.2748219    4.2748219    4.2748219   -23518.841   -18908.089   -20400.967   -31247.467   -13708.821   -15074.486   -3234.1474    78.118532 
   80400    599.54994   -118.01852   0.54248539   -117.47603    27737.346    4.2501015    4.2501015    4.2501015    27737.346    22890.839    67287.355   -6966.1556   -24737.026    -16421.76   -36565.872    76.771124 
   80500    1238.7693   -118.59996    1.1208645    -117.4791    7204.5761    4.2578822    4.2578822    4.2578822    7204.5761    5224.3793    15736.016    653.33308     953.7871   -9514.5218   -16822.844    77.193532 
   80600    1901.3929   -119.18384    1.7204202   -117.46342   -17096.252    4.2778815    4.2778815    4.2778815   -17096.252   -33418.533   -11536.563   -6333.6595    18635.495   -291.27483   -384.73416    78.286385 
   80700    1366.8747   -118.69818     1.236777    -117.4614    12432.784    4.2653991    4.2653991    4.2653991    12432.784    277.89013    20678.239    16342.221    -2681.495    1992.9965   -16547.674    77.603092 
   80800    1021.2338   -118.38839   0.92403384   -117.46436   -13284.916     4.267147     4.267147     4.267147   -13284.916    1889.5905   -1833.3315   -39911.006   -6526.5025   -13423.562   -16466.207    77.698532 
   80900    1173.2463   -118.51648    1.0615779    -117.4549   -6025.8076    4.2711485    4.2711485    4.2711485   -6025.8076   -34298.953    7427.5317    8793.9984    22705.368    1060.6349    4452.5333     77.91732 
   81000    1390.8172    -118.7151    1.2584406   -117.45666    19369.457     4.266284     4.266284     4.266284    19369.457    1482.9394    9970.3067    46655.124    11966.168    8597.1408    1646.9449    77.651399 
   81100    1473.5933     -118.794    1.3333381   -117.46066    1079.1604    4.2753569    4.2753569    4.2753569    1079.1604    21949.709   -15469.932   -3242.2962   -9078.5817   -1552.1396    -21148.51    78.147866 
   81200    1470.4113   -118.77764     1.330459   -117.44718   -11598.462    4.2724254    4.2724254    4.2724254   -11598.462   -7431.7269    2574.9193   -29938.579   -136.12246     9619.241    685.51857    77.987224 
   81300    1112.1981   -118.44728    1.0063402   -117.44094    8306.2798    4.2619553    4.2619553    4.2619553    8306.2798    23457.017   -9306.6023    10768.425    13966.051    4861.4291    7150.8326    77.415279 
   81400     784.3857   -118.17259   0.70972867   -117.46286     12064.32    4.2772209    4.2772209    4.2772209     12064.32    54797.969    -39226.33    20621.319    3569.9909   -6848.8443   -23892.809    78.250123 
   81500    2025.3302   -119.27122    1.8325613   -117.43866   -29889.151    4.2845575    4.2845575    4.2845575   -29889.151   -4322.8205   -52410.032   -32934.601   -8900.0215    -5665.267   -6527.0638    78.653476 
   81600    1575.2456   -118.85872    1.4253154    -117.4334    27668.939    4.2556353    4.2556353    4.2556353    27668.939    54920.185   -5913.5104    34000.143   -1276.9775    8014.8945    15265.699    77.071391 
   81700    760.30744   -118.14983   0.68794215   -117.46189   -1974.5315    4.2594953    4.2594953    4.2594953   -1974.5315   -6899.4964    -34236.23    35212.132    -1726.041    6219.4799   -3758.6768      77.2813 
   81800    1128.6579   -118.48044    1.0212334   -117.45921   -21218.597    4.2788957    4.2788957    4.2788957   -21218.597   -21497.726   -17821.093   -24336.971   -1018.4139    3044.1002   -11743.253    78.342079 
   81900    1624.3113   -118.91657     1.469711   -117.44686   -8263.8478    4.2807812    4.2807812    4.2807812   -8263.8478    6271.0985   -5400.8778   -25661.764    4697.4509    7033.3546    23078.202    78.445689 
   82000    1383.2999   -118.69071    1.2516388   -117.43907   -16098.358    4.2775847    4.2775847    4.2775847   -16098.358   -9069.0977   -55606.253    16380.277    -1451.321   -3147.0486    12544.985    78.270093 
   82100    1253.2944   -118.57105    1.1340071   -117.43705    14215.452    4.2580188    4.2580188    4.2580188    14215.452    5405.0097    5088.0498    32153.298   -10621.134   -600.21614   -14830.676    77.200966 
   82200    1192.8155   -118.52969    1.0792845   -117.45041   -8974.2916    4.2627586    4.2627586    4.2627586   -8974.2916   -7406.4943    3588.4917   -23104.872    1111.4347   -13126.049    19740.732    77.459057 
   82300    1183.0245   -118.53277    1.0704254   -117.46235   -19180.691    4.2742255    4.2742255    4.2742255   -19180.691   -7100.0267   -13693.918   -36748.128    3122.6519   -6258.3152    26704.919     78.08584 
   82400    1679.7976    -118.9771    1.5199161   -117.45719    2302.4833    4.2654327    4.2654327    4.2654327    2302.4833     8688.571   -17420.594    15639.473   -10788.973    3474.3215   -11600.591    77.604924 
   82500     1316.025   -118.64821     1.190767   -117.45744    9315.7569    4.2631624    4.2631624    4.2631624    9315.7569    5772.6535    27640.747   -5466.1303    1471.0391   -21575.435     9232.546    77.481072 
   82600    1057.1896   -118.42016   0.95656738   -117.46359   -11243.503    4.2654542    4.2654542    4.2654542   -11243.503    1979.5846    26913.136   -62623.228   -5308.7622   -15737.988    23922.919    77.606098 
   82700    1137.3867   -118.49211    1.0291314   -117.46298    17497.418    4.2656827    4.2656827    4.2656827    17497.418    33660.692     32465.79   -13634.229    7951.5483    3755.3986    818.65052    77.618569 
   82800    1596.4465   -118.90321    1.4444983   -117.45871   -3561.0555    4.2706612    4.2706612    4.2706612   -3561.0555     16929.15   -30645.758    3033.4415    9737.1013    4826.0467    -9132.686    77.890655 
   82900    1427.8772   -118.75099    1.2919733   -117.45902     2261.291    4.2610365    4.2610365    4.2610365     2261.291    9632.5139    7844.3704   -10693.011   -11922.594    604.53381    14668.137     77.36522 
   83000    1108.8164   -118.46632    1.0032804   -117.46304    19765.551    4.2575797    4.2575797    4.2575797    19765.551    39814.903    14482.772     4998.979    554.18473   -2524.9706    27897.292    77.177084 
   83100    1279.1059   -118.62776    1.1573619    -117.4704   -15302.859     4.267993     4.267993     4.267993   -15302.859   -5368.2543   -36156.243   -4384.0808    26954.719   -975.73588   -1762.0771    77.744754 
   83200     1477.034   -118.80327    1.3364514   -117.46682    4460.6838    4.2609714    4.2609714    4.2609714    4460.6838    12465.047   -26049.862    26966.867    15555.198   -121.30814   -8403.2334    77.361672 
   83300    1337.0545   -118.68001     1.209795   -117.47022    -1557.625     4.262513     4.262513     4.262513    -1557.625    15007.474   -6962.6303   -12717.719   -14699.659     4007.824    30406.298     77.44567 
   83400    822.69059     -118.215   0.74438774   -117.47062   -12703.255    4.2675597    4.2675597    4.2675597   -12703.255   -19319.635    3905.5195    -22695.65    23724.791    5825.1527    23185.511     77.72108 
   83500    1394.5172   -118.72612    1.2617884   -117.46433    17296.943    4.2582908    4.2582908    4.2582908    17296.943    21878.789    1316.2326    28695.808     42467.51   -11537.815   -5578.9362    77.215757 
   83600    1693.0434   -118.99923    1.5319012   -117.46733    4312.3859    4.2713339    4.2713339    4.2713339    4312.3859    2173.1378   -970.43168    11734.452   -9878.2242   -873.36603    6175.0781     77.92747 
   83700    1353.4601   -118.68367    1.2246392   -117.45903   -9800.4626    4.2719902    4.2719902    4.2719902   -9800.4626   -15014.513   -2077.1501   -12309.725    10734.749    11080.051    20042.826    77.963398 
   83800    841.36946   -118.21558   0.76128877   -117.45429    26344.194    4.2590337    4.2590337    4.2590337    26344.194    4250.7242    54074.915    20706.941    35213.055   -1125.1416    4648.4747    77.256182 
   83900    1411.4575   -118.73716    1.2771164   -117.46005   -13736.631    4.2657033    4.2657033    4.2657033   -13736.631   -21528.758   -18015.464   -1665.6702    5216.2407   -14988.226   -8835.0695    77.619698 
   84000     1486.787   -118.80721    1.3452761   -117.46194    9029.8914    4.2605819    4.2605819    4.2605819    9029.8914    11727.103    11104.662    4257.9095   -670.42585    -14782.84   -6073.1487     77.34046 
   84100    1140.4651   -118.50546    1.0319168   -117.47354    -8179.638    4.2717354    4.2717354    4.2717354    -8179.638   -6778.8621   -29959.403    12199.351    32851.548    4035.0602    11038.458    77.949443 
   84200    1076.0213   -118.43966   0.97360668   -117.46605   -14234.417    4.2702076    4.2702076    4.2702076   -14234.417    -32527.84   -17761.287    7585.8768    24937.048   -5113.8438    14572.039    77.865841 
   84300    1821.1186   -119.09808    1.6477864    -117.4503    4721.4703    4.2534106    4.2534106    4.2534106    4721.4703    3990.4357    26702.872   -16528.896   -16928.431   -12146.335   -929.27923    76.950585 
   84400    1319.4534   -118.66454    1.1938691   -117.47067   -1125.2385    4.2692941    4.2692941    4.2692941   -1125.2385   -8711.1091   -9019.5365     14354.93    24855.435    -334.9109    3854.6177    77.815878 
   84500    827.12004   -118.21515   0.74839559   -117.46676    8457.4769    4.2677409    4.2677409    4.2677409    8457.4769    5631.8859    -33762.85    53503.394    38437.828    9148.8262    3284.4816     77.73098 
   84600    1336.0712   -118.66711    1.2089053    -117.4582   -760.79678    4.2651493    4.2651493    4.2651493   -760.79678   -1936.8294   -7278.0277    6932.4668   -26337.713   -5298.3426   -2003.4147     77.58946 
   84700    1378.6011   -118.70948    1.2473873   -117.46209   -17228.494    4.2679472    4.2679472    4.2679472   -17228.494   -31548.095   -26134.097    5996.7103   -2847.5148   -13103.701    3147.8601    77.742253 
   84800    1421.7693   -118.74733    1.2864467   -117.46088    6728.2297    4.2525203    4.2525203    4.2525203    6728.2297    -14454.97    -11074.37    45714.029    50094.743    -6088.942   -4174.5872    76.902274 
   84900    1426.9738   -118.76164    1.2911559   -117.47049   -15032.048    4.2682621    4.2682621    4.2682621   -15032.048   -15562.505     -12517.7    -17015.94    376.50457   -5702.0282   -16314.165    77.759462 
   85000    1112.5187   -118.47692    1.0066303   -117.47028   -11213.784    4.2686888    4.2686888    4.2686888   -11213.784   -28228.826   -26.635398   -5385.8913   -10697.117   -8188.6681    6917.8711    77.782786 
   85100    1066.1039   -118.43373   0.96463325    -117.4691    24921.648    4.2551572    4.2551572    4.2551572    24921.648   -51242.699    49392.678    76614.964    27768.035   -1135.9625    7602.6164    77.045422 
   85200    1751.2981   -119.04895    1.5846113   -117.46434   -13861.949    4.2701239    4.2701239    4.2701239   -13861.949   -48269.533    4103.0575    2580.6287     18099.74   -37.003536   -5079.6886     77.86126 
   85300    1414.0991   -118.73823    1.2795066   -117.45873    23100.424    4.2578514    4.2578514    4.2578514    23100.424    11804.567    97.085211    57399.619   -6335.1301     -782.991    385.14058     77.19186 
   85400    678.38695    -118.0929   0.61381876   -117.47908    663.57323    4.2662911    4.2662911    4.2662911    663.57323   -21716.794   -27091.112    50798.625    20543.433    6760.7043    3493.4185    77.651789 
   85500    1425.5219   -118.75314    1.2898422    -117.4633   -34304.656    4.2754372    4.2754372    4.2754372   -34304.656   -58910.345   -45457.175    1453.5516    30950.496   -6520.8912    11358.422    78.152269 
   85600    1934.1436   -119.19753    1.7500537   -117.44747    19200.577    4.2543296    4.2543296    4.2543296    19200.577    45289.768   -13257.865    25569.828   -7289.1344   -1529.7161   -15470.439    77.000472 
   85700    824.46651   -118.22103   0.74599462   -117.47504   -16555.932    4.2765255    4.2765255    4.2765255   -16555.932    71764.098   -81886.295   -39545.601   -1996.3225    2490.7895    -13427.82    78.211968 
   85800    997.05637   -118.35273   0.90215756   -117.45057   -33759.862    4.2827898    4.2827898    4.2827898   -33759.862    25903.097   -79656.095   -47526.587    24725.271   -2690.5476    15965.104    78.556164 
   85900    1811.8052   -119.06934    1.6393594   -117.42998   -13944.683     4.273379     4.273379     4.273379   -13944.683   -4063.4737   -23669.426   -14101.148    3780.8728   -1826.6443   -11618.002    78.039456 
   86000     1112.684   -118.45499    1.0067799   -117.44821    -32200.99    4.2784895    4.2784895    4.2784895    -32200.99   -2470.0743   -63814.024   -30318.872   -24888.336    1752.0505    -14956.88     78.31977 
   86100    1127.4848   -118.46868    1.0201719   -117.44851    18186.654    4.2509596    4.2509596    4.2509596    18186.654    49380.697   -35090.048    40269.313   -151.04462    2262.1618    10571.153    76.817635 
   86200     1457.824   -118.77853    1.3190698   -117.45946    4123.0688    4.2668822    4.2668822    4.2668822    4123.0688   -11867.145   -8283.5293    32519.881    4230.8603     4358.016    12277.342    77.684067 
   86300    1317.6148   -118.65296    1.1922056   -117.46076   -19652.236    4.2795563    4.2795563    4.2795563   -19652.236   -50221.103    -20658.29    11922.684   -18285.444    5761.3463   -6681.1298    78.378373 
   86400    1191.7949   -118.53131     1.078361   -117.45295    45814.665    4.2543923    4.2543923    4.2543923    45814.665    20108.033    2644.3475    114691.62   -7195.0778    1033.0521   -2833.3967    77.003877 
   86500    1402.0668   -118.72822    1.2686195    -117.4596   -12628.304    4.2657378    4.2657378    4.2657378   -12628.304     3409.634   -26437.079   -14857.466    7662.6847   -4662.3207    4609.7516    77.621577 
   86600     1115.166   -118.46784    1.0090256   -117.45881   -1285.6322    4.2664122    4.2664122    4.2664122   -1285.6322   -28957.725    5254.5964    19846.232    -12594.58   -3727.5474   -174.20066      77.6584 
   86700    1215.1226   -118.56574    1.0994684   -117.46628    2288.6218    4.2713492    4.2713492    4.2713492    2288.6218   -16234.535   -774.87555    23875.276   -16332.988    590.06635    1318.0435    77.928304 
   86800    1681.5334   -118.97817    1.5214867   -117.45668   -17117.981    4.2733551    4.2733551    4.2733551   -17117.981   -3692.1814   -10793.937   -36867.826    9288.1111       2936.1   -255.52441    78.038147 
   86900    1469.0224   -118.77448    1.3292024   -117.44528   -6183.1869    4.2618024    4.2618024    4.2618024   -6183.1869   -32770.073     2869.844    11350.668   -21305.861    3176.4504    2687.7942    77.406945 
   87000    591.64876   -117.99788   0.53533623   -117.46254    13052.316     4.268124     4.268124     4.268124    13052.316   -44040.207    13474.587    69722.567   -33861.785   -5882.8941    17834.503    77.751911 
   87100     1389.416   -118.71562    1.2571728   -117.45845   -554.96298    4.2732522    4.2732522    4.2732522   -554.96298     -8494.33   -3160.8384    9990.2794    16659.298   -5674.0816   -8954.6962    78.032509 
   87200    1774.5064   -119.05815    1.6056107   -117.45254   -7298.3171    4.2669176    4.2669176    4.2669176   -7298.3171    1759.2597   -16992.043   -6662.1684   -5073.2975    13723.377   -3221.9017       77.686 
   87300     1408.962   -118.73061    1.2748584   -117.45575    1266.9745    4.2549599    4.2549599    4.2549599    1266.9745   -22219.571   -1921.3685    27941.864   -45396.455    910.24611     16479.27    77.034704 
   87400    1057.6563   -118.42643   0.95698963   -117.46944   -9390.7722    4.2605764    4.2605764    4.2605764   -9390.7722   -20057.664   -8153.5725    38.919566    13681.522    2503.7626   -3741.4834    77.340159 
   87500    985.15678   -118.36305   0.89139056   -117.47166   -29554.209    4.2780226    4.2780226    4.2780226   -29554.209   -21802.863   -30259.297   -36600.468     26388.91    2024.1047   -16438.055    78.294136 
   87600    1658.0519   -118.95468    1.5002402   -117.45444    6.5276101    4.2675169    4.2675169    4.2675169    6.5276101   -8910.8064   -6601.0319    15531.421   -18304.517   -766.68497   -3672.4956    77.718742 
   87700    1600.5298   -118.89882     1.448193   -117.45063     11031.88    4.2628338    4.2628338    4.2628338     11031.88   -5878.4415   -9724.1904    48698.272   -1994.9052   -5485.9751   -3906.4376    77.463159 
   87800    651.75913   -118.05191   0.58972536   -117.46218   -7480.6915    4.2750886    4.2750886    4.2750886   -7480.6915   -19490.128   -12125.309    9173.3615    12794.864   -22040.008   -21476.192    78.133153 
   87900    1026.2148   -118.38195   0.92854071   -117.45341   -9402.5052     4.276526     4.276526     4.276526   -9402.5052   -20677.545   -11667.008     4137.037   -9780.5082    6934.4595   -19632.336    78.211992 
   88000    2086.4358   -119.32561     1.887851   -117.43776   -16057.509    4.2717301    4.2717301    4.2717301   -16057.509   -18596.078   -7368.7708   -22207.677   -13636.989   -2038.8281    15328.504    77.949157 
   88100    1260.4054   -118.59503    1.1404413   -117.45459    6625.8362    4.2684053    4.2684053    4.2684053    6625.8362   -5893.7586    25661.352    109.91544    19583.295   -4276.1947    6676.2465     77.76729 
   88200    824.17846   -118.21197   0.74573399   -117.46624   -1590.6838    4.2621244    4.2621244    4.2621244   -1590.6838     15712.03   -18328.084   -2155.9973    15583.947   -30.504176   -31648.428     77.42449 
   88300       1471.1   -118.79034    1.3310822   -117.45926    6973.4138    4.2599559    4.2599559    4.2599559    6973.4138    15920.981    13043.753   -8044.4927    -4563.789   -2540.2057   -5476.2418    77.306373 
   88400    1617.3015     -118.929    1.4633683   -117.46563   -13176.817    4.2723588    4.2723588    4.2723588   -13176.817    -3709.859   -18684.456   -17136.136    877.81946    11477.215    14233.165    77.983577 
   88500    1157.4119   -118.52028    1.0472506   -117.47303    35129.185    4.2562023    4.2562023    4.2562023    35129.185    54912.956    46657.096    3817.5009    14337.163   -1188.9314   -21275.352    77.102202 
   88600    1266.8498   -118.62017    1.1462723   -117.47389    13750.489    4.2637926    4.2637926    4.2637926    13750.489    30563.823    22795.935    -12108.29    16514.954    -1532.969   -11844.266    77.515437 
   88700    1194.8854   -118.54147    1.0811575   -117.46031   -5738.9339      4.26912      4.26912      4.26912   -5738.9339    -595.6826   -30004.618    13383.499   -24662.136    8521.2104    10348.584     77.80636 
   88800    990.32296   -118.35554   0.89606503   -117.45948    25191.189    4.2587399    4.2587399    4.2587399    25191.189     39130.11   -3869.9731    40313.431   -19985.667    -138.5744   -9214.8001    77.240191 
   88900    1532.7242    -118.8501    1.3868411   -117.46326   -19792.517     4.279331     4.279331     4.279331   -19792.517   -12025.609   -27361.171   -19990.771    18774.473    381.29191   -25940.823    78.365994 
   89000     1701.743   -118.99803    1.5397728   -117.45826    4586.7979    4.2596693    4.2596693    4.2596693    4586.7979   -9932.7907   -311.33434    24004.519   -14519.461   -3369.3761   -5385.9239    77.290775 
   89100    1057.1892    -118.4206   0.95656701   -117.46404    20342.309    4.2520654    4.2520654    4.2520654    20342.309    6627.1753    12530.128    41869.623   -39666.944     7672.284    12845.807    76.877597 
   89200    965.86446   -118.34063   0.87393446    -117.4667   -39161.634    4.2829797    4.2829797    4.2829797   -39161.634   -48390.118   -22899.566   -46195.219    -598.4377   -1686.4138   -9359.9046    78.566616 
   89300    1575.4964   -118.87631    1.4255422   -117.45076    2933.4932    4.2661907    4.2661907    4.2661907    2933.4932   -2678.1361   -12097.008    23575.624    5302.1728   -7806.5107   -14193.253    77.646304 
   89400    1534.0701    -118.8416    1.3880589   -117.45355    14058.747    4.2606022    4.2606022    4.2606022    14058.747   -20320.974     17852.91    44644.306   -26079.277    19043.665    7251.5471    77.341568 
   89500    850.08153   -118.23217   0.76917163     -117.463    -18042.01    4.2733758    4.2733758    4.2733758    -18042.01   -43546.504   -14430.973    3851.4468   -20132.841     4472.893    7273.5776    78.039283 
   89600    1324.0609   -118.65316    1.1980381   -117.45512   -1570.3032    4.2605809    4.2605809    4.2605809   -1570.3032   -14768.036    23273.362   -13216.237    14792.561   -8351.9003   -6093.0111    77.340408 
   89700     1678.481   -118.98342    1.5187248   -117.46469   -23753.334    4.2709238    4.2709238    4.2709238   -23753.334   -48174.568   -25420.575    2335.1401   -8223.3244    8601.0926    7955.1122    77.905022 
   89800    1188.2231   -118.54338    1.0751292   -117.46826   -11896.984    4.2659338    4.2659338    4.2659338   -11896.984   -13579.738   -27261.378    5150.1644   -30100.014   -8235.4905    14278.104    77.632277 
   89900    1029.2026   -118.39646    0.9312441   -117.46522    15536.326    4.2589915    4.2589915    4.2589915    15536.326    42089.237    21482.624   -16962.883    7368.6663    -9422.887    15085.607    77.253885 
   90000    1606.5557   -118.91502    1.4536454   -117.46138   -13701.596    4.2712653    4.2712653    4.2712653   -13701.596   -11553.428   -6368.4976   -23182.861   -2474.5021    8610.6298   -1237.5564    77.923715 
   90100    1242.2906   -118.59091    1.1240506   -117.46686    25605.253     4.260935     4.260935     4.260935    25605.253    72178.409   -21696.538    26333.887     -36699.3   -4655.2529   -9965.5427    77.359691 
   90200    1280.0684   -118.62976    1.1582328   -117.47152   -2526.3999    4.2667305    4.2667305    4.2667305   -2526.3999    22872.665   -17546.187   -12905.677   -17079.123    4205.4383    14704.209    77.675782 
   90300    1389.7879   -118.71652    1.2575093   -117.45901   -9464.7071    4.2674946    4.2674946    4.2674946   -9464.7071     8311.704   -23524.814   -13181.012    17710.734    10185.782    6579.5204    77.717521 
   90400     1057.163   -118.41843   0.95654331   -117.46189     7050.506    4.2624758    4.2624758    4.2624758     7050.506    23580.889   -39527.935    37098.564   -27706.395    3580.7784   -23770.947    77.443641 
   90500    1083.0919   -118.44708   0.98000435   -117.46708    -9195.675    4.2733555    4.2733555    4.2733555    -9195.675   -26138.854   -49372.463    47924.292   -13325.059    10340.857   -21376.775    78.038167 
   90600    1732.5924   -119.02049     1.567686   -117.45281    3854.8958    4.2618825    4.2618825    4.2618825    3854.8958   -3081.3229   -23540.352    38186.362     28769.29     -12824.4     5899.924    77.411308 
   90700     1372.452    -118.7006    1.2418234   -117.45878   -6573.0026    4.2643508    4.2643508    4.2643508   -6573.0026   -298.26417    4434.5597   -23855.303   -5158.9559   -17319.316   -4281.2851    77.545889 
   90800     872.1557   -118.25291   0.78914481   -117.46377   -10916.033    4.2678421    4.2678421    4.2678421   -10916.033    13170.306   -21274.608   -24643.797    -23265.24   -1046.7851   -22395.768    77.736506 
   90900    1415.2312   -118.74124    1.2805309   -117.46071    14699.872     4.253412     4.253412     4.253412    14699.872     36857.22   -23630.074     30872.47     936.0931    -2425.728    1462.0396    76.950661 
   91000    1740.3736   -119.04695    1.5747266   -117.47222   -13276.944    4.2684601    4.2684601    4.2684601   -13276.944   -17605.321    -5563.727   -16661.783    21104.942   -26463.266    3530.5505    77.770284 
   91100    1134.1982   -118.49979    1.0262464   -117.47354    5610.6634    4.2595793    4.2595793    4.2595793    5610.6634    9801.1762    47749.481   -40718.667   -4769.9308   -11794.856    -10130.69    77.285875 
   91200    538.84052   -117.96664   0.48755423   -117.47908    14143.084    4.2528644    4.2528644    4.2528644    14143.084    42126.837    14822.648   -14520.232   -25866.201    15067.981   -14559.377    76.920942 
   91300    1491.1638   -118.82788    1.3492363   -117.47864   -20928.608    4.2683255    4.2683255    4.2683255   -20928.608   -27812.141   -9338.8434   -25634.841   -6895.1708    3651.2269   -9606.0151    77.762926 
   91400    2300.0803   -119.54639     2.081161   -117.46523   -6073.7877    4.2593219    4.2593219    4.2593219   -6073.7877    -2783.078    4305.4802   -19743.765    20972.672   -10833.502   -52.032936    77.271863 
   91500    944.84783   -118.33444   0.85491817   -117.47952    6237.1554    4.2604141    4.2604141    4.2604141    6237.1554     16841.51    16238.297   -14368.341   -7397.8951   -3784.6512   -13052.638    77.331323 
   91600    740.28933   -118.14714   0.66982934   -117.47731   -5013.8015    4.2630985    4.2630985    4.2630985   -5013.8015   -6056.7645    33260.469   -42245.108   -33559.155    9372.8491   -10384.857     77.47759 
   91700    1470.5313    -118.8037    1.3305676   -117.47314    10388.254    4.2616613    4.2616613    4.2616613    10388.254   -2259.5309    62381.513    -28957.22    2875.7611    2530.1194   -2504.8817    77.399259 
   91800    1779.6545   -119.07728    1.6102688   -117.46701   -14188.463    4.2687001    4.2687001    4.2687001   -14188.463   -27520.117   -20466.624    5421.3505    38373.989   -7624.7654   -3128.3783    77.783403 
   91900    1113.1441   -118.47163    1.0071962   -117.46444   -4930.6572    4.2629428    4.2629428    4.2629428   -4930.6572    19237.696   -28405.626   -5624.0419   -15199.521    8169.6572   -2504.0195      77.4691 
   92000    908.19986   -118.29288   0.82175832   -117.47112   -8525.8442    4.2613869    4.2613869    4.2613869   -8525.8442   -1767.5552    18501.736   -42311.714   -36702.228    16988.622   -11133.453    77.384307 
   92100    1407.4641   -118.74362    1.2735031   -117.47012    3619.6102    4.2615954    4.2615954    4.2615954    3619.6102    9746.4089    28988.586   -27876.164    26303.969    2635.7336   -6774.3219    77.395668 
   92200    1764.3246   -119.06014     1.596398   -117.46375   -16271.474     4.266088     4.266088     4.266088   -16271.474    18288.452   -51936.617   -15166.258    9625.8972   -2735.9775    4292.8702      77.6407 
   92300    1018.7056   -118.39558   0.92174625   -117.47384    9879.6263    4.2575272    4.2575272    4.2575272    9879.6263    32354.452   -16902.337    14186.765   -44618.151    4080.9842   -7818.5655    77.174226 
   92400    994.68986   -118.37701   0.90001629     -117.477    12454.978    4.2542356    4.2542356    4.2542356    12454.978    38864.003    20186.884   -21685.954   -14697.079    9400.4192   -14354.162    76.995368 
   92500    1608.0282   -118.92668    1.4549777    -117.4717       -22793    4.2666821    4.2666821    4.2666821       -22793    4480.9835    382.81094   -73242.795    13384.463    -3121.225   -6609.1905    77.673139 
   92600    1236.7871   -118.59337     1.119071    -117.4743    9239.2361    4.2626139    4.2626139    4.2626139    9239.2361    6838.6555    29693.726   -8814.6729   -24410.229   -14059.118    8128.3197     77.45117 
   92700     1137.444   -118.50701    1.0291832   -117.47782   -1041.3443    4.2604375    4.2604375    4.2604375   -1041.3443   -721.52724    -32609.37    30206.864   -34892.129    1455.4692    11377.157    77.332598 
   92800    1473.0365   -118.80592    1.3328344   -117.47309    6599.0314    4.2569306    4.2569306    4.2569306    6599.0314     15025.94   -1988.1197    6759.2736    1265.4633    2842.9305   -8443.5813    77.141792 
   92900    1643.1415   -118.96208     1.486749   -117.47533   -2763.8034    4.2608965    4.2608965    4.2608965   -2763.8034   -835.64542    28076.884   -35532.649    8424.0137   -3904.7403   -10997.233    77.357592 
   93000    899.93372   -118.29484   0.81427894   -117.48056   -22238.767    4.2701095    4.2701095    4.2701095   -22238.767   -12408.504   -64858.394    10550.597   -35543.095   -8202.5884    10212.539     77.86047 
   93100    1207.0565   -118.56073    1.0921701   -117.46856    5748.0423    4.2573152    4.2573152    4.2573152    5748.0423    15690.775   -25046.023    26599.375   -21167.349    4703.9524    35521.596      77.1627 
   93200    1568.3038   -118.88856    1.4190342   -117.46952    11686.297    4.2627649    4.2627649    4.2627649    11686.297    6892.2451    44045.685   -15879.039    14062.273    6596.0565    6284.3902    77.459403 
   93300     1316.613   -118.65869    1.1912991   -117.46739   -182.71613    4.2710535    4.2710535    4.2710535   -182.71613   -24902.958    13085.691    11269.118   -21003.156   -3282.1525   -9121.5603    77.912122 
   93400    1131.1899   -118.48751    1.0235244   -117.46399    5784.6337    4.2675072    4.2675072    4.2675072    5784.6337   -1007.0597    14101.492    4259.4685   -24147.282   -5072.3676    8187.8675    77.718209 
   93500    1525.2102     -118.836    1.3800423   -117.45595   -30484.468     4.276469     4.276469     4.276469   -30484.468   -5499.4056   -60429.029   -25524.969    10975.236    889.95035    5875.0453    78.208867 
   93600    1174.3154   -118.51376    1.0625452   -117.45121    14019.122    4.2782791    4.2782791    4.2782791    14019.122   -4945.3265   -18072.199     65074.89   -4169.5396    11748.066    9188.3792    78.308217 
   93700    857.74319   -118.22738   0.77610407   -117.45127    9454.2258    4.2895432    4.2895432    4.2895432    9454.2258    -11995.68    -3744.732    44103.089   -6993.9945   -13854.767    21396.106    78.928368 
   93800    1895.1928   -119.13492    1.7148103   -117.42011   -40054.835    4.2923197    4.2923197    4.2923197   -40054.835   -9978.8667   -52304.959   -57880.677    6565.6998   -6458.9338    7802.7837    79.081733 
   93900    1397.6159   -118.67716    1.2645922   -117.41257    16509.885    4.2768693    4.2768693    4.2768693    16509.885    13760.004   -584.70755     36354.36    3021.4478    18167.822    4141.5136     78.23083 
   94000    664.89955   -118.03711   0.60161509   -117.43549    23254.274    4.2786198    4.2786198    4.2786198    23254.274    849.12302     14870.13     54043.57   -9104.2683    6129.6942    10736.401    78.326929 
   94100    1347.1057   -118.64657    1.2188896   -117.42768   -11817.526     4.282202     4.282202     4.282202   -11817.526   -16262.912   -5267.7837   -13921.882    2248.3563   -10383.408   -4959.0514    78.523824 
   94200    1851.9365   -119.10474    1.6756711   -117.42906   -22804.945    4.2799049    4.2799049    4.2799049   -22804.945    -20851.84    -30793.84   -16769.156    3745.9567   -5706.3286   -16374.001    78.397528 
   94300    1054.0274   -118.39782   0.95370612   -117.44411      15623.5    4.2776231    4.2776231    4.2776231      15623.5   -20686.841    4007.9565    63549.383    10701.072    20456.543    11323.285    78.272202 
   94400    1262.0424   -118.58125    1.1419224   -117.43933    16846.905    4.2715907    4.2715907    4.2715907    16846.905    29615.814   -20000.502    40925.404   -3314.7743   -2287.0385    12349.508    77.941526 
   94500    1263.7377   -118.58433    1.1434564   -117.44087   -34349.167    4.2859161    4.2859161    4.2859161   -34349.167   -24412.727   -45360.866   -33273.907    -156.0297   -18649.987    589.15106    78.728322 
   94600    1076.4346   -118.41387   0.97398066   -117.43989   -8306.0378    4.2834205    4.2834205    4.2834205   -8306.0378    5854.5245   -23902.701   -6869.9364    7771.6937    9800.9009    13555.417    78.590878 
   94700    1551.9252   -118.83967    1.4042145   -117.43545      18153.3    4.2751734    4.2751734    4.2751734      18153.3    2708.8966    39046.691    12704.311    4238.5839    8284.6481    11070.591    78.137803 
   94800    1493.9123   -118.79219    1.3517232   -117.44047    4842.4338    4.2763288    4.2763288    4.2763288    4842.4338   -16009.895    40917.429   -10380.233   -5704.0797   -14075.103     8643.379    78.201171 
   94900    873.78519   -118.23823    0.7906192   -117.44762    1193.5931    4.2677243    4.2677243    4.2677243    1193.5931    20529.182   -27242.622    10294.219   -19792.062    -4808.152    7508.3994    77.730073 
   95000    1231.4718   -118.57045    1.1142615   -117.45619   -11083.838    4.2710338    4.2710338    4.2710338   -11083.838   -766.36284    -35133.46    2648.3073   -1524.2543    9008.5017   -4795.6437    77.911042 
   95100    1957.6399   -119.22668    1.7713137   -117.45536   -14294.294    4.2693934    4.2693934    4.2693934   -14294.294   -9658.8133   -5986.0496    -27238.02    6982.9327   -9294.8843   -17011.203     77.82131 
   95200    1077.2504   -118.44238   0.97471884   -117.46766    36022.324    4.2560723    4.2560723    4.2560723    36022.324    32680.479    66332.739    9053.7551   -14484.706   -24223.003    2128.9946    77.095138 
   95300    739.42838   -118.14796   0.66905034   -117.47891    2501.9498    4.2730633    4.2730633    4.2730633    2501.9498    21555.917   -4610.7116   -9439.3562    -16304.26    6936.1649    17762.392     78.02216 
   95400    1479.0262     -118.796     1.338254   -117.45774   -10590.514    4.2769036    4.2769036    4.2769036   -10590.514    4677.9952   -29400.636    -7048.901     7602.227     7677.236    6923.8799    78.232711 
   95500    1654.3205   -118.94973    1.4968639   -117.45286   -4257.0692    4.2667221    4.2667221    4.2667221   -4257.0692   -1428.4129   -3235.3138    -8107.481    8500.9353   -18873.145   -5007.6471    77.675323 
   95600    1052.8683   -118.41528   0.95265733   -117.46262    -14955.11    4.2755396    4.2755396    4.2755396    -14955.11    32369.905   -20213.074    -57022.16     140.1875    -21728.09    22386.549    78.157885 
   95700     1286.752   -118.61379    1.1642802   -117.44951    -6633.258    4.2701784    4.2701784    4.2701784    -6633.258    30016.871   -14533.425    -35383.22   -2841.0111   -3494.6922    15190.712     77.86424 
   95800    1186.9382    -118.5291    1.0739667   -117.45514    17958.547     4.268053     4.268053     4.268053    17958.547    83688.119     -15783.5   -14028.978    4441.3824    17718.244    -7455.402    77.748032 
   95900    845.62746   -118.22939   0.76514149   -117.46425   -5917.0747    4.2813707    4.2813707    4.2813707   -5917.0747    76118.971   -47223.466    -46646.73    6368.6678    4235.3903     16733.45    78.478106 
   96000    1715.7404   -118.99568     1.552438   -117.44324    1008.9466     4.266388     4.266388     4.266388    1008.9466    35782.616   -10255.326    -22500.45    9392.4286   -11209.333    -312.0367     77.65708 
   96100    1350.5448   -118.66843    1.2220013   -117.44643   -16137.983    4.2721254    4.2721254    4.2721254   -16137.983   -29787.348     12999.75    -31626.35    912.23405    27782.269   -6809.0126    77.970796 
   96200    989.62727   -118.34964   0.89543555    -117.4542   -25281.838     4.269111     4.269111     4.269111   -25281.838   -9448.4736   -15645.757   -50751.283   -1885.4256     21666.25    16356.786    77.805867 
   96300    1350.8137   -118.67301    1.2222446   -117.45076    6798.1864     4.262049     4.262049     4.262049    6798.1864    19951.632   -466.60823    909.53521   -2186.2132   -7532.8184    12341.119    77.420385 
   96400    1539.8352   -118.85082    1.3932753   -117.45754    -15193.29    4.2829302    4.2829302    4.2829302    -15193.29   -29307.532    2576.1918   -18848.529    3443.4029    18523.456   -10799.092    78.563894 
   96500    1359.2649   -118.68513    1.2298915   -117.45524    6563.4358      4.27117      4.27117      4.27117    6563.4358   -22616.253    52540.855   -10234.294   -1568.1421    17169.075    1216.9665    77.918497 
   96600    1164.6852   -118.50361    1.0538316   -117.44978    16793.605    4.2576593    4.2576593    4.2576593    16793.605    19851.087    54815.296    -24285.57   -4975.4315   -4106.0758    12750.284    77.181414 
   96700    1284.2761   -118.61709      1.16204   -117.45505   -11701.848    4.2722931    4.2722931    4.2722931   -11701.848    -2944.154       -22222   -9939.3886    -3654.056   -4963.5933   -1487.9333    77.979978 
   96800     1284.809   -118.61583    1.1625222    -117.4533    23009.993    4.2671878    4.2671878    4.2671878    23009.993    13485.644    22639.205    32905.129    952.58471    7501.1349   -898.12738    77.700762 
   96900    1359.7939   -118.69147    1.2303701    -117.4611    11793.195     4.270282     4.270282     4.270282    11793.195    16834.721    6860.8728    11683.992    3562.7128    12228.084    2625.6413    77.869907 
   97000    1554.0639   -118.85939    1.4061497   -117.45324   -23033.294    4.2803673    4.2803673    4.2803673   -23033.294   -24614.411   -17656.615   -26828.854    3922.2694   -2235.2427    15400.265    78.422937 
   97100    1198.2419   -118.52688    1.0841944   -117.44268   -88.715964    4.2691343    4.2691343    4.2691343   -88.715964    -24232.01    9207.4617      14758.4   -1471.3042   -9436.0309    12392.057     77.80714 
   97200    788.42558   -118.16489   0.71338403    -117.4515   -735.39027     4.264823     4.264823     4.264823   -735.39027    16127.932   -17810.895   -523.20802    4522.7694    1088.6689   -19390.504    77.571651 
   97300    1413.9498   -118.73721    1.2793715   -117.45784   -12207.517    4.2689794    4.2689794    4.2689794   -12207.517    27151.679   -28511.747   -35262.484    2953.2857    6861.8862     19596.36    77.798671 
   97400    1916.8724   -119.18844    1.7344265   -117.45402   -13644.165    4.2625713    4.2625713    4.2625713   -13644.165   -22310.719   -1469.9639   -17151.813   -6314.2163   -8046.0124     28280.77    77.448848 
   97500    1011.6017   -118.38183   0.91531844   -117.46651   -18999.677    4.2659099    4.2659099    4.2659099   -18999.677   -38847.123    1884.7242   -20036.633    2788.3732   -3799.5041   -13471.654    77.630976 
   97600    767.57139   -118.16613   0.69451473   -117.47162    4192.6079    4.2703483    4.2703483    4.2703483    4192.6079    338.00374   -11499.254    23739.074    6434.7015    16756.671    1819.5762    77.873533 
   97700    1964.4491   -119.23713    1.7774748   -117.45966    4177.7331    4.2606339    4.2606339    4.2606339    4177.7331   -10548.435    6583.7759    16497.859   -6248.8536    4565.8791   -4141.5045    77.343294 
   97800    1700.9368   -119.00512    1.5390434   -117.46608    6919.2339    4.2657858    4.2657858    4.2657858    6919.2339   -30387.902    24420.427    26725.176    -8326.991   -12957.586    18765.959    77.624199 
   97900    723.09287   -118.12606   0.65426963   -117.47179   -4707.6633    4.2713029    4.2713029    4.2713029   -4707.6633   -20749.616    35773.961   -29147.334   -92.189167    5312.8764   -7219.3603    77.925772 
   98000     982.9907   -118.34784   0.88943064   -117.45841    3065.9855    4.2644691    4.2644691    4.2644691    3065.9855     4919.651    16572.459   -12294.153    4891.3891    11302.777   -17647.175     77.55234 
   98100    1856.7314    -119.1356    1.6800096   -117.45559   -20856.015    4.2715827    4.2715827    4.2715827   -20856.015   -26199.055   -38289.581    1920.5897   -1633.0456   -6299.3599    5116.1172    77.941084 
   98200    1272.6388   -118.61664    1.1515103   -117.46513    -2069.059    4.2691822    4.2691822    4.2691822    -2069.059   -36870.812     9016.166    21647.469    1477.0178   -7635.1931   -1402.3957    77.809759 
   98300    1135.1174   -118.49073     1.027078   -117.46365    21460.629    4.2661698    4.2661698    4.2661698    21460.629    7258.7554    37248.603    19874.529    120.21813    13812.781   -519.49093    77.645162 
   98400    1308.6034   -118.63612    1.1840518   -117.45207   -5490.9708    4.2788308    4.2788308    4.2788308   -5490.9708    21152.274   -40911.773    3286.5864    13839.613    5506.3144    340.80883    78.338516 
   98500    900.06605   -118.26334   0.81439867   -117.44894    21983.955     4.264943     4.264943     4.264943    21983.955    44136.585   -28716.139     50531.42    4273.2845   -20351.526   -1783.6955    77.578201 
   98600    1410.0737   -118.73019    1.2758643   -117.45433    6637.8452    4.2692259    4.2692259    4.2692259    6637.8452   -8631.3332     10567.53    17977.339   -11511.895   -6069.5536   -3301.6457    77.812146 
   98700    1786.1029   -119.05703    1.6161034   -117.44093   -975.68145    4.2824934    4.2824934    4.2824934   -975.68145   -27710.112    41287.461   -16504.393   -4939.6165    13196.752    1190.4534    78.539858 
   98800    763.66323   -118.13229   0.69097854   -117.44131    19425.148    4.2760132    4.2760132    4.2760132    19425.148   -10543.263    60606.187    8212.5221    19655.159   -13039.025    21403.054    78.183861 
   98900    888.84201   -118.25398   0.80424293   -117.44974    441.65912    4.2797654    4.2797654    4.2797654    441.65912   -16717.954    38440.015   -20397.084    553.38989   -3879.5269     4141.881    78.389863 
   99000    1944.8342     -119.187    1.7597268   -117.42727   -16112.961    4.2806006    4.2806006    4.2806006   -16112.961    -34948.44   -4628.5298   -8761.9143   -4779.7098    17497.263   -17959.262     78.43576 
   99100     1238.079   -118.55856    1.1202399   -117.43832   -1271.5838    4.2700795    4.2700795    4.2700795   -1271.5838   -42137.389    6591.8853    31730.752    33250.148   -17866.546      8098.83    77.858834 
   99200    902.29068   -118.26932   0.81641157   -117.45291   -4086.0918    4.2618245    4.2618245    4.2618245   -4086.0918    -23163.25    26478.794   -15573.819    2743.2258   -9348.7241   -7327.3826    77.408147 
   99300    1703.7651   -118.99497    1.5416024   -117.45336   -8714.2158    4.2532447    4.2532447    4.2532447   -8714.2158   -5119.0843   -3517.1605   -17506.403   -6211.6373    13341.052   -2144.8219    76.941582 
   99400    1580.9168   -118.91107    1.4304467   -117.48062   -16439.502     4.265616     4.265616     4.265616   -16439.502   -15880.467   -36860.543    3422.5059    26528.807    2602.1634   -3974.3542    77.614931 
   99500    979.52612   -118.36748   0.88629582   -117.48118    5164.5082    4.2673693    4.2673693    4.2673693    5164.5082   -6371.5677    21782.456    82.636112    17980.867   -27891.429    15789.829    77.710675 
   99600    1331.1237   -118.67201    1.2044287   -117.46758   -13895.101    4.2713497    4.2713497    4.2713497   -13895.101   -14579.806     11455.85   -38561.346   -11310.167   -11030.063    7904.1141    77.928332 
   99700    1493.5445    -118.8078    1.3513905   -117.45641    900.31383    4.2712031    4.2712031    4.2712031    900.31383   -2115.0668    37029.793   -32213.785   -8836.8049    9897.3347   -11461.601    77.920307 
   99800    1045.7831   -118.41489   0.94624655   -117.46864    10992.353    4.2717109    4.2717109    4.2717109    10992.353    3608.4402    34526.827   -5158.2074     22499.82   -24210.717    -7231.635    77.948103 
   99900    1251.1681   -118.59543    1.1320832   -117.46335   -11424.371    4.2748011    4.2748011    4.2748011   -11424.371    -33020.07    22284.021   -23537.065    13849.638   -15874.685   -10278.705    78.117393 
  100000    1523.7188   -118.82797    1.3786928   -117.44928   -1503.5181    4.2540197    4.2540197    4.2540197   -1503.5181    805.56816    5787.1851   -11103.308   -14565.106    16893.708   -4667.7507    76.983648 
Loop time of 222.09 on 1 procs for 100000 steps with 8 atoms

Pair  time (%) = 72.1362 (32.4807)
Kspce time (%) = 56.3665 (25.3801)
Neigh time (%) = 0.998761 (0.449711)
Comm  time (%) = 11.4777 (5.16806)
Outpt time (%) = 0.26034 (0.117223)
Other time (%) = 80.85 (36.4043)

Nlocal:    8 ave 8 max 8 min
Histogram: 1 0 0 0 0 0 0 0 0 0
Nghost:    2189 ave 2189 max 2189 min
Histogram: 1 0 0 0 0 0 0 0 0 0
Neighs:    2323 ave 2323 max 2323 min
Histogram: 1 0 0 0 0 0 0 0 0 0

Total # of neighbors = 2323
Ave neighs/atom = 290.375
Neighbor list builds = 1182
Dangerous builds = 0
unfix 20
unfix 21
print "seeds:9986335"
seeds:9986335
