LAMMPS (10 Feb 2015)
# ---- initialize simulations
clear
units metal
dimension 3
boundary p p p
atom_style charge
atom_modify map array
# ---- create atoms
read_data /Users/eugeneragasa/pyflamestk_git/pypospack/tests/tests_integration/workflow/WorkflowLammpsThermalExpansion/param_5091/MgO_NaCl_unit.npt.T1500/lammps.structure
  triclinic box = (0 0 0) to (4.2565 4.2565 4.2565) with tilt (0 0 0)
  1 by 1 by 1 MPI processor grid
  reading atoms ...
  8 atoms
# ---- define interatomic potential
include potential.mod
mass 1 24.305
mass 2 15.999

group Mg type 1
4 atoms in group Mg
group O type 2
4 atoms in group O

set group Mg charge 1.60395442224
  4 settings made for charge
set group O charge -1.60395442224
  4 settings made for charge

variable R_cut equal 10.0

pair_style buck/coul/long ${R_cut}
pair_style buck/coul/long 10
pair_coeff 1 1 0.0 0.5 0.0 ${R_cut}
pair_coeff 1 1 0.0 0.5 0.0 10
pair_coeff 1 2 1640.33364459 0.274285748818 0.0 ${R_cut}
pair_coeff 1 2 1640.33364459 0.274285748818 0.0 10
pair_coeff 2 2 138.503876614 0.167383398543 15.9463705464 ${R_cut}
pair_coeff 2 2 138.503876614 0.167383398543 15.9463705464 10

kspace_style pppm 1.0e-5

neighbor 1.0 bin
neigh_modify every 1 delay 0 check yes
# ---- define settings
compute eng all pe/atom
compute eatoms all reduce sum c_eng
# ---- run minimization
reset_timestep 0
fix 1 all box/relax iso 0.0 vmax 0.001
thermo 10
thermo_style custom step pe lx ly lz xy xz yz press pxx pyy pzz pxy pxz pyz c_eatoms
min_style cg
minimize 1e-25 1e-25 5000 10000
PPPM initialization ...
  G vector (1/distance) = 0.352384
  grid = 8 8 8
  stencil order = 5
  estimated absolute RMS force accuracy = 3.76636e-05
  estimated relative force accuracy = 2.6156e-06
  using double precision FFTs
  3d grid and FFT values/proc = 3375 512
Neighbor list info ...
  1 neighbor list requests
  update every 1 steps, delay 0 steps, check yes
  master list distance cutoff = 11
Memory usage per processor = 4.06549 Mbytes
Step PotEng Lx Ly Lz Xy Xz Yz Press Pxx Pyy Pzz Pxy Pxz Pyz eatoms 
       0   -105.40733       4.2565       4.2565       4.2565            0            0            0    42357.047    42357.047    42357.047    42357.047 -5.4591187e-11 1.2697943e-10 -3.1158894e-11   -105.40733 
      10   -105.43209    4.2922445    4.2922445    4.2922445            0            0            0   -4.9211524   -4.9211524   -4.9211524   -4.9211524 1.7090498e-11 -3.1779622e-11 -1.1443831e-10   -105.43209 
      12   -105.43209    4.2922402    4.2922402    4.2922402            0            0            0  -0.19512063  -0.19512063  -0.19512063  -0.19512063 3.2638439e-11 -8.1058727e-11 1.6032595e-10   -105.43209 
Loop time of 0.00865197 on 1 procs for 12 steps with 8 atoms

Minimization stats:
  Stopping criterion = linesearch alpha is zero
  Energy initial, next-to-last, final = 
        -105.407331285      -105.43208818      -105.43208818
  Force two-norm initial, final = 6.11638 6.94804e-05
  Force max component initial, final = 6.11638 2.86507e-05
  Final line search alpha, max atom move = 0.5 1.43253e-05
  Iterations, force evaluations = 12 25

Pair  time (%) = 0.00236392 (27.3223)
Kspce time (%) = 0.00137329 (15.8726)
Neigh time (%) = 0 (0)
Comm  time (%) = 0.000265121 (3.06429)
Outpt time (%) = 1.21593e-05 (0.140538)
Other time (%) = 0.00463748 (53.6003)

Nlocal:    8 ave 8 max 8 min
Histogram: 1 0 0 0 0 0 0 0 0 0
Nghost:    2189 ave 2189 max 2189 min
Histogram: 1 0 0 0 0 0 0 0 0 0
Neighs:    2344 ave 2344 max 2344 min
Histogram: 1 0 0 0 0 0 0 0 0 0

Total # of neighbors = 2344
Ave neighs/atom = 293
Neighbor list builds = 0
Dangerous builds = 0
unfix 1
# ---- define output variables ----
variable natoms equal "count(all)"
variable tot_energy equal "c_eatoms"
variable length_x equal "lx"
variable length_y equal "ly"
variable length_z equal "lz"
variable tilt_xy equal "xy"
variable tilt_xz equal "xz"
variable tilt_yz equal "yz"
variable tot_press equal "press"
variable press_xx equal "pxx"
variable press_yy equal "pyy"
variable press_zz equal "pzz"
variable press_xy equal "pxy"
variable press_xz equal "pxz"
variable press_yz equal "pyz"

# ---- output ----
print "pypospack:output_section:begin"
pypospack:output_section:begin
print "tot_energy = ${tot_energy}"
tot_energy = -105.432088180201
print "num_atoms = ${natoms}"
num_atoms = 8
print "xx = ${length_x}"
xx = 4.29224022422512
print "yy = ${length_y}"
yy = 4.29224022422512
print "zz = ${length_z}"
zz = 4.29224022422512
print "xy = ${tilt_xy}"
xy = 0
print "xz = ${tilt_xz}"
xz = 0
print "yz = ${tilt_yz}"
yz = 0
print "tot_press = ${tot_press}"
tot_press = -0.195120630166908
print "pxx = ${press_xx}"
pxx = -0.195120630011552
print "pyy = ${press_yy}"
pyy = -0.195120630547228
print "pzz = ${press_zz}"
pzz = -0.195120629941943
print "pxy = ${press_xy}"
pxy = 3.26384388476247e-11
print "pxz = ${press_xz}"
pxz = -8.10587270505021e-11
print "pyz = ${press_yz}"
pyz = 1.60325951029016e-10
print "pypospack:output_section:done"
pypospack:output_section:done
print "pypospack:lammps_sim:done"
pypospack:lammps_sim:done
#------------------------------------------------------------------------------
# RUN THERMOSTAT
# running using an NPT Nose-Hoover style thermostat
#------------------------------------------------------------------------------
variable tempdamp equal 0.1
variable pressdamp equal 1.0
# set initial velocities
velocity all create 1500 6246940 mom yes dist gaussian loop all
# fix for Nose-Hoover style thermostat
fix 20 all npt temp 1500 1500 0.1 aniso 0.0 0.0 1.0 drag 1.0 couple xyz
variable boxx equal lx
variable boxy equal ly
variable boxz equal lz
variable boxp equal press
variable boxt equal temp
# calculate averages every 10000 steps
reset_timestep 0
fix 21 all ave/time 10 10 100 v_boxx v_boxy v_boxz v_boxp v_boxt file lattice.out
thermo_style custom step temp pe ke etotal press lx ly lz press pxx pyy pzz pxy pxz pyz vol
thermo_modify flush yes
thermo 100
run 100000
PPPM initialization ...
  G vector (1/distance) = 0.352034
  grid = 8 8 8
  stencil order = 5
  estimated absolute RMS force accuracy = 3.82705e-05
  estimated relative force accuracy = 2.65774e-06
  using double precision FFTs
  3d grid and FFT values/proc = 3375 512
Memory usage per processor = 3.06549 Mbytes
Step Temp PotEng KinEng TotEng Press Lx Ly Lz Press Pxx Pyy Pzz Pxy Pxz Pyz Volume 
       0         1500   -105.43209    1.3572315   -104.07486    18331.185    4.2922402    4.2922402    4.2922402    18331.185    23193.178    17447.791    14352.586   -6916.9421    3670.3145   -7484.6025    79.077342 
     100     346.4267    -104.2203   0.31345416   -103.90685    18976.586     4.325572     4.325572     4.325572    18976.586    78215.388   -7212.0657   -14073.565    8320.7081   -9101.0434    6717.8381     80.93393 
     200    1057.8487   -104.48791   0.95716375   -103.53075   -28255.815    4.3688836    4.3688836    4.3688836   -28255.815    13525.495   -38001.561   -60291.378     4381.482   -2660.7684   -6039.9655    83.389508 
     300    1442.1569   -104.50836    1.3048938   -103.20347   -30343.459    4.3719703    4.3719703    4.3719703   -30343.459   -46445.792    11351.682   -55936.267     8971.181   -5696.4973   -1635.1254    83.566383 
     400    1172.1282   -103.99533    1.0605662   -102.93477    19701.647    4.3504123    4.3504123    4.3504123    19701.647    61465.932    26067.793   -28428.784   -21036.808   -15168.532   -370.02217    82.336284 
     500     1168.901   -103.83399    1.0576462   -102.77635    17915.313    4.3537612    4.3537612    4.3537612    17915.313    121482.56   -15376.732    -52359.89   -13252.381   -3728.8852   -1386.3515    82.526573 
     600    1704.6546   -104.24333    1.5424073   -102.70093   -35572.721    4.3794281    4.3794281    4.3794281   -35572.721   -37152.639   -11771.339   -57794.186    4602.5579   -9899.3123    2422.1958    83.994762 
     700    1481.9148   -103.98976    1.3408676   -102.64889   -10225.364    4.3760246    4.3760246    4.3760246   -10225.364    31851.333   -36230.898   -26296.528    11066.589     7060.934    756.44452    83.799084 
     800     1180.306   -103.70267    1.0679657   -102.63471    16148.825    4.3479288    4.3479288    4.3479288    16148.825    87059.863   -3370.9701   -35242.419    2797.9964   -9276.9459   -674.18281    82.195354 
     900     1945.511   -104.39862    1.7603392   -102.63828    35613.922    4.3417606    4.3417606    4.3417606    35613.922    77943.859     27634.35     1263.557   -26918.454    5135.1102     -289.425     81.84603 
    1000    1321.2614   -103.87772    1.1955051   -102.68221   -34314.522    4.3728824    4.3728824    4.3728824   -34314.522    2460.0782    -46850.34   -58553.304   -14735.101   -4680.4623   -1611.2078    83.618696 
    1100    1920.0398   -104.39431    1.7372923   -102.65702       -25481    4.3884439    4.3884439    4.3884439       -25481    46509.979   -68212.738    -54740.24    4111.0272    864.50341    4060.2809    84.514581 
    1200    1359.6699   -103.87024    1.2302579   -102.63999    4867.0479    4.3841596    4.3841596    4.3841596    4867.0479    67236.236   -13138.096   -39496.997    11816.393   -14625.871    3409.8341    84.267299 
    1300    1587.5881   -104.06491    1.4364831   -102.62843   -21402.021     4.374101     4.374101     4.374101   -21402.021   -6893.9572   -11009.265   -46302.842     9671.239   -22338.942   -3608.3629     83.68862 
    1400     1505.636   -104.00687    1.3623311   -102.64454    707.64186    4.3601431    4.3601431    4.3601431    707.64186    72076.711   -50540.472   -19413.314    6762.5431    9607.8031    -1741.845    82.890016 
    1500    1733.5905   -104.23779    1.5685891    -102.6692    13758.067    4.3661716    4.3661716    4.3661716    13758.067    33063.931    37861.648   -29651.377   -10383.132   -97.789074    1932.9808    83.234311 
    1600     1671.664   -104.18757    1.5125567   -102.67501    -40819.96    4.3734032    4.3734032    4.3734032    -40819.96    23093.297   -70709.978     -74843.2   -4680.5905    8406.8196    13211.196    83.648579 
    1700    1651.3635   -104.17078    1.4941884   -102.67659    2419.1991    4.3735957    4.3735957    4.3735957    2419.1991     690.1118    30195.644   -23628.158   -12484.967   -4389.5514   -4823.1129    83.659622 
    1800    1292.4762    -103.8418    1.1694596   -102.67234   -17026.317    4.3783078    4.3783078    4.3783078   -17026.317    52843.929    -19252.32   -84670.559    6815.8398    1497.9537      1303.32    83.930317 
    1900    2029.4574   -104.49054    1.8362957   -102.65424   -17616.386    4.3561299    4.3561299    4.3561299   -17616.386   -981.31467   -20193.848   -31673.996   -20116.624   -9236.0962   -510.43992    82.661344 
    2000    1401.2395   -103.94367     1.267871    -102.6758    32870.135    4.3528384    4.3528384    4.3528384    32870.135      84155.2    49183.675    -34728.47   -6785.3104    272.25667    7239.0689    82.474108 
    2100    1131.4435   -103.71861    1.0237539   -102.69486   -32651.557    4.3766292    4.3766292    4.3766292   -32651.557    34648.227   -45869.601   -86733.298    2509.7997   -4659.9256    1574.1328    83.833818 
    2200    1904.0447   -104.39296    1.7228196   -102.67014   -24773.251    4.3768218    4.3768218    4.3768218   -24773.251    4152.0552   -18395.507   -60076.302    17273.925   -7368.7435    -1100.075    83.844886 
    2300    1184.7925    -103.7478    1.0720252   -102.67577    -947.0491    4.3680349    4.3680349    4.3680349    -947.0491    89555.693   -14717.018   -77679.822   -2689.9941    12176.511   -7853.5303    83.340921 
    2400    1930.8668   -104.41511    1.7470888   -102.66803    1255.3726    4.3524415    4.3524415    4.3524415    1255.3726    23622.429    29283.017   -49139.328    4461.1648   -13156.465    2474.5328    82.451552 
    2500    892.71898   -103.50491    0.8077509   -102.69716    2112.7916    4.3600071    4.3600071    4.3600071    2112.7916    82571.485   -18409.387   -57823.723   -6160.5913    4622.8706   -3692.1368    82.882262 
    2600    1702.7303   -104.22032    1.5406662   -102.67966   -10793.822    4.3615554    4.3615554    4.3615554   -10793.822    42269.389   -31421.978   -43228.877    16954.599   -12205.884    427.94072    82.970591 
    2700    1385.1785    -103.9356    1.2533386   -102.68226     1994.576    4.3520878    4.3520878    4.3520878     1994.576    53350.769    33907.619   -81274.661   -16651.897    109.06013   -12211.465    82.431449 
    2800    1674.2527   -104.21829     1.514899   -102.70339   -6917.6588    4.3576125    4.3576125    4.3576125   -6917.6588   -21781.366    39310.788   -38282.398    2294.4872    2125.9764   -7990.9716    82.745775 
    2900    1416.1275   -103.98268    1.2813419   -102.70134   -7584.7295    4.3741188    4.3741188    4.3741188   -7584.7295    24243.758    16520.828   -63518.775   -6282.1789   -2182.8401    22119.598    83.689642 
    3000    1318.9064   -103.87353    1.1933742   -102.68015   -26660.412     4.360856     4.360856     4.360856   -26660.412    -7247.593    7946.1748   -80679.816     -18100.3    12247.899    2581.7568     82.93068 
    3100      1709.78   -104.20005    1.5470449     -102.653     30086.78     4.343039     4.343039     4.343039     30086.78    60075.152    58826.322   -28641.134    12553.384   -7528.0218   -4846.0883     81.91835 
    3200    1115.2183   -103.70707    1.0090729   -102.69799   -6733.4418     4.358454     4.358454     4.358454   -6733.4418    19617.082    42774.295   -82591.703   -4673.2853    14078.698    513.20461    82.793721 
    3300    2044.1876   -104.54897    1.8496239   -102.69935   -31503.499    4.3704618    4.3704618    4.3704618   -31503.499   -40648.671   -2054.8076   -51807.019    15369.327   -3240.7892   -1376.7175    83.479911 
    3400    1405.3412   -103.95531    1.2715823   -102.68373    33178.525    4.3419975    4.3419975    4.3419975    33178.525    26897.652     91148.27   -18510.348    13785.663   -1104.1619    1985.6584    81.859429 
    3500    1390.3353   -103.94535    1.2580046   -102.68734   -11877.599    4.3443235    4.3443235    4.3443235   -11877.599     16737.96   -7485.2457   -44885.511   -7702.8433    5622.9876   -8778.9216    81.991052 
    3600    1823.5185   -104.32983    1.6499579   -102.67987    2598.1987    4.3576457    4.3576457    4.3576457    2598.1987   -6544.1687    60578.364   -46239.599   -157.37451   -6006.8435    1875.1017    82.747665 
    3700    1174.0803   -103.76583    1.0623325    -102.7035    21248.309     4.370488     4.370488     4.370488    21248.309   -3939.2607    98934.857    -31250.67   -4090.0271   -3503.5005   -1608.3259    83.481412 
    3800    1665.8528   -104.19389    1.5072986   -102.68659   -27899.985    4.3724219    4.3724219    4.3724219   -27899.985   -29561.172   -5993.1319   -48145.651     9747.779   -2385.0197    4166.9607    83.592284 
    3900    1517.0469   -104.04399    1.3726559   -102.67133    1426.9772    4.3524043    4.3524043    4.3524043    1426.9772    11447.797    26238.658   -33405.523    1510.6578     2421.012   -3861.0463    82.449436 
    4000    1544.1351   -104.06933    1.3971659   -102.67216    7916.8402    4.3581463    4.3581463    4.3581463    7916.8402   -9282.4837    74023.214   -40990.209     -3079.95   -6735.6191    4489.6422    82.776185 
    4100    1521.1519   -104.05373    1.3763702   -102.67736   -1765.8141    4.3629221    4.3629221    4.3629221   -1765.8141   -8904.9465    77245.106   -73637.602   -7161.4657    18238.298    -180.7678    83.048612 
    4200    1021.7451   -103.61648    0.9244964   -102.69198    16315.965     4.361053     4.361053     4.361053    16315.965    7534.3676     76669.62   -35256.094   -7538.6078   -5339.0843     3371.699    82.941924 
    4300    2173.6226   -104.64716    1.9667394   -102.68042   -17692.622    4.3636848    4.3636848    4.3636848   -17692.622   -50731.571    47650.931   -49997.226   -2790.1313    6756.2115    14810.369    83.092172 
    4400    1252.9731   -103.81108    1.1337164   -102.67737    3957.7086    4.3593926    4.3593926    4.3593926    3957.7086    5582.9579    64859.291   -58569.123   -12782.963   -166.17723   -240.12426    82.847224 
    4500    1147.4358   -103.72216    1.0382241   -102.68393   -21870.819    4.3619867    4.3619867    4.3619867   -21870.819    30825.554   -31118.218   -65319.792    9694.1121   -7316.0949    3554.4949    82.995206 
    4600    1936.0745   -104.42498    1.7518009   -102.67318    12673.616    4.3607308    4.3607308    4.3607308    12673.616      24535.5    55256.305   -41770.957   -11892.117    10112.653    8311.0041    82.923542 
    4700    1267.6011   -103.84355    1.1469522    -102.6966   -29534.542    4.3706281    4.3706281    4.3706281   -29534.542   -6250.6104   -8881.5046    -73471.51    10847.705   -8511.1514   -8780.3072    83.489441 
    4800    1416.6572   -103.96139    1.2818212   -102.67957    9020.8816     4.365727     4.365727     4.365727    9020.8816    78101.329   -7244.8505   -43793.834    7971.2952    4131.5952    2289.3407     83.20889 
    4900    1776.8674   -104.29423     1.607747   -102.68649    -14180.81    4.3643878    4.3643878    4.3643878    -14180.81    -10698.99    1183.9162   -33027.356   -3682.7826   -3067.3459    703.42542    83.132337 
    5000    1067.9546   -103.66261    0.9663078    -102.6963    38713.754    4.3676822    4.3676822    4.3676822    38713.754    71871.116    72996.942   -28726.797    17617.293    -15493.17     4159.595    83.320734 
    5100    2091.9308   -104.58559    1.8928229   -102.69277   -33373.396    4.3766477    4.3766477    4.3766477   -33373.396    -46926.31    8681.0328    -61874.91   -7552.2374    1401.1523   -624.55987    83.834882 
    5200    1581.6281     -104.122    1.4310904   -102.69091    369.44523     4.362106     4.362106     4.362106    369.44523    83618.869   -12912.908   -69597.626    5369.6796    442.23489    12758.954    83.002018 
    5300    2203.9995   -104.69573     1.994225   -102.70151   -16861.635    4.3533454    4.3533454    4.3533454   -16861.635   -39691.359    27033.938   -37927.484    22752.489   -3022.5734   -14272.327    82.502929 
    5400    1284.2623   -103.90683    1.1620275    -102.7448   -5082.0365     4.374182     4.374182     4.374182   -5082.0365    48888.765    5722.9181   -69857.792   -17894.856    -1429.603    15157.757    83.693274 
    5500    1448.2237   -104.02361    1.3103833   -102.71322    11355.742    4.3762866    4.3762866    4.3762866    11355.742   -2870.8477    86193.395   -49255.323    7861.5774    2377.0391    10549.292    83.814132 
    5600    1035.4604   -103.64081   0.93690637    -102.7039    12879.538    4.3578743    4.3578743    4.3578743    12879.538   -9739.6009    65710.485   -17332.271    25700.385   -7219.9579    3763.5237    82.760689 
    5700    1593.4486   -104.15212    1.4417858   -102.71034    3697.3599    4.3606328    4.3606328    4.3606328    3697.3599    4291.3605    64065.687   -57264.968   -12311.369   -314.72526    4941.5744    82.917947 
    5800    1943.1864    -104.4676    1.7582359   -102.70937    -8440.278    4.3747697    4.3747697    4.3747697    -8440.278    1058.8414    17444.907   -43824.582    2435.4075   -4037.3333    6505.3781    83.727008 
    5900    1405.1667   -103.99349    1.2714243   -102.72206   -23322.125    4.3819751    4.3819751    4.3819751   -23322.125   -20679.778    2386.5017     -51673.1   -5534.5928   -1500.0811    3505.6376    84.141395 
    6000    2192.8936    -104.6892    1.9841762   -102.70502   -15326.534    4.3699047    4.3699047    4.3699047   -15326.534    580.81454    16541.284   -63101.702    3748.4303     12258.09    8144.2893    83.447995 
    6100    685.49048   -103.33685   0.62024619    -102.7166     38134.59    4.3492953    4.3492953    4.3492953     38134.59    38474.715    114083.65   -38154.598   -5121.9751   -9541.3119    8109.3744    82.272876 
    6200    1411.4279   -104.00447    1.2770896   -102.72738    2524.8461    4.3599385    4.3599385    4.3599385    2524.8461   -5995.4964     75649.54   -62079.505   -9020.2877    5694.1177    2912.2054     82.87835 
    6300    2306.3732   -104.78676    2.0868549    -102.6999   -42676.761     4.385885     4.385885     4.385885   -42676.761   -53837.796    6130.9167   -80323.404    6581.1837    572.19621    7578.6441    84.366827 
    6400     1247.062    -103.8117    1.1283679   -102.68333   -17270.192      4.38075      4.38075      4.38075   -17270.192    10236.423   -416.38945    -61630.61   -810.98832   -6096.9094   -4527.9933    84.070842 
    6500    1659.1585   -104.18498    1.5012415   -102.68374    4798.9802    4.3606096    4.3606096    4.3606096    4798.9802   -22706.635    89145.282   -52041.707   -9905.8173   -4986.5452   -10587.558    82.916625 
    6600    1358.2918     -103.946    1.2290109   -102.71699    42203.247    4.3547199    4.3547199    4.3547199    42203.247    26292.814    147776.54   -47459.617    5729.1953    2205.2584    18095.489      82.5811 
    6700    750.34451   -103.42571   0.67892748   -102.74678    5257.5495    4.3655235    4.3655235    4.3655235    5257.5495    -15451.78    101181.52   -69957.092   -14506.756    -5973.349   -10272.936    83.197255 
    6800    1114.4137   -103.75038     1.008345   -102.74203    8391.4439    4.3730238    4.3730238    4.3730238    8391.4439   -48501.154    138033.61   -64358.127    25029.339    -5880.462    3816.6696    83.626809 
    6900    1198.4425   -103.81974    1.0843759   -102.73536    37467.019    4.3518788    4.3518788    4.3518788    37467.019    14598.686    126461.85   -28659.479   -25151.453   -45.450315   -11505.386    82.419574 
    7000     488.0419   -103.18684   0.44159057   -102.74525    42149.746    4.3474348    4.3474348    4.3474348    42149.746   -1676.0918    159987.36   -31862.028    30400.435   -6876.0966    4299.3657    82.167339 
    7100    1381.2621   -103.99561     1.249795   -102.74582    13559.477    4.3656136    4.3656136    4.3656136    13559.477   -31835.871    113667.96   -41153.656   -8509.4091   -1552.2183    89.136826    83.202405 
    7200    769.09978    -103.4465   0.69589764   -102.75061    25874.444     4.362178     4.362178     4.362178    25874.444   -11517.257    123789.83   -34649.238    1666.5225   -8867.6402    -9072.453    83.006127 
    7300    760.82433   -103.44417   0.68840984   -102.75576    5412.3788    4.3489103    4.3489103    4.3489103    5412.3788   -30225.687     99469.03   -53006.207    2813.6384    3158.5758    7572.8877     82.25103 
    7400      1185.55   -103.83089    1.0727105   -102.75818    55849.491    4.3360717    4.3360717    4.3360717    55849.491    17641.286    183635.34   -33728.155    28078.565   -8348.3006   -931.52594    81.524727 
    7500    854.44825   -103.55711   0.77312273   -102.78399     2914.381    4.3652977    4.3652977    4.3652977     2914.381   -38762.968    91131.791   -43625.681   -15231.243     3745.581    13577.313    83.184344 
    7600    722.69463   -103.40586   0.65390929   -102.75195   -220.06725     4.376099     4.376099     4.376099   -220.06725   -35605.596    104432.83   -69487.436    902.38488   -10013.882    4691.1218    83.803357 
    7700     1430.778   -104.02467     1.294598   -102.73007    26127.858    4.3507559    4.3507559    4.3507559    26127.858   -14149.607     138050.7   -45517.515   -9182.1132    6872.4412    -9601.574    82.355795 
    7800    528.86364   -103.23365   0.47852694   -102.75512    39268.429    4.3400515    4.3400515    4.3400515    39268.429   -25485.172    160032.12    -16741.66    6464.3991   -10187.858    20889.685    81.749414 
    7900    1349.5943   -103.99497    1.2211413   -102.77383    12684.664    4.3592665    4.3592665    4.3592665    12684.664   -31269.674    128236.26   -58912.592   -21240.072    6852.2421   -12780.434    82.840032 
    8000    1098.7983   -103.74979   0.99421579   -102.75558   -6111.6965      4.38001      4.38001      4.38001   -6111.6965   -44431.942     78347.91   -52251.057     61.55708   -11551.096    -4617.158    84.028246 
    8100    821.42729   -103.47517   0.74324467   -102.73193    8342.5418    4.3664885    4.3664885    4.3664885    8342.5418    -43306.72    85721.847   -17387.501   -18834.611    5145.3495   -5131.7237    83.252439 
    8200    1247.7625   -103.84484    1.1290017   -102.71584    32574.073    4.3439469    4.3439469    4.3439469    32574.073    -28810.03    162678.06   -36145.813    1918.7604   -12081.125   -21878.469    81.969733 
    8300    1437.1806   -104.03814    1.3003912   -102.73775    13505.676    4.3467214    4.3467214    4.3467214    13505.676   -5781.2363     61129.03   -14830.766    12572.652    4346.0355    27606.898      82.1269 
    8400    1499.2291   -104.09458     1.356534   -102.73804   -24618.425    4.3677317    4.3677317    4.3677317   -24618.425   -63416.821   -7851.2831   -2587.1698   -4461.9204   -6165.2238    -31013.72     83.32357 
    8500    1801.8722   -104.32403    1.6303719   -102.69366   -2921.9553    4.3760245    4.3760245    4.3760245   -2921.9553    -29772.46    59127.929   -38121.335   -15530.358   -6943.7938    13796.253    83.799079 
    8600    911.13541   -103.50244   0.82441447   -102.67803    38071.696    4.3576012    4.3576012    4.3576012    38071.696   -18991.755    110561.68    22645.168    2350.7727    531.00545   -5260.1953     82.74513 
    8700    1628.7805      -104.16    1.4737548   -102.68625   -6684.6892    4.3521284    4.3521284    4.3521284   -6684.6892   -19973.799     17850.31   -17930.578   -6334.8125   -15239.293   -16714.972    82.433759 
    8800    2313.2447   -104.77629    2.0930724   -102.68322   -30818.434    4.3710806    4.3710806    4.3710806   -30818.434   -37458.041   -15899.484   -39097.778    18697.566    3462.5402   -53.406187    83.515374 
    8900    648.93126   -103.26422   0.58716664   -102.67705   -2030.4281    4.3878455    4.3878455    4.3878455   -2030.4281   -61141.163    60100.745   -5050.8656   -7436.0208   -13810.934   -1464.7785    84.480015 
    9000    1626.2842   -104.12705    1.4714962   -102.65555    9044.8014     4.372522     4.372522     4.372522    9044.8014   -50774.852    105847.41   -27938.153    8249.1437   -1312.9834    4228.2148    83.598024 
    9100    1410.6432   -103.95007    1.2763796   -102.67369    25369.811    4.3343957    4.3343957    4.3343957    25369.811   -10634.378    72058.349    14685.462   -4632.7579   -18779.588    7347.1312    81.430231 
    9200    1479.8137   -104.05513    1.3389665   -102.71616    8595.3101    4.3403957    4.3403957    4.3403957    8595.3101    -18439.53    28981.149    15244.311    -9733.594   -3930.3874   -13990.026    81.768868 
    9300    1433.8103   -104.00267    1.2973417   -102.70533   -4895.9736    4.3809994    4.3809994    4.3809994   -4895.9736   -53085.742    63583.581    -25185.76   -6926.9498   -957.93775   -391.29299    84.085206 
    9400    1290.9839   -103.83625    1.1681093   -102.66814   -34670.685    4.3812154    4.3812154    4.3812154   -34670.685   -35874.029   -26449.878   -41688.148   -32018.649   -13093.402    -17029.48    84.097642 
    9500    1086.9654   -103.63596   0.98350914   -102.65246    21867.724    4.3594965    4.3594965    4.3594965    21867.724   -13103.654    126628.63   -47921.807    10246.823   -3786.8214    31041.137    82.853143 
    9600    1905.1593    -104.3932    1.7238282   -102.66938    1229.4416     4.358946     4.358946     4.358946    1229.4416   -43899.723    13472.509    34115.539   -1689.7634   -11279.518   -8037.2199     82.82176 
    9700     1571.025   -104.12347    1.4214965   -102.70198   -18563.043    4.3811677    4.3811677    4.3811677   -18563.043   -28051.281    13969.038   -41606.887    19149.469   -8486.9618   -1588.1264    84.094893 
    9800    1318.7011   -103.87149    1.1931885    -102.6783   -36121.137    4.3915369    4.3915369    4.3915369   -36121.137   -58957.073   -36349.963   -13056.374   -3367.8369   -13644.184     32167.73     84.69341 
    9900    1886.0074   -104.33151    1.7064992   -102.62501    28447.849    4.3612091    4.3612091    4.3612091    28447.849   -14131.375    70265.708    29209.213    12931.903     879.6218    13847.601     82.95083 
   10000    1534.6453   -104.02979    1.3885793   -102.64121   -48417.439    4.3704635    4.3704635    4.3704635   -48417.439   -45683.582    -18642.59   -80926.145    297.48831   -17159.901    -2471.727    83.480012 
   10100    1529.1775   -104.01648    1.3836319   -102.63285   -5396.4906    4.3782523    4.3782523    4.3782523   -5396.4906   -49646.029   -1005.8108    34462.368    6132.5935   -11867.601    21684.351    83.927126 
   10200    1455.7919   -103.94809    1.3172311   -102.63086    30637.267    4.3693804    4.3693804    4.3693804    30637.267    -31623.01    129344.24   -5809.4294   -1111.4967    7115.6577    27089.291    83.417963 
   10300    1302.4688   -103.83375    1.1785011   -102.65525   -17066.647    4.3770012    4.3770012    4.3770012   -17066.647    -61191.31     77768.36    -67776.99   -15382.421   -4494.1226   -14866.869    83.855202 
   10400    1947.9129   -104.42355    1.7625126   -102.66104   -806.46512    4.3635516    4.3635516    4.3635516   -806.46512   -14067.288    12076.866    -428.9739   -11396.737    4748.7657    -3409.071    83.084565 
   10500    1763.1553   -104.28691      1.59534   -102.69157   -4854.1088    4.3589912    4.3589912    4.3589912   -4854.1088   -42899.218     48626.51   -20289.618    4923.6073   -10784.431    2897.1612    82.824337 
   10600    1540.9128   -104.10344    1.3942503   -102.70919    -4755.309    4.3798632    4.3798632    4.3798632    -4755.309   -38202.744   -2852.2642    26789.081    2460.7141    13503.903   -10066.001      84.0198 
   10700    1206.7746   -103.78103     1.091915   -102.68911    32441.107    4.3704701    4.3704701    4.3704701    32441.107    20132.521    55291.857    21898.944    12004.427   -5069.9352    246.15594    83.480386 
   10800    1486.2704   -104.01768    1.3448087   -102.67287    14269.828    4.3535727    4.3535727    4.3535727    14269.828    483.92121   -18455.432    60780.994   -6496.4231    21478.057   -4392.2761    82.515852 
   10900    2272.7138   -104.73518    2.0563992   -102.67878    -20241.54    4.3630032    4.3630032    4.3630032    -20241.54   -17593.622   -8394.2061   -34736.794   -10685.224     -11759.5   -6056.0551    83.053246 
   11000    900.91848   -103.51417   0.81516997     -102.699   -1071.7923    4.3771156    4.3771156    4.3771156   -1071.7923    -23757.04   -8403.3945    28945.058    3043.1092   -14701.798    29620.944    83.861775 
   11100    1604.5776   -104.13552    1.4518555   -102.68367    -5361.541    4.3653047    4.3653047    4.3653047    -5361.541    -8096.287    -9711.761    1723.4249    -16013.02     12702.84   -11155.604    83.184744 
   11200     1855.771   -104.36202    1.6791406   -102.68288    294.07035    4.3688089    4.3688089    4.3688089    294.07035   -40074.449   -11566.146    52522.806    12364.401   -4246.2632   -7342.9783    83.385235 
   11300    1571.2138   -104.09687    1.4216673    -102.6752   -33690.406    4.3724317    4.3724317    4.3724317   -33690.406   -42324.502   -16109.188   -42637.529   -12848.289    28176.892   -6669.7284    83.592843 
   11400    1372.1818    -103.9036    1.2415789   -102.66202    17258.145    4.3729902    4.3729902    4.3729902    17258.145    -25531.23    30847.673    46457.993    3963.9502      776.107   -7152.5347    83.624883 
   11500    1653.7953    -104.1531    1.4963888   -102.65671   -8454.0042    4.3761644    4.3761644    4.3761644   -8454.0042    20219.302   -41614.101   -3967.2133      4191.71   -6883.2479    -1614.335    83.807113 
   11600     1007.779   -103.57038   0.91185964   -102.65852    16811.233    4.3655525    4.3655525    4.3655525    16811.233   -335.43401    10690.947    40078.185    4644.6691    -936.8486    4131.7159    83.198913 
   11700    1559.4108   -104.06977    1.4109877   -102.65878    20119.913     4.366012     4.366012     4.366012    20119.913    95730.409   -16816.649   -18554.022    19417.755   -14354.345    6005.7293    83.225185 
   11800     1015.282   -103.59805   0.91864852   -102.67941    4247.2978    4.3735858    4.3735858    4.3735858    4247.2978   -3238.6116    45066.763   -29086.258   -7513.5264     22873.05    -1212.747    83.659053 
   11900    2175.6266   -104.62337    1.9685527   -102.65482   -27703.053    4.3762343    4.3762343    4.3762343   -27703.053    5442.6365   -36185.518   -52366.278    9231.0297   -667.72921   -1809.8754    83.811132 
   12000    917.19674   -103.48326   0.82989888   -102.65337    19712.163    4.3664897    4.3664897    4.3664897    19712.163    38866.509    49625.851    -29355.87   -11392.235    21115.697    9063.3889    83.252508 
   12100       1328.7   -103.85554    1.2022357    -102.6533    6401.9156    4.3651598    4.3651598    4.3651598    6401.9156    28357.104    19620.476   -28771.833   -19099.336    18805.568    7375.7969    83.176461 
   12200    1645.9222   -104.13324     1.489265   -102.64398    11771.824    4.3722865    4.3722865    4.3722865    11771.824    24144.457    42222.834   -31051.819    7369.8987    8602.7957   -10924.987    83.584517 
   12300    1184.6014   -103.73322    1.0718522   -102.66137    -26881.97    4.3769221    4.3769221    4.3769221    -26881.97   -46131.758    18193.584   -52707.735   -22066.686     26895.23   -8509.4559    83.850655 
   12400    1356.8626   -103.88175    1.2277178   -102.65403    34182.233    4.3658203    4.3658203    4.3658203    34182.233    26815.638    48863.313    26867.748    -6873.473    11327.123    9984.7394    83.214223 
   12500    1469.3528    -104.0039    1.3295013    -102.6744   -14653.292    4.3628817    4.3628817    4.3628817   -14653.292   -29779.171    11026.149   -25206.854   -17490.797     10176.24   -35.362398    83.046305 
   12600    1253.1623   -103.81092    1.1338875   -102.67704    7306.0834    4.3740177    4.3740177    4.3740177    7306.0834   -10799.017    50592.432   -17875.165   -6748.9669    2300.8658   -16018.263    83.683842 
   12700    1511.5228   -104.01859    1.3676576   -102.65093    31253.184    4.3673587    4.3673587    4.3673587    31253.184    5046.7621    20541.842    68170.947    6844.2184    24387.686   -18648.996    83.302221 
   12800    1573.6486   -104.08146    1.4238704   -102.65759   -31659.487    4.3811937    4.3811937    4.3811937   -31659.487   -29510.828   -28888.633   -36578.999   -23806.759    -18323.38   -6811.0039    84.096391 
   12900    1772.4864   -104.23654    1.6037829   -102.63276    11413.579     4.377787     4.377787     4.377787    11413.579    -25134.18    4395.1337    54979.785    5539.1517   -4604.9052   -278.35153    83.900372 
   13000    1544.9748   -104.03288    1.3979257   -102.63496    1851.7876    4.3656667    4.3656667    4.3656667    1851.7876   -13190.642    -28128.15    46874.155   -10635.481    5808.0767     -11091.8    83.205442 
   13100    1777.7495   -104.24707    1.6085451   -102.63853    3456.6466    4.3740294    4.3740294    4.3740294    3456.6466    16276.466   -43785.078    37878.552   -6538.8391   -1289.4315    4563.5357    83.684512 
   13200    1592.9099   -104.07792    1.4412983   -102.63662    2684.0432    4.3739573    4.3739573    4.3739573    2684.0432   -4869.4789   -22359.757    35281.366   -9397.8459   -9404.0034   -15970.199    83.680374 
   13300     1674.242   -104.14596    1.5148893   -102.63108   -7887.1734      4.38355      4.38355      4.38355   -7887.1734   -7902.1943    22894.851   -38654.177   -11276.234   -10369.105    9736.9904    84.232151 
   13400    1959.5461   -104.39527    1.7730385   -102.62224   -40936.856    4.3910537    4.3910537    4.3910537   -40936.856   -17274.572   -36907.714   -68628.283   -15456.588   -13956.648    5977.5665    84.665454 
   13500    1886.3177   -104.32157    1.7067799   -102.61479   -25170.356    4.3822219    4.3822219    4.3822219   -25170.356   -31950.544   -2338.8047    -41221.72    -9948.929   -9459.5815   -3656.5655    84.155614 
   13600    1528.7998   -104.01636    1.3832902   -102.63307   -4440.1641    4.3724394    4.3724394    4.3724394   -4440.1641    5427.0762   -29038.051    10290.483    8723.8833   -2131.7309   -8123.7955    83.593286 
   13700     997.3196   -103.55226   0.90239573   -102.64986    34032.965    4.3576856    4.3576856    4.3576856    34032.965    24147.489   -20456.182    98407.589   -13007.351    20075.969    -26456.57    82.749938 
   13800    1386.3826   -103.92338    1.2544281   -102.66895    30319.388    4.3733722    4.3733722    4.3733722    30319.388    23774.634    21883.361    45300.169     19422.34    23606.706   -24828.935    83.646797 
   13900    1012.2702   -103.57088   0.91592338   -102.65496   -9948.3689    4.3887002    4.3887002    4.3887002   -9948.3689    33393.843   -50032.689    -13206.26    5495.2124     37400.28   -18477.217    84.529393 
   14000    1410.9316   -103.89636    1.2766406   -102.61972    20205.224     4.382623     4.382623     4.382623    20205.224    60410.115    14797.219   -14591.662    6867.8721    16249.688   -12493.418    84.178725 
   14100    956.57757   -103.47938   0.86553149   -102.61385    44333.038    4.3776976    4.3776976    4.3776976    44333.038    122622.09    80073.771   -69696.744    38455.228    7259.6232   -16125.597    83.895232 
   14200    1346.1897   -103.83543    1.2180607   -102.61737   -16424.871    4.3863467    4.3863467    4.3863467   -16424.871    34959.124   -38885.341   -45348.395    8624.8783     18071.09   -4586.6822    84.393476 
   14300      1905.01   -104.33865     1.723693   -102.61495   -19339.861    4.3764975    4.3764975    4.3764975   -19339.861    -13653.29    -26880.88   -17485.412   -4694.3587   -289.64472   -10914.598    83.826251 
   14400     1845.859   -104.31403     1.670172   -102.64386    -7561.453    4.3632414    4.3632414    4.3632414    -7561.453    35075.018   -6837.9812   -50921.396   -12814.472    13453.924   -7676.7244    83.066844 
   14500     1159.476   -103.72314    1.0491182   -102.67402    43131.384    4.3590498    4.3590498    4.3590498    43131.384    67095.599    39908.572    22389.982    15362.177     515.0127    4323.8976    82.827681 
   14600    1523.1902   -104.07653    1.3782145   -102.69832   -16396.516    4.3722816    4.3722816    4.3722816   -16396.516    14666.424   -14802.298   -49053.675     26509.61    12845.201   -6275.6087    83.584237 
   14700    1264.3455   -103.82385    1.1440064   -102.67984    30755.764    4.3798018    4.3798018    4.3798018    30755.764    50261.901    75050.835   -33045.444    12243.503   -4489.1548   -4688.2558    84.016265 
   14800    1113.2157   -103.67115    1.0072609   -102.66388    6752.1371    4.3744798    4.3744798    4.3744798    6752.1371   -21802.166    19080.992    22977.585    17061.211    6198.7624   -12344.175    83.710365 
   14900    1945.4455   -104.40445      1.76028   -102.64417   -15443.912    4.3746969    4.3746969    4.3746969   -15443.912   -8543.8389    3160.8483   -40948.745    13112.088    10760.952   -14038.629    83.722831 
   15000    1456.7113   -103.96942     1.318063   -102.65136    14095.495    4.3685279    4.3685279    4.3685279    14095.495    3303.1048    42889.407   -3906.0267   -8946.8916    15490.815   -5945.5775    83.369141 
   15100    1395.4962   -103.93256    1.2626743   -102.66989   -24268.242    4.3699267    4.3699267    4.3699267   -24268.242   -22117.105   -4731.6735   -45955.946   -4963.3471    11694.667    15113.921    83.449253 
   15200    1792.2358   -104.29422    1.6216526   -102.67257    14265.861    4.3631689    4.3631689    4.3631689    14265.861    5221.2491    33915.338    3660.9949    6416.0692   -3047.4754   -2995.7417    83.062706 
   15300    1173.6068   -103.75322    1.0619041   -102.69131    4572.2378    4.3740001    4.3740001    4.3740001    4572.2378    49241.741    27945.621   -63470.649    20880.147    21838.947    7911.0544    83.682831 
   15400    1608.3207   -104.12246    1.4552424   -102.66722   -20210.907    4.3888821    4.3888821    4.3888821   -20210.907    41218.571   -51284.519   -50566.774   -12012.078   -20501.561    7231.3058    84.539902 
   15500    1483.4495   -103.99754    1.3422563   -102.65528   -5794.2044    4.3773709    4.3773709    4.3773709   -5794.2044    35372.454    -45779.29   -6975.7763    1691.1879    10879.994    4498.7285    83.876451 
   15600     1526.113   -104.03872    1.3808591   -102.65787   -6157.2959    4.3670929    4.3670929    4.3670929   -6157.2959    38184.557   -17056.977   -39599.468   -2275.1911   -7438.5648    9425.9718    83.287012 
   15700    1843.1286   -104.32563    1.6677015   -102.65793   -1166.3004     4.366057     4.366057     4.366057   -1166.3004    -11691.36   -2894.3682    11086.827     8156.189   -2370.4693     17081.99    83.227758 
   15800    999.48979   -103.58455   0.90435937   -102.68019   -10703.907    4.3836956    4.3836956    4.3836956   -10703.907    3318.6049    32962.081   -68392.407   -4571.0579   -337.29277    10411.728    84.240544 
   15900    1418.2278   -103.93725    1.2832423   -102.65401    3726.9147    4.3830682    4.3830682    4.3830682    3726.9147   -13084.914    39559.775   -15294.117   -20367.455   -9486.0295    5278.3608    84.204382 
   16000    1497.1571   -103.99783    1.3546592   -102.64317    9431.5247    4.3697015    4.3697015    4.3697015    9431.5247     57322.03   -37872.284    8844.8279   -4639.6733    25165.044    11719.465     83.43635 
   16100    976.85885   -103.55143   0.88388242   -102.66755    37984.199    4.3737889    4.3737889    4.3737889    37984.199    11809.512    42849.481    59293.604   -3188.2468      7604.28    11022.262    83.670709 
   16200    1548.3778    -104.0723    1.4010048   -102.67129   -5851.2791    4.3946923    4.3946923    4.3946923   -5851.2791    50450.415   -27660.178   -40344.075    10268.673    6564.0843    1188.6951    84.876101 
   16300    1427.0965   -103.92848    1.2912669   -102.63721   -38677.123    4.3965553    4.3965553    4.3965553   -38677.123   -35762.183    -45594.66   -34674.525    12087.676   -6216.9373    11883.457    84.984086 
   16400     1650.431   -104.10056    1.4933446   -102.60721    44558.844    4.3481195    4.3481195    4.3481195    44558.844    80750.803    17583.468    35342.262   -6100.1831   -1332.7043    5297.2901    82.206171 
   16500    1488.8048     -104.008    1.3471019   -102.66089    2568.2708    4.3539006    4.3539006    4.3539006    2568.2708    11298.305    6362.4464    -9955.939    12467.924    1891.7593    1263.3637    82.534502 
   16600    1537.5444   -104.07496    1.3912025   -102.68376   -2414.7336    4.3840176    4.3840176    4.3840176   -2414.7336     40923.55   -40680.848   -7486.9028    -327.4085   -20839.345   -16518.888    84.259111 
   16700     1312.229   -103.84853    1.1873324   -102.66119   -21923.995    4.4015053    4.4015053    4.4015053   -21923.995    426.26835   -21794.288   -44403.966   -3086.0386    11839.878    4330.3877    85.271459 
   16800    1734.3217   -104.18876    1.5692507   -102.61951   -31930.187    4.3788205    4.3788205    4.3788205   -31930.187    -35406.24   -3146.5028   -57237.819    31243.042   -2349.3537   -3046.3001    83.959805 
   16900    1227.8309   -103.72216    1.1109672   -102.61119    55391.289    4.3428596    4.3428596    4.3428596    55391.289    60458.473    52618.566    53096.829    -3398.478    5634.9476    8556.8595    81.908198 
   17000    1305.7195   -103.85618    1.1814424   -102.67474    -5967.332    4.3645384    4.3645384    4.3645384    -5967.332   -62336.503    38501.835    5932.6713    27674.889   -1188.6286    5019.9894    83.140947 
   17100    1428.2645   -103.96229    1.2923238   -102.66997   -13848.207    4.3950357    4.3950357    4.3950357   -13848.207   -16653.207    -22760.65   -2130.7648   -8445.0858    261.90099   -10273.701    84.896001 
   17200    1158.2255   -103.68707    1.0479868   -102.63908   -24720.223    4.3890483    4.3890483    4.3890483   -24720.223   -29545.103   -21620.565       -22995    5942.2881    33780.931    -2308.742    84.549508 
   17300    1623.6721   -104.07581    1.4691326   -102.60667    18464.525    4.3567887    4.3567887    4.3567887    18464.525   -22437.129    40732.873     37097.83    11633.841   -1545.2994   -17750.618    82.698853 
   17400    1628.5866   -104.11501    1.4735794   -102.64143    2522.1711    4.3622022    4.3622022    4.3622022    2522.1711    4926.5127    20235.734   -17595.734    12871.088    31414.038     7870.698    83.007508 
   17500    1392.8541   -103.93548    1.2602837   -102.67519   -34964.226    4.3929231    4.3929231    4.3929231   -34964.226   -52028.643   -43155.358   -9708.6784    24380.475   -6217.4499    12078.373    84.773632 
   17600    1576.8271   -104.07656    1.4267463   -102.64981    -7915.638     4.395948     4.395948     4.395948    -7915.638    -22457.22   -22757.847    21468.153   -3794.7669    1607.2792   -193.59949    84.948877 
   17700    1158.5322   -103.68505    1.0482643   -102.63678   -21920.616    4.3729233    4.3729233    4.3729233   -21920.616   -11974.025   -62964.598    9176.7764    17681.968    5181.3767    15058.322    83.621041 
   17800    1589.7411   -104.07093    1.4384312    -102.6325    41900.708    4.3495907    4.3495907    4.3495907    41900.708   -6757.7081   -5181.8552    137641.69   -13771.259   -18160.209   -2243.3014    82.289645 
   17900    1317.0112   -103.88004    1.1916594   -102.68838   -18816.452     4.374029     4.374029     4.374029   -18816.452   -2253.9106    -54271.41     75.96582    17423.669    21454.392     29600.96    83.684492 
   18000    1543.0561   -104.06762    1.3961896   -102.67143   -20528.723    4.3820466    4.3820466    4.3820466   -20528.723    1452.7234   -48672.409   -14366.484    -7792.271   -2329.5091    21991.636    84.145514 
   18100    1338.2061   -103.86575     1.210837   -102.65491    15102.277    4.3674131    4.3674131    4.3674131    15102.277   -13909.341    7906.8205    51309.353     6628.966   -6128.0588     -5979.88    83.305335 
   18200    1643.1755   -104.13981    1.4867797   -102.65303   -31028.467    4.3649836    4.3649836    4.3649836   -31028.467    -25529.87   -52880.017   -14675.514    2548.4722    8081.2145    13887.513    83.166393 
   18300    1487.7642    -104.0044    1.3461603   -102.65824    17211.551    4.3533362    4.3533362    4.3533362    17211.551    7160.6181   -1999.4304    46473.466    559.14526   -22484.971   -13695.378    82.502407 
   18400    1543.0268   -104.08844    1.3961631   -102.69228   -13794.691    4.3674508    4.3674508    4.3674508   -13794.691   -48553.378   -35341.287    42510.592    7254.9688    17076.698    12202.197    83.307496 
   18500    1529.0565   -104.07152    1.3835224     -102.688    1386.1557    4.3758707    4.3758707    4.3758707    1386.1557    -44049.01   -34015.221    82222.698   -1319.7417    6376.3349   -4542.4153    83.790241 
   18600    1546.0764   -104.07669    1.3989224   -102.67776   -19436.228    4.3680423    4.3680423    4.3680423   -19436.228   -3518.8535   -27984.516   -26805.314    14904.081   -7285.7193    5302.8959    83.341344 
   18700    2144.7007   -104.60868    1.9405702    -102.6681    -6517.568    4.3572255    4.3572255    4.3572255    -6517.568   -37014.512   -26002.331    43464.139   -18444.698   -2542.4437    20396.201     82.72373 
   18800    1568.4553   -104.10695    1.4191713   -102.68778   -6260.3778    4.3634329    4.3634329    4.3634329   -6260.3778   -26491.398   -11345.147    19055.412    11287.966   -21374.581    -9545.255    83.077786 
   18900    1119.3285   -103.71866     1.012792   -102.70587    21760.542    4.3651462    4.3651462    4.3651462    21760.542    1016.6344   -32194.919     96459.91    214.13312    5774.1469    20408.972    83.175683 
   19000    1885.0189   -104.40416    1.7056047   -102.69855   -2031.9325    4.3648488    4.3648488    4.3648488   -2031.9325   -27936.216   -34210.629    56051.047      4425.32    3108.7972   -9674.7294    83.158685 
   19100    1327.2606   -103.89576    1.2009333   -102.69482   -10570.773    4.3654702    4.3654702    4.3654702   -10570.773   -30372.692   -16869.155    15529.527   -7034.9786   -16738.449    27509.566    83.194204 
   19200    1723.0247   -104.23611     1.559029   -102.67708   -12593.129    4.3732801    4.3732801    4.3732801   -12593.129     5799.279   -43885.143    306.47703    11121.617    5255.8731    1240.1942    83.641511 
   19300    1443.9896   -103.96036    1.3065521   -102.65381    13904.285    4.3565187    4.3565187    4.3565187    13904.285   -5502.1642   -9116.6951    56331.714   -36.408127   -24638.136    12221.084    82.683483 
   19400    1403.1347   -103.94189    1.2695858    -102.6723   -21983.688    4.3647086    4.3647086    4.3647086   -21983.688   -6593.4964   -52648.345   -6709.2225    11823.826    8508.1724    26330.169     83.15067 
   19500    1440.7867   -103.97275    1.3036541    -102.6691    24168.264    4.3738493    4.3738493    4.3738493    24168.264    7889.3443   -21113.301    85728.748    10165.138   -6131.9448   -4899.4236    83.674174 
   19600    1607.7013   -104.11604    1.4546819   -102.66136     -34362.6    4.3844494    4.3844494    4.3844494     -34362.6    -8330.558   -61357.465   -33399.777   -4241.6876    5428.0568    14839.769    84.284007 
   19700    1262.7326   -103.79086     1.142547   -102.64832    23246.046    4.3657149    4.3657149    4.3657149    23246.046    54124.134   -7773.4881    23387.491    25503.023    9399.8908   -31179.915    83.208198 
   19800     1830.255   -104.31311    1.6560532   -102.65706   -12032.652    4.3347267    4.3347267    4.3347267   -12032.652   -12026.847    11987.188   -36058.297    6664.4244   -15646.965    23765.457    81.448891 
   19900    1457.7543   -104.01694    1.3190068   -102.69794    30383.947    4.3419224    4.3419224    4.3419224    30383.947    38593.886    35899.235     16658.72   -2740.2679    3253.7712   -1545.0824    81.855182 
   20000    1763.4917   -104.28702    1.5956444   -102.69137   -36204.164    4.3760977    4.3760977    4.3760977   -36204.164   -46240.859   -38007.907   -24363.726    2222.8087    -7204.889    14953.382    83.803283 
   20100    1038.4513   -103.60332   0.93961255    -102.6637   -7007.9827    4.3847891    4.3847891    4.3847891   -7007.9827    10100.142   -2574.3985   -28549.692    8107.1433   -4585.6571    14597.921    84.303604 
   20200    1664.0058   -104.13474    1.5056274   -102.62911    15497.781    4.3637062    4.3637062    4.3637062    15497.781    6367.6676    11221.682    28903.994   -14002.861    4650.9009   -42755.015    83.093395 
   20300    1217.6344   -103.72877    1.1017412   -102.62703    12423.762    4.3395448    4.3395448    4.3395448    12423.762    36076.396   -33933.308    35128.198   -4257.0059   -28034.302    36885.947    81.720782 
   20400    1704.0572   -104.20648    1.5418668   -102.66462   -10976.522    4.3553095    4.3553095    4.3553095   -10976.522   -30450.776    20101.902   -22580.691    6891.8531    15695.858   -11414.936     82.61465 
   20500     1256.784   -103.81569    1.1371646   -102.67852   -9078.9207    4.3753022    4.3753022    4.3753022   -9078.9207     25439.18   -34398.994   -18276.948   -5822.0676   -14494.479    3008.6857    83.757586 
   20600    1525.9971    -104.0365    1.3807543   -102.65575    12579.296    4.3724237    4.3724237    4.3724237    12579.296    9889.1763    4678.7286    23169.983   -6081.2592    13279.225    12527.512    83.592385 
   20700    1848.5943    -104.3199     1.672647   -102.64726   -23290.562    4.3568582    4.3568582    4.3568582   -23290.562   -32038.506   -26788.097   -11045.083    9437.1824   -903.34564   -8022.4746    82.702811 
   20800    1285.5312   -103.81991    1.1631756   -102.65674    46988.968    4.3523865    4.3523865    4.3523865    46988.968    45435.917     20848.08    74682.908   -11103.711    -22103.27    22850.077    82.448425 
   20900    1433.3994   -103.97087    1.2969699    -102.6739   -226.74538    4.3699773    4.3699773    4.3699773   -226.74538    30018.745   -33328.712    2629.7311   -1491.2681     4695.811   -6585.3248     83.45215 
   21000    1564.1733   -104.07717    1.4152969   -102.66187   -9454.1779    4.3700453    4.3700453    4.3700453   -9454.1779    52854.137   -45637.943   -35578.727   -3783.7584   -25722.717    5008.1681    83.456046 
   21100    1132.4708    -103.6877    1.0246834   -102.66301    4785.7353    4.3678489    4.3678489    4.3678489    4785.7353    19231.117   -11947.562    7073.6513   -9410.7662    3014.7508   -11133.183    83.330275 
   21200    1904.7917   -104.38279    1.7234956   -102.65929   -15542.926    4.3624351    4.3624351    4.3624351   -15542.926   -35562.104   -35242.499    24175.825      8248.24   -10164.262    292.80483    83.020802 
   21300    1801.6423   -104.30264    1.6301638   -102.67248    9964.1535    4.3582492    4.3582492    4.3582492    9964.1535    44416.589   -6873.5169   -7650.6114   -3089.5251    6055.3933   -7877.9398    82.782051 
   21400    1303.6066   -103.86348    1.1795306   -102.68395     6512.715    4.3634866    4.3634866    4.3634866     6512.715    13430.677   -31286.367    37393.835    11875.536    5406.7737   -10696.901    83.080852 
   21500     1894.497   -104.38138    1.7141807    -102.6672   -3253.4326    4.3771517    4.3771517    4.3771517   -3253.4326    36414.938   -4990.0851   -41185.151    1439.8236    8802.9025    12672.494    83.863851 
   21600    1158.5181   -103.71294    1.0482515   -102.66468   -2340.3349    4.3661868    4.3661868    4.3661868   -2340.3349   -23555.484   -41591.784    58126.263   -1241.4449    10293.416   -9609.3313    83.235182 
   21700    1860.1512   -104.33583    1.6831039   -102.65272    -5195.053    4.3550572    4.3550572    4.3550572    -5195.053   -6097.5615     20373.15   -29860.747    3324.9936     11229.08    7435.1215    82.600292 
   21800    1182.6716    -103.7324    1.0701061   -102.66229    15042.022    4.3501439    4.3501439    4.3501439    15042.022    42521.769   -27083.401      29687.7    8066.0145    15092.459    19721.943    82.321046 
   21900    1649.2548   -104.15618    1.4922804    -102.6639   -13862.875    4.3687048    4.3687048    4.3687048   -13862.875   -23724.101   -28678.394    10813.869     -9936.54    4775.4101   -5096.2579    83.379273 
   22000    1052.7233   -103.60723   0.95252615    -102.6547     11380.13    4.3662039    4.3662039    4.3662039     11380.13    80093.197   -31764.628   -14188.179    3927.9784   -1524.5057    45193.759    83.236158 
   22100    1564.1747   -104.06655    1.4152981   -102.65125   -457.29328    4.3619313    4.3619313    4.3619313   -457.29328   -19709.309   -3236.2163    21573.645    5712.9983    9145.4695   -1328.9867    82.992047 
   22200    1399.4593   -103.92585    1.2662602   -102.65959    8613.6483    4.3676563    4.3676563    4.3676563    8613.6483    50219.236   -1098.6547   -23279.636   -16770.428   -12783.915    15067.077    83.319253 
   22300    1446.7243   -103.97176    1.3090266   -102.66273    6537.0326    4.3670608    4.3670608    4.3670608    6537.0326   -7981.3121   -9701.7457    37294.156    4250.3529   -2595.0592   -14964.613    83.285178 
   22400    1421.8237   -103.93957     1.286496   -102.65307   -6501.5976    4.3762891    4.3762891    4.3762891   -6501.5976    32058.446   -37553.058   -14010.181    -10789.32   -556.14282    8157.4052    83.814276 
   22500    1327.9759   -103.84132    1.2015805   -102.63974    15380.907    4.3619629    4.3619629    4.3619629    15380.907    7172.5266     25855.12    13115.074   -12555.878    5449.2326   -7028.3219    82.993846 
   22600    1309.6723   -103.83754     1.185019   -102.65252    19058.544    4.3573339    4.3573339    4.3573339    19058.544    50786.276   -24027.655    30417.011    1087.4696   -1084.4731    5338.9152    82.729904 
   22700    1649.0396   -104.15176    1.4920857   -102.65968    -30781.45    4.3621974    4.3621974    4.3621974    -30781.45   -25334.703   -18895.042   -48114.604   -4524.0838   -8827.6213     39920.06    83.007236 
   22800     1501.972    -104.0223    1.3590158   -102.66328    14083.331       4.3557       4.3557       4.3557    14083.331    41088.824   -14978.908    16140.078    6400.7968    22987.084   -4077.9831    82.636875 
   22900    1601.6865   -104.11573    1.4492396   -102.66649   -26244.165    4.3698702    4.3698702    4.3698702   -26244.165   -21141.343    5591.9681    -63183.12   -5323.4536   -13165.679    39121.666     83.44602 
   23000    1215.4339   -103.74695    1.0997502    -102.6472    240.58053    4.3647965    4.3647965    4.3647965    240.58053    22382.104    16370.558    -38030.92   -496.83359    495.38969   -7353.5247    83.155696 
   23100    1797.3669   -104.26731    1.6262953   -102.64102   -17793.758    4.3525994    4.3525994    4.3525994   -17793.758    13367.442   -32203.464   -34545.252    1423.5409   -4589.0285    18646.073    82.460526 
   23200    1246.9181   -103.78471    1.1282377   -102.65647    9722.2386    4.3473448    4.3473448    4.3473448    9722.2386    45825.765    27403.142   -44062.192    1126.0699   -20900.074    3458.4152    82.162237 
   23300    1755.5623   -104.25413    1.5884697   -102.66566    -32346.97    4.3600352    4.3600352    4.3600352    -32346.97   -1657.4422    -32436.55   -62946.918    17969.805   -1189.7376    4257.9755    82.883865 
   23400    1445.9429   -103.96067    1.3083195   -102.65235   -29328.223    4.3732311    4.3732311    4.3732311   -29328.223   -23277.249     10575.81    -75283.23   -10871.011   -26319.276    21052.683    83.638703 
   23500    1551.2438   -104.04404     1.403598   -102.64044    17343.704    4.3451557    4.3451557    4.3451557    17343.704    13198.746    32129.971    6702.3941    3810.6549   -13358.951   -2456.7299    82.038181 
   23600    1556.7267   -104.06701    1.4085591   -102.65845   -11519.294    4.3449282    4.3449282    4.3449282   -11519.294    5631.7292    23468.093   -63657.705     3763.711   -14629.779    30127.935    82.025297 
   23700    1561.3794   -104.08051    1.4127689   -102.66774     13131.11    4.3567579    4.3567579    4.3567579     13131.11    1488.5705      47136.9   -9232.1399    13659.572   -4238.2404   -5339.5006    82.697098 
   23800      1399.34   -103.93685    1.2661522    -102.6707   -2691.6941    4.3643543    4.3643543    4.3643543   -2691.6941    34978.335   -20260.943   -22792.474   -2670.5098   -18477.023     3909.882    83.130422 
   23900    1741.1351   -104.22782    1.5754157   -102.65241   -9251.5548    4.3630283    4.3630283    4.3630283   -9251.5548   -48902.367    28548.532   -7400.8302    1563.4316    211.24419    2924.8844    83.054678 
   24000    1460.9687   -103.96485    1.3219152   -102.64294    27329.781    4.3448475    4.3448475    4.3448475    27329.781    56454.367    4699.4532    20835.523     7126.633   -763.57191   -3463.8124    82.020728 
   24100    1670.9897   -104.18518    1.5119466   -102.67324    -12706.28     4.346858     4.346858     4.346858    -12706.28   -22402.953    14246.422   -29962.309   -1702.9936   -19180.019    6782.8071    82.134641 
   24200    1644.4042   -104.16459    1.4878915    -102.6767    16030.989    4.3611977    4.3611977    4.3611977    16030.989    24595.219    26675.244   -3177.4955    5819.7085    9000.7178    -3265.708    82.950181 
   24300    1121.8387   -103.69991    1.0150632   -102.68485   -25843.596    4.3722772    4.3722772    4.3722772   -25843.596   -16025.803   -48082.119   -13422.866   -7008.2579   -34098.813    5386.1513    83.583981 
   24400     1932.702   -104.40608    1.7487494   -102.65733     1521.068     4.363429     4.363429     4.363429     1521.068    28548.504   -7056.9638   -16928.336   -3800.3184    18429.049   -10436.119    83.077559 
   24500    1096.3663   -103.64101   0.99201528     -102.649    44297.178    4.3353126    4.3353126    4.3353126    44297.178    6141.6768    27422.876    99326.982    7819.8588   -19918.541     27127.91    81.481919 
   24600    1336.6051   -103.88905    1.2093884   -102.67966   -9693.9371    4.3436784    4.3436784    4.3436784   -9693.9371   -21928.985    19456.719   -26609.546   -6055.7375   -18068.828    4952.1624    81.954536 
   24700    1920.9369    -104.4096    1.7381041    -102.6715    18650.357    4.3560296    4.3560296    4.3560296    18650.357    91.822561    7985.9897    47873.257    7614.3065   -21227.815    1478.0877    82.655637 
   24800     1012.727   -103.59386   0.91633672   -102.67752   -26545.502    4.3731833    4.3731833    4.3731833   -26545.502   -42096.849   -12799.047   -24740.609    -14058.12   -28741.652    8929.2727    83.635957 
   24900    1905.3183   -104.37004     1.723972   -102.64607    4234.1411    4.3586851    4.3586851    4.3586851    4234.1411   -10445.959   -14188.084    37336.466    4123.3152    6997.6468   -11259.591     82.80689 
   25000    1300.8381   -103.84204    1.1770257   -102.66501   -21137.252    4.3465243    4.3465243    4.3465243   -21137.252   -17609.164    619.81336   -46422.404   -4928.2124   -31691.061    11082.705    82.115729 
   25100    1589.9569   -104.11296    1.4386265   -102.67433    816.25723    4.3512097    4.3512097    4.3512097    816.25723    17468.617   -30858.312    15838.467   -3140.5334    2066.0139    21233.188    82.381567 
   25200      1648.99   -104.16619    1.4920408   -102.67415   -18560.717    4.3609106    4.3609106    4.3609106   -18560.717   -13223.659   -2696.3369   -39762.154    6268.1366   -9201.6855   -12663.281    82.933796 
   25300    891.33315   -103.48404   0.80649697   -102.67754   -653.12659    4.3589854    4.3589854    4.3589854   -653.12659    25475.677   -14014.865   -13420.191   -10568.367   -13089.962    24974.759    82.824009 
   25400    1969.6128   -104.44087    1.7821471   -102.65873    11129.944    4.3514774    4.3514774    4.3514774    11129.944    29020.693   -17510.959    21880.097    1299.7168    13085.655    -1571.188     82.39677 
   25500    1202.1932   -103.76433    1.0877696   -102.67656   -37274.386    4.3494592    4.3494592    4.3494592   -37274.386   -25002.855   -27028.244    -59792.06    5706.7487   -43179.739    32609.922     82.28218 
   25600    1868.0478   -104.36826    1.6902489   -102.67801    4898.5902    4.3457486    4.3457486    4.3457486    4898.5902   -9225.0228    -27724.06    51644.854   -10518.678    9368.7902   -7177.8036     82.07177 
   25700    1280.9257   -103.85349    1.1590085   -102.69449   -6893.6519    4.3483747    4.3483747    4.3483747   -6893.6519     39555.85   -57147.144    -3089.662    510.36078   -23584.176    27800.265    82.220648 
   25800    1631.6375   -104.16468    1.4763399   -102.68834   -5929.0879    4.3512613    4.3512613    4.3512613   -5929.0879   -15510.786   -17961.396    15684.919    4905.8955   -25552.325   -4420.4872    82.384496 
   25900     1608.017   -104.12974    1.4549676   -102.67477     18492.57    4.3418437    4.3418437    4.3418437     18492.57    57132.273   -22680.339    21025.776   -3562.3847    -6440.588    6704.4158    81.850731 
   26000    1149.0682   -103.72399    1.0397011   -102.68429   -15221.864    4.3401871    4.3401871    4.3401871   -15221.864   -12287.018   -39065.046    5686.4722   -6204.7883   -37818.256    21426.272    81.757075 
   26100    2026.7888   -104.50826    1.8338811   -102.67438    16746.282    4.3480246    4.3480246    4.3480246    16746.282   -4785.1861    6076.4633    48947.569    5169.8785    9523.3658   -13104.806    82.200789 
   26200    1107.6797   -103.69242    1.0022519   -102.69017   -18495.766    4.3503563    4.3503563    4.3503563   -18495.766   -19018.443   -23663.922   -12804.932   -12243.019   -29861.461    45902.477    82.333105 
   26300    1629.9224   -104.14519     1.474788    -102.6704   -13378.247    4.3474842    4.3474842    4.3474842   -13378.247    -25653.62    -25460.67    10979.549    5851.9419    -18679.75   -7084.5751     82.17014 
   26400      1385.34   -103.91758    1.2534847   -102.66409     10871.85    4.3383799    4.3383799    4.3383799     10871.85   -5896.1646    5999.5196    32512.194   -770.08352     9214.921    18414.205    81.654989 
   26500    1463.4821   -104.00215    1.3241894   -102.67796   -9665.6376    4.3486208    4.3486208    4.3486208   -9665.6376    -39846.81    14553.335   -3703.4381    305.77013   -35982.017    30172.089    82.234604 
   26600    1829.9206   -104.32567    1.6557506   -102.66992   -5979.1705    4.3536814    4.3536814    4.3536814   -5979.1705    1855.0549   -29943.396     10150.83    7217.8301    10339.035   -14069.258    82.522034 
   26700    924.06659   -103.51109   0.83611487   -102.67497    7423.7812    4.3546987    4.3546987    4.3546987    7423.7812   -28971.144     908.4555    50334.032   -1917.1333   -31433.167     29416.28    82.579894 
   26800    1992.0458    -104.4587    1.8024449   -102.65626    9341.2396     4.355785     4.355785     4.355785    9341.2396    22748.187   -3698.6014    8974.1335     13644.47   -585.94417    -5496.754    82.641712 
   26900    1121.5596   -103.67981    1.0148107     -102.665    20511.376    4.3488854    4.3488854    4.3488854    20511.376   -2798.3909    3632.5338    60699.984   -15657.048   -26629.742    44719.704    82.249617 
   27000    1734.6032   -104.23784    1.5695054   -102.66833   -21743.876    4.3605125    4.3605125    4.3605125   -21743.876   -39267.624   -15700.298   -10263.707    893.93915    599.86892   -4403.9872    82.911089 
   27100    1596.1353   -104.10547    1.4442168   -102.66125   -5869.4497    4.3608556    4.3608556    4.3608556   -5869.4497   -10248.192   -50956.915    43596.759    162.82415    4797.1824    19577.087    82.930658 
   27200    1499.6999   -104.02002      1.35696   -102.66306   -16773.266    4.3578648    4.3578648    4.3578648   -16773.266   -22513.063    12427.568   -40234.302    -9938.196   -17406.555    5446.4057    82.760147 
   27300    1794.3333   -104.27734    1.6235505   -102.65379    -1240.651    4.3487867    4.3487867    4.3487867    -1240.651   -18412.037   -3165.4441    17855.528    13602.783    11040.629    9433.7327    82.244018 
   27400    1042.5897   -103.61156   0.94335706    -102.6682    26755.731    4.3491555    4.3491555    4.3491555    26755.731    52440.772    16359.839    11466.581   -3736.1837    -25709.76    28840.462    82.264946 
   27500    2170.0408   -104.61945    1.9634985   -102.65595   -16330.663    4.3624141    4.3624141    4.3624141   -16330.663   -9159.3277   -7893.5902   -31939.071     -6262.15    9770.9269   -23988.699    83.019606 
   27600    952.14651   -103.52366   0.86152217   -102.66214    5516.2787    4.3552759    4.3552759    4.3552759    5516.2787     40296.78   -43401.367    19653.423   -11073.186    -22821.07    21948.209    82.612736 
   27700    1799.3766   -104.28692    1.6281138   -102.65881    13713.502     4.345065     4.345065     4.345065    13713.502    36779.829    28071.779   -23711.102    -11071.48   -9895.4068    -25720.23    82.033043 
   27800    1524.1659   -104.05407    1.3790973   -102.67497   -125.86589    4.3551697    4.3551697    4.3551697   -125.86589    33537.177   -8968.4252    -24946.35     13696.74    4132.8568    21308.222    82.606696 
   27900    1491.6454   -104.01543    1.3496721   -102.66576   -18584.171    4.3729759    4.3729759    4.3729759   -18584.171   -31435.361    3347.6022   -27664.755    2840.7464   -14501.801    180.58169    83.624062 
   28000    1970.5309   -104.42566    1.7829778   -102.64268   -16381.814    4.3651759    4.3651759    4.3651759   -16381.814     38660.84   -34194.313    -53611.97   -5223.5397    17689.315   -5736.2261    83.177384 
   28100    969.61128   -103.53428   0.87732466   -102.65695    21640.685    4.3477884    4.3477884    4.3477884    21640.685     50989.13    35141.737   -21208.813    23332.127   -32754.661    13551.396    82.187393 
   28200    1959.3834   -104.42839    1.7728913    -102.6555    2081.5854    4.3482617    4.3482617    4.3482617    2081.5854    29808.162   -8376.1966   -15187.209    12267.467    5483.7498   -7739.8231    82.214236 
   28300    1343.6066   -103.88859    1.2157235   -102.67287   -12735.283    4.3672321    4.3672321    4.3672321   -12735.283   -11254.295   -18458.111   -8493.4437    2896.3996    -25142.28    21655.956    83.294978 
   28400    1296.9987   -103.82295    1.1735517    -102.6494   -2242.4042    4.3718439    4.3718439    4.3718439   -2242.4042    22482.518    -2388.679   -26821.052   -4169.1447   -6742.6491    -8878.281    83.559135 
   28500    1648.2093   -104.13217    1.4913344   -102.64083   -6061.0348    4.3528449    4.3528449    4.3528449   -6061.0348    47025.492   -16981.438   -48227.159   -12954.636   -7728.5432    17056.784    82.474478 
   28600    1210.9884   -103.75152    1.0957278   -102.65579      25047.5    4.3469914    4.3469914    4.3469914      25047.5    29958.479    34912.938    10271.083   -12213.138   -24186.645   -2359.9747    82.142201 
   28700    1356.0291   -103.89045    1.2269637   -102.66349    2575.1082    4.3534045    4.3534045    4.3534045    2575.1082    44226.525   -6557.8112   -29943.389   -11587.829    12511.631    21507.529     82.50629 
   28800    1528.7434   -104.04335    1.3832392   -102.66011   -18302.161    4.3674735    4.3674735    4.3674735   -18302.161   -25093.523   -2199.1577   -27613.802    17420.609   -28926.442   -15566.054    83.308791 
   28900    1655.6657   -104.14367    1.4980811   -102.64559   -1675.7041    4.3614044    4.3614044    4.3614044   -1675.7041    13882.261   -13121.094   -5788.2794    8749.6044    10790.348    9068.6094    82.961974 
   29000    1287.5034   -103.82082    1.1649602   -102.65586    6030.2088    4.3552949    4.3552949    4.3552949    6030.2088    39417.151    2455.1609   -23781.685    3321.6735   -24307.674    2383.7304    82.613818 
   29100    1774.0524   -104.26521    1.6051999   -102.66001   -18117.557    4.3552332    4.3552332    4.3552332   -18117.557   -7169.6981   -24735.919   -22447.055    13646.428   -12882.774   -3248.3401    82.610311 
   29200    1407.5959   -103.94438    1.2736224   -102.67076    16214.279    4.3579527    4.3579527    4.3579527    16214.279    4291.1599    12499.335    31852.343   -4887.9806   -12014.993    17413.915    82.765154 
   29300    1768.6082   -104.26765    1.6002739   -102.66737    -32717.14    4.3726719    4.3726719    4.3726719    -32717.14   -7949.0849   -27641.704    -62560.63    7529.7141   -35313.978   -4919.4712    83.606622 
   29400    1492.5265   -104.01197    1.3504694    -102.6615   -5242.0126    4.3711069    4.3711069    4.3711069   -5242.0126    4597.3177   -48977.188    28653.832    2258.5875   -7317.9786    17177.151    83.516884 
   29500    1550.4931     -104.056    1.4029187   -102.65308    25811.761    4.3647125    4.3647125    4.3647125    25811.761    48614.124    41174.716   -12353.556   -22821.296   -23026.632   -3993.5954    83.150893 
   29600    1177.4527   -103.72912     1.065384   -102.66373    23105.925    4.3663259    4.3663259    4.3663259    23105.925    52946.604   -11982.968    28354.139    12117.155    19095.167    15229.299    83.243139 
   29700    1948.0107   -104.43682    1.7626011   -102.67422   -25309.935    4.3717439    4.3717439    4.3717439   -25309.935   -9484.3551   -38770.729   -27674.721   -6150.3778   -3167.9064    3069.7307      83.5534 
   29800    1374.7996   -103.91891    1.2439475   -102.67497     7531.123    4.3613622    4.3613622    4.3613622     7531.123     14792.78    25687.708   -17887.119    13382.237   -14075.886   -4417.1745    82.959567 
   29900    1266.2143   -103.82276    1.1456973   -102.67707    16489.255    4.3626661    4.3626661    4.3626661    16489.255    46979.483    8925.3729   -6437.0917    -1458.084    23448.323     23872.03    83.033993 
   30000    1789.1687   -104.28791    1.6188775   -102.66903   -24115.687    4.3725341    4.3725341    4.3725341   -24115.687   -23953.106   -33658.237   -14735.719    11802.029   -27676.355   -11693.694    83.598717 
   30100     1226.815   -103.76641     1.110048   -102.65637   -1781.0738    4.3747407    4.3747407    4.3747407   -1781.0738    53021.761   -24834.083     -33530.9   -4927.4257    23652.994    27312.157    83.725347 
   30200     1453.678   -103.96765    1.3153184   -102.65233    31955.382    4.3615843    4.3615843    4.3615843    31955.382    73567.946     14290.92    8007.2803    21105.392   -24168.026   -21250.579    82.972238 
   30300     1673.026   -104.17247    1.5137891   -102.65868   -8446.6563    4.3589409    4.3589409    4.3589409   -8446.6563    4337.4928   -45049.417    15371.955   -9724.6708   -242.15127     2564.507    82.821473 
   30400    1301.3546   -103.83853     1.177493   -102.66103    17857.516    4.3643346    4.3643346    4.3643346    17857.516    110627.17   -8114.7335   -48939.892    10170.086    20471.087   -8304.2237    83.129298 
   30500    1439.8954   -103.97495    1.3028476   -102.67211     11845.09    4.3643421    4.3643421    4.3643421     11845.09    26905.297   -40178.735    48808.708    -16855.83   -6285.2121    1555.6391    83.129725 
   30600    1794.0206   -104.29142    1.6232675   -102.66815   -19706.166    4.3656094    4.3656094    4.3656094   -19706.166    2704.8264   -16382.457   -45440.867   -6298.8964    19351.071   -2396.5913    83.202166 
   30700    1052.8471   -103.62558   0.95263815   -102.67294    17594.196    4.3639835    4.3639835    4.3639835    17594.196    25036.304   -33682.919    61429.203    6220.0392   -7173.7395   -3736.8662     83.10924 
   30800    1602.4035   -104.11248    1.4498883   -102.66259   -11448.732    4.3651011    4.3651011    4.3651011   -11448.732   -33684.066    34687.119   -35349.248   -10682.088    9583.7635   -2993.1551    83.173106 
   30900    1295.4423    -103.8394    1.1721434   -102.66726    1496.0406    4.3570587    4.3570587    4.3570587    1496.0406   -9.3503452    140.59848    4356.8736    9203.1423     28477.19    4610.6726    82.714231 
   31000    1665.5577   -104.17687    1.5070316   -102.66984   -4624.2569     4.362339     4.362339     4.362339   -4624.2569    7252.4849    7932.6331   -29057.889    8561.5772   -10337.684   -14367.011    83.015319 
   31100    1282.5434   -103.82813    1.1604722   -102.66766   -26532.722    4.3770791    4.3770791    4.3770791   -26532.722   -42313.857    22008.985   -59293.295   -1068.9068    47852.199    5554.4011    83.859679 
   31200    1835.8584   -104.29224    1.6611233   -102.63112   -8235.6785     4.369486     4.369486     4.369486   -8235.6785    8589.0982   -23690.363   -9605.7708    13020.537   -13865.665    -22771.63     83.42401 
   31300    1050.8193   -103.58462   0.95080337   -102.63382   -2417.9419    4.3581574    4.3581574    4.3581574   -2417.9419   -5815.3048     55798.36    -57236.88   -14521.542    51957.331    10144.272    82.776821 
   31400    2078.3506   -104.52217    1.8805353   -102.64163    9739.1742    4.3564183    4.3564183    4.3564183    9739.1742    39656.631   -7562.9206   -2876.1878    26247.412   -12853.316   -15552.595    82.677764 
   31500     828.4792   -103.42864   0.74962539   -102.67902    6615.8184    4.3682272    4.3682272    4.3682272    6615.8184    28953.117    9923.2303   -19028.892    -14617.09    31195.116    2511.4983    83.351927 
   31600     2266.733   -104.71624    2.0509876   -102.66526   -36952.883    4.3829055    4.3829055    4.3829055   -36952.883   -37969.867   -24232.123   -48656.658   -4254.4577   -7063.7002   -10689.161    84.195002 
   31700    890.73843   -103.47785   0.80595885   -102.67189    4284.4939    4.3718566    4.3718566    4.3718566    4284.4939    66282.488    9972.3156   -63401.322    5736.8617    18555.874   -2794.0342    83.559862 
   31800    1875.1518   -104.34471    1.6966768   -102.64804    4834.3457    4.3529188    4.3529188    4.3529188    4834.3457     -16112.3    48950.139   -18334.802   -4010.4699    1216.3302   -8492.9762    82.478681 
   31900    1075.4398   -103.64574   0.97308056   -102.67266    16479.225    4.3610014    4.3610014    4.3610014    16479.225    41583.805    65681.134   -57827.264   -3109.5259     25381.49   -1970.7059    82.938975 
   32000    1788.3783    -104.2905    1.6181623   -102.67234   -17468.808    4.3802568    4.3802568    4.3802568   -17468.808   -37682.678    35909.227   -50632.972    5192.9157   -1450.7522   -5654.8639    84.042454 
   32100    1530.6629   -104.03255     1.384976   -102.64758   -46172.636    4.3870375    4.3870375    4.3870375   -46172.636   -61858.311   -15414.583   -61245.014    1851.9252    30182.375   -7210.8406    84.433356 
   32200    1453.4694   -103.94228    1.3151297   -102.62715    19169.959    4.3562148    4.3562148    4.3562148    19169.959   -38.027158    102276.17   -44728.263    13232.359    2483.9802     1369.808    82.666176 
   32300    1537.9518   -104.03543    1.3915711   -102.64386    5623.3327    4.3476865    4.3476865    4.3476865    5623.3327    2520.0912    45648.842   -31298.936   -15384.738    21668.504    12944.708    82.181613 
   32400    1670.5256   -104.18958    1.5115267   -102.67805    -16856.33    4.3736334    4.3736334    4.3736334    -16856.33   -17594.071    15868.417   -48843.337     1595.261    9436.9756   -9494.0543    83.661789 
   32500    1787.4367     -104.282    1.6173103   -102.66468   -52059.674    4.3934626    4.3934626    4.3934626   -52059.674   -39631.995   -31795.886    -84751.14    10459.591    17537.888    19968.465    84.804872 
   32600    1135.7828   -103.68203    1.0276802   -102.65435    25370.801    4.3610339    4.3610339    4.3610339    25370.801     49607.39    44063.282   -17558.268    21980.775    18749.513    2665.8808     82.94083 
   32700    1838.9983    -104.3023    1.6639643   -102.63833    6807.2152    4.3459476    4.3459476    4.3459476    6807.2152    7196.0706     23636.16   -10410.585   -1091.4929    4721.7828    18709.463    82.083043 
   32800    1310.0831   -103.86072    1.1853907   -102.67533    21777.691    4.3637989    4.3637989    4.3637989    21777.691      56602.5    45139.203    -36408.63   -7065.2916    19534.701    8476.6388    83.098694 
   32900    1234.5756   -103.77957      1.11707    -102.6625    4956.5004    4.3896444    4.3896444    4.3896444    4956.5004    6176.4412    18079.437   -9386.3769   -11394.014   -8378.5745    13168.168     84.58396 
   33000    1741.9959   -104.21064    1.5761945   -102.63444   -41356.587     4.389645     4.389645     4.389645   -41356.587    -54289.92    23296.718   -93076.559   -1169.5952    30730.555    4978.5935    84.583997 
   33100    1669.7342   -104.12961    1.5108106    -102.6188     16396.14    4.3527332    4.3527332    4.3527332     16396.14    51589.697     17172.32   -19573.596    8289.3286    -12401.77    10874.476    82.468129 
   33200    1590.7068   -104.08783    1.4393049   -102.64853   -12452.664    4.3517158    4.3517158    4.3517158   -12452.664   -33923.925    57886.483   -61320.552    5219.2184    36104.601    13506.176    82.410317 
   33300    1471.4889   -103.99061    1.3314341   -102.65917   -1782.6069    4.3750554    4.3750554    4.3750554   -1782.6069    48963.294   -11089.176   -43221.938    -13833.74   -9477.4586   -4771.5366    83.743415 
   33400    1209.5719   -103.75508    1.0944461   -102.66063   -15983.657    4.3813013    4.3813013    4.3813013   -15983.657    26167.285   -5060.5355   -69057.722   -14732.716    30175.651    15890.472    84.102589 
   33500    1665.9345   -104.15163    1.5073725   -102.64426   -27719.252    4.3728987    4.3728987    4.3728987   -27719.252   -7182.0072   -11107.819    -64867.93   -24591.587   -16970.019   -9408.7596    83.619629 
   33600    1584.3266   -104.07485     1.433532   -102.64132     15357.15    4.3470578    4.3470578    4.3470578     15357.15    1382.9691    42779.377    1909.1045    -4642.263    1777.2088    16830.264    82.145968 
   33700    1360.7787   -103.90841    1.2312612   -102.67715   -14287.046    4.3611074    4.3611074    4.3611074   -14287.046    20395.304   -39285.114   -23971.327    5354.7938   -773.93304   -11315.359    82.945023 
   33800    1422.8091   -103.95478    1.2873876   -102.66739     20386.71    4.3666955    4.3666955    4.3666955     20386.71    5849.8833    46277.933    9032.3127   -1394.2525   -10621.746   -3770.2704     83.26428 
   33900     1304.726   -103.84254    1.1805435     -102.662   -14706.028    4.3702034    4.3702034    4.3702034   -14706.028   -22494.832    4887.9043   -26511.154    3262.7213    9163.0854    2752.7958    83.465106 
   34000    1589.4191   -104.07095    1.4381398   -102.63281    4651.7813    4.3669529    4.3669529    4.3669529    4651.7813    15076.036     8377.466   -9498.1581    7769.4961   -17859.156   -4817.9953    83.279006 
   34100    1922.9102   -104.37874    1.7398896   -102.63885   -25842.427     4.353585     4.353585     4.353585   -25842.427   -28616.029    1188.3133   -50099.564   -5100.1956    18868.042     16288.57    82.516556 
   34200    1531.4483   -104.05599    1.3856866   -102.67031   -13094.152    4.3525942    4.3525942    4.3525942   -13094.152    -13472.59   -6480.3781    -19329.49    17444.224   -2225.1483   -8988.7244    82.460226 
   34300    1239.7671   -103.80711    1.1217673   -102.68534    17650.861    4.3558856    4.3558856    4.3558856    17650.861   -6157.4684    59214.175   -104.12503   -2652.4018    2127.7802    14488.474    82.647436 
   34400     1458.791   -104.00673    1.3199447   -102.68678   -33042.699    4.3658026    4.3658026    4.3658026   -33042.699   -42398.755   -44022.668   -12706.673     26065.87    11372.028   -18432.606    83.213214 
   34500    1586.1495   -104.09446    1.4351814   -102.65928    31324.036    4.3532984    4.3532984    4.3532984    31324.036    4483.0102    52239.454    37249.643   -15855.348    -1301.489   -4741.6618    82.500258 
   34600    1016.8037   -103.58512   0.92002534   -102.66509    8167.0297    4.3548885    4.3548885    4.3548885    8167.0297    19134.664    16505.852   -11139.427    35560.361    33463.665    22.881853    82.590696 
   34700    1922.4001    -104.3908     1.739428   -102.65138   -23745.989     4.363934     4.363934     4.363934   -23745.989   -46055.839    -32306.82    7124.6926     2020.854    5987.0499   -5509.3656    83.106411 
   34800    1115.8144   -103.66825    1.0096123   -102.65864    13591.001    4.3664935    4.3664935    4.3664935    13591.001   -14896.919    78667.648   -22997.725    1286.6456    3140.2186    8733.3335    83.252725 
   34900    1924.0175    -104.3942    1.7408915   -102.65331    -31736.93    4.3624532    4.3624532    4.3624532    -31736.93   -29020.072   -40179.408   -26011.308    18755.576    10406.532   -16659.775    83.021838 
   35000    1243.7569   -103.78904    1.1253774   -102.66366    32027.189    4.3484717    4.3484717    4.3484717    32027.189    10278.636    82975.437    2827.4958   -12575.723    1874.6453    14248.016    82.226145 
   35100    1346.3349   -103.90481    1.2181921   -102.68662    -2644.694    4.3540824    4.3540824    4.3540824    -2644.694   -2077.8285    9231.2867    -15087.54    9444.8015    5357.2547   -292.01703    82.544841 
   35200    2044.3304   -104.51535    1.8497531    -102.6656   -8921.6314     4.364009     4.364009     4.364009   -8921.6314    7396.7345    14762.821    -48924.45   -3551.4608   -3782.3471   -1710.9055    83.110694 
   35300    978.31084   -103.54083   0.88519621   -102.65563   -10425.225    4.3618141    4.3618141    4.3618141   -10425.225    3392.2706    2621.9367   -37289.883    7017.7429    2120.2181    1842.6253    82.985357 
   35400    2136.5363   -104.56674     1.933183   -102.63355   -3727.7046    4.3507433    4.3507433    4.3507433   -3727.7046    39648.011   -24511.022   -26320.103    9392.5278   -6627.1937   -21053.133     82.35508 
   35500    1382.5982   -103.90759    1.2510039   -102.65658   -4891.9303    4.3583002    4.3583002    4.3583002   -4891.9303    24707.047    17970.705   -57353.544   -21249.014     6935.698     2390.908    82.784954 
   35600    1814.0084   -104.29918    1.6413529   -102.65783    -24248.56     4.374201     4.374201     4.374201    -24248.56    13203.079   -37593.871   -48354.889    3949.4473    18.592302   -24312.651     83.69436 
   35700    1464.9547   -103.97377    1.3255218   -102.64825   -14784.218    4.3739618    4.3739618    4.3739618   -14784.218    7514.9403    3228.8215   -55096.415     -4332.39   -3065.6105    9645.5836    83.680632 
   35800    1857.5213   -104.32341    1.6807243   -102.64269    9242.6523    4.3402805    4.3402805    4.3402805    9242.6523    51036.136    4505.2749   -27813.454   -18566.963     13366.39   -26750.272    81.762358 
   35900    1246.1795   -103.80092    1.1275694   -102.67336    24307.139    4.3385358    4.3385358    4.3385358    24307.139    19780.786    82184.034   -29043.402    3116.7749    -41773.31    368.83961    81.663795 
   36000    1839.4259   -104.34471    1.6643512   -102.68036   -22181.952    4.3596036    4.3596036    4.3596036   -22181.952    5571.3881   -34558.743   -37558.501   -13727.731    10376.581   -19198.799    82.859252 
   36100    1226.5475   -103.77574     1.109806   -102.66594   -10112.023    4.3637953    4.3637953    4.3637953   -10112.023    29127.174    9639.4608   -69102.704    5820.7197   -39210.439   -906.51951    83.098483 
   36200    1705.5879   -104.20779    1.5432518   -102.66454   -19250.418    4.3587017    4.3587017    4.3587017   -19250.418    20218.582    -22240.07   -55729.766    2678.3184    4301.5922    5880.5207    82.807839 
   36300    1305.7425   -103.84672    1.1814632   -102.66526    7264.4144    4.3376044    4.3376044    4.3376044    7264.4144    46443.618    11773.655   -36424.029    6842.6487    -24559.22   -15786.541     81.61121 
   36400    1672.7577    -104.1841    1.5135463   -102.67056   -5371.1983    4.3427674    4.3427674    4.3427674   -5371.1983    7841.4793    6774.4348   -30729.509    -8148.941   -11754.154    5909.5608     81.90298 
   36500    1307.5285   -103.85388    1.1830793    -102.6708   -19072.023    4.3603929    4.3603929    4.3603929   -19072.023    37329.354   -57896.306   -36649.116    11031.483   -7242.8314    4837.1202    82.904266 
   36600    1659.3582   -104.15989    1.5014222   -102.65847   -3774.7744    4.3502565    4.3502565    4.3502565   -3774.7744   -4175.4572      35999.3   -43148.166   -26001.624   -39070.371    2089.3035    82.327439 
   36700    1235.5541   -103.78231    1.1179553   -102.66436    22005.481      4.35196      4.35196      4.35196    22005.481    75415.034    18884.442   -28283.032    23897.542     2337.609   -2468.3878     82.42419 
   36800    867.94132   -103.44672   0.78533154   -102.66139    2938.9561    4.3656163    4.3656163    4.3656163    2938.9561    2800.5873    19666.178   -13649.897   -13828.684   -42900.741    10409.184    83.202559 
   36900    1806.3331   -104.26207    1.6344081   -102.62767   -19584.992    4.3578539    4.3578539    4.3578539   -19584.992    13159.249   -53020.443   -18893.782   -3869.6494    12252.416    2295.4889    82.759529 
   37000    1459.9623   -103.95826    1.3210046   -102.63726   -38330.714    4.3486285    4.3486285    4.3486285   -38330.714   -42725.826    3579.4427   -75845.757   -3237.3083   -43703.602   -3318.5164    82.235042 
   37100    1364.3641   -103.88329    1.2345054   -102.64878    7781.7741    4.3500636    4.3500636    4.3500636    7781.7741   -17068.993    39.113824    40375.201   -21063.606   -6020.8221    13314.754    82.316486 
   37200    1556.8505   -104.06844    1.4086711   -102.65977   -3730.0583    4.3584264    4.3584264    4.3584264   -3730.0583    39295.774   -558.21809   -49927.731    15199.731   -15013.533   -7980.0965     82.79215 
   37300    1143.0617    -103.7062    1.0342663   -102.67194   -7683.0029    4.3599968    4.3599968    4.3599968   -7683.0029    14748.894   -22224.915   -15572.987   -5795.5132   -15677.082    4392.3564    82.881672 
   37400    1645.9298   -104.14923    1.4892719   -102.65996    6060.7908    4.3506464    4.3506464    4.3506464    6060.7908    49570.263   -30964.281   -423.60959    2334.5239    14739.178   -16012.611    82.349574 
   37500    1649.5114   -104.15717    1.4925125   -102.66465   -13001.781    4.3538898    4.3538898    4.3538898   -13001.781    -38995.88    25673.662   -25683.125   -2343.3676   -41344.073   -2368.6788    82.533885 
   37600    1359.0656    -103.8864    1.2297111   -102.65669    365.38187    4.3651847    4.3651847    4.3651847    365.38187    5648.8796   -802.90855   -3749.8254   -16376.282    8988.4058   -13618.629    83.177885 
   37700    1703.8963     -104.197    1.5417212   -102.65528   -11501.838    4.3521085    4.3521085    4.3521085   -11501.838   -1987.3857   -6897.2253   -25620.903    3271.6195    -32525.97   -8328.8179    82.432627 
   37800    1163.3435   -103.72596    1.0526176   -102.67334    30691.852    4.3340052    4.3340052    4.3340052    30691.852    54761.784    27994.435    9319.3373   -18526.134    476.70158    1176.7893    81.408224 
   37900    2093.2916   -104.57388    1.8940542   -102.67982    923.17786    4.3397171    4.3397171    4.3397171    923.17786    7962.8405   -15371.968    10178.661    3358.6108   -2278.2373   -13955.223     81.73052 
   38000    854.40329    -103.4755   0.77308205   -102.70242    1205.0551    4.3575942    4.3575942    4.3575942    1205.0551   -14908.162    26311.002   -7787.6751   -9950.3901   -28021.105    5017.2179    82.744731 
   38100    2012.9328    -104.4831    1.8213439   -102.66176   -12442.301    4.3650962    4.3650962    4.3650962   -12442.301    30270.442   -50866.351   -16730.993   -12260.216     15240.43    1536.6538    83.172824 
   38200    1262.3881   -103.80712    1.1422353   -102.66488   -21334.448    4.3445157    4.3445157    4.3445157   -21334.448   -16534.541   -8419.5381   -39049.266    8520.0981   -43246.458   -11578.259    82.001939 
   38300    1564.6435   -104.07235    1.4157223   -102.65663    38930.594    4.3253933    4.3253933    4.3253933    38930.594    68937.088    15625.818    32228.875   -25140.263    11124.212    7893.2025      80.9239 
   38400    1265.3874   -103.83512    1.1449491   -102.69017    17807.635     4.350506     4.350506     4.350506    17807.635    81299.618   -49280.079    21403.366    17735.738   -25582.949   -4951.4554    82.341604 
   38500    1321.1033   -103.89464     1.195362   -102.69928   -52227.949    4.3726307    4.3726307    4.3726307   -52227.949   -49918.222   -69174.854   -37590.771   -26091.286   -33983.499    3494.7756    83.604256 
   38600    1710.3874   -104.21988    1.5475945   -102.67228    6021.8779    4.3484847    4.3484847    4.3484847    6021.8779    28881.121   -23359.242    12543.755    11097.816     14262.83    2370.1022    82.226886 
   38700    1391.8347   -103.92335    1.2593613   -102.66399   -3033.4668    4.3329965    4.3329965    4.3329965   -3033.4668    8797.6953    -31746.71    13848.614   -733.78382   -36605.526    1811.9763    81.351397 
   38800    1666.7907   -104.18641    1.5081473   -102.67826   -20205.633    4.3537892    4.3537892    4.3537892   -20205.633     -33099.5   -31725.276    4207.8775   -11573.577    10402.028    2796.2269    82.528168 
   38900    1637.6293   -104.15821    1.4817614   -102.67645   -7855.5848    4.3665678    4.3665678    4.3665678   -7855.5848   -5304.4281   -20989.298    2726.9715    31748.357   -27296.589   -1664.6536    83.256974 
   39000    1201.8115   -103.75414    1.0874243   -102.66671   -5780.8928    4.3666038    4.3666038    4.3666038   -5780.8928   -4817.7572   -5444.8894   -7080.0317   -28579.563   -10980.202   -23323.856    83.259032 
   39100    1446.1398   -103.95449    1.3084977   -102.64599    20139.285    4.3472454    4.3472454    4.3472454    20139.285    16817.581     76181.29   -32581.016    12572.784   -6047.8984   -2218.9529    82.156601 
   39200    1351.2554   -103.88601    1.2226443   -102.66336   -12620.547    4.3571365    4.3571365    4.3571365   -12620.547    -19726.08   -2446.8529   -15688.708   -20247.162   -22661.037   -14166.421    82.718661 
   39300    1626.7996   -104.13147    1.4719625   -102.65951   -18119.354    4.3654387    4.3654387    4.3654387   -18119.354   -11100.452   -45903.933    2646.3237    4412.9077   -897.71839   -9467.7212    83.192408 
   39400    1841.1113   -104.31407    1.6658762   -102.64819   -30977.939    4.3696077    4.3696077    4.3696077   -30977.939   -31589.651   -12746.237    -48597.93    8643.7278   -19864.212   -5683.6342    83.430979 
   39500    1181.5892   -103.72208    1.0691268   -102.65295   -13695.693    4.3528955    4.3528955    4.3528955   -13695.693   -13333.143    219.51502   -27973.451   -28305.456    -1817.851    10339.818    82.477355 
   39600    1876.3675    -104.3522    1.6977768   -102.65442    21933.089    4.3426815    4.3426815    4.3426815    21933.089    45821.132    60479.655   -40501.521   -2833.2678    -1735.879   -310.50852    81.898121 
   39700    1265.2643   -103.81991    1.1448378   -102.67508   -1571.7374    4.3563285    4.3563285    4.3563285   -1571.7374    50268.113   -35977.587   -19005.739   -48165.222     4290.443    5417.0804    82.672649 
   39800    1250.4182   -103.80815    1.1314047   -102.67674    10044.131    4.3607053    4.3607053    4.3607053    10044.131    53090.393   -17992.593   -4965.4073    9972.6271    11.387346    1878.9196    82.922086 
   39900    2189.4023   -104.63937    1.9810172   -102.65835   -28642.793    4.3650643    4.3650643    4.3650643   -28642.793   -38579.224   -26537.379   -20811.774   -14418.453     1504.704   -6004.1072    83.171002 
   40000     1145.371   -103.69504    1.0363557   -102.65868   -16804.001    4.3584823    4.3584823    4.3584823   -16804.001    25248.904   -61438.782   -14222.124    6937.3377   -10018.213    11560.004    82.795333 
   40100    1851.6197   -104.32922    1.6753844   -102.65383    24913.012    4.3528185    4.3528185    4.3528185    24913.012     59461.09    2277.0788    13000.868    3157.8278   -6829.2657   -10527.502    82.472977 
   40200    994.03908   -103.57908   0.89942745   -102.67965   -8185.0802    4.3625374    4.3625374    4.3625374   -8185.0802     58259.52   -54081.951   -28732.809   -13260.118   -25586.347    8725.6076    83.026644 
   40300    1701.9955   -104.21381    1.5400013   -102.67381   -8382.2115    4.3564578    4.3564578    4.3564578   -8382.2115    20382.005   -18383.404   -27145.236    6631.1462   -230.11762   -14121.128    82.680011 
   40400    1588.3236   -104.12253    1.4371486   -102.68538   -527.95887    4.3557739    4.3557739    4.3557739   -527.95887    5919.5289    4757.6455   -12261.051    5455.7686    6277.2735     2105.573    82.641079 
   40500    1145.3998   -103.71865    1.0363818   -102.68227     7222.806    4.3677423    4.3677423    4.3677423     7222.806    68457.111    -12071.84   -34716.853    7272.5831   -10045.009   -8392.3042    83.324176 
   40600    1280.5247   -103.81566    1.1586457   -102.65702     8991.062    4.3697989    4.3697989    4.3697989     8991.062    17178.137   -37.815149    9832.8641    28681.344    1023.2151    5046.8516    83.441933 
   40700    1413.7927   -103.92237    1.2792294   -102.64314    -13509.23    4.3651006    4.3651006    4.3651006    -13509.23   -5798.6278   -36526.866    1797.8045   -27645.342   -3881.6052    2306.7769    83.173079 
   40800    1701.1673    -104.1856     1.539252   -102.64635     22099.83    4.3450079    4.3450079    4.3450079     22099.83    50224.719   -4735.9326    20810.703    38200.272    9239.5139    6154.0017     82.02981 
   40900    1233.4968   -103.80012    1.1160938   -102.68402    10638.277    4.3558007    4.3558007    4.3558007    10638.277    45089.564   -39448.224    26273.492   -35264.226   -68.763928    -9263.205    82.642608 
   41000    1567.4507    -104.0932    1.4182623   -102.67494   -17798.373     4.375585     4.375585     4.375585   -17798.373   -12157.589   -36772.914   -4464.6159    17078.526    -1031.956   -21.096577    83.773828 
   41100    1753.4837   -104.24163    1.5865889   -102.65504   -36826.742    4.3662009    4.3662009    4.3662009   -36826.742   -37841.753   -51587.288   -21051.185    6746.2788    5420.1945   -19405.479    83.235991 
   41200    985.85967   -103.55136   0.89202655   -102.65934    19836.243    4.3399392    4.3399392    4.3399392    19836.243    27763.946   -22255.786    54000.571    2987.6116   -2125.5289    7106.6539    81.743067 
   41300    1948.9515   -104.44301    1.7634523   -102.67955    4024.4835    4.3352052    4.3352052    4.3352052    4024.4835    -4385.714   -12613.206     29072.37    41844.609    6628.6503   -19485.088    81.475867 
   41400    1123.9685   -103.70883    1.0169903   -102.69184   -13111.953    4.3709665    4.3709665    4.3709665   -13111.953    20542.902    -60936.33    1057.5689   -17088.138   -5149.0688    13869.853    83.508836 
   41500    1650.4857   -104.15865    1.4933942   -102.66525    -29206.86    4.3666575    4.3666575    4.3666575    -29206.86   -32528.762    -53072.04   -2019.7789    64460.766   -7487.7449   -11690.817    83.262105 
   41600    1680.3016   -104.17192    1.5203722   -102.65155     19913.16    4.3483021    4.3483021    4.3483021     19913.16    28468.986     -9647.23    40917.725   -38671.084   -1093.3143    15593.326    82.216529 
   41700    887.68617   -103.48435   0.80319711   -102.68115    12182.037    4.3394726    4.3394726    4.3394726    12182.037   -17064.893    5978.0442    47632.959    62528.492   -4232.1009   -3228.8396    81.716704 
   41800    2393.5533    -104.8443    2.1657373   -102.67856   -9787.5464    4.3595254    4.3595254    4.3595254   -9787.5464    13258.056     -8803.39   -33817.305   -24740.074    -10438.74    18881.709    82.854794 
   41900    859.29723   -103.46565   0.77751019   -102.68814    2650.5832    4.3628203    4.3628203    4.3628203    2650.5832   -17535.632   -13913.176    39400.557    40162.241   -5027.2374     12630.09    83.042797 
   42000    1983.7694   -104.46059    1.7949562   -102.66563    9272.4589    4.3555881    4.3555881    4.3555881    9272.4589    41569.837    1400.9891   -15153.449   -7847.0416   -7479.6636    13139.828    82.630505 
   42100    1288.0657   -103.83869    1.1654689   -102.67322    4909.4661    4.3495562    4.3495562    4.3495562    4909.4661   -32496.229   -17511.483    64736.111    40177.513    4853.4753    1332.7383    82.287682 
   42200    1546.4302   -104.07515    1.3992426   -102.67591    14475.242    4.3540453    4.3540453    4.3540453    14475.242     35737.88    2676.6105    5011.2352   -1894.2966   -16759.563    14357.811    82.542729 
   42300     1314.495   -103.86253    1.1893827   -102.67315   -23087.307    4.3676415    4.3676415    4.3676415   -23087.307   -72779.148   -26738.877    30256.104    34938.508    10636.781   -12683.207    83.318404 
   42400    1469.1281   -103.98929     1.329298      -102.66    4895.0221    4.3544126    4.3544126    4.3544126    4895.0221    16390.945    -11151.89    9446.0117    20784.264   -31218.173    15256.402    82.563624 
   42500    1679.4486   -104.18367    1.5196004   -102.66407   -140.31289    4.3508818    4.3508818    4.3508818   -140.31289   -22753.969   -7532.2617    29865.292     14060.09    17058.342   -17033.963    82.362944 
   42600    1057.7468   -103.63619   0.95707149   -102.67912   -6165.9497    4.3561308    4.3561308    4.3561308   -6165.9497    -38647.83   -6221.3156    26371.296    43915.367   -11339.238    10747.383    82.661396 
   42700    1919.9683   -104.40766    1.7372277   -102.67043   -16730.802    4.3577533    4.3577533    4.3577533   -16730.802   -8820.5808   -30632.218   -10739.606    1151.6774    15058.692   -21222.198    82.753794 
   42800    1100.6618   -103.66419   0.99590194   -102.66829   -25289.998    4.3509956    4.3509956    4.3509956   -25289.998   -43465.642   -42443.896    10039.544    63489.567    2465.5447   -391.51086    82.369408 
   42900    2035.1515   -104.49358    1.8414479   -102.65214    1050.6849    4.3422402    4.3422402    4.3422402    1050.6849   -3924.4979    3192.1217     3884.431    -9735.578   -1854.5033   -1877.0495    81.873154 
   43000    972.56787   -103.55957   0.87999985   -102.67957   -2594.3046    4.3522526    4.3522526    4.3522526   -2594.3046   -12872.479    -23883.92    28973.486    64503.988    9716.5066   -4110.1777    82.440813 
   43100    2294.9322   -104.73061    2.0765029   -102.65411   -9863.2144    4.3566501    4.3566501    4.3566501   -9863.2144   -8580.5643    14277.779   -35286.858    -22771.71    5323.6173    2967.4601    82.690965 
   43200    621.24908    -103.2245   0.56211922   -102.66238    18089.763    4.3493423    4.3493423    4.3493423    18089.763    49300.876   -20507.333    25475.745    53608.988   -8989.4113    5893.9076    82.275547 
   43300      2118.74    -104.5713    1.9170805   -102.65422   -4106.6958    4.3567667    4.3567667    4.3567667   -4106.6958    7445.7868    4703.2403   -24469.114   -14575.236     12934.25    3237.5046    82.697601 
   43400    1417.1019   -103.95084    1.2822235   -102.66862   -17574.272    4.3526639    4.3526639    4.3526639   -17574.272    -7492.771   -28238.884    -16991.16    57452.377    5272.2154   -2089.0092    82.464191 
   43500    1376.0431   -103.92044    1.2450727   -102.67536    1901.7276    4.3505782    4.3505782    4.3505782    1901.7276    9319.4709    23462.249   -27076.537    16653.922    3649.7147   -2582.5755      82.3457 
   43600    1311.6652   -103.87067    1.1868222   -102.68385    15361.757    4.3533208    4.3533208    4.3533208    15361.757     73490.72    -938.4722   -26466.975    33279.766   -5681.6472   -2015.7756    82.501532 
   43700    1637.4446   -104.17619    1.4815943   -102.69459   -29309.869    4.3621553    4.3621553    4.3621553   -29309.869   -22622.862   -51420.121   -13886.625    28407.729    6784.0185   -4313.6902    83.004832 
   43800     1644.772   -104.16887    1.4882243   -102.68065    11419.974    4.3496405    4.3496405    4.3496405    11419.974     45078.68    13912.189   -24730.948   -6794.0021    3508.7659   -2295.8043    82.292466 
   43900    982.95734   -103.57435   0.88940046   -102.68495   -9104.8745    4.3471738    4.3471738    4.3471738   -9104.8745    -10345.62   -32416.204      15447.2    66866.789   -341.95032   -3218.3264    82.152544 
   44000      2075.42   -104.54344    1.8778836   -102.66555    -8253.549    4.3616657    4.3616657    4.3616657    -8253.549    12300.395   -12433.932    -24627.11   -28053.904    14840.684   -2331.6692    82.976884 
   44100    751.88781   -103.35446   0.68032389   -102.67413    -45521.09     4.370734     4.370734     4.370734    -45521.09   -63320.742   -74364.433    1121.9056    70039.963   -9813.1956   -4040.1335    83.495512 
   44200    1941.0498    -104.3887    1.7563027   -102.63239    24087.107    4.3463099    4.3463099    4.3463099    24087.107    56474.181   -4130.8651    19918.007   -17197.655    -3675.984   -7235.7282    82.103574 
   44300    1212.1176   -103.75138    1.0967495   -102.65463   -26369.156    4.3524664    4.3524664    4.3524664   -26369.156   -55888.525   -40039.365    16820.421    69088.854    7975.4806    8035.6506    82.452966 
   44400    1584.6084   -104.08035     1.433787   -102.64656    12616.684    4.3592394    4.3592394    4.3592394    12616.684    52867.389   -18286.156    3268.8185    671.44603    2319.5746    -9662.295    82.838489 
   44500    1222.7805   -103.76156    1.1063975   -102.65516    3389.1495    4.3584259    4.3584259    4.3584259    3389.1495   -8706.3902    4782.9125    14090.926    24940.099    15766.285    7360.7574    82.792118 
   44600    1800.3572    -104.2942    1.6290011    -102.6652   -7028.9239    4.3554037    4.3554037    4.3554037   -7028.9239    14544.806   -28760.984   -6870.5945    6511.6662     12852.25   -1390.9124    82.620012 
   44700    1420.9505   -103.96962    1.2857059   -102.68391   -59.498901    4.3525472    4.3525472    4.3525472   -59.498901    3125.1002   -7182.7756    3879.1787    11799.786    100.09956    2085.5156    82.457558 
   44800    1081.2465   -103.66206   0.97833451   -102.68372    17164.177     4.337173     4.337173     4.337173    17164.177    36992.179   -26716.362    41216.715    32044.809    1545.9874   -1358.0324    81.586864 
   44900    2208.5274   -104.67713     1.998322    -102.6788   -5548.9409    4.3493824    4.3493824    4.3493824   -5548.9409    21897.107   -18675.902   -19868.028   -7675.4332    4003.8472    1458.1958    82.277821 
   45000    1220.7775   -103.79748    1.1045851   -102.69289    -11166.67    4.3548049    4.3548049    4.3548049    -11166.67   -24443.353   -5230.9116   -3825.7464    36667.073   -4108.1134    1336.6336    82.585936 
   45100    1684.5931   -104.20436    1.5242553    -102.6801    93.084746    4.3524318    4.3524318    4.3524318    93.084746    35112.106   -30357.113   -4475.7389   -8768.0685   -6969.7452    3996.9631    82.451001 
   45200    1397.8059   -103.94376    1.2647641     -102.679   -8529.8156    4.3454605    4.3454605    4.3454605   -8529.8156   -41799.574   -6847.8312    23057.958    25532.469    5815.2146    4661.9182     82.05545 
   45300    1318.6647   -103.87242    1.1931555   -102.67926    16993.661    4.3560975    4.3560975    4.3560975    16993.661    53963.499    25264.823   -28247.338    5747.3425   -7498.2766   -5918.9838    82.659498 
   45400    1628.0755   -104.13679    1.4731169   -102.66367   -29425.611    4.3616226    4.3616226    4.3616226   -29425.611   -39309.973   -39104.286   -9862.5742    38900.651    5656.7374   -4375.3301    82.974428 
   45500    1379.0511   -103.91108    1.2477945   -102.66329   -5036.1698     4.352586     4.352586     4.352586   -5036.1698    43846.181   -45749.659   -13205.031    8675.1898    317.20092    7054.0203    82.459765 
   45600    1789.6101    -104.2799    1.6192768   -102.66062    18703.828    4.3414902    4.3414902    4.3414902    18703.828    4717.7436    37350.217    14043.525    12383.829   -3257.8225   -7065.4273    81.830741 
   45700    1038.0026   -103.62703   0.93920656   -102.68782    23308.223     4.344702     4.344702     4.344702    23308.223    29261.096    23592.153    17071.422    15039.094   -2927.3318    2444.8884    82.012488 
   45800    1902.5463   -104.40175    1.7214639   -102.68029   -14600.783    4.3618048    4.3618048    4.3618048   -14600.783   -9596.0633   -37832.506    3626.2205   -4338.9918   -1902.6473    5853.4744    82.984823 
   45900    1148.2043   -103.71687    1.0389194   -102.67795   -6383.7254    4.3643005    4.3643005    4.3643005   -6383.7254   -9687.8241   -23059.715    13596.362     20536.55    8683.9767    4860.2277    83.127352 
   46000    1834.9829   -104.31883    1.6603311    -102.6585    13536.414    4.3458133    4.3458133    4.3458133    13536.414   -5416.1477   -15130.668    61156.059   -11309.555    470.18073    1694.8105    82.075435 
   46100    1281.4559   -103.82858    1.1594882   -102.66909    2343.7717    4.3395864    4.3395864    4.3395864    2343.7717   -19440.472   -32576.503     59048.29    33452.863     7896.755    7087.8484    81.723137 
   46200    1709.1984    -104.2081    1.5465186   -102.66158    3284.6662    4.3591486    4.3591486    4.3591486    3284.6662    17161.434   -23567.656    16260.221   -6276.8548    13871.879    1200.7834    82.833311 
   46300    1488.4502    -104.0038     1.346781   -102.65702   -13687.722    4.3617311    4.3617311    4.3617311   -13687.722   -51367.373   -774.14764    11078.356    22530.013    224.12056    2558.6494    82.980615 
   46400    1531.2314   -104.03463    1.3854903   -102.64914   -12607.884    4.3505104    4.3505104    4.3505104   -12607.884   -34133.778    -25519.49    21829.615   -5899.9577    1602.8056    6227.2892    82.341853 
   46500    1624.4715    -104.1206    1.4698559   -102.65074    29537.609    4.3373088    4.3373088    4.3373088    29537.609    13343.913    37157.404    38111.508    14955.965   -5781.2743   -13907.914     81.59453 
   46600    1213.8518   -103.78387    1.0983186   -102.68555   -5778.6089    4.3548841    4.3548841    4.3548841   -5778.6089   -50688.158   -36908.484    70260.815     4204.583   -2888.1025   -15902.949    82.590442 
   46700     1400.752   -103.92382    1.2674299   -102.65639    15261.027    4.3605648    4.3605648    4.3605648    15261.027   -3621.3134   -11202.371    60606.764     6379.277    4067.5783   -26577.223     82.91407 
   46800    1293.0081   -103.82681    1.1699409   -102.65687   -4074.1173    4.3469982    4.3469982    4.3469982   -4074.1173   -38689.438    28034.709   -1567.6232    26237.536   -4588.0741   -3092.3928    82.142588 
   46900    2011.3844    -104.4645    1.8199428   -102.64456    7622.1555    4.3392919    4.3392919    4.3392919    7622.1555    8160.6713     -31002.9    45708.696    -7752.618    3869.4139   -6649.2871    81.706497 
   47000    879.06522   -103.46284   0.79539668   -102.66744   -21109.021    4.3500206    4.3500206    4.3500206   -21109.021   -52597.972    7386.9068   -18115.998    37740.154   -2261.5018   -6986.0893    82.314044 
   47100    2057.9921   -104.51095    1.8621145   -102.64884   -12632.765    4.3591568    4.3591568    4.3591568   -12632.765   -33176.481   -18678.837    13957.024   -18684.729   -12584.928   -2268.4476    82.833779 
   47200    1334.1987   -103.86012     1.207211   -102.65291   -14995.202     4.347442     4.347442     4.347442   -14995.202   -36565.574   -54658.473    46238.442     38995.02    3329.6679   -12767.415    82.167748 
   47300    1369.2716   -103.88182    1.2389457   -102.64287    15353.818    4.3450807    4.3450807    4.3450807    15353.818   -36951.109    50526.285    32486.277   -2531.1887    -3819.227    11760.944    82.033937 
   47400    1384.4928   -103.91243    1.2527182   -102.65971   -2027.2562    4.3568361    4.3568361    4.3568361   -2027.2562    10524.912   -63282.638    46675.958    31099.085    16649.966   -15341.429    82.701553 
   47500    1961.3514   -104.42598     1.774672   -102.65131   -31991.956    4.3660708    4.3660708    4.3660708   -31991.956   -45413.633   -15985.657   -34576.577   -4399.8498   -13616.747    18403.679    83.228548 
   47600    916.47062   -103.48077   0.82924188   -102.65152     20126.34    4.3489356    4.3489356    4.3489356     20126.34    43316.522    8838.9787    8223.5186    19902.301    -9866.502   -485.90211    82.252465 
   47700    1906.0374   -104.36986    1.7246227   -102.64524    9300.5854    4.3461671    4.3461671    4.3461671    9300.5854   -13486.574   -10600.132    51988.462   -793.65666   -2160.9901   -7316.6296    82.095483 
   47800    1468.2792   -103.99303    1.3285299    -102.6645    604.63314    4.3505272    4.3505272    4.3505272    604.63314   -11437.786    2662.4383    10589.247    12529.771   -21894.589   -2511.5262    82.342807 
   47900    1365.1342   -103.90765    1.2352021   -102.67245    8331.1614    4.3573974    4.3573974    4.3573974    8331.1614   -8654.0104   -24446.227    58093.721    25526.348    15619.224    -21505.08    82.733521 
   48000    1676.5018   -104.19031     1.516934   -102.67337   -13761.685    4.3619622    4.3619622    4.3619622   -13761.685    7557.6941   -17633.062   -31209.686   -680.82958   -17595.818    12537.465    82.993811 
   48100    1401.7467   -103.93514    1.2683299   -102.66681      1451.97    4.3541363    4.3541363    4.3541363      1451.97   -32624.714   -25343.168    62323.792    32115.892   -8629.0625   -12572.852    82.547908 
   48200    1475.6052    -103.9802    1.3351586   -102.64504    4957.0182    4.3572123    4.3572123    4.3572123    4957.0182    8807.4218    7135.0692   -1071.4362   -2648.9841   -22039.462   -3085.3587    82.722976 
   48300    1209.0768   -103.74771    1.0939981   -102.65371    549.29979    4.3531307    4.3531307    4.3531307    549.29979   -17426.187   -28401.537    47475.623    20384.615   -21101.804   -10509.854    82.490726 
   48400    1726.6291   -104.21715    1.5622903   -102.65486    12555.662    4.3596244    4.3596244    4.3596244    12555.662    4671.6677    37621.928   -4626.6096   -4167.1888    375.89379   -3050.1038     82.86044 
   48500     1202.884    -103.7527    1.0883947    -102.6643   -852.64796    4.3553137    4.3553137    4.3553137   -852.64796    3780.7587   -28186.392     21847.69    26363.048   -8038.9697   -8173.1028    82.614891 
   48600    1439.0533   -103.96633    1.3020857   -102.66425    21729.371    4.3582229    4.3582229    4.3582229    21729.371    60196.085     5621.132   -629.10366   -9125.2825    10284.142    10325.798     82.78055 
   48700    1341.4706    -103.8837    1.2137908   -102.66991    3279.6938    4.3566071    4.3566071    4.3566071    3279.6938   -2124.2097   -10552.731    22516.022    17208.022    -5819.051    9381.5026    82.688515 
   48800    1456.1182   -103.98139    1.3175264   -102.66386    2264.2529    4.3498464    4.3498464    4.3498464    2264.2529    86.679685   -5824.2947    12530.374     25147.23   -3335.8712   -13168.771    82.304158 
   48900    1530.9224   -104.05386    1.3852107   -102.66865     12688.82    4.3564511    4.3564511    4.3564511     12688.82    29323.375    28070.364   -19327.278   -15128.672   -9361.6251    15430.121    82.679634 
   49000    1252.8869   -103.81377    1.1336384   -102.68013    1898.9351    4.3570742    4.3570742    4.3570742    1898.9351   -4057.3813    -5866.641    15620.828    32782.154   -16170.849   -6813.1245    82.715116 
   49100    1741.5072   -104.24497    1.5757523   -102.66922   -2950.7391    4.3716804    4.3716804    4.3716804   -2950.7391   -11022.094    7210.5195   -5040.6428   -7888.6741     6515.353    735.85677    83.549762 
   49200    1321.7815   -103.84324    1.1959757   -102.64726   -20233.672    4.3674158    4.3674158    4.3674158   -20233.672   -31887.122   -74106.201    45292.308    48852.671   -11767.572   -1573.5548    83.305488 
   49300    1978.3031   -104.39813    1.7900102   -102.60812    14523.211    4.3527698    4.3527698    4.3527698    14523.211    14667.255     16551.48    12350.897   -19380.042   -453.75487    -4286.207    82.470207 
   49400    1566.7558   -104.05368    1.4176335   -102.63605   -37995.666    4.3638105    4.3638105    4.3638105   -37995.666   -67494.691   -65980.446    19488.139    46092.437    7854.3181    284.45024    83.099356 
   49500    1604.8263   -104.10149    1.4520806   -102.64941    4125.5366    4.3527513    4.3527513    4.3527513    4125.5366    9212.7415    5883.6354    -2719.767   -984.87912    -4197.202    72.693772    82.469159 
   49600    1532.5946   -104.04431    1.3867238   -102.65758    6586.0939    4.3588821    4.3588821    4.3588821    6586.0939    28789.502   -43618.061     34586.84    15737.174   -162.02197   -15877.945     82.81812 
   49700    1341.2913   -103.86622    1.2136286   -102.65259   -11163.427     4.368596     4.368596     4.368596   -11163.427    911.69612   -44758.122    10356.146    17250.929   -19989.549   -3633.0539     83.37304 
   49800    1429.5755    -103.9319      1.29351   -102.63839    12990.396    4.3501637    4.3501637    4.3501637    12990.396   -9435.8218    -36773.69    85180.698    2574.0572   -12448.142   -25997.029    82.322168 
   49900    900.02672   -103.47909   0.81436309   -102.66473    14927.306    4.3507303    4.3507303    4.3507303    14927.306    10127.052   -9914.1503    44569.016    37493.955   -593.12496   -10986.408    82.354338 
   50000    1882.5171   -104.35879     1.703341   -102.65545    5406.0383    4.3570864    4.3570864    4.3570864    5406.0383    2222.4978    13865.932    129.68486    -6078.775   -12480.541   -27506.978    82.715807 
   50100    649.99942   -103.25883   0.58813314    -102.6707     7554.736    4.3755068    4.3755068    4.3755068     7554.736   -15429.942    3561.3344    34532.816    17383.395   -8243.0516   -6890.1865    83.769339 
   50200    1958.4939   -104.40258    1.7720864   -102.63049   -13013.969    4.3723521    4.3723521    4.3723521   -13013.969    10951.292   -25014.692   -24978.507   -107.42047   -2791.4678   -15954.379    83.588279 
   50300    1583.3371   -104.07731    1.4326367   -102.64468   -3185.2653    4.3491499    4.3491499    4.3491499   -3185.2653    33252.277   -31594.158   -11213.915    13920.567    10395.451   -11051.745    82.264629 
   50400    1479.9272    -104.0139    1.3390692   -102.67483    14823.832    4.3444284    4.3444284    4.3444284    14823.832    67046.049   -11386.177   -11188.375    3638.7396    7132.8575    18836.693    81.996992 
   50500    1603.5618   -104.14036    1.4509364   -102.68942    15158.994    4.3635102    4.3635102    4.3635102    15158.994    38509.144    13921.311   -6953.4716   -6153.7908    12091.172   -6313.3338    83.082198 
   50600    1051.1218   -103.64481   0.95107707   -102.69373   -18619.406    4.3790521    4.3790521    4.3790521   -18619.406   -62026.928    6742.8066   -574.09584    19273.563    5310.7768    26578.116    83.973129 
   50700    1918.1297   -104.37695     1.735564   -102.64139    -2816.832    4.3772889    4.3772889    4.3772889    -2816.832   -20723.608    38657.687   -26384.575   -326.22052    13583.079    7269.2877    83.871734 
   50800    940.32312   -103.48181   0.85082412   -102.63099    22153.749    4.3564126    4.3564126    4.3564126    22153.749    29827.218    -21537.35     58171.38    11703.361   -6792.2833     20987.98    82.677439 
   50900    1691.0142   -104.17251    1.5300651   -102.64245   -3918.3537    4.3585408    4.3585408    4.3585408   -3918.3537     6556.782   -5237.7874   -13074.056    803.49883    6046.6288     7144.023    82.798665 
   51000    1585.8431   -104.08609    1.4349042   -102.65119   -3839.7204    4.3634961    4.3634961    4.3634961   -3839.7204   -11407.889    -10303.35    10192.078    3783.2354   -28336.315   -20131.198    83.081397 
   51100    1437.3633   -103.96151    1.3005566   -102.66096    348.69169    4.3589704    4.3589704    4.3589704    348.69169    42949.359   -19273.463   -22629.821    10570.018    11782.239    14317.208    82.823155 
   51200    1789.3625   -104.27739    1.6190528   -102.65834   -23287.508    4.3667296    4.3667296    4.3667296   -23287.508   -37022.163    2137.2085    -34977.57   -1946.3978   -29414.721   -15294.664    83.266229 
   51300    1244.3643   -103.77346     1.125927   -102.64753    20890.156    4.3623196    4.3623196    4.3623196    20890.156    46684.712    8394.6147    7591.1407     17086.83    18522.496    13485.986     83.01421 
   51400    1659.8755   -104.14112    1.5018902   -102.63923   -896.98568     4.356492     4.356492     4.356492   -896.98568   -24366.878    31941.736   -10265.814    1952.8871   -26393.859    7227.1555    82.681957 
   51500    1185.3979   -103.72153    1.0725729   -102.64896    728.60185    4.3725466    4.3725466    4.3725466    728.60185    5845.5425   -1667.1975   -1992.5395    3809.7226    14709.501     15304.02    83.599435 
   51600    1360.5763   -103.87951    1.2310781   -102.64843   -4781.4591    4.3670136    4.3670136    4.3670136   -4781.4591   -2609.5515   -16841.343    5106.5169    17478.621   -14118.377    26702.889    83.282476 
   51700    1791.2234   -104.27081    1.6207366   -102.65007   -4633.2841    4.3564084    4.3564084    4.3564084   -4633.2841    5967.9014   -8464.7969   -11402.957   -8701.3945   -20331.824   -5391.3315    82.677201 
   51800    1177.4305   -103.72727    1.0653639    -102.6619    22643.219    4.3374774    4.3374774    4.3374774    22643.219    87774.188   -27323.206    7478.6735    17154.117   -11550.116    28923.362    81.604044 
   51900    1675.9235   -104.19852    1.5164108   -102.68211   -1163.1186     4.351298     4.351298     4.351298   -1163.1186   -4761.7394    37565.951   -36293.568    -9865.631   -25572.635   -2897.8493    82.386583 
   52000    1402.4865    -103.9363    1.2689992    -102.6673    -2104.526    4.3717334    4.3717334    4.3717334    -2104.526     39611.92   -48123.313    2197.8152   -11766.631    12073.725    16414.226    83.552803 
   52100    1687.3572   -104.18082    1.5267563   -102.65407   -28210.726     4.361416     4.361416     4.361416   -28210.726   -61362.507    8343.7853   -31613.457    16067.148   -22830.706    4343.9659    82.962635 
   52200    1456.9146   -103.97332    1.3182469   -102.65507    22939.716     4.342181     4.342181     4.342181    22939.716    39901.862   -6245.4534     35162.74    -19376.79    1842.9115    12953.441    81.869807 
   52300    1529.6089   -104.06005    1.3840223   -102.67603     14944.11    4.3404481    4.3404481    4.3404481     14944.11   -12762.858     32833.56    24761.628    27310.324   -5754.3865    14102.206    81.771829 
   52400    1145.2079   -103.72217    1.0362082   -102.68596   -7809.0846     4.368953     4.368953     4.368953   -7809.0846   -37460.037   -35119.713    49152.495   -10399.197   -2007.3693    5468.2313    83.393486 
   52500    1805.6445   -104.28485    1.6337851   -102.65106   -38791.506    4.3692341    4.3692341    4.3692341   -38791.506   -13762.544   -68188.667   -34423.309   -13210.494    2275.6401    13054.376    83.409583 
   52600    1461.3314   -103.97115    1.3222433   -102.64891    13794.813    4.3409404    4.3409404    4.3409404    13794.813   -3403.9137    8491.7118     36296.64     36723.04   -23622.065    -14281.51    81.799655 
   52700    1337.1066   -103.88111    1.2098421   -102.67127    8942.0224    4.3413526    4.3413526    4.3413526    8942.0224    51555.732   -40183.386    15453.722   -34567.755    8620.0924    26954.512    81.822957 
   52800    1870.2349   -104.36239    1.6922278   -102.67016   -21445.121    4.3696033    4.3696033    4.3696033   -21445.121    21094.896   -52418.598   -33011.662     23747.97   -18719.912   -1503.7294    83.430729 
   52900    1268.1589   -103.81431    1.1474568   -102.66685    2489.5618    4.3725668    4.3725668    4.3725668    2489.5618    16205.849   -28944.138    20206.975   -30263.598   -6555.2911    7596.4076    83.600592 
   53000    1823.1856   -104.30503    1.6496566   -102.65538   -8753.6328    4.3674956    4.3674956    4.3674956   -8753.6328    6786.0299   -1741.5845   -31305.344    86.793663    6912.1429    4997.3037    83.310059 
   53100    940.15193   -103.51974   0.85066922   -102.66907    19627.638    4.3472701    4.3472701    4.3472701    19627.638     98335.88   -14151.694   -25301.272   -15119.361   -40121.149   -1644.8257    82.158004 
   53200    1435.8873   -103.99014     1.299221   -102.69091    18875.108    4.3451382    4.3451382    4.3451382    18875.108    61234.583   -4256.1039   -353.15659   -8311.8349    18861.584    210.23638     82.03719 
   53300    1454.3303   -104.01965    1.3159086   -102.70375   -28185.329    4.3753431    4.3753431    4.3753431   -28185.329   -9981.3403   -43772.439   -30802.207    1948.6697   -27891.169   -10341.516    83.759937 
   53400    1529.4842   -104.06666    1.3839095   -102.68275   -50509.962    4.3725917    4.3725917    4.3725917   -50509.962   -47127.906   -95877.205   -8524.7739   -31101.895   -13739.831    20767.645    83.602022 
   53500    1493.6114   -104.00357     1.351451   -102.65212    19607.171    4.3429282    4.3429282    4.3429282    19607.171    50145.129    11709.363   -3032.9804    9840.6363     25097.53   -13508.214    81.912081 
   53600    1268.2902   -103.81872    1.1475756   -102.67114    -10375.69     4.346855     4.346855     4.346855    -10375.69   -2018.3562   -22491.912    -6616.803   -34887.296   -34481.791    8129.8953    82.134472 
   53700    1759.4151   -104.26636    1.5919558    -102.6744    7300.6743    4.3560923    4.3560923    4.3560923    7300.6743   -7931.9575   -10171.943    40005.923    3182.8812    21366.778    8446.4703    82.659205 
   53800    1589.7421   -104.11948    1.4384321   -102.68105   -39673.605    4.3787349    4.3787349    4.3787349   -39673.605   -24941.871   -44127.335   -49951.611   -24730.397   -13413.338   -11502.395    83.954882 
   53900    1584.7985     -104.088     1.433959   -102.65404    1426.5951    4.3697057    4.3697057    4.3697057    1426.5951    58721.851   -52327.741   -2114.3243    4742.7571     12874.74    342.61903    83.436594 
   54000    1574.5017   -104.06984    1.4246422   -102.64519    18548.955    4.3390963    4.3390963    4.3390963    18548.955   -13548.389    19333.175    49862.077   -6210.3397   -3861.8101   -4546.4575    81.695447 
   54100    1812.8206    -104.3097    1.6402782   -102.66943   -21941.825    4.3464917    4.3464917    4.3464917   -21941.825   -43853.156   -21325.809   -646.51005   -24240.506   -23744.197    4045.8934    82.113877 
   54200    1544.2858   -104.07614    1.3973022   -102.67884    14620.385     4.361144     4.361144     4.361144    14620.385    18518.477   -15273.428    40616.107    11692.128    9355.0246   -5574.1025    82.947114 
   54300    1375.0762   -103.91998    1.2441978   -102.67578   -25865.965    4.3700526    4.3700526    4.3700526   -25865.965   -28747.133   -31506.022   -17344.741   -23541.258   -32262.766     11295.78    83.456469 
   54400    1748.2554   -104.23436    1.5818582    -102.6525   -2732.8704    4.3535607    4.3535607    4.3535607   -2732.8704   -23680.267   -26119.179    41600.834    8127.4505    9625.3359    6724.3256    82.515175 
   54500    1521.3629   -104.03067    1.3765611    -102.6541    17639.694    4.3370941    4.3370941    4.3370941    17639.694    9728.6302    13709.805    29480.645    -11924.37   -29662.895    14266.558    81.582412 
   54600    1506.7564   -104.03645    1.3633449   -102.67311   -5568.7713    4.3548144    4.3548144    4.3548144   -5568.7713    1419.3467   -31486.396    13360.735    5428.4843   -6466.1107    4970.6459    82.586477 
   54700    1519.0873   -104.03922    1.3745021   -102.66472    10101.755    4.3607029    4.3607029    4.3607029    10101.755     10572.93   -3909.0327    23641.367    8650.9753     -18212.2    13822.097     82.92195 
   54800     1515.005    -104.0309    1.3708083   -102.66009   -31900.828    4.3665366    4.3665366    4.3665366   -31900.828   -46019.697   -34695.446   -14987.341    2949.9792   -10318.063    11534.365     83.25519 
   54900    1792.0806   -104.26594    1.6215122   -102.64442    8666.2195    4.3474184    4.3474184    4.3474184    8666.2195    31329.124   -10236.114    4905.6492    25615.743   -3908.6704    14746.318    82.166409 
   55000    1469.2807   -103.98943     1.329436   -102.65999    -12844.92    4.3471771    4.3471771    4.3471771    -12844.92   -29900.265    2423.8132   -11058.308   -19708.645   -28885.815    16736.526    82.152728 
   55100     1715.812   -104.21201    1.5525028   -102.65951   -4074.1876    4.3531268    4.3531268    4.3531268   -4074.1876    18913.486   -23481.084   -7654.9639    30902.584    10272.848    87.445774    82.490506 
   55200    1491.7153   -104.00923    1.3497353   -102.65949   -6719.4981    4.3606365    4.3606365    4.3606365   -6719.4981   -28687.745    3639.8893    4889.3616   -14181.469    -45767.77        23861     82.91816 
   55300    1563.8565   -104.06137    1.4150102   -102.64636   -8247.2261    4.3629041    4.3629041    4.3629041   -8247.2261   -5696.5885   -34343.495    15298.405    21332.675    15415.609    4374.3014    83.047584 
   55400    1452.8145   -103.96211    1.3145371   -102.64757   -9349.0288    4.3413296    4.3413296    4.3413296   -9349.0288   -24188.204    6699.4578   -10558.341    2936.0255   -45110.821    13695.052    81.821661 
   55500    1442.8336   -103.96422    1.3055062   -102.65871    28394.275    4.3413219    4.3413219    4.3413219    28394.275    34784.892    3463.3481    46934.584    4975.5613    5656.9966    8357.4531    81.821225 
   55600    1396.2387   -103.94442    1.2633461   -102.68107   -7961.6763      4.35327      4.35327      4.35327   -7961.6763      30105.9   -40288.942   -13701.987    9837.9739   -14382.242   -4834.8598    82.498646 
   55700     1739.662   -104.26005    1.5740827   -102.68597   -19485.748    4.3632861    4.3632861    4.3632861   -19485.748   -54595.833   -22678.839    18817.427   -5347.5021   -38365.647    3649.5981    83.069398 
   55800    1531.4176   -104.07477    1.3856588   -102.68912    18524.258    4.3501206    4.3501206    4.3501206    18524.258    36704.366   -50814.155    69682.562    18686.765    18581.586   -756.48216    82.319719 
   55900    1176.0295   -103.75879    1.0640962   -102.69469      12120.4    4.3302744    4.3302744    4.3302744      12120.4    24394.343    52199.709   -40232.851     8673.124   -44898.908    -1463.465    81.198174 
   56000    1811.6968   -104.34449    1.6392613   -102.70522    14571.665    4.3448098    4.3448098    4.3448098    14571.665    3158.4862    12502.891    28053.618    9399.5015   -674.23064    17267.434    82.018593 
   56100    1080.2731   -103.68228   0.97745378   -102.70483   -22816.361    4.3730463    4.3730463    4.3730463   -22816.361   -17996.963    4173.2396    -54625.36     7868.667   -21387.579    2330.2118    83.628098 
   56200     1746.758   -104.24253    1.5805034   -102.66203   -11011.096     4.367996     4.367996     4.367996   -11011.096   -24352.179    34715.603   -43396.713    -4252.128   -14100.628    2547.2822    83.338695 
   56300    1346.1134   -103.87854    1.2179917   -102.66055    6817.2465    4.3410078    4.3410078    4.3410078    6817.2465    24999.302   -16394.615    11847.053    7643.3567   -13617.642   -19523.568    81.803466 
   56400    1602.4976   -104.12951    1.4499735   -102.67954    6497.7603    4.3384844    4.3384844    4.3384844    6497.7603    11363.446     25813.85   -17684.016   -13688.946    -38158.26    4833.9604    81.660894 
   56500    1293.1858   -103.87019    1.1701017   -102.70008    568.54508    4.3605336    4.3605336    4.3605336    568.54508   -27176.886    45179.564   -16297.043    5103.2361   -7065.4733   -28672.496    82.912291 
   56600    1046.7722   -103.64357   0.94714145   -102.69642   -17675.213    4.3667549    4.3667549    4.3667549   -17675.213   -53332.046     48411.12   -48104.712    2793.5948   -41149.256    1473.5004    83.267679 
   56700    2101.5767    -104.5721    1.9015507   -102.67055    2081.4284    4.3352915    4.3352915    4.3352915    2081.4284   -3244.2501    9888.6914   -400.15603    819.21794    6993.4987   -13.694679    81.480731 
   56800    1062.9326   -103.65667   0.96176374   -102.69491    1986.1296    4.3389309    4.3389309    4.3389309    1986.1296   -12769.418    52435.764   -33707.958    -6012.004   -48367.733    2548.7236    81.686108 
   56900    1915.2762   -104.41268    1.7329821   -102.67969   -1042.3559    4.3649841    4.3649841    4.3649841   -1042.3559   -42273.368    39595.242   -448.94163   -9321.2397    16798.625    18731.393     83.16642 
   57000    703.61045   -103.31271   0.63664152   -102.67607    -24150.96    4.3781062    4.3781062    4.3781062    -24150.96   -44978.104    4721.7687   -32196.545    1870.1029   -46287.157   -8777.2749    83.918723 
   57100     2037.565   -104.47719    1.8436316   -102.63356    12672.343    4.3460624    4.3460624    4.3460624    12672.343   -5835.8119     13687.72    30165.122   -15756.317    15550.683    1424.8043    82.089547 
   57200    902.90109   -103.46879   0.81696388   -102.65183    21565.219    4.3296928    4.3296928    4.3296928    21565.219    19997.879    30628.801    14068.975   -7780.0509   -50459.738   -836.72284    81.165462 
   57300    2125.8849    -104.5778    1.9235453   -102.65425   -9401.5628    4.3542186    4.3542186    4.3542186   -9401.5628   -15205.924   -12094.149   -904.61536    3244.1352    12466.637   -20524.109    82.552586 
   57400    1075.2752   -103.63913   0.97293157    -102.6662   -814.55034    4.3601427    4.3601427    4.3601427   -814.55034   -23126.839    4661.8985     16021.29   -19756.088   -42415.426    10120.165    82.889993 
   57500    1720.4779   -104.21366    1.5567245   -102.65694    1540.7552    4.3624792    4.3624792    4.3624792    1540.7552    23532.729   -1590.5372   -17319.926    9731.7457    592.58974   -6998.0462    83.023324 
   57600    1175.5092   -103.72462    1.0636254   -102.66099    11601.038    4.3452839    4.3452839    4.3452839    11601.038   -48618.042    29480.431    53940.725   -13486.776   -16493.792    1623.6091    82.045442 
   57700    1541.0325   -104.06911    1.3943586   -102.67476   -132.12952    4.3391411    4.3391411    4.3391411   -132.12952   -9428.6983    6542.5955    2489.7143   -6017.6538   -38993.295   -7602.3065    81.697979 
   57800    1694.0983   -104.21168    1.5328557   -102.67882   -3241.9947    4.3574281    4.3574281    4.3574281   -3241.9947    -56393.17   -10683.082    57350.268   -10240.937    7563.9129   -3780.8294     82.73527 
   57900    903.20418   -103.48737   0.81723813   -102.67013   -18128.655    4.3707517    4.3707517    4.3707517   -18128.655   -61194.068    2124.8195    4683.2822   -14108.152   -48198.333   -3382.9264    83.496527 
   58000    2265.3241    -104.6841    2.0497129   -102.63439    7970.1411    4.3476043    4.3476043    4.3476043    7970.1411    -7711.052   -19942.975     51564.45    5250.6983    14117.125   -214.64042    82.176949 
   58100     864.7334   -103.43984   0.78242895   -102.65741   -10021.458    4.3410332    4.3410332    4.3410332   -10021.458   -78068.193    28800.088    19203.732   -31769.634   -50199.951    4327.6855    81.804903 
   58200    2213.9756    -104.6499    2.0032517   -102.64665    12385.384    4.3518504    4.3518504    4.3518504    12385.384   -7900.4178    21633.863    23422.706    11246.097    21328.013   -9592.5457     82.41796 
   58300    992.47404   -103.56251   0.89801137    -102.6645   -31132.828    4.3627673    4.3627673    4.3627673   -31132.828   -52166.672   -14506.407   -26725.405   -30582.559   -57459.282    -2297.023    83.039774 
   58400    1812.1756   -104.27855    1.6396946   -102.63886    14316.576    4.3594034    4.3594034    4.3594034    14316.576   -33001.364    40793.994    35157.099    378.30156    17285.442    3056.6397    82.847836 
   58500    1417.7725   -103.93306    1.2828303   -102.65023   -9123.3268    4.3440969    4.3440969    4.3440969   -9123.3268   -34081.726     27100.38   -20388.634    1293.2515   -61501.109   -11090.071    81.978225 
   58600    1383.1214   -103.90715    1.2514773   -102.65567    22932.763    4.3401191    4.3401191    4.3401191    22932.763   -26659.002    37980.432    57476.857   -21265.975    16007.768     10941.53    81.753235 
   58700    1562.4233   -104.07714    1.4137135   -102.66343   -4063.6241    4.3498852    4.3498852    4.3498852   -4063.6241   -46651.879    48496.262   -14035.255    5461.8108   -53355.246   -6127.3729    82.306359 
   58800    1474.3009   -104.00382    1.3339785   -102.66985   -31476.764    4.3599074    4.3599074    4.3599074   -31476.764   -74831.423   -22441.492    2842.6236   -45052.348   -575.33098   -7841.4187    82.876575 
   58900    1649.9593   -104.13827    1.4929178   -102.64535     7799.272    4.3533093    4.3533093    4.3533093     7799.272   -48435.913    37662.485    34171.244    2899.3064   -21828.052   -10578.454    82.500876 
   59000    1233.8742   -103.77156    1.1164353   -102.65513   -22675.873    4.3523214    4.3523214    4.3523214   -22675.873   -40240.734   -39680.055    11893.169   -39710.897   -30844.739     1970.909    82.444726 
   59100    1715.3409   -104.20388    1.5520765   -102.65181    28026.803    4.3493942    4.3493942    4.3493942    28026.803   -33330.406    21712.922    95697.894    1149.4358   -2685.7341   -5490.5286    82.278488 
   59200    1200.5493   -103.75896    1.0862822   -102.67268   -15201.394    4.3476619    4.3476619    4.3476619   -15201.394   -48059.001   -24475.539    26930.357   -45755.278   -24263.537    17243.235    82.180216 
   59300    1891.3252   -104.37469    1.7113108   -102.66338    7635.5298     4.352408     4.352408     4.352408    7635.5298   -2635.7779   -30953.524    56495.892   -88.516713    9449.1382    -2366.606    82.449644 
   59400     1126.866   -103.69194     1.019612   -102.67233    -1675.636    4.3490143    4.3490143    4.3490143    -1675.636   -31330.167    28820.685   -2517.4261   -31224.443   -9563.7846    1762.9009    82.256932 
   59500    1828.2135   -104.32287     1.654206   -102.66866    -13053.87    4.3513526    4.3513526    4.3513526    -13053.87    -28111.63   -29863.632    18813.653   -11720.045   -780.10587     16818.83    82.389685 
   59600    1281.2741    -103.8203    1.1593237   -102.66098    8355.4993    4.3584431    4.3584431    4.3584431    8355.4993   -36357.365   -6373.5291    67797.392   -20767.078    2696.5227    12601.007    82.793102 
   59700    1117.2804   -103.66317    1.0109388   -102.65223     6619.443    4.3515757    4.3515757    4.3515757     6619.443   -47503.599    15230.832    52131.096   -11354.462   -10895.937    10722.773    82.402355 
   59800    1886.5963   -104.35091     1.707032   -102.64388   -12348.159     4.352047     4.352047     4.352047   -12348.159   -37882.373   -14173.662    15011.559   -31083.193    7026.7105   -4419.2514    82.429133 
   59900    924.85379   -103.50125   0.83682715   -102.66442    6059.0737    4.3561138    4.3561138    4.3561138    6059.0737   -78092.357    14653.873    81615.705   -16579.707   -27446.866   -12356.057    82.660426 
   60000    1879.4684   -104.34625    1.7005825   -102.64566    1760.8605    4.3480963    4.3480963    4.3480963    1760.8605   -21908.604   -18284.092    45475.277   -9480.7312    5112.9724    4311.7986    82.204854 
   60100    1402.5818    -103.9231    1.2690855   -102.65401   -29981.852    4.3554112    4.3554112    4.3554112   -29981.852   -69661.677   -16484.982   -3798.8967   -33747.595   -26974.824    7358.2278    82.620436 
   60200    1603.8926   -104.10229    1.4512357   -102.65105   -8708.4428    4.3536295    4.3536295    4.3536295   -8708.4428     -39816.7   -26191.042    39882.413    3311.2479    -18314.72    9076.6983    82.519085 
   60300    1380.7858   -103.90638     1.249364   -102.65701   -34.098815    4.3497522    4.3497522    4.3497522   -34.098815   -45614.292   -37433.905    82945.901   -39178.036    6586.6669    -1974.016    82.298809 
   60400    1561.2248   -104.06366     1.412629   -102.65103   -16618.685     4.354532     4.354532     4.354532   -16618.685   -51621.025   -14667.871    16432.841    12375.398    -41839.02   -17093.471    82.570415 
   60500    1860.7178   -104.32317    1.6836166   -102.63956   -24524.828    4.3586783    4.3586783    4.3586783   -24524.828   -25032.385   -61542.094    12999.994   -30224.287    10771.022   -11486.157    82.806505 
   60600    1683.4065   -104.16838    1.5231816    -102.6452   -27605.056      4.35782      4.35782      4.35782   -27605.056   -37828.229   -28461.641   -16525.299    24908.612   -42104.159   -13613.264    82.757594 
   60700    1465.6369   -103.97638    1.3261391   -102.65024   -765.55471    4.3538615    4.3538615    4.3538615   -765.55471   -7381.1438   -50894.713    55979.192   -24457.343    10735.676   -11675.643    82.532275 
   60800    1694.6351   -104.17876    1.5333415   -102.64541    359.17542     4.354323     4.354323     4.354323    359.17542    9827.8892     -12435.8    3685.4369    23833.021   -15071.557   -3526.0114    82.558525 
   60900    945.24047   -103.51652   0.85527344   -102.66124    6634.5002    4.3512153    4.3512153    4.3512153    6634.5002   -16542.918   -37187.507    73633.926   -23634.827   -12789.301    -11985.42    82.381884 
   61000    1755.0759   -104.24607    1.5880295   -102.65804    9691.9013    4.3456679    4.3456679    4.3456679    9691.9013   -12345.682    19111.642    22309.743   -19599.405   -7752.0641    3187.3391      82.0672 
   61100    1425.5517   -103.96552    1.2898691   -102.67566   -23803.167     4.356818     4.356818     4.356818   -23803.167   -21355.969   -19987.449   -30066.082    6343.7334    -36864.07     6573.744     82.70052 
   61200    1578.5872   -104.07575    1.4283389   -102.64741    5882.1678    4.3692026    4.3692026    4.3692026    5882.1678   -16507.219    29770.337    4383.3863   -14496.185    650.55826    -1419.848    83.407779 
   61300    1327.8156   -103.83934    1.2014354   -102.63791   -18081.627    4.3626136    4.3626136    4.3626136   -18081.627   -6604.7319    10369.016   -58009.164    14165.629    -32736.08    9191.6335    83.030998 
   61400    1979.7993    -104.4216    1.7913641   -102.63023    47.587343    4.3498793    4.3498793    4.3498793    47.587343    17608.509   -21585.528    4119.7804   -8936.6156    10982.737   -6967.7353    82.306026 
   61500    971.12628   -103.53077   0.87869547   -102.65207    24963.211     4.341518     4.341518     4.341518    24963.211   -66646.102    106190.63    35345.104    10802.035   -26062.915   -3030.3348    81.832311 
   61600    1964.7564   -104.43927    1.7777529   -102.66151   -7696.4898    4.3615171    4.3615171    4.3615171   -7696.4898   -10443.313   -20392.492    7746.3361   -14831.965    5805.1045    18007.249    82.968405 
   61700    1188.3108   -103.72368    1.0752086   -102.64848   -25237.337    4.3795945    4.3795945    4.3795945   -25237.337   -71273.381    35152.075   -39590.704    6001.9539   -19558.768    9170.5182    84.004335 
   61800    1307.1155   -103.80779    1.1827056   -102.62508    9098.0796    4.3646057    4.3646057    4.3646057    9098.0796   -5489.8138    18778.996    14005.057    8144.8092   -19851.373    4412.3078     83.14479 
   61900    1667.6899    -104.1327    1.5089608   -102.62374    24594.599    4.3408126    4.3408126    4.3408126    24594.599    99819.331   -24558.182   -1477.3514   -1214.2561   -26595.058    2267.3467    81.792433 
   62000    1529.9542   -104.05545    1.3843347   -102.67112   -29695.531    4.3337324    4.3337324    4.3337324   -29695.531   -17255.894   -26000.451    -45830.25    26928.081   -30884.468    502.01514    81.392854 
   62100    1863.8389   -104.36985    1.6864406   -102.68341    15188.832    4.3406471    4.3406471    4.3406471    15188.832    69719.879   -22665.755    -1487.627   -7288.4094     28020.99    632.10807    81.783073 
   62200    874.49834    -103.4897   0.79126448   -102.69844   -24556.553     4.360356     4.360356     4.360356   -24556.553   -2200.9752   -30199.503    -41269.18     17309.79   -40074.451   -3107.3127    82.902159 
   62300    1933.9936   -104.42306     1.749918   -102.67314   -15253.763    4.3472298    4.3472298    4.3472298   -15253.763   -12478.614   -13251.901   -20030.774    11067.136    18577.693   -550.62752     82.15572 
   62400    1505.7862   -104.03262     1.362467   -102.67016    6631.4822    4.3277818    4.3277818    4.3277818    6631.4822    4702.8384    48280.722   -33089.114   -16615.295     -41125.6     3780.218    81.058036 
   62500     1169.868   -103.73923    1.0585212   -102.68071   -375.66936    4.3385758    4.3385758    4.3385758   -375.66936    44951.819    -28471.75   -17607.078    27142.822   -1586.8048   -12458.521    81.666055 
   62600      1645.68   -104.16835    1.4890459    -102.6793    2606.2742    4.3519085    4.3519085    4.3519085    2606.2742    -10036.48    51143.318   -33288.016    -1827.301   -74.763884    5507.3721    82.421261 
   62700    1778.6026   -104.29119     1.609317   -102.68187   -27037.363    4.3478064    4.3478064    4.3478064   -27037.363   -30490.262    -8965.902   -41655.925    9553.3996   -33891.757   -15289.631    82.188415 
   62800    1450.1246   -103.98649    1.3121032   -102.67439   -24313.605    4.3515254    4.3515254    4.3515254   -24313.605    -57922.83    3254.5441    -18272.53    13778.113    18331.565    2150.1027    82.399496 
   62900    1796.5172   -104.27738    1.6255265   -102.65186    10323.274    4.3455179    4.3455179    4.3455179    10323.274    1417.3331    29890.232   -337.74269    6633.0349   -15129.215   -3830.9797    82.058697 
   63000    1256.7896   -103.80016    1.1371696   -102.66299     -14868.4    4.3538725    4.3538725    4.3538725     -14868.4    45826.648   -45834.734   -44597.115    30023.039   -3200.1366    2769.1399    82.532905 
   63100    1744.1292   -104.22076    1.5781248   -102.64264     13095.71    4.3468128    4.3468128    4.3468128     13095.71    22447.659    26041.576   -9202.1053    7981.0101    793.01253   -5310.9513    82.132077 
   63200    1212.1127   -103.75481     1.096745   -102.65807    7293.8115    4.3516312    4.3516312    4.3516312    7293.8115    1368.8449    10120.375    10392.215    42317.306   -13414.766    3523.2475    82.405506 
   63300    1758.7342   -104.24082    1.5913396   -102.64948   -11173.041    4.3594595    4.3594595    4.3594595   -11173.041   -9550.6771    27372.427   -51340.871   -2108.2886    3790.4876    14441.557    82.851034 
   63400     1472.457   -103.97504      1.33231   -102.64273    8559.6314    4.3514704    4.3514704    4.3514704    8559.6314   -13268.312    25429.262    13517.943    23518.756   -13281.464    7335.1381    82.396373 
   63500     1340.812   -103.86764    1.2131949   -102.65445   -21394.563    4.3561208    4.3561208    4.3561208   -21394.563   -8658.2527   -52636.192   -2889.2441   -8221.7867    13125.368     6258.806    82.660829 
   63600    2117.6868   -104.57113    1.9161276   -102.65501   -837.97543    4.3398582    4.3398582    4.3398582   -837.97543    9452.7453    5420.3465   -17387.018    7219.8581    -8106.144   -795.37545    81.738492 
   63700    1085.0183     -103.659    0.9817474   -102.67726    34365.257    4.3375281    4.3375281    4.3375281    34365.257    64124.291    23994.414    14977.066    26420.393    4978.4041   -5657.5619    81.606902 
   63800    1244.6586   -103.79981    1.1261932   -102.67362     14971.66    4.3595244    4.3595244    4.3595244     14971.66    13843.304    51396.906    -20325.23    1906.1969    7100.1059   -2392.7885    82.854738 
   63900    1583.4571   -104.07963    1.4327452   -102.64688   -14183.775    4.3628984    4.3628984    4.3628984   -14183.775   -26130.747    7818.9256   -24239.505    29448.386    4512.1933   -12973.345    83.047259 
   64000    1159.5661   -103.69502    1.0491998   -102.64582   -854.83708    4.3450806    4.3450806    4.3450806   -854.83708    71838.214   -25580.703   -48822.022     691.6842    15587.567   -2853.7939     82.03393 
   64100    1840.9623   -104.30974    1.6657414     -102.644    6222.0572    4.3420173    4.3420173    4.3420173    6222.0572    7201.7914   -135.21359    11599.594   -5206.5626    4810.1569     13803.09    81.860549 
   64200    1412.6528   -103.94447    1.2781979   -102.66627   -25578.151    4.3597293    4.3597293    4.3597293   -25578.151    33175.645   -64986.809   -44923.289   -602.37518    15678.906    -15615.95    82.866422 
   64300    1376.3161   -103.90509    1.2453198   -102.65977    -4564.717    4.3553871    4.3553871    4.3553871    -4564.717   -697.29333    21937.775   -34934.632   -5590.5299   -6764.6061    9236.1474    82.619067 
   64400    1513.8157   -104.03277    1.3697323   -102.66304    23282.583    4.3285038    4.3285038    4.3285038    23282.583    49642.901    22581.484   -2376.6361    19331.634   -12081.247    837.15442    81.098612 
   64500    1434.4823   -103.98774    1.2979497   -102.68979    35982.635    4.3338012    4.3338012    4.3338012    35982.635    88554.266    41088.666   -21695.028     2378.305    6058.9432   -684.07173    81.396731 
   64600    1542.2732   -104.08577    1.3954812   -102.69029   -15368.377    4.3639993    4.3639993    4.3639993   -15368.377   -29974.699   -3544.3123   -12586.119    4072.7869   -15641.661    2687.4915    83.110138 
   64700    1440.3513   -103.96947    1.3032601   -102.66621   -14975.606    4.3699319    4.3699319    4.3699319   -14975.606    7691.0889   -8267.6142   -44350.294    13794.051    10965.633      192.943     83.44955 
   64800    1457.1927   -103.97272    1.3184986   -102.65422    26034.946    4.3393571    4.3393571    4.3393571    26034.946    37695.439    10424.904    29984.496   -16942.344    11029.575    2578.5959    81.710182 
   64900    1667.4936    -104.1693    1.5087832   -102.66051    -2669.205     4.332485     4.332485     4.332485    -2669.205    10298.052   -16264.942   -2040.7246    1331.8333   -7515.3819   -13179.787    81.322593 
   65000     1158.985   -103.71865     1.048674   -102.66998    14414.238    4.3574544    4.3574544    4.3574544    14414.238    24648.418    37215.345    -18621.05   -1645.0759    26813.789   -10216.701    82.736766 
   65100    1640.7491   -104.14449    1.4845842   -102.65991   -21488.103    4.3633786    4.3633786    4.3633786   -21488.103   -29551.892   -39687.699    4775.2818   -24701.758    -11487.99    9309.3632    83.074685 
   65200    1606.2657   -104.11346    1.4533829   -102.66008   -22206.742    4.3484745    4.3484745    4.3484745   -22206.742     486.2286   -20775.503    -46330.95     15152.14    5725.1424   -27049.196    82.226309 
   65300     1216.771   -103.75318    1.1009599   -102.65222    42855.908    4.3285942    4.3285942    4.3285942    42855.908    3713.7645    38040.108    86813.852   -29778.707    15710.105    17714.146    81.103691 
   65400    1841.8917   -104.33599    1.6665823   -102.66941   -27947.021     4.351155     4.351155     4.351155   -27947.021   -9991.8148   -44420.882   -29428.367     15816.48    -4433.873   -22304.237    82.378457 
   65500    1144.1644   -103.70403     1.035264   -102.66876    -13401.73     4.360983     4.360983     4.360983    -13401.73   -39207.339    5412.7183   -6410.5679   -19991.546     28403.53    5053.2095    82.937928 
   65600    1499.7781   -104.01056    1.3570307   -102.65353    32457.045    4.3391203    4.3391203    4.3391203    32457.045    52662.563    19807.783    24900.789   -10050.333    8704.8844   -11209.084    81.696803 
   65700      1687.77   -104.19584    1.5271298   -102.66871   -11858.441    4.3375798    4.3375798    4.3375798   -11858.441   -32733.686   -1219.1121   -1622.5261    1903.4251    9639.6649    -2073.773    81.609825 
   65800    932.80401   -103.53365   0.84402067   -102.68963    26499.974    4.3512107    4.3512107    4.3512107    26499.974    4766.4575    56130.859    18602.606   -46671.662   -1450.6305   -6468.4445    82.381624 
   65900      2050.88   -104.52697    1.8556793   -102.67129   -8689.1004    4.3577301    4.3577301    4.3577301   -8689.1004   -14440.436   -18262.958    6636.0926    8978.4297   -5204.0807   -9669.4052    82.752476 
   66000    759.30062   -103.37082   0.68703116   -102.68379   -4608.7545    4.3439405    4.3439405    4.3439405   -4608.7545   -46200.716    43272.149   -10897.697   -37018.992    12071.097     10500.33     81.96937 
   66100    2133.6976   -104.59485    1.9306144   -102.66423    31453.417    4.3340679    4.3340679    4.3340679    31453.417    33389.823    7883.9493    53086.479   -1010.2178   -9022.4017    32.075764     81.41176 
   66200    1262.1696   -103.82962    1.1420376   -102.68758    -23020.26    4.3526345    4.3526345    4.3526345    -23020.26   -52723.093    3413.6819   -19751.368   -27319.759    14345.707    2260.1192    82.462521 
   66300    1363.5443   -103.91279    1.2337635   -102.67902   -20102.863    4.3517768    4.3517768    4.3517768   -20102.863   -1517.4626   -15143.632   -43647.494   -10447.842    12532.009    21240.049     82.41378 
   66400    1827.2954   -104.32223    1.6533753   -102.66885    10895.821    4.3480137    4.3480137    4.3480137    10895.821   -27492.524    7054.6684    53125.317   -8188.5926   -13248.624    337.53253    82.200167 
   66500    1157.0685   -103.73129    1.0469399   -102.68435   -31287.567    4.3417958    4.3417958    4.3417958   -31287.567   -29572.882    -40252.63    -24037.19   -42257.878    23875.634    14053.369    81.848018 
   66600    1594.4053   -104.11869    1.4426514   -102.67604    16763.455     4.332396     4.332396     4.332396    16763.455   -2876.0916     31264.02    21902.437    23188.322   -3090.1078    6735.1879    81.317578 
   66700    1357.9333   -103.90657    1.2286866   -102.67788   -16317.205    4.3495644    4.3495644    4.3495644   -16317.205   -51488.092    1343.8932    1192.5842   -40977.307    14040.555    20284.235    82.288151 
   66800    1540.8877   -104.06477    1.3942275   -102.67054   -19876.459    4.3392575    4.3392575    4.3392575   -19876.459    6665.1077    -11137.76   -55156.724    9508.8723     16760.84     22760.83    81.704555 
   66900     1491.553   -104.01266    1.3495885   -102.66307    1322.1043    4.3438808    4.3438808    4.3438808    1322.1043   -26531.896    18861.162    11637.047   -21340.913     2588.171   -12811.825    81.965991 
   67000    1055.1659   -103.62805   0.95473632   -102.67332   -25736.853    4.3468424    4.3468424    4.3468424   -25736.853     15280.26   -55111.464   -37379.355   -12225.108    13295.024    60790.027    82.133756 
   67100    2125.0755   -104.57737     1.922813   -102.65455     7774.639    4.3380192    4.3380192    4.3380192     7774.639    10264.581   -7954.8757    21014.212   -2643.3882    5243.6457   -19557.152    81.634628 
   67200    668.91528   -103.28299    0.6052486   -102.67774   -26133.022    4.3500266    4.3500266    4.3500266   -26133.022    23297.643   -79219.299   -22477.411   -21286.029    5624.5889    52074.039    82.314382 
   67300    1891.4179   -104.38666    1.7113947   -102.67527   -9865.4265    4.3396355    4.3396355    4.3396355   -9865.4265   -16459.478   -44712.976    31576.175    4434.4992    10113.094    4157.2657    81.725908 
   67400    1641.0086   -104.16556     1.484819   -102.68075   -2208.3837    4.3412752    4.3412752    4.3412752   -2208.3837    9922.4954   -17126.297    578.65036   -12083.372    -17140.72    23143.902    81.818585 
   67500    1063.7168   -103.64995   0.96247329   -102.68748   -2216.6385    4.3329977    4.3329977    4.3329977   -2216.6385     2955.931   -47869.734    38263.888   -7040.4203    6614.6077    43945.635    81.351465 
   67600     1695.777    -104.2169    1.5343747   -102.68253   -13684.579    4.3512971    4.3512971    4.3512971   -13684.579   -25108.118   -5776.6255   -10168.992    4853.9331   -16717.135   -6507.7707    82.386527 
   67700    1425.6459    -103.9573    1.2899544   -102.66735   -27602.307    4.3569226    4.3569226    4.3569226   -27602.307   -17342.926   -75792.688    10328.693    -16983.52   -1285.9297    53397.412    82.706477 
   67800    1725.5548   -104.21185    1.5613182   -102.65053    8684.5171     4.336901     4.336901     4.336901    8684.5171   -13333.897    15256.983    24130.465    4825.0711    21238.936   -15767.547    81.571513 
   67900    1043.8534   -103.61222   0.94450052   -102.66772    29398.236    4.3283577    4.3283577    4.3283577    29398.236    8721.2248   -22140.417     101613.9   -9464.2122   -8076.1689    54693.747      81.0904 
   68000    1876.2777   -104.37511    1.6976955   -102.67741    -25660.91    4.3480295    4.3480295    4.3480295    -25660.91   -29902.483   -20012.386   -27067.861   -8180.0376    32563.809    6857.8001    82.201066 
   68100    1153.5324   -103.72083    1.0437403   -102.67709    23215.425    4.3390121    4.3390121    4.3390121    23215.425   -3146.4106     10607.81    62184.877   -1623.2421    -28643.36    12234.761    81.690695 
   68200    1657.5668   -104.16536    1.4998012   -102.66556   -17068.722    4.3469735    4.3469735    4.3469735   -17068.722   -13986.277   -7370.7138   -29849.176   -10541.493    23271.075    19609.077    82.141189 
   68300    1388.4637   -103.92505    1.2563112   -102.66874    2550.5134    4.3322526    4.3322526    4.3322526    2550.5134    5526.2013    7685.0226   -5559.6838   -2533.0654   -5863.4187    -14423.81    81.309506 
   68400    1662.1737   -104.17443    1.5039697   -102.67047    26440.552    4.3343364    4.3343364    4.3343364    26440.552    34713.084    15315.034    29293.539   -6798.6762    1924.1513    31143.444    81.426891 
   68500    1241.1535   -103.79283    1.1230218   -102.66981   -29270.486    4.3510161    4.3510161    4.3510161   -29270.486   -20393.505   -6569.0846   -60848.868     6852.763    28537.952   -31096.995     82.37057 
   68600    1640.2723    -104.1465    1.4841528   -102.66235     1385.367    4.3422926    4.3422926    4.3422926     1385.367    2329.1061   -6672.9915    8499.9865   -6071.1316   -34278.193    17635.489     81.87612 
   68700    1689.1288   -104.18869    1.5283592   -102.66033   -22755.705    4.3505032    4.3505032    4.3505032   -22755.705   -35085.013    1739.5034   -34921.605    5783.6183    43714.956   -12831.424    82.341441 
   68800     1248.725   -103.79347    1.1298727    -102.6636   -9128.9538    4.3471287    4.3471287    4.3471287   -9128.9538   -23712.724   -3233.1073   -441.03001    65.603155   -24119.076   -19096.442    82.149984 
   68900    1615.6801   -104.11858    1.4619013   -102.65668    6268.1325    4.3405865    4.3405865    4.3405865    6268.1325   -21260.663    15473.553    24591.508    -128.1185    27677.443   -3100.1457    81.779649 
   69000    1473.2672   -103.99776    1.3330431   -102.66472   -8680.9845     4.328605     4.328605     4.328605   -8680.9845    10002.309   -15164.965   -20880.298   -9193.8084    9775.2966   -19836.457    81.104296 
   69100    1712.4287   -104.22101    1.5494415   -102.67157    6786.0198     4.337805     4.337805     4.337805    6786.0198   -11666.793    27284.821    4740.0309    1282.1813   -22604.238     5134.225    81.622534 
   69200     1003.365   -103.58165   0.90786569   -102.67378   -8385.6931    4.3506082    4.3506082    4.3506082   -8385.6931    -1562.583    21130.066   -44724.562    -9927.909    54851.506    -10493.66    82.347405 
   69300    1935.5668   -104.40867    1.7513415   -102.65733    573.31262    4.3487172    4.3487172    4.3487172    573.31262   -35316.144   -1606.5997    38642.682   -587.42812   -39163.875    198.38706    82.240073 
   69400    1400.0535     -103.934    1.2667978    -102.6672   -23397.065    4.3441671    4.3441671    4.3441671   -23397.065   -34623.386    2228.1325   -37795.942     4229.328     42655.75    6725.0136    81.982199 
   69500    1466.7536   -103.99126    1.3271495   -102.66412     29626.14    4.3278586    4.3278586    4.3278586     29626.14    28010.378    56393.985    4474.0575    85.289312    708.61289   -24875.748    81.062348 
   69600    1496.8296   -104.03133    1.3543629   -102.67697   -6230.5082    4.3491336    4.3491336    4.3491336   -6230.5082   -42714.491   -13035.759    37058.726    3951.8008    8079.3788    14713.597    82.263703 
   69700    1196.3781    -103.7692    1.0825081   -102.68669   -22985.003    4.3433894    4.3433894    4.3433894   -22985.003   -12704.173   -30644.431   -25606.405   -4537.6304    46771.675   -28982.608    81.938176 
   69800    2055.8721   -104.52376    1.8601962   -102.66357    23421.237    4.3235257    4.3235257    4.3235257    23421.237    3942.2251    64822.061    1499.4254     7955.512   -13111.004    495.55916    80.819121 
   69900    1024.7732   -103.61963    0.9272363    -102.6924    -25818.17     4.343795     4.343795     4.343795    -25818.17   -32182.984   -32302.189   -12969.337   -6600.1072    35724.217   -4235.5561    81.961136 
   70000    1439.1448   -103.98312    1.3021685   -102.68096     11847.77    4.3483487    4.3483487    4.3483487     11847.77   -17151.848    30600.644    22094.515    8.1160148   -6569.9027   -28981.009     82.21917 
   70100    1926.8748   -104.41452    1.7434768   -102.67105   -15779.322    4.3469888    4.3469888    4.3469888   -15779.322   -49129.084    23886.529   -22095.412   -3521.6573    33073.715    18981.336    82.142054 
   70200    1128.6226   -103.69513    1.0212015   -102.67392   -14941.499    4.3336506    4.3336506    4.3336506   -14941.499   -6126.4568    22499.886   -61197.927   -6994.9722    10934.571   -35417.596    81.388245 
   70300    1644.5438   -104.15866    1.4880178   -102.67065    27207.663    4.3236707    4.3236707    4.3236707    27207.663   -9846.9389    8827.3728    82642.557   -4931.3414    12809.624    15914.632    80.827255 
   70400    1261.3787   -103.84107     1.141322   -102.69975    3452.6042    4.3406338    4.3406338    4.3406338    3452.6042   -8278.9027    5849.1795    12787.536    3132.3107    31557.717    -15997.05    81.782326 
   70500    1916.8301   -104.40256    1.7343881   -102.66818   -28185.351    4.3630913    4.3630913    4.3630913   -28185.351    -24862.25   -29696.475   -29997.328    5850.8402   -2136.3219   -10470.381    83.058277 
   70600     1224.182   -103.76874    1.1076656   -102.66107   -28635.458    4.3447777    4.3447777    4.3447777   -28635.458    -46749.46   -5406.3697   -33750.543    -1078.531     38083.78    1902.4704    82.016772 
   70700    1545.8406     -104.046    1.3987091    -102.6473    22998.829    4.3136133    4.3136133    4.3136133    22998.829    31007.255   -30395.239    68384.472   -958.46124   -15524.301   -17396.736    80.264525 
   70800    1650.4182   -104.16522    1.4933331   -102.67189     35022.16    4.3224482    4.3224482    4.3224482     35022.16   -9063.6809    59624.784    54505.378    15606.635    29632.103    7995.5747    80.758714 
   70900    1292.7877   -103.86169    1.1697415   -102.69195   -41303.947    4.3609106    4.3609106    4.3609106   -41303.947   -24881.382   -60365.415   -38665.046      -9967.3    10485.575   -28281.694      82.9338 
   71000    1868.9407   -104.33915    1.6910568   -102.64809   -21972.067     4.364322     4.364322     4.364322   -21972.067    -60802.19    -24794.23     19680.22   -356.77759    9932.3353    7634.3884     83.12858 
   71100     1229.848   -103.76457    1.1127923   -102.65178    9309.1672    4.3236949    4.3236949    4.3236949    9309.1672   -10893.967    29109.154    9712.3136    2343.0925    30893.853   -20666.945    80.828615 
   71200    1710.6453   -104.19706    1.5478278   -102.64924    34820.382    4.3101612    4.3101612    4.3101612    34820.382    39170.206     21461.93    43829.011   -302.27801    -13511.36   -5448.6631    80.071973 
   71300    1248.3328   -103.81286    1.1295177   -102.68334   -14386.455    4.3469943    4.3469943    4.3469943   -14386.455   -59435.631    24276.551    -8000.285   -2875.8454    33004.389    820.31143    82.142368 
   71400    1566.3577    -104.0817    1.4172734   -102.66443   -22871.495    4.3624845    4.3624845    4.3624845   -22871.495   -5625.8573   -14714.166   -48274.462    2226.6167   -18904.423   -30168.039    83.023624 
   71500    1637.8745    -104.1407    1.4819833   -102.65871     -4016.83    4.3369973    4.3369973    4.3369973     -4016.83    9149.5846    4397.7193   -25597.794   -3964.8255    28079.162    19831.829    81.576946 
   71600    1060.6847   -103.62268   0.95972977   -102.66295    15198.883     4.308327     4.308327     4.308327    15198.883    8768.6395    23072.839     13755.17   -8428.0163   -4092.7599   -35864.901    79.969792 
   71700    2034.7424   -104.52265    1.8410777   -102.68157    17040.094    4.3303815    4.3303815    4.3303815    17040.094    -1633.845     13250.14    39503.987    6795.4405     5419.284    8272.6821    81.204198 
   71800    969.70991   -103.55408   0.87741391   -102.67666   -47991.544    4.3558211    4.3558211    4.3558211   -47991.544   -20666.977   -44698.756   -78608.899   -7983.2849    29304.395   -18915.564    82.643768 
   71900    1789.5889   -104.27107    1.6192576   -102.65181   -3450.2367    4.3373264    4.3373264    4.3373264   -3450.2367   -2563.1812   -6972.8255   -814.70322   -9782.4301   -12208.602   -14339.222    81.595523 
   72000     1353.569   -103.88255    1.2247377   -102.65782   -8180.4569    4.3250906    4.3250906    4.3250906   -8180.4569    -11592.48     8349.134   -21298.025    4025.2102    41746.865   -551.10054    80.906912 
   72100    1357.1081   -103.90115      1.22794   -102.67321   -4552.6728    4.3273326    4.3273326    4.3273326   -4552.6728    14853.694    -13708.22   -14803.492   -7230.7634   -3413.9313   -38661.186    81.032798 
   72200    1629.7447   -104.15112    1.4746273   -102.67649   -14941.591    4.3418661    4.3418661    4.3418661   -14941.591    -25287.66    10493.954   -30031.068    3537.5506    24841.727    15883.877    81.851995 
   72300    1184.0175   -103.74944    1.0713239   -102.67811   -17156.819    4.3480846    4.3480846    4.3480846   -17156.819   -10755.328    6158.2094   -46873.339    1765.5367    10666.262   -30091.437    82.204191 
   72400    2035.4183   -104.49619    1.8416893    -102.6545   -7786.4264    4.3369955    4.3369955    4.3369955   -7786.4264   -31286.206    15151.447   -7224.5206   -6023.8073   -14381.294   -5173.8256    81.576845 
   72500    788.55339   -103.38777   0.71349968   -102.67427    6173.8627    4.3224667    4.3224667    4.3224667    6173.8627   -9987.9941    90889.132    -62379.55    9147.5117    38872.653    -3690.431    80.759753 
   72600    2019.9742    -104.4982    1.8277151   -102.67048    4866.7782    4.3355648    4.3355648    4.3355648    4866.7782    23247.318    4499.0335   -13146.017   -1211.4064   -27000.497   -27704.385    81.496139 
   72700    1164.3444   -103.73563    1.0535233   -102.68211   -24901.155     4.346804     4.346804     4.346804   -24901.155   -37119.103    38872.434   -76456.797   -337.52224    14552.167    22845.595    82.131578 
   72800    1797.6428   -104.29181     1.626545   -102.66527    -13406.84     4.342137     4.342137     4.342137    -13406.84    1842.2293   -21233.566   -20829.185    787.08788    4101.2797   -22464.134    81.867321 
   72900    1225.0882   -103.78246    1.1084855   -102.67397   -10885.788    4.3331045    4.3331045    4.3331045   -10885.788   -18138.557    27174.553   -41693.362   -10516.762      1858.65     16603.22    81.357478 
   73000    1671.4065   -104.19186    1.5123237   -102.67954   -2637.0348    4.3216872    4.3216872    4.3216872   -2637.0348   -16408.404    30710.486   -22213.186   -2547.5427    26049.137   -874.97407    80.716064 
   73100     1581.283   -104.11548    1.4307781    -102.6847   -9970.7957    4.3453493    4.3453493    4.3453493   -9970.7957   -11311.583    6372.3734   -24973.177   -43.169871    3276.2227     7795.364     82.04915 
   73200    939.97946   -103.52755   0.85051317   -102.67703   -54025.589    4.3572256    4.3572256    4.3572256   -54025.589   -88324.777    15545.772   -89297.761   -2336.9114    23815.831    5862.6106    82.723739 
   73300    2358.9352   -104.77785    2.1344141   -102.64344    20831.532    4.3331711    4.3331711    4.3331711    20831.532    32650.647   -8090.4267    37934.376   -3444.8075   -2279.2623    1050.2229    81.361231 
   73400    806.02293   -103.40867   0.72930648   -102.67937   -40560.584    4.3353704    4.3353704    4.3353704   -40560.584   -82483.717    40265.816   -79463.852    1878.9049    23240.157   -171.85706    81.485182 
   73500    1965.6209   -104.44533    1.7785351   -102.66679    29557.067    4.3350023    4.3350023    4.3350023    29557.067     40433.36    21710.716    26527.127   -9593.2931   -6284.8802    6827.1666    81.464427 
   73600    1145.7451   -103.72687    1.0366943   -102.69017     -36864.4    4.3585089    4.3585089    4.3585089     -36864.4   -69037.359    7465.7643   -49021.607    8913.2515    19545.016   -21888.644    82.796847 
   73700    1598.3143   -104.11093    1.4461884   -102.66474   -5043.5342    4.3485267    4.3485267    4.3485267   -5043.5342   -18497.961    33181.293   -29813.935   -11993.822   -12859.262     21736.39    82.229269 
   73800    1392.3362   -103.91671     1.259815   -102.65689   -495.56318     4.334162     4.334162     4.334162   -495.56318   -10685.405    28434.423   -19235.708    1139.0852     27636.65   -28334.364    81.417059 
   73900    1446.6726   -103.97868    1.3089797    -102.6697   -21094.598    4.3395187    4.3395187    4.3395187   -21094.598   -51230.528     39095.31   -51148.576     2307.301   -3999.0096    2071.3869    81.719312 
   74000      1886.75   -104.37191     1.707171   -102.66474    18070.452    4.3393309    4.3393309    4.3393309    18070.452   -1778.0902    53745.692    2243.7537     1682.833    9525.9256   -16242.402    81.708703 
   74100    949.67334   -103.54584    0.8592844   -102.68655   -40367.359    4.3443421    4.3443421    4.3443421   -40367.359   -83861.816    17615.238   -54855.499   -199.67286    21003.257   -5634.0644    81.992109 
   74200    2016.9657   -104.48809    1.8249929    -102.6631    11446.667    4.3430395    4.3430395    4.3430395    11446.667   -27205.273    42660.147    18885.128   -1037.9322   -12948.268    5405.0673    81.918374 
   74300    1078.1377   -103.65148   0.97552168   -102.67596   -38702.728    4.3472738    4.3472738    4.3472738   -38702.728   -40904.297    -2258.184   -72945.702    6305.9979    44143.187   -8541.7102     82.15821 
   74400    1553.7953   -104.06795    1.4059066   -102.66204    14959.988    4.3310793    4.3310793    4.3310793    14959.988    -32710.15    46645.754    30944.361     80.85267   -18709.338   -8529.6881    81.243458 
   74500    1433.0122   -103.97522    1.2966195    -102.6786   -9273.4215    4.3382588    4.3382588    4.3382588   -9273.4215   -26703.237    12537.131   -13654.158    2137.8197    32302.609    9499.0397    81.648154 
   74600    1416.7323   -103.95345    1.2818891   -102.67156   -15150.556    4.3519778    4.3519778    4.3519778   -15150.556   -32999.422    4191.0107   -16643.257   -3570.6305   -1107.0083   -19532.225      82.4252 
   74700    1855.1533   -104.33077    1.6785817   -102.65219   -23443.411    4.3465936    4.3465936    4.3465936   -23443.411   -43207.979    274.39339   -27396.649     321.8073    14033.405    22654.625    82.119651 
   74800    1096.2709   -103.65657   0.99192895   -102.66464   -23627.719    4.3354255    4.3354255    4.3354255   -23627.719   -48764.118    32928.302    -55047.34   -2356.8356    20566.767   -7533.4165    81.488285 
   74900    1931.1871   -104.40774    1.7473787   -102.66036    28272.261    4.3323122    4.3323122    4.3323122    28272.261    31249.598    14264.983    39302.201    -913.0006   -7805.6166    10607.667     81.31286 
   75000    957.69232   -103.56506   0.86654013   -102.69852   -37508.867    4.3504934    4.3504934    4.3504934   -37508.867   -72313.592    17960.531   -58173.539    866.41863     36011.51   -262.74224    82.340889 
   75100    1981.7225   -104.47082    1.7931041   -102.67771     9585.736    4.3493929    4.3493929    4.3493929     9585.736    24213.074   -15448.862    19992.995   -1891.7951   -5723.2218   -2847.9955    82.278415 
   75200    951.80284   -103.54949   0.86121121   -102.68828    30813.741      4.33278      4.33278      4.33278    30813.741   -31920.201    72361.544     51999.88    2167.2105     21035.73    11511.519    81.339205 
   75300    2070.2928    -104.5467    1.8732444   -102.67346   -22317.936    4.3428702    4.3428702    4.3428702   -22317.936   -22516.828   -19265.937   -25171.043   -1958.1118    -5532.317    2809.3105    81.908795 
   75400    1231.0007   -103.78312    1.1138353   -102.66929    19135.306    4.3367822    4.3367822    4.3367822    19135.306   -52401.689    56410.771    53396.835    6514.0108    20430.246    10761.934    81.564813 
   75500    1411.0175   -103.95152    1.2767183    -102.6748   -13166.516    4.3436313    4.3436313    4.3436313   -13166.516   -43675.508    13091.288   -8915.3279   -9215.8474    2459.9242    13396.994    81.951867 
   75600     1966.481   -104.43389    1.7793133   -102.65458   -1135.6341    4.3403004    4.3403004    4.3403004   -1135.6341   -25289.345   -4420.6993    26303.142    14458.774    16800.617    1041.7879    81.763478 
   75700    986.66284   -103.56676   0.89275327   -102.67401   -11832.262    4.3363509    4.3363509    4.3363509   -11832.262   -32661.965    35984.954   -38819.775   -2032.7307     13544.97    5402.2748    81.540477 
   75800    2221.2007   -104.66834    2.0097891   -102.65855     10145.93    4.3385607    4.3385607    4.3385607     10145.93   -25141.553    1367.2657    54212.079    9488.2732    -6492.447     7387.394    81.665203 
   75900    765.11708   -103.37463   0.69229401   -102.68233   -14242.698    4.3376431    4.3376431    4.3376431   -14242.698    12273.287   -1697.4672   -53303.913    7838.4251    36545.309    3231.8053    81.613396 
   76000    2129.7181   -104.58438    1.9270137   -102.65737    23518.209    4.3365925    4.3365925    4.3365925    23518.209    856.38534    37824.409    31873.832    2086.6597   -13200.559    12486.201    81.554108 
   76100    1371.6718   -103.92097    1.2411175   -102.67985   -29425.375    4.3434544    4.3434544    4.3434544   -29425.375   -6994.5535   -22220.242    -59061.33    5114.7646    41280.274   -6817.4913    81.941855 
   76200    1514.2295   -104.04935    1.3701066   -102.67925    15257.257    4.3458075    4.3458075    4.3458075    15257.257    39842.305    15738.798   -9809.3323   -15508.315    4641.1498   -1222.0841    82.075105 
   76300    1186.1999   -103.75822    1.0732986   -102.68492   -8752.0886    4.3456945    4.3456945    4.3456945   -8752.0886    -11016.05    9216.3974   -24456.613   -1790.7111    21125.474    1971.5069    82.068703 
   76400    1642.8028   -104.16308    1.4864425   -102.67664   -20759.495    4.3438381    4.3438381    4.3438381   -20759.495   -17454.689   -17589.162   -27234.633   -3064.8176    26042.306   -731.50011    81.963573 
   76500     1635.368   -104.14149    1.4797153   -102.66178    27337.199    4.3330519    4.3330519    4.3330519    27337.199    7679.3478    52067.032    22265.218   -15834.966    4049.3742   -1059.3586    81.354517 
   76600    927.35807   -103.51338   0.83909307   -102.67429   -18325.276    4.3430973    4.3430973    4.3430973   -18325.276   -23152.153   -7036.0047    -24787.67    2260.2177    40675.321   -6652.6356    81.921649 
   76700    2197.6985   -104.63803    1.9885238    -102.6495    7543.7123    4.3460734    4.3460734    4.3460734    7543.7123   -31191.902    18059.671    35763.368    -14587.11   -3681.1829    2122.8037    82.090174 
   76800    741.89339   -103.34058   0.67128073    -102.6693   -26080.011    4.3488947    4.3488947    4.3488947   -26080.011   -27138.593     19385.47    -70486.91   -5422.4463    39372.073    6936.9246    82.250146 
   76900    2026.0616   -104.47053    1.8332231   -102.63731    6524.6539    4.3381544    4.3381544    4.3381544    6524.6539   -20944.007    263.00767    40254.962   -5933.0315   -11640.126   -10309.422    81.642257 
   77000    950.48424   -103.52825   0.86001811   -102.66823     -24994.4    4.3427643    4.3427643    4.3427643     -24994.4   -43218.567    4727.0278   -36491.661   -6648.7928    42679.228    13859.249    81.902806 
   77100    2054.6687   -104.51041    1.8591074    -102.6513   -12625.572    4.3477587    4.3477587    4.3477587   -12625.572   -34051.008   -9340.8812    5515.1715    637.95918   -2281.2929   -2875.5822     82.18571 
   77200    1061.0565   -103.63253    0.9600662   -102.67246    13020.541    4.3394637    4.3394637    4.3394637    13020.541   -16666.732    11204.009    44524.345   -3422.1899    42906.248   -10347.148    81.716203 
   77300     1646.909   -104.16997    1.4901578   -102.67981     9701.719    4.3470077    4.3470077    4.3470077     9701.719   -17298.909    11822.229    34581.838    1862.1084    9068.2174    10129.668    82.143129 
   77400    1567.6769   -104.09487     1.418467    -102.6764    3068.8134    4.3462316    4.3462316    4.3462316    3068.8134   -22729.714    20251.864     11684.29    5583.0769    22006.095   -21532.108    82.099138 
   77500    1289.4795   -103.84419    1.1667481   -102.67745    7652.2611    4.3488972    4.3488972    4.3488972    7652.2611   -27268.128    23683.844    26541.068   -5829.7182    17809.312    4474.9256    82.250285 
   77600    1959.1976   -104.43163    1.7727231    -102.6589   -25286.546    4.3522802    4.3522802    4.3522802   -25286.546   -39926.292   -36265.668    332.32148    27435.769    1926.0801   -6598.2158    82.442385 
   77700    1196.4239   -103.73585    1.0825495    -102.6533    21155.322    4.3305667    4.3305667    4.3305667    21155.322   -11910.513     41830.86     33545.62    421.95676    40622.899    6947.0134    81.214616 
   77800    1780.8667   -104.26065    1.6113657   -102.64928    14720.075    4.3386274    4.3386274    4.3386274    14720.075    -25217.65    32126.149    37251.726    13983.384   -13138.341   -7678.0771     81.66897 
   77900    1276.7992   -103.81725    1.1552748   -102.66198   -14244.172    4.3502961    4.3502961    4.3502961   -14244.172   -33359.381   -19117.294    9744.1613     14355.83    54575.173   -4136.5753    82.329683 
   78000    2178.3373   -104.62463    1.9710054   -102.65363    5942.7005    4.3456982    4.3456982    4.3456982    5942.7005    -20326.76    27976.546    10178.315    1449.4692   -18730.809   -6802.8709    82.068915 
   78100    923.00337   -103.51834   0.83515284   -102.68319    8321.8742    4.3382302    4.3382302    4.3382302    8321.8742   -50360.458     37502.07    37824.011    24958.902    49360.085    12714.043    81.646538 
   78200    2125.1545   -104.59458    1.9228844   -102.67169    3458.8191     4.345849     4.345849     4.345849    3458.8191   -11637.918    5413.9154     16600.46   -651.42338   -15469.584   -16707.732    82.077455 
   78300    1268.9042   -103.82805    1.1481312   -102.67992   -25418.199    4.3544346    4.3544346    4.3544346   -25418.199   -76945.495     15394.39   -14703.492     28206.52    36596.952    5378.7037    82.564875 
   78400    1405.8258   -103.94654    1.2720208   -102.67452     13302.98    4.3439555    4.3439555    4.3439555     13302.98   -16653.251    4487.4985    52074.692    -867.5971    14906.423   -1084.1949    81.970223 
   78500    1496.3168   -104.02715    1.3538989   -102.67325   -1406.7926    4.3328383    4.3328383    4.3328383   -1406.7926   -15066.733   -11785.982    22632.338    18291.042    7906.7763    -8254.431    81.342489 
   78600    1490.1043   -104.03171    1.3482777   -102.68343   -21456.762    4.3421773    4.3421773    4.3421773   -21456.762   -43990.732   -437.64633   -19941.907    6064.7656    40171.518    13139.872    81.869597 
   78700    1510.3385   -104.03385     1.366586   -102.66727    3854.0462    4.3541098    4.3541098    4.3541098    3854.0462    -2112.387   -18482.923    32157.449    2779.6578   -22248.313   -5348.7578    82.546398 
   78800    1429.1758   -103.95067    1.2931483   -102.65752    -48146.77    4.3623103    4.3623103    4.3623103    -48146.77   -67515.734   -18030.512   -58894.064    16629.898    42710.475   -3392.5371    83.013679 
   78900    1851.0016   -104.31158    1.6748252   -102.63676    15389.237    4.3438407    4.3438407    4.3438407    15389.237   -1887.3233   -4218.8436    52273.879   -13676.701   -17659.642    9460.0081    81.963722 
   79000    633.18344   -103.24778   0.57291768   -102.67486    32597.613    4.3374201    4.3374201    4.3374201    32597.613    17249.433    9931.2349    70612.172    7896.9153    48384.354     1369.243    81.600806 
   79100    1772.3286   -104.28712    1.6036402   -102.68348    6285.9454    4.3567739    4.3567739    4.3567739    6285.9454   -7719.7021   -20961.571    47539.109   -5347.4192    22836.502    12150.498    82.698014 
   79200    1107.6228   -103.67177    1.0022004   -102.66957   -15500.988     4.373137     4.373137     4.373137   -15500.988   -10244.798   -12604.934   -23653.232   -6063.5634    20199.369   -18273.187    83.633306 
   79300    1406.4626   -103.91108    1.2725969   -102.63848   -3061.4775    4.3563126    4.3563126    4.3563126   -3061.4775   -21128.916    23517.744    -11573.26    8426.6002    40810.875    11460.779    82.671745 
   79400    1930.9293   -104.37846    1.7471454   -102.63132    30741.182    4.3373778    4.3373778    4.3373778    30741.182     84998.66    17414.125   -10189.238   -21847.118   -19049.593   -1565.1981     81.59842 
   79500    752.03797   -103.36877   0.68045976   -102.68831    -5620.851    4.3435026    4.3435026    4.3435026    -5620.851   -34366.477   -9723.0282    27226.953    14799.907    39771.335   -16200.179    81.944585 
   79600     2036.994   -104.51761     1.843115    -102.6745    6144.0615    4.3498928    4.3498928    4.3498928    6144.0615    5461.1545   -24603.425    37574.455   -17816.118   -19791.795    1171.5755     82.30679 
   79700    1236.2706   -103.79876    1.1186036   -102.68016   -8790.2797    4.3516119    4.3516119    4.3516119   -8790.2797   -16699.022   -9683.5022    11.684734    11105.571    54245.838   -7253.4475    82.404412 
   79800    1420.1555    -103.9531    1.2849866   -102.66812   -4710.1274    4.3581773    4.3581773    4.3581773   -4710.1274    18238.475   -26374.863   -5993.9947    659.13429   -3874.4599   -1041.5017    82.777954 
   79900    1689.3444   -104.18669    1.5285543   -102.65814    -866.8031    4.3506262    4.3506262    4.3506262    -866.8031    41745.409   -42475.314   -1870.5052   -5612.8462   -1662.8815   -10270.138     82.34843 
   80000    1532.9759   -104.05895    1.3870688   -102.67188   -15728.268    4.3399217    4.3399217    4.3399217   -15728.268   -24965.288   -32574.036     10354.52    36058.145    44255.708   -1355.4034     81.74208 
   80100     1650.086   -104.17225    1.4930325   -102.67922    16039.332    4.3385184    4.3385184    4.3385184    16039.332     53539.72   -31649.814    26228.089   -15959.471   -7954.6277    12998.602    81.662814 
   80200    1023.0296   -103.61968   0.92565872   -102.69402    5403.1703    4.3534262    4.3534262    4.3534262    5403.1703     30941.48   -15074.832    342.86241     7628.032     32128.29    214.70587    82.507523 
   80300    1712.1209   -104.21751     1.549163   -102.66835   -3658.5034    4.3584987    4.3584987    4.3584987   -3658.5034    12139.334     5228.474   -28343.318   -6404.6346    3280.1713    7050.7742    82.796266 
   80400    1553.2114   -104.06024    1.4053783   -102.65486   -10837.829    4.3570971    4.3570971    4.3570971   -10837.829   -19435.325    15890.607    -28968.77   -1883.7272    11123.992    5413.9005    82.716418 
   80500    1162.8812   -103.70385    1.0521993   -102.65165    3308.9914    4.3541918    4.3541918    4.3541918    3308.9914   -37007.109    12294.381    34639.702     44073.69    662.10432    10482.146     82.55106 
   80600    2204.6337   -104.63806    1.9947989   -102.64326   -6281.1727    4.3463215    4.3463215    4.3463215   -6281.1727   -5296.9803   -8994.2628   -4552.2749   -8082.8887    6362.6189   -3554.2325    82.104234 
   80700    858.18186   -103.45923   0.77650098   -102.68273    9455.7991    4.3368789    4.3368789    4.3368789    9455.7991   -45418.003    40435.502    33349.898    33014.422    10784.096   -11768.409     81.57027 
   80800    1782.4145   -104.29335    1.6127661   -102.68058    26825.277    4.3441655    4.3441655    4.3441655    26825.277    1724.9388    33844.601     44906.29    1736.6627   -7134.8512   -7940.6708    81.982109 
   80900    1160.8268   -103.72513    1.0503405   -102.67479   -24347.478    4.3665315    4.3665315    4.3665315   -24347.478   -89028.452    11192.085    4793.9328    39779.775    21837.848    6040.3854    83.254895 
   81000     1676.767    -104.1602     1.517174   -102.64303   -32551.125    4.3518831    4.3518831    4.3518831   -32551.125   -78198.741   -32102.121    12647.486    30770.557   -12263.052    102.07974    82.419822 
   81100     1730.312   -104.21677    1.5656226   -102.65115    30861.705    4.3308367    4.3308367    4.3308367    30861.705    -20791.58    89665.522    23711.172    -6525.581     23784.25    12792.187    81.229809 
   81200    1365.5641   -103.92419    1.2355911    -102.6886   -4078.6295    4.3382319    4.3382319    4.3382319   -4078.6295   -53846.422    20062.036    21548.498    34640.581    1850.8925   -6223.0004    81.646635 
   81300    1619.9591   -104.15519    1.4657731   -102.68942    -12861.96    4.3655494    4.3655494    4.3655494    -12861.96   -49479.827    35281.896   -24387.951    -19160.13    6238.1329   -195.05579    83.198736 
   81400    1210.4304   -103.76516    1.0952229   -102.66994    5538.7632    4.3660579    4.3660579    4.3660579    5538.7632   -42315.298    66708.821   -7777.2329    47495.309     16921.75   -4554.2345     83.22781 
   81500    1562.2793    -104.0637    1.4135831   -102.65011   -14080.011    4.3408775    4.3408775    4.3408775   -14080.011    -3367.965   -24532.759   -14339.309   -9607.8301   -2527.6728    -6367.734    81.796099 
   81600    1508.0235   -104.01808    1.3644914   -102.65359    23597.379    4.3256792    4.3256792    4.3256792    23597.379    35639.908     31428.93    3723.2994    -11235.44   -2674.7185    7370.5184    80.939949 
   81700    1295.8165   -103.86407     1.172482   -102.69159   -10149.858    4.3552502    4.3552502    4.3552502   -10149.858   -20498.314    8991.6098   -18942.869    31230.089   -1055.3437   -5513.2488    82.611276 
   81800    1593.7251   -104.10939    1.4420359   -102.66736    -17359.51     4.362701     4.362701     4.362701    -17359.51   -27277.506   -10994.964   -13806.061   -28868.057   -10234.844    -6892.311    83.035985 
   81900     1339.227   -103.87591    1.2117607   -102.66415   -10900.393    4.3528991    4.3528991    4.3528991   -10900.393    12159.232   -50535.446    5675.0352    73455.788   -5019.3902    1879.3347    82.477561 
   82000    1344.4131    -103.8756    1.2164533   -102.65915     22433.37    4.3438537    4.3438537    4.3438537     22433.37     85756.58   -4650.3603   -13806.111   -47660.205    2429.8871   -3403.9597    81.964455 
   82100    1417.9015   -103.96063    1.2829471   -102.67769   -21217.539    4.3480258    4.3480258    4.3480258   -21217.539    -2442.364   -55879.126   -5331.1276    26824.094    -615.9687    4166.8907    82.200854 
   82200    1647.0037   -104.16993    1.4902436   -102.67969   -19723.205    4.3604093    4.3604093    4.3604093   -19723.205   -5675.5465   -20570.971   -32923.097    21482.086   -231.04457    -4247.474    82.905202 
   82300    1131.2971   -103.70125    1.0236214   -102.67763    6337.6765    4.3549344    4.3549344    4.3549344    6337.6765    61252.811   -15585.194   -26654.588    -8021.112    10276.418   -478.49895    82.593306 
   82400    1711.0666   -104.23322     1.548209   -102.68501   -22012.264    4.3426218    4.3426218    4.3426218   -22012.264   -3988.4619   -55420.014   -6628.3163    47832.474   -1093.6631   -230.03315    81.894744 
   82500    1846.4791   -104.35737    1.6707331   -102.68664    7436.4905    4.3452563    4.3452563    4.3452563    7436.4905    51338.305    8511.1945   -37540.028   -16293.073    2266.5044     -3911.28    82.043883 
   82600    721.43583   -103.35712    0.6527703   -102.70435   -16425.716    4.3523613    4.3523613    4.3523613   -16425.716    9395.3917   -53482.116   -5190.4224    59382.237   -4743.8079   -561.37345    82.446991 
   82700    2230.1911   -104.69538    2.0179237   -102.67746    6306.1658    4.3507746    4.3507746    4.3507746    6306.1658    52780.335   -3899.3188   -29962.518   -13442.849   -13947.317   -5114.6547    82.356853 
   82800    1212.9051   -103.79459     1.097462   -102.69713   -28074.442    4.3546684    4.3546684    4.3546684   -28074.442   -27216.637   -82109.267    25102.577     47851.33   -1148.0998    -3226.161     82.57817 
   82900    1244.3423    -103.8082     1.125907   -102.68229    12301.269     4.353739     4.353739     4.353739    12301.269    12289.676    31592.957   -6978.8255    14890.369    1222.5964    4816.3284    82.525311 
   83000    1488.8625   -104.01387    1.3471541   -102.66672    1639.1984    4.3505575    4.3505575    4.3505575    1639.1984    34473.677   -16977.184   -12578.898    43366.234    3260.4205    49.244817    82.344528 
   83100    1674.4835   -104.18062    1.5151079   -102.66551   -34399.431     4.360615     4.360615     4.360615   -34399.431   -47448.126   -30091.018   -25659.147    15372.967   -3907.8448    46.480101    82.916933 
   83200    1350.3095   -103.88385    1.2217884   -102.66207    31152.958    4.3510212    4.3510212    4.3510212    31152.958    80069.373     29020.56   -15631.058    4492.3741   -6676.4902    2171.4464    82.370862 
   83300    1380.2778    -103.9168    1.2489044    -102.6679    8180.5703    4.3470978    4.3470978    4.3470978    8180.5703     52595.51   -32278.783    4224.9841     45053.19   -6043.5435   -2778.5764    82.148236 
   83400     1914.389   -104.39378    1.7321794    -102.6616    2965.0147    4.3497762    4.3497762    4.3497762    2965.0147     11438.56    14741.621   -17285.137   -34779.146    7669.9873    6539.1989    82.300174 
   83500    996.04224   -103.57565   0.90123995   -102.67442    41009.407    4.3472693    4.3472693    4.3472693    41009.407    108273.51    11200.403    3554.3108    71125.118    770.79386    593.13198    82.157958 
   83600    2210.4827   -104.66225    2.0000912   -102.66216   -27581.631    4.3575029    4.3575029    4.3575029   -27581.631   -37607.751   -12602.081   -32535.061   -49860.705     850.4855   -5920.4518    82.739532 
   83700     834.2836   -103.41646   0.75487734   -102.66158    39239.102    4.3386981    4.3386981    4.3386981    39239.102    14062.938    73225.784    30428.583     57128.82    4861.0004    10163.263     81.67296 
   83800     1859.662   -104.34545    1.6826613   -102.66279    19603.429    4.3462116    4.3462116    4.3462116    19603.429    66274.209    13446.659   -20910.582   -4483.6245    5780.5499   -13008.861    82.098002 
   83900    1635.4794   -104.13357    1.4798161   -102.65375   -15945.254    4.3564915    4.3564915    4.3564915   -15945.254   -13788.175   -38879.972    4832.3848    23933.559    8476.8546    10356.231     82.68193 
   84000    1407.6016   -103.91947    1.2736275   -102.64585    20075.423    4.3548206    4.3548206    4.3548206    20075.423    26035.406    39249.854   -5058.9919    16288.152    4936.9742   -4541.1227    82.586834 
   84100    1483.9044   -103.98392    1.3426678   -102.64125   -25498.102    4.3690264    4.3690264    4.3690264   -25498.102    -19981.07   -49336.968    -7176.269    33363.215    4573.1552   -9542.3709    83.397685 
   84200    1497.7602    -103.9772    1.3552049     -102.622    8169.4576    4.3479293    4.3479293    4.3479293    8169.4576   -21673.566    7285.2898    38896.649    6706.8664   -6260.8972   0.69179779    82.195381 
   84300    1290.8938   -103.81032    1.1680278   -102.64229   -2969.3293    4.3543848    4.3543848    4.3543848   -2969.3293    22937.398   -18845.138   -13000.248    8247.6859    6563.8504   -24877.861    82.562039 
   84400      1728.55   -104.20405    1.5640283   -102.64002   -12353.448    4.3614164    4.3614164    4.3614164   -12353.448    -41947.33   -6410.9119    11297.898    31854.197   -2899.1255    4391.3159    82.962658 
   84500    1380.9278   -103.91188    1.2494925   -102.66239   -5528.0386    4.3603366    4.3603366    4.3603366   -5528.0386    23491.214   -8624.3321   -31450.998   -4858.0638    8461.6756   -13052.271    82.901054 
   84600    1813.2299   -104.29725    1.6406485    -102.6566   -12526.046    4.3479134    4.3479134    4.3479134   -12526.046    1977.2852    -31880.66   -7674.7621    35699.501   -1152.3908   -5582.6421    82.194483 
   84700    969.58177   -103.55166   0.87729796   -102.67436    10431.601    4.3406301    4.3406301    4.3406301    10431.601    60228.736   -1644.2645   -27289.667    -11871.42    -6868.985   -1925.7441    81.782116 
   84800    2007.0046   -104.48944      1.81598   -102.67346   -15329.208    4.3504801    4.3504801    4.3504801   -15329.208    6564.6323     -32215.9   -20336.356    21947.855    584.87625   -17644.503    82.340132 
   84900    1314.9645   -103.86416    1.1898075   -102.67435   -13017.232    4.3600509    4.3600509    4.3600509   -13017.232    29894.941   -17468.483   -51478.155   -1140.3065   -57.799598    4383.7224    82.884758 
   85000    1713.9962    -104.2057    1.5508597   -102.65484   -23863.692    4.3561848    4.3561848    4.3561848   -23863.692   -12266.494   -39235.776   -20088.807   -12345.605   -6181.9817   -20712.356    82.664473 
   85100    1608.7006   -104.09944    1.4555861   -102.64385    11587.795    4.3491162    4.3491162    4.3491162    11587.795    71309.538    12096.666   -48642.819   -1717.5297    -8107.829    6238.2765    82.262712 
   85200    1366.0532   -103.90565    1.2360336   -102.66962   -17742.667    4.3412876    4.3412876    4.3412876   -17742.667    39356.909   -41327.538   -51257.372   -24558.001    8258.0034   -17700.667    81.819287 
   85300    1600.1271   -104.11815    1.4478286   -102.67032    23862.188    4.3424771    4.3424771    4.3424771    23862.188    11052.185    67519.652    -6985.274   -19504.182    -17274.88    11082.376    81.886558 
   85400    1347.6526   -103.90262    1.2193844   -102.68324   -37373.972    4.3512149    4.3512149    4.3512149   -37373.972   -27778.353   -28207.771    -56135.79   -6912.5256   -1837.2213   -12381.048    82.381864 
   85500    1608.3336   -104.12407    1.4552541   -102.66882     7405.514    4.3481528    4.3481528    4.3481528     7405.514   -12582.702    33267.958    1531.2863   -29671.915    1491.8173    7394.9934    82.208056 
   85600    1173.0645    -103.7321    1.0614134   -102.67068   -28199.984    4.3496518    4.3496518    4.3496518   -28199.984   -36709.499   -14483.606   -33406.848    10189.699   -22885.568   -323.64519    82.293111 
   85700    1638.0716   -104.13997    1.4821616   -102.65781   -10582.446    4.3472186    4.3472186    4.3472186   -10582.446       -14950   -31482.614    14685.275   -18632.866    4098.3689   -14625.194    82.155082 
   85800     1271.992   -103.81555    1.1509251   -102.66462   -30940.268    4.3508118    4.3508118    4.3508118   -30940.268   -36725.371   -7387.1925   -48708.239    1105.4955   -11136.395    14784.756    82.358968 
   85900     1726.323    -104.2324    1.5620134   -102.67038   -16381.198    4.3401232    4.3401232    4.3401232   -16381.198   -26582.308   -38530.525    15969.238   -851.50475    7484.8372   -3417.6346    81.753465 
   86000    1522.1229   -104.05595    1.3772488    -102.6787    7075.9205    4.3415798    4.3415798    4.3415798    7075.9205   -27699.561    53113.989   -4186.6669   -15134.175   -7499.9178    3900.1871    81.835805 
   86100     1200.194   -103.76982    1.0859608   -102.68386   -10115.882    4.3503031    4.3503031    4.3503031   -10115.882    7391.3479    3699.7596   -41438.754    5793.0723   -5057.5673    18103.119     82.33008 
   86200    1750.1447   -104.24272    1.5835677   -102.65915    11826.317      4.36143      4.36143      4.36143    11826.317   -58138.837    84203.531     9414.257   -1435.7424   -3302.9887    -21619.16    82.963436 
   86300    1226.8931   -103.78012    1.1101186      -102.67   -40145.502    4.3450978    4.3450978    4.3450978   -40145.502   -40717.401   -14820.104       -64899    2998.1561   -11095.235    28386.917    82.034905 
   86400    1732.6631   -104.21743      1.56775   -102.64968    60513.514    4.3263648    4.3263648    4.3263648    60513.514    13076.922    104878.86    63584.757    8737.7534    5549.3214   -1311.7221    80.978438 
   86500    1319.9442   -103.87721    1.1943132   -102.68289   -40534.074    4.3526676    4.3526676    4.3526676   -40534.074   -73875.961    4627.6004   -52353.861    -20255.91   -14882.944    4546.8336    82.464402 
   86600    1714.0237   -104.20786    1.5508846   -102.65697    14215.031    4.3599051    4.3599051    4.3599051    14215.031    -39354.46    75388.286     6611.266    -2478.009    3744.5959    9161.5718    82.876445 
   86700    1099.9138   -103.66106   0.99522508   -102.66583    -27984.45    4.3670908    4.3670908    4.3670908    -27984.45   -57790.631   -21172.556   -4990.1633   -15639.082   -5801.7474   -15255.549    83.286895 
   86800    1682.0063   -104.18181    1.5219147   -102.65989   -6849.4822    4.3416387    4.3416387    4.3416387   -6849.4822    -18752.26    8825.0807   -10621.268    701.22958    7036.3143    30204.807    81.839136 
   86900    1593.6892   -104.10381    1.4420035   -102.66181    16548.189    4.3295176    4.3295176    4.3295176    16548.189   -17652.247    42426.118    24870.697   -17467.144   -15047.778   -12070.102    81.155607 
   87000    1143.7062   -103.72393    1.0348494   -102.68908   -4297.0764    4.3552748    4.3552748    4.3552748   -4297.0764   -39512.592   -328.29659     26949.66   -573.75786     1185.011    31017.738    82.612678 
   87100    1737.6239   -104.23827    1.5722386   -102.66603   -4927.2347    4.3616475    4.3616475    4.3616475   -4927.2347   -25494.121    9628.9782    1083.4391   -12984.995    645.83434   -1779.0124    82.975847 
   87200    1152.3411   -103.70751    1.0426625   -102.66485    279.39047    4.3490705    4.3490705    4.3490705    279.39047   -38070.503    37837.403     1071.271   -4850.7927   -19289.084   -5801.5669    82.260119 
   87300    1691.7762   -104.18722    1.5307547   -102.65646    11787.946    4.3447777    4.3447777    4.3447777    11787.946   -27269.813    17302.952      45330.7    9621.9047    24954.656    -561.4453    82.016776 
   87400     1605.506   -104.12449    1.4526956    -102.6718   -13808.831    4.3480975    4.3480975    4.3480975   -13808.831   -20483.182    2547.2039   -23490.515    -12660.55    -29658.74   -7167.7308    82.204921 
   87500    1281.5571   -103.83488    1.1595798    -102.6753   -23814.203    4.3604367    4.3604367    4.3604367   -23814.203   -42058.703   -2605.6559   -26778.252    6274.8627    25996.929    14062.188    82.906763 
   87600    1537.5881    -104.0554     1.391242   -102.66416    71.473517    4.3456139    4.3456139    4.3456139    71.473517    4219.8404    6569.8191   -10575.239    9906.4619    -24950.97   -2947.6755    82.064136 
   87700    1469.3855   -103.99987    1.3295309   -102.67034    -2641.982    4.3525572    4.3525572    4.3525572    -2641.982   -20753.749    27876.849   -15049.045   -2313.3029   -4923.3937   -12373.878    82.458128 
   87800    1493.7277   -104.01348    1.3515562   -102.66193   -13886.516    4.3494192    4.3494192    4.3494192   -13886.516    -19784.72   -29680.943    7806.1162    39775.559   -3024.1421    14898.857    82.279906 
   87900    1439.8493   -103.96112    1.3028059   -102.65832    15159.769    4.3528057    4.3528057    4.3528057    15159.769   -4082.8836    57455.021   -7892.8296   -3295.1517   -21626.884   -13471.608    82.472251 
   88000    1648.5934   -104.14768     1.491682     -102.656   -20096.025    4.3607915    4.3607915    4.3607915   -20096.025   -21815.952   -37280.539    -1191.584    25461.542    6512.7181     14641.97    82.927001 
   88100    1104.2142   -103.66505   0.99911622   -102.66594     32901.77    4.3469171    4.3469171    4.3469171     32901.77    21580.363    60118.675    17006.273    13607.062   -24480.648    -12388.37    82.137992 
   88200    1945.7919   -104.42139    1.7605934    -102.6608   -1690.4914    4.3513174    4.3513174    4.3513174   -1690.4914   -23998.998   -28384.979    47312.502    6000.6888    4854.9407    8999.2537    82.387684 
   88300     936.6078   -103.52058   0.84746242   -102.67312   -2676.3443    4.3549603    4.3549603    4.3549603   -2676.3443   -5626.8607    -625.3992    -1776.773    21333.232   -19949.025    6041.4042    82.594781 
   88400    2152.3743   -104.60884    1.9475135   -102.66133   -7591.0785    4.3553871    4.3553871    4.3553871   -7591.0785   -22167.299    24080.173   -24686.109   -14194.457   -8905.8217   -3314.4551    82.619064 
   88500    1199.9384   -103.76222    1.0857295   -102.67649   -5115.2337    4.3516587    4.3516587    4.3516587   -5115.2337   -29579.661   -26444.667    40678.627    32029.483   -21477.358     17241.55    82.407072 
   88600     1366.679    -103.9204    1.2365999    -102.6838    15429.928    4.3512312    4.3512312    4.3512312    15429.928   -18337.081    29760.838    34866.027    302.53979   -13989.432   -7784.6419    82.382788 
   88700    1572.9137   -104.10133    1.4232054   -102.67813   -17164.324    4.3606089    4.3606089    4.3606089   -17164.324   -10407.524   -33896.071    -7189.378    42931.781    10667.019   -1935.8807    82.916583 
   88800    1420.5095   -103.96195    1.2853068   -102.67664    823.87499    4.3452801    4.3452801    4.3452801    823.87499    29100.167     2235.364   -28863.906    6419.3477    -29568.54   -192.50988    82.045228 
   88900    1529.7314   -104.06197    1.3841331   -102.67783    12482.473    4.3540711    4.3540711    4.3540711    12482.473   -11944.917   -1957.0137    51349.351    15966.039    20957.243   -22521.239    82.544199 
   89000    1605.7544   -104.12148    1.4529204   -102.66856   -36559.425    4.3601232    4.3601232    4.3601232   -36559.425   -63864.207   -10686.723   -35127.345    23581.485   -30091.834   -10474.412    82.888883 
   89100    1379.3834   -103.89693    1.2480951   -102.64884    14902.707    4.3574815    4.3574815    4.3574815    14902.707    27003.981   -34129.122    51833.263   -175.63503    16578.905    7447.9404    82.738314 
   89200    1354.7606   -103.87371    1.2258158    -102.6479   -24249.945    4.3616044    4.3616044    4.3616044   -24249.945   -64882.219   -1576.9237    -6290.691    22116.921   -24586.384   -6983.8002    82.973384 
   89300    1544.7849   -104.03975    1.3977538     -102.642    18947.075    4.3475105    4.3475105    4.3475105    18947.075   -15802.049    67704.227    4939.0455   -7513.0609   -15052.751    27297.967    82.171634 
   89400    1156.5181   -103.70776    1.0464418   -102.66132    2458.7994    4.3505273    4.3505273    4.3505273    2458.7994   -39001.178    43877.583    2499.9927    12901.074   -11997.001   -18003.216     82.34281 
   89500    1327.7887   -103.87231    1.2014111    -102.6709   -5133.7126    4.3580283    4.3580283    4.3580283   -5133.7126    -38253.52    70478.898   -47626.516   -208.85615   -26520.181    15001.741    82.769461 
   89600     1920.392   -104.39526     1.737611   -102.65765   -15989.023    4.3525041    4.3525041    4.3525041   -15989.023    -3344.943   -13253.826   -31368.299    9432.8011    10401.812    18540.047    82.455109 
   89700    1072.9591   -103.64656    0.9708359   -102.67573    6756.8894     4.352501     4.352501     4.352501    6756.8894   -49328.408    90644.562   -21045.486    26046.377   -33599.826     -9460.13    82.454934 
   89800    1817.4242    -104.3176    1.6444436   -102.67315     2141.409    4.3518836    4.3518836    4.3518836     2141.409    12064.767    18354.896   -23995.435   -14399.016    15904.838    13744.344    82.419851 
   89900    1128.6507   -103.69712    1.0212268   -102.67589    19707.944    4.3433067    4.3433067    4.3433067    19707.944   -15381.842    84302.103   -9796.4273     12947.27   -32089.547   -6418.4569    81.933498 
   90000    1727.4502   -104.24654    1.5630332   -102.68351   -29816.713    4.3449878    4.3449878    4.3449878   -29816.713   -36951.955   -13331.898   -39166.286   -16380.365     17239.63    132.31993    82.028671 
   90100    1530.2661   -104.06792    1.3846169    -102.6833    14140.332    4.3495036    4.3495036    4.3495036    14140.332    20941.089    3378.4275    18101.479    8544.0427    5307.6478    14730.171    82.284697 
   90200    1778.2594   -104.28714    1.6090064   -102.67814   -34175.151    4.3580078    4.3580078    4.3580078   -34175.151   -50443.453   -8643.7612   -43438.239    16648.359   -1318.7272   -14548.545    82.768292 
   90300    1176.4299     -103.732    1.0644585   -102.66754    15954.706    4.3511156    4.3511156    4.3511156    15954.706    13875.281    30009.424    3979.4133   -9812.2097    19985.801    15712.079    82.376221 
   90400     1734.345   -104.21667    1.5692718   -102.64739    5321.7877    4.3490563    4.3490563    4.3490563    5321.7877   -48147.208    52775.584    11336.987     25827.17    190.18897   -4179.1537    82.259316 
   90500    963.65734   -103.53912   0.87193741   -102.66718   -5156.0108    4.3533637    4.3533637    4.3533637   -5156.0108   -15503.836    22925.664    -22889.86   -20394.901    20678.756   -17670.012     82.50397 
   90600    2077.2205   -104.53977    1.8795128   -102.66026    91.465414    4.3464351    4.3464351    4.3464351    91.465414   -16355.719    280.90047    16349.215    3290.3042   -11045.218   -2948.5583    82.110671 
   90700    866.38741   -103.46883   0.78392553    -102.6849   -11864.738    4.3504473    4.3504473    4.3504473   -11864.738   -29820.323   -25198.043    19424.153    11554.399    33798.534   -15685.514    82.338269 
   90800    1602.2763   -104.12086    1.4497733   -102.67109    -20529.41    4.3434471    4.3434471    4.3434471    -20529.41   -51336.339   -35529.995    25278.105   -29206.965    6810.3408   -10264.947    81.941444 
   90900    1846.4524   -104.34271     1.670709   -102.67201    718.75483    4.3490557    4.3490557    4.3490557    718.75483   -26619.575   -10258.271     39034.11    10809.752   -507.78728    4519.8263    82.259278 
   91000    1117.5865   -103.69988    1.0112158   -102.68866   -33794.919    4.3394947    4.3394947    4.3394947   -33794.919   -36737.468   -41832.565   -22814.725     -23715.1    35666.032   -8900.2086    81.717954 
   91100    1594.0118   -104.12202    1.4422954   -102.67972    34565.764    4.3249123    4.3249123    4.3249123    34565.764    23774.656    6387.1952     73535.44    4345.1284   -22229.982   -5172.3659    80.896907 
   91200    1575.3672   -104.11964    1.4254253   -102.69421   -15367.912    4.3492495    4.3492495    4.3492495   -15367.912   -18776.282   -22362.449   -4965.0057     -25611.6     15176.61    8673.5097    82.270276 
   91300    1422.1248   -103.97429    1.2867684   -102.68752   -26438.834    4.3533492    4.3533492    4.3533492   -26438.834    703.58906   -46348.986   -33671.105   -20756.047    8673.7458   -11853.162    82.503149 
   91400    1722.1217   -104.23297    1.5582119   -102.67476     6111.713    4.3467694    4.3467694    4.3467694     6111.713   -17708.237    22604.305    13439.071   -11596.904   -12693.422    10928.959     82.12962 
   91500    1222.0225   -103.78845    1.1057117   -102.68274   -14348.088    4.3426945    4.3426945    4.3426945   -14348.088    16690.392   -35542.237   -24192.418   -26376.749    24577.638   -4829.8135    81.898857 
   91600    1621.3596    -104.1454    1.4670402   -102.67836    12960.308    4.3494932    4.3494932    4.3494932    12960.308     5274.206    34279.358   -672.63965    459.46168   -13835.898   -9858.1776    82.284107 
   91700    1288.5081   -103.84739    1.1658692   -102.68152   -15023.318    4.3517176    4.3517176    4.3517176   -15023.318   -6975.1604   -30132.515   -7962.2775   -11395.823    10637.815    13285.201    82.410417 
   91800    1560.4858   -104.07879    1.4119603   -102.66683    22138.654    4.3421522    4.3421522    4.3421522    22138.654    3606.9293    53197.126     9611.907   -14067.642    12455.159   -21749.332    81.868181 
   91900    1381.7289   -103.92335    1.2502174   -102.67313   -2592.1741    4.3518376    4.3518376    4.3518376   -2592.1741   -24925.688    5999.1916    11149.975    28153.669   -6100.9349     10330.88    82.417235 
   92000    1577.3759    -104.0952    1.4272429   -102.66795   -11387.457    4.3488311    4.3488311    4.3488311   -11387.457   -42649.021    4233.1911     4253.458   -35352.922    24887.964   -6848.6109    82.246538 
   92100    1720.2964   -104.22472    1.5565603   -102.66816    6260.9738    4.3556916    4.3556916    4.3556916    6260.9738    8811.2198    12701.771   -2730.0696    26601.225   -9009.5243    -1064.101    82.636399 
   92200    1093.5315   -103.66672   0.98945029   -102.67727   -25618.181    4.3508541    4.3508541    4.3508541   -25618.181   -66226.262   -16408.964    5780.6839   -37907.587    18939.341    3262.8375    82.361368 
   92300    1853.7677   -104.33694     1.677328   -102.65961    19840.333     4.345792     4.345792     4.345792    19840.333    16323.309    26630.058    16567.633    6630.3761   -14292.656    9223.4603    82.074229 
   92400     1300.499   -103.85206    1.1767188   -102.67534   -24761.423    4.3543454    4.3543454    4.3543454   -24761.423   -29255.313   -31235.104   -13793.853    -21500.83    4675.9827     2610.573    82.559801 
   92500    1239.6142    -103.7998     1.121629   -102.67817     4116.608    4.3533053    4.3533053    4.3533053     4116.608   -6924.4368    15341.867     3932.394   -27534.821   -1167.4038    16851.994    82.500653 
   92600    1577.0235   -104.10513     1.426924   -102.67821    14270.784    4.3521664    4.3521664    4.3521664    14270.784    10734.078    8383.0192    23695.256     17860.74   -25952.338     11179.79    82.435917 
   92700    1478.2426   -104.00235     1.337545   -102.66481   -14180.589    4.3573563    4.3573563    4.3573563   -14180.589   -37205.699   -8587.8034    3251.7353   -16159.838    784.05477    5001.3402    82.731181 
   92800    1040.2662   -103.59729   0.94125468   -102.65604    37725.557    4.3701167    4.3701167    4.3701167    37725.557    95740.597    13409.999    4026.0741    23072.426   -30815.937    16135.603    83.460139 
   92900    1499.8041   -103.98615    1.3570542    -102.6291   -18902.977    4.3810525    4.3810525    4.3810525   -18902.977   -8471.0723   -48573.118    335.26015   -11327.591    6383.3697    26395.965    84.088261 
   93000     1176.192   -103.69031    1.0642432   -102.62607    32448.302    4.3390935    4.3390935    4.3390935    32448.302    10491.029    21293.868    65560.008    12806.016   -36979.933    10829.689    81.695294 
   93100    1579.9849   -104.08189    1.4296035   -102.65228    12652.112    4.3403208    4.3403208    4.3403208    12652.112    7207.4355   -20849.656    51598.556    -7426.299    16689.065    18972.968    81.764633 
   93200    2002.7466   -104.47372    1.8121272   -102.66159   -13723.679    4.3632371    4.3632371    4.3632371   -13723.679   -2979.9025   -31737.503   -6453.6311    13632.564   -6250.2454    10657.255    83.066604 
   93300    1285.8575   -103.82797    1.1634709    -102.6645   -9676.3715    4.3743361    4.3743361    4.3743361   -9676.3715   -12237.689   -25520.875    8729.4489   -3718.9769   -4006.5908    -4963.903    83.702116 
   93400    1458.5455   -103.96936    1.3197226   -102.64964    17159.444    4.3592054    4.3592054    4.3592054    17159.444   -7696.2807   -37322.961    96497.573   -1864.3239    6050.8228     5268.637    82.836551 
   93500    1771.2607   -104.25385    1.6026739   -102.65118    12264.559    4.3269727    4.3269727    4.3269727    12264.559    11685.681    12439.798    12668.198    5793.7972   -54171.997   -7296.1677     81.01258 
   93600     1389.521   -103.94468    1.2572678   -102.68741    6903.1673     4.329977     4.329977     4.329977    6903.1673    27078.683   -27230.718    20861.537    1176.9697    45570.059   -4050.9047    81.181444 
   93700    1474.2934   -104.03456    1.3339716   -102.70059    6330.8355    4.3676366    4.3676366    4.3676366    6330.8355   -34914.961   -42327.943    96235.411    4285.1691   -2550.7264    13995.553    83.318123 
   93800    1221.0303   -103.77871    1.1048139    -102.6739   -23436.058    4.3765281    4.3765281    4.3765281   -23436.058   -30009.895   -40003.607     -294.672   -5173.3564    16859.796   -2895.0067    83.828011 
   93900    1370.2582   -103.89017    1.2398384   -102.65034   -19120.047    4.3485424    4.3485424    4.3485424   -19120.047   -3352.3176   -7891.2442   -46116.579    21131.415    16624.127    18775.085     82.23016 
   94000    2134.5791   -104.56771     1.931412    -102.6363    10020.122    4.3261153    4.3261153    4.3261153    10020.122    19210.225     1962.415    8887.7252   -32108.867   -13498.562   -6811.3146     80.96443 
   94100    983.06229   -103.56953   0.88949542   -102.68004   -40756.049    4.3483655    4.3483655    4.3483655   -40756.049    -26480.65   -44748.855   -51038.642    22079.955    24539.624   -8263.9318    82.220125 
   94200    1658.7497   -104.16453    1.5008716   -102.66366   -5086.3672    4.3582467    4.3582467    4.3582467   -5086.3672     5423.438   -4764.4913   -15918.048   -3796.2913   -12458.669    4010.5784     82.78191 
   94300    1431.8415   -103.95121    1.2955603   -102.65565    2791.5677    4.3514187    4.3514187    4.3514187    2791.5677    -12559.44   -18618.454    39552.597   -7718.9163     34203.68   -908.52071     82.39344 
   94400    1221.2775   -103.76659    1.1050376   -102.66155    4822.2049    4.3530216    4.3530216    4.3530216    4822.2049    2891.4115    6032.2876    5542.9155    10200.402    1755.3158    6872.6492    82.484524 
   94500    1546.1515   -104.04879    1.3989904    -102.6498    11868.684    4.3540116    4.3540116    4.3540116    11868.684   -25142.336    38857.371    21891.016   -30019.596    16442.373     26383.33    82.540813 
   94600    973.56391   -103.54079   0.88090109   -102.65989    6059.4793    4.3538373    4.3538373    4.3538373    6059.4793   -29221.925    47435.032   -34.669312     12579.73    12936.329   -845.50076    82.530904 
   94700    1613.5564   -104.11244    1.4599797   -102.65246    3404.5141    4.3547404    4.3547404    4.3547404    3404.5141   -37910.032    71711.943   -23588.368   -22070.749   -16562.211   -306.61081    82.582269 
   94800    1473.6065   -103.99289    1.3333501   -102.65954   -7042.1676    4.3573291    4.3573291    4.3573291   -7042.1676   -38489.634    12615.236    4747.8944   -12729.774    22253.295   -20484.905    82.729633 
   94900    1107.5918   -103.65936    1.0021724   -102.65719    -8997.377    4.3510643    4.3510643    4.3510643    -8997.377   -27136.765    6682.6683   -6538.0346    18218.134   -39584.097   -24003.556    82.373305 
   95000    1973.2078   -104.43601    1.7853999   -102.65061    4455.1812    4.3479456    4.3479456    4.3479456    4455.1812   -7915.0647   -8426.9838    29707.592   -22830.769    8906.3281   -839.75762    82.196309 
   95100    1154.6719   -103.71748    1.0447714   -102.67271   -22651.197    4.3545758    4.3545758    4.3545758   -22651.197   -30455.875    17352.021   -54849.738    9260.6434   -24470.932    7193.8996    82.572906 
   95200    1450.4251    -103.9833    1.3123751   -102.67092   -1457.5218    4.3444745    4.3444745    4.3444745   -1457.5218    44763.379   -38059.251   -11076.693   -5151.6332    -8503.829    15384.493    81.999606 
   95300    2109.3244   -104.57256     1.908561     -102.664   -10624.814    4.3448491    4.3448491    4.3448491   -10624.814    11685.267   -4434.5146   -39125.195   -1810.8766   -224.47858    2764.6806    82.020815 
   95400    1097.5133   -103.68197    0.9930531   -102.68891   -15215.239    4.3514861    4.3514861    4.3514861   -15215.239    37625.734   -36456.931   -46814.519    18024.377   -23987.224    1614.3137    82.397269 
   95500    1804.1262   -104.30842    1.6324113   -102.67601   -3829.6035    4.3501947    4.3501947    4.3501947   -3829.6035    74636.076   -35966.815   -50158.071   -5489.9012    4221.8703    10972.352    82.323928 
   95600    1614.7661   -104.13783    1.4610743   -102.67675    1004.9032     4.334959     4.334959     4.334959    1004.9032    33491.862    997.86641   -31475.019   -7461.0795   -37402.372   -6339.1692    81.461987 
   95700    1404.1736   -103.96376    1.2705258   -102.69323   -21472.992    4.3458009    4.3458009    4.3458009   -21472.992    11847.514   -26334.144   -49932.347    23023.656    15735.648    3349.9546    82.074733 
   95800    1563.3239    -104.0976    1.4145283   -102.68307    10770.264    4.3546556    4.3546556    4.3546556    10770.264    90012.176    11591.937   -69293.321   -4560.1816    1919.7488    1567.5507    82.577446 
   95900    1483.6523   -104.03221    1.3424397   -102.68977   -31816.251    4.3532106    4.3532106    4.3532106   -31816.251   -6172.4594   -34264.105   -55012.189    14472.004   -347.09461   -2605.3758     82.49527 
   96000    829.87914   -103.46583   0.75089209   -102.71494   -22835.771    4.3320849    4.3320849    4.3320849   -22835.771   -15469.614    11183.348   -64221.049    14902.746    47655.353   -2379.7995    81.300061 
   96100    2075.8273   -104.58065    1.8782522    -102.7024    44700.574    4.3188911    4.3188911    4.3188911    44700.574    126078.59     26558.04   -18534.907   -4690.5683   -19081.487   -4219.5055    80.559499 
   96200    1181.2245    -103.8045    1.0687968   -102.73571   -41343.816    4.3482775    4.3482775    4.3482775   -41343.816   -29606.129   -22105.018   -72320.302     17039.15    38920.519    6664.6825    82.215134 
   96300    1205.9068    -103.8117    1.0911298   -102.72057    4865.8114    4.3494158    4.3494158    4.3494158    4865.8114    94849.252   -31998.603   -48253.214    15912.081    3010.7708   -6584.2339    82.279713 
   96400    2178.1646   -104.66977    1.9708491   -102.69892   -7661.7864    4.3413742    4.3413742    4.3413742   -7661.7864    22659.247    891.60649   -46536.213   -11479.288    406.48516   -4082.7488    81.824183 
   96500    905.07091   -103.52327   0.81892718   -102.70434    22497.781    4.3277301    4.3277301    4.3277301    22497.781    96688.939       7380.4   -36575.996    16780.011    17323.888   -9033.0917    81.055127 
   96600    1495.7932   -104.05597    1.3534251   -102.70254   -11395.627    4.3437022    4.3437022    4.3437022   -11395.627   -1476.3172   -8656.5729    -24053.99    469.61329   -33289.303   -17.313495    81.955885 
   96700    2024.5563   -104.51902    1.8318611   -102.68715   -20774.357    4.3505245    4.3505245    4.3505245   -20774.357    21700.722   -30864.442   -53159.349   -10023.868    19657.068   -8330.5263    82.342655 
   96800    916.70219   -103.53826   0.82945141   -102.70881   -28751.044    4.3413574    4.3413574    4.3413574   -28751.044   -8727.3929   -10847.995   -66677.743    19515.005   -9822.0002   -801.05152    81.823232 
   96900    1609.8419   -104.15369    1.4566187   -102.69707    29180.743     4.324909     4.324909     4.324909    29180.743    52911.145   -3281.9438    37913.029   -23652.502   -16383.715    3263.1969    80.896723 
   97000    1879.4825   -104.40721    1.7005952   -102.70661   -30087.299    4.3482464    4.3482464    4.3482464   -30087.299   -1659.5389   -43509.814   -45092.545   -170.66128   -3666.0418   -25.213039    82.213369 
   97100    941.82308   -103.55948   0.85218132    -102.7073   -4684.6602    4.3547024    4.3547024    4.3547024   -4684.6602     30044.09   -22914.687   -21183.383    9086.4868   -37818.501   -2342.6847    82.580107 
   97200     1894.832   -104.40839    1.7144838   -102.69391    534.07576    4.3398459    4.3398459    4.3398459    534.07576    15452.941   -34000.961    20150.247   -35290.804    30721.672   -9778.1928    81.737794 
   97300     1741.335   -104.26355    1.5755965   -102.68796    20662.845    4.3229158    4.3229158    4.3229158    20662.845    54450.201    5761.1834    1777.1495     3223.321    -37857.82     1908.785    80.784928 
   97400     1039.328   -103.64385   0.94040586   -102.70344   -9612.8166    4.3487823    4.3487823    4.3487823   -9612.8166   -24277.867   -25416.025    20855.442   -23549.583    2119.4056   -4809.3769    82.243768 
   97500    1487.3925   -104.02401     1.345824   -102.67819   -6116.3766    4.3589365    4.3589365    4.3589365   -6116.3766    59806.918   -23015.943   -55140.105   -17950.586    18759.211   -9635.2635    82.821223 
   97600    1832.1495    -104.3208    1.6577674   -102.66303   -11376.702    4.3427491    4.3427491    4.3427491   -11376.702    4853.6025    565.09134   -39548.801    -16170.97   -41672.843    5647.5227    81.901944 
   97700    1087.5771   -103.66044   0.98406263   -102.67638   -28337.063    4.3337702    4.3337702    4.3337702   -28337.063    -46760.93   -7223.3735   -31026.884   -19933.308    41140.559   -14612.379    81.394984 
   97800     1873.973   -104.38077    1.6956102   -102.68516    28619.897    4.3345263    4.3345263    4.3345263    28619.897    72624.464    20278.436   -7043.2094    13334.245   -4926.5031   -8585.9868    81.437595 
   97900    1605.2552   -104.15127    1.4524686    -102.6988    3319.1338    4.3370288    4.3370288    4.3370288    3319.1338    35729.432   -11605.716   -14166.315   -16618.071      13780.7    1661.5605    81.578725 
   98000    935.05379   -103.55859   0.84605632   -102.71254   -15712.915    4.3407092    4.3407092    4.3407092   -15712.915    8168.2125    12.758458   -55319.717   -6256.2469    23034.725   -14580.919    81.786587 
   98100    2147.7232   -104.63492    1.9433051   -102.69162    14168.471    4.3405861    4.3405861    4.3405861    14168.471    56611.743    -6532.008   -7574.3207    -3951.052   -9771.2548    4983.2249    81.779627 
   98200    1182.0127   -103.76613      1.06951   -102.69662   -1680.0723    4.3382007    4.3382007    4.3382007   -1680.0723    45043.981   -42660.451   -7423.7468   -19409.833    33068.049   -17417.322    81.644876 
   98300    1343.2223   -103.90104    1.2153757   -102.68567   -25054.423    4.3436478    4.3436478    4.3436478   -25054.423   -20021.035   -6922.4401   -48219.793     9148.864   -22192.736    3528.3455    81.952803 
   98400    1632.6466   -104.15354    1.4772529   -102.67629    26646.499    4.3286561    4.3286561    4.3286561    26646.499    46865.908   -2714.0096    35787.599    2173.6106    5103.2379    -10730.38    81.107171 
   98500    1377.9278   -103.94462    1.2467781   -102.69784   -18512.715    4.3423578    4.3423578    4.3423578   -18512.715     15184.19    -34660.76   -36061.575    -19649.13    8465.8925   -17352.191    81.879808 
   98600    1496.2204   -104.04359    1.3538117   -102.68977   -17925.279    4.3413318    4.3413318    4.3413318   -17925.279   -17194.949   -7364.6174   -29216.272    14061.025   -34832.697    2557.3482    81.821784 
   98700    1589.3742    -104.1283    1.4380992    -102.6902    7366.3577    4.3375707    4.3375707    4.3375707    7366.3577    67789.207    1714.0362    -47404.17    3656.5536    24110.083    -26271.83    81.609308 
   98800    1560.2769    -104.1043    1.4117714   -102.69253   -11418.349    4.3364039    4.3364039    4.3364039   -11418.349    -3277.188    7578.7462   -38556.604    5899.7982   -25400.716   -282.90054    81.543469 
   98900    1080.2146   -103.68035   0.97740086   -102.70295    6677.5053     4.337262     4.337262     4.337262    6677.5053     34411.64    26445.758   -40824.882    25414.552   -14048.987   -13724.936    81.591883 
   99000    2256.6022   -104.73024    2.0418211   -102.68842   -5626.7746     4.341122     4.341122     4.341122   -5626.7746    16283.673    4783.9487   -37947.946   -18068.433   -2080.3053    534.85316    81.809924 
   99100    1114.7029   -103.71498    1.0086066   -102.70638   -12849.214    4.3423632    4.3423632    4.3423632   -12849.214    2671.6793   -10217.723   -31001.597     6330.092   -30779.614   -962.16562    81.880115 
   99200    1365.7817   -103.93146     1.235788   -102.69567    4865.7889    4.3379792    4.3379792    4.3379792    4865.7889   -28.163583   -8020.2325    22645.763   -14820.121    12058.259    -12458.29     81.63237 
   99300    1741.9233   -104.25492    1.5761288   -102.67879    10674.176    4.3385066    4.3385066    4.3385066    10674.176    47661.299   -24195.882    8557.1117    14912.221   -24405.565    8689.5004    81.662148 
   99400     1212.679   -103.78396    1.0972575    -102.6867    -38402.07    4.3478564    4.3478564    4.3478564    -38402.07   -58989.685   -40428.334   -15788.191    18419.826   -407.38483     -12766.7    82.191249 
   99500    1710.2033   -104.22575    1.5474279   -102.67833    16647.021    4.3305592    4.3305592    4.3305592    16647.021   -6708.2489     12610.74    44038.573   -13049.866     11451.62    8554.8328    81.214192 
   99600    1812.7673   -104.32679    1.6402299   -102.68656    9696.9637    4.3360965    4.3360965    4.3360965    9696.9637    49157.113   -11747.641   -8318.5817    1769.1652   -3312.8002    6737.8978    81.526129 
   99700    841.45768   -103.46218   0.76136859   -102.70081    7235.5519    4.3414312    4.3414312    4.3414312    7235.5519    22029.676   -17220.208    16897.187   -5317.2695    27697.335    12569.282    81.827404 
   99800    1755.9119   -104.27605     1.588786   -102.68726   -8642.8232    4.3502912    4.3502912    4.3502912   -8642.8232    8812.4396   -44161.364    9420.4551   -14177.676    14961.586    156.38177    82.329407 
   99900    1740.6627   -104.25428    1.5749882    -102.6793    9183.4654    4.3478435    4.3478435    4.3478435    9183.4654     14370.01    7501.4678    5678.9188    22138.655    9275.0935   -3989.0283    82.190519 
  100000    903.14464    -103.5036   0.81718425   -102.68642   -15329.104    4.3420607    4.3420607    4.3420607   -15329.104   -14406.323   -43075.656    11494.667   -24906.882    22018.579      14083.6       81.863 
Loop time of 22.2626 on 1 procs for 100000 steps with 8 atoms

Pair  time (%) = 6.94252 (31.1847)
Kspce time (%) = 5.35537 (24.0555)
Neigh time (%) = 0.146553 (0.658294)
Comm  time (%) = 1.04844 (4.70945)
Outpt time (%) = 0.02493 (0.111982)
Other time (%) = 8.74476 (39.2801)

Nlocal:    8 ave 8 max 8 min
Histogram: 1 0 0 0 0 0 0 0 0 0
Nghost:    2147 ave 2147 max 2147 min
Histogram: 1 0 0 0 0 0 0 0 0 0
Neighs:    2135 ave 2135 max 2135 min
Histogram: 1 0 0 0 0 0 0 0 0 0

Total # of neighbors = 2135
Ave neighs/atom = 266.875
Neighbor list builds = 1739
Dangerous builds = 0
unfix 20
unfix 21
print "seeds:6246940"
seeds:6246940
