LAMMPS (10 Feb 2015)
# ---- initialize simulations
clear
units metal
dimension 3
boundary p p p
atom_style charge
atom_modify map array
# ---- create atoms
read_data /Users/eugeneragasa/pyflamestk_git/pypospack/tests/tests_integration/workflow/WorkflowLammpsThermalExpansion/param_1902/MgO_NaCl_unit.npt.T400/lammps.structure
  triclinic box = (0 0 0) to (4.2565 4.2565 4.2565) with tilt (0 0 0)
  1 by 1 by 1 MPI processor grid
  reading atoms ...
  8 atoms
# ---- define interatomic potential
include potential.mod
mass 1 24.305
mass 2 15.999

group Mg type 1
4 atoms in group Mg
group O type 2
4 atoms in group O

set group Mg charge 1.69754800024
  4 settings made for charge
set group O charge -1.69754800024
  4 settings made for charge

variable R_cut equal 10.0

pair_style buck/coul/long ${R_cut}
pair_style buck/coul/long 10
pair_coeff 1 1 0.0 0.5 0.0 ${R_cut}
pair_coeff 1 1 0.0 0.5 0.0 10
pair_coeff 1 2 1340.93810979 0.285979914483 0.0 ${R_cut}
pair_coeff 1 2 1340.93810979 0.285979914483 0.0 10
pair_coeff 2 2 11096.6994948 0.145827000496 3.24328494634 ${R_cut}
pair_coeff 2 2 11096.6994948 0.145827000496 3.24328494634 10

kspace_style pppm 1.0e-5

neighbor 1.0 bin
neigh_modify every 1 delay 0 check yes
# ---- define settings
compute eng all pe/atom
compute eatoms all reduce sum c_eng
# ---- run minimization
reset_timestep 0
fix 1 all box/relax iso 0.0 vmax 0.001
thermo 10
thermo_style custom step pe lx ly lz xy xz yz press pxx pyy pzz pxy pxz pyz c_eatoms
min_style cg
minimize 1e-25 1e-25 5000 10000
PPPM initialization ...
  G vector (1/distance) = 0.353134
  grid = 8 8 8
  stencil order = 5
  estimated absolute RMS force accuracy = 4.09436e-05
  estimated relative force accuracy = 2.84338e-06
  using double precision FFTs
  3d grid and FFT values/proc = 3375 512
Neighbor list info ...
  1 neighbor list requests
  update every 1 steps, delay 0 steps, check yes
  master list distance cutoff = 11
Memory usage per processor = 4.06549 Mbytes
Step PotEng Lx Ly Lz Xy Xz Yz Press Pxx Pyy Pzz Pxy Pxz Pyz eatoms 
       0   -117.43599       4.2565       4.2565       4.2565            0            0            0    33717.192    33717.192    33717.192    33717.192 -3.1023281e-11 -2.4163961e-10 -2.0934262e-10   -117.43599 
       8   -117.45138    4.2835821    4.2835821    4.2835821            0            0            0   -5.0124394   -5.0124394   -5.0124394   -5.0124394 6.8970478e-11 -1.4442567e-10 -9.765937e-11   -117.45138 
Loop time of 0.00857806 on 1 procs for 8 steps with 8 atoms

Minimization stats:
  Stopping criterion = linesearch alpha is zero
  Energy initial, next-to-last, final = 
        -117.435990229     -117.451383044     -117.451383044
  Force two-norm initial, final = 4.86878 0.0018005
  Force max component initial, final = 4.86878 0.000733039
  Final line search alpha, max atom move = 0.00390625 2.86343e-06
  Iterations, force evaluations = 8 25

Pair  time (%) = 0.002352 (27.4188)
Kspce time (%) = 0.0013535 (15.7786)
Neigh time (%) = 0 (0)
Comm  time (%) = 0.000258446 (3.01287)
Outpt time (%) = 0 (0)
Other time (%) = 0.00461411 (53.7897)

Nlocal:    8 ave 8 max 8 min
Histogram: 1 0 0 0 0 0 0 0 0 0
Nghost:    2189 ave 2189 max 2189 min
Histogram: 1 0 0 0 0 0 0 0 0 0
Neighs:    2344 ave 2344 max 2344 min
Histogram: 1 0 0 0 0 0 0 0 0 0

Total # of neighbors = 2344
Ave neighs/atom = 293
Neighbor list builds = 0
Dangerous builds = 0
unfix 1
# ---- define output variables ----
variable natoms equal "count(all)"
variable tot_energy equal "c_eatoms"
variable length_x equal "lx"
variable length_y equal "ly"
variable length_z equal "lz"
variable tilt_xy equal "xy"
variable tilt_xz equal "xz"
variable tilt_yz equal "yz"
variable tot_press equal "press"
variable press_xx equal "pxx"
variable press_yy equal "pyy"
variable press_zz equal "pzz"
variable press_xy equal "pxy"
variable press_xz equal "pxz"
variable press_yz equal "pyz"

# ---- output ----
print "pypospack:output_section:begin"
pypospack:output_section:begin
print "tot_energy = ${tot_energy}"
tot_energy = -117.45138304358
print "num_atoms = ${natoms}"
num_atoms = 8
print "xx = ${length_x}"
xx = 4.28358206284588
print "yy = ${length_y}"
yy = 4.28358206284588
print "zz = ${length_z}"
zz = 4.28358206284588
print "xy = ${tilt_xy}"
xy = 0
print "xz = ${tilt_xz}"
xz = 0
print "yz = ${tilt_yz}"
yz = 0
print "tot_press = ${tot_press}"
tot_press = -5.01243937142067
print "pxx = ${press_xx}"
pxx = -5.01243937108414
print "pyy = ${press_yy}"
pyy = -5.01243937158826
print "pzz = ${press_zz}"
pzz = -5.01243937158962
print "pxy = ${press_xy}"
pxy = 6.8970477610601e-11
print "pxz = ${press_xz}"
pxz = -1.44425666326158e-10
print "pyz = ${press_yz}"
pyz = -9.76593698696591e-11
print "pypospack:output_section:done"
pypospack:output_section:done
print "pypospack:lammps_sim:done"
pypospack:lammps_sim:done
#------------------------------------------------------------------------------
# RUN THERMOSTAT
# running using an NPT Nose-Hoover style thermostat
#------------------------------------------------------------------------------
variable tempdamp equal 0.1
variable pressdamp equal 1.0
# set initial velocities
velocity all create 400 6633561 mom yes dist gaussian loop all
# fix for Nose-Hoover style thermostat
fix 20 all npt temp 400 400 0.1 aniso 0.0 0.0 1.0 drag 1.0 couple xyz
variable boxx equal lx
variable boxy equal ly
variable boxz equal lz
variable boxp equal press
variable boxt equal temp
# calculate averages every 10000 steps
reset_timestep 0
fix 21 all ave/time 10 10 100 v_boxx v_boxy v_boxz v_boxp v_boxt file lattice.out
thermo_style custom step temp pe ke etotal press lx ly lz press pxx pyy pzz pxy pxz pyz vol
thermo_modify flush yes
thermo 100
run 100000
PPPM initialization ...
  G vector (1/distance) = 0.352856
  grid = 8 8 8
  stencil order = 5
  estimated absolute RMS force accuracy = 4.14735e-05
  estimated relative force accuracy = 2.88018e-06
  using double precision FFTs
  3d grid and FFT values/proc = 3375 512
Memory usage per processor = 3.06549 Mbytes
Step Temp PotEng KinEng TotEng Press Lx Ly Lz Press Pxx Pyy Pzz Pxy Pxz Pyz Volume 
       0          400   -117.45139   0.36192841   -117.08946    4912.3807    4.2835821    4.2835821    4.2835821    4912.3807    3242.5075    7336.1886    4158.4459    741.34498   -2429.4693   -821.67382     78.59977 
     100    295.15151   -117.30228   0.26705929   -117.03522    -1367.136    4.2962804    4.2962804    4.2962804    -1367.136   -2515.7027    653.08538   -2238.7908    315.32199    1493.0818    489.72875    79.300852 
     200    298.79937   -117.21073   0.27035995   -116.94037    3433.1532    4.2931817    4.2931817    4.2931817    3433.1532   -6226.7402    21753.034   -5226.8341   -909.58067    6667.8919    2154.5966    79.129386 
     300    388.22526   -117.20433   0.35127438   -116.85306    6701.6838    4.2927063    4.2927063    4.2927063    6701.6838   -6097.0634    30018.595   -3816.4804   -1617.9502    2477.3516    358.75083    79.103104 
     400     502.3598   -117.24376    0.4545457   -116.78922    6228.0751     4.297106     4.297106     4.297106    6228.0751    568.02603    17021.984    1094.2154   -1010.6072   -3036.9879   -3723.1895    79.346576 
     500    531.90088   -117.22716    0.4812751   -116.74588   -15813.879    4.3035501    4.3035501    4.3035501   -15813.879   -22075.966   -5011.8294   -20353.841     1348.282    3661.3909   -1301.0301    79.704086 
     600    447.18575   -117.12989   0.40462306   -116.72527   -121.32185    4.2890579    4.2890579    4.2890579   -121.32185   -2333.2674    4218.3738    -2249.072     1082.395    6536.6961     4148.017    78.901586 
     700    582.10542   -117.24681   0.52670121   -116.72011    -8351.917    4.3048746    4.3048746    4.3048746    -8351.917   -16744.759    6932.3964   -15243.388   -403.21199    354.37636    4148.4723    79.777698 
     800    447.05543   -117.12587   0.40450514   -116.72137     3596.274    4.2968567    4.2968567    4.2968567     3596.274   -11379.147    26980.503   -4812.5339   -334.30973    6075.7184    1536.2852    79.332766 
     900    294.11697   -116.99038   0.26612321   -116.72426    2187.6089    4.2940239    4.2940239    4.2940239    2187.6089   -8317.7092    25363.963   -10483.427   -1687.8938    7397.7508   -611.36111    79.175964 
    1000    451.27175    -117.1326   0.40832016   -116.72428   -3254.3118    4.3003325    4.3003325    4.3003325   -3254.3118   -10755.397    1915.2256   -922.76363   -781.84547   -1748.7222   -1299.8309    79.525446 
    1100    525.81723   -117.19914   0.47577048   -116.72336   -961.37311    4.2989975    4.2989975    4.2989975   -961.37311    2007.4092   -8926.3436    4034.8151   -1243.5688   -2956.5679   -1012.9483    79.451402 
    1200    470.68151   -117.15042   0.42588252   -116.72453   -520.73803    4.2933368    4.2933368    4.2933368   -520.73803   -1042.1081   -944.57073    424.46476    1154.8955    5876.1912    2714.7836    79.137963 
    1300    280.42119   -116.98113   0.25373098    -116.7274      2291.45    4.3014743    4.3014743    4.3014743      2291.45   -5798.5054    9463.2161    3209.6393    1981.6446     7163.569    4381.2643    79.588808 
    1400     335.9709   -117.02928   0.30399353   -116.72529    5633.2515    4.2978558    4.2978558    4.2978558    5633.2515    2710.0312     20620.13   -6430.4067    841.60984   -940.39788    3164.7604    79.388122 
    1500    369.46318   -117.05804   0.33429805   -116.72374     5692.617    4.2934736    4.2934736    4.2934736     5692.617   -1118.8189    13980.355    4216.3147    -544.6853   -426.01465   -3020.6849    79.145527 
    1600    338.58174   -117.03043   0.30635587   -116.72407   -7670.8131    4.3039495    4.3039495    4.3039495   -7670.8131   -6536.0029   -8788.6348   -7687.8017   -2586.6212    5428.0472   -1197.9105     79.72628 
    1700    366.76384   -117.05513   0.33185563   -116.72327   -3850.7843    4.2944505    4.2944505    4.2944505   -3850.7843    76.050873   -7404.6467   -4223.7572   -1845.4839    4181.0885    4353.5618    79.199566 
    1800     358.9511   -117.04818    0.3247865   -116.72339   -6121.1658    4.2975487    4.2975487    4.2975487   -6121.1658   -2268.0283   -14023.622   -2071.8468   -684.98738   -292.76117    4686.9106    79.371102 
    1900    296.14995   -116.99206    0.2679627   -116.72409   -1811.8829    4.2998226    4.2998226    4.2998226   -1811.8829   -5606.5906    10955.115   -10784.173    2960.3206    2619.1834    475.08351    79.497161 
    2000    174.77584   -116.88326   0.15814085   -116.72512    1510.3213    4.2971775    4.2971775    4.2971775    1510.3213   -11372.361    26469.367   -10566.042    2770.8753    6076.9532    2943.4032    79.350538 
    2100     253.3285   -116.95405   0.22921695   -116.72483    -2686.124    4.2943377    4.2943377    4.2943377    -2686.124   -3151.9497     1981.179   -6887.6015    380.92985   -1009.8971    7559.8617    79.193328 
    2200    385.48373   -117.07283   0.34879378   -116.72404   -15182.152    4.3034459    4.3034459    4.3034459   -15182.152   -13898.606   -24233.075   -7414.7753   -1476.1756    905.07213    179.93834    79.698296 
    2300    324.41337   -117.01738   0.29353604   -116.72384   -2229.7069    4.2941421    4.2941421    4.2941421   -2229.7069   -6873.4563    1133.1618   -948.82608   -1932.9035     9123.982   -944.49111    79.182507 
    2400    259.03597   -116.95914   0.23438119   -116.72476   -3649.1466    4.2972229    4.2972229    4.2972229   -3649.1466   -9967.7092    4816.7987   -5796.5295    195.21795    3381.6216    1156.8422    79.353056 
    2500    176.63666    -116.8853   0.15982456   -116.72548     2292.802    4.2999671    4.2999671    4.2999671     2292.802   -8614.0999    10299.172    5193.3336    248.61434   -1181.9371    6433.5171    79.505175 
    2600    243.35959   -116.94461   0.22019687   -116.72441    6288.5458    4.2954133    4.2954133    4.2954133    6288.5458   -3321.8854    18503.886    3683.6369    1793.9736     992.0955     912.6814    79.252846 
    2700    344.19737   -117.03513   0.31143702   -116.72369    -1776.984    4.2966957    4.2966957    4.2966957    -1776.984   -4645.0894   -2904.0383    2218.1758    1862.3081    4436.4961    209.10401    79.323851 
    2800    337.05534   -117.02914   0.30497476   -116.72416   -6013.4698    4.2990031    4.2990031    4.2990031   -6013.4698    -1392.863   -22653.546    6006.0002   -847.33198    813.07606    2451.2251    79.451715 
    2900    319.12678   -117.01309   0.28875261   -116.72433   -1723.4158    4.2973775    4.2973775    4.2973775   -1723.4158   -1660.2486   -1646.7021   -1863.2968   -3272.4656   -599.66403    3002.6041    79.361617 
    3000    239.23118   -116.94141    0.2164614   -116.72495    7347.6403     4.295813     4.295813     4.295813    7347.6403   -1638.6358    24197.932   -516.37542   -1361.6905    4351.3085   -2146.3275    79.274972 
    3100    256.83269   -116.95722   0.23238762   -116.72483    1312.6027    4.2993538    4.2993538    4.2993538    1312.6027   -5007.1002    15641.121   -6696.2129    1624.7788    1088.0282   -823.53392    79.471158 
    3200    358.06294   -117.04809   0.32398287    -116.7241   -3382.6164    4.2969454    4.2969454    4.2969454   -3382.6164   -3818.2324    147.16178   -6476.7787     2353.304   -2084.7872    9484.9401    79.337684 
    3300     372.7477   -117.06159   0.33726995   -116.72432   -5943.0152    4.2976604    4.2976604    4.2976604   -5943.0152   -736.95773   -10002.844   -7089.2435    117.22278    2268.8857     6442.092    79.377292 
    3400    393.22785   -117.08018   0.35580082   -116.72438   -6353.5153    4.2980474    4.2980474    4.2980474   -6353.5153   -5779.7293   -2387.2878   -10893.529   -2599.6689    4723.7382   -2241.5127     79.39874 
    3500     354.9515   -117.04559   0.32116757   -116.72442   -1729.9932    4.2987638    4.2987638    4.2987638   -1729.9932   -9857.0965    14009.826   -9342.7092   -843.70716    1736.9425    -2923.488    79.438448 
    3600    251.19057   -116.95247   0.22728251   -116.72518    6350.4101    4.2953721    4.2953721    4.2953721    6350.4101    244.66917    27027.478   -8220.9168   -1214.0132   -3341.6824    3762.6064    79.250566 
    3700    359.68853   -117.05062   0.32545375   -116.72517   -5356.4679    4.2986458    4.2986458    4.2986458   -5356.4679   -13200.002    10571.805   -13441.206    1524.9503    2877.7401    3469.8048    79.431904 
    3800     465.6418   -117.14488   0.42132249   -116.72356   -5739.1992    4.2982008    4.2982008    4.2982008   -5739.1992   -10681.481    -2838.126   -3697.9904    913.76718    5948.8378    975.18696    79.407241 
    3900    521.41724    -117.1952   0.47178928   -116.72341   -3921.4544    4.2965272    4.2965272    4.2965272   -3921.4544   -6068.6211     186.3219    -5882.064     -1036.88   -320.34728    4374.1279     79.31452 
    4000    382.70701   -117.07144   0.34628135   -116.72516   -347.30302    4.2974118    4.2974118    4.2974118   -347.30302   -11604.736    9969.0772    593.74979   -2623.8522    2802.0893    2415.9855    79.363517 
    4100    299.38529   -116.99716    0.2708901   -116.72627    5459.0962    4.2985548    4.2985548    4.2985548    5459.0962   -14732.837    31855.102   -744.97632   -1340.2412    4058.0508   -1467.9613     79.42686 
    4200    477.96032   -117.15684   0.43246855   -116.72437    5914.9852    4.2955612    4.2955612    4.2955612    5914.9852   -9811.5387    33039.763   -5483.2687    2464.1076   -57.666642   -2192.9143    79.261036 
    4300    501.56885   -117.17865   0.45383003   -116.72482   -172.12353    4.2980825    4.2980825    4.2980825   -172.12353   -9002.0737    1823.6399    6662.0632    567.65631   -1835.1418    4581.2403    79.400682 
    4400    495.25593   -117.17326   0.44811797   -116.72514   -9777.8486    4.2990131    4.2990131    4.2990131   -9777.8486   -12392.242   -5791.6775   -11149.626   -1303.2216    5154.7914    5150.9139    79.452271 
    4500    483.36434   -117.16264   0.43735821   -116.72528   -416.76238     4.295883     4.295883     4.295883   -416.76238   -6986.2658    15985.833   -10249.854   -1257.7962    5699.1276     532.0038    79.278851 
    4600    461.45105   -117.14209   0.41753061   -116.72456     6256.733    4.2986672    4.2986672    4.2986672     6256.733   -7954.1515    30419.674   -3695.3235    1527.7484   -2581.1036   -2772.6565    79.433095 
    4700    418.01275   -117.10323   0.37822672     -116.725    3666.5845    4.2972219    4.2972219    4.2972219    3666.5845   -9618.6199    33294.707   -12676.333    2471.5279    -486.5045    2522.9442    79.352996 
    4800    377.90094   -117.06789   0.34193271   -116.72596   -1663.7186    4.2978927    4.2978927    4.2978927   -1663.7186   -6586.2374    13568.655   -11973.573    1463.3793    5272.5616    2367.6547    79.390164 
    4900    597.12419   -117.26383   0.54029051   -116.72354   -5122.4808    4.2982804    4.2982804    4.2982804   -5122.4808   -7798.6981    2635.8857    -10204.63   -1576.5596    3662.4629   -1775.7903     79.41165 
    5000    604.24425    -117.2699    0.5467329   -116.72317   -2671.1996    4.2984423    4.2984423    4.2984423   -2671.1996   -7763.0778    1145.3394   -1395.8603   -1924.8977   -1418.6615    2858.7394    79.420628 
    5100    427.70028   -117.11188    0.3869922   -116.72488    3774.5412    4.2953557    4.2953557    4.2953557    3774.5412    481.64042     23018.17   -12176.187   -1181.4654    829.48029    8002.8018     79.24966 
    5200    386.49958   -117.07576   0.34971294   -116.72605    1563.3017    4.3013415    4.3013415    4.3013415    1563.3017   -14639.082     32117.51   -12788.523    1324.0327    2846.7808    3227.6306    79.581438 
    5300    466.32737   -117.14599    0.4219428   -116.72405    11379.673    4.2947019    4.2947019    4.2947019    11379.673   -4115.5799    29842.674    8411.9267    3876.6021   -990.22908   -6667.5997    79.213475 
    5400    573.49833   -117.24279   0.51891334   -116.72388    193.22047     4.296399     4.296399     4.296399    193.22047   -2361.1314    6754.6763   -3813.8835    1452.7888    2092.0579   -1266.1259    79.307421 
    5500      424.276   -117.10952   0.38389384   -116.72563   -5685.8685    4.3009661    4.3009661    4.3009661   -5685.8685   -12169.997   -8687.3918    3799.7838   -858.90472    5919.8794    4613.8704    79.560599 
    5600    473.77163    -117.1541   0.42867853   -116.72542   -1066.0485    4.2954264    4.2954264    4.2954264   -1066.0485   -8301.3305    13191.117   -8087.9316   -4207.0459    4167.3027    7302.2349    79.253573 
    5700    476.15988   -117.15584   0.43083946     -116.725     5351.265    4.2967919    4.2967919    4.2967919     5351.265   -6680.7319    27760.302   -5025.7752    6.9497595   -2287.9772   -1282.0039    79.329179 
    5800    385.54531   -117.07405    0.3488495    -116.7252    1251.3468    4.3007376    4.3007376    4.3007376    1251.3468   -13226.393    25052.232   -8071.7982    659.64926    1298.6337   -2680.8171    79.547922 
    5900    351.24416   -117.04312   0.31781309    -116.7253   -1720.8211     4.295364     4.295364     4.295364   -1720.8211   -11796.842    18936.605   -12302.226   -1539.5763    8103.4174    172.92299    79.250118 
    6000    511.57314   -117.18721   0.46288213   -116.72433   -5342.7595    4.2974416    4.2974416    4.2974416   -5342.7595   -8163.4471   -3000.4424   -4864.3891   -166.16287   -1180.0765    3594.2811    79.365168 
    6100    558.95191   -117.22824   0.50575143   -116.72248   -10356.788     4.303576     4.303576     4.303576   -10356.788   -15416.256   -9705.9795   -5948.1287     935.4394    -2936.247    1669.2166    79.705525 
    6200    383.48409   -117.07069   0.34698446   -116.72371    1853.2871    4.2911383    4.2911383    4.2911383    1853.2871   -7299.1473    17026.736   -4167.7276    2003.2252    6556.1656    5940.5696    79.016453 
    6300    306.25717   -117.00311   0.27710792     -116.726   -1684.1519     4.301431     4.301431     4.301431   -1684.1519     -11483.2    21604.374   -15173.629   -687.49047    5142.6296     3621.984    79.586404 
    6400    373.36703   -117.06219   0.33783034   -116.72436    5966.8353    4.2991596    4.2991596    4.2991596    5966.8353    -5575.844    23131.816    344.53451    -1903.406   -450.56115   -1218.5593     79.46039 
    6500    475.53548   -117.15374   0.43027449   -116.72347    3603.6639      4.29281      4.29281      4.29281    3603.6639   -2833.1453     12232.69    1411.4469    -733.4749   -1540.4124    -796.7976     79.10884 
    6600     378.0122   -117.06716   0.34203339   -116.72512   -4134.9634    4.3005491    4.3005491    4.3005491   -4134.9634   -980.23836   -12243.365    818.71308   -407.97366    3073.3616    2684.8962    79.537462 
    6700    403.62377   -117.08985   0.36520727   -116.72465   -3732.9143    4.3002569    4.3002569    4.3002569   -3732.9143   -2671.3036   -5867.0842    -2660.355    1549.5627    791.95123    3531.1263    79.521252 
    6800    419.23613   -117.10318   0.37933366   -116.72384    9832.8217    4.2916173    4.2916173    4.2916173    9832.8217    1671.5385    25760.987    2065.9399    2430.1377   -2160.0759   -836.71535    79.042919 
    6900    264.33879   -116.96496   0.23917929   -116.72578    6862.4214    4.3012639    4.3012639    4.3012639    6862.4214   -2133.9373    24221.644   -1500.4429    3556.5109    3508.7368    179.49026    79.577129 
    7000    329.27707   -117.02252   0.29793682   -116.72458   -5174.4528    4.2997681    4.2997681    4.2997681   -5174.4528   -8453.2472    8153.4306   -15223.542    608.04042    3086.9031    2779.8573     79.49414 
    7100    431.07379   -117.11302   0.39004462   -116.72298    301.90583    4.2917678    4.2917678    4.2917678    301.90583    1134.0738    863.64497   -1092.0013   -2677.0511   -2495.8885    3151.7697    79.051232 
    7200    494.90554   -117.17055   0.44780093   -116.72275   -10544.144    4.3033173    4.3033173    4.3033173   -10544.144   -5791.1724   -16166.068   -9675.1921   -1490.3882    311.10876   -2124.9555    79.691152 
    7300    358.01614    -117.0485   0.32394053   -116.72456   -5423.8413    4.2967474    4.2967474    4.2967474   -5423.8413   -10632.816    4778.1427    -10416.85    1530.7939     8362.471    592.29666    79.326714 
    7400    212.82684   -116.91831    0.1925702   -116.72574    4641.3248    4.2946385    4.2946385    4.2946385    4641.3248   -1275.9356    25129.491   -9929.5812    3076.5479    2322.6134    5951.2149     79.20997 
    7500    360.77825   -117.05092   0.32643974   -116.72448   -1050.8321    4.3006457    4.3006457    4.3006457   -1050.8321   -3502.7826    14274.086     -13923.8    1746.9331   -4930.7721    5034.3727    79.542821 
    7600    374.49611   -117.06251   0.33885195   -116.72366   -4590.3972    4.2985516    4.2985516    4.2985516   -4590.3972   -8551.9613   -2168.8766   -3050.3537     3997.037    2688.5187   -627.51885    79.426685 
    7700    406.64831   -117.09166   0.36794394   -116.72372   -5971.5719      4.29381      4.29381      4.29381   -5971.5719    1528.9247   -10589.063    -8854.577    1190.5856    5534.3413    1011.6393    79.164133 
    7800    392.48934   -117.07969    0.3551326   -116.72455   -7526.4468    4.3025691    4.3025691    4.3025691   -7526.4468   -6294.0706    -9137.813   -7147.4569   -2962.7505    777.09932    3578.7552    79.649591 
    7900    325.81439   -117.01912    0.2948037   -116.72432    4269.0643    4.2966903    4.2966903    4.2966903    4269.0643   -1627.3891    14353.195    81.386719   -1976.4745    1444.9564    543.38712    79.323553 
    8000    333.28712   -117.02591   0.30156519   -116.72435    6284.2951    4.2939307    4.2939307    4.2939307    6284.2951   -4886.2133    27596.259   -3857.1603     1902.909    3279.1049   -382.13766     79.17081 
    8100    348.82232   -117.04044   0.31562176   -116.72482   -33.256435    4.3019515    4.3019515    4.3019515   -33.256435   -9126.9748     4015.564    5011.6415    2097.7826    1409.7773    4698.7532    79.615299 
    8200    480.88946   -117.15845   0.43511889   -116.72333   -3883.6365    4.2962597    4.2962597    4.2962597   -3883.6365    7487.0302   -14050.689   -5087.2504    588.02889   -1551.5645    6952.8546    79.299707 
    8300    482.88168   -117.16049   0.43692149   -116.72357   -1046.9421     4.294814     4.294814     4.294814   -1046.9421   -1000.4111   -4973.4875    2833.0723    865.31757    2632.2815    -1117.933    79.219682 
    8400    370.41787   -117.05981   0.33516187   -116.72465    2033.9882    4.3014425    4.3014425    4.3014425    2033.9882   -3176.7307    10715.721   -1437.0257   -23.685595    3480.2809   -3979.3038     79.58704 
    8500    330.40058   -117.02337   0.29895339   -116.72441    5781.0186    4.2958164    4.2958164    4.2958164    5781.0186    7889.0375    21640.934   -12186.916   -1246.2204   -2358.7116    3142.7527    79.275161 
    8600    363.71765   -117.05373   0.32909938   -116.72463    5356.1119    4.2945373    4.2945373    4.2945373    5356.1119    1084.5404    16060.463   -1076.6672   -1099.9239   -537.46378    9235.1573    79.204369 
    8700    494.20087   -117.17111   0.44716334   -116.72394   -5806.0392    4.3023522    4.3023522    4.3023522   -5806.0392   -3235.3844   -5132.9539   -9049.7794    -415.7463    4985.9505     2395.158    79.637548 
    8800     504.8189   -117.18048   0.45677075   -116.72371   -3356.3775    4.2946313    4.2946313    4.2946313   -3356.3775   -533.80823   -7112.9222   -2422.4022    869.77584    4580.8789    1630.8833    79.209568 
    8900    460.47895   -117.14132   0.41665103   -116.72467   -2135.7722    4.2957278    4.2957278    4.2957278   -2135.7722   -1506.9719    1970.0483   -6870.3929     3094.183   -1641.7402    2299.2552    79.270255 
    9000    364.79995   -117.05563   0.33007866   -116.72555    2380.1908    4.3021718    4.3021718    4.3021718    2380.1908   -4263.4766    21991.668   -10587.619   -343.97841   -593.39518   -353.18975    79.627532 
    9100     424.6237   -117.10878   0.38420844   -116.72457    7222.2776    4.2930506    4.2930506    4.2930506    7222.2776   -7615.5163    31887.759   -2605.4098    238.55504    5362.7827   -2524.7702     79.12214 
    9200    538.85881   -117.21177   0.48757077    -116.7242   -3934.1442    4.2980096    4.2980096    4.2980096   -3934.1442   -5609.4624    3205.7046    -9398.675   -1257.1151    244.95389    5207.0628    79.396643 
    9300    525.92402   -117.20013   0.47586711   -116.72427   -7711.2531    4.3013744    4.3013744    4.3013744   -7711.2531   -4774.7085   -13485.588   -4873.4626   -1397.7922    954.22934    8501.5937    79.583261 
    9400    528.40453   -117.20178   0.47811152   -116.72367   -1209.1394    4.2935255    4.2935255    4.2935255   -1209.1394   -4707.3759    8613.2528   -7533.2951       825.02    6782.2336    466.18515    79.148397 
    9500     465.4083   -117.14556   0.42111121   -116.72445    2710.3049    4.2986935    4.2986935    4.2986935    2710.3049   -10243.288    19614.839   -1240.6364     4334.607    1733.2221   -5467.2916    79.434552 
    9600    428.49482   -117.11262   0.38771111   -116.72491    4699.3127    4.2992264    4.2992264    4.2992264    4699.3127   -10243.154    26506.574   -2165.4816     4608.547   -127.30158    551.43854    79.464098 
    9700    466.53204   -117.14727   0.42212799   -116.72514    1584.1814    4.2949162    4.2949162    4.2949162    1584.1814   -3758.2732    20430.898   -11920.081   -1258.5078    1629.4328    8644.0087    79.225333 
    9800    562.21659   -117.23301   0.50870538    -116.7243   -3183.7569    4.2980313    4.2980313    4.2980313   -3183.7569   -8313.2867   -1245.2139    7.2297816   -561.75158    2887.3308    1062.0108    79.397846 
    9900    678.03647   -117.33691   0.61350164   -116.72341   -8547.1721    4.3006561    4.3006561    4.3006561   -8547.1721   -11242.157   -3436.5791    -10962.78   -332.65861   -1440.9664   -1024.2337      79.5434 
   10000    482.94939   -117.16168   0.43698276    -116.7247    5169.6522    4.2937789    4.2937789    4.2937789    5169.6522    619.50467    21880.113   -6990.6607    1461.5764   -2479.4384    5143.8174    79.162415 
   10100    416.78914   -117.10347   0.37711957   -116.72635    3890.0295    4.2980302    4.2980302    4.2980302    3890.0295   -4585.2613    28716.457   -12461.107    2767.7127     4403.269     7182.299    79.397783 
   10200    525.60444   -117.20071   0.47557795   -116.72513    3364.1825    4.2984903    4.2984903    4.2984903    3364.1825   -4638.4819    21964.591   -7233.5614    2325.9205    2437.9287   -2944.2433    79.423288 
   10300    594.66491   -117.26211   0.53806531   -116.72405    2444.1734    4.2956544    4.2956544    4.2956544    2444.1734    1310.4912    3846.5286    2175.5005   -1546.8709   -1726.1312    -3591.347    79.266191 
   10400    572.78639   -117.24321   0.51826917   -116.72494   -4698.8666    4.2979485    4.2979485    4.2979485   -4698.8666    205.04189   -6578.9386   -7722.7032   -2193.7714    1366.7462    6025.6714    79.393256 
   10500    473.39561   -117.15397   0.42833829   -116.72563    3492.5745    4.2977631    4.2977631    4.2977631    3492.5745     1430.924    10059.744   -1012.9444    979.36688    2841.2113    6248.9155    79.382983 
   10600    545.18763   -117.21718   0.49329723   -116.72388    6792.1441    4.2970295    4.2970295    4.2970295    6792.1441   -3199.2071    31602.444   -8026.8048    2189.2517    771.65586    2631.1326    79.342342 
   10700    497.19413   -117.17443    0.4498717   -116.72455    8542.8715    4.2966321    4.2966321    4.2966321    8542.8715   -817.46242    29705.032   -3258.9551    904.02312    -1948.796    1182.5652    79.320331 
   10800    469.52871   -117.14956   0.42483944   -116.72473   -1224.4574    4.3004141    4.3004141    4.3004141   -1224.4574   -6716.1983    11408.611   -8365.7852   -2189.1203    2690.3887    3643.2548    79.529974 
   10900    634.58073   -117.29748   0.57418198    -116.7233   -1696.7944    4.2936391    4.2936391    4.2936391   -1696.7944   -975.56833    1159.8215   -5274.6363   -76.325546    2106.2578    -1628.535     79.15468 
   11000    583.90658   -117.25256   0.52833094   -116.72423   -2281.5383    4.3010424    4.3010424    4.3010424   -2281.5383   -10963.955    2911.7139    1207.6259    1375.6785   -1265.8079   -1055.8153    79.564838 
   11100     427.3473   -117.11199   0.38667282   -116.72531    6145.5608    4.2959155    4.2959155    4.2959155    6145.5608   -7346.3136    30236.386   -4453.3898    1979.0692    3118.1742    7369.8705    79.280649 
   11200    343.65589   -117.03765   0.31094708    -116.7267    3371.4311    4.2979557    4.2979557    4.2979557    3371.4311   -9825.3593    31204.111   -11264.459   -1709.2353    3361.2753    10739.328    79.393656 
   11300    508.97563   -117.18515   0.46053184   -116.72462     951.8994    4.2966823    4.2966823    4.2966823     951.8994   -6031.3043      10133.4   -1246.3976   -1170.1746    -1157.757    1543.6103    79.323109 
   11400    596.17745   -117.26335   0.53943388   -116.72392   -10020.467    4.3004727    4.3004727    4.3004727   -10020.467   -12783.345    -8729.254   -8548.8024    841.21457   -1971.2934   -4415.5523    79.533226 
   11500     452.4477   -117.13425   0.40938419   -116.72487   -4700.1828    4.2945822    4.2945822    4.2945822   -4700.1828   -5690.0037   -670.73793   -7739.8069    371.65443    2389.6345    5517.3808    79.206851 
   11600    402.61746   -117.09001   0.36429674   -116.72572    -2972.742    4.3000474    4.3000474    4.3000474    -2972.742    -4750.009    12071.956   -16240.173     1965.532    4280.7126    4965.9758    79.509629 
   11700    440.90861   -117.12261   0.39894338   -116.72367    3785.7701    4.2972662    4.2972662    4.2972662    3785.7701   -9640.2958     25424.45    -4426.844    962.80102   -2013.1258    996.62278    79.355455 
   11800    384.56908   -117.07225   0.34796619   -116.72428    3206.2937    4.2949661    4.2949661    4.2949661    3206.2937   -5770.3365    17350.789    -1961.571   -212.17976   -674.27994    1377.1531    79.228099 
   11900    387.53636   -117.07592   0.35065105   -116.72527   -7760.2461    4.3005985    4.3005985    4.3005985   -7760.2461   -2411.9682   -12317.446   -8551.3242   -3284.2551    3491.9437    7631.0628    79.540206 
   12000    472.86073    -117.1522   0.42785433   -116.72435   -1667.2586    4.2958082    4.2958082    4.2958082   -1667.2586   -2467.3562   -9593.8327    7059.4133     269.1243    504.59958    693.12458    79.274707 
   12100    461.73609   -117.14225   0.41778852   -116.72446   -900.03271    4.2986824    4.2986824    4.2986824   -900.03271   -3881.7572    2391.2323   -1209.5732    2832.6929    894.13122   -4644.8784    79.433933 
   12200    273.17526    -116.9729   0.24717471   -116.72573    6246.6651    4.2972689    4.2972689    4.2972689    6246.6651   -506.65442    20688.977   -1442.3276    2917.5274     2375.971   -1415.3881    79.355603 
   12300    283.63144   -116.98211   0.25663569   -116.72547    861.26725    4.2994363    4.2994363    4.2994363    861.26725   -8350.9029    17927.658   -6992.9535   -326.23438    1080.1242    5491.1194    79.475738 
   12400    391.93814   -117.07811   0.35463386   -116.72347    4201.1806    4.2952232    4.2952232    4.2952232    4201.1806    3641.0496    4740.3518    4222.1402   -1471.1912   -3527.2632    3986.3962    79.242326 
   12500    442.36228   -117.12348   0.40025869   -116.72322   -7551.0982    4.3008964    4.3008964    4.3008964   -7551.0982   -8102.0712   -16497.534    1946.3112   -594.83712    689.52527    653.60784    79.556736 
   12600    343.41145   -117.03458    0.3107259   -116.72386   -4137.2049    4.2967484    4.2967484    4.2967484   -4137.2049   -5836.9512   -10186.171    3611.5077    258.91232    6875.8317     2481.998    79.326772 
   12700    254.76547   -116.95534   0.23051715   -116.72482    2030.5783    4.2971067    4.2971067    4.2971067    2030.5783   -431.32455    5677.4244      845.635    1541.4005    2021.0063    1679.1815    79.346616 
   12800    319.18557   -117.01276   0.28880581   -116.72396    1966.0253    4.2979286    4.2979286    4.2979286    1966.0253   -9332.6184    20012.502   -4781.8082    1103.9142   -3716.4327   -2851.9735    79.392156 
   12900    238.26881   -116.94036   0.21559062   -116.72477    936.86512    4.2985196    4.2985196    4.2985196    936.86512   -8166.6414    15273.688   -4296.4516    3759.8245   -776.52924   -2343.6539    79.424913 
   13000    299.37024   -116.99566   0.27087648   -116.72479   -6433.4226    4.2958534    4.2958534    4.2958534   -6433.4226   -3996.7522    -6084.603   -9218.9126    1896.6083    4411.6805    6654.9793     79.27721 
   13100    395.90226   -117.08246   0.35822068   -116.72423   -13048.357     4.299406     4.299406     4.299406   -13048.357   -6687.7823   -20793.817   -11663.471   -504.38095   -156.84468    5913.0386    79.474056 
   13200    317.93127   -117.01181   0.28767089   -116.72414   -3599.8442     4.298799     4.298799     4.298799   -3599.8442   -4556.0363   -4800.8354   -1442.6608   -1303.7604   -2379.8448   -767.84532    79.440399 
   13300     235.8094   -116.93819    0.2133653   -116.72483    3475.8734    4.2943557    4.2943557    4.2943557    3475.8734   -9560.4392    24698.419   -4710.3596   -835.36203    3388.3711   -3708.0055     79.19432 
   13400    157.31547   -116.86848   0.14234234   -116.72614    1624.9828    4.2996333    4.2996333    4.2996333    1624.9828   -1939.7024    12464.354   -5649.7033    545.27095    764.00151    484.61012    79.486661 
   13500    301.47841   -116.99703     0.272784   -116.72424   -641.00457    4.2974332    4.2974332    4.2974332   -641.00457   -2864.5451    1059.9422   -118.41079    135.50751   -2699.0152   -628.41934    79.364703 
   13600    389.91943   -117.07605   0.35280729   -116.72324   -3785.7218    4.2957919    4.2957919    4.2957919   -3785.7218   -7085.5233    -1408.475    -2863.167    1313.5642    3161.2703   -464.72892    79.273807 
   13700     303.6291   -116.99902   0.27472999   -116.72429    -3590.681    4.2979371    4.2979371    4.2979371    -3590.681    2756.1772   -10293.443   -3234.7767    26.893539    6570.7578    3356.5461    79.392625 
   13800    318.33974   -117.01263   0.28804049   -116.72459   -6119.2227    4.2992452    4.2992452    4.2992452   -6119.2227   -10201.092   -480.71662   -7675.8596   -1000.4558   -833.67777    5401.2575    79.465136 
   13900    242.72864    -116.9445   0.21962598   -116.72488    8654.4213    4.2949989    4.2949989    4.2949989    8654.4213    -1074.381     28496.19   -1458.5447   -3249.8503   -4400.3916    558.78704     79.22991 
   14000    276.95267   -116.97578    0.2505926   -116.72518    3059.4306    4.2979164    4.2979164    4.2979164    3059.4306   -5991.9324    20102.608   -4932.3839   -2080.3937    3054.0193   -6844.9087    79.391479 
   14100     351.1716   -117.04205   0.31774744    -116.7243   -5857.9745    4.2984904    4.2984904    4.2984904   -5857.9745   -14330.868   -2212.8846   -1030.1706    1188.6443    3258.3783    -1992.443    79.423292 
   14200    383.09698   -117.07058   0.34663419   -116.72395   -5969.2368    4.2978525    4.2978525    4.2978525   -5969.2368    -3936.203   -11136.492   -2835.0158    2109.2037   -2126.6671    4579.5228    79.387936 
   14300    426.00625    -117.1094   0.38545941   -116.72394   -2126.4252    4.2953761    4.2953761    4.2953761   -2126.4252   -11656.751    9106.3646    -3828.889    406.57877    -1599.448    5231.9779    79.250789 
   14400    332.62471   -117.02584   0.30096583   -116.72487   -4203.4129    4.3011782    4.3011782    4.3011782   -4203.4129   -15722.837     12166.96   -9054.3623   -601.52892     3922.414   -326.21408    79.572374 
   14500    292.96806   -116.98976   0.26508366   -116.72468    3731.7969    4.2941595    4.2941595    4.2941595    3731.7969   -2836.6746    24465.282   -10433.216     -2106.16    874.99662    123.86232    79.183468 
   14600    402.91653   -117.08944   0.36456734   -116.72488   -2272.0386    4.2981528    4.2981528    4.2981528   -2272.0386   -13179.438    19175.625   -12812.303   -1131.3837   -5263.5883    1649.7466     79.40458 
   14700    435.41414   -117.11809   0.39397186   -116.72412   -2882.5171    4.2987241    4.2987241    4.2987241   -2882.5171   -2621.3128   -204.04854     -5822.19   -356.79879    1542.9643   -998.03539    79.436247 
   14800    525.19863   -117.19877   0.47521076   -116.72356   -5976.8622    4.2958569    4.2958569    4.2958569   -5976.8622   -7969.9419   -544.53129   -9416.1133    2151.3018    5121.7877   -762.63612    79.277403 
   14900    424.94649   -117.10971   0.38450051   -116.72521    2205.6484    4.2979407    4.2979407    4.2979407    2205.6484   -2957.5711    13477.836   -3903.3197     2110.487   -2806.6445    914.30523    79.392825 
   15000    370.19229   -117.06031   0.33495776   -116.72535    7466.5313    4.2988533    4.2988533    4.2988533    7466.5313   -1232.6063    29967.134   -6334.9336    919.83993   -3182.1477    4261.5713    79.443409 
   15100    448.22951   -117.12994   0.40556748   -116.72437    6129.4518    4.2951784    4.2951784    4.2951784    6129.4518   -12136.785    38550.477    -8025.336   -721.86385    3449.6406    1564.5567    79.239846 
   15200    484.17963    -117.1633    0.4380959   -116.72521    3468.5791    4.2972758    4.2972758    4.2972758    3468.5791    138.32683    13798.816   -3531.4057   -1873.2509    3578.0868    1526.8343    79.355985 
   15300    570.84708   -117.24056   0.51651443   -116.72404   -8444.6401     4.301139     4.301139     4.301139   -8444.6401   -8092.9551   -6164.8939   -11076.071   -889.89391   -1505.7698    1059.1588    79.570198 
   15400    526.43705   -117.20059    0.4763313   -116.72426   -55.757398    4.2930211    4.2930211    4.2930211   -55.757398   -4342.2775    11224.859   -7049.8537      779.267    1406.1489    1070.3848    79.120511 
   15500     474.6164   -117.15452   0.42944289   -116.72508    1704.5521    4.2989408    4.2989408    4.2989408    1704.5521   -7709.0432    23615.856   -10793.157     1647.212    3603.0841   -3573.3898    79.448263 
   15600    463.85194   -117.14429   0.41970298   -116.72458    1450.8777    4.2996899    4.2996899    4.2996899    1450.8777   -14233.294    30788.672   -12202.745    2312.5381   -2179.8368   -309.87165      79.4898 
   15700    409.59729   -117.09584   0.37061223   -116.72522    3823.5912     4.294303     4.294303     4.294303    3823.5912   -2151.0026    21629.557   -8007.7804    1709.9324   -2523.8848     6302.893    79.191405 
   15800    557.49863   -117.22924   0.50443648    -116.7248   -4600.6176    4.2980633    4.2980633    4.2980633   -4600.6176   -13660.982    5072.1779   -5213.0488   -749.56525    2857.1368    4363.7164     79.39962 
   15900    611.65437   -117.27689   0.55343772   -116.72346   -7964.9898    4.3018646    4.3018646    4.3018646   -7964.9898   -13207.072   -6074.5186   -4613.3787   -1947.9616    3797.4671   -3247.0697    79.610472 
   16000    490.74136   -117.16783   0.44403309   -116.72379    3420.2345    4.2934724    4.2934724    4.2934724    3420.2345    1993.7347    12929.868   -4662.8996    422.13336   -2634.4632   -7253.5807    79.145463 
   16100     426.8041   -117.11154   0.38618132   -116.72535    1329.7245    4.2992206    4.2992206    4.2992206    1329.7245    -15010.47    29331.984   -10332.341    1545.7076   -2964.1622   -530.37903    79.463775 
   16200    418.44829   -117.10338   0.37862081   -116.72476    6015.2227    4.2997804    4.2997804    4.2997804    6015.2227   -1194.8205    28268.527    -9028.039    1946.3821    3880.9625    1299.3847    79.494818 
   16300    535.92071   -117.20821   0.48491232    -116.7233    3359.4287    4.2936834    4.2936834    4.2936834    3359.4287    1500.5983    16534.659    -7956.971    1425.3325    2502.9168    826.04733    79.157133 
   16400    537.48044   -117.21089   0.48632359   -116.72456   -5519.9185    4.2988225    4.2988225    4.2988225   -5519.9185    -4762.464   -6141.7611   -5655.5304    701.56852   -2571.8782   -332.13261    79.441705 
   16500    455.81898   -117.13757    0.4124346   -116.72513   -2049.7085    4.2999359    4.2999359    4.2999359   -2049.7085    2969.0208   -3290.7181   -5827.4281   -35.347637   -637.17422    913.98794    79.503443 
   16600    476.63016   -117.15596   0.43126498    -116.7247    5920.7576    4.2930953    4.2930953    4.2930953    5920.7576   -6764.4863    27961.773   -3435.0144   -1596.3432    1481.0301   -1757.9755    79.124613 
   16700    351.88515   -117.04419   0.31839308    -116.7258    7562.2126    4.2984236    4.2984236    4.2984236    7562.2126     -2076.96    23727.706    1035.8917    94.927069   -668.81871   -4571.8919    79.419586 
   16800    363.46437   -117.05412    0.3288702   -116.72525   -466.11889     4.300346     4.300346     4.300346   -466.11889   -2271.9965    9513.9093   -8640.2695    867.95942    413.40704   -400.77903    79.526193 
   16900    460.26634   -117.13991   0.41645866   -116.72345    -3228.075    4.2936089    4.2936089    4.2936089    -3228.075   -5277.2582     1141.251   -5548.2178    2386.9459     5545.175      2175.97     79.15301 
   17000    474.17612   -117.15291   0.42904452   -116.72387   -4715.0087    4.2980089    4.2980089    4.2980089   -4715.0087   -656.47815   -12376.076   -1112.4723    727.17609     1633.016   -73.497263    79.396605 
   17100    416.17487    -117.1011   0.37656377   -116.72454   -9803.1098    4.3016581    4.3016581    4.3016581   -9803.1098   -8461.8185   -6826.0962   -14121.415   -954.18251   -3499.5863   -3051.3971    79.599012 
   17200    258.98422   -116.95975   0.23433437   -116.72541    5854.5165    4.2914065    4.2914065    4.2914065    5854.5165     2398.144    21968.489   -6803.0839   -763.45148   -688.50383     2424.705    79.031272 
   17300    319.03707   -117.01388   0.28867145   -116.72521   -424.78505    4.2993641    4.2993641    4.2993641   -424.78505   -8853.4727    14104.822   -6525.7041   -2885.7198    3174.1912    281.52056    79.471731 
   17400    407.67527   -117.09246   0.36887315   -116.72359   -6200.9087    4.2996624    4.2996624    4.2996624   -6200.9087    -3601.053   -9183.4934   -5818.1796   -1139.6858    1209.4647   -5435.4047    79.488276 
   17500    383.32548   -117.07035   0.34684095   -116.72351   -4860.6449    4.2947956    4.2947956    4.2947956   -4860.6449    5350.9964   -15777.948   -4154.9837    1144.5174   -2881.4008   -4790.4875    79.218662 
   17600    359.65046   -117.05001   0.32541929   -116.72459    -1818.408    4.2978115    4.2978115    4.2978115    -1818.408    -1943.927    -2067.495   -1443.8019    3638.1024    167.55847    4283.9624    79.385667 
   17700    280.04493    -116.9781   0.25339054   -116.72471      127.344    4.3011009    4.3011009    4.3011009      127.344    2020.5669    2400.2303   -4038.7652    976.86228    1938.7628    3222.2356    79.568084 
   17800    246.25499   -116.94627   0.22281669   -116.72346    7170.2843    4.2926931    4.2926931    4.2926931    7170.2843    10355.653    14495.327   -3340.1271   -4104.4628   -476.03449    -2242.883    79.102377 
   17900     275.2407   -116.97387   0.24904357   -116.72483    995.21975    4.2987806    4.2987806    4.2987806    995.21975    5302.3543    2286.8554   -4603.5505   -1780.9635    1280.0547   -1035.9799    79.439379 
   18000    339.05131    -117.0306   0.30678075   -116.72382   -4202.6193    4.2991113    4.2991113    4.2991113   -4202.6193    7251.8708   -19706.662   -153.06635   -59.521023    1546.3166   -901.84289    79.457715 
   18100    379.19782   -117.06671   0.34310616    -116.7236   -3718.6992     4.293048     4.293048     4.293048   -3718.6992    7144.8627   -17635.994   -664.96611     2390.641   -407.71354   -2497.8448    79.121997 
   18200    247.58618   -116.94953   0.22402118   -116.72551    931.49376    4.2994172    4.2994172    4.2994172    931.49376    1887.7905   -2260.1404    3166.8312    151.33512    -2744.485   -3448.2118    79.474674 
   18300     214.8285   -116.91956   0.19438134   -116.72518    4447.7796    4.2971015    4.2971015    4.2971015    4447.7796   -346.45986    14356.266   -666.46746    1002.3505     2931.228     3528.033    79.346326 
   18400    278.02065   -116.97574   0.25155893   -116.72418   -884.48439    4.2950704    4.2950704    4.2950704   -884.48439   -3564.5017    4286.8838   -3375.8352   -1475.4624    5755.4024    3671.4671     79.23387 
   18500    324.65924   -117.01859    0.2937585   -116.72483   -4915.8295    4.2981318    4.2981318    4.2981318   -4915.8295   -1981.1292    -17865.27    5098.9107   -2878.4809    -1225.003   -1652.1139    79.403414 
   18600    340.01582   -117.03174   0.30765346   -116.72409   -10065.915    4.2994047    4.2994047    4.2994047   -10065.915   -2569.2147   -17618.266   -10010.264    228.67005    -834.0539   -5707.5724    79.473986 
   18700    305.81364   -117.00067   0.27670661   -116.72396   -4483.6119    4.2935025    4.2935025    4.2935025   -4483.6119    1120.1112    -8563.733   -6007.2139    4260.7457    1831.7421   -389.41308     79.14713 
   18800    266.88792    -116.9661    0.2414858   -116.72461   -2612.4295    4.2996323    4.2996323    4.2996323   -2612.4295   -6057.9576    1581.8122   -3361.1432    4712.7406    1575.4925    942.92565    79.486604 
   18900    249.01633   -116.94987   0.22531521   -116.72456    1671.9779    4.2974734    4.2974734    4.2974734    1671.9779   -675.04108    15600.052    -9909.077   -1203.7382    224.02308   -2557.6415     79.36693 
   19000    292.57415   -116.98926   0.26472724   -116.72453   -3072.6217    4.2950155    4.2950155    4.2950155   -3072.6217     6008.626   -6375.1896   -8851.3017   -401.63327    410.44962    971.46787    79.230832 
   19100    434.47701   -117.11682   0.39312393    -116.7237   -9093.3002    4.2987146    4.2987146    4.2987146   -9093.3002   -129.16077   -21945.573   -5205.1666    160.43851    928.38325    1874.4202    79.435719 
   19200    406.45859   -117.09141   0.36777228   -116.72364   -2241.2427    4.2992271    4.2992271    4.2992271   -2241.2427     3040.356   -6454.1552    -3309.929   -552.24971   -2769.6877   -2220.7489    79.464138 
   19300    282.28856    -116.9798   0.25542062   -116.72438    5866.3831    4.2936581    4.2936581    4.2936581    5866.3831    12975.609    9680.0529   -5056.5128   -1072.2717    -414.9772   -8357.4004    79.155736 
   19400    294.32519   -116.99123   0.26631162   -116.72492    1705.5393    4.2994423    4.2994423    4.2994423    1705.5393    1768.6741    15257.644     -11909.7    832.10012    4548.4065    -2068.948    79.476066 
   19500    389.97848   -117.07659   0.35286073   -116.72373    4655.2687    4.2974704    4.2974704    4.2974704    4655.2687    7590.5397    7898.9473   -1523.6809    2902.5265    2413.1906    647.35076    79.366766 
   19600    446.60504   -117.12821   0.40409763   -116.72411   -619.24243    4.2946751    4.2946751    4.2946751   -619.24243    9580.7699   -5006.3179   -6432.1792    102.43805   -1461.3102   -3763.7717    79.211996 
   19700    428.86082    -117.1131   0.38804228   -116.72506   -8024.8066    4.2980242    4.2980242    4.2980242   -8024.8066   -1608.7732   -14592.371   -7873.2758   -2923.1325   -1216.4425   -2316.0545    79.397455 
   19800    403.04851   -117.08996   0.36468676   -116.72527     588.1217    4.2980701    4.2980701    4.2980701     588.1217   -2863.3755     9818.586   -5190.8454   -1027.3382    3956.0867    364.48394    79.399995 
   19900       455.85   -117.13673   0.41246266   -116.72427    3850.1397    4.2957825    4.2957825    4.2957825    3850.1397   -6200.5048    26221.424   -8470.4997    448.86451    1037.4263    1337.8033    79.273285 
   20000    359.52538   -117.05132   0.32530612   -116.72601     2235.142    4.2963584    4.2963584    4.2963584     2235.142   -5105.1839    13285.745   -1475.1347   -298.26741   -685.05379   -5603.8094    79.305169 
   20100    434.02918   -117.11806   0.39271872   -116.72534   -6814.0704    4.2997623    4.2997623    4.2997623   -6814.0704   -10647.693   -4107.1094   -5687.4085    886.66426    2677.9416   -3983.8675    79.493818 
   20200      575.374   -117.24355   0.52061048   -116.72294    -2186.129    4.2962024    4.2962024    4.2962024    -2186.129    550.50612   -895.29421   -6213.5989    3277.6124    1157.0234    -492.5458    79.296532 
   20300    504.58517   -117.18007   0.45655927   -116.72351    1539.9843    4.2966441    4.2966441    4.2966441    1539.9843   -2227.2622    2030.1727    4817.0425   -610.16409    406.55504    1329.2867    79.320991 
   20400     395.3632   -117.08334   0.35773293   -116.72561    347.62942    4.2983131    4.2983131    4.2983131    347.62942   -7127.1286    18397.883   -10227.866   -5006.6211    2711.2261   -1455.3723    79.413463 
   20500      356.311   -117.04828   0.32239768   -116.72588     5252.589     4.298244     4.298244     4.298244     5252.589    4901.0472    28122.436   -17265.717   -2736.8575    4514.6392    53.908135    79.409637 
   20600    573.41761   -117.24239   0.51884031   -116.72355    6226.2506    4.2934477    4.2934477    4.2934477    6226.2506   -1935.4508    23038.089   -2423.8866     2702.259   -383.24895    2160.5698    79.144098 
   20700    607.01497   -117.27317    0.5492399   -116.72393   -7113.7819     4.301348     4.301348     4.301348   -7113.7819   -1131.9305   -4767.4858   -15441.929     2506.412   -3724.5435   -4012.5192    79.581795 
   20800    486.45285    -117.1647   0.44015277   -116.72455     -3663.66    4.2965842    4.2965842    4.2965842     -3663.66    5408.1346   -291.65134   -16107.463    275.62881    1360.9244   -5116.3299    79.317678 
   20900     534.4856   -117.20878   0.48361381   -116.72516    492.31879    4.2956923    4.2956923    4.2956923    492.31879   -6408.4549    20571.804   -12686.393   -2155.4588    3108.1546   -918.95082    79.268291 
   21000    496.84885   -117.17401   0.44955928   -116.72445    8229.6965    4.2988791    4.2988791    4.2988791    8229.6965    5800.0988    28402.679    -9513.688   -1161.4119    1840.2375    4410.2537    79.444838 
   21100     411.4239   -117.09776   0.37226499   -116.72549     1371.067      4.29819      4.29819      4.29819     1371.067   -9400.6912     26591.93   -13078.038   -659.11149   -235.77354     878.8474    79.406643 
   21200    414.53485   -117.10099   0.37507984   -116.72591    -1127.206    4.2934085    4.2934085    4.2934085    -1127.206   -6796.2169    12640.238   -9225.6393   -2290.5453    2275.3245   -3733.8505     79.14193 
   21300    576.02397   -117.24552   0.52119859   -116.72432   -5695.5057     4.301171     4.301171     4.301171   -5695.5057   -7148.5628   -4984.0391    -4953.915   -2478.2653    2433.5932   -411.72952    79.571971 
   21400    617.15549   -117.28204   0.55841526   -116.72362   -3720.9351    4.2971609    4.2971609    4.2971609   -3720.9351    -8002.459    3269.3381   -6429.6842    1131.4731   -1611.9771   -1839.6911    79.349618 
   21500    399.10348   -117.08666   0.36111721   -116.72554    2751.7894     4.293071     4.293071     4.293071    2751.7894   -8208.9064    21850.821   -5386.5464    1575.6356    2381.2181   -3252.3418    79.123265 
   21600    353.32623   -117.04611     0.319697   -116.72641    1130.9399    4.3024129    4.3024129    4.3024129    1130.9399   -12247.421    26146.268   -10506.027    666.76811    2154.7543   -4072.9428     79.64092 
   21700    513.57553   -117.18785   0.46469394   -116.72316    7588.9451    4.2951135    4.2951135    4.2951135    7588.9451    5104.8597    24790.905   -7128.9292   -3703.9532   -998.48566    1417.3856    79.236254 
   21800    531.87779   -117.20477    0.4812542   -116.72352    3122.0424    4.2935557    4.2935557    4.2935557    3122.0424   -215.78697    7956.9712    1624.9428    -3988.555   -374.03107    1660.1464    79.150071 
   21900    378.20614   -117.06826   0.34220886   -116.72605   -5012.4246    4.3025779    4.3025779    4.3025779   -5012.4246    640.22108   -8206.0507   -7471.4441    533.18695     2969.042   -1404.3144    79.650084 
   22000    431.99421   -117.11655   0.39087744   -116.72567    1933.1295    4.2947721    4.2947721    4.2947721    1933.1295    966.72651     11861.64   -7028.9782    3933.2518    4773.6592    -3007.903    79.217363 
   22100    420.41148   -117.10514   0.38039714   -116.72474    9826.9323    4.2939058    4.2939058    4.2939058    9826.9323   -1333.4028    27487.081    3327.1183    3113.5569    -1521.083   -1938.0879    79.169434 
   22200    311.19411   -117.00707   0.28157497   -116.72549    229.49656    4.3026809    4.3026809    4.3026809    229.49656   -7363.5879    20579.672   -12527.595   -2588.6705   -301.12518   -2286.6811    79.655802 
   22300    306.46497   -117.00267   0.27729595   -116.72537   -2707.2674    4.2945933    4.2945933    4.2945933   -2707.2674     -7990.71    12906.635   -13037.727   -5441.1958    862.72472   -3983.5899     79.20747 
   22400     422.2084   -117.10661   0.38202303   -116.72458   -4850.2361    4.2958083    4.2958083    4.2958083   -4850.2361   -1474.8258   -6938.6555    -6137.227   -2754.3917    108.90381    850.70058    79.274716 
   22500     493.7066   -117.16992    0.4467161   -116.72321   -11560.813    4.3031233    4.3031233    4.3031233   -11560.813   -9441.7584   -10540.063   -14700.617    3351.9996   -47.196997    3497.0772    79.680375 
   22600    227.07488   -116.93052   0.20546213   -116.72506   -1028.6746    4.2940488    4.2940488    4.2940488   -1028.6746   -5039.6319    15128.015   -13174.407    4000.0027    1147.9697   -863.04717    79.177343 
   22700    180.01181    -116.8892   0.16287847   -116.72633   -916.41635     4.295655     4.295655     4.295655   -916.41635    -9424.441    18753.803   -12078.611    1085.7858    4815.9632   -6382.1268    79.266226 
   22800    355.21889   -117.04513   0.32140952   -116.72372   -4892.2511    4.3020028    4.3020028    4.3020028   -4892.2511   -12035.875    7115.9666   -9756.8451   -723.34453   -465.62889   -2502.5323    79.618148 
   22900    322.00064   -117.01517   0.29135294   -116.72382   -1172.6802    4.2938732    4.2938732    4.2938732   -1172.6802   -4184.1595    4053.7894   -3387.6706    -1185.882   -365.79032    1456.5207    79.167633 
   23000    301.62291     -116.998   0.27291474   -116.72508   -11379.552    4.2966038    4.2966038    4.2966038   -11379.552   -11450.068   -12477.912   -10210.676   -24.756957    3083.5367   -992.83296    79.318761 
   23100    276.64313   -116.97555   0.25031252   -116.72524    -5360.793    4.3018455    4.3018455    4.3018455    -5360.793   -3440.3213   -7903.5966   -4738.4609   -1657.7368   -220.51682    796.58952    79.609412 
   23200    266.58188   -116.96474   0.24120889   -116.72353    7375.9981    4.2939601    4.2939601    4.2939601    7375.9981    -1376.244     24291.16   -786.92145   -391.39026   -158.95303      3086.59    79.172437 
   23300    223.60906   -116.92727   0.20232618   -116.72494    3190.6048    4.2944379    4.2944379    4.2944379    3190.6048   -519.10984    17460.197   -7369.2729    2037.3699    441.69683    1768.3967    79.198868 
   23400     188.3533   -116.89615   0.17042603   -116.72572   -4360.1015    4.3033296    4.3033296    4.3033296   -4360.1015    1624.6685   -11874.004   -2830.9688    327.38516     2238.434    -4556.668    79.691836 
   23500    387.18446   -117.07314   0.35033263    -116.7228    768.59124    4.2923053    4.2923053    4.2923053    768.59124    643.69246   -6751.4302    8413.5115   -377.99253    137.05773   -2145.4753    79.080939 
   23600    306.73996   -117.00149   0.27754477   -116.72395    1727.8602    4.2951908    4.2951908    4.2951908    1727.8602    3666.8626   -2468.4706    3985.1887   -1801.1381   -723.82004    3653.8167    79.240531 
   23700    174.64435   -116.88348   0.15802187   -116.72546   -3210.0021    4.3028271    4.3028271    4.3028271   -3210.0021   -8475.5393    -493.4116   -661.05553   -9.0365648     3208.467    3910.5345    79.663924 
   23800    205.23348   -116.91015   0.18569957   -116.72445    5473.7676    4.2927691    4.2927691    4.2927691    5473.7676   -6848.6617    24207.204   -937.23942   -1441.3874    786.02637   -2175.9652    79.106576 
   23900    289.62275    -116.9868   0.26205675   -116.72474    2624.8807    4.2951362    4.2951362    4.2951362    2624.8807   -3600.3252    10184.283    1290.6843    -2086.681   -704.26907   -816.36018    79.237508 
   24000      328.333   -117.02171   0.29708259   -116.72463   -13011.778    4.3031608    4.3031608    4.3031608   -13011.778   -15692.975     -15505.5   -7836.8599    438.19944   -1540.6236     3245.053    79.682461 
   24100    344.64807   -117.03547   0.31184482   -116.72363   -8495.7966    4.2938293    4.2938293    4.2938293   -8495.7966   -5900.3277   -8500.2841   -11086.778    1701.4882    1018.9057   -1483.9979    79.165205 
   24200    259.29538   -116.95959   0.23461591   -116.72497     3577.803    4.2954335    4.2954335    4.2954335     3577.803    -6427.589    20049.787   -2888.7892   -1738.3189    1717.1601   -2754.1542    79.253964 
   24300    291.91573   -116.98903   0.26413149    -116.7249    -4692.765    4.3011719    4.3011719    4.3011719    -4692.765   -14943.813    12687.635   -11822.117   -4132.2769    -15.94262    2180.3839    79.572022 
   24400      217.268   -116.92212   0.19658865   -116.72553   -822.76589    4.2943073    4.2943073    4.2943073   -822.76589   -5146.6027    11447.986   -8769.6805   -2452.1868    2920.2939    9231.4672    79.191644 
   24500     375.9634   -117.06538   0.34017958    -116.7252   -3679.7214    4.2960963    4.2960963    4.2960963   -3679.7214   -6251.6598   -2437.8504   -2349.6541    -1257.269    1620.7912   -79.231079    79.290656 
   24600    416.03212   -117.10057   0.37643461   -116.72414   -8186.4089    4.3008292    4.3008292    4.3008292   -8186.4089   -8576.0711    -13310.44   -2672.7158   -168.18119   -450.85582   -2623.1655    79.553003 
   24700    295.63617   -116.99185   0.26749782   -116.72435   -1788.5154    4.2948476    4.2948476    4.2948476   -1788.5154   -6646.3588    2410.9401   -1130.1275    926.90981    1737.0031    985.06078     79.22154 
   24800    315.67734   -117.01091   0.28563149   -116.72528    2012.6784    4.2962969    4.2962969    4.2962969    2012.6784   -8635.7508    28131.837   -13458.051    3102.9274    1953.2925    947.22802    79.301763 
   24900    371.72656   -117.06123   0.33634601   -116.72489    3634.1079    4.2996518    4.2996518    4.2996518    3634.1079   -4516.9613    14664.624     754.6613     6.004449    270.74413   -927.72232    79.487689 
   25000    430.68837   -117.11402   0.38969589   -116.72433   -1581.8111    4.2953742    4.2953742    4.2953742   -1581.8111   -8413.4327    5206.1278   -1538.1284   -4944.4948   -2193.9608    1796.7188    79.250683 
   25100     474.4658    -117.1535   0.42930663   -116.72419   -6126.8496    4.2961113    4.2961113    4.2961113   -6126.8496   -7176.4474   -4988.8704   -6215.2312   -3879.2083   -893.84946    6346.0053     79.29149 
   25200    367.66871   -117.05781   0.33267438   -116.72514    4673.2009    4.3000449    4.3000449    4.3000449    4673.2009   -3713.0315    12673.347    5059.2873    1889.8356    2119.5228   -865.21742     79.50949 
   25300    438.47516   -117.12098   0.39674154   -116.72423    6714.2461    4.2942295    4.2942295    4.2942295    6714.2461   -5483.7029    29020.864   -3394.4227    3074.3904    922.35796   -5131.8093     79.18734 
   25400    332.18053   -117.02685   0.30056393   -116.72628    6505.6282     4.296476     4.296476     4.296476    6505.6282   -6208.0598    28221.567   -2496.6229    1112.0605     392.0331   -2836.6923    79.311686 
   25500    419.39561   -117.10546   0.37947796   -116.72598    -2578.139     4.300529     4.300529     4.300529    -2578.139    -6329.507    4304.0713   -5708.9812   -804.44011    427.09919    5149.6614    79.536345 
   25600    563.86865   -117.23376   0.51020021   -116.72356   -2984.1024    4.2943159    4.2943159    4.2943159   -2984.1024   -2494.5424    1520.1499   -7977.9148   -1562.5737    520.34032    3057.8445    79.192117 
   25700    497.38753   -117.17462   0.45004669   -116.72458    29.586346    4.2960414    4.2960414    4.2960414    29.586346   -4316.7646    8672.7896   -4267.2659   -1450.6295   -130.90403   -3054.1863    79.287621 
   25800    384.23777   -117.07403   0.34766641   -116.72636   -802.60947    4.3004067    4.3004067    4.3004067   -802.60947   -16125.368    29594.248   -15876.708   -2459.6022    409.34641    735.12864    79.529563 
   25900     398.2505   -117.08648   0.36034542   -116.72613    1986.1316    4.2954413    4.2954413    4.2954413    1986.1316   -9360.1177    29349.423    -14030.91    1366.8742    1872.3462    2822.8566    79.254396 
   26000     537.2131   -117.21108    0.4860817     -116.725     44.19262    4.2945899    4.2945899    4.2945899     44.19262   -5043.3794    10717.443   -5541.4853    231.81409   -731.40684    1251.5427     79.20728 
   26100    584.11073    -117.2532   0.52851567   -116.72468   -12557.528    4.3027366    4.3027366    4.3027366   -12557.528   -20465.904   -5993.1357   -11213.544   -82.707047   -1324.5642   -1589.3336    79.658895 
   26200     423.5844   -117.10858   0.38326807   -116.72531   -356.75096    4.2936866    4.2936866    4.2936866   -356.75096   -5248.3742    13930.099   -9751.9781   -2199.1072     2323.303    6523.8603    79.157311 
   26300    423.47866   -117.10844   0.38317239   -116.72527    2527.1752    4.2980571    4.2980571    4.2980571    2527.1752    -8201.414    30172.953   -14390.013   -184.10803    2259.1663    5186.9536    79.399276 
   26400    447.69797   -117.12967   0.40508653   -116.72458    5515.0353     4.299151     4.299151     4.299151    5515.0353   -10727.981    33902.738   -6629.6515   -1523.4491    1109.3154    1133.8385    79.459917 
   26500    446.79202   -117.12951   0.40426681   -116.72525    1167.0596    4.2952729    4.2952729    4.2952729    1167.0596   -4914.0896    16225.458   -7810.1901   -3398.2691   -1877.4769    1546.3672    79.245074 
   26600    525.59064   -117.20061   0.47556546   -116.72505    -5722.905    4.2965421    4.2965421    4.2965421    -5722.905   -5508.0562    339.49475   -12000.154   -1740.2565   -1842.6787    3408.6514    79.315347 
   26700    533.45743   -117.20756   0.48268349   -116.72488   -2076.0545    4.3008148    4.3008148    4.3008148   -2076.0545   -4929.9886    2912.3436   -4210.5186    2215.0261    288.57181    281.05795    79.552205 
   26800    477.69269    -117.1565   0.43222638   -116.72428    5716.0421    4.2950484    4.2950484    4.2950484    5716.0421   -7226.9893    28410.618    -4035.503    3625.6865   -1871.2042      -2130.4    79.232652 
   26900    346.81944   -117.03958   0.31380952   -116.72577     6646.902    4.2956473    4.2956473    4.2956473     6646.902   -9843.7899    38717.348   -8932.8525   -1129.7827     734.0381     3431.561      79.2658 
   27000    401.30701   -117.08885   0.36311101   -116.72573   -712.38319     4.300603     4.300603     4.300603   -712.38319   -3754.0384    6675.1444   -5058.2556   -2499.6009    1516.6864      7212.39    79.540453 
   27100    595.11263   -117.26125   0.53847042   -116.72278   -1688.5331    4.2950742    4.2950742    4.2950742   -1688.5331   -2299.4408   -655.30297   -2110.8554   -4195.4697   -1689.5815    2794.6209     79.23408 
   27200    497.87926   -117.17413   0.45049162   -116.72364   -972.33174    4.2966132    4.2966132    4.2966132   -972.33174   -1869.9469    4337.5711   -5384.6193    49.377496   -380.49601   -4304.1505    79.319281 
   27300    343.05092   -117.03602   0.31039968   -116.72562    1116.2956    4.2984096    4.2984096    4.2984096    1116.2956   -3786.6603    12814.503   -5678.9556    1115.6546    2203.4674   -498.17848    79.418812 
   27400    380.25133   -117.06921   0.34405939   -116.72515    2410.7758      4.29678      4.29678      4.29678    2410.7758   -4538.7071    25049.124    -13278.09    3607.3652    3035.5307    4267.3895     79.32852 
   27500    434.72789   -117.11785   0.39335093    -116.7245    7888.7695    4.2931845    4.2931845    4.2931845    7888.7695    4667.7944    22974.429   -3975.9152    1267.8616   -1215.0359    3983.0147    79.129546 
   27600    476.22883   -117.15592   0.43090185   -116.72502   -10848.352    4.3016522    4.3016522    4.3016522   -10848.352   -16278.642   -5045.4381   -11220.975   -2094.1487   -2054.1158    1683.7832    79.598683 
   27700    418.26758   -117.10362    0.3784573   -116.72516   -6286.1179    4.2944326    4.2944326    4.2944326   -6286.1179   -1321.9521   -8503.4178   -9032.9838   -2918.6002    2235.4161    4468.3599    79.198575 
   27800    431.37332   -117.11517   0.39031565   -116.72486    -576.4493    4.2969547    4.2969547    4.2969547    -576.4493   -142.41304    5460.7221   -7047.6569   -1835.0658    116.13804       2786.5    79.338196 
   27900    395.22224   -117.08256   0.35760539   -116.72495    3747.5082    4.2972354    4.2972354    4.2972354    3747.5082   -10018.307    29372.128    -8111.297    3213.0787    2295.7588    -3950.371    79.353746 
   28000    302.01107   -116.99937   0.27326596   -116.72611    139.80014    4.2969254    4.2969254    4.2969254    139.80014   -4018.2572    14921.844   -10484.187    787.49443    3052.1163    213.25872    79.336576 
   28100    420.44394   -117.10566   0.38042651   -116.72523   -2382.2451    4.2960759    4.2960759    4.2960759   -2382.2451    3507.1155   -1548.9396   -9104.9112     1177.189   -782.49232    5135.4792     79.28953 
   28200    525.23093   -117.19897   0.47523998   -116.72373   -4751.8187    4.2980997    4.2980997    4.2980997   -4751.8187   -237.45371   -6502.3043   -7515.6982   -3142.1091   -1362.0519    4430.6458    79.401637 
   28300     399.7788   -117.08638   0.36172826   -116.72465   -586.69294    4.2953536    4.2953536    4.2953536   -586.69294    538.40098    1433.6319   -3732.1117   -1041.2042   -1133.1569   -1728.3939    79.249542 
   28400    333.03099   -117.02724   0.30133344   -116.72591    93.854067    4.2980317    4.2980317    4.2980317    93.854067   -4718.9477    17073.559   -12073.049   -2742.3677     2574.847   -36.415926    79.397867 
   28500      330.447   -117.02401   0.29899539   -116.72501    7950.1454     4.296264     4.296264     4.296264    7950.1454    1815.5873    22060.802   -25.953294   -86.369034    891.56735    2472.3046    79.299946 
   28600    444.08726   -117.12594   0.40181949   -116.72412   -159.37082    4.2955471    4.2955471    4.2955471   -159.37082   -184.19706   -2045.1958    1751.2804    1736.6456   -2613.0247   -1094.3718    79.260255 
   28700    485.41755   -117.16345     0.439216   -116.72424   -9101.6628    4.2987528    4.2987528    4.2987528   -9101.6628   -4935.8463   -13497.584   -8871.5585   -201.74948     885.6747   -1174.0022    79.437835 
   28800    379.17583   -117.06826   0.34308626   -116.72517    4326.3146    4.2951321    4.2951321    4.2951321    4326.3146    3129.7926    2361.1849    7487.9663    293.83618    1520.7865    1985.1031    79.237285 
   28900    406.23979    -117.0923   0.36757429   -116.72473    2081.3006    4.2964207    4.2964207    4.2964207    2081.3006   -361.93766    12080.396    -5474.556   -2814.3717    1569.6497    6917.4626     79.30862 
   29000    358.51333   -117.05003    0.3243904   -116.72564    2471.6565    4.2971962    4.2971962    4.2971962    2471.6565     3806.311     14877.11   -11268.452   -2412.5758    1942.8443   -87.907783    79.351577 
   29100    366.55386   -117.05748   0.33166564   -116.72581    2776.7217    4.2962003    4.2962003    4.2962003    2776.7217   -439.53217    10002.119   -1232.4216   -3969.6087    782.38295   -735.83544    79.296418 
   29200    514.44673   -117.18968   0.46548221    -116.7242   -5878.4741    4.2965981    4.2965981    4.2965981   -5878.4741    1066.1546   -9588.6076   -9112.9694    693.87015   -1343.0536     1422.027    79.318446 
   29300    446.73649    -117.1291   0.40421656   -116.72489   -5005.8254     4.297431     4.297431     4.297431   -5005.8254    8520.4606   -13065.105   -10472.832    2016.6161   -1757.0363    7412.8916    79.364584 
   29400    423.33882   -117.10829   0.38304586   -116.72524   -1161.9071    4.2962199    4.2962199    4.2962199   -1161.9071   -5412.0788    13313.768    -11387.41   -100.67442    4394.0547     423.8653    79.297502 
   29500    366.77596   -117.05735    0.3318666   -116.72548    2796.6965    4.2978105    4.2978105    4.2978105    2796.6965   -5780.4111    27109.517   -12939.016   -2435.9266    2989.5805   -19.694141    79.385608 
   29600    414.38239   -117.09973    0.3749419   -116.72479    948.58896    4.2960648    4.2960648    4.2960648    948.58896    9155.8316    1046.0878   -7356.1526   -3256.2717   -956.85937    7397.6441    79.288912 
   29700    528.99679   -117.20266   0.47864741   -116.72401   -7238.9814    4.2981504    4.2981504    4.2981504   -7238.9814    925.21464   -9045.8188    -13596.34   -666.07657     -156.792      3817.57    79.404446 
   29800    492.65304   -117.16984   0.44576283   -116.72407    117.38869     4.296837     4.296837     4.296837    117.38869    6257.0539    431.61313   -6336.5009   -926.56734    1625.1596   -2192.7038    79.331675 
   29900    435.21973   -117.11843   0.39379596   -116.72463    1714.6914    4.2973958    4.2973958    4.2973958    1714.6914    8875.2607    5229.6986   -8960.8851    1639.5183    1629.9076   -3712.0121    79.362632 
   30000      412.281   -117.09816   0.37304052   -116.72512    4246.0344    4.2963834    4.2963834    4.2963834    4246.0344   -424.32199    23631.123   -10468.698    2151.2502    1441.0313    4321.3805    79.306558 
   30100    399.38865   -117.08698   0.36137524    -116.7256    4586.8972    4.2980385    4.2980385    4.2980385    4586.8972   -1006.9627    20282.279   -5514.6246    4212.0665    2168.5524    1004.1042    79.398244 
   30200    567.17036   -117.23736   0.51318766   -116.72417   -2510.3811    4.2957494    4.2957494    4.2957494   -2510.3811    1100.2664    2340.6194   -10972.029   -2917.4771   -480.68937   -1820.9204    79.271451 
   30300    583.92061   -117.25308   0.52834364   -116.72474   -5970.2851     4.298071     4.298071     4.298071   -5970.2851   -7000.4772   -7084.1757   -3826.2024   -4553.0869   -2632.4468    778.30304    79.400049 
   30400    485.25568   -117.16461   0.43906954   -116.72554    2875.0396    4.2957769    4.2957769    4.2957769    2875.0396   -661.55259    8668.9698    617.70162    -1220.689    128.46166    2273.6412    79.272976 
   30500    446.95193      -117.13    0.4044115   -116.72559    2880.3988    4.2990363    4.2990363    4.2990363    2880.3988   -2958.3603     30033.14   -18433.583    4165.3921    3516.2939   -20.749236    79.453558 
   30600    446.13904   -117.12895   0.40367598   -116.72527    9014.0972    4.2941194    4.2941194    4.2941194    9014.0972    2841.5967    23377.106    823.58891    3888.0977    2617.9705   -4434.5009     79.18125 
   30700     516.7456   -117.19301   0.46756228   -116.72545     869.9132    4.2978824    4.2978824    4.2978824     869.9132    3219.7772    1101.9833    -1712.021   -1391.5131   -993.80267    1993.3523    79.389596 
   30800    555.13665   -117.22642    0.5022993   -116.72412   -6946.5367    4.2990135    4.2990135    4.2990135   -6946.5367    5258.4966   -8042.4975   -18055.609   -1201.3547    1520.8019    4795.6634    79.452294 
   30900    508.07777   -117.18422   0.45971945    -116.7245    1503.7514    4.2937018    4.2937018    4.2937018    1503.7514    2427.0514    8648.9608   -6564.7579   -4125.2959    2383.0791    1768.4331     79.15815 
   31000    531.97365   -117.20592   0.48134094   -116.72458   -1239.2273    4.3005676    4.3005676    4.3005676   -1239.2273   -9965.4883    19562.683   -13314.877   -1482.7306   -86.061748   -3750.0203    79.538489 
   31100    441.05361   -117.12428   0.39907457   -116.72521    5384.6341    4.2955663    4.2955663    4.2955663    5384.6341    1162.0346    28209.414   -13217.547   -1263.2602     1979.065    2943.0795    79.261318 
   31200    473.64098   -117.15423   0.42856031   -116.72567   -1599.1301    4.2961199    4.2961199    4.2961199   -1599.1301   -5287.4858     15063.53   -14573.435    2879.0473    1671.3149    5027.4857    79.291964 
   31300    613.04135   -117.27889    0.5546927    -116.7242   -5930.6084    4.2993684    4.2993684    4.2993684   -5930.6084   -3678.6649    1294.9462   -15408.107    537.45244    -682.2966   -1576.1522    79.471969 
   31400    562.04608   -117.23229   0.50855111   -116.72374    -2388.453    4.2983029    4.2983029    4.2983029    -2388.453    7514.9141    -2532.661   -12147.612   -1671.2236    -2013.471   -2614.4572    79.412901 
   31500    460.02206     -117.141   0.41623762   -116.72476    3986.8845    4.2921712    4.2921712    4.2921712    3986.8845   -1166.1909    22559.379   -9432.5342   -4466.9014    2634.2496    2148.5426    79.073524 
   31600    394.97096   -117.08406   0.35737802   -116.72669    1634.5697    4.3016397    4.3016397    4.3016397    1634.5697   -6397.7446    27702.709   -16401.255   -2470.2543    4453.0032    4277.9705    79.597989 
   31700    499.49938   -117.17596   0.45195754     -116.724    6207.0797    4.2950075    4.2950075    4.2950075    6207.0797    2376.6921     24491.45    -8246.903   -148.28221   -204.39456    -1784.648    79.230388 
   31800    581.92233   -117.25021   0.52653556   -116.72367   -2585.0269    4.2947527    4.2947527    4.2947527   -2585.0269   -5826.0994    5577.9086     -7506.89   -2874.6803    -1152.716   -159.04021     79.21629 
   31900    495.19151   -117.17338   0.44805969   -116.72532   -8271.7218    4.3006216    4.3006216    4.3006216   -8271.7218   -9722.3628    -6500.987   -8591.8154    698.67352    1052.3684    897.54528    79.541488 
   32000    487.07144   -117.16608   0.44071248   -116.72536     317.2387    4.2955533    4.2955533    4.2955533     317.2387   -5654.3368    17350.291   -10744.238    2183.2858    2083.3611    -1557.499    79.260595 
   32100     431.7997   -117.11629   0.39070144   -116.72558    10158.802    4.2942564    4.2942564    4.2942564    10158.802   -2492.7897    38993.303   -6024.1067    13.720435     376.3379   -3467.4534    79.188826 
   32200    391.70821   -117.08139   0.35442582   -116.72696    4534.7821    4.2978257    4.2978257    4.2978257    4534.7821   -5533.8327    19511.492   -373.31314   -6744.0479    1820.2964    2551.8298    79.386454 
   32300    421.05785   -117.10675   0.38098199   -116.72577   -5353.8729    4.2994415    4.2994415    4.2994415   -5353.8729   -6610.8976    3617.3419   -13068.063   -3139.4339     3801.545    5165.4466    79.476023 
   32400    534.00661   -117.20735    0.4831804   -116.72417    1177.8889    4.2917672    4.2917672    4.2917672    1177.8889    3806.6139    3406.0824   -3679.0297    916.16768   -750.48667   -283.22699    79.051198 
   32500    456.52201   -117.13781   0.41307071   -116.72474    142.44634    4.2992964    4.2992964    4.2992964    142.44634   -5198.1923    9281.4382   -3655.9068    3822.2728    -668.5569   -5068.6235    79.467977 
   32600    305.18368   -117.00217    0.2761366   -116.72604    -654.4543    4.2978605    4.2978605    4.2978605    -654.4543   -7876.0866    22837.648   -16924.925    897.75812    5683.3893   -849.46186    79.388381 
   32700    309.29508   -117.00603   0.27985668   -116.72617    1789.9604    4.2942352    4.2942352    4.2942352    1789.9604   -6698.8229    25438.926   -13370.222    -579.1413    3641.8209     6041.484    79.187657 
   32800    478.71408   -117.15698   0.43315056   -116.72383   -753.73096    4.2979712    4.2979712    4.2979712   -753.73096   -5964.8022    11034.137   -7330.5274   -2449.2813   -3129.2175    1345.6065    79.394514 
   32900    460.74315   -117.14107   0.41689009   -116.72418   -11723.687    4.2994983    4.2994983    4.2994983   -11723.687   -6661.6043   -10951.236    -17558.22    -2911.872     954.5755    -1908.449    79.479176 
   33000    301.38422   -116.99847   0.27269878   -116.72577    -4102.626    4.2924237    4.2924237    4.2924237    -4102.626   -4997.8062    2945.1825   -10255.254   -875.04918    4223.6301    847.31452    79.087483 
   33100      269.646   -116.97057   0.24398137   -116.72659    1195.6682    4.3001889    4.3001889    4.3001889    1195.6682   -8560.4197    26052.094   -13904.669    2464.9974    668.90388      1027.13    79.517479 
   33200    325.01582   -117.01905   0.29408114   -116.72496    3895.0045    4.2956535    4.2956535    4.2956535    3895.0045    2826.1037    16672.308    -7813.398    6168.7524    894.90374   -4096.1767    79.266142 
   33300    278.92824   -116.97795   0.25238013   -116.72557   -2866.8977    4.2940563    4.2940563    4.2940563   -2866.8977   -2198.3749    1338.7233   -7741.0417   -1366.8531    3178.2863   -4451.5943    79.177761 
   33400    309.13411   -117.00498   0.27971104   -116.72527   -8957.8699    4.3001745    4.3001745    4.3001745   -8957.8699   -6798.9122   -9314.1296   -10760.568   -1780.4317    2525.2858    3125.1232     79.51668 
   33500    345.99563   -117.03699   0.31306412   -116.72393   -244.24942    4.2954591    4.2954591    4.2954591   -244.24942    1893.5798    -3026.419    400.09098   -2592.7998   -1904.5464    162.22308    79.255382 
   33600    316.10172   -117.00939   0.28601548   -116.72337    51.167031    4.2954935    4.2954935    4.2954935    51.167031   -1997.5842    7328.5901   -5177.5048   -759.81734    180.03326   -2082.3145    79.257284 
   33700    172.68583   -116.88202   0.15624977   -116.72577    1786.8451     4.298817     4.298817     4.298817    1786.8451   -6978.5649    20094.176   -7755.0761   -163.02714    4781.3429   -1151.3485    79.441397 
   33800     242.4348   -116.94443    0.2193601   -116.72507    2464.9893     4.295498     4.295498     4.295498    2464.9893   -6971.1349    11986.897    2379.2054    -127.1669   -103.20738    1364.0725    79.257536 
   33900    394.47402   -117.08058   0.35692838   -116.72365    -4853.822     4.296053     4.296053     4.296053    -4853.822   -490.85995   -10082.306   -3988.3004    3034.6633    -2192.928   -1494.0998    79.288262 
   34000    332.38926   -117.02513   0.30075279   -116.72438   -5624.0738    4.2990396    4.2990396    4.2990396   -5624.0738   -3247.2895   -12861.169    -763.7626   -558.95564    2741.1657   -2718.6245    79.453737 
   34100    195.67001   -116.90265   0.17704633    -116.7256     719.3213    4.2965922    4.2965922    4.2965922     719.3213   -8755.9571    15581.403   -4667.4816    -2976.142    4378.0452    994.15515    79.318119 
   34200    199.48277   -116.90606    0.1804962   -116.72556    1738.7648     4.295855     4.295855     4.295855    1738.7648   -4752.1933    17572.624   -7604.1359   -4130.8439    380.04789    4186.7595    79.277297 
   34300    241.24447   -116.94344   0.21828306   -116.72516    2421.0557    4.2974742    4.2974742    4.2974742    2421.0557   -1269.0989    8860.7278   -328.46176   -653.40152    323.11957    3003.5825    79.366975 
   34400    318.31066   -117.01205   0.28801417   -116.72404   -7643.7398    4.2988083    4.2988083    4.2988083   -7643.7398   -10252.512    -309.8908   -12368.816   -1286.3225    6149.1607    -2417.764    79.440913 
   34500    296.21182   -116.99188   0.26801868   -116.72386   -7274.5434    4.2947183    4.2947183    4.2947183   -7274.5434   -5623.7217   -9489.8847   -6710.0238   -138.93648    556.95254    1836.7581    79.214384 
   34600    340.97157   -117.03255   0.30851824   -116.72403   -6680.2998    4.2982816    4.2982816    4.2982816   -6680.2998   -7595.5927   -7534.8365   -4910.4701    1716.2318   -3184.6607    513.73988    79.411718 
   34700    301.12126   -116.99716   0.27246085    -116.7247    340.73561    4.2978325    4.2978325    4.2978325    340.73561   -10610.524    24067.229   -12434.498    1773.7982    3002.5531   -2784.6187    79.386831 
   34800    262.73723   -116.96356   0.23773016   -116.72583    1059.8256    4.2942635    4.2942635    4.2942635    1059.8256   -8118.7706    17464.885    -6166.637   -1726.6551    2879.0106   -1239.8843    79.189223 
   34900    341.05012   -117.03439   0.30858931    -116.7258   -4732.4386     4.297499     4.297499     4.297499   -4732.4386   -4502.8185   -1397.7657   -8296.7316   -3491.7231    -571.6388    2378.3694    79.368349 
   35000    408.59458   -117.09472   0.36970496   -116.72502   -4937.0932    4.3001388    4.3001388    4.3001388   -4937.0932   -4933.3154   -12305.953    2427.9885    30.322116   -206.88319    2832.1737    79.514701 
   35100    402.74757   -117.08938   0.36441446   -116.72496    3783.5231    4.2909878    4.2909878    4.2909878    3783.5231    2709.9159    6466.9463    2173.7071    1353.0395    3999.6056   -6950.3107    79.008142 
   35200    338.35916   -117.03216   0.30615448   -116.72601    -1772.934    4.3012399    4.3012399    4.3012399    -1772.934   -6130.3734    12295.316   -11483.745    1403.7742    2568.7954   -4015.0516    79.575798 
   35300    275.37688   -116.97471   0.24916679   -116.72554      8345.23    4.2968266    4.2968266    4.2968266      8345.23   -8767.3668     25164.38    8638.6766    2357.4592   -1710.1164   -1600.6776    79.331099 
   35400    438.98773   -117.12151   0.39720533    -116.7243    2134.9863     4.293548     4.293548     4.293548    2134.9863   -6564.3538    16111.222   -3141.9098    1779.2735    1329.1384    2324.3765    79.149645 
   35500    520.94782   -117.19507   0.47136453   -116.72371   -6831.3152    4.3001065    4.3001065    4.3001065   -6831.3152   -9862.5828   -1482.6276   -9148.7351   -2839.2642    2412.8045   -1398.4461     79.51291 
   35600     503.2575   -117.17936   0.45535796     -116.724   -4336.0362    4.2979058    4.2979058    4.2979058   -4336.0362   -13120.504   -1445.5998    1557.9952   -4081.9154   -2089.5388   -1518.8849    79.390889 
   35700    440.59883   -117.12382   0.39866308   -116.72515    1577.8053    4.2942839    4.2942839    4.2942839    1577.8053    -9525.511    19676.264   -5417.3368    517.53865   -2733.0643    1657.8403    79.190349 
   35800     384.2537   -117.07388   0.34768083    -116.7262    5311.7446    4.2989355    4.2989355    4.2989355    5311.7446   -9330.0481    29074.968    -3809.686    5891.8225    3916.7759   -1757.5001    79.447969 
   35900    465.55856   -117.14635   0.42124717   -116.72511     2770.156    4.2977909    4.2977909    4.2977909     2770.156   -8685.6948    22746.382   -5750.2194    3341.3879    3524.7776   -2268.5425    79.384526 
   36000    534.56677   -117.20849   0.48368725    -116.7248   -1019.9025    4.2943269    4.2943269    4.2943269   -1019.9025   -4721.7594     5195.141    -3533.089    -507.3114   -2475.1592   -3542.8678    79.192726 
   36100    505.67327   -117.18294    0.4575438    -116.7254   -3933.1313    4.2989409    4.2989409    4.2989409   -3933.1313   -4836.9824   -7358.0395    395.62793   -1624.9147    596.67822    3192.9069    79.448269 
   36200    581.90952   -117.25119   0.52652396   -116.72467   -2205.3183     4.296998     4.296998     4.296998   -2205.3183   -9698.9753    11372.925   -8289.9043   -1639.4833    2984.0304   -400.42071    79.340597 
   36300    486.77775   -117.16537   0.44044674   -116.72492    5256.9335    4.2957328    4.2957328    4.2957328    5256.9335   -6547.7945    28165.523   -5846.9283   -896.52791   -1470.5327   -270.81158    79.270535 
   36400    455.38208   -117.13767   0.41203927   -116.72563    5057.9905    4.2962553    4.2962553    4.2962553    5057.9905   -4023.7048    23332.038   -4134.3615    702.86202   -2095.4599   -936.07985    79.299464 
   36500    546.02827   -117.21865   0.49405785   -116.72459   -3026.2734    4.2990948    4.2990948    4.2990948   -3026.2734   -13655.655    8892.2651   -4315.4303    2863.5955    2496.3678    157.32087      79.4568 
   36600    615.53455   -117.28059    0.5569486   -116.72365     234.4008    4.2944769    4.2944769    4.2944769     234.4008   -741.94909    2063.7353   -618.58385    1620.3463    2014.4096   -1948.9239    79.201025 
   36700    592.16665   -117.26062   0.53580483   -116.72481   -2070.4778    4.2979989    4.2979989    4.2979989   -2070.4778   -2123.3105    4923.0235   -9011.1465   -962.97824   -1960.9701   -2981.7121    79.396052 
   36800    418.71323   -117.10545   0.37886053   -116.72659     5400.298    4.2972356    4.2972356    4.2972356     5400.298   -10157.522    21858.781    4499.6347   -1643.5012   -169.67928    3004.8394    79.353755 
   36900    418.63645     -117.105   0.37879106   -116.72621    7161.3771    4.2956296    4.2956296    4.2956296    7161.3771   -4916.9018    28320.958   -1919.9251   -1663.7664    3893.8305    1808.5067     79.26482 
   37000    580.94634   -117.25016   0.52565246   -116.72451    397.20982    4.2969905    4.2969905    4.2969905    397.20982   -5815.0236    14551.487   -7544.8341    -2592.429    168.06557    278.19601     79.34018 
   37100    532.19254   -117.20644     0.481539    -116.7249   -2710.1759    4.2978517    4.2978517    4.2978517   -2710.1759    -10176.64   -760.07775    2806.1896   -156.73382    -4948.851   -4992.3782    79.387894 
   37200    512.26995   -117.18892   0.46351261   -116.72541   -6472.0311     4.295926     4.295926     4.295926   -6472.0311   -11926.112   -5075.0988   -2414.8822    3248.8726   -576.90538   -730.87124    79.281228 
   37300    485.29815   -117.16486   0.43910797   -116.72575   -920.86904    4.2975392    4.2975392    4.2975392   -920.86904   -11171.284    11868.803   -3460.1261    2608.3901    3227.1721    2186.4984    79.370577 
   37400    418.22544   -117.10289   0.37841917   -116.72447    6967.4907    4.2968316    4.2968316    4.2968316    6967.4907   -7927.7699    28481.769    348.47292   -1210.5682   -2202.3368    3000.6609    79.331377 
   37500    415.97719   -117.10094    0.3763849   -116.72455   -1588.1405    4.2958513    4.2958513    4.2958513   -1588.1405   -10133.164    12879.542      -7510.8   -5216.3133   -1600.1888   -917.89763    79.277093 
   37600    419.18868   -117.10458   0.37929072   -116.72529   -4709.0933    4.2977027    4.2977027    4.2977027   -4709.0933   -2039.2088   -10941.252   -1146.8186   -1695.8709    3552.3393   -2012.4552    79.379638 
   37700    509.27081    -117.1849   0.46079893    -116.7241   -2618.9464     4.296794     4.296794     4.296794   -2618.9464    1354.7532   -6202.9767   -3008.6158    1383.7568   -1156.6897    651.64466    79.329296 
   37800    446.66522   -117.12876   0.40415208   -116.72461    409.97136    4.2953716    4.2953716    4.2953716    409.97136    2242.5191    5802.2283   -6814.8333    4554.9579   -4689.5738   -2155.8055    79.250541 
   37900     266.1526   -116.96724   0.24082047   -116.72642    1396.2318    4.2984251    4.2984251    4.2984251    1396.2318   -3099.2554    9467.5362   -2179.5854    2940.5245   -181.56655    284.42179    79.419671 
   38000    348.99603   -117.04132   0.31577895   -116.72554    2033.6291    4.2956533    4.2956533    4.2956533    2033.6291   -6842.7221    13191.226   -247.61619   -1362.2286    2429.9915   -544.49475    79.266133 
   38100    434.90585   -117.11751   0.39351195     -116.724   -277.22432    4.2969844    4.2969844    4.2969844   -277.22432   -1052.0385    2674.1463   -2453.7808   -2443.9804   -2314.8437    2568.8005    79.339842 
   38200      425.823   -117.11001    0.3852936   -116.72472   -6505.2929    4.2969244    4.2969244    4.2969244   -6505.2929   -2491.9094   -16921.275    -102.6942   -2324.9701   -3227.7988   -1777.5871     79.33652 
   38300    343.67719   -117.03658   0.31096635   -116.72562   -3770.4071     4.297847     4.297847     4.297847   -3770.4071   -4364.4621   -8503.0042     1556.245    77.537032    2053.4824   -2191.1289    79.387632 
   38400    253.70885   -116.95507    0.2295611   -116.72551    7478.1183    4.2962734    4.2962734    4.2962734    7478.1183    1723.8584    17389.676    3320.8209    2371.8421    1419.1672   -1150.4018    79.300466 
   38500    294.21325   -116.99091   0.26621033    -116.7247    4550.3943    4.2961458    4.2961458    4.2961458    4550.3943    787.06261     15693.12   -2828.9996    4095.2235   -3457.0259    244.20215    79.293397 
   38600    316.41346     -117.011   0.28629755    -116.7247   -1290.8184     4.297852     4.297852     4.297852   -1290.8184    1251.2317   -2409.9354   -2713.7517    2543.0761   -1903.2901    355.32748    79.387912 
   38700    351.51694   -117.04259   0.31805991   -116.72453   -5543.5664    4.2972135    4.2972135    4.2972135   -5543.5664   -3762.9063   -16214.801    3347.0083   -721.69685    1808.0478   -2025.5568    79.352534 
   38800    363.09977   -117.05345    0.3285403   -116.72491   -5428.0001    4.2953164    4.2953164    4.2953164   -5428.0001   -6453.9018   -7227.6708   -2602.4275     -4925.47   -1873.2962    1103.8505    79.247482 
   38900    300.71372   -116.99755    0.2720921   -116.72546   -2122.3404    4.2987859    4.2987859    4.2987859   -2122.3404   -8740.3544     9245.146   -6871.8127    -477.0034   -5165.0672    -299.4411    79.439672 
   39000    249.83403    -116.9516   0.22605508   -116.72554    2083.5102    4.2963784    4.2963784    4.2963784    2083.5102   -7317.3053    16339.148   -2771.3124    1336.5326    1640.5305    24.165735    79.306278 
   39100    313.83063   -117.00945   0.28396055   -116.72549   -2147.7566    4.2944338    4.2944338    4.2944338   -2147.7566   -2263.6936   -397.06416    -3782.512    2648.6046    1547.8486    -2533.099    79.198644 
   39200    333.70568   -117.02707   0.30194391   -116.72513   -9159.1655    4.3009794    4.3009794    4.3009794   -9159.1655    258.06845   -19740.305   -7995.2604    384.23419   -5388.2795    102.05086    79.561342 
   39300    376.80221   -117.06528   0.34093856   -116.72434    310.99925    4.2935668    4.2935668    4.2935668    310.99925      9346.81   -1840.7895   -6573.0227   -1973.7385   -2891.7503    38.914048    79.150682 
   39400    310.41361   -117.00597   0.28086876    -116.7251   -108.12465    4.2981595    4.2981595    4.2981595   -108.12465    1454.8499    4098.1129   -5877.3368   -2794.2656    2797.1127   -782.22838    79.404954 
   39500    219.15977   -116.92415   0.19830036   -116.72585     5371.495    4.2976245    4.2976245    4.2976245     5371.495    2409.6223    19168.637   -5463.7747   -4227.0177    -839.8769    1591.5694    79.375304 
   39600    339.29815   -117.03159    0.3070041   -116.72459    271.50368    4.2966321    4.2966321    4.2966321    271.50368    -6533.458    19950.551   -12602.582   -468.78435   -6921.0783    802.29204     79.32033 
   39700     457.0935   -117.13673   0.41358781   -116.72314   -2934.0795    4.2963981    4.2963981    4.2963981   -2934.0795   -1014.6347   -4259.4376   -3528.1663     1808.538   -1241.6737    597.90091    79.307371 
   39800    468.79437   -117.14789     0.424175   -116.72372   -10177.412    4.3005792    4.3005792    4.3005792   -10177.412   -4543.8826   -15904.778   -10083.575    2357.9051    1354.3846   -2014.9591    79.539131 
   39900    367.22661   -117.05699   0.33227435   -116.72471   -1190.8927    4.2945687    4.2945687    4.2945687   -1190.8927   -9487.3668    13585.456   -7670.7672   -997.34737   -5564.2234   -1799.6383    79.206104 
   40000    284.69703   -116.98343   0.25759985   -116.72583    5461.2469    4.2976446    4.2976446    4.2976446    5461.2469   -5559.2852    26837.918   -4894.8921   -2282.3242   -5891.6319    326.37235    79.376419 
   40100    425.11824   -117.10889   0.38465591   -116.72423    1066.2338    4.2979351    4.2979351    4.2979351    1066.2338   -2050.8091    18427.917   -13178.407   -5903.2164    1062.9392    615.57209    79.392517 
   40200    390.90676    -117.0788   0.35370065    -116.7251    434.86941    4.2960862    4.2960862    4.2960862    434.86941   -3467.3998     6421.377    -1649.369   -2597.2948    552.13632    2439.4618      79.2901 
   40300    424.96416   -117.10948    0.3845165   -116.72496   -5434.7567    4.2976861    4.2976861    4.2976861   -5434.7567   -6555.5089   -4144.9399   -5603.8213    870.84482   -6001.7249   -1208.0341    79.378714 
   40400    520.29221   -117.19476   0.47077133   -116.72398   -3539.6301     4.297235     4.297235     4.297235   -3539.6301   -216.16862    2265.0181    -12667.74    4337.7748   -1470.3773     -1486.75    79.353724 
   40500    446.74521   -117.12808   0.40422445   -116.72386    3624.1282    4.2974706    4.2974706    4.2974706    3624.1282   -6092.5889    19913.756   -2948.7822    3084.3721    2262.6458   -1299.5487    79.366774 
   40600    381.57219   -117.07087   0.34525453   -116.72562    4224.0964    4.2949655    4.2949655    4.2949655    4224.0964   -9123.3055    34313.545    -12517.95   -1224.2868   -5560.9167    1061.1703    79.228064 
   40700    388.85055   -117.07766   0.35184015   -116.72582   -31.821591    4.2990413    4.2990413    4.2990413   -31.821591   -3341.0027    19245.182   -15999.644   -1452.5182   -7133.4696    464.25543    79.453832 
   40800    599.05811   -117.26565   0.54204037   -116.72361    512.60578    4.2938312    4.2938312    4.2938312    512.60578   -428.53099    5597.7142   -3631.3658   -2366.3276    135.91479   -453.54317    79.165307 
   40900    570.19405   -117.24041   0.51592356   -116.72448   -5276.0598    4.2986131    4.2986131    4.2986131   -5276.0598    1472.7968    229.01951   -17529.996    55.051914    847.33159   -1411.2078    79.430094 
   41000    366.19404   -117.05751   0.33134007   -116.72617    2148.5333    4.2963354    4.2963354    4.2963354    2148.5333   -2681.7965    20374.359   -11246.962   -461.73507   -8037.8571   -759.79994    79.303898 
   41100    411.28836   -117.09821   0.37214235   -116.72607    4253.0997    4.2957487    4.2957487    4.2957487    4253.0997   -10450.046    35505.806   -12296.461    2712.1334   -4642.0396    1116.3502    79.271415 
   41200     520.3319   -117.19545   0.47080723   -116.72465    5279.5225     4.296256     4.296256     4.296256    5279.5225   -591.64472    28969.476   -12539.264    2684.7927    3494.8617   -1614.2733    79.299502 
   41300    505.42527   -117.18306    0.4573194   -116.72574   -7071.8997    4.2992722    4.2992722    4.2992722   -7071.8997   -13315.758    7334.0705   -15234.012    518.81126   -4110.8554   -1546.6304    79.466638 
   41400     479.4723   -117.15951   0.43383662   -116.72567   -5743.4968    4.2931175    4.2931175    4.2931175   -5743.4968   -14865.718    8013.3872    -10378.16   -3481.6392   -7606.3316    116.95766     79.12584 
   41500    523.07169   -117.19886   0.47328626   -116.72558   -4670.7101    4.3003128    4.3003128    4.3003128   -4670.7101   -11691.311    8226.4134   -10547.233   -3535.0656   -1053.7702    237.61948     79.52435 
   41600    469.54945   -117.14963   0.42485821   -116.72477    5813.5786    4.2948847    4.2948847    4.2948847    5813.5786   -338.43971    29759.581   -11980.405    1652.5289    900.42207    -362.0073    79.223594 
   41700    338.63429   -117.03306   0.30640343   -116.72666    4764.9407    4.2945804    4.2945804    4.2945804    4764.9407    -9510.089    35552.817   -11747.906    3928.3164   -5753.9676    -1106.923    79.206753 
   41800    346.59925   -117.04006   0.31361029   -116.72645    648.25481    4.2998632    4.2998632    4.2998632    648.25481   -857.17018     12370.36   -9568.4254    2799.5525   -4728.1856   -915.74797     79.49941 
   41900    562.70188   -117.23246   0.50914449   -116.72332   -753.96048    4.2945707    4.2945707    4.2945707   -753.96048    6773.8417    865.02847   -9900.7516   -1182.5145    3638.2562   -1418.7595    79.206217 
   42000    503.00391   -117.17869   0.45512851   -116.72356   -1430.0963    4.2957299    4.2957299    4.2957299   -1430.0963    413.67989     2985.726   -7689.6947   -3684.6885   -2468.2715    2084.1395    79.270372 
   42100    326.33138   -117.02098   0.29527149   -116.72571     13.94674    4.2990436    4.2990436    4.2990436     13.94674   -1551.0736    17143.096   -15550.183   -1686.4635   -7642.6979    448.45547     79.45396 
   42200    342.76858   -117.03587   0.31014422   -116.72573    3190.5782    4.2951563    4.2951563    4.2951563    3190.5782   -6811.2227    28470.099   -12087.142   -46.457492   -2129.6557    668.93119    79.238622 
   42300    391.49139   -117.07903   0.35422964    -116.7248    5071.8383    4.2950545    4.2950545    4.2950545    5071.8383    359.40584    20928.227   -6072.1178    3395.4203    2519.9546   -2693.8175    79.232991 
   42400     392.7497   -117.08015   0.35536818   -116.72479   -8841.9233    4.3010457    4.3010457    4.3010457   -8841.9233    -4131.569   -302.57301   -22091.628    1627.5561   -3784.4624   -2110.2248    79.565016 
   42500    332.95745   -117.02622    0.3012669   -116.72496   -4424.1443    4.2930152    4.2930152    4.2930152   -4424.1443    1716.1517   -3481.6201   -11506.964   -2017.8456   -7004.0103   -586.70784    79.120182 
   42600    326.96087   -117.02097   0.29584106   -116.72513   -4494.2274    4.2994235    4.2994235    4.2994235   -4494.2274   -4808.0501   -591.92365   -8082.7086   -2462.8636    3318.3405    2857.8208    79.475026 
   42700    321.97917   -117.01563   0.29133352   -116.72429      122.306    4.2966794    4.2966794    4.2966794      122.306   -2205.1603    19243.669   -16671.591   -1823.5709    307.71414    1598.9927    79.322949 
   42800      197.648   -116.90399   0.17883606   -116.72515    305.90949    4.2964736    4.2964736    4.2964736    305.90949   -7606.2232    24962.668   -16438.716    -270.4406   -8221.0522   -1509.2292    79.311549 
   42900    271.01434   -116.97005   0.24521947   -116.72483   -2039.4287    4.2962854    4.2962854    4.2962854   -2039.4287   -5416.0458    7257.6134   -7959.8538   -2299.3514   -1467.2507   -484.84448    79.301132 
   43000    383.79731   -117.07063   0.34726787   -116.72336    -8161.186    4.2991563    4.2991563    4.2991563    -8161.186   -787.87253   -12526.907   -11168.778   -1381.8725    2530.5282   -1080.2543    79.460209 
   43100    358.19712   -117.04762   0.32410428   -116.72352    -3025.701    4.2937561    4.2937561    4.2937561    -3025.701   -195.82079   -3287.2442   -5594.0381    1627.9751   -3652.8371    79.071067    79.161156 
   43200    248.76957   -116.95049   0.22509194    -116.7254   -1174.4508    4.2983226    4.2983226    4.2983226   -1174.4508    1854.4991    9176.7923   -14554.644    319.98784   -5268.2488   -502.50163    79.413992 
   43300    165.82422   -116.87561   0.15004124   -116.72557    6153.8585    4.2974038    4.2974038    4.2974038    6153.8585    5748.5155    19777.668   -7064.6078   -4170.7432    1894.2325    1540.5626    79.363076 
   43400    223.80008   -116.92726   0.20249902   -116.72476    3993.1058    4.2942073    4.2942073    4.2942073    3993.1058   -1796.9111    14002.116   -225.88789   -3835.4757    3456.2083    1046.9318    79.186111 
   43500    328.34469   -117.02184   0.29709317   -116.72475   -6434.1731    4.2980601    4.2980601    4.2980601   -6434.1731    2084.8237   -7488.9221   -13898.421   -1469.2326   -4077.6339   -162.00603    79.399443 
   43600    322.63506   -117.01665   0.29192699   -116.72473   -5210.2905    4.2973665    4.2973665    4.2973665   -5210.2905    815.74434   -11079.034   -5367.5822    2179.7611   -3086.8261    9.6959189     79.36101 
   43700     275.9554   -116.97482   0.24969024   -116.72513    -3820.898    4.2952779    4.2952779    4.2952779    -3820.898   -9128.3694   -895.50633   -1438.8183   -1400.4018    2727.6436   -1824.6918     79.24535 
   43800    251.52622   -116.95314   0.22758621   -116.72555    895.26528    4.2964845    4.2964845    4.2964845    895.26528   -5370.7244    14931.855   -6875.3343    265.88585   -506.62963    1202.3501    79.312156 
   43900    250.75709   -116.95165   0.22689029   -116.72476    888.15468    4.2988269    4.2988269    4.2988269    888.15468   -3602.9416    16063.754   -9796.3485   -1560.7277   -5243.6073    -1071.853    79.441947 
   44000    304.71855   -117.00039   0.27571575   -116.72467   -1122.5078    4.2922673    4.2922673    4.2922673   -1122.5078    1292.6839    1696.0418    -6356.249   -6431.4872    996.49573    650.31596    79.078835 
   44100    313.13415   -117.00846   0.28333036   -116.72513   -7726.1799    4.2995704    4.2995704    4.2995704   -7726.1799    202.66297   -17640.456   -5740.7471   -3454.8938    3948.0595     -1616.81    79.483172 
   44200    353.72223   -117.04428   0.32005531   -116.72423   -2803.9146    4.2974329    4.2974329    4.2974329   -2803.9146    3971.4183   -3758.5821   -8624.5801    2244.0685   -3194.7252    1036.6428    79.364686 
   44300    378.77732    -117.0665   0.34272568   -116.72377    2152.4697    4.2930998    4.2930998    4.2930998    2152.4697    1888.5082    16293.985   -11725.084    4848.6561   -3250.6603   -622.15689    79.124862 
   44400    243.92794   -116.94689   0.22071113   -116.72618    1789.1374    4.2995084    4.2995084    4.2995084    1789.1374   -1824.7724    14432.066   -7239.8816   -2769.9406    2732.0473   -2326.8994    79.479732 
   44500    338.21847   -117.03188   0.30602718   -116.72586   -975.70825     4.296655     4.296655     4.296655   -975.70825   -3875.7926    8318.6032   -7369.9353   -4942.9843    1878.0146   -895.13397    79.321598 
   44600     496.0694   -117.17283   0.44885402   -116.72398   -640.96189    4.2938801    4.2938801    4.2938801   -640.96189    1036.1267    1858.4622   -4817.4746   -3535.2054    -3350.613   -1230.8226    79.168012 
   44700    452.52193   -117.13428   0.40945135   -116.72483   -3610.3906    4.2997549    4.2997549    4.2997549   -3610.3906    9590.3997   -10668.672   -9752.8995    130.86857   -162.66203    1262.5626    79.493408 
   44800    381.08698   -117.07058    0.3448155   -116.72577   -3236.6272    4.2966461    4.2966461    4.2966461   -3236.6272   -4983.1828    4747.1372   -9473.8359   -1343.0575    3526.8337   -771.15153    79.321105 
   44900    302.13194   -116.99949   0.27337532   -116.72612    8622.7928    4.2935493    4.2935493    4.2935493    8622.7928   -647.21139    24582.949    1932.6407    2755.7554   -439.24906    660.10575    79.149717 
   45000    467.71389   -117.14747   0.42319735   -116.72427   -279.93464    4.2997159    4.2997159    4.2997159   -279.93464   -5232.9036    18112.731   -13719.632     1513.843   -1820.1832   -1275.1091    79.491243 
   45100    491.74375   -117.16944   0.44494008    -116.7245   -3868.5713    4.2953266    4.2953266    4.2953266   -3868.5713    -8361.924    7152.1427   -10395.933   -4176.6041    3044.8639    556.60857     79.24805 
   45200    439.15535   -117.12291   0.39735699   -116.72555   -4763.3898    4.2959738    4.2959738    4.2959738   -4763.3898   -11879.581   -2701.2324    290.64434   -4028.7735    4747.8047    1110.5451    79.283876 
   45300    562.95168   -117.23437   0.50937051     -116.725   -4805.6666    4.2983703    4.2983703    4.2983703   -4805.6666   -6228.7227    3917.8664   -12106.144    670.11404   -2227.6794   -765.99682    79.416637 
   45400    495.38803   -117.17335    0.4482375   -116.72512    7787.8903    4.2947596    4.2947596    4.2947596    7787.8903    462.72092    28920.172   -6019.2215    2981.5225   -2083.5505    1249.2109    79.216671 
   45500    404.45159   -117.09312    0.3659563   -116.72717    5015.8561    4.2967644    4.2967644    4.2967644    5015.8561   -6700.5256    28732.748    -6984.654   -2837.4995    4079.5402     104.3852    79.327656 
   45600    436.94737   -117.12226   0.39535916    -116.7269    1785.4329    4.2968277    4.2968277    4.2968277    1785.4329    3853.4678    9371.9521   -7869.1211   -1017.6647    1569.8576   -105.11866    79.331164 
   45700    614.66654   -117.28054    0.5561632   -116.72438    570.40859    4.2957188    4.2957188    4.2957188    570.40859    2162.9081   -87.630423   -364.05194    775.69037    139.83555   -1954.1808    79.269759 
   45800    627.05937   -117.29196    0.5673765   -116.72459   -596.93085    4.2965601    4.2965601    4.2965601   -596.93085    181.47162    7180.2751   -9152.5393   -501.55683    973.42525    1334.2732    79.316342 
   45900    457.94142   -117.14086   0.41435502   -116.72651    785.06249    4.2968392    4.2968392    4.2968392    785.06249   -5633.1516     15084.89   -7096.5509   -7865.0051     1059.654    449.91645    79.331798 
   46000    402.74341    -117.0907    0.3644107   -116.72628    5100.4639    4.2967095    4.2967095    4.2967095    5100.4639    -12690.79    25483.075    2509.1061   -2503.1228   -500.17443    487.18407    79.324618 
   46100    607.87482   -117.27358   0.55001791   -116.72357     2184.857    4.2956379    4.2956379    4.2956379     2184.857   -2931.9546    18018.783   -8532.2576    5775.8079    236.73634   -1588.2502    79.265279 
   46200    562.92706   -117.23341   0.50934823   -116.72407   -2984.9158    4.2989262    4.2989262    4.2989262   -2984.9158   -3951.9793    4036.5298   -9039.2979    2877.8355    5342.6311   -954.77624    79.447452 
   46300    488.01011   -117.16681    0.4415618   -116.72525   -2335.4664    4.2954572    4.2954572    4.2954572   -2335.4664   -3880.3439   -745.69984   -2380.3554   -5548.0783    1866.8449    1035.2388    79.255276 
   46400    505.81561   -117.18331   0.45767259   -116.72564    503.97221    4.2974721    4.2974721    4.2974721    503.97221   -7355.7139    14583.114   -5715.4836   -8351.3782   -3072.4509   -1312.1099    79.366859 
   46500    489.90286   -117.16821    0.4432744   -116.72493    6843.7665    4.2970525    4.2970525    4.2970525    6843.7665   -4580.9679    30649.043   -5536.7759   -1925.2149    903.09861   -820.45185    79.343612 
   46600    473.42097   -117.15416   0.42836124    -116.7258   -344.60975    4.2965492    4.2965492    4.2965492   -344.60975    -12817.65    20250.175   -8466.3544   -4591.0508    4552.8548   -84.901825    79.315739 
   46700    485.33583   -117.16532   0.43914206   -116.72618   -2243.0956    4.2950639    4.2950639    4.2950639   -2243.0956   -8964.5933    458.21076    1777.0958   -2412.3799    2693.8376    4227.0096    79.233511 
   46800    559.82344   -117.23197   0.50654002   -116.72543   -6166.7526    4.3001579    4.3001579    4.3001579   -6166.7526   -9727.1293   -7566.2633   -1206.8651    3276.8946   -471.43715   -507.18713    79.515756 
   46900    560.16829   -117.23133   0.50685204   -116.72448    2658.8716    4.2932667    4.2932667    4.2932667    2658.8716   -5950.5578    16262.979   -2335.8061    189.90263    1466.7635   -2412.7217    79.134091 
   47000    328.42441   -117.02365   0.29716531   -116.72649    6594.7828    4.2977951    4.2977951    4.2977951    6594.7828   -6180.0613    25285.534    678.87513   -7873.1358    424.63089   -1302.9447    79.384756 
   47100    380.09261   -117.06947   0.34391578   -116.72555    4863.4427    4.2969432    4.2969432    4.2969432    4863.4427    1558.1682    13340.498   -308.33858     -7093.63    -1757.834    523.73934    79.337558 
   47200    543.55795   -117.21522   0.49182266    -116.7234    336.46229    4.2958094    4.2958094    4.2958094    336.46229    2067.8537    1583.8056   -2642.2725    1074.7555    2431.7892    1322.7185    79.274773 
   47300    496.23931   -117.17286   0.44900776   -116.72386    -848.7163    4.2967947    4.2967947    4.2967947    -848.7163    2171.5892   -2261.5691    -2456.169    1505.4295    3282.6351   -306.18039    79.329332 
   47400    427.08354   -117.11188   0.38643416   -116.72544   -4194.4497    4.2975139    4.2975139    4.2975139   -4194.4497   -6097.9424   -1063.0907   -5422.3159   -3987.4166    532.38057    1312.5328    79.369174 
   47500    356.98861   -117.04917   0.32301079   -116.72616    1458.1815    4.2963444    4.2963444    4.2963444    1458.1815   -9372.2352    11942.826    1803.9537    -2251.241   -1577.8412   -1450.1555    79.304398 
   47600    410.73527   -117.09664    0.3716419     -116.725    3007.4002    4.2968344    4.2968344    4.2968344    3007.4002   -10319.352    21190.825   -1849.2724     1560.269    2839.3018    -2170.332    79.331532 
   47700    415.68495   -117.10084   0.37612048   -116.72471   -4929.7504    4.2983657    4.2983657    4.2983657   -4929.7504   -7781.4931    673.20644   -7680.9646   -4703.4524    4787.7836    -2151.777    79.416378 
   47800    347.68423   -117.03967   0.31459199   -116.72508   -2867.7147    4.2955005    4.2955005    4.2955005   -2867.7147    503.07033   -19322.048    10215.834   -7611.2868    -1571.801   -1657.9533    79.257672 
   47900    423.23321    -117.1073    0.3829503   -116.72435   -5577.0244    4.2996163    4.2996163    4.2996163   -5577.0244   -3076.8398   -11295.999   -2358.2348    -1109.826   -2214.0707    2595.4877    79.485716 
   48000      373.826   -117.06209   0.33824562   -116.72384    6826.1659    4.2938514    4.2938514    4.2938514    6826.1659    2922.1979    14999.477    2556.8228    6225.2896    157.86511    553.24963    79.166423 
   48100    283.15379   -116.98078    0.2562035   -116.72457   -435.98749    4.2999221    4.2999221    4.2999221   -435.98749   -9942.6669    9051.6244    -416.9199    483.85025    1094.8465    614.84869    79.502678 
   48200    339.41174   -117.03146   0.30710687   -116.72435    2500.9832    4.2932024    4.2932024    4.2932024    2500.9832   -1008.8396    6209.5035    2302.2857   -6072.2612    1276.5229   -1191.1623    79.130532 
   48300    433.30829   -117.11578   0.39206645   -116.72372   -5306.5539    4.2989546    4.2989546    4.2989546   -5306.5539   -8894.4592   -7709.6874    684.48498   -1774.8433    2117.8318    1278.5747    79.449028 
   48400    472.94602   -117.15123    0.4279315    -116.7233   -4944.4448    4.2964375    4.2964375    4.2964375   -4944.4448   -5903.1225   -7537.6449   -1392.5669   -2002.6278    1891.9746   -128.42297     79.30955 
   48500    338.48724   -117.03137   0.30627037    -116.7251   -2001.0933    4.2960688    4.2960688    4.2960688   -2001.0933   -140.82923   -3997.8189   -1864.6318   -3490.4394   -1180.3553   -151.24998    79.289138 
   48600    205.60263   -116.91241   0.18603358   -116.72638    7354.4829    4.2968177    4.2968177    4.2968177    7354.4829    750.43263    15885.446    5427.5697   -1987.6942   -757.10517    2525.4495    79.330611 
   48700    337.02666   -117.02984   0.30494881   -116.72489     1450.456    4.2966892    4.2966892    4.2966892     1450.456    -4773.745    13801.985   -4676.8717    4295.2229    1169.7972    2070.0647    79.323491 
   48800    401.33518   -117.08729   0.36313651   -116.72415   -2322.6435    4.2955046    4.2955046    4.2955046   -2322.6435   -1620.4491   -5252.5418   -94.939616    1582.4851     522.7885    3273.3248    79.257901 
   48900    360.98393   -117.05189   0.32662584   -116.72526   -6554.5121    4.2985986    4.2985986    4.2985986   -6554.5121   -3940.9134   -16698.208     975.5848   -8413.2611   -858.94824   -153.64999    79.429288 
   49000    364.50942   -117.05539   0.32981578   -116.72558   -5486.8686    4.2946536    4.2946536    4.2946536   -5486.8686   -14137.536   -2928.8945    605.82428   -6921.4935   -188.58667   -1175.6919    79.210804 
   49100    334.93006   -117.02831   0.30305175   -116.72526   -294.06448    4.2972168    4.2972168    4.2972168   -294.06448   -9763.7789    11625.616   -2744.0304    2082.9023    4306.6077   -1511.3211    79.352716 
   49200    341.93191   -117.03389   0.30938718   -116.72451    1735.2833    4.2976123    4.2976123    4.2976123    1735.2833   -4624.6391    16314.451   -6483.9616    2175.5959    1779.7204   -53.771722    79.374626 
   49300      312.043   -117.00763   0.28234306   -116.72528   -1392.4771    4.2949554    4.2949554    4.2949554   -1392.4771    -1841.126   -3720.7788    1384.4734   -2107.2731   -238.66729    554.34182    79.227507 
   49400    363.02386   -117.05316   0.32847162   -116.72469   -4986.5527    4.2969231    4.2969231    4.2969231   -4986.5527   -935.23495   -11404.839    -2619.584   -2678.3415    717.37196   -1072.4488    79.336444 
   49500    515.85903   -117.18994   0.46676009   -116.72318   -5993.8247    4.2986807    4.2986807    4.2986807   -5993.8247   -5902.8356    -4898.673   -7179.9655   -998.05563    450.78968    2259.5808    79.433842 
   49600    325.62652   -117.01943   0.29463371    -116.7248    7857.5257    4.2937066    4.2937066    4.2937066    7857.5257    2232.7065    15445.698    5894.1727   -5548.7761    200.85739   -2018.9331    79.158415 
   49700    291.55254   -116.99006   0.26380287   -116.72625    373.69938    4.2970302    4.2970302    4.2970302    373.69938   -9894.9298    13994.833   -2978.8047   -5460.9593   -720.70878   -1788.6434    79.342379 
   49800    391.30679   -117.07859   0.35406261   -116.72452   -340.40142    4.2984888    4.2984888    4.2984888   -340.40142   -7326.9646     10222.79   -3917.0293    2453.7918    361.05696   -2066.7017    79.423201 
   49900      533.647   -117.20569   0.48285502   -116.72283    2702.5802     4.294056     4.294056     4.294056    2702.5802    2930.3206    1330.3181     3847.102    2124.9787    454.69098    1218.3506     79.17774 
   50000    435.32352   -117.11892   0.39388987   -116.72503   -2893.2694    4.2974488    4.2974488    4.2974488   -2893.2694    2752.6289   -6411.5883   -5020.8487   -5541.8051    467.50085    2698.0198    79.365569 
   50100    313.74359   -117.01043   0.28388179   -116.72654    120.85243    4.2972923    4.2972923    4.2972923    120.85243   -4879.8108    6923.9769   -1681.6088   -9260.5498    1547.3449   -506.73133    79.356901 
   50200    399.67528   -117.08689   0.36163459   -116.72525    6968.8289    4.2956896    4.2956896    4.2956896    6968.8289   -6775.2122    34947.925   -7266.2265    -306.0945   -317.20126    336.22165     79.26814 
   50300    489.90255   -117.16815   0.44327413   -116.72487    3059.9907    4.2959636    4.2959636    4.2959636    3059.9907   -1166.9756    18728.102   -8381.1545    581.70985   -292.98546    622.15085    79.283313 
   50400    420.75833   -117.10736   0.38071098   -116.72665   -7458.8632    4.2976695    4.2976695    4.2976695   -7458.8632   -11483.278   -6923.3218   -3969.9893   -4596.6733   -874.01411    5166.2607    79.377795 
   50500    493.65648   -117.17241   0.44667076   -116.72574   -8483.2652    4.2959039    4.2959039    4.2959039   -8483.2652   -13653.742   -1236.8773   -10559.176   -4089.8746     1455.206   -214.54454    79.280008 
   50600    532.33166   -117.20654   0.48166487   -116.72488    1242.9814     4.297519     4.297519     4.297519    1242.9814   -8335.5403    23520.217   -11455.732    1735.0625    2271.6284      -546.53    79.369456 
   50700    437.57592   -117.12097   0.39592789   -116.72504    4024.9573     4.295949     4.295949     4.295949    4024.9573   -6721.0731    24135.391   -5339.4458   -1000.2102   -803.54709    51.459882    79.282502 
   50800    348.25398    -117.0417   0.31510752   -116.72659   -1747.4599    4.2964687    4.2964687    4.2964687   -1747.4599   -10501.806    17565.487   -12306.061   -9839.1442    345.35495    1554.2087    79.311281 
   50900    517.68407   -117.19359   0.46841142   -116.72518   -2664.2582     4.296843     4.296843     4.296843   -2664.2582   -1821.7061    3364.3601   -9535.4287    -4452.077    422.62475    870.31212    79.332008 
   51000    631.02646   -117.29432     0.570966   -116.72335   -1759.5034     4.297516     4.297516     4.297516   -1759.5034    225.41786    3215.5177   -8719.4457    1878.5178    810.57235    1022.2563    79.369291 
   51100     432.7451   -117.11718   0.39155686   -116.72562    1095.9947      4.29562      4.29562      4.29562    1095.9947   -4948.6212    15451.622   -7215.0168    318.93733    2459.1037    658.81761    79.264286 
   51200    332.10808   -117.02821   0.30049837   -116.72771    2131.4128    4.2966557    4.2966557    4.2966557    2131.4128   -12304.409    27629.542   -8930.8945   -2130.8198   -548.87988   -4611.8026    79.321634 
   51300    523.71262   -117.19889   0.47386619   -116.72502     1699.387    4.2980493    4.2980493    4.2980493     1699.387   -8340.5333    23948.424    -10509.73   -1540.3511   -148.09275   -2660.4606    79.398843 
   51400    602.94069   -117.26921    0.5455534   -116.72366   -485.26725    4.2953876    4.2953876    4.2953876   -485.26725    -4055.954    7508.7538   -4908.6016   -2971.4959   -583.42159   -343.81498    79.251427 
   51500    451.58336   -117.13464   0.40860211   -116.72604   -5152.7326    4.2968189    4.2968189    4.2968189   -5152.7326   -5585.4049   -4809.3152   -5063.4779   -6884.0278   -350.19669    4848.3564    79.330672 
   51600    399.31524   -117.08815   0.36130882   -116.72684    451.56176    4.2982789    4.2982789    4.2982789    451.56176   -5823.1719    13868.347   -6690.4901   -3035.1365    1131.5548    1678.3115    79.411567 
   51700    487.68638   -117.16549   0.44126889   -116.72422    9042.2036    4.2950375    4.2950375    4.2950375    9042.2036    1088.8537    32078.953   -6041.1954    6497.4819   -586.87095   -2311.1614    79.232048 
   51800      416.359   -117.10174   0.37673038   -116.72501    7642.0315    4.2959668    4.2959668    4.2959668    7642.0315    3200.0489    24786.274   -5060.2285    3699.2536    307.67686   -2511.5187     79.28349 
   51900    379.44162   -117.06935   0.34332675   -116.72602   -5427.2346    4.2995914    4.2995914    4.2995914   -5427.2346   -9423.2123   -3342.0234   -3516.4681   -5818.6007   -190.65278    1171.5761    79.484339 
   52000    513.41918   -117.18863   0.46455246   -116.72408   -957.00001    4.2927652    4.2927652    4.2927652   -957.00001    668.82349    2334.6897   -5874.5132   -5933.7202    1107.1388    5123.3545    79.106359 
   52100    564.10949   -117.23417   0.51041812   -116.72375   -4980.0153    4.3003831    4.3003831    4.3003831   -4980.0153   -9342.6685    5660.1673   -11257.545   -805.75209    1503.1373    457.88947    79.528253 
   52200    326.96985   -117.02112   0.29584919   -116.72527    3527.4026    4.2961924    4.2961924    4.2961924    3527.4026    -8847.991    21871.154    -2440.955    34.017685   -525.24416    1997.2558     79.29598 
   52300    275.17608   -116.97525    0.2489851   -116.72627    610.50702    4.2954809    4.2954809    4.2954809    610.50702   -8623.7585    23095.199   -12639.919   -3565.6628    156.39003    -117.5311     79.25659 
   52400    447.36939   -117.12924   0.40478922   -116.72445   -2205.7482    4.2975557    4.2975557    4.2975557   -2205.7482   -2377.3245    4520.7738   -8760.6938    746.59791   -1140.1225    326.01751    79.371492 
   52500    505.55403   -117.18112   0.45743591   -116.72368   -6603.8289    4.2987754    4.2987754    4.2987754   -6603.8289    520.91833   -10341.821   -9990.5843    2979.7709    291.92181    957.35439    79.439091 
   52600    300.17831   -116.99746   0.27160764   -116.72585   -1575.2339    4.2942594    4.2942594    4.2942594   -1575.2339   -1291.2573      4388.97   -7823.4146   -5020.9387    2067.0487    2662.6447    79.188997 
   52700      257.248   -116.95967   0.23276339    -116.7269    250.39443    4.2969243    4.2969243    4.2969243    250.39443   -4501.4416    12835.334   -7582.7089   -6557.2832   -347.12263     550.8124    79.336513 
   52800    366.57753    -117.0553   0.33168705   -116.72361     672.7104    4.2995258    4.2995258    4.2995258     672.7104   -5047.1632    19916.545    -12851.25    -1778.282    693.80213   -2119.3238    79.480699 
   52900    341.99996   -117.03331   0.30944875   -116.72387    564.07824    4.2930537    4.2930537    4.2930537    564.07824   -5222.3745    12973.433   -6058.8236    694.44677   -673.48616   -509.27407    79.122309 
   53000     293.2854    -116.9909    0.2653708   -116.72553   -9715.2938    4.2976005    4.2976005    4.2976005   -9715.2938   -7716.0945    -13531.28    -7898.507   -1457.5566   -977.18042    1030.3029    79.373976 
   53100    376.20085    -117.0656   0.34039444    -116.7252   -8949.2477    4.2992223    4.2992223    4.2992223   -8949.2477   -6248.9396   -12930.204   -7668.5994   -1519.9077    1184.2569    2815.9199    79.463868 
   53200    334.47896   -117.02709   0.30264359   -116.72445     4447.568    4.2936137    4.2936137    4.2936137     4447.568   -656.55764    22135.894   -8136.6326    1973.7787   -717.94053   -1501.8004     79.15328 
   53300    169.68761    -116.8802   0.15353692   -116.72666    4117.2364    4.2960033    4.2960033    4.2960033    4117.2364   -3194.1203    21126.474   -5580.6451   -3666.1524    201.80125    -586.2649     79.28551 
   53400    206.48215   -116.91359   0.18682939   -116.72676   -5898.7277    4.3000426    4.3000426    4.3000426   -5898.7277   -6675.1486   -6873.5199   -4147.5146   -5961.8083     -438.089    607.83618    79.509363 
   53500    379.26559   -117.06731   0.34316747   -116.72414    288.35479    4.2922809    4.2922809    4.2922809    288.35479    10887.629   -4410.9958    -5611.569   -706.49645    -752.0358    3016.0686    79.079591 
   53600      364.961   -117.05488   0.33022438   -116.72465   -3958.5732    4.2984392    4.2984392    4.2984392   -3958.5732   -3527.2295   -3551.7817   -4796.7084    2523.0487    1610.0197   -297.03782    79.420454 
   53700     139.9827   -116.85291   0.12665928   -116.72625   -133.55654     4.298429     4.298429     4.298429   -133.55654   -4650.5106    3130.4433    1119.3976    1906.0276   -187.16056     1120.995    79.419886 
   53800    230.91505   -116.93365   0.20893679   -116.72471    1511.3049    4.2934943    4.2934943    4.2934943    1511.3049    -241.9788     11767.74   -6991.8463   -1981.4338    164.80195    1636.4772    79.146677 
   53900    319.20139   -117.01256   0.28882013   -116.72374    2659.7769    4.2968079    4.2968079    4.2968079    2659.7769   -2392.0259    10956.802   -585.44572   -1458.0635   -1072.6085   -312.63654    79.330065 
   54000    337.83855    -117.0301   0.30568342   -116.72441   -9030.3545    4.2994423    4.2994423    4.2994423   -9030.3545   -5170.3387   -16256.051   -5664.6737   -431.53162    177.47375    466.86305    79.476068 
   54100    267.37846   -116.96725   0.24192965   -116.72532   -5120.0969    4.2933699    4.2933699    4.2933699   -5120.0969    111.10714   -11378.294   -4093.1035   -3030.6242    1961.0316    1529.1941    79.139794 
   54200    259.34077   -116.96056   0.23465698    -116.7259    3587.0918    4.2973275    4.2973275    4.2973275    3587.0918   -762.78461    14048.067   -2524.0073    672.80434    -735.5062    2014.0294    79.358851 
   54300    301.72527   -116.99829   0.27300737   -116.72528    2546.0239    4.2972946    4.2972946    4.2972946    2546.0239   -2022.5739    20111.161   -10450.515    4698.2382    508.80108     39.91608    79.357024 
   54400    258.38863   -116.95982   0.23379546   -116.72602   -1537.1281    4.2948003    4.2948003    4.2948003   -1537.1281   -4256.8324    7332.9264   -7687.4782    2699.2912   -344.99782   -390.36943    79.218919 
   54500     360.3675   -117.05177   0.32606809    -116.7257   -5944.5257    4.2971539    4.2971539    4.2971539   -5944.5257   -5485.1861   -8600.0643   -3748.3265   -1733.3859   -1182.9793   -1824.7722    79.349233 
   54600     472.0441   -117.15108   0.42711542   -116.72396    -8773.697    4.2980994    4.2980994    4.2980994    -8773.697   -5406.1082   -9078.7913   -11836.191   -4545.1291    985.67341   -93.674999     79.40162 
   54700    371.57156   -117.06078   0.33620575   -116.72457   -2012.6112    4.2943305    4.2943305    4.2943305   -2012.6112   -8220.7318    12386.125   -10203.227    1391.0129   -480.19936    964.70173    79.192927 
   54800    308.47315    -117.0051   0.27911299   -116.72599   -1018.0411    4.2978254    4.2978254    4.2978254   -1018.0411   -12599.476    16395.087   -6849.7347    3677.5989    438.34725    2605.9561    79.386434 
   54900    361.48963   -117.05197   0.32708341   -116.72489    1745.9761    4.2975608    4.2975608    4.2975608    1745.9761   -6949.5839    16143.132   -3955.6198    2355.1709   -1746.0715    1301.4856    79.371774 
   55000    465.94369   -117.14562   0.42159564   -116.72403   -966.12358    4.2945445    4.2945445    4.2945445   -966.12358    3959.0378    5170.0924   -12027.501    1424.9519    -1096.826   -2075.5656    79.204766 
   55100    502.54755   -117.17935   0.45471558   -116.72463   -3746.4968    4.2974419    4.2974419    4.2974419   -3746.4968   -3161.2231    -4755.298   -3322.9694   -186.80504    2342.7989   -2897.7176    79.365188 
   55200    409.10319   -117.09529   0.37016516   -116.72512    891.78602     4.299845     4.299845     4.299845    891.78602   -3217.9351    4180.5139    1712.7792   -592.68568   -506.42831    2323.1125    79.498402 
   55300    470.19487   -117.14948    0.4254422   -116.72404    7490.3424    4.2915045    4.2915045    4.2915045    7490.3424    1536.0304     26258.83   -5323.8329   -3459.2537   -112.34384    5844.1674    79.036687 
   55400    464.66673   -117.14561   0.42044022   -116.72517    3039.1756    4.2996765    4.2996765    4.2996765    3039.1756   -12437.064    25111.055   -3556.4642   -12.462437    -255.9061    550.85178    79.489054 
   55500    492.78541   -117.17075   0.44588259   -116.72487    1720.9343    4.2973181    4.2973181    4.2973181    1720.9343   -10887.346    12741.788    3308.3608    4408.0077   -81.860334   -2491.9662    79.358326 
   55600    591.48111   -117.25921   0.53518453   -116.72403    -2550.838    4.2931976    4.2931976    4.2931976    -2550.838    -3632.316   -2890.7254   -1129.4727    3717.0224    948.80374   -763.55989    79.130265 
   55700    547.47023    -117.2205   0.49536257   -116.72514     694.4268    4.2983602    4.2983602    4.2983602     694.4268   -8596.7849    9045.5055    1634.5599   -1420.4665   -450.15032    1573.3349    79.416077 
   55800    519.24635   -117.19515   0.46982501   -116.72533    5230.9853    4.2966304    4.2966304    4.2966304    5230.9853   -5089.8061    25673.328   -4890.5658   -1481.0789    732.57244    1716.2679    79.320234 
   55900    425.08898   -117.11052   0.38462945   -116.72589    8874.7987    4.2943349    4.2943349    4.2943349    8874.7987   -3695.1298     31970.21   -1650.6844    645.21885   -1435.4862    2538.0511    79.193172 
   56000    497.98306   -117.17659   0.45058554   -116.72601     1647.877    4.2967705    4.2967705    4.2967705     1647.877   -9258.9722    11941.223    2261.3796   -289.02624   -1303.7011    1059.7467    79.327994 
   56100    609.97062   -117.27629   0.55191423   -116.72438   -5918.8387    4.2984834    4.2984834    4.2984834   -5918.8387   -7289.7576    650.09803   -11116.856   -860.36882    1283.7957   -3047.8187    79.422906 
   56200    588.83729   -117.25707   0.53279236   -116.72428   -3085.7143    4.2947108    4.2947108    4.2947108   -3085.7143    -11205.33    7714.5912   -5766.4037    3879.4393    489.53076   -2580.6977    79.213971 
   56300    465.24188   -117.14688   0.42096063   -116.72592   -634.22829    4.2967162    4.2967162    4.2967162   -634.22829   -18778.468    18195.992   -1320.2089    8790.3745    553.91993    2565.5327    79.324985 
   56400    450.92008   -117.13422   0.40800196   -116.72622   -400.01852    4.2983756    4.2983756    4.2983756   -400.01852   -14912.749    24952.667   -11239.974    40.559583   -3400.3058    5345.8352    79.416928 
   56500    493.00379   -117.17097   0.44608019   -116.72489    577.22725     4.295891     4.295891     4.295891    577.22725    -6596.877    19507.953   -11179.394   -5105.6815   -1751.4458    288.66976    79.279294 
   56600    574.87508   -117.24462   0.52015905   -116.72446   -1793.1322    4.2947523    4.2947523    4.2947523   -1793.1322   -4676.9753    321.82699   -1024.2483   -678.96195    2177.9081   -4141.5332    79.216264 
   56700    486.43755   -117.16536   0.44013892   -116.72522   -6694.6105    4.3010669    4.3010669    4.3010669   -6694.6105   -7608.8387   -8575.4409   -3899.5518    6456.4001    308.51034   -2227.7947    79.566198 
   56800    441.01448   -117.12362   0.39903917   -116.72458    4488.5755    4.2931354    4.2931354    4.2931354    4488.5755    2296.2864    17770.903    -6601.463    4034.8357     715.1904    3563.2405    79.126827 
   56900    442.12287   -117.12433   0.40004207   -116.72428     6359.768    4.2971515    4.2971515    4.2971515     6359.768   -7744.6958    29181.928   -2357.9279    1442.8816   -1445.3583    2173.9083      79.3491 
   57000    402.04323   -117.08849   0.36377716   -116.72471    5301.1227    4.2975103    4.2975103    4.2975103    5301.1227   -4533.5395    15222.351    5214.5565    3987.0665   -828.96964   -811.75218    79.368975 
   57100    455.41067   -117.13658   0.41206514   -116.72451   -6086.9685    4.2965809    4.2965809    4.2965809   -6086.9685   -5481.7247    -9436.401   -3342.7798    1767.8972    1329.4197   -1052.1539    79.317494 
   57200    502.46538   -117.17884   0.45464123    -116.7242   -674.30257    4.2944694    4.2944694    4.2944694   -674.30257   -4266.2271   -5037.7348    7281.0542   -2024.8956   -314.71073    1434.5967    79.200614 
   57300    443.90612   -117.12632   0.40165559   -116.72467    1024.6407    4.2996319    4.2996319    4.2996319    1024.6407   -2659.1896    5026.7164    706.39546   -223.12693   -587.01975    266.62328    79.486582 
   57400     312.9883   -117.00869   0.28319839   -116.72549     4358.579    4.2940791    4.2940791    4.2940791     4358.579   -5465.8405    14889.191    3652.3865    8554.3263   -1408.9298    495.36144    79.179018 
   57500    270.75655   -116.97172   0.24498622   -116.72674    3929.2937    4.2968622    4.2968622    4.2968622    3929.2937   -8590.9702    12449.766    7929.0852    5754.9492   -1287.0892     1754.271    79.333074 
   57600    424.90106   -117.10837   0.38445941   -116.72391    71.305681    4.2979502    4.2979502    4.2979502    71.305681    632.34739    1740.5546   -2158.9849    957.16315     1172.585   -224.90915    79.393354 
   57700    461.12789   -117.14028    0.4172382   -116.72304   -6520.4262    4.2958416    4.2958416    4.2958416   -6520.4262   -6025.0724    -16562.85    3026.6437     965.8698    1786.7769   -1893.2356    79.276554 
   57800    310.22798   -117.00541    0.2807008   -116.72471   -5613.7944    4.2972572    4.2972572    4.2972572   -5613.7944    -13276.74    -10967.47    7402.8276    3939.0186    684.38811    -1002.546    79.354954 
   57900    311.29979   -117.00664   0.28167059   -116.72496    560.35545    4.2969804    4.2969804    4.2969804    560.35545   -8041.2504    15285.422   -5563.1055   -1115.5671   -3683.3951    2132.8905    79.339621 
   58000    331.25061   -117.02369   0.29972251   -116.72397    1179.9355    4.2966392    4.2966392    4.2966392    1179.9355   -4912.9806     11983.26   -3530.4731   -401.90517   -2068.5269    1453.4538    79.320723 
   58100    349.00334   -117.04032   0.31578556   -116.72453   -3591.9246    4.2945022    4.2945022    4.2945022   -3591.9246    -8986.147   -6875.9285    5086.3018    7532.3191    2229.3174   -491.86352    79.202428 
   58200     328.5118    -117.0225   0.29724438   -116.72526   -10051.422    4.3002781    4.3002781    4.3002781   -10051.422   -4007.8363   -18361.485   -7784.9436    5487.2666     356.1947   -2911.7066    79.522426 
   58300    346.40012   -117.03795   0.31343011   -116.72452    2951.7527    4.2927016    4.2927016    4.2927016    2951.7527    12877.756   -1539.4032   -2483.0949     -1509.19   -780.31647    577.67176    79.102845 
   58400    390.39965   -117.07741   0.35324181   -116.72417   -1456.5456    4.2967669    4.2967669    4.2967669   -1456.5456   -1201.6114    484.01265   -3652.0381   -2486.6471   -1162.9941    1011.3654    79.327797 
   58500    208.81106   -116.91484   0.18893663    -116.7259    3646.5723    4.2979236    4.2979236    4.2979236    3646.5723     2555.213    10312.617   -1928.1129    3647.8024    726.88409    120.38387    79.391878 
   58600    296.37369   -116.99383   0.26816514   -116.72567   -1581.8749    4.2943939    4.2943939    4.2943939   -1581.8749   -5297.4464    5712.0734   -5160.2518    4112.3737   -86.589661    327.51353    79.196435 
   58700    436.30146   -117.11897   0.39477473   -116.72419    -3353.372    4.2951022    4.2951022    4.2951022    -3353.372    3009.9682   -12389.632   -680.45216    2362.0508   -1904.8453    2178.0456    79.235626 
   58800    414.54529   -117.09934   0.37508929   -116.72425   -8268.9159    4.3012819    4.3012819    4.3012819   -8268.9159   -1598.5806   -18809.381   -4398.7863    1416.8528    -329.7476    740.39569     79.57813 
   58900    285.67685   -116.98363   0.25848642   -116.72515    233.74438     4.292272     4.292272     4.292272    233.74438   -3982.0832    4184.6963    498.61998    5781.1394   -2105.4186   -2677.0157    79.079097 
   59000    238.37542   -116.94189   0.21568709    -116.7262    3833.9154    4.2968604    4.2968604    4.2968604    3833.9154   -522.03052    10943.588    1080.1884   -3061.8498   -1580.8577    604.67866    79.332971 
   59100     404.8012   -117.09017   0.36627263   -116.72389    995.45422    4.2991701    4.2991701    4.2991701    995.45422   -3408.2059    10812.017   -4417.4485   -4096.5336    2028.0655    1676.7176    79.460972 
   59200    399.34327   -117.08566   0.36133418   -116.72433    89.492942    4.2935862    4.2935862    4.2935862    89.492942   -6330.7342    4261.8021    2337.4109    1684.0221    2492.4525    3018.9916     79.15176 
   59300    382.13739   -117.07116   0.34576594    -116.7254   -7604.4844    4.2969381    4.2969381    4.2969381   -7604.4844   -15260.528   -11876.972    4324.0469    6275.2219    -1784.677   -573.97602    79.337278 
   59400    459.97748   -117.14055   0.41619729   -116.72435   -5163.1984    4.2995666    4.2995666    4.2995666   -5163.1984   -5548.3702   -3922.8526   -6018.3723    3244.5679   -4112.1067   -2642.2583    79.482964 
   59500    423.53267   -117.10684   0.38322126   -116.72361    6543.3162    4.2935783    4.2935783    4.2935783    6543.3162   -2037.2934    21678.729    -11.48679   -5179.1108   -384.09925   -520.80687    79.151321 
   59600    332.72963   -117.02679   0.30106076   -116.72573    2698.2918    4.2953954    4.2953954    4.2953954    2698.2918   -9910.4954     17368.87      636.501    22.753508    1726.3418    1684.6594    79.251855 
   59700    315.42474   -117.01158   0.28540293   -116.72618   -2647.1418    4.3003365    4.3003365    4.3003365   -2647.1418    3912.4809   -483.49205   -11370.414    1898.6148    -400.5799    2964.4888    79.525666 
   59800    515.79012   -117.19025   0.46669774   -116.72356    4131.1703    4.2913467    4.2913467    4.2913467    4131.1703    11696.412    3182.8918   -2485.7934    147.04836    -1893.418   -1136.2824    79.027967 
   59900      514.487    -117.1896   0.46551865   -116.72408   -2547.8466    4.2979899    4.2979899    4.2979899   -2547.8466      1904.49   -1234.3133   -8313.7166    240.81734   -39.882841   -880.74832    79.395555 
   60000    381.91147   -117.07149   0.34556153   -116.72593   -3954.1481    4.2976387    4.2976387    4.2976387   -3954.1481   -3042.4299    2962.4209   -11782.435    4362.5473    108.86267   -1552.7882    79.376092 
   60100    384.76998   -117.07395   0.34814796    -116.7258    3221.4315    4.2936669    4.2936669    4.2936669    3221.4315   -5090.5904    25356.604   -10601.719    3876.1151   -1758.8266    1750.7278    79.156222 
   60200    488.85944   -117.16671    0.4423303   -116.72438     2811.843    4.2975989    4.2975989    4.2975989     2811.843    3676.5591    16579.721   -11820.751   -4143.3311    325.83582    1005.7487    79.373883 
   60300    438.05055   -117.12092   0.39635734   -116.72456   -3417.1163    4.2983025    4.2983025    4.2983025   -3417.1163    3742.1302     1946.261    -15939.74   -5211.1446   -1367.4397    312.74823    79.412878 
   60400    382.51748   -117.07134   0.34610986   -116.72523   -3339.5977    4.2932045    4.2932045    4.2932045   -3339.5977    3270.9362   -2019.2583   -11270.471    2528.1809   -2923.7599   -95.928132    79.130649 
   60500    485.63918    -117.1646   0.43941654   -116.72519   -4194.5152    4.2986297    4.2986297    4.2986297   -4194.5152     7.704558    571.76309   -13163.013    8376.1387   -794.29257   -1074.3738    79.431013 
   60600     520.6687   -117.19519   0.47111198   -116.72407   -3223.6493    4.2979842    4.2979842    4.2979842   -3223.6493   -5218.2727    10142.981   -14595.656   -453.02853    3426.3148    918.82533    79.395235 
   60700     356.1766   -117.04771   0.32227607   -116.72544    2890.7767    4.2915307    4.2915307    4.2915307    2890.7767   -6396.5769    24943.695    -9874.788   -1274.7566     1864.808    152.65178    79.038134 
   60800    382.01448   -117.07205   0.34565473   -116.72639   -3613.1351    4.3005002    4.3005002    4.3005002   -3613.1351     -125.884     6326.286   -17039.807   -1222.5305   -3599.6312    3309.5152    79.534752 
   60900    453.25643   -117.13444   0.41011594   -116.72432    4775.4702    4.2963071    4.2963071    4.2963071    4775.4702    20429.936    4888.6436   -10992.169    -1265.969   -39.682164    921.88065    79.302333 
   61000    520.80003   -117.19486   0.47123081   -116.72363      2897.15    4.2913922    4.2913922    4.2913922      2897.15    12846.597    5239.0485    -9394.196   -1418.5369    3305.1163   -1487.1921    79.030479 
   61100    406.43464   -117.09323    0.3677506   -116.72548   -5289.2571    4.3016241    4.3016241    4.3016241   -5289.2571    5232.0453    -4003.436   -17096.381    4913.1329    198.66733    -1609.816    79.597123 
   61200    452.99727   -117.13423   0.40988145   -116.72435   -1430.5568    4.2959432    4.2959432    4.2959432   -1430.5568   -5084.9318    10781.125   -9987.8632    5062.7193   -1917.9484   -1370.6232    79.282184 
   61300    434.68266   -117.11721   0.39331001    -116.7239    7452.1082    4.2933181    4.2933181    4.2933181    7452.1082     10967.71    19853.793   -8465.1779    -2231.127   -469.09321    3193.8169    79.136932 
   61400    365.14005   -117.05508   0.33038639    -116.7247    1788.2411    4.3005574    4.3005574    4.3005574    1788.2411    10754.176    11683.801   -17073.254   -8286.0636     2529.796    364.22002    79.537923 
   61500    317.31858   -117.01186   0.28711652   -116.72474    2879.1448    4.2948825    4.2948825    4.2948825    2879.1448    12397.757    5357.2426   -9117.5649   -1701.7063   -722.89078    381.98338     79.22347 
   61600    439.75354   -117.12212   0.39789824   -116.72422   -3215.7304    4.2962825    4.2962825    4.2962825   -3215.7304    9469.2174   -5224.9811   -13891.428    6171.7797    532.59445     -952.008    79.300968 
   61700    500.47882   -117.17667   0.45284375   -116.72383   -4589.9401    4.2981957    4.2981957    4.2981957   -4589.9401    699.62036    -4057.819   -10411.622    267.56536    1699.8853    532.62044    79.406956 
   61800    427.83635   -117.11181   0.38711532   -116.72469   -3584.7327    4.2944898    4.2944898    4.2944898   -3584.7327   -4245.9857    2513.3876   -9021.6001   -143.32999    543.63018    2133.3725     79.20174 
   61900    349.58186   -117.04217   0.31630902   -116.72586   -1530.5657    4.2968538    4.2968538    4.2968538   -1530.5657    10982.951    2065.6844   -17640.333     1921.632   -2094.4991   -759.34259    79.332607 
   62000    310.46332   -117.00679   0.28091374   -116.72588    5650.8016     4.297113     4.297113     4.297113    5650.8016     20821.49    8013.9182   -11883.004    887.48742   -2186.5269    529.41458    79.346963 
   62100    366.24011   -117.05639   0.33138175   -116.72501    7906.5919    4.2919758    4.2919758    4.2919758    7906.5919    15136.359    17855.422   -9272.0054   -6323.1039    2998.7493   -2168.3964    79.062728 
   62200    362.72865   -117.05302   0.32820451   -116.72481   -5975.4688    4.3002769    4.3002769    4.3002769   -5975.4688    5218.5399    773.29363    -23918.24   -2907.5437    427.39339   -620.28857    79.522361 
   62300    417.21398   -117.10181   0.37750397   -116.72431   -8125.1734    4.2946569    4.2946569    4.2946569   -8125.1734   -5966.6939    -6444.963   -11963.863    8908.1788   -759.88983    2188.5863    79.210988 
   62400    391.06761   -117.07853   0.35384619   -116.72468   -4981.6754    4.2965017    4.2965017    4.2965017   -4981.6754    5482.6222   -6668.7103   -13758.938    8830.9851    3380.6379    2018.4712    79.313105 
   62500    343.09881   -117.03518   0.31044302   -116.72474   -3447.8722    4.2980785    4.2980785    4.2980785   -3447.8722    9866.1516   -548.09788    -19661.67   -4970.7499    2206.4677    1521.1491     79.40046 
   62600    265.23419   -116.96499   0.23998947     -116.725    1524.9212      4.29389      4.29389      4.29389    1524.9212    15163.493    2565.9307    -13154.66   -5203.1353   -1726.1076   -2287.0579     79.16856 
   62700     338.9651   -117.03158   0.30670275   -116.72487   -3967.8296    4.2986643    4.2986643    4.2986643   -3967.8296    1504.6854     2968.172   -16376.346    1196.8731   -1869.9225   -692.33114    79.432929 
   62800    293.75312   -116.99048   0.26579399   -116.72468    2170.9705    4.2963016    4.2963016    4.2963016    2170.9705    4559.7812    14433.421   -12480.291    3137.0797    4685.0035   -670.31019    79.302026 
   62900    384.94289   -117.07207   0.34830442   -116.72377   -1550.3871    4.2925204    4.2925204    4.2925204   -1550.3871   -198.07446    3956.2351    -8409.322   -3126.6249    4099.2084    574.33297    79.092826 
   63000    296.41169   -116.99319   0.26819952   -116.72499   -2817.4355    4.3007004    4.3007004    4.3007004   -2817.4355    19310.962   -15400.779   -12362.489    2853.4256   -1181.6923    757.08547     79.54586 
   63100     319.9423    -117.0142   0.28949052   -116.72471    398.88078    4.2940617    4.2940617    4.2940617    398.88078    17160.067   -4440.2557   -11523.169    4243.8544    872.29052   -167.17207    79.178057 
   63200    287.74322   -116.98546   0.26035611    -116.7251    4827.0276    4.2915579    4.2915579    4.2915579    4827.0276    15059.782    2995.4257   -3574.1247   -180.32976     5410.686    481.09768    79.039636 
   63300     322.3351   -117.01631   0.29165558   -116.72465   -8128.1026    4.3026325    4.3026325    4.3026325   -8128.1026   -3914.1961   -7660.6677   -12809.444     -4736.46    2167.6518   -1600.7649    79.653115 
   63400    329.63409   -117.02272   0.29825985   -116.72446   -1726.7619    4.2910231    4.2910231    4.2910231   -1726.7619    2874.4104   -1377.0038   -6677.6924    3578.0938   -2174.1113    2220.5661    79.010092 
   63500    221.83223   -116.92659   0.20071846   -116.72587    760.36399    4.2957782    4.2957782    4.2957782    760.36399    8655.6139    1690.8313   -8065.3532     11291.89    182.45802    1056.3974    79.273045 
   63600    251.01722   -116.95213   0.22712565     -116.725   -2907.7993    4.2999665    4.2999665    4.2999665   -2907.7993    15105.431   -12478.452   -11350.377    43.962292    4317.9102    531.69407    79.505142 
   63700    308.95118   -117.00278   0.27954552   -116.72324   -645.90074    4.2931416    4.2931416    4.2931416   -645.90074    18513.852   -12201.738   -8249.8162    -1163.377    2336.9006   -1603.4468    79.127171 
   63800    347.26674   -117.03816   0.31421424   -116.72394   -4335.1838      4.29616      4.29616      4.29616   -4335.1838    4225.4296   -9731.2343   -7499.7468    2076.4023   -774.39078   -1894.6512    79.294184 
   63900      306.521    -117.0021   0.27734664   -116.72475   -4634.5284    4.2985022    4.2985022    4.2985022   -4634.5284    3255.7301   -4963.8304   -12195.485    2150.3047    4264.8034    1744.9356    79.423947 
   64000    299.44457   -116.99543   0.27094374   -116.72449    1303.1768    4.2926934    4.2926934    4.2926934    1303.1768    11616.031    106.29618    -7812.797   -756.72403    4344.0971    230.09152    79.102392 
   64100    267.27567   -116.96715   0.24183664   -116.72531    1946.7816    4.2966367    4.2966367    4.2966367    1946.7816    28598.935    -13495.48   -9263.1098    1529.2259   -1588.7602    3287.9564    79.320584 
   64200    233.96596   -116.93761   0.21169731   -116.72592    1803.3744    4.2955092    4.2955092    4.2955092    1803.3744    9222.2376    4964.8812   -8776.9958    6273.9673    1047.6683    748.04623    79.258154 
   64300    290.63171   -116.98825   0.26296968   -116.72528   -4485.7807    4.2942703    4.2942703    4.2942703   -4485.7807    3508.1739   -7931.8653   -9033.6507    3177.4924    3766.9372   -2069.4819    79.189596 
   64400    379.50851   -117.06772   0.34338727   -116.72433   -9466.3937    4.2968453    4.2968453    4.2968453   -9466.3937   -4682.3861   -14707.601   -9009.1939   -4806.7821    4096.9983    -55.25559    79.332135 
   64500    349.06647   -117.04074   0.31584267    -116.7249   -4373.3585    4.2947898    4.2947898    4.2947898   -4373.3585    3252.6938    -12073.94   -4298.8291   -1263.6922   -232.02775    609.77193    79.218341 
   64600    236.54881   -116.94017   0.21403433   -116.72613   -1784.4898    4.2958889    4.2958889    4.2958889   -1784.4898    10579.292   -8733.9008   -7198.8602    7668.0696    3690.1787    3560.3369    79.279175 
   64700     224.4079   -116.92928   0.20304899   -116.72623    1064.7626    4.2952157    4.2952157    4.2952157    1064.7626    20542.571   -8414.1248   -8934.1583    3670.3558    6784.3045    -2080.076    79.241909 
   64800    373.87992   -117.06286   0.33829441   -116.72457   -2230.9619    4.2971339    4.2971339    4.2971339   -2230.9619    6951.7981   -10759.077   -2885.6065    480.11554   -1010.7496   -1971.8771    79.348122 
   64900    332.12453    -117.0249   0.30051325   -116.72438    878.86956     4.295728     4.295728     4.295728    878.86956     4642.086    479.27448   -2484.7518    1367.9854   -590.66641    930.81623    79.270265 
   65000    366.38938   -117.05634   0.33151681   -116.72482    -6504.203    4.2946905    4.2946905    4.2946905    -6504.203    -502.3992   -13290.691   -5719.5191    3770.2974    3673.2452    1764.0245    79.212846 
   65100    307.36587    -117.0034    0.2781111   -116.72529   -1815.4876    4.2990876    4.2990876    4.2990876   -1815.4876    8570.9171   -12997.102   -1020.2779   -3842.5681    4453.7604     1011.179    79.456402 
   65200    386.69165   -117.07328   0.34988673   -116.72339    2160.3352    4.2959595    4.2959595    4.2959595    2160.3352    22624.912   -10642.402   -5501.5049    1591.1784   -1432.9189   -2363.5747    79.283084 
   65300    265.88217   -116.96543   0.24057577   -116.72485    6238.5386    4.2922854    4.2922854    4.2922854    6238.5386    17056.751   -1967.4332    3626.2984    5893.4072   -660.48962    703.80809     79.07984 
   65400    273.28183   -116.97288   0.24727114   -116.72561   -5434.0987    4.3002143    4.3002143    4.3002143   -5434.0987   -2981.2812   -9728.3339   -3592.6809    6869.0885    7931.3021    -215.8796    79.518889 
   65500    429.89763   -117.11276   0.38898041   -116.72378   -3587.9065    4.2951827    4.2951827    4.2951827   -3587.9065    745.74771   -7379.6543    -4129.813   -2771.6147    4827.0697   -442.14281    79.240086 
   65600     399.2709   -117.08558    0.3612687   -116.72431    5257.1698    4.2911907    4.2911907    4.2911907    5257.1698    5757.2759    3264.5105     6749.723   -5283.0548   -3319.6599    405.50502    79.019347 
   65700    325.69818   -117.02079   0.29469856   -116.72609   -5832.4817    4.3003873    4.3003873    4.3003873   -5832.4817    14403.003   -25648.643    -6251.805    5026.7269   -1735.5894   -41.980358    79.528488 
   65800    302.61089   -117.00032   0.27380869   -116.72651   -990.75159    4.2939949    4.2939949    4.2939949   -990.75159    14938.092   -13998.016   -3912.3303     3566.703    6593.6189    1237.1455     79.17436 
   65900     442.7497   -117.12565   0.40060924   -116.72504    3153.5914    4.2928106    4.2928106    4.2928106    3153.5914    14006.296   -3450.8356    -1094.686    3135.4544    4613.4207   -374.10847    79.108869 
   66000     449.0994   -117.13085   0.40635457   -116.72449    -4879.712     4.300892     4.300892     4.300892    -4879.712   -517.11227   -6077.2968    -8044.727    327.97769   -2406.2276     179.5083    79.556489 
   66100    338.67032   -117.03184   0.30643602   -116.72541    -2852.298    4.2923432    4.2923432    4.2923432    -2852.298   -3763.7436   -5338.3542    545.20396     4952.738       2121.9   -1283.1687    79.083032 
   66200    350.88878   -117.04321   0.31749154   -116.72572   -2373.1718    4.2975575    4.2975575    4.2975575   -2373.1718    11524.736   -8903.0141    -9741.237    -2842.476     5815.164   -1978.1339    79.371592 
   66300    443.11458   -117.12473   0.40093938   -116.72379    1799.9943    4.2985024    4.2985024    4.2985024    1799.9943    16760.079   -4477.3196   -6882.7769   -2944.0737    572.13336    791.45241    79.423957 
   66400    413.03088   -117.09821   0.37371902   -116.72449    783.53982    4.2924838    4.2924838    4.2924838    783.53982    13419.798   -12353.475    1284.2968     4685.425   -4067.4225    1766.1169    79.090803 
   66500    412.09542   -117.09821    0.3728726   -116.72534   -7667.8761    4.2982785    4.2982785    4.2982785   -7667.8761   -4422.5078   -9747.7115    -8833.409    5710.7201    2927.9569    29.761932    79.411546 
   66600    493.74504   -117.17118   0.44675089   -116.72443   -3621.5971    4.2984135    4.2984135    4.2984135   -3621.5971    425.70945   -5379.4085   -5911.0923     2295.532    2846.0998    -4119.741     79.41903 
   66700    504.70207   -117.18026   0.45666504    -116.7236    7862.6662    4.2907262    4.2907262    4.2907262    7862.6662      10345.9    10210.359     3031.739    -3335.001    1171.0596   -505.45961     78.99369 
   66800    361.08178   -117.05281   0.32671438   -116.72609    2047.9116    4.2984959    4.2984959    4.2984959    2047.9116    17652.899   -4840.4331   -6668.7316    2202.5359     48.37982    4551.7949    79.423598 
   66900    386.50002   -117.07644   0.34971334   -116.72673    441.84251    4.2951737    4.2951737    4.2951737    441.84251    8411.3069    -9831.694    2745.9146    1992.3215    1363.7676    416.83497    79.239584 
   67000    509.52497   -117.18601    0.4610289   -116.72498    3186.5938    4.2931955    4.2931955    4.2931955    3186.5938    6660.8149    1207.7144    1691.2521    1433.0867    1906.5372   -4725.2781    79.130149 
   67100    628.10672   -117.29226   0.56832416   -116.72394   -7840.8182    4.2983094    4.2983094    4.2983094   -7840.8182   -8190.3298   -10872.918   -4459.2064    1842.0284    -1797.866   -3207.9467    79.413259 
   67200    388.11347   -117.07771   0.35117322   -116.72654    2100.0001    4.2930967    4.2930967    4.2930967    2100.0001   -1167.7667    -3945.215    11412.982    9803.7422    2369.7055    1950.7636    79.124687 
   67300    460.40945   -117.14254   0.41658815   -116.72595   -3772.6996    4.2975155    4.2975155    4.2975155   -3772.6996    2573.4028   -6816.5574   -7074.9442    470.93337    2035.1182     2978.997    79.369262 
   67400    449.90965   -117.13228   0.40708771    -116.7252    8698.9103    4.2958409    4.2958409    4.2958409    8698.9103    16185.092    12145.454   -2233.8145   -5069.9955    739.54098   -899.37483    79.276517 
   67500    513.17889    -117.1897   0.46433505   -116.72536    5368.6037    4.2931487    4.2931487    4.2931487    5368.6037    11746.682    2439.5402    1919.5892    878.39332   -990.30496   -2473.0758    79.127565 
   67600    496.29446    -117.1746   0.44905766   -116.72554   -5171.6456    4.2984589    4.2984589    4.2984589   -5171.6456   -5731.6736   -3459.4805   -6323.7828    6200.4592    2230.3367   -3219.6292    79.421548 
   67700    536.29164   -117.20971   0.48524795   -116.72446   -2627.7813    4.2962545    4.2962545    4.2962545   -2627.7813   -5806.6714     2876.115   -4952.7876    2625.0565     4509.608   -510.67355    79.299416 
   67800    625.40701   -117.28953    0.5658814   -116.72365    1751.2416    4.2934087    4.2934087    4.2934087    1751.2416    9968.5471    875.95133   -5590.7735     -1916.27   -4404.9455    2585.4968    79.141941 
   67900    437.68034   -117.12133   0.39602237    -116.7253     3708.114    4.2979601    4.2979601    4.2979601     3708.114    12224.053    5375.6954   -6475.4066     2853.915     486.2036      2518.85    79.393902 
   68000      436.704   -117.12083   0.39513896    -116.7257   -396.91205    4.2940918    4.2940918    4.2940918   -396.91205     3633.435    1728.4959   -6552.6671    1223.4828    5100.1285   -4031.2523    79.179719 
   68100    508.39965    -117.1855   0.46001069   -116.72548    544.52057    4.2949771    4.2949771    4.2949771    544.52057    1120.1933     8284.876   -7771.5075    -350.9025    1465.9368   -7493.8149    79.228708 
   68200    591.62981   -117.25932   0.53531908     -116.724   -2766.1014    4.2972811    4.2972811    4.2972811   -2766.1014   -2209.9426    3421.7138   -9510.0753   -737.40171   -4478.1253    1661.3838    79.356276 
   68300    519.88383   -117.19577   0.47040181   -116.72537   -2200.8063    4.2917747    4.2917747    4.2917747   -2200.8063   -6529.8706    1160.3713   -1232.9197    8757.5274   -1553.1574    4909.6047    79.051616 
   68400    473.16217   -117.15425   0.42812708   -116.72612   -3063.1187    4.2969848    4.2969848    4.2969848   -3063.1187    1524.4827   -4996.1477   -5717.6912    4799.9299    5209.0824   -1237.0222    79.339863 
   68500    490.37418   -117.16922   0.44370086   -116.72552    4302.6287    4.2968918    4.2968918    4.2968918    4302.6287     21401.33    1907.9685   -10401.413   -3498.0734   -1511.0068   -6224.6909    79.334713 
   68600    555.46977   -117.22747   0.50260072   -116.72487    7104.7652    4.2904208    4.2904208    4.2904208    7104.7652     9242.573    12972.878    -901.1551    -648.0282   -4558.9234    -2064.339    78.976823 
   68700    466.66945   -117.14799   0.42225233   -116.72574   -36.951532    4.2985723    4.2985723    4.2985723   -36.951532   -208.76178     1554.173   -1456.2658    2300.2376    128.04912     2260.083     79.42783 
   68800    529.57902   -117.20412   0.47917423   -116.72494   -1270.5247    4.2955062    4.2955062    4.2955062   -1270.5247   -4525.6198    7837.5809   -7123.5352    2341.7973    4762.4509   -488.54017    79.257992 
   68900    543.94857   -117.21728    0.4921761   -116.72511    4130.5071    4.2918379    4.2918379    4.2918379    4130.5071    11519.512    3495.2831   -2623.2738    -116.2043   -1373.5095   -321.17466    79.055107 
   69000    470.47263   -117.15119   0.42569352   -116.72549    2950.1855    4.2979236    4.2979236    4.2979236    2950.1855    8110.3877    5414.8037   -4674.6348    2079.2018    -5935.286   -664.37539    79.391878 
   69100    475.31208   -117.15507   0.43007236   -116.72499   -1093.6492    4.2959524    4.2959524    4.2959524   -1093.6492     2941.526    212.27945   -6434.7529    3211.6643    257.79806   -885.28077     79.28269 
   69200    458.94739   -117.14014   0.41526524   -116.72488    3152.0616    4.2922268    4.2922268    4.2922268    3152.0616    9745.1022    3189.2252   -3478.1426   -1868.4986    2902.7794   -3523.5813      79.0766 
   69300    532.77852   -117.20658    0.4820692   -116.72451   -1944.2477      4.29724      4.29724      4.29724   -1944.2477   -5453.2107    11955.525   -12335.058   -1530.4453   -1224.7973   -60.148439    79.353999 
   69400    481.37662   -117.16093   0.43555968   -116.72537    7.6143723    4.2939843    4.2939843    4.2939843    7.6143723   -2756.3977    8495.5755   -5716.3347    4226.5969   -5296.4951    2995.7905    79.173774 
   69500    425.31911   -117.11091   0.38483767   -116.72607     1298.251    4.2928166    4.2928166    4.2928166     1298.251    9484.4566   -979.46989   -4610.2337    4720.0362    1040.7251   -3305.1909    79.109201 
   69600    468.52962   -117.14917   0.42393545   -116.72523    -3959.306    4.2987648    4.2987648    4.2987648    -3959.306     13763.08   -8700.0519   -16940.946   -859.29296   -143.75231    -3990.404    79.438503 
   69700    432.99275   -117.11664   0.39178094   -116.72486    5156.2936    4.2911217    4.2911217    4.2911217    5156.2936    6437.2978    16487.207   -7455.6236   -3518.7637   -5125.5552    -451.2311    79.015535 
   69800    445.72599   -117.12818   0.40330224   -116.72488   -2468.2804    4.2949339    4.2949339    4.2949339   -2468.2804    1626.1951   -595.94992   -8435.0862    2653.3227   -2351.1152    3542.3639    79.226316 
   69900    419.14101   -117.10417   0.37924759   -116.72493   -5721.5721    4.2986747    4.2986747    4.2986747   -5721.5721   -1069.3253   -4735.6487   -11359.742    3209.0822    1464.1376   -705.64686    79.433509 
   70000    409.45028   -117.09485   0.37047922   -116.72437    1161.8965    4.2923801    4.2923801    4.2923801    1161.8965    701.21284    9929.9917   -7145.5151   -913.09312   -2373.9217   -4746.0563    79.085075 
   70100    409.12329   -117.09461   0.37018335   -116.72442    29.475617    4.2942356    4.2942356    4.2942356    29.475617     7719.446    1029.8792   -8660.8984    778.35091   -6959.1383    1233.6148    79.187677 
   70200    328.54385     -117.023   0.29727338   -116.72573   -1878.3504    4.2983053    4.2983053    4.2983053   -1878.3504    8314.9093    -10496.59   -3453.3702    917.08169    562.55721    1611.2334    79.413034 
   70300    409.78844   -117.09569   0.37078519    -116.7249   -660.94476    4.2923199    4.2923199    4.2923199   -660.94476    7451.0715   -5925.1411   -3508.7647    60.143806    2258.7753    530.24935    79.081747 
   70400     327.3717   -117.02186   0.29621279   -116.72564    4621.5138    4.2946149    4.2946149    4.2946149    4621.5138    4742.6996     13300.79   -4178.9479   -4526.6827    -3528.692    -1345.599    79.208664 
   70500    347.99044   -117.04064   0.31486906   -116.72577    -3956.947    4.2980846    4.2980846    4.2980846    -3956.947   -5859.5008   -2451.0891   -3560.2511    2713.5964    -5127.452    1217.6779    79.400802 
   70600    371.02169   -117.06049   0.33570822   -116.72478   -1165.7364    4.2916554    4.2916554    4.2916554   -1165.7364    3932.0884   -9248.6594    1819.3619    5042.7654   -737.45877   -643.14736    79.045023 
   70700    280.07392   -116.97905   0.25341677   -116.72563    4380.7145    4.2957585    4.2957585    4.2957585    4380.7145     14702.91    -697.9606   -862.80566    354.06369    3322.3824   -4294.4407    79.271959 
   70800     327.4886   -117.02176   0.29631857   -116.72544   -4387.7342    4.2962892    4.2962892    4.2962892   -4387.7342    3045.3923    -6244.186   -9964.4087   -1830.7368   -5790.1398    476.78159    79.301342 
   70900    237.02926   -116.94037   0.21446905   -116.72591     608.5794    4.2922781    4.2922781    4.2922781     608.5794    7237.5861   -5350.8507   -60.997219    -2411.708   -6031.3867    2565.6996    79.079432 
   71000    326.37148   -117.02013   0.29530777   -116.72482   -5323.9314    4.2979229    4.2979229    4.2979229   -5323.9314    815.43436   -5931.6026   -10855.626    3460.0558    1711.8605    3098.8197    79.391841 
   71100    256.86694   -116.95728    0.2324186   -116.72486   -2316.4155    4.2942788    4.2942788    4.2942788   -2316.4155   -1478.8443     4403.166   -9873.5684   -3333.1879   -1318.1461   -3169.5293    79.190067 
   71200    251.89331   -116.95297   0.22791836   -116.72506   -7853.9133    4.2934524    4.2934524    4.2934524   -7853.9133    -2435.932   -13181.847   -7943.9609   -1008.1969   -6528.0261   -2913.7508    79.144357 
   71300    304.52747         -117   0.27554285   -116.72445   -8877.7025    4.2989692    4.2989692    4.2989692   -8877.7025     3911.386    -18298.54   -12245.953    2633.6408   -3376.5709    2664.7588    79.449836 
   71400    254.25045   -116.95404   0.23005115   -116.72399    880.93621    4.2945051    4.2945051    4.2945051    880.93621    12171.891   -4411.3946   -5117.6881   -914.27589    2056.3022   -201.23191    79.202589 
   71500    224.17022   -116.92731   0.20283393   -116.72447   -914.11966     4.291859     4.291859     4.291859   -914.11966    7492.2807   -3331.1762   -6903.4635   -3216.5614   -3781.9829    125.17743    79.056272 
   71600    164.01887   -116.87413   0.14840772   -116.72572   -4459.4605    4.3002735    4.3002735    4.3002735   -4459.4605   -364.36045   -4371.6052   -8642.4157   -4988.4323   -6707.5791    823.14656    79.522171 
   71700    315.98267   -117.01007   0.28590776   -116.72416    2007.8798    4.2921962    4.2921962    4.2921962    2007.8798    3385.3255    2743.1147   -104.80097    4544.5962    1090.6641    2129.7648     79.07491 
   71800    311.68633   -117.00649   0.28202035   -116.72447   -680.65011    4.2940084    4.2940084    4.2940084   -680.65011    5484.6616   -5497.0558   -2029.5561      2479.79    991.05477     -1848.06    79.175107 
   71900    228.75917   -116.93269    0.2069861    -116.7257   -8527.6531    4.2997201    4.2997201    4.2997201   -8527.6531    578.82991    -22380.53   -3781.2595   -615.27351   -4069.1951   -2170.1437    79.491474 
   72000    271.05236   -116.97038   0.24525387   -116.72512     431.9068    4.2928524    4.2928524    4.2928524     431.9068    3750.8297   -3036.2265    581.11719   -3061.9269   -5130.9518    2481.0746    79.111184 
   72100    258.75287   -116.95916   0.23412503   -116.72503    9086.8767    4.2934266    4.2934266    4.2934266    9086.8767    16971.756    9475.0752    813.79958   -2161.7968    784.10449    2458.8939    79.142933 
   72200    218.05506   -116.92294    0.1973008   -116.72564   -4608.6378     4.300521     4.300521     4.300521   -4608.6378   -2769.5084   -4185.5239   -6870.8811   -2349.6903   -327.06854    -821.5981    79.535904 
   72300    224.32153   -116.92812   0.20297084   -116.72515   -1669.2969     4.291312     4.291312     4.291312   -1669.2969   -3259.2997     2210.151    -3958.742   -4232.4654   -8025.5105   -3616.7151    79.026052 
   72400    350.69728   -117.04216   0.31731827   -116.72484   -2157.2544    4.2965953    4.2965953    4.2965953   -2157.2544   -1966.8414    618.70928   -5123.6312    3423.4764    -2515.987    1218.6477    79.318293 
   72500    440.29979   -117.12219    0.3983925    -116.7238   -8881.4006    4.2980086    4.2980086    4.2980086   -8881.4006    351.07459   -15641.271   -11354.005    1047.0917    2852.4811    3257.2904    79.396588 
   72600    302.49308   -116.99902    0.2737021   -116.72532   -3857.3567    4.2918317    4.2918317    4.2918317   -3857.3567   -656.21905   -2218.6148   -8697.2364   -1604.8872   -4355.3236   -645.44335    79.054766 
   72700    241.05962   -116.94524   0.21811581   -116.72713    1495.5952    4.2978254    4.2978254    4.2978254    1495.5952    1605.1587    15495.778   -12614.151   -5751.1138   -6438.0516    -1350.406    79.386434 
   72800    360.10622   -117.05072   0.32583167   -116.72488    3220.1875    4.2966245    4.2966245    4.2966245    3220.1875     10803.71    11242.011   -12385.158   -246.08235   -1138.7073    386.92029     79.31991 
   72900    397.31344   -117.08364   0.35949755   -116.72414     2298.848    4.2907986    4.2907986    4.2907986     2298.848    10313.308    3098.0699   -6514.8335    623.88901    2481.0784    2595.9968    78.997689 
   73000    399.25551   -117.08734   0.36125477   -116.72608   -8545.8166    4.2998209    4.2998209    4.2998209   -8545.8166   -2342.0505   -5985.7193    -17309.68   -3478.5826    -6149.998    465.92207    79.497065 
   73100    413.14774   -117.09912   0.37382476    -116.7253   -2323.2773    4.2950639    4.2950639    4.2950639   -2323.2773   -7110.6034    3364.8643   -3224.0927   -562.57356   -4926.3138    866.20419     79.23351 
   73200    499.46428   -117.17595   0.45192578   -116.72402   -244.86929    4.2919522    4.2919522    4.2919522   -244.86929    4035.6151    4751.2442   -9521.4671    2006.2866    3110.0183    1984.0433    79.061425 
   73300    454.26439   -117.13619   0.41102796   -116.72516   -3886.0045     4.300931     4.300931     4.300931   -3886.0045   -2050.9139    4381.4105    -13988.51    1071.4221    -1474.194    439.58947    79.558655 
   73400    298.78063   -116.99648   0.27034299   -116.72614    8515.8653    4.2940445    4.2940445    4.2940445    8515.8653   -241.05143    26181.513   -392.86529   -7078.1202   -6590.5188     415.5158    79.177105 
   73500    450.31735   -117.13274    0.4074566   -116.72528     3813.655    4.2925181    4.2925181    4.2925181     3813.655    7100.6957    12986.097   -8645.8274   -5235.6795   -2632.6514    2555.7404    79.092703 
   73600    529.07522   -117.20296   0.47871837   -116.72424   -166.10351    4.2995309    4.2995309    4.2995309   -166.10351    5443.2977   -167.15781   -5774.4505   -820.25868    4134.5485     1857.688    79.480983 
   73700    543.06183   -117.21561   0.49137375   -116.72424   -1225.8531    4.2954324    4.2954324    4.2954324   -1225.8531   -4866.9598    7272.8731   -6083.4728    2319.6199    -3141.212   -838.10881    79.253903 
   73800    494.25025   -117.17209   0.44720801   -116.72488    949.00683     4.292312     4.292312     4.292312    949.00683    -1881.378    11407.817   -6679.4183     1081.228   -8651.0345   -2897.1273     79.08131 
   73900     468.4965   -117.14872   0.42390547   -116.72481    1485.3863    4.2988412    4.2988412    4.2988412    1485.3863    -499.0433    13986.938   -9031.7358    -2253.816    170.40612     1941.062    79.442741 
   74000    576.76931    -117.2458   0.52187299   -116.72393     1033.268    4.2941214    4.2941214    4.2941214     1033.268     2735.753    15001.349   -14637.298   -1741.1079    4301.9816    4736.0132    79.181357 
   74100    423.14497   -117.10901   0.38287046   -116.72614    5857.3343    4.2943012    4.2943012    4.2943012    5857.3343    10458.951    18366.291   -11253.239   -3930.3558   -4749.7482    848.05128    79.191307 
   74200    482.09687   -117.16217   0.43621138   -116.72596   -3936.6371    4.2969676    4.2969676    4.2969676   -3936.6371   -4693.1489    5569.4898   -12686.252    71.555048   -7749.6243   -979.96993     79.33891 
   74300    528.95115   -117.20371   0.47860611    -116.7251   -790.71519    4.2928093    4.2928093    4.2928093   -790.71519   -1286.5999    6810.8935   -7896.4391    778.24062    5040.0709    831.60265    79.108797 
   74400     580.1327   -117.24995   0.52491626   -116.72503   -3439.4423    4.2963027    4.2963027    4.2963027   -3439.4423   -4983.4126    6157.1123   -11492.027   -2218.4214    3404.3925     2826.367    79.302085 
   74500    515.57302   -117.19233    0.4665013   -116.72583   -1485.2109    4.2959389    4.2959389    4.2959389   -1485.2109   -12977.903    11432.426   -2910.1557   -368.08484   -6456.1593   -292.46084    79.281944 
   74600    421.76964    -117.1079   0.38162603   -116.72628    6442.5897    4.2913754    4.2913754    4.2913754    6442.5897   -5522.6958    23906.617    943.84751    -1325.631   -5052.9711    -462.4153    79.029552 
   74700    510.66858   -117.18754   0.46206367   -116.72548   -48.400133    4.2974373    4.2974373    4.2974373   -48.400133    4946.6764    8322.9498   -13414.827    1909.2029    4157.2749       2501.4    79.364931 
   74800    489.43289   -117.16733   0.44284917   -116.72448    4571.4212    4.2962473    4.2962473    4.2962473    4571.4212    2897.5574    5635.1875    5181.5187   -2920.2056    1086.1094    1522.8707    79.299021 
   74900      517.757   -117.19302   0.46847741   -116.72454     5298.967     4.290541     4.290541     4.290541     5298.967    4980.7435    10389.516    526.64146   -3496.2999   -6196.4015    2221.5135    78.983462 
   75000    435.16534   -117.11938   0.39374675   -116.72564    132.97802    4.2969195    4.2969195    4.2969195    132.97802   -4640.4426    8774.0908   -3734.7141    1591.3922   -791.27823   -538.30442    79.336247 
   75100    457.57111   -117.13934   0.41401996   -116.72532   -3156.9994    4.2968665    4.2968665    4.2968665   -3156.9994   -8883.1421    1764.8055   -2352.6617    1381.7628    5317.5893   -1359.2364     79.33331 
   75200    501.20559   -117.17806   0.45350135   -116.72456   -1041.2168    4.2930721    4.2930721    4.2930721   -1041.2168   -3807.1963    6151.2251   -5467.6791      1164.71    70.548723    -1026.317    79.123329 
   75300    391.29223   -117.07906   0.35404944   -116.72501    3489.7939    4.2945855    4.2945855    4.2945855    3489.7939   -4980.3603    17173.462     -1723.72   -6734.2641   -9158.8575   -1603.7374    79.207034 
   75400    414.43571   -117.10085   0.37499014   -116.72586   -9656.6505    4.2974251    4.2974251    4.2974251   -9656.6505     -8752.41   -8001.7688   -12215.773   -1378.3187    3072.8435     5654.269    79.364256 
   75500    384.84386   -117.07381   0.34821481    -116.7256   -2076.3193    4.2928118    4.2928118    4.2928118   -2076.3193    4626.7485   -6715.0237   -4140.6827    1280.1147    7147.5757    2239.6442    79.108939 
   75600    463.46685   -117.14396   0.41935454   -116.72461    1015.9284    4.2960036    4.2960036    4.2960036    1015.9284    -2695.769    5403.6486    339.90553    250.07879   -2161.3856   -906.83406    79.285528 
   75700     379.0849   -117.06893   0.34300398   -116.72593    3381.1404    4.2935313    4.2935313    4.2935313    3381.1404    -8307.114      7086.98    11363.555    1012.1695   -1882.7237   -4943.1196     79.14872 
   75800    342.30575   -117.03595   0.30972543   -116.72622   -2566.3923    4.2940484    4.2940484    4.2940484   -2566.3923   -5170.5587    394.61597   -2923.2342    -2186.007    4108.0093    155.19193     79.17732 
   75900    401.54065   -117.08866   0.36332242   -116.72534    -1090.874    4.2980249    4.2980249    4.2980249    -1090.874   -6211.3338   -6138.5645    9077.2764    2207.5042    4170.5898    5106.4113    79.397494 
   76000    447.76884   -117.12899   0.40515066   -116.72384    7838.4987    4.2911495    4.2911495    4.2911495    7838.4987    904.18002     12834.11    9777.2064   -3026.5689   -5054.6217   -73.640206    79.017073 
   76100     393.4709    -117.0806   0.35602074   -116.72458   -2058.2758    4.2936734    4.2936734    4.2936734   -2058.2758   -2225.6501   -6421.2206    2472.0433    -2839.444   -2908.6568    938.85009    79.156581 
   76200    284.90721   -116.98399   0.25779003    -116.7262   -7781.0777    4.2998574    4.2998574    4.2998574   -7781.0777   -5367.5936   -18379.213    403.57306    1965.9583    5829.7232   -2174.0638    79.499092 
   76300    386.35048   -117.07447   0.34957803   -116.72489    4043.2019    4.2904984    4.2904984    4.2904984    4043.2019    4933.2735    3497.4347    3698.8975   -352.42734    4232.2646     3663.816    78.981109 
   76400    392.27069    -117.0793   0.35493477   -116.72436     5110.286    4.2930353    4.2930353    4.2930353     5110.286   -1746.5895      8450.69    8626.7576     1746.429   -3432.2304   -163.92081    79.121294 
   76500    332.39257   -117.02646   0.30075579    -116.7257   -10018.637    4.2996389    4.2996389    4.2996389   -10018.637   -12491.487   -12941.561   -4622.8644   -2547.7095    1013.2483   -2520.0219    79.486972 
   76600    330.56985   -117.02449   0.29910655   -116.72538   -4488.8636    4.2919714    4.2919714    4.2919714   -4488.8636   -3788.9777    -9291.776   -385.83715    2521.2653    8856.2566    2279.5832    79.062486 
   76700    429.39692   -117.11347   0.38852735   -116.72494    3201.4694    4.2941584    4.2941584    4.2941584    3201.4694   -1233.8866    13972.029   -3133.7343    200.75783   -331.56124    1612.0665    79.183406 
   76800    473.97439    -117.1541   0.42886199   -116.72524   -3067.4236    4.2958272    4.2958272    4.2958272   -3067.4236    -6097.501   -12256.178    9151.4083   -5630.2914   -2656.3843    3335.8164    79.275757 
   76900    332.77121   -117.02718   0.30109838   -116.72608   -2872.6256    4.2922439    4.2922439    4.2922439   -2872.6256   -5540.5074   -3123.5139    46.144321    238.07052    5709.7418   -1918.4948    79.077543 
   77000    311.58958   -117.00906    0.2819328   -116.72712    1439.4591    4.2967432    4.2967432    4.2967432    1439.4591   -1639.4496    4244.3105    1713.5163    239.73766    5628.9928    790.38643    79.326481 
   77100    440.27951   -117.12289   0.39837416   -116.72452    5642.0911    4.2928377    4.2928377    4.2928377    5642.0911    3672.4496    1858.6709    11395.153    3772.8195   -919.21456   -1410.9668    79.110367 
   77200    445.06684   -117.12708   0.40270583   -116.72437   -507.66726    4.2917693    4.2917693    4.2917693   -507.66726    1165.5202   -6435.1284    3746.6064   -3395.1716   -2087.9695   -775.96038    79.051318 
   77300    377.38146   -117.06777   0.34146267    -116.7263   -8752.9798    4.2989958    4.2989958    4.2989958   -8752.9798   -7792.3512   -15472.401   -2994.1868   -2803.9262    5627.3138    2018.8429    79.451309 
   77400    369.20027   -117.05971   0.33406016   -116.72565    1787.1481    4.2927308    4.2927308    4.2927308    1787.1481    6450.7119    6581.8533   -7671.1209     3188.056    4714.7132    5026.8617    79.104457 
   77500    491.83187   -117.16913   0.44501981   -116.72411    2815.4157    4.2904429    4.2904429    4.2904429    2815.4157    5422.3685   -3769.5309    6793.4096   -3584.4815   -3930.0496    3607.8431    78.978043 
   77600    450.18305   -117.13241   0.40733508   -116.72508   -4525.8608    4.2985428    4.2985428    4.2985428   -4525.8608   -5439.9852   -2753.2977   -5384.2995   -614.21251   -961.23179   -4428.5407    79.426199 
   77700    353.25052   -117.04594    0.3196285   -116.72631    621.96524    4.2936899    4.2936899    4.2936899    621.96524     2303.287    5132.2617   -5569.6529   -647.25573    6522.1283    64.159993    79.157491 
   77800    412.87276   -117.09986   0.37357595   -116.72629    3920.7417    4.2915724    4.2915724    4.2915724    3920.7417    4525.0512     13489.33    -6252.156    3917.6185    6489.5741    5211.7633    79.040439 
   77900    485.56449   -117.16435   0.43934895     -116.725    621.29499    4.2959418    4.2959418    4.2959418    621.29499    5698.0903   -3993.2499    159.04461    1413.0788   -1750.2047    1469.4681    79.282104 
   78000    489.20852   -117.16714   0.44264615    -116.7245   -5148.5157    4.2947668    4.2947668    4.2947668   -5148.5157   -3852.9425   -2268.1004   -9324.5043   -7695.6911    1598.4776    -369.9006    79.217065 
   78100    345.77517   -117.03949   0.31286464   -116.72662    589.53468    4.2933457    4.2933457    4.2933457    589.53468   -3449.5733    15986.537    -10768.36    196.69277    4357.0173   -1226.7374    79.138458 
   78200    408.70871   -117.09587   0.36980823   -116.72607    -91.50015    4.2940443    4.2940443    4.2940443    -91.50015     1288.994   -3098.7494    1535.2549   -967.43694     874.6055     3197.786    79.177094 
   78300    458.34212   -117.14005   0.41471758   -116.72533    165.41383    4.2926319    4.2926319    4.2926319    165.41383    2469.8971     4367.119   -6340.7746   -916.34304    1491.4057    2074.8967    79.098992 
   78400    422.36828   -117.10796    0.3821677   -116.72579   -4612.6142    4.2965131    4.2965131    4.2965131   -4612.6142   -11792.552    2481.2987   -4526.5894     29.25419     2050.941   -2857.6004    79.313738 
   78500    388.43881   -117.07721    0.3514676   -116.72574   -3002.0694    4.2938884    4.2938884    4.2938884   -3002.0694   -1736.9821    6307.3518   -13576.578   -1046.3192    3850.9861    1552.9356    79.168471 
   78600    365.80049   -117.05689   0.33098397    -116.7259    3915.5226     4.291386     4.291386     4.291386    3915.5226    13547.386    3394.4722   -5195.2908    1732.8213   -2021.8868    3312.6085    79.030136 
   78700    477.88962   -117.15727   0.43240457   -116.72486   -4613.0008    4.2963328    4.2963328    4.2963328   -4613.0008   -5650.3206    3664.0648   -11852.747   -6669.3158    845.42439    2928.8448    79.303754 
   78800    334.94611   -117.02914   0.30306628   -116.72607    2180.6265    4.2945742    4.2945742    4.2945742    2180.6265    1063.6628    15258.364   -9780.1477   -1515.9201    5366.1088   -1139.9057    79.206412 
   78900    341.12491   -117.03478   0.30865699   -116.72612    1856.7783    4.2917621    4.2917621    4.2917621    1856.7783    1812.1631    10681.467    -6923.295    1065.1558    2882.8058    2294.0452    79.050917 
   79000    327.38749   -117.02208   0.29622709   -116.72585    1731.8483    4.2938258    4.2938258    4.2938258    1731.8483    5531.2166     8451.899   -8787.5709   -570.86719   -2126.8633    1684.6988    79.165008 
   79100    388.77802   -117.07686   0.35177453   -116.72508    -7935.787    4.2969312    4.2969312    4.2969312    -7935.787   -10829.536   -2958.1584   -10019.666     93.16843   -933.99422   -2496.4514    79.336894 
   79200    394.37758   -117.08183   0.35684112   -116.72499   -4083.7412    4.2927746    4.2927746    4.2927746   -4083.7412   -12254.389      9745.64   -9742.4741    -3677.145     7379.717    3627.2834    79.106878 
   79300    275.62189   -116.97516   0.24938848   -116.72578    2096.8996    4.2943164    4.2943164    4.2943164    2096.8996    2889.4982    5774.8008   -2373.6002    4123.8462    2806.2566    813.29182    79.192146 
   79400    343.80243   -117.03611   0.31107966   -116.72503   -5325.5788    4.2944233    4.2944233    4.2944233   -5325.5788    -5275.361     2794.098   -13495.473   -4912.2092    -1474.653    1833.5002    79.198063 
   79500    271.03165   -116.97042   0.24523513   -116.72518   -2608.7391    4.2955841    4.2955841    4.2955841   -2608.7391   -13008.957    7594.7981   -2412.0585   -7766.8809   -1033.5634   -3006.9349    79.262299 
   79600    370.64759   -117.06022   0.33536973   -116.72485   -95.726013    4.2928998    4.2928998    4.2928998   -95.726013   -7060.6661    5327.9803    1445.5078    1295.7983    2338.9298    91.112639    79.113799 
   79700    271.00193   -116.97116   0.24520824   -116.72595    2697.9485    4.2939431    4.2939431    4.2939431    2697.9485    7428.1843    11155.095   -10489.434    548.79172    2099.5484    5891.7537    79.171496 
   79800    316.95941   -117.01218   0.28679154   -116.72539    -5990.935    4.2948191    4.2948191    4.2948191    -5990.935   -13023.192   -979.69165   -3969.9212    264.39793   -411.16984   -69.672858    79.219963 
   79900    371.35227   -117.06045   0.33600734   -116.72444    -7311.163    4.2967415    4.2967415    4.2967415    -7311.163   -14074.638    2386.8536   -10245.704   -5837.6114    3001.6499    134.05932     79.32639 
   80000    316.18156   -117.01055   0.28608772   -116.72447    8209.9557     4.291127     4.291127     4.291127    8209.9557     8971.558    17013.661   -1355.3518   -364.24746    2519.6979    212.23472    79.015828 
   80100     339.8309   -117.03258   0.30748614   -116.72509   -3576.3982    4.2952128    4.2952128    4.2952128   -3576.3982   -5646.8367    6998.8319    -12081.19    456.62419   -1305.7285    4135.5118    79.241748 
   80200    223.51237   -116.92884   0.20223869    -116.7266   -2702.2554    4.2955306    4.2955306    4.2955306   -2702.2554   -2878.0646   -3684.6626   -1544.0391   -6226.6008   -2520.4019   -1359.2985    79.259338 
   80300    393.16661   -117.08133   0.35574541   -116.72559   -2733.5041    4.2946912    4.2946912    4.2946912   -2733.5041   -8159.0504    211.92723   -253.38919   -1319.1744    3596.3493   -3528.1777    79.212883 
   80400    371.38968   -117.06093   0.33604119   -116.72489    6243.0384    4.2922755    4.2922755    4.2922755    6243.0384    2599.0813    11959.672    4170.3623    534.58014    2883.3983    3130.3049    79.079292 
   80500     380.1618   -117.06937   0.34397839   -116.72539   -8232.8957    4.2963522    4.2963522    4.2963522   -8232.8957   -10764.894   -8086.8163   -5846.9772    1701.5977   -2545.5444    1192.8183    79.304829 
   80600    332.68586   -117.02676   0.30102116   -116.72574   -5064.9837    4.2951992    4.2951992    4.2951992   -5064.9837   -11783.882   -288.14931   -3122.9193   -6521.4374    -1276.178    868.32856    79.240994 
   80700    395.70187   -117.08347   0.35803936   -116.72543    5534.7065    4.2932907    4.2932907    4.2932907    5534.7065   -2140.4245    7646.3144     11098.23   -6606.6839    4086.1399   -2202.3888    79.135414 
   80800    462.17211   -117.14253   0.41818303   -116.72434    1182.7082    4.2950716    4.2950716    4.2950716    1182.7082    330.71401    8254.8493   -5037.4387    2128.1126    4424.0513    1263.2768    79.233935 
   80900    319.83655   -117.01502   0.28939483   -116.72562   -2021.1306    4.2951919    4.2951919    4.2951919   -2021.1306   -851.09709   -8631.9943    3419.6995   -5634.0462   -2753.4166    3280.8458    79.240595 
   81000    414.19752   -117.10076   0.37477462   -116.72599   -5572.1546    4.2950782    4.2950782    4.2950782   -5572.1546   -7544.0509   -14330.189    5157.7764    -3064.185   -4810.9439   -1579.8811      79.2343 
   81100    443.70755   -117.12675   0.40147591   -116.72528    5277.9303    4.2939306    4.2939306    4.2939306    5277.9303    4806.8629    9340.2293    1686.6986    594.91272    749.34807      513.515    79.170805 
   81200    520.07919   -117.19552   0.47057858   -116.72494    -2943.079    4.2943955    4.2943955    4.2943955    -2943.079   -8359.7737    2062.1532   -2531.6167    1167.1728    5474.8806    2142.5425    79.196522 
   81300    430.18271   -117.11509   0.38923835   -116.72585   -6303.9184    4.2966118    4.2966118    4.2966118   -6303.9184   -5417.1116   -7718.8401   -5775.8035   -3486.7068     1485.017    1632.6314    79.319203 
   81400    409.18976   -117.09606   0.37024349   -116.72582     2370.547    4.2948049    4.2948049    4.2948049     2370.547    4359.6159    2930.2283   -178.20332   -8526.3038   -978.10877   -2169.5462    79.219176 
   81500    555.74073   -117.22712   0.50284589   -116.72427    4084.0547    4.2925964    4.2925964    4.2925964    4084.0547    3502.0512    9088.7533   -338.64031    2258.2129   -940.60709   -1959.2589    79.097029 
   81600    482.20685    -117.1614   0.43631089   -116.72509    1886.1769    4.2966404    4.2966404    4.2966404    1886.1769    9081.9491   -8837.2916    5413.8731   -903.39465   -922.04226    1045.1161    79.320786 
   81700    449.87788   -117.13343   0.40705896   -116.72637    -973.8457    4.2955811    4.2955811    4.2955811    -973.8457    1141.0662   -4274.0563    211.45301   -2699.9812    706.58341   -178.08914    79.262136 
   81800    437.19998   -117.12167   0.39558773   -116.72608    6188.9137    4.2929991    4.2929991    4.2929991    6188.9137    144.10617    7399.8011    11022.834   -3577.2983    993.75335    2096.7829    79.119294 
   81900    586.38433    -117.2547   0.53057287   -116.72413    59.189346    4.2952514    4.2952514    4.2952514    59.189346    -5027.512    1421.7782    3783.3018    1092.4615    270.27374    499.90818    79.243884 
   82000    542.12568   -117.21508    0.4905267   -116.72456   -4224.4633    4.2963593    4.2963593    4.2963593   -4224.4633    643.08393   -6592.0954   -6724.3786   -168.93055   -702.28507   -20.770285    79.305221 
   82100    448.46966   -117.13166   0.40578477   -116.72588    -563.5059    4.2930604    4.2930604    4.2930604    -563.5059    3698.9957   -11812.455    6422.9417   -11558.062    1669.6891    -718.9513    79.122679 
   82200    481.93746   -117.16166   0.43606714    -116.7256    -2317.072    4.2967162    4.2967162    4.2967162    -2317.072    2807.9835   -6566.9789   -3192.2206    343.42244    3279.9225   -1105.0738    79.324987 
   82300    515.83717   -117.19124   0.46674031    -116.7245    1836.7151    4.2945756    4.2945756    4.2945756    1836.7151    8271.4702   -1517.2563   -1244.0685    3302.9931    -71.95745     4810.912    79.206489 
   82400    509.70795   -117.18572   0.46119447   -116.72452   -1249.7539    4.2950969    4.2950969    4.2950969   -1249.7539    849.10817   -4079.4565   -518.91332   -901.94198    -4372.149     936.1474    79.235332 
   82500    401.37088   -117.08902    0.3631688   -116.72585    2520.4279    4.2958896    4.2958896    4.2958896    2520.4279   -162.56333    7167.2517    556.59527   -4048.2089   -2224.4227   -911.13499    79.279215 
   82600    486.17984    -117.1655   0.43990574   -116.72559   -343.70795     4.293898     4.293898     4.293898   -343.70795    -5296.017    6696.7822    -2431.889    -2027.163    6054.2475   -309.91276    79.169001 
   82700    542.98533   -117.21604   0.49130453   -116.72474    351.10776    4.2949077    4.2949077    4.2949077    351.10776    6670.8679   -1982.2101   -3635.3345    2758.4421    5473.3695    1997.4693    79.224866 
   82800    475.90323   -117.15576   0.43060725   -116.72515    347.04736    4.2982858    4.2982858    4.2982858    347.04736    5539.5647    -577.1123   -3921.3103   -4546.5167   -969.12944    393.19403    79.411951 
   82900    422.36295   -117.10733   0.38216287   -116.72517     2995.191    4.2917854    4.2917854    4.2917854     2995.191    5797.3999    8896.6312    -5708.458   -1102.8559   -2055.4889   -4716.5348    79.052208 
   83000     392.2321   -117.08026   0.35489985   -116.72536    1060.6443    4.2958049    4.2958049    4.2958049    1060.6443    4157.6787    665.53718   -1641.2829    4524.2723    358.62758    29.448758    79.274526 
   83100    505.53056    -117.1815   0.45741468   -116.72409   -3546.3669    4.2976856    4.2976856    4.2976856   -3546.3669   -6695.1645   -1214.1895   -2729.7466    3030.3754    2131.2548    1072.9888    79.378691 
   83200    438.09237   -117.12115   0.39639519   -116.72476    2051.0308    4.2914613    4.2914613    4.2914613    2051.0308    -2045.537    5843.8722    2354.7572   -8657.6942    243.19375     4498.472    79.034298 
   83300     399.4186   -117.08714   0.36140234   -116.72574   -4720.9932    4.2956518    4.2956518    4.2956518   -4720.9932   -5628.2057   -9754.7805    1220.0067   -3622.6742    659.23274   -386.97424    79.266047 
   83400    376.48425   -117.06629   0.34065086   -116.72564   -3535.8005    4.2979236    4.2979236    4.2979236   -3535.8005    487.14136   -2118.5376   -8976.0053    7422.1078    1907.7215   -2620.4708    79.391878 
   83500    435.88648   -117.11852   0.39439925   -116.72412    5427.9617    4.2910682    4.2910682    4.2910682    5427.9617    5688.8305    10859.392    -264.3371    1277.5925    1092.2899    2022.2368    79.012581 
   83600    393.65734   -117.08113   0.35618944   -116.72494    2088.9254    4.2964648    4.2964648    4.2964648    2088.9254      5907.46    7876.5588   -7517.2425   -3772.7935    1778.5052   -1974.0382    79.311064 
   83700    325.36642   -117.02055   0.29439837   -116.72615   -1110.9202    4.2954056    4.2954056    4.2954056   -1110.9202   -2429.8476    9138.0141   -10040.927    747.92641    2026.8917    2133.1213    79.252419 
   83800    415.31672    -117.1009    0.3757873   -116.72511   -3172.9186    4.2933179    4.2933179    4.2933179   -3172.9186    -7229.269    4939.6681   -7229.1549    6041.0152    759.79607   -1539.3849    79.136921 
   83900    433.20096   -117.11643   0.39196934   -116.72447    628.21885    4.2969285    4.2969285    4.2969285    628.21885   -3405.1092    7988.3077   -2698.5419   -819.50295   -1650.2714   -119.40364    79.336744 
   84000    433.65678   -117.11684   0.39238177   -116.72446    -2520.083     4.294002     4.294002     4.294002    -2520.083   -302.52393    63.919769   -7321.6449   -6435.5041     688.0802    536.68705    79.174755 
   84100     245.2399   -116.94849   0.22189822   -116.72659    625.95738    4.2931706    4.2931706    4.2931706    625.95738     4229.912     7080.881   -9432.9208    3705.5738    5896.3202   -2574.0667    79.128774 
   84200    330.85895   -117.02623   0.29936814   -116.72687   -4881.5552    4.2993952    4.2993952    4.2993952   -4881.5552   -14120.675    4263.1397   -4787.1307    9691.1138     2117.715    3431.3318    79.473454 
   84300    406.61736   -117.09209   0.36791593   -116.72417    4570.0144    4.2915069    4.2915069    4.2915069    4570.0144   -3598.1075    14328.646    2979.5054    775.43339   -1477.3202   -3451.6714    79.036819 
   84400    403.72663   -117.08979   0.36530034   -116.72449   -1688.3556    4.2936189    4.2936189    4.2936189   -1688.3556   -5737.4011    8360.2325    -7687.898   -3640.0245   -179.43361   -793.15533    79.153566 
   84500    333.16589   -117.02747    0.3014555   -116.72602   -8865.5029    4.2988496    4.2988496    4.2988496   -8865.5029   -20839.982    -951.2807   -4805.2459    3778.5915    2029.5761   -355.10627    79.443202 
   84600    343.84124   -117.03677   0.31111478   -116.72565     2942.282    4.2917005    4.2917005    4.2917005     2942.282   -11961.965    12384.896    8403.9151    5706.2834    1935.8129    384.54092    79.047515 
   84700    477.15511   -117.15607   0.43173997   -116.72433    2274.8646    4.2936213    4.2936213    4.2936213    2274.8646    3016.5584    8896.9221   -5088.8866   -1474.8464    -831.2725    5478.1848      79.1537 
   84800    305.92102   -117.00258   0.27680377   -116.72577    4055.7553    4.2967527    4.2967527    4.2967527    4055.7553    -3001.576    18523.421   -3354.5787    3090.1979    2023.0908   -3325.4593    79.327007 
   84900    307.80869   -117.00473   0.27851177   -116.72622   -3706.7517    4.2940601    4.2940601    4.2940601   -3706.7517   -18003.789    9913.5764   -3030.0423     8894.479     3450.119   -493.41722    79.177968 
   85000    370.12788   -117.06084   0.33489948   -116.72594    225.01453    4.2940575    4.2940575    4.2940575    225.01453   -9958.7331    11002.667   -368.89025     2146.813   -163.75405   -2062.3981    79.177824 
   85100    500.00171   -117.17675   0.45241205   -116.72434   -1291.7732     4.295467     4.295467     4.295467   -1291.7732   -8578.4761     11376.35   -6673.1933   -4560.2847   -399.89792    251.41834    79.255817 
   85200    399.67117    -117.0873   0.36163087   -116.72567   -3567.4546    4.2928335    4.2928335    4.2928335   -3567.4546   -10909.459    1471.4248   -1264.3293    862.13931    3489.8364    2777.7587    79.110136 
   85300    241.83476   -116.94647   0.21881718   -116.72765   -5220.7094    4.2978198    4.2978198    4.2978198   -5220.7094   -19607.595    7991.0646   -4045.5981    9844.5486       2001.6    -2149.038    79.386125 
   85400    388.93145   -117.07771   0.35191335    -116.7258      3935.23     4.292374     4.292374     4.292374      3935.23   -5928.6516    15979.796    1754.5456    2490.3804   -3393.6609    2481.6366    79.084737 
   85500     424.2983   -117.10811   0.38391402    -116.7242    7801.1743     4.292963     4.292963     4.292963    7801.1743    2296.4605    17173.823    3933.2396   -839.01274    -1472.993     -1319.71    79.117295 
   85600     342.7099   -117.03598   0.31009112   -116.72589   -6138.0197     4.298775     4.298775     4.298775   -6138.0197   -21155.154    9491.7392   -6750.6447    4279.9125    3481.2691   -716.37846     79.43907 
   85700    309.14917   -117.00552   0.27972466    -116.7258   -3941.3126    4.2926285    4.2926285    4.2926285   -3941.3126   -21724.862   -691.00302    10591.927    9457.1064    1860.6496   -1198.0871    79.098804 
   85800     425.4266   -117.10949   0.38493493   -116.72456    3872.3977    4.2924622    4.2924622    4.2924622    3872.3977   -8288.4524    18642.764    1262.8818    -39.60337   -935.83611   -1337.3449    79.089609 
   85900    463.95536   -117.14354   0.41979656   -116.72374   -5581.2519     4.299203     4.299203     4.299203   -5581.2519   -12955.033     3179.701   -6968.4237   -1555.8503   -126.96014    3460.9765    79.462797 
   86000    245.09414   -116.94756   0.22176633   -116.72579   -2239.4223    4.2920449    4.2920449    4.2920449   -2239.4223   -18198.544    3361.1316    8119.1454    9715.3224    2825.0356    111.76619    79.066545 
   86100    273.47025   -116.97423   0.24744163   -116.72678   -1527.1762    4.2946258    4.2946258    4.2946258   -1527.1762   -13251.259    9675.3156   -1005.5852    6578.0254    -846.2409    1558.6905    79.209264 
   86200    403.06409   -117.08924   0.36470086   -116.72454    1182.8012    4.2962563    4.2962563    4.2962563    1182.8012   -1505.5774    7970.2218   -2916.2409    596.94962   -4363.6607    488.14787    79.299516 
   86300    370.03017   -117.05914   0.33481108   -116.72433   -2926.1021    4.2932954    4.2932954    4.2932954   -2926.1021   -7046.9342   -4248.9701    2517.5979    1234.9559    1603.8271   -1094.0603    79.135678 
   86400    306.96474   -117.00369   0.27774815   -116.72594   -6669.4365    4.2955146    4.2955146    4.2955146   -6669.4365    -19050.97   -478.81213   -478.52695    6022.0207    3417.8242   -19.183214    79.258454 
   86500    261.94221    -116.9634   0.23701082   -116.72639    3560.7466    4.2953426    4.2953426    4.2953426    3560.7466   -13269.744    26152.786   -2200.8022    964.24996   -1782.6772     -533.352    79.248936 
   86600    443.96306   -117.12643   0.40170711   -116.72472    254.22976    4.2915865    4.2915865    4.2915865    254.22976   -928.65497    1176.8357    514.50856   -1559.5375   -2635.9403     2828.123    79.041213 
   86700    348.62412   -117.04087   0.31544243   -116.72543   -6274.8017    4.2992305    4.2992305    4.2992305   -6274.8017   -10450.662   -5608.6487   -2765.0948    4443.7892    2491.7045   -16.463556    79.464323 
   86800    255.57774   -116.95734   0.23125211   -116.72609    2273.7178    4.2922589    4.2922589    4.2922589    2273.7178    -3657.974    8206.6689    2272.4585    5921.2028    2479.1909    98.322681    79.078375 
   86900    295.81842    -116.9933   0.26766272   -116.72564    2627.9949    4.2926387    4.2926387    4.2926387    2627.9949    1411.2752    2175.7127    4296.9967    104.15055   -3425.4842    108.92052    79.099367 
   87000    361.03905   -117.05092   0.32667572   -116.72424   -5240.1259    4.2994841    4.2994841    4.2994841   -5240.1259   -2505.5496   -11576.027   -1638.8006   -3736.7054   -3871.0099   -694.93582    79.478387 
   87100      350.131   -117.04163   0.31680588   -116.72483   -1192.0301    4.2916074    4.2916074    4.2916074   -1192.0301   -9324.3542   -886.17485    6634.4387    8197.0851    1034.8189    466.36053    79.042371 
   87200    276.83878   -116.97669   0.25048955    -116.7262   -947.65792    4.2937104    4.2937104    4.2937104   -947.65792   -11358.042    1083.4126     7431.656    6373.0386    2183.7822    -933.6056    79.158625 
   87300    365.73874   -117.05606    0.3309281   -116.72514   -8427.0487    4.2989976    4.2989976    4.2989976   -8427.0487   -5803.2393   -10893.125   -8584.7824   -2391.1298    748.21669    2425.9433    79.451412 
   87400    394.71053    -117.0809   0.35714238   -116.72375   -1054.9837    4.2920485    4.2920485    4.2920485   -1054.9837    1929.8132   -7809.2308    2714.4664    734.58223    23.996203    1067.1638    79.066748 
   87500    300.78473   -116.99755   0.27215634    -116.7254    5868.6547    4.2937811    4.2937811    4.2937811    5868.6547    1028.8034    14354.609    2222.5512    4238.4034    965.34924   -513.04694    79.162534 
   87600    304.12021    -117.0016   0.27517436   -116.72642   -5046.6487    4.2987089    4.2987089    4.2987089   -5046.6487   -4698.3675   -2807.5374   -7634.0411    1638.9879   -3160.6265    -1048.094    79.435406 
   87700    371.66222   -117.06153   0.33628779   -116.72524   -761.89653     4.290759     4.290759     4.290759   -761.89653    3646.9465   -8859.9202    2927.2841   -4186.2532   -5538.9448    728.50711    78.995501 
   87800    447.57414   -117.12973   0.40497448   -116.72476   -3011.2582     4.298206     4.298206     4.298206   -3011.2582   -7132.7564   -3873.6105    1972.5923    3241.3559    1361.1991    2949.4276     79.40753 
   87900    400.87922   -117.08753   0.36272394    -116.7248   -1084.5134    4.2954384    4.2954384    4.2954384   -1084.5134   -6532.2864    178.37007     3100.376    6559.8888    1319.7403   -974.77754    79.254235 
   88000    294.79254   -116.99229   0.26673448   -116.72555   -2371.7621    4.2933786    4.2933786    4.2933786   -2371.7621   -4670.0878   -2873.5806    428.38216   -2407.8052   -948.85554    2856.9454    79.140275 
   88100    418.59657   -117.10405   0.37875498    -116.7253   -3430.8879    4.2973584    4.2973584    4.2973584   -3430.8879   -808.55597   -7681.0714   -1803.0362   -7335.8741   -1307.9914   -1655.6745    79.360559 
   88200     434.9648   -117.11816   0.39356529   -116.72459    2759.9983    4.2958467    4.2958467    4.2958467    2759.9983    5546.0196     2236.372    497.60344    2574.4878    1531.0317    699.07212     79.27684 
   88300    447.66778   -117.13002   0.40505922   -116.72496    1456.5639    4.2908547    4.2908547    4.2908547    1456.5639    6533.2803   -9796.1613    7632.5728    8530.8059    1824.9697   -429.10615    79.000787 
   88400    384.54139   -117.07398   0.34794113   -116.72604   -4927.3083     4.300349     4.300349     4.300349   -4927.3083   -5861.3892    -7175.984   -1744.5517   -2721.4484   -4764.8305    -159.2096     79.52636 
   88500    431.37028   -117.11506    0.3903129   -116.72475    5118.9779    4.2934617    4.2934617    4.2934617    5118.9779   -2176.1389    10173.388    7359.6845   -4187.7047   -3426.4229    3245.2496    79.144874 
   88600    520.13681   -117.19429   0.47063071   -116.72366    5572.2798    4.2917223    4.2917223    4.2917223    5572.2798   -1715.2303    8571.6734    9860.3964    2330.9393   -669.29218   -2211.2795    79.048719 
   88700    448.28209   -117.13088   0.40561505   -116.72526    -2761.551    4.2989898    4.2989898    4.2989898    -2761.551   -9276.3341    2027.8996   -1036.2185    3700.6154    4302.2239    3180.1241    79.450978 
   88800    432.42821   -117.11768   0.39127013   -116.72641     -4965.84    4.2935763    4.2935763    4.2935763     -4965.84   -4299.2363   -4315.8405   -6282.4434    -5293.732    130.61655   -1160.0453    79.151208 
   88900    488.25704   -117.16795   0.44178523   -116.72617    1096.8588    4.2930427    4.2930427    4.2930427    1096.8588    4359.1774     1739.108    -2807.709   -6377.6701    -3053.919    -228.6239      79.1217 
   89000    557.36967   -117.22903   0.50431979   -116.72471   -3713.1738    4.3001027    4.3001027    4.3001027   -3713.1738   -617.14511   -8195.9101   -2326.4661    4588.1104   -1462.5841   -482.35755    79.512695 
   89100    438.45258   -117.12193    0.3967211   -116.72521    2832.7632        4.292        4.292        4.292    2832.7632   -1.3009067    8230.7954    268.79513    4196.2697   -4741.3019    137.63852    79.064067 
   89200    363.64201   -117.05579   0.32903093   -116.72676    614.63541    4.2966236    4.2966236    4.2966236    614.63541   -9170.5299    9356.9804    1657.4558   -2801.9935   -1110.5448    7067.0783    79.319858 
   89300    511.99721    -117.1882   0.46326584   -116.72493    1752.9447    4.2971166    4.2971166    4.2971166    1752.9447   -4208.9882    3764.0052     5703.817   -3091.8406   -947.51226    349.55533    79.347164 
   89400    606.09994   -117.27166   0.54841196   -116.72325    2951.9842     4.293463     4.293463     4.293463    2951.9842   -1018.1661    1738.3138    8135.8049   -604.91078    1577.8657    236.45599    79.144943 
   89500    497.34975   -117.17535    0.4500125   -116.72533   -3003.4436    4.2970131    4.2970131    4.2970131   -3003.4436   -7436.0874    1982.3095   -3556.5528   -2941.0393    835.21866    -2844.891    79.341432 
   89600    450.22575   -117.13317   0.40737372    -116.7258   -4428.4876    4.2976658    4.2976658    4.2976658   -4428.4876   -3929.8585    2123.7713   -11479.375   -4397.8191    176.24031    1210.6159    79.377595 
   89700    503.15817   -117.18071   0.45526809   -116.72544    8091.8145    4.2918765    4.2918765    4.2918765    8091.8145    4382.8823    11186.398    8706.1634    1483.2717   -166.56888    2091.6422     79.05724 
   89800    507.45742   -117.18383   0.45915814   -116.72468    4081.7992    4.2977443    4.2977443    4.2977443    4081.7992    -1422.385    12332.359    1335.4232    2379.5656   -5077.5598   -219.55119    79.381941 
   89900    327.45525   -117.02256   0.29628839   -116.72628   -255.30935     4.297683     4.297683     4.297683   -255.30935   -8992.8537    9788.7925   -1561.8669   -3975.2384   -2504.8856    2491.9807    79.378544 
   90000    388.59052   -117.07716   0.35160487   -116.72555     1189.568     4.291298     4.291298     4.291298     1189.568   -6883.8703    1008.2708    9444.3035   -7521.3086   -2183.7724    991.87021    79.025277 
   90100    574.84369   -117.24315   0.52013065   -116.72302   -4175.6993    4.2988375    4.2988375    4.2988375   -4175.6993   -6955.8587   -5765.9704    194.73115    293.48697    2128.7882    1649.3394    79.442532 
   90200    534.18836   -117.20732   0.48334486   -116.72398    -6778.508    4.2965079    4.2965079    4.2965079    -6778.508   -10450.673    3145.8847   -13030.735   -1087.0099     538.5907   -1884.1438    79.313451 
   90300    370.80024   -117.06178   0.33550785   -116.72627   -3727.3495    4.2922179    4.2922179    4.2922179   -3727.3495   -10625.866    2146.7968   -2702.9796   -8167.6324   -1908.8813   -1608.3466    79.076106 
   90400    315.72578   -117.01296   0.28567532   -116.72729    3127.1736    4.2989055    4.2989055    4.2989055    3127.1736   -7417.1826    5826.5916    10972.112   -3016.7317    156.66636    3994.2035    79.446302 
   90500    471.81576   -117.15148   0.42690881   -116.72458    5571.2499    4.2942265    4.2942265    4.2942265    5571.2499    3018.1349    9982.8215    3712.7931    4329.5208   -3424.8318    1252.7648    79.187175 
   90600    386.45753   -117.07551    0.3496749   -116.72584    2680.9694    4.2945441    4.2945441    4.2945441    2680.9694   -820.28113    4476.4304    4386.7589    767.66969   -3606.0156    2410.9918    79.204746 
   90700    282.25092   -116.98267   0.25538657   -116.72728   -1205.5996    4.2976105    4.2976105    4.2976105   -1205.5996   -5438.1854    3726.0006   -1904.6141   -6456.7417     -2349.17   -1317.3834    79.374528 
   90800    434.77072    -117.1186   0.39338968   -116.72521   -3253.4877    4.2931026    4.2931026    4.2931026   -3253.4877    -4098.348    3019.9527   -8682.0678   -3739.3316    5242.5925    1436.8601    79.125015 
   90900      516.545   -117.19116   0.46738077   -116.72378   -6526.9963    4.2982659    4.2982659    4.2982659   -6526.9963   -10074.845    126.89042   -9633.0344   -30.741434    2494.7666    233.11533     79.41085 
   91000    355.16932   -117.04643   0.32136467   -116.72506    265.49357     4.295454     4.295454     4.295454    265.49357   -7139.3093     5572.494     2363.296   -2812.8877   -718.14349   -1853.8053    79.255101 
   91100    239.49003   -116.94324   0.21669561   -116.72655     1632.507    4.2936786    4.2936786    4.2936786     1632.507   -10448.737    5998.1435    9348.1149   -4671.5476   -3973.3638     3592.081    79.156866 
   91200     297.3663   -116.99507   0.26906328     -116.726    1188.1189    4.2969847    4.2969847    4.2969847    1188.1189   -3814.5678   -1229.4472    8608.3717    940.29115   -2198.7294    950.10365    79.339858 
   91300    451.09387   -117.13181   0.40815922   -116.72365   -2152.0009    4.2968176    4.2968176    4.2968176   -2152.0009    1058.6491   -1465.5561   -6049.0957    2945.0607     325.0123    4285.7667    79.330605 
   91400    316.97801   -117.01152   0.28680837   -116.72471    1499.7152    4.2937292    4.2937292    4.2937292    1499.7152   -4522.3845    456.60854    8564.9214   -6508.4466   -1684.2189   -1264.8092    79.159666 
   91500     337.4421   -117.03023    0.3053247    -116.7249   -8521.7462     4.296349     4.296349     4.296349   -8521.7462   -13484.704   -8065.3824    -4015.152   -4663.7208    700.23101   -1287.5629    79.304652 
   91600    389.90487   -117.07747   0.35279412   -116.72468   -5981.7695    4.2972418    4.2972418    4.2972418   -5981.7695   -14324.159   -2266.1034   -1355.0463    1648.2845    1671.2486    1275.4335    79.354102 
   91700    422.96581   -117.10682   0.38270835   -116.72411    1895.5337    4.2938344    4.2938344    4.2938344    1895.5337   -10440.684   -306.71943    16434.005   -1471.8186    325.85164   -1651.3123    79.165487 
   91800     288.9851   -116.98714   0.26147979   -116.72566    1070.5942     4.295705     4.295705     4.295705    1070.5942   -10501.353    2957.3829    10755.752   -4916.9324   -3681.2189    5492.7189    79.268992 
   91900    248.80399   -116.95169   0.22512308   -116.72657   -1514.9871    4.2958083    4.2958083    4.2958083   -1514.9871   -5453.9733    5138.5997   -4229.5879   -832.24165   -2531.1023     1173.964    79.274716 
   92000     427.1517   -117.11126   0.38649584   -116.72477    434.98973    4.2954114    4.2954114    4.2954114    434.98973     659.8648   -767.46114    1412.5655    5453.3658    13.575834    56.036567    79.252739 
   92100    423.74803   -117.10811   0.38341612   -116.72469    5040.8956     4.294436     4.294436     4.294436    5040.8956    3715.7607    1178.3449    10228.581    -1328.385    1670.5991   -1962.7066    79.198766 
   92200    363.30476   -117.05462   0.32872578    -116.7259    -2973.726    4.2945521    4.2945521    4.2945521    -2973.726   -15987.884    3154.1041    3912.6014   -5613.6417    3231.6458   -627.87452    79.205187 
   92300    314.20903   -117.01028   0.28430293   -116.72598    -3880.352    4.2977625    4.2977625    4.2977625    -3880.352   -19489.506   -6950.7195    14799.169   -1892.2335    171.18905    4512.1455     79.38295 
   92400    447.05846   -117.12857   0.40450789   -116.72407     206.4884    4.2949191    4.2949191    4.2949191     206.4884   -7773.8627   -3514.7106    11908.039    2977.1342   -3194.9676   -2240.2769    79.225495 
   92500    393.45265    -117.0803   0.35600422    -116.7243    4239.9985    4.2935381    4.2935381    4.2935381    4239.9985   -2533.7367    2882.8916    12370.841   -652.53237   -4480.0351   -714.32243    79.149097 
   92600    320.30382   -117.01568   0.28981762   -116.72586   -5131.5848    4.2974791    4.2974791    4.2974791   -5131.5848   -7962.9254   -7446.7642    14.935203   -3629.6212    -1105.828    262.55604    79.367247 
   92700    323.15584   -117.01822   0.29239819   -116.72582   -3055.3241    4.2954076    4.2954076    4.2954076   -3055.3241   -5622.4938   -4320.7752    777.29679    5145.9034     5836.709       2135.2    79.252531 
   92800     450.2591   -117.13166   0.40740389   -116.72426    58.492233    4.2945773    4.2945773    4.2945773    58.492233   -8469.6111   -3520.8153    12165.903    1879.0351    3014.1668    1851.2678    79.206582 
   92900    456.15924   -117.13668   0.41274247   -116.72394   -2525.9685    4.2965937    4.2965937    4.2965937   -2525.9685   -17882.085   -4861.0266    15165.206   -4650.4428   -1707.1498   -4075.3521    79.318204 
   93000    363.26683   -117.05416   0.32869146   -116.72547   -2521.3204    4.2948375    4.2948375    4.2948375   -2521.3204   -14587.508   -7046.1213    14069.668   -2024.0591   -2887.5005    1050.9027    79.220981 
   93100    381.41795   -117.07078   0.34511497   -116.72566     282.5907    4.2955674    4.2955674    4.2955674     282.5907   -9725.1301   -685.25369    11258.156    2993.4767    543.06956   -182.40392    79.261378 
   93200    457.42774   -117.13806   0.41389024   -116.72417    2596.5921    4.2961708    4.2961708    4.2961708    2596.5921    2223.9455   -4652.0511    10217.882    2095.4098    1219.1023    607.87029    79.294781 
   93300    459.45174   -117.14044   0.41572159   -116.72472    3559.5217    4.2922779    4.2922779    4.2922779    3559.5217   -835.68802   -432.99237    11947.245   -3706.8927   -2965.1008    1792.8838    79.079426 
   93400    345.21089   -117.03879   0.31235407   -116.72644    1138.8728    4.2965884    4.2965884    4.2965884    1138.8728   -8864.8331   -446.41404    12727.866    460.89129    1860.0356   -418.18741    79.317911 
   93500    397.08146   -117.08478   0.35928765   -116.72549   -3106.8536    4.2970634    4.2970634    4.2970634   -3106.8536   -17721.721   -4803.3643    13204.525    4464.9859    3411.1428   -766.91164    79.344219 
   93600    480.79276   -117.15931    0.4350314   -116.72427    3769.1298    4.2899275    4.2899275    4.2899275    3769.1298   -9902.7096    1569.6039    19640.495   -759.88522    1693.0441   -4235.0678    78.949587 
   93700    472.68499   -117.15252   0.42769531   -116.72483   -4382.3332    4.2989699    4.2989699    4.2989699   -4382.3332   -13780.622   -7885.6554    8519.2776   -4469.2363   -4037.0356    334.59274    79.449875 
   93800    362.93977    -117.0542   0.32839554    -116.7258   -3416.5384    4.2956788    4.2956788    4.2956788   -3416.5384   -7780.4164   -6673.4646    4204.2658    2195.5461   -4128.0649    2704.2117    79.267544 
   93900    405.81198   -117.09287   0.36718721   -116.72569   -796.75684    4.2911838    4.2911838    4.2911838   -796.75684   -2455.4657   -4817.6791    4882.8743    5138.8583     4332.531    129.73423    79.018969 
   94000    468.51723   -117.14877   0.42392423   -116.72485    2111.1605    4.2971311    4.2971311    4.2971311    2111.1605   -4806.4027   -7177.9204    18317.805   -2053.7051    3978.3682   -2255.2457    79.347966 
   94100    481.78413    -117.1611    0.4359284   -116.72518   -172.10096    4.2950935    4.2950935    4.2950935   -172.10096   -5820.2893    -9933.859    15237.845   -485.24525    2445.7103   -1426.4795    79.235149 
   94200    376.10121   -117.06645   0.34030428   -116.72614   -300.08603    4.2932365    4.2932365    4.2932365   -300.08603   -14824.007   -948.79007    14872.539     4990.698   -1176.3162    1599.4781     79.13242 
   94300    463.34889   -117.14432   0.41924781   -116.72507   -3115.9514    4.2971186    4.2971186    4.2971186   -3115.9514   -7332.4012    -6911.987    4896.5339    2430.8881      -1077.8   -993.29475    79.347277 
   94400     504.6038   -117.18061   0.45657612   -116.72403    4971.5032     4.293218     4.293218     4.293218    4971.5032    3524.8241    -1052.491    12442.177   -4109.0896   -39.665879    415.24701    79.131394 
   94500    447.28791   -117.12957    0.4047155   -116.72485    740.64443    4.2938566    4.2938566    4.2938566    740.64443   -119.20142   -6647.9282    8989.0629   -2259.4453    148.86987   -999.52668    79.166714 
   94600    370.91518   -117.06203   0.33561185   -116.72642   -3788.1445    4.2972467    4.2972467    4.2972467   -3788.1445   -7686.8537   -2769.4737   -908.10607    4407.6992    4344.8195    2088.6952    79.354371 
   94700    399.72479   -117.08782   0.36167939   -116.72614    5039.6601    4.2911941    4.2911941    4.2911941    5039.6601    -2422.364   -1544.9049    19086.249    479.49858     1004.141   -698.82318    79.019537 
   94800     561.3315   -117.23255   0.50790454   -116.72465   -3106.4073     4.294825     4.294825     4.294825   -3106.4073   -4163.3011   -7612.5546    2456.6338   -2727.0689   -966.96571    -2685.455    79.220289 
   94900    454.08497   -117.13611   0.41086562   -116.72524    -5922.421    4.2986134    4.2986134    4.2986134    -5922.421   -13067.767   -4965.2846    265.78823    2364.7083   -1132.2567    2948.8736    79.430113 
   95000    433.52835   -117.11757   0.39226556   -116.72531    74.346815    4.2902022    4.2902022    4.2902022    74.346815   -4648.4091    587.97651     4283.473    4232.1189    3492.4906    -2458.363    78.964752 
   95100     425.4805   -117.11054    0.3849837   -116.72556    3217.3593    4.2947445    4.2947445    4.2947445    3217.3593   -987.73946   -3357.9784    13997.796   -2082.1601    3165.2363     1337.939    79.215831 
   95200     470.3294   -117.15074   0.42556392   -116.72518    546.57346    4.2968615    4.2968615    4.2968615    546.57346    4569.8635   -6969.9019    4039.7588   -2456.2771   -2453.6645   -2054.7432    79.333033 
   95300    469.15096   -117.14981   0.42449765   -116.72532    824.31463     4.291835     4.291835     4.291835    824.31463   -63.616762   -1201.2302    3737.7909    5358.5201    1182.8462    1590.2797    79.054949 
   95400    403.66147    -117.0915   0.36524139   -116.72626    2045.4865    4.2942341    4.2942341    4.2942341    2045.4865   -665.88956   -3534.3128    10336.662    2639.2028    4226.9552    1457.8631    79.187596 
   95500    501.36007   -117.17882   0.45364113   -116.72518   -5609.2387    4.2968049    4.2968049    4.2968049   -5609.2387    1996.2764   -6375.8642   -12448.128   -2758.5125    3410.8653   -5932.0999    79.329899 
   95600    511.01745   -117.18668   0.46237933    -116.7243   -1269.5636    4.2924932    4.2924932    4.2924932   -1269.5636    778.11308   -8331.3844    3744.5805   -433.80377   -3271.8148    1242.1947    79.091324 
   95700    458.95941   -117.14045   0.41527612   -116.72517    1065.3706    4.2952236    4.2952236    4.2952236    1065.3706    1934.3741   -4763.2574    6024.9951    4345.8088   -3035.3054   -1900.5159    79.242349 
   95800    427.44669   -117.11274   0.38676275   -116.72597    602.29266    4.2941976    4.2941976    4.2941976    602.29266    2678.1598   -5678.8686    4807.5868    2091.2864    4266.5592     2553.724    79.185573 
   95900    433.91024   -117.11835    0.3926111   -116.72574    86.841296     4.293923     4.293923     4.293923    86.841296    8025.2132   -2801.6341   -4963.0552   -4365.2107    3635.8112   -905.88405    79.170383 
   96000    551.08542    -117.2232   0.49863367   -116.72457    -530.2431    4.2954566    4.2954566    4.2954566    -530.2431    5329.3224   -7858.2464    938.19466    886.66752    482.36518   -3253.9952    79.255244 
   96100    445.35975   -117.12852   0.40297086   -116.72555    6543.8778    4.2934088    4.2934088    4.2934088    6543.8778    -1484.641    2338.7423    18777.532    3207.3377   -3199.4788    1569.5356    79.141948 
   96200    418.87238   -117.10517   0.37900453   -116.72617   -440.81986    4.2930667    4.2930667    4.2930667   -440.81986   -2380.5837   -419.12177    1477.2459   -1093.6768    1629.1289   -5279.6246    79.123028 
   96300    486.14844   -117.16572   0.43987733   -116.72584   -5878.4213    4.2969108    4.2969108    4.2969108   -5878.4213   -2713.6037   -7550.8102   -7370.8499   -485.04556    2501.6609    277.92171    79.335766 
   96400    469.79044   -117.15043   0.42507627   -116.72536    5517.7793    4.2928601    4.2928601    4.2928601    5517.7793    4826.0476   -1495.8013    13223.092    4602.5428    1513.2305   -281.71718    79.111609 
   96500    527.10797   -117.20216   0.47693837   -116.72522   -3434.6818    4.2927023    4.2927023    4.2927023   -3434.6818   -1753.3453   -5038.0524   -3512.6478     3801.381   -368.98589    1542.4381    79.102883 
   96600    352.49827   -117.04573   0.31894784   -116.72679   -2365.6928    4.2969088    4.2969088    4.2969088   -2365.6928    5064.1603   -2421.5922   -9739.6465   -3612.0654   -1407.6054    -2116.017    79.335657 
   96700    445.75779   -117.12889   0.40333101   -116.72556    384.65426    4.2939187    4.2939187    4.2939187    384.65426    4888.5716   -8600.2913    4865.6826   -209.96952    1131.6617   -6873.7304    79.170149 
   96800    463.34736   -117.14383   0.41924642   -116.72458    5704.3639    4.2934101    4.2934101    4.2934101    5704.3639    1600.3806   -2979.0644    18491.776    4338.9328    822.77273    239.57424     79.14202 
   96900    445.03932   -117.12735   0.40268093   -116.72467   -1127.8722    4.2961589    4.2961589    4.2961589   -1127.8722   -1055.2094   -3249.2612    920.85402    847.11283    3072.1112   -1432.0025    79.294124 
   97000    438.75403   -117.12174   0.39699387   -116.72475   -3924.5932    4.2943791    4.2943791    4.2943791   -3924.5932   -4509.6322     575.4948   -7839.6421   -2200.7226   -69.975224     -1235.07    79.195618 
   97100    381.16295   -117.07046   0.34488425   -116.72558    5853.6078    4.2933094    4.2933094    4.2933094    5853.6078    2753.3845   -5932.4173    20739.856    831.50581   -754.39351   -511.80764    79.136452 
   97200    479.49508   -117.15818   0.43385722   -116.72433   -1252.9697    4.2960114    4.2960114    4.2960114   -1252.9697     -2595.13   -8155.5336    6991.7546    5693.6754    70.180132    1488.1631    79.285957 
   97300    379.10074   -117.06797   0.34301831   -116.72495    1388.3181    4.2938474    4.2938474    4.2938474    1388.3181   -3943.4076   -975.80816      9084.17    -617.8865    59.455697    168.83331    79.166203 
   97400     387.5247   -117.07639   0.35064049   -116.72575   -3043.3246    4.2952934    4.2952934    4.2952934   -3043.3246   -2300.9323   -6527.0692    -301.9722   -2401.2166    802.65059   -3597.9252    79.246209 
   97500     400.8136   -117.08799   0.36266457   -116.72533   -1899.9015    4.2944713    4.2944713    4.2944713   -1899.9015   -4989.8675   -5637.9966    4928.1596    3932.9527   -991.13498   -1886.4522    79.200717 
   97600    437.75544   -117.12121   0.39609032   -116.72512   -3578.3825    4.2941034    4.2941034    4.2941034   -3578.3825   -11584.757   -1671.4172    2521.0272     722.7679     3237.312    756.90921    79.180367 
   97700     426.5585   -117.11137   0.38595909   -116.72541    1180.5863    4.2934695    4.2934695    4.2934695    1180.5863   -9511.1752     6368.881    6684.0529   -2268.0899    777.02478    2457.9776    79.145304 
   97800    310.40688   -117.00773   0.28086267   -116.72687    1491.8722    4.2968415    4.2968415    4.2968415    1491.8722   -9571.3226   -3811.8081    17858.747    682.15225   -1785.1356   -657.84583    79.331926 
   97900    367.54936   -117.05862   0.33256638   -116.72606    2228.7019     4.291921     4.291921     4.291921    2228.7019   -5694.1767   -3956.4341    16336.717     7858.898   -1997.6888    1633.2958      79.0597 
   98000     462.1548   -117.14262   0.41816738   -116.72446   -1475.2658    4.2964948    4.2964948    4.2964948   -1475.2658   -5812.1908   -6681.1918    8067.5851    1654.4896     1653.923   -2135.5168    79.312722 
   98100    420.25766    -117.1045   0.38025797   -116.72424    1919.6502    4.2949624    4.2949624    4.2949624    1919.6502   -3302.6246    549.14387    8512.4312   -4263.0068    4432.6574    -3042.383    79.227891 
   98200    340.65155   -117.03369   0.30822868   -116.72546   -1886.0922    4.2936896    4.2936896    4.2936896   -1886.0922   -11602.691   -9388.8512    15333.266    2171.6584   -310.74203   -2988.7352    79.157477 
   98300    364.83533   -117.05548   0.33011068   -116.72537   -2338.3965    4.2953545    4.2953545    4.2953545   -2338.3965   -9201.7233   -8458.8264     10645.36    4042.6588   -1022.0504    1564.4022    79.249592 
   98400    441.41273   -117.12352   0.39939951   -116.72412   -95.659883    4.2964474    4.2964474    4.2964474   -95.659883   -14680.397    569.71732      13823.7    -478.4081    816.63895    6885.7708    79.310102 
   98500    391.74024   -117.07884    0.3544548   -116.72438   -1088.8381    4.2939477    4.2939477    4.2939477   -1088.8381    -15677.78    2148.9018    10262.364   -2793.6369    3061.9576   -2589.1398    79.171752 
   98600    312.56706   -117.00824   0.28281724   -116.72542   -4188.6965    4.2947165    4.2947165    4.2947165   -4188.6965   -9709.9338   -3631.1512    774.99556    5126.7878   -940.06356   -1449.0735    79.214284 
   98700    433.34945   -117.11641   0.39210368   -116.72431   -5483.9071    4.2974314    4.2974314    4.2974314   -5483.9071   -12477.674    -7259.085     3285.038    5477.2675   -2192.8275   -2973.9774    79.364603 
   98800    418.48152    -117.1027   0.37865087   -116.72405    6307.6274    4.2930785    4.2930785    4.2930785    6307.6274   -7227.9712    4106.1947    22044.659   -2923.3799     3096.373   -662.15748     79.12368 
   98900    397.93646   -117.08574   0.36006128   -116.72568   -1590.2377    4.2945373    4.2945373    4.2945373   -1590.2377   -14060.388   -4410.7667    13700.441    -405.4886    3971.3455    251.80338    79.204369 
   99000    285.00317   -116.98464   0.25787686   -116.72676   -498.97848    4.2969532    4.2969532    4.2969532   -498.97848   -17373.219   -3606.2415    19482.525     3839.762    2011.2688   -1503.7276    79.338113 
   99100    463.16624   -117.14357   0.41908255   -116.72449    202.76915    4.2934695    4.2934695    4.2934695    202.76915   -14427.347    508.24095    14527.414    267.20657    -2747.687    4947.1263    79.145305 
   99200    490.02535   -117.16717   0.44338523   -116.72379   -2066.8226    4.2963268    4.2963268    4.2963268   -2066.8226   -18507.168    6078.3662    6228.3336   -3952.2811   -1092.9422   -1284.3973    79.303424 
   99300    344.26869   -117.03717   0.31150155   -116.72567   -2660.3929    4.2954624    4.2954624    4.2954624   -2660.3929   -19989.132   -2786.7376    14794.691    2863.2893   -344.53862   -1437.4895    79.255564 
   99400    361.36493   -117.05284   0.32697058   -116.72587   -2359.9641    4.2931283    4.2931283    4.2931283   -2359.9641   -11307.081   -6987.2501    11214.439    8420.4476    1205.4981   -6093.0402    79.126438 
   99500    374.99318   -117.06447   0.33930171   -116.72517      2294.89    4.2973449    4.2973449    4.2973449      2294.89    -7266.806   -4247.5674    18399.043   -660.20828    2993.3984   -830.25642    79.359812 
   99600    465.22487   -117.14464   0.42094524    -116.7237   -2199.7503    4.2945669    4.2945669    4.2945669   -2199.7503   -12591.289   -6456.8903    12448.928   -2537.7287    2249.1919     1656.499    79.206008 
   99700    305.50196   -117.00167   0.27642459   -116.72524    388.43739    4.2930859    4.2930859    4.2930859    388.43739   -7688.9641   -3950.3009    12804.577    2674.5472     -437.837   -1683.9353    79.124093 
   99800    408.50232   -117.09497   0.36962148   -116.72535   -6769.1456    4.2977961    4.2977961    4.2977961   -6769.1456   -10505.474   -7819.8141   -1982.1484    2558.6966   -3548.7196     2657.873     79.38481 
   99900    431.00333   -117.11431   0.38998087   -116.72433    1052.9137    4.2947416    4.2947416    4.2947416    1052.9137   -15594.073    2776.2531    15976.561    -2945.054    619.89122   -1990.3827    79.215671 
  100000    392.19374   -117.07974   0.35486513   -116.72487    5484.4938    4.2910268    4.2910268    4.2910268    5484.4938    -13645.78    2592.2162    27507.045   -2591.6778     2467.252   -3190.7022    79.010295 
Loop time of 22.315 on 1 procs for 100000 steps with 8 atoms

Pair  time (%) = 7.20612 (32.2927)
Kspce time (%) = 5.34732 (23.9629)
Neigh time (%) = 0 (0)
Comm  time (%) = 1.06495 (4.77236)
Outpt time (%) = 0.0249283 (0.111711)
Other time (%) = 8.67165 (38.8602)

Nlocal:    8 ave 8 max 8 min
Histogram: 1 0 0 0 0 0 0 0 0 0
Nghost:    2189 ave 2189 max 2189 min
Histogram: 1 0 0 0 0 0 0 0 0 0
Neighs:    2344 ave 2344 max 2344 min
Histogram: 1 0 0 0 0 0 0 0 0 0

Total # of neighbors = 2344
Ave neighs/atom = 293
Neighbor list builds = 0
Dangerous builds = 0
unfix 20
unfix 21
print "seeds:6633561"
seeds:6633561
